********************************************************************************
Field Output Report, written Tue May  6 14:49:22 2025

Source 1
---------

   ODB: D:/AISI_1020/Vel_20/1020_2a_40_rd_500_cal_10_v_20_f_0100.odb
   Step: Step-1
   Frame: Increment   4758182: Step Time =   0.5758

Loc 1 : Nodal values from source 1

Output sorted by column "Node Label".

Field Output reported at nodes for region: DIE_2A_40_D0_36-1.Region_1
   Computation algorithm: EXTRAPOLATE_COMPUTE_AVERAGE
   Averaged at nodes
   Averaging regions: ODB_REGIONS

      Node Label     COORD.COOR1     COORD.COOR2
                          @Loc 1          @Loc 1
-------------------------------------------------
               1     22.9485E-03     167.359E-03


Field Output reported at nodes for region: DIE_2A_40_D0_36-1.Region_2
   Computation algorithm: EXTRAPOLATE_COMPUTE_AVERAGE
   Averaged at nodes
   Averaging regions: ODB_REGIONS

      Node Label     COORD.COOR1     COORD.COOR2
                          @Loc 1          @Loc 1
-------------------------------------------------
               1     22.9485E-03     167.359E-03


Field Output reported at nodes for part: WIRE_1-1
   Computation algorithm: EXTRAPOLATE_COMPUTE_AVERAGE
   Averaged at nodes
   Averaging regions: ODB_REGIONS

      Node Label     COORD.COOR1     COORD.COOR2    ER.Max. Prin    ER.Mid. Prin    ER.Min. Prin         ER.ER11         ER.ER22         ER.ER33         ER.ER12    PE.Max. Prin    PE.Mid. Prin    PE.Min. Prin         PE.PE11         PE.PE22         PE.PE33         PE.PE12     S.Max. Prin     S.Mid. Prin     S.Min. Prin           S.S11           S.S22           S.S33           S.S12            TEMP
                          @Loc 1          @Loc 1          @Loc 1          @Loc 1          @Loc 1          @Loc 1          @Loc 1          @Loc 1          @Loc 1          @Loc 1          @Loc 1          @Loc 1          @Loc 1          @Loc 1          @Loc 1          @Loc 1          @Loc 1          @Loc 1          @Loc 1          @Loc 1          @Loc 1          @Loc 1          @Loc 1          @Loc 1
-----------------------------------------------------------------------------------------------------------------------------------------------------------------------------------------------------------------------------------------------------------------------------------------------------------------------------------------------------------------------------------------------------------------
               1     16.9295E-03     63.6979E-03         3.13193    -863.408E-03        -1.03648    -863.404E-03         3.13192        -1.03648    -501.186E-06     303.187E-03    -62.5767E-03    -240.330E-03    -94.3661E-03     157.223E-03    -62.5767E-03     481.762E-03     163.021E+06     158.926E+06    -5.05015E+06    -5.04499E+06     158.920E+06     163.021E+06     322.373E+03         74.8983
               2     278.966E-09     62.1501E-03         3.91077     703.148E-03        -3.31566     932.148E-03         3.68177        -3.31566        -1.65162     125.579E-03    -62.2470E-03    -63.3273E-03    -63.3266E-03     125.578E-03    -62.2470E-03    -775.708E-06    -77.8672E+06    -79.7394E+06    -264.161E+06    -79.7646E+06    -264.069E+06    -77.9341E+06     2.84429E+06         29.6032
               3     668.191E-09     357.628E-09         4.82796        -1.54178        -1.60068        -1.59979         4.82708        -1.54178     150.699E-03     263.543E-03    -131.271E-03    -132.278E-03    -132.277E-03     263.543E-03    -131.271E-03    -800.559E-06    -67.3864E+06    -68.3308E+06    -243.590E+06    -67.4290E+06    -243.547E+06    -68.3308E+06    -2.73883E+06         40.5753
               4     16.5144E-03     357.628E-09         4.89492        -1.36341        -1.44491        -1.35734         4.88885        -1.44491     389.579E-03     429.237E-03    -76.9827E-03    -351.820E-03    -311.945E-03     389.362E-03    -76.9827E-03     343.829E-03     156.804E+06     154.166E+06     24.4113E+06     55.4100E+06     123.167E+06     156.804E+06     55.3291E+06         57.9606
               5     16.0822E-03     126.451E-03     512.322E-03    -30.7402E-03    -192.827E-03    -133.429E-03    -90.1378E-03     512.322E-03    -156.198E-03     51.6738E-03     46.8087E-03    -98.4831E-03     47.6586E-03     50.8238E-03    -98.4831E-03     3.69474E-03     12.1624E+06    -47.4529E+06    -117.622E+06    -19.9659E+06    -15.3246E+06    -117.622E+06    -29.7172E+06         46.9461
               6     5.81478E-06     122.683E-03     214.679E-03     208.666E-03    -113.730E-03     207.943E-03    -106.995E-03     208.666E-03    -93.0924E-03     50.9424E-03    -24.4079E-03    -26.5350E-03    -26.4929E-03     50.9004E-03    -24.4079E-03    -3.60852E-03     58.6766E+06     57.7097E+06    -12.5438E+06     55.3916E+06    -10.2258E+06     58.6766E+06    -12.5489E+06         23.1410
               7     15.9791E-03     63.1025E-03         3.18121    -880.804E-03        -1.05816    -880.795E-03         3.18121        -1.05816     6.25852E-03     291.588E-03    -62.6150E-03    -228.771E-03    -91.2388E-03     154.056E-03    -62.6150E-03     458.876E-03     147.533E+06     141.561E+06    -10.0024E+06    -9.93490E+06     141.493E+06     147.533E+06     966.506E+03         73.0858
               8     15.0424E-03     62.5889E-03         3.26730    -916.286E-03        -1.09693    -916.272E-03         3.26728        -1.09693    -1.25600E-03     224.428E-03    -62.6020E-03    -161.720E-03    -77.0882E-03     139.795E-03    -62.6020E-03     315.130E-03     116.959E+06     107.455E+06    -17.0812E+06    -17.0057E+06     107.379E+06     116.959E+06     1.05849E+06         68.4311
               9     14.1020E-03     62.3665E-03         3.33475    -952.094E-03        -1.12497    -952.077E-03         3.33474        -1.12497    -8.09780E-03     151.855E-03    -62.4713E-03    -89.3547E-03    -63.9334E-03     126.434E-03    -62.4713E-03     142.954E-03     87.8450E+06     80.0077E+06    -23.6299E+06    -23.5991E+06     82.2339E+06     85.5879E+06    -747.189E+03         62.4002
              10     13.1620E-03     62.2637E-03         3.38789    -985.440E-03        -1.14443    -985.408E-03         3.38786        -1.14443     13.2498E-03     131.258E-03    -62.3280E-03    -69.0049E-03    -61.0485E-03     123.301E-03    -62.3280E-03     77.1840E-03     68.2032E+06     50.4591E+06    -32.2654E+06    -32.1626E+06     68.1004E+06     50.4591E+06    -2.12981E+06         56.3222
              11     12.2203E-03     62.1922E-03         3.42772        -1.00805        -1.16050        -1.00799         3.42766        -1.16050    -4.36103E-03     125.714E-03    -61.9877E-03    -63.8333E-03    -60.4250E-03     122.519E-03    -62.2005E-03     45.9612E-03     59.3993E+06     11.8183E+06    -38.8253E+06    -38.7190E+06     59.2929E+06     11.8183E+06    -1.35719E+06         50.8633
              12     11.2798E-03     62.1618E-03         3.47496        -1.03909        -1.17445        -1.03904         3.47490        -1.17445    -6.64820E-03     123.316E-03    -61.2547E-03    -62.1091E-03    -60.5848E-03     122.646E-03    -62.1091E-03     20.3974E-03     51.5717E+06    -15.6900E+06    -40.9184E+06    -40.8617E+06     51.5150E+06    -15.6900E+06     964.117E+03         46.0546
              13     10.3383E-03     62.1497E-03         3.52456        -1.07536        -1.18625        -1.07530         3.52451        -1.18625    -2.31433E-03     123.161E-03    -61.0030E-03    -62.1915E-03    -60.8449E-03     123.003E-03    -62.1915E-03     10.7488E-03     14.1109E+06    -28.6484E+06    -41.5940E+06    -41.3793E+06     6.30477E+06    -21.0569E+06     1.80022E+06         41.8980
              14     9.39795E-03     62.1402E-03         3.56625        -1.10530        -1.19651        -1.10521         3.56616        -1.19651    -32.7347E-03     123.620E-03    -61.3483E-03    -62.3224E-03    -61.2582E-03     123.530E-03    -62.3224E-03     7.91245E-03    -23.6052E+06    -39.2159E+06    -59.0563E+06    -43.3833E+06    -54.8890E+06    -23.6052E+06    -82.7108E+03         38.3969
              15     8.45743E-03     62.1346E-03         3.61300        -1.14373        -1.20487        -1.14367         3.61294        -1.20487    -24.9892E-03     123.945E-03    -61.5729E-03    -62.4131E-03    -61.5479E-03     123.920E-03    -62.4131E-03     3.63006E-03    -26.2940E+06    -47.4654E+06    -105.358E+06    -47.6533E+06    -105.170E+06    -26.2940E+06     418.335E+03         35.5798
              16     7.51747E-03     62.1337E-03         3.64717        -1.16842        -1.21107        -1.16828         3.64704        -1.21107     28.7485E-03     124.274E-03    -61.7849E-03    -62.5089E-03    -61.7836E-03     124.273E-03    -62.5089E-03     745.454E-06    -27.1013E+06    -52.8935E+06    -150.007E+06    -53.0918E+06    -149.809E+06    -27.1013E+06     1.61612E+06         33.4864
              17     6.57744E-03     62.1342E-03         3.66329        -1.17619        -1.21765        -1.17708         3.66306        -1.21652     4.83196E-03     124.576E-03    -61.9883E-03    -62.5705E-03    -61.9867E-03     124.574E-03    -62.5705E-03    -695.411E-06    -29.5542E+06    -56.2566E+06    -187.404E+06    -56.3115E+06    -187.349E+06    -29.5542E+06     1.32965E+06         32.0459
              18     5.63746E-03     62.1368E-03         3.68125        -1.18765        -1.22312        -1.18845         3.68091        -1.22199     10.5297E-03     124.812E-03    -62.1541E-03    -62.6194E-03    -62.1500E-03     124.808E-03    -62.6194E-03    -1.71281E-03    -31.8971E+06    -58.6388E+06    -217.145E+06    -58.6641E+06    -217.120E+06    -31.8971E+06     1.88120E+06         31.0567
              19     4.69741E-03     62.1389E-03         3.70323        -1.20831        -1.22646        -1.20752         3.70244        -1.22646    -30.6135E-03     125.023E-03    -62.3633E-03    -62.6281E-03    -62.3572E-03     125.017E-03    -62.6281E-03    -2.11231E-03    -39.8823E+06    -62.2715E+06    -232.822E+06    -62.2911E+06    -232.802E+06    -39.8823E+06     1.59100E+06         30.4195
              20     3.75823E-03     62.1428E-03         3.72363        -1.22522        -1.22894        -1.22224         3.72065        -1.22894     81.2635E-03     125.160E-03    -62.5085E-03    -62.6516E-03    -62.5554E-03     125.152E-03    -62.5973E-03    -2.33848E-03    -50.4964E+06    -66.6564E+06    -245.211E+06    -66.6621E+06    -245.205E+06    -50.4964E+06     980.842E+03         30.0713
              21     2.81897E-03     62.1449E-03         3.74503        -1.22792        -1.24373        -1.23631         3.73786        -1.22817    -58.3145E-03     125.097E-03    -62.4334E-03    -62.6824E-03    -62.5385E-03     125.090E-03    -62.5707E-03    -2.19944E-03    -60.4652E+06    -69.6426E+06    -251.737E+06    -69.6491E+06    -251.730E+06    -60.4652E+06     737.510E+03         29.8631
              22     1.87904E-03     62.1476E-03         3.76227        -1.21920        -1.26697        -1.24877         3.74408        -1.21920     154.283E-03     125.005E-03    -62.3531E-03    -62.6555E-03    -62.4059E-03     125.001E-03    -62.5981E-03    -1.82469E-03    -66.3849E+06    -72.7014E+06    -255.233E+06    -72.7248E+06    -255.210E+06    -66.3849E+06     742.979E+03         29.7158
              23     939.414E-06     62.1504E-03         3.83928    -254.283E-03        -2.29589    -158.535E-03         3.71132        -2.26368    -461.028E-03     125.298E-03    -62.3104E-03    -62.9766E-03    -62.8484E-03     125.295E-03    -62.4364E-03    -1.17617E-03    -72.8662E+06    -77.3916E+06    -260.151E+06    -77.4235E+06    -260.086E+06    -72.8997E+06     1.87572E+06         29.6301
              24     680.309E-09     61.0189E-03         4.16264     462.393E-03        -3.32353     742.147E-03         3.88288        -3.32353        -1.95490     125.448E-03    -62.3678E-03    -63.0745E-03    -62.8747E-03     125.447E-03    -62.5666E-03    -863.681E-06    -70.9355E+06    -74.0044E+06    -257.632E+06    -72.8023E+06    -257.571E+06    -72.1991E+06    -2.47806E+06         29.5987
              25    -1.08145E-06     59.8858E-03         4.48702     242.708E-03        -3.42071     572.991E-03         4.15673        -3.42071        -2.27358     124.932E-03    -62.0509E-03    -62.8799E-03    -62.6779E-03     124.928E-03    -62.2497E-03    -1.46679E-03    -75.3642E+06    -78.1186E+06    -260.937E+06    -75.4914E+06    -260.810E+06    -78.1186E+06     64.7922E+03         29.5992
              26     2.22774E-06     58.7542E-03         4.68069     103.594E-03        -3.46230     427.251E-03         4.35704        -3.46230        -2.34528     125.058E-03    -62.0396E-03    -63.0265E-03    -63.0235E-03     125.055E-03    -62.0396E-03    -578.093E-06    -74.7138E+06    -79.9172E+06    -260.874E+06    -78.4928E+06    -260.807E+06    -76.2047E+06     2.69898E+06         29.6069
              27    -1.48521E-06     57.6218E-03         4.70965    -58.6185E-03        -3.32734     235.987E-03         4.41505        -3.32734        -2.29428     125.593E-03    -62.5892E-03    -63.0033E-03    -62.9421E-03     125.589E-03    -62.6466E-03    -719.174E-06      -70.61E+06    -76.6786E+06    -256.709E+06    -74.3514E+06    -256.680E+06    -72.9661E+06    -1.37311E+06         29.6118
              28     1.32161E-06     56.4887E-03         4.82224    -240.231E-03        -3.23092     58.6974E-03         4.52331        -3.23092        -2.38632     125.059E-03    -62.3629E-03    -62.6909E-03    -62.6299E-03     125.056E-03    -62.4203E-03    -1.42690E-03    -73.8877E+06    -76.2880E+06    -257.450E+06    -73.9813E+06    -257.401E+06    -76.2438E+06    -218.371E+03         29.6089
              29    -824.580E-09     55.3574E-03         4.95507    -461.024E-03        -3.12636    -189.910E-03         4.68395        -3.12636        -2.34798     124.710E-03    -62.1290E-03    -62.5855E-03    -62.5852E-03     124.710E-03    -62.1290E-03    -361.870E-06    -72.9550E+06    -73.7693E+06    -257.811E+06    -73.8040E+06    -257.776E+06    -72.9550E+06     2.51214E+06         29.6081
              30     1.17357E-06     54.2245E-03         4.96104    -649.510E-03        -2.91530    -456.188E-03         4.76772        -2.91530        -2.03992     125.248E-03    -62.1400E-03    -63.1005E-03    -63.0999E-03     125.248E-03    -62.1400E-03    -529.482E-06    -69.9779E+06    -71.1356E+06    -256.033E+06    -71.1507E+06    -256.018E+06    -69.9779E+06     748.335E+03         29.6071
              31     296.151E-09     53.0934E-03         4.92882    -883.092E-03        -2.63008    -728.612E-03         4.77434        -2.63008        -1.86757     124.625E-03    -61.6166E-03    -62.9971E-03    -62.3897E-03     124.623E-03    -62.2224E-03    -1.08071E-03    -71.8619E+06    -75.1782E+06    -256.737E+06    -72.2543E+06    -256.732E+06    -74.7906E+06    -918.728E+03         29.5941
              32    -1.47995E-06     51.9622E-03         4.97536        -1.20883        -2.34686        -1.07610         4.84264        -2.34686        -1.78900     124.140E-03    -61.5892E-03    -62.5506E-03    -61.9432E-03     124.138E-03    -62.1950E-03    -1.07007E-03    -73.9756E+06    -79.4781E+06    -258.070E+06    -76.5610E+06    -258.058E+06    -76.9043E+06     316.239E+03         29.5847
              33     2.16896E-06     50.8301E-03         5.04499        -1.47708        -2.11455        -1.36222         4.93013        -2.11455        -1.71444     125.044E-03    -61.8878E-03    -63.1517E-03    -63.1511E-03     125.043E-03    -61.8878E-03    -374.458E-06    -71.8699E+06    -75.1355E+06    -255.708E+06    -74.4522E+06    -255.699E+06    -72.5617E+06     786.211E+03         29.5942
              34    -444.654E-09     49.6976E-03         4.93510        -1.54937        -1.91291        -1.61022         4.84265        -1.75961        -1.55003     125.034E-03    -61.9362E-03    -63.0947E-03    -62.8416E-03     125.032E-03    -62.1863E-03    -952.481E-06    -70.6740E+06    -72.5612E+06    -254.422E+06    -70.6741E+06    -254.421E+06    -72.5612E+06    -165.403E+03         29.6011
              35    -56.3925E-09     48.5678E-03         4.81209        -1.35713        -1.95783        -1.90014         4.75440        -1.35713        -1.22412     124.651E-03    -62.0448E-03    -62.6056E-03    -62.3520E-03     124.647E-03    -62.2949E-03    -1.50461E-03    -74.5433E+06    -77.5127E+06    -257.046E+06    -76.3176E+06    -257.045E+06    -75.7387E+06     53.6511E+03         29.5928
              36     652.186E-09     47.4337E-03         4.79781    -978.890E-03        -2.30266        -2.26476         4.75991    -978.890E-03        -1.03458     124.933E-03    -61.9615E-03    -62.9690E-03    -62.9683E-03     124.932E-03    -61.9615E-03    -689.844E-06    -75.0196E+06    -77.4306E+06    -258.038E+06    -76.8036E+06    -258.028E+06    -75.6567E+06    -808.719E+03         29.5810
              37     641.957E-09     46.3022E-03         4.75958    -577.519E-03        -2.64809        -2.61683         4.72832    -577.519E-03    -954.925E-03     123.891E-03    -61.5928E-03    -62.2986E-03    -62.2886E-03     123.890E-03    -61.6019E-03    -767.605E-06    -77.8931E+06    -79.0530E+06    -259.206E+06    -77.9029E+06    -259.196E+06    -79.0530E+06    -959.861E+03         29.5726
              38    -675.311E-09     45.1727E-03         4.68606    -224.000E-03        -2.90547        -2.87863         4.65923    -224.000E-03    -900.786E-03     123.701E-03    -61.6877E-03    -62.0140E-03    -62.0041E-03     123.700E-03    -61.6968E-03    -419.479E-06    -75.7116E+06    -76.4379E+06    -256.103E+06    -75.9539E+06    -256.065E+06    -76.2344E+06     1.87180E+06         29.5751
              39     1.26522E-06     44.0423E-03         4.55307     169.009E-03        -3.14119        -3.11789         4.52977     169.009E-03    -839.840E-03     125.194E-03    -62.2735E-03    -62.9212E-03    -62.9196E-03     125.193E-03    -62.2735E-03    -657.984E-06    -72.0701E+06    -73.6718E+06    -256.252E+06    -73.7485E+06    -256.176E+06    -72.0701E+06     23.4267E+03         29.5877
              40    -672.388E-09     42.9071E-03         4.38862     525.826E-03        -3.31558        -3.29705         4.37008     525.826E-03    -754.775E-03     124.785E-03    -62.1645E-03    -62.6189E-03    -62.6163E-03     124.782E-03    -62.1645E-03    -1.40177E-03    -70.7678E+06    -75.1024E+06    -257.866E+06    -72.2074E+06    -257.824E+06    -73.7044E+06    -2.43755E+06         29.5960
              41     851.637E-09     41.7795E-03         4.36937     799.709E-03        -3.52377        -3.50545         4.35105     799.709E-03    -759.186E-03     124.390E-03    -62.0172E-03    -62.3713E-03    -62.3701E-03     124.389E-03    -62.0172E-03    -886.650E-06    -73.7513E+06    -80.1829E+06    -260.124E+06    -77.2506E+06    -260.119E+06    -76.6878E+06    -321.384E+03         29.6015
              42    -383.928E-09     40.6450E-03         4.28578         1.11832        -3.75790        -3.73701         4.26489         1.11832    -815.906E-03     125.142E-03    -62.2109E-03    -62.9285E-03    -62.9276E-03     125.141E-03    -62.2109E-03    -768.637E-06    -77.4850E+06    -83.5292E+06    -262.476E+06    -80.9819E+06    -262.474E+06    -80.0341E+06      582.63E+03         29.6141
              43     1.25572E-06     39.5135E-03         4.07052         1.44779        -3.86137        -3.83558         4.04473         1.44779    -902.562E-03     125.297E-03    -62.1949E-03    -63.0989E-03    -63.0980E-03     125.296E-03    -62.1949E-03    -793.499E-06    -76.9434E+06    -79.9555E+06    -259.559E+06    -77.4224E+06    -259.543E+06    -79.4926E+06     1.47711E+06         29.6258
              44    -481.761E-09     38.3814E-03         3.87072         1.75135        -3.93612        -3.90981         3.84441         1.75135    -904.685E-03     125.262E-03    -62.2873E-03    -62.9871E-03    -62.7029E-03     125.261E-03    -62.5706E-03    -805.805E-06    -75.3558E+06    -76.9549E+06    -257.339E+06    -76.9852E+06    -257.308E+06    -75.3558E+06    -32.2332E+03         29.6281
              45    -21.8276E-09     37.2485E-03         3.79455         1.98432        -4.09553        -4.05984         3.75887         1.98432        -1.04848     125.042E-03    -62.3411E-03    -62.7166E-03    -62.4325E-03     125.042E-03    -62.6244E-03    -683.254E-06    -72.5489E+06    -75.2677E+06    -257.141E+06    -73.7066E+06    -257.120E+06    -74.1316E+06    -1.93760E+06         29.6241
              46     163.663E-09     36.1155E-03         3.76180         2.16512        -4.22334        -4.15967         3.69813         2.16512        -1.40566     124.735E-03    -62.1675E-03    -62.5744E-03    -62.5743E-03     124.735E-03    -62.1675E-03    -100.322E-06    -72.1733E+06    -73.9837E+06    -257.610E+06    -72.1930E+06    -257.590E+06    -73.9837E+06     368.305E+03         29.6216
              47     415.784E-09     34.9847E-03         3.59612         2.34524        -4.25438        -4.16324         3.50498         2.34524        -1.67874     125.150E-03    -62.3279E-03    -62.8114E-03    -62.8113E-03     125.150E-03    -62.3279E-03    -101.074E-06    -73.7195E+06    -75.6638E+06    -260.736E+06    -75.4558E+06    -260.716E+06    -73.9471E+06     369.992E+03         29.6264
              48    -72.7137E-09     33.8530E-03         3.55830         2.43364        -4.28380        -4.18136         3.45586         2.43364        -1.78089     125.445E-03    -62.3652E-03    -63.0824E-03    -63.0794E-03     125.442E-03    -62.3652E-03    -1.20903E-03    -73.4985E+06    -78.4019E+06    -260.128E+06    -75.2272E+06    -260.116E+06    -76.6853E+06    -11.4552E+03         29.6325
              49     1.00711E-06     32.7201E-03         3.51568         2.48732        -4.27421        -4.15700         3.39848         2.48732        -1.89237     124.961E-03    -61.9228E-03    -63.0566E-03    -63.0531E-03     124.957E-03    -61.9228E-03    -1.52078E-03    -70.9371E+06    -78.7767E+06    -257.427E+06    -75.5969E+06    -257.420E+06    -74.1239E+06     440.974E+03         29.6298
              50     140.679E-09     31.5894E-03         3.33599         2.54610        -4.13611        -3.98732         3.18720         2.54610        -2.08189     124.829E-03    -62.0937E-03    -62.7379E-03    -62.7363E-03     124.827E-03    -62.0937E-03    -1.10535E-03    -69.6162E+06    -78.9871E+06    -257.878E+06    -74.2790E+06    -257.868E+06    -74.3342E+06    -1.21831E+06         29.6164
              51    -109.810E-09     30.4562E-03         3.32714         2.45553        -4.03365        -3.86021         3.15370         2.45553        -2.23277     124.722E-03    -62.1821E-03    -62.5418E-03    -62.5386E-03     124.719E-03    -62.1821E-03    -1.52061E-03    -71.5499E+06    -79.7552E+06    -257.678E+06    -75.0786E+06    -257.636E+06    -76.2679E+06     772.107E+03         29.5991
              52     699.156E-09     29.3251E-03         3.37441         2.30974        -3.94470        -3.75622         3.18593         2.30974        -2.31752     124.625E-03    -61.8785E-03    -62.7434E-03    -62.7412E-03     124.623E-03    -61.8785E-03    -1.01883E-03    -76.0261E+06    -81.6200E+06    -259.714E+06    -79.5478E+06    -259.679E+06    -78.1327E+06     1.26818E+06         29.5919
              53     329.715E-09     28.1929E-03         3.30109         2.17292        -3.70431        -3.52370         3.12048         2.17292        -2.21938     125.131E-03    -62.2634E-03    -62.8669E-03    -62.8269E-03     125.131E-03    -62.3030E-03    -516.236E-06    -74.0407E+06    -78.6652E+06    -257.552E+06    -76.5627E+06    -257.548E+06    -76.1473E+06    -864.907E+03         29.5928
              54    -382.299E-09     27.0605E-03         3.28925         2.00905        -3.53349        -3.36117         3.11693         2.00905        -2.14050     125.088E-03    -62.3691E-03    -62.7208E-03    -62.6798E-03     125.087E-03    -62.4088E-03    -1.01665E-03    -74.4778E+06    -79.2794E+06    -257.949E+06    -77.0054E+06    -257.939E+06    -76.7615E+06    -1.27538E+06         29.5849
              55     919.262E-09     25.9283E-03         3.30138         1.82524        -3.36823        -3.19506         3.12821         1.82524        -2.12123     124.141E-03    -61.8754E-03    -62.2682E-03    -62.2669E-03     124.140E-03    -61.8754E-03    -318.089E-06    -72.3484E+06    -77.0303E+06    -257.242E+06    -74.7837E+06    -257.205E+06    -74.6321E+06     800.173E+03         29.5644
              56    -746.143E-09     24.7965E-03         3.23972         1.58412        -3.06840        -2.90893         3.08025         1.58412        -1.98041     123.382E-03    -61.5640E-03    -61.8243E-03    -61.6445E-03     123.382E-03    -61.7434E-03     127.304E-06    -70.3955E+06    -76.2159E+06    -254.548E+06    -72.8326E+06    -254.509E+06    -73.8176E+06     710.975E+03         29.5373
              57     355.962E-09     23.6690E-03         3.19107         1.34961        -2.80813        -2.68529         3.06822         1.34961        -1.68770     122.988E-03    -61.1011E-03    -61.8903E-03    -61.7072E-03     122.984E-03    -61.2805E-03    -1.33830E-03    -74.0149E+06    -79.7561E+06    -256.950E+06    -76.3432E+06    -256.940E+06    -77.4371E+06    -906.209E+03         29.5090
              58     798.207E-09     22.5389E-03         3.23415         1.10868        -2.62946        -2.52626         3.13095         1.10868        -1.53982     122.859E-03    -60.8255E-03    -62.0346E-03    -62.0309E-03     122.855E-03    -60.8255E-03    -1.03163E-03    -76.7942E+06    -80.3300E+06    -259.060E+06    -79.1133E+06    -259.060E+06    -78.0109E+06    -63.8265E+03         29.4797
              59     300.155E-09     21.4086E-03         3.37421     806.279E-03        -2.44991        -2.36355         3.28786     806.279E-03        -1.38931     122.985E-03    -61.0942E-03    -61.8924E-03    -61.8901E-03     122.983E-03    -61.0942E-03    -794.565E-06    -76.1593E+06    -78.0006E+06    -256.873E+06    -76.8291E+06    -256.827E+06    -77.3760E+06     1.92933E+06         29.4341
              60     54.7335E-09     20.2796E-03         3.47166     537.133E-03        -2.26091        -2.20336         3.41411     537.133E-03        -1.14296     121.564E-03    -60.5613E-03    -61.0036E-03    -60.7544E-03     121.558E-03    -60.8048E-03    -2.02752E-03    -76.6491E+06    -77.4685E+06    -256.585E+06    -77.4055E+06    -256.453E+06     -76.844E+06    -782.180E+03         29.3493
              61    -539.971E-09     19.1530E-03         3.47366     337.747E-03        -2.10345        -2.05550         3.42571     337.747E-03        -1.02646     119.789E-03    -59.7026E-03    -60.0876E-03    -59.8406E-03     119.785E-03    -59.9460E-03    -1.36561E-03    -77.9710E+06    -80.0054E+06    -259.049E+06    -78.1025E+06    -258.918E+06    -80.0054E+06    -772.387E+03         29.2214
              62     768.183E-09     18.0266E-03         3.51622     48.4481E-03        -1.86438        -1.83312         3.48496     48.4481E-03    -811.354E-03     118.523E-03    -59.0611E-03    -59.4610E-03    -59.4545E-03     118.516E-03    -59.0611E-03    -1.75992E-03    -73.6552E+06    -77.6437E+06    -256.899E+06    -75.8490E+06    -256.854E+06    -75.4947E+06     1.95966E+06         29.0406
              63    -281.679E-09     16.9046E-03         3.65424    -244.700E-03        -1.69867        -1.68324         3.63881    -244.700E-03    -554.558E-03     115.111E-03    -57.2689E-03    -57.8427E-03    -57.8315E-03     115.100E-03    -57.2689E-03    -2.77900E-03    -71.3810E+06    -75.9148E+06    -253.665E+06    -73.5325E+06    -253.663E+06    -73.7658E+06     414.893E+03         28.7707
              64     830.786E-09     15.7837E-03         3.82138    -476.443E-03        -1.62337        -1.61513         3.81314    -476.443E-03    -423.330E-03     110.207E-03    -54.9444E-03    -55.2670E-03    -55.2580E-03     110.198E-03    -54.9444E-03    -2.44816E-03    -73.4125E+06    -78.2065E+06    -253.058E+06    -75.8287E+06    -253.051E+06    -75.7974E+06     1.10625E+06         28.3926
              65    -815.859E-09     14.6732E-03         3.92411    -712.485E-03        -1.48593        -1.47856         3.91674    -712.485E-03    -397.974E-03     104.683E-03    -52.2877E-03    -52.3975E-03    -52.2792E-03     104.667E-03    -52.3904E-03    -3.03439E-03    -75.0239E+06    -81.3894E+06    -254.095E+06    -77.4402E+06    -254.088E+06    -78.9803E+06     142.933E+03         27.9121
              66     525.020E-09     13.5652E-03         4.01583    -888.409E-03        -1.42293        -1.41825         4.01116    -888.409E-03    -313.848E-03     97.2491E-03    -48.3912E-03    -48.8558E-03    -48.7244E-03     97.2204E-03    -48.4938E-03    -4.06321E-03    -73.6293E+06    -80.7894E+06    -252.109E+06    -76.8399E+06    -252.102E+06    -77.5858E+06    -1.09634E+06         27.3389
              67     160.698E-09     12.4712E-03         4.14353        -1.06765        -1.38592        -1.38359         4.14119        -1.06765    -223.790E-03     88.3315E-03    -43.6413E-03    -44.6882E-03    -44.6540E-03     88.2973E-03    -43.6413E-03    -4.26535E-03    -72.9720E+06    -77.7828E+06    -248.406E+06    -76.2029E+06    -248.379E+06    -74.5792E+06     801.770E+03         26.7271
              68     1.07798E-06     11.3829E-03         4.25803        -1.19571        -1.35297        -1.35161         4.25666        -1.19571    -174.794E-03     79.2725E-03    -39.2533E-03    -40.0226E-03    -39.9019E-03     79.2361E-03    -39.3376E-03    -4.15670E-03    -70.2659E+06    -73.0942E+06    -241.384E+06    -71.5107E+06    -241.360E+06    -71.8731E+06     1.17701E+06         26.2468
              69    -1.28245E-06     10.3085E-03         4.36595        -1.24150        -1.39350        -1.39269         4.36514        -1.24150    -132.020E-03     70.7644E-03    -35.1011E-03    -35.6637E-03    -35.0659E-03     70.7291E-03    -35.6637E-03    -3.86212E-03    -66.9416E+06    -70.8668E+06    -235.633E+06    -68.2025E+06    -235.593E+06    -69.6457E+06     1.57957E+06         26.0823
              70     272.164E-09     9.23784E-03         4.45410        -1.33143        -1.43557        -1.40971         4.45357        -1.35675    -111.587E-03     65.0717E-03    -31.9783E-03    -33.0918E-03    -32.5931E-03     65.0513E-03    -32.4565E-03    -2.71222E-03    -61.4425E+06    -67.2826E+06    -229.604E+06    -64.6684E+06    -229.514E+06    -64.1466E+06     3.83734E+06         26.2748
              71     972.007E-09     8.17603E-03         4.64858        -1.44131        -1.49607        -1.47041         4.64825        -1.46664    -56.0329E-03     64.0555E-03    -31.6248E-03    -32.4299E-03    -32.4247E-03     64.0503E-03    -31.6248E-03    -1.27183E-03    -51.8385E+06    -55.1065E+06    -220.340E+06    -55.1583E+06    -220.288E+06    -51.8385E+06     1.72527E+06         26.8033
              72    -656.415E-09     7.10998E-03         4.78726        -1.50725        -1.55440        -1.55373         4.78658        -1.50725     98.4876E-03     70.3528E-03    -35.0628E-03    -35.2883E-03    -35.2301E-03     70.3503E-03    -35.1185E-03     330.934E-06    -44.2962E+06    -45.3191E+06    -216.359E+06    -45.3344E+06    -216.344E+06    -44.2962E+06     809.987E+03         27.6926
              73     554.845E-09     6.03447E-03         4.69880        -1.50324        -1.53500        -1.52024         4.69807        -1.51727     118.798E-03     88.8241E-03    -44.1656E-03    -44.6600E-03    -44.5894E-03     88.8094E-03    -44.2213E-03     2.64667E-03    -49.3148E+06    -50.5208E+06    -223.636E+06    -50.6729E+06    -223.484E+06    -49.3148E+06    -2.33768E+06         29.0121
              74     295.615E-09     4.93016E-03         4.72445        -1.49904        -1.55841        -1.54427         4.72434        -1.51307     52.3849E-03     121.782E-03    -60.5941E-03    -61.1966E-03    -60.9530E-03     121.702E-03    -60.7579E-03     7.31597E-03    -62.8084E+06    -63.4998E+06    -238.701E+06    -63.6535E+06    -238.547E+06    -62.8084E+06    -4.63141E+06         30.8723
              75    -646.795E-09     3.77563E-03         4.93769        -1.59858        -1.65158        -1.64382         4.93758        -1.60624     52.8261E-03     165.198E-03    -82.4914E-03    -82.7111E-03    -82.3937E-03     165.100E-03    -82.7111E-03     9.50245E-03    -63.4179E+06    -68.1109E+06    -244.612E+06    -63.8105E+06    -244.596E+06    -67.7344E+06    -1.02460E+06         33.4597
              76     467.790E-09     2.57371E-03         5.05847        -1.66972        -1.69147        -1.68316         5.05782        -1.67738     116.497E-03     212.341E-03    -105.985E-03    -106.350E-03    -106.228E-03     212.275E-03    -106.041E-03     9.15389E-03    -63.9659E+06    -71.1885E+06    -244.841E+06    -66.9060E+06    -244.807E+06    -68.2824E+06     1.86251E+06         36.5491
              77     69.6440E-09     1.30503E-03         4.94592        -1.60213        -1.64566        -1.64462         4.94488        -1.60213     164.952E-03     249.873E-03    -124.530E-03    -125.342E-03    -125.306E-03     249.838E-03    -124.530E-03     4.58473E-03    -67.2617E+06    -70.6399E+06    -244.285E+06    -70.2228E+06    -244.230E+06    -67.7339E+06     334.317E+03         39.3540
              78     875.938E-06     357.628E-09         4.90347        -1.57508        -1.64214        -1.64154         4.90287        -1.57508     121.170E-03     260.500E-03    -129.245E-03    -131.264E-03    -129.738E-03     260.490E-03    -130.761E-03     2.36103E-03    -61.9836E+06    -66.3437E+06    -240.538E+06     -65.894E+06    -240.516E+06    -62.4558E+06    -1.04367E+06         40.4243
              79     1.75074E-03     357.628E-09         4.97750        -1.62052        -1.66858        -1.66842         4.97733        -1.62052     55.6026E-03     252.318E-03    -123.422E-03    -128.873E-03    -123.370E-03     252.267E-03    -128.873E-03     8.26905E-03    -56.6824E+06    -62.6854E+06    -236.749E+06    -62.6866E+06    -236.748E+06    -56.6824E+06     286.241E+03         39.9682
              80     2.63704E-03     357.628E-09         4.95283        -1.62622        -1.64379        -1.63651         4.95267        -1.63334     54.8122E-03     240.233E-03    -114.538E-03    -125.639E-03    -114.436E-03     240.132E-03    -125.639E-03     11.9331E-03    -58.6403E+06    -62.1954E+06    -237.942E+06    -62.2047E+06    -237.932E+06    -58.6403E+06     864.683E+03         39.2194
              81     3.53179E-03     357.628E-09         4.92052        -1.60817        -1.63113        -1.60801         4.92036        -1.63113     37.0494E-03     225.667E-03    -104.028E-03    -121.569E-03    -103.872E-03     225.510E-03    -121.569E-03     14.2256E-03    -58.5175E+06    -60.5948E+06    -237.417E+06    -60.6973E+06    -237.314E+06    -58.5175E+06    -1.96881E+06         38.2577
              82     4.43758E-03     357.628E-09         4.89826        -1.58448        -1.62419        -1.58448         4.89825        -1.62419    -2.24548E-03     210.176E-03    -93.1679E-03    -116.933E-03    -92.9667E-03     209.975E-03    -116.933E-03     15.6037E-03    -55.6969E+06    -57.3340E+06    -231.945E+06    -56.4298E+06    -231.849E+06    -56.6967E+06    -3.31906E+06         37.2089
              83     5.35380E-03     357.628E-09         4.86951        -1.55524        -1.61502        -1.55523         4.86951        -1.61502     371.703E-06     194.574E-03    -82.4978E-03    -111.967E-03    -82.2566E-03     194.333E-03    -111.967E-03     16.2769E-03    -50.4764E+06    -62.1832E+06    -228.579E+06    -50.8818E+06    -228.174E+06    -62.1832E+06    -6.49160E+06         36.2631
              84     6.27932E-03     357.628E-09         4.83467        -1.52313        -1.60392        -1.52310         4.83464        -1.60392    -25.0145E-03     179.785E-03    -72.8299E-03    -106.855E-03    -72.5515E-03     179.507E-03    -106.855E-03     16.7551E-03    -42.5289E+06    -75.4499E+06    -211.793E+06    -43.0672E+06    -211.255E+06    -75.4499E+06    -9.29398E+06         35.6962
              85     7.21506E-03     357.628E-09         4.79073        -1.49186        -1.59145        -1.49174         4.79061        -1.59145    -52.6953E-03     166.426E-03    -64.6460E-03    -101.809E-03    -64.3550E-03     166.135E-03    -101.809E-03     16.3826E-03    -33.4644E+06    -89.5061E+06    -167.364E+06    -34.8902E+06    -165.938E+06    -89.5061E+06    -11.6285E+06         35.6999
              86     8.15616E-03     357.628E-09         4.74501        -1.46019        -1.57814        -1.46011         4.74492        -1.57814    -28.2081E-03     154.060E-03    -57.2240E-03    -96.9820E-03    -56.8896E-03     153.726E-03    -96.9820E-03     16.7455E-03    -23.4114E+06    -80.1781E+06    -117.031E+06    -25.0455E+06    -100.418E+06    -95.1572E+06    -11.1660E+06         36.3134
              87     9.10325E-03     357.628E-09         4.70311        -1.42772        -1.56417        -1.42764         4.70304        -1.56417    -24.8654E-03     142.090E-03    -49.8562E-03    -92.3433E-03    -49.5072E-03     141.741E-03    -92.3433E-03     16.3553E-03      842.21E+03    -41.7294E+06    -94.2740E+06    -17.6668E+06    -23.2203E+06    -94.2740E+06    -7.94831E+06         37.5186
              88     10.0620E-03     357.628E-09         4.66148        -1.39429        -1.54964        -1.39421         4.66140        -1.54964    -39.3260E-03     131.395E-03    -43.3871E-03    -88.0800E-03    -43.0022E-03     131.010E-03    -88.0800E-03     16.3069E-03     41.2998E+06    -19.1275E+06    -63.8220E+06    -17.2595E+06     39.4318E+06    -63.8220E+06    -1.13763E+06         39.2823
              89     11.0185E-03     357.628E-09         4.62265        -1.35322        -1.53434        -1.35321         4.62264        -1.53434    -18.1469E-03     122.239E-03    -38.0746E-03    -84.2250E-03    -37.6638E-03     121.828E-03    -84.2250E-03     16.2083E-03     71.4023E+06    -2.08088E+06    -23.8058E+06    -15.5254E+06     70.2510E+06    -9.20990E+06    -1.88431E+06         41.5563
              90     11.9892E-03     357.628E-09         4.57022        -1.29525        -1.51746        -1.29523         4.57020        -1.51746    -20.6415E-03     113.437E-03    -32.8279E-03    -80.6436E-03    -32.4511E-03     113.060E-03    -80.6436E-03     14.8249E-03     89.5974E+06     42.9113E+06    -9.81386E+06    -8.95130E+06     88.7349E+06     42.9113E+06    -3.49305E+06         44.2802
              91     12.9555E-03     357.628E-09         4.52583        -1.24101        -1.49886        -1.24099         4.52580        -1.49886    -21.8232E-03     108.755E-03    -31.4251E-03    -77.3492E-03    -30.9831E-03     108.313E-03    -77.3492E-03     15.6762E-03     95.3956E+06     68.6220E+06    -2.07750E+06    -1.96526E+06     82.5075E+06     81.3979E+06     2.38618E+06         47.3641
              92     13.9329E-03     357.628E-09         4.52636        -1.20500        -1.47975        -1.20492         4.52628        -1.47975    -38.1780E-03     114.233E-03    -39.6568E-03    -74.6028E-03    -38.2513E-03     112.827E-03    -74.6028E-03     27.9071E-03     105.071E+06      86.062E+06     6.24280E+06     6.24936E+06     86.0554E+06     105.071E+06    -585.479E+03         50.6569
              93     14.8640E-03     357.628E-09         4.56275        -1.20249        -1.46198        -1.20242         4.56267        -1.46198    -29.7310E-03     125.142E-03    -52.3710E-03    -72.7797E-03    -49.6160E-03     122.387E-03    -72.7797E-03     43.8239E-03     123.810E+06     92.4215E+06     9.64617E+06     10.2451E+06     91.8226E+06     123.810E+06     3.99337E+06         53.9920
              94     15.8222E-03     357.628E-09         4.74174        -1.28918        -1.44930        -1.28615         4.73871        -1.44930     193.532E-03     279.781E-03    -67.5716E-03    -211.965E-03    -183.449E-03     258.239E-03    -74.5463E-03     196.295E-03     143.310E+06     116.837E+06     16.4329E+06     32.5246E+06     100.745E+06     143.310E+06     32.2136E+06         56.8063
              95     16.6704E-03     1.80196E-03         4.66881        -1.29024        -1.44759        -1.27922         4.65780        -1.44759     494.962E-03     394.640E-03    -75.5574E-03    -318.782E-03    -245.272E-03     321.130E-03    -75.5574E-03     412.150E-03     112.313E+06     106.295E+06    -51.4288E+06    -35.3762E+06     90.2421E+06     112.313E+06     20.5190E+06         57.9659
              96     16.7373E-03     2.97385E-03         4.36914        -1.19557        -1.45040        -1.18271         4.35628        -1.45040     530.887E-03     331.112E-03    -72.9794E-03    -257.913E-03    -138.508E-03     211.707E-03    -72.9794E-03     469.897E-03     120.102E+06     103.986E+06    -29.1448E+06    -23.0122E+06     97.8537E+06     120.102E+06     6.76971E+06         58.2857
              97     16.8092E-03     4.06661E-03         4.23811        -1.16268        -1.44466        -1.15407         4.22950        -1.44466     430.085E-03     279.699E-03    -69.6770E-03    -209.733E-03    -102.301E-03     172.267E-03    -69.6770E-03     403.543E-03     149.505E+06     135.024E+06     9.53111E+06     15.1144E+06     129.440E+06     149.505E+06     13.3338E+06         59.1096
              98     16.8509E-03     5.21331E-03         4.13878        -1.13691        -1.42745        -1.13166         4.13354        -1.42745     324.894E-03     265.541E-03    -65.8019E-03    -199.345E-03    -128.218E-03     194.414E-03    -65.8019E-03     332.139E-03     144.184E+06     130.487E+06    -6.25624E+06    -5.41057E+06     129.641E+06     144.184E+06     5.95076E+06         60.2417
              99     16.8819E-03     6.49228E-03         4.06950        -1.10195        -1.40130        -1.10000         4.06755        -1.40130     192.605E-03     289.294E-03    -63.0810E-03    -226.018E-03    -164.009E-03     227.286E-03    -63.0810E-03     335.301E-03     147.888E+06     129.384E+06     492.114E+03     1.33560E+06     128.540E+06     147.888E+06     6.16128E+06         61.7101
             100     16.9021E-03     7.79277E-03         4.06287        -1.10808        -1.36909        -1.10715         4.06194        -1.36909     138.906E-03     304.768E-03    -61.7444E-03    -243.039E-03    -173.872E-03     235.601E-03    -61.7444E-03     363.687E-03     146.242E+06     130.861E+06    -11.6362E+06    -11.3538E+06     130.579E+06     146.242E+06     3.89550E+06         63.5547
             101     16.9157E-03     9.03161E-03         4.05759        -1.11869        -1.33173        -1.11785         4.05675        -1.33173     130.930E-03     295.000E-03    -61.3364E-03    -233.699E-03    -157.797E-03     219.099E-03    -61.3364E-03     370.461E-03     152.379E+06     137.669E+06    -354.654E+03    -39.7955E+03     137.354E+06     152.379E+06     2.68741E+06         65.4178
             102     16.9256E-03     10.2169E-03         4.02317        -1.11189        -1.29116        -1.11151         4.02279        -1.29116     79.6322E-03     283.669E-03    -61.1943E-03    -222.401E-03    -143.098E-03     204.366E-03    -61.1943E-03     367.916E-03     150.640E+06     137.049E+06    -4.84882E+06    -4.66077E+06     136.861E+06     150.640E+06     1.67571E+06         66.9968
             103     16.9228E-03     11.4366E-03         4.01220        -1.13036        -1.24948        -1.13032         4.01216        -1.24948     19.4632E-03     289.787E-03    -61.2599E-03    -228.343E-03    -141.122E-03     202.566E-03    -61.2599E-03     387.547E-03     152.639E+06     133.269E+06    -3.90901E+06    -3.70797E+06     133.068E+06     152.639E+06     1.46131E+06         68.3602
             104     16.9222E-03     12.6688E-03         4.01323        -1.14452        -1.20653        -1.14448         4.01319        -1.20653     20.0370E-03     299.774E-03    -61.7114E-03    -238.095E-03    -131.730E-03     193.410E-03    -61.7114E-03     427.544E-03     153.490E+06     132.046E+06    -6.28976E+06    -6.24253E+06     131.999E+06     153.490E+06    -1.83121E+06         69.5580
             105     16.9259E-03     13.8303E-03         4.00003        -1.14482        -1.17182        -1.15414         3.99993        -1.16239     46.4508E-03     299.201E-03    -62.2125E-03    -237.019E-03    -112.966E-03     175.149E-03    -62.2125E-03     451.935E-03     156.015E+06     136.953E+06    -2.19053E+06    -2.17297E+06     136.936E+06     156.015E+06    -1.13792E+06         70.5597
             106     16.9267E-03     14.9589E-03         3.96638        -1.11852        -1.15921        -1.15914         3.96631        -1.11852     33.9471E-03     294.173E-03    -62.3779E-03    -231.715E-03    -104.321E-03     166.780E-03    -62.3779E-03     450.616E-03     155.109E+06     135.424E+06    -3.58884E+06    -3.56421E+06     135.399E+06     155.109E+06    -395.771E+03         71.3824
             107     16.9249E-03     16.1093E-03         3.93786        -1.07653        -1.16054        -1.16050         3.93781        -1.07653     27.1719E-03     294.652E-03    -62.3287E-03    -232.354E-03    -106.605E-03     168.903E-03    -62.3287E-03     449.253E-03     152.948E+06     134.651E+06    -5.41199E+06    -5.40048E+06     134.640E+06     152.948E+06     147.203E+03         72.0426
             108     16.9270E-03     17.2660E-03         3.91522        -1.03720        -1.17179        -1.17175         3.91519        -1.03720     16.5169E-03     297.691E-03    -62.3716E-03    -235.250E-03    -105.840E-03     168.281E-03    -62.3716E-03     456.988E-03     155.184E+06     136.485E+06    -4.23144E+06    -4.21947E+06     136.473E+06     155.184E+06     172.779E+03         72.5562
             109     16.9266E-03     18.4144E-03         3.91508        -1.00036        -1.19532        -1.19531         3.91508        -1.00036    -6.70660E-03     297.558E-03    -62.4937E-03    -234.830E-03    -99.6139E-03     162.342E-03    -62.4937E-03     463.430E-03     155.920E+06     138.444E+06    -3.15295E+06    -3.12381E+06     138.415E+06     155.920E+06    -507.713E+03         72.9528
             110     16.9270E-03     19.5356E-03         3.91116    -966.346E-03        -1.19858        -1.19856         3.91113    -966.346E-03    -19.8253E-03     295.370E-03    -62.5705E-03    -232.679E-03    -95.9176E-03     158.609E-03    -62.5705E-03     462.657E-03     153.902E+06     138.324E+06    -4.34751E+06    -4.30446E+06     138.281E+06     153.902E+06     2.45063E+03         73.2650
             111     16.9265E-03     20.6738E-03         3.87801    -937.029E-03        -1.18883        -1.18881         3.87799    -937.029E-03    -20.0026E-03     293.645E-03    -62.6105E-03    -230.996E-03    -94.9605E-03     157.609E-03    -62.6105E-03     459.843E-03     155.468E+06     139.122E+06    -4.33503E+06    -4.30196E+06     139.089E+06     155.468E+06     326.718E+03         73.5118
             112     16.9278E-03     21.8039E-03         3.86244    -912.441E-03        -1.19057        -1.19055         3.86243    -912.441E-03     6.58163E-03     294.247E-03    -62.5933E-03    -231.560E-03    -94.2435E-03     156.930E-03    -62.5933E-03     461.935E-03     156.185E+06     140.457E+06    -4.03193E+06    -3.98872E+06     140.414E+06     156.185E+06     602.375E+03         73.7037
             113     16.9290E-03     22.9410E-03         3.84577    -892.416E-03        -1.19557        -1.19554         3.84574    -892.416E-03    -275.441E-06     295.508E-03    -62.5622E-03    -232.840E-03    -93.8426E-03     156.511E-03    -62.5622E-03     465.266E-03     154.903E+06     140.719E+06    -4.69326E+06    -4.64064E+06     140.667E+06     154.903E+06     279.646E+03         73.8509
             114     16.9287E-03     24.0736E-03         3.84602    -877.403E-03        -1.21080        -1.21078         3.84600    -877.403E-03    -20.1369E-03     297.457E-03    -62.5696E-03    -234.970E-03    -95.2018E-03     157.689E-03    -62.5696E-03     468.530E-03     155.529E+06     140.119E+06    -5.89713E+06    -5.87607E+06     140.098E+06     155.529E+06    -1.20846E+06         73.9618
             115     16.9269E-03     25.2069E-03         3.86122    -867.053E-03        -1.21164        -1.21163         3.86121    -867.053E-03    -1.76033E-03     303.441E-03    -62.5760E-03    -240.956E-03    -99.7260E-03     162.211E-03    -62.5760E-03     477.236E-03     158.590E+06     141.636E+06    -5.31306E+06    -5.31049E+06     141.633E+06     158.590E+06    -405.639E+03         74.0444
             116     16.9269E-03     26.3682E-03         3.84230    -862.810E-03        -1.19814        -1.19813         3.84229    -862.810E-03     2.02277E-03     311.297E-03    -62.5867E-03    -248.476E-03    -100.297E-03     163.118E-03    -62.5867E-03     493.850E-03     159.715E+06     144.557E+06    -3.41117E+06    -3.34950E+06     144.496E+06     159.715E+06     1.66336E+06         74.0994
             117     16.9291E-03     27.4921E-03         3.84884    -865.117E-03        -1.20706        -1.20704         3.84883    -865.117E-03    -16.1879E-03     309.680E-03    -62.7259E-03    -246.833E-03    -94.5830E-03     157.431E-03    -62.7259E-03     496.172E-03     159.918E+06     145.625E+06    -3.00378E+06    -2.93228E+06     145.554E+06     159.918E+06     1.13808E+06         74.1377
             118     16.9277E-03     28.5931E-03         3.84693    -873.203E-03        -1.19550        -1.19546         3.84688    -873.203E-03    -29.3133E-03     300.126E-03    -62.7042E-03    -237.368E-03    -91.8679E-03     154.626E-03    -62.7042E-03     477.597E-03     159.034E+06     143.789E+06    -5.06515E+06    -5.02300E+06     143.747E+06     159.034E+06     531.448E+03         74.1715
             119     16.9274E-03     29.7219E-03         3.84862    -887.168E-03        -1.19312        -1.19308         3.84858    -887.168E-03    -26.2056E-03     300.412E-03    -62.5339E-03    -237.621E-03    -97.2071E-03     159.998E-03    -62.5339E-03     472.545E-03     156.673E+06     143.530E+06    -6.22555E+06    -6.19399E+06     143.499E+06     156.673E+06     1.12180E+06         74.1957
             120     16.9258E-03     30.8796E-03         3.88320    -906.107E-03        -1.20910        -1.20909         3.88319    -906.107E-03    -13.3715E-03     307.665E-03    -62.5520E-03    -244.937E-03    -101.214E-03     163.943E-03    -62.5520E-03     484.814E-03     157.299E+06     144.868E+06    -6.05476E+06    -6.05288E+06     144.866E+06     157.299E+06    -291.118E+03         74.2038
             121     16.9271E-03     32.0149E-03         3.90321    -929.693E-03        -1.20286        -1.20285         3.90320    -929.693E-03     2.84669E-03     306.663E-03    -62.6775E-03    -243.850E-03    -95.3797E-03     158.192E-03    -62.6775E-03     488.569E-03     160.592E+06     147.724E+06    -2.98957E+06    -2.98540E+06     147.720E+06     160.592E+06     630.789E+03         74.2052
             122     16.9303E-03     33.1147E-03         3.91045    -958.219E-03        -1.20257        -1.20256         3.91044    -958.219E-03     11.9715E-03     297.674E-03    -62.6638E-03    -234.894E-03    -91.4143E-03     154.194E-03    -62.6638E-03     472.476E-03     158.877E+06     146.564E+06    -4.09229E+06    -4.08737E+06     146.559E+06     158.877E+06     303.563E+03         74.2173
             123     16.9267E-03     34.2378E-03         3.91668    -991.385E-03        -1.18644        -1.18643         3.91667    -991.385E-03     1.09991E-03     296.976E-03    -62.5211E-03    -234.391E-03    -98.7372E-03     161.323E-03    -62.5211E-03     463.305E-03     159.006E+06     146.476E+06    -5.73877E+06    -5.73775E+06     146.475E+06     159.006E+06    -374.142E+03         74.2314
             124     16.9262E-03     35.4120E-03         3.94016        -1.02776        -1.17628        -1.17624         3.94013        -1.02776     16.7937E-03     305.095E-03    -62.5298E-03    -242.388E-03    -101.987E-03     164.695E-03    -62.5298E-03     478.042E-03     161.382E+06     148.547E+06    -4.17320E+06    -4.15111E+06     148.525E+06     161.382E+06     1.16779E+06         74.2304
             125     16.9279E-03     36.5391E-03         3.95431        -1.06609        -1.16935        -1.16929         3.95424        -1.06609     37.0995E-03     304.974E-03    -62.7042E-03    -242.296E-03    -94.3014E-03     156.979E-03    -62.7042E-03     486.107E-03     160.535E+06     148.367E+06    -4.31649E+06    -4.29450E+06     148.345E+06     160.535E+06     1.37695E+06         74.2275
             126     16.9295E-03     37.6449E-03         3.96901        -1.10667        -1.16204        -1.16196         3.96893        -1.10667     41.5293E-03     299.865E-03    -62.6976E-03    -237.246E-03    -90.8759E-03     153.495E-03    -62.6976E-03     478.271E-03     159.702E+06     148.917E+06    -4.62071E+06    -4.62054E+06     148.916E+06     159.702E+06     160.626E+03         74.2380
             127     16.9294E-03     38.7800E-03         3.98112        -1.13705        -1.16996        -1.15756         3.98104        -1.14937     38.1273E-03     301.349E-03    -62.5556E-03    -238.587E-03    -95.2451E-03     158.007E-03    -62.5556E-03     476.848E-03     159.536E+06     148.961E+06    -4.97774E+06    -4.95796E+06     148.941E+06     159.536E+06    -1.15497E+06         74.2477
             128     16.9283E-03     39.9245E-03         4.00470        -1.15503        -1.19226        -1.15497         4.00464        -1.19226     34.9444E-03     306.426E-03    -62.5389E-03    -243.835E-03    -99.0282E-03     161.619E-03    -62.5389E-03     484.614E-03     161.155E+06     150.003E+06    -4.70667E+06    -4.67770E+06     149.974E+06     161.155E+06    -381.235E+03         74.2466
             129     16.9279E-03     41.0537E-03         4.03898        -1.15433        -1.23311        -1.15429         4.03893        -1.23311     27.7511E-03     303.340E-03    -62.5473E-03    -240.980E-03    -97.1948E-03     159.555E-03    -62.5473E-03     479.962E-03     161.840E+06     150.005E+06    -4.76438E+06    -4.75458E+06     149.995E+06     161.840E+06     645.253E+03         74.2449
             130     16.9292E-03     42.1670E-03         4.02759        -1.12719        -1.27264        -1.12716         4.02755        -1.27264     24.0910E-03     298.780E-03    -62.5386E-03    -236.560E-03    -96.5433E-03     158.763E-03    -62.5386E-03     470.521E-03     161.163E+06     151.109E+06    -3.64281E+06    -3.59762E+06     151.064E+06     161.163E+06     1.66017E+06         74.2511
             131     16.9281E-03     43.3123E-03         4.02867        -1.11052        -1.31110        -1.11043         4.02858        -1.31110     41.8253E-03     301.129E-03    -62.4857E-03    -238.779E-03    -99.9932E-03     162.343E-03    -62.4857E-03     471.888E-03     159.479E+06     150.806E+06    -5.41068E+06    -5.33494E+06     150.730E+06     159.479E+06     303.858E+03         74.2591
             132     16.9278E-03     44.4581E-03         4.04090        -1.10741        -1.34642        -1.10734         4.04083        -1.34642     35.9585E-03     302.073E-03    -62.5146E-03    -239.342E-03    -97.1088E-03     159.839E-03    -62.5146E-03     476.486E-03     161.032E+06     151.361E+06    -4.76966E+06     -4.7246E+06     151.316E+06     161.032E+06    -517.685E+03         74.2609
             133     16.9289E-03     45.5728E-03         4.03436        -1.09873        -1.37745        -1.09871         4.03434        -1.37745     3.99718E-03     298.173E-03    -62.5639E-03    -235.182E-03    -91.4581E-03     154.449E-03    -62.5639E-03     473.284E-03     162.357E+06     152.562E+06    -4.11901E+06    -4.08118E+06     152.525E+06     162.357E+06    -328.808E+03         74.2706
             134     16.9301E-03     46.6921E-03         4.02356        -1.08763        -1.40390        -1.08762         4.02355        -1.40390    -1.33952E-03     297.768E-03    -62.5182E-03    -234.803E-03    -95.1277E-03     158.093E-03    -62.5182E-03     468.440E-03     159.425E+06     151.776E+06    -5.89513E+06    -5.86909E+06     151.750E+06     159.425E+06    -956.590E+03         74.2929
             135     16.9263E-03     47.8478E-03         4.02152        -1.08084        -1.42511        -1.08070         4.02138        -1.42511     43.1684E-03     302.904E-03    -62.5336E-03    -240.186E-03    -100.231E-03     162.949E-03    -62.5336E-03     475.050E-03     159.050E+06     153.288E+06    -4.80370E+06    -4.80152E+06     153.286E+06     159.050E+06     413.096E+03         74.3106
             136     16.9292E-03     48.9863E-03         4.00225        -1.05922        -1.44072        -1.05909         4.00211        -1.44072     38.9832E-03     305.663E-03    -62.5848E-03    -242.825E-03    -97.9976E-03     160.836E-03    -62.5848E-03     483.550E-03     159.755E+06     153.435E+06    -4.86824E+06    -4.86791E+06     153.434E+06     159.755E+06     161.193E+03         74.3253
             137     16.9266E-03     50.1054E-03         3.95686        -1.03886        -1.45102        -1.03883         3.95683        -1.45102    -14.3614E-03     301.163E-03    -62.5806E-03    -238.345E-03    -94.2984E-03     157.116E-03    -62.5806E-03     477.346E-03     162.103E+06     154.757E+06    -4.47173E+06    -4.47110E+06     154.756E+06     162.103E+06     9.33027E+03         74.3522
             138     16.9304E-03     51.2258E-03         3.92556        -1.02583        -1.45483        -1.02580         3.92553        -1.45483    -9.03042E-03     295.253E-03    -62.5827E-03    -232.877E-03    -94.1454E-03     156.522E-03    -62.5827E-03     464.834E-03     162.435E+06     155.999E+06    -3.20889E+06    -3.17488E+06     155.965E+06     162.435E+06     1.47785E+06         74.3921
             139     16.9264E-03     52.3566E-03         3.88526        -1.00136        -1.45083        -1.00134         3.88523        -1.45083     21.3177E-03     297.235E-03    -62.5461E-03    -234.827E-03    -98.6504E-03     161.059E-03    -62.5461E-03     464.354E-03     159.715E+06     154.866E+06    -5.42689E+06    -5.34648E+06     154.786E+06     159.715E+06    -316.671E+03         74.4365
             140     16.9276E-03     53.5185E-03         3.83469    -989.109E-03        -1.43926    -989.087E-03         3.83467        -1.43926     8.89249E-03     305.648E-03    -62.5469E-03    -243.074E-03    -101.925E-03     164.499E-03    -62.5469E-03     479.670E-03     160.554E+06     156.483E+06    -4.55932E+06    -4.44819E+06     156.372E+06     160.554E+06     317.455E+03         74.4782
             141     16.9253E-03     54.6569E-03         3.78877    -982.309E-03        -1.42063    -982.304E-03         3.78877        -1.42063    -661.716E-06     308.382E-03    -62.6746E-03    -245.644E-03    -97.4212E-03     160.160E-03    -62.6746E-03     490.450E-03     160.992E+06     157.793E+06    -4.70075E+06    -4.61774E+06     157.710E+06     160.992E+06     1.02593E+06         74.5214
             142     16.9283E-03     55.7701E-03         3.73427    -973.450E-03        -1.39457    -973.442E-03         3.73427        -1.39457     11.4244E-03     303.548E-03    -62.6763E-03    -240.490E-03    -91.3114E-03     154.369E-03    -62.6763E-03     485.405E-03     160.137E+06     158.378E+06    -4.59474E+06    -4.48397E+06     158.268E+06     160.137E+06     1.47799E+06         74.5784
             143     16.9291E-03     56.8843E-03         3.66134    -952.910E-03        -1.36083    -952.872E-03         3.66130        -1.36083    -10.3636E-03     300.933E-03    -62.5810E-03    -238.010E-03    -93.4588E-03     156.382E-03    -62.5810E-03     477.465E-03     159.145E+06     158.525E+06    -5.08516E+06    -4.90882E+06     158.349E+06     159.145E+06      69.646E+03         74.6458
             144     16.9277E-03     58.0315E-03         3.57213    -922.068E-03        -1.32084    -922.026E-03         3.57209        -1.32084    -26.4056E-03     302.359E-03    -62.5770E-03    -239.607E-03    -96.6475E-03     159.400E-03    -62.5770E-03     477.660E-03     162.320E+06     158.354E+06    -5.35855E+06    -5.25604E+06     158.251E+06     162.320E+06    -1.43381E+06         74.7031
             145     16.9293E-03     59.1611E-03         3.48667    -913.794E-03        -1.27481    -913.764E-03         3.48664        -1.27481     4.39236E-03     303.452E-03    -62.5690E-03    -240.871E-03    -96.4295E-03     159.010E-03    -62.5690E-03     480.663E-03     164.796E+06     159.450E+06    -4.33093E+06    -4.29898E+06     159.418E+06     164.796E+06     149.266E+03         74.7506
             146     16.9269E-03     60.2838E-03         3.40624    -911.362E-03        -1.22202    -911.328E-03         3.40621        -1.22202     2.61089E-03     301.661E-03    -62.5600E-03    -239.152E-03    -97.9339E-03     160.443E-03    -62.5600E-03     475.079E-03     163.516E+06     157.048E+06    -5.62767E+06    -5.61001E+06     157.031E+06     163.516E+06    -496.577E+03         74.7975
             147     16.9278E-03     61.4248E-03         3.33998    -904.392E-03        -1.16361    -904.372E-03         3.33996        -1.16361    -18.1585E-03     304.110E-03    -62.5615E-03    -241.389E-03    -100.814E-03     163.535E-03    -62.5615E-03     477.168E-03     164.848E+06     155.124E+06    -4.12796E+06    -4.12383E+06      155.12E+06     164.848E+06     507.155E+03         74.8376
             148     16.9254E-03     62.5705E-03         3.24391    -876.914E-03        -1.10137    -876.906E-03         3.24390        -1.10137    -3.57708E-03     307.318E-03    -62.5575E-03    -244.484E-03    -100.223E-03     163.057E-03    -62.5575E-03     484.922E-03     162.500E+06     155.925E+06    -5.37795E+06    -5.37361E+06     155.921E+06     162.500E+06     529.514E+03         74.8693
             149     16.9282E-03     64.8079E-03         3.03898    -861.933E-03    -969.167E-03    -861.871E-03         3.03892    -969.167E-03    -25.6511E-03     297.094E-03    -62.5751E-03    -234.378E-03    -92.3251E-03     155.041E-03    -62.5751E-03     470.358E-03     166.383E+06     161.495E+06    -3.04311E+06    -3.02179E+06     161.474E+06     166.383E+06     1.02501E+06         74.9288
             150     16.9285E-03     65.9409E-03         2.94017    -834.003E-03    -898.659E-03    -833.936E-03         2.94010    -898.659E-03    -14.1523E-03     299.126E-03    -62.5505E-03    -236.433E-03    -97.7105E-03     160.404E-03    -62.5505E-03     469.239E-03     162.423E+06     158.730E+06    -6.05459E+06    -6.01317E+06     158.689E+06     162.423E+06     -25.577E+03         74.9532
             151     16.9254E-03     67.0989E-03         2.84721    -805.806E-03    -836.831E-03    -817.150E-03         2.84718    -825.465E-03    -3.18587E-03     306.438E-03    -62.5625E-03    -243.683E-03    -101.240E-03     163.994E-03    -62.5625E-03     481.945E-03     163.173E+06     157.983E+06    -6.02727E+06    -5.99979E+06     157.955E+06     163.173E+06    -591.863E+03         74.9633
             152     16.9273E-03     68.2312E-03         2.75902    -752.866E-03    -815.717E-03    -815.693E-03         2.75900    -752.866E-03    -18.3249E-03     307.206E-03    -62.5891E-03    -244.245E-03    -97.5998E-03     160.561E-03    -62.5891E-03     487.264E-03     165.863E+06     159.684E+06    -4.18019E+06    -4.17113E+06     159.675E+06     165.863E+06     1.18517E+06         74.9694
             153     16.9278E-03     69.3463E-03         2.66888    -682.495E-03    -807.113E-03    -807.064E-03         2.66883    -682.495E-03     8.45221E-03     303.717E-03    -62.5794E-03    -240.807E-03    -94.3454E-03     157.256E-03    -62.5794E-03     482.909E-03     164.020E+06     158.735E+06    -4.42371E+06    -4.42088E+06     158.733E+06     164.020E+06     305.242E+03         74.9815
             154     16.9294E-03     70.4810E-03         2.56291    -613.801E-03    -783.848E-03    -783.782E-03         2.56284    -613.801E-03     29.6078E-03     301.357E-03    -62.5631E-03    -238.619E-03    -93.8516E-03     156.589E-03    -62.5631E-03     478.386E-03     163.254E+06     156.549E+06    -4.62726E+06    -4.61453E+06     156.536E+06     163.254E+06    -1.15583E+06         74.9916
             155     16.9278E-03     71.6040E-03         2.46220    -547.149E-03    -769.545E-03    -769.518E-03         2.46217    -547.149E-03     15.4787E-03     297.878E-03    -62.5577E-03    -234.939E-03    -92.5400E-03     155.479E-03    -62.5577E-03     471.570E-03      164.86E+06     158.971E+06    -3.97036E+06    -3.92356E+06     158.924E+06      164.86E+06     676.115E+03         74.9978
             156     16.9301E-03     72.7204E-03         2.37922    -484.253E-03    -763.607E-03    -763.605E-03         2.37922    -484.253E-03     4.25434E-03     296.366E-03    -62.5023E-03    -233.515E-03    -94.9719E-03     157.823E-03    -62.5023E-03     465.656E-03     163.195E+06     159.361E+06    -5.32261E+06    -5.28542E+06     159.323E+06     163.195E+06     1.19564E+06         75.0074
             157     16.9273E-03     73.8731E-03         2.30018    -426.642E-03    -755.680E-03    -755.604E-03         2.30011    -426.642E-03     23.2827E-03     298.301E-03    -62.4975E-03    -235.619E-03    -97.4651E-03     160.148E-03    -62.4975E-03     467.654E-03     162.562E+06     158.226E+06    -6.14327E+06    -6.14034E+06     158.223E+06     162.562E+06    -572.392E+03         75.0142
             158     16.9301E-03     75.0008E-03         2.21249    -373.941E-03    -735.713E-03    -735.593E-03         2.21237    -373.941E-03     37.4699E-03     296.855E-03    -62.5368E-03    -234.202E-03    -94.8177E-03     157.471E-03    -62.5368E-03     467.298E-03     165.579E+06     161.707E+06    -2.91941E+06    -2.91402E+06     161.701E+06     165.579E+06    -751.599E+03         75.0223
             159     16.9296E-03     76.1193E-03         2.14871    -326.485E-03    -729.654E-03    -729.598E-03         2.14866    -326.485E-03     8.34337E-03     296.205E-03    -62.4756E-03    -233.640E-03    -96.5743E-03     159.139E-03    -62.4756E-03     464.006E-03     164.397E+06     160.943E+06    -4.46491E+06    -4.45654E+06     160.935E+06     164.397E+06    -1.16597E+06         75.0414
             160     16.9282E-03     77.2775E-03         2.09515    -285.965E-03    -731.239E-03    -731.211E-03         2.09512    -285.965E-03     1.80364E-03     299.425E-03    -62.4744E-03    -236.936E-03    -99.6944E-03     162.183E-03    -62.4744E-03     468.074E-03     163.635E+06     161.434E+06    -4.74777E+06    -4.71192E+06     161.527E+06     163.507E+06     1.15334E+06         75.0617
             161     16.9302E-03     78.4057E-03         2.03250    -252.437E-03    -709.965E-03    -709.864E-03         2.03240    -252.437E-03     31.0799E-03     300.205E-03    -62.5514E-03    -237.637E-03    -96.4607E-03     159.028E-03    -62.5514E-03     473.261E-03     162.305E+06     162.028E+06    -6.07691E+06    -6.03332E+06     162.113E+06     162.177E+06     701.396E+03         75.0824
             162     16.9281E-03     79.5387E-03         1.97874    -225.886E-03    -691.425E-03    -691.323E-03         1.97864    -225.886E-03     12.0618E-03     303.789E-03    -62.5619E-03    -241.170E-03    -96.3209E-03     158.940E-03    -62.5619E-03     481.479E-03     163.852E+06     163.585E+06    -4.86212E+06    -4.84272E+06     163.565E+06     163.852E+06    -105.480E+03         75.1145
             163     16.9273E-03     80.6829E-03         1.92937    -207.829E-03    -687.899E-03    -687.876E-03         1.92935    -207.829E-03    -15.2230E-03     309.609E-03    -62.5654E-03    -246.775E-03    -99.3994E-03     162.233E-03    -62.5654E-03     491.031E-03     165.607E+06     165.078E+06    -3.05391E+06    -3.04528E+06     165.069E+06     165.607E+06     795.469E+03         75.1674
             164     16.9273E-03     81.8119E-03         1.89609    -197.882E-03    -673.429E-03    -673.325E-03         1.89599    -197.882E-03     16.3817E-03     306.329E-03    -62.6091E-03    -243.330E-03    -95.5291E-03     158.528E-03    -62.6091E-03     487.393E-03     163.578E+06     163.100E+06    -4.78362E+06    -4.78162E+06     163.165E+06     163.512E+06     351.431E+03         75.2616
             165     16.9292E-03     82.9204E-03         1.86513    -195.551E-03    -649.792E-03    -649.686E-03         1.86502    -195.551E-03     28.9126E-03     295.474E-03    -62.6057E-03    -232.521E-03    -88.7733E-03     151.726E-03    -62.6057E-03     470.040E-03     163.269E+06     163.001E+06    -4.22401E+06    -4.22063E+06     163.064E+06     163.202E+06     748.054E+03         75.4077
             166     16.9316E-03     84.0261E-03         1.84219    -201.980E-03    -653.920E-03    -653.899E-03         1.84217    -201.980E-03    -979.122E-06     289.943E-03    -62.4661E-03    -227.159E-03    -92.0498E-03     154.834E-03    -62.4661E-03     454.212E-03     160.745E+06     159.608E+06    -6.01174E+06    -6.00144E+06     159.598E+06     160.745E+06    -512.223E+03         75.5704
             167     16.9277E-03     85.1850E-03         1.82898    -216.175E-03    -647.600E-03    -647.564E-03         1.82894    -216.175E-03     3.26043E-03     296.244E-03    -62.4172E-03    -233.634E-03    -100.345E-03     162.955E-03    -62.4172E-03     459.832E-03     160.439E+06     158.727E+06    -5.89435E+06    -5.87961E+06     158.712E+06     160.439E+06    -1.54844E+06         75.7280
             168     16.9288E-03     86.3379E-03         1.81995    -236.521E-03    -627.410E-03    -627.383E-03         1.81992    -236.521E-03     14.9049E-03     303.836E-03    -62.5215E-03    -241.133E-03    -99.7662E-03     162.469E-03    -62.5215E-03     477.631E-03     164.533E+06     163.615E+06    -2.67259E+06    -2.63835E+06     163.723E+06     164.392E+06     849.347E+03         75.9166
             169     16.9303E-03     87.4639E-03         1.80817    -263.453E-03    -618.222E-03    -618.180E-03         1.80813    -263.453E-03    -9.72041E-03     304.240E-03    -62.5678E-03    -241.472E-03    -95.7670E-03     158.536E-03    -62.5678E-03     482.837E-03     165.153E+06     163.300E+06    -5.03323E+06    -5.00323E+06     165.123E+06     163.300E+06     1.17185E+06         76.1451
             170     16.9302E-03     88.5870E-03         1.79968    -296.912E-03    -601.548E-03    -601.391E-03         1.79952    -296.912E-03     10.0905E-03     299.942E-03    -62.5762E-03    -237.288E-03    -95.0369E-03     157.690E-03    -62.5762E-03     474.066E-03     168.475E+06     165.565E+06    -5.22812E+06    -5.21089E+06     168.458E+06     165.565E+06     797.759E+03         76.3712
             171     16.9286E-03     89.7172E-03         1.80548    -336.097E-03    -582.432E-03    -582.312E-03         1.80536    -336.097E-03     21.2295E-03     299.933E-03    -62.5562E-03    -237.181E-03    -96.4761E-03     159.229E-03    -62.5562E-03     472.341E-03     172.154E+06     167.822E+06    -5.60201E+06    -5.58381E+06     172.136E+06     167.822E+06     1.65079E+06         76.5723
             172     16.9292E-03     90.8575E-03         1.82670    -380.227E-03    -582.894E-03    -582.882E-03         1.82669    -380.227E-03     4.69345E-03     301.607E-03    -62.5314E-03    -238.583E-03    -95.6202E-03     158.644E-03    -62.5314E-03     476.589E-03     173.636E+06     170.209E+06    -6.30689E+06    -6.29452E+06     173.623E+06     170.209E+06     1.41934E+06         76.7600
             173     16.9321E-03     91.9833E-03         1.82098    -427.894E-03    -564.707E-03    -564.632E-03         1.82090    -427.894E-03     24.5498E-03     301.698E-03    -62.5281E-03    -238.926E-03    -93.8861E-03     156.658E-03    -62.5281E-03     479.064E-03     180.092E+06     176.388E+06    -2.86270E+06    -2.79985E+06     180.029E+06     176.388E+06     3.16193E+06         76.9432
             174     16.9312E-03     93.1124E-03         1.81462    -477.568E-03    -541.286E-03    -541.085E-03         1.81441    -477.568E-03     42.7831E-03     302.155E-03    -62.4803E-03    -239.640E-03    -96.0007E-03     158.517E-03    -62.4803E-03     478.272E-03     184.133E+06     176.525E+06    -7.08883E+06    -7.03474E+06     184.079E+06     176.525E+06     1.90188E+06         77.1173
             175     16.9335E-03     94.2485E-03         1.83826    -516.055E-03    -550.341E-03    -538.315E-03         1.83806    -527.875E-03     43.7303E-03     299.170E-03    -62.4071E-03    -236.725E-03    -93.4205E-03     155.866E-03    -62.4071E-03     474.332E-03     186.960E+06     180.546E+06    -6.29944E+06    -6.24798E+06     186.909E+06     180.546E+06     1.86964E+06         77.2808
             176     16.9383E-03     95.3637E-03         1.83633    -521.230E-03    -579.174E-03    -521.128E-03         1.83623    -579.174E-03     30.4319E-03     296.335E-03    -62.3234E-03    -233.910E-03    -88.7122E-03     151.137E-03    -62.3234E-03     472.897E-03     193.297E+06     186.538E+06    -3.88580E+06    -3.83083E+06     193.242E+06     186.538E+06     2.87369E+06         77.4378
             177     16.9398E-03     96.4906E-03         1.83649    -500.740E-03    -631.220E-03    -500.678E-03         1.83643    -631.220E-03     24.0325E-03     297.814E-03    -62.1520E-03    -235.521E-03    -91.3877E-03     153.681E-03    -62.1520E-03     473.670E-03     199.174E+06     189.894E+06    -6.03575E+06    -6.01707E+06     199.155E+06     189.894E+06     1.89011E+06         77.5825
             178     16.9425E-03     97.6289E-03         1.86019    -489.832E-03    -681.543E-03    -489.802E-03         1.86016    -681.543E-03     11.9928E-03     299.239E-03    -62.0054E-03    -237.125E-03    -92.3336E-03     154.448E-03    -62.0054E-03     476.198E-03     204.273E+06     194.584E+06    -5.46484E+06    -5.44344E+06     204.251E+06     194.584E+06     2.08778E+06         77.7087
             179     16.9478E-03     98.7521E-03         1.84865    -473.385E-03    -728.925E-03    -473.292E-03         1.84856    -728.925E-03    -20.4998E-03     301.534E-03    -61.8403E-03    -239.546E-03    -89.3981E-03     151.387E-03    -61.8403E-03     484.531E-03     205.777E+06     197.494E+06    -5.23006E+06    -5.20882E+06     205.756E+06     197.494E+06     2.08812E+06         77.8222
             180     16.9559E-03     99.8812E-03         1.82121    -446.387E-03    -772.507E-03    -446.209E-03         1.82103    -772.507E-03    -1.20217E-03     303.567E-03    -61.4787E-03    -242.038E-03    -87.9606E-03     149.490E-03    -61.4787E-03     491.223E-03     206.573E+06     199.801E+06    -6.11373E+06    -6.09952E+06     206.559E+06     199.801E+06     1.37422E+06         77.9275
             181     16.9655E-03     100.999E-03         1.80594    -418.139E-03    -810.839E-03    -417.842E-03         1.80564    -810.839E-03     49.9561E-03     296.374E-03    -60.9682E-03    -235.543E-03    -81.8196E-03     142.651E-03    -60.9682E-03     482.189E-03     207.972E+06     201.950E+06    -4.87616E+06    -4.85356E+06     207.949E+06     201.950E+06     1.69625E+06         78.0267
             182     16.9812E-03     102.085E-03         1.77036    -392.072E-03    -843.515E-03    -391.510E-03         1.76980    -843.515E-03     69.1506E-03     288.431E-03    -60.1689E-03    -228.447E-03    -77.8320E-03     137.817E-03    -60.1689E-03     469.728E-03     205.159E+06     201.701E+06    -6.05505E+06    -6.02177E+06     205.125E+06     201.701E+06     2.60878E+06         78.1151
             183     16.9963E-03     103.217E-03         1.74083    -369.917E-03    -869.523E-03    -369.268E-03         1.74018    -869.523E-03     73.9880E-03     294.388E-03    -59.0965E-03    -235.409E-03    -82.1348E-03     141.114E-03    -59.0965E-03     480.461E-03     204.570E+06     203.549E+06    -5.66853E+06    -5.63929E+06     204.540E+06     203.549E+06     2.45707E+06         78.1869
             184     17.0190E-03     104.372E-03         1.68200    -343.299E-03    -888.096E-03    -342.952E-03         1.68165    -888.096E-03     48.9619E-03     304.267E-03    -57.9444E-03    -246.329E-03    -78.9564E-03     136.894E-03    -57.9444E-03     506.266E-03     203.122E+06     202.912E+06    -4.85483E+06    -4.78613E+06     202.986E+06     202.980E+06     3.66807E+06         78.2877
             185     17.0486E-03     105.454E-03         1.62983    -326.652E-03    -899.086E-03    -326.525E-03         1.62971    -899.086E-03     31.2572E-03     300.673E-03    -56.4889E-03    -244.159E-03    -71.4430E-03     127.957E-03    -56.4889E-03     507.032E-03     202.249E+06     198.229E+06    -6.84193E+06    -6.78360E+06     198.170E+06     202.249E+06     3.18540E+06         78.4725
             186     17.0763E-03     106.547E-03         1.57714    -300.250E-03    -901.262E-03    -300.153E-03         1.57705    -901.262E-03     25.4466E-03     290.340E-03    -54.6595E-03    -235.735E-03    -78.4226E-03     133.027E-03    -54.6595E-03     481.267E-03     205.929E+06     195.711E+06    -5.23742E+06    -5.22349E+06     195.697E+06     205.929E+06     1.66851E+06         78.7193
             187     17.0914E-03     107.677E-03         1.49558    -279.713E-03    -893.015E-03    -279.684E-03         1.49555    -893.015E-03     1.18608E-03     284.215E-03    -53.0737E-03    -231.195E-03    -94.3400E-03     147.360E-03    -53.0737E-03     454.870E-03     207.870E+06     189.772E+06    -5.53780E+06    -5.53168E+06     189.766E+06     207.870E+06     650.376E+03         78.9927
             188     17.0988E-03     108.815E-03         1.40410    -244.302E-03    -873.940E-03    -244.248E-03         1.40405    -873.940E-03    -18.0210E-03     284.181E-03    -52.1686E-03    -232.047E-03    -108.034E-03     160.168E-03    -52.1686E-03     440.930E-03     211.775E+06     181.037E+06    -6.09554E+06    -6.00241E+06     180.944E+06     211.775E+06     -3.0411E+06         79.3015
             189     17.1003E-03     109.982E-03         1.30429    -202.729E-03    -845.044E-03    -202.528E-03         1.30409    -845.044E-03    -32.9433E-03     288.865E-03    -51.7819E-03    -237.145E-03    -116.988E-03     168.709E-03    -51.7819E-03     441.653E-03     219.510E+06     178.098E+06    -2.70506E+06    -2.57175E+06     177.964E+06     219.510E+06    -1.02469E+06         79.6137
             190     17.1032E-03     111.150E-03         1.25517    -214.359E-03    -804.211E-03    -214.192E-03         1.25500    -804.211E-03    -16.5887E-03     290.612E-03    -51.6611E-03    -239.179E-03    -118.164E-03     169.597E-03    -51.6611E-03     444.820E-03     217.602E+06     169.594E+06    -9.25952E+06    -8.61913E+06     168.954E+06     217.602E+06    -5.42188E+06         79.8311
             191     17.1036E-03     112.291E-03         1.15872    -179.463E-03    -751.468E-03    -179.303E-03         1.15856    -751.468E-03    -14.1127E-03     282.582E-03    -51.5859E-03    -231.149E-03    -114.580E-03     166.013E-03    -51.5859E-03     430.310E-03     210.800E+06     157.770E+06    -5.62204E+06    -5.01829E+06     157.166E+06     210.800E+06    -6.79501E+06         79.8507
             192     17.1055E-03     113.419E-03         1.04019    -154.604E-03    -689.336E-03    -154.442E-03         1.04003    -689.336E-03    -14.2342E-03     268.823E-03    -51.3715E-03    -217.465E-03    -114.656E-03     166.015E-03    -51.3715E-03     396.855E-03     198.927E+06     141.919E+06     -8.6332E+06    -7.27277E+06     140.558E+06     198.927E+06    -9.60710E+06         79.5820
             193     17.1046E-03     114.557E-03     960.898E-03    -164.696E-03    -615.396E-03    -164.509E-03     960.711E-03    -615.396E-03    -14.5605E-03     258.471E-03    -50.9503E-03    -207.602E-03    -124.557E-03     175.426E-03    -50.9503E-03     355.766E-03     201.599E+06     127.368E+06     -206.43E+03     1.64228E+06     125.519E+06     201.599E+06    -5.16343E+06         78.9556
             194     17.1079E-03     115.713E-03     837.198E-03    -140.608E-03    -529.033E-03    -140.422E-03     837.013E-03    -529.033E-03    -15.6516E-03     256.802E-03    -50.1899E-03    -206.626E-03    -147.795E-03     197.971E-03    -50.1899E-03     305.784E-03     195.873E+06     106.746E+06    -16.0922E+06    -11.2330E+06     101.887E+06     195.873E+06    -12.2511E+06         77.9349
             195     17.1052E-03     116.908E-03     700.780E-03    -126.258E-03    -430.662E-03    -126.240E-03     700.762E-03    -430.662E-03     7.60198E-03     270.998E-03    -49.1262E-03    -221.948E-03    -184.224E-03     233.274E-03    -49.1262E-03     259.436E-03     188.354E+06     86.1700E+06    -13.6261E+06    -4.85637E+06     77.4002E+06     188.354E+06    -7.11919E+06         76.5116
             196     17.1084E-03     118.194E-03     572.447E-03    -118.023E-03    -318.442E-03    -117.738E-03     572.161E-03    -318.442E-03     22.4167E-03     296.238E-03    -48.2455E-03    -248.080E-03    -220.198E-03     268.356E-03    -48.2455E-03     239.541E-03     187.341E+06     60.0825E+06    -26.2730E+06    -13.4814E+06     47.2910E+06     187.341E+06    -10.4664E+06         74.6526
             197     17.1045E-03     119.531E-03     431.036E-03    -118.500E-03    -193.168E-03    -118.007E-03     430.544E-03    -193.168E-03     32.8816E-03     321.382E-03    -47.7198E-03    -273.675E-03    -244.962E-03     292.668E-03    -47.7198E-03     254.939E-03     195.898E+06     65.8942E+06    -40.6243E+06     10.2935E+06     14.9764E+06     195.898E+06    -5.69983E+06         72.2200
             198     17.1107E-03     120.897E-03     284.505E-03    -54.9646E-03    -113.709E-03    -108.798E-03     283.475E-03    -58.8464E-03    -8.20506E-03     349.480E-03    -47.4364E-03    -302.054E-03    -266.276E-03     313.702E-03    -47.4364E-03     296.638E-03     196.010E+06     51.6125E+06    -45.2673E+06    -2.38367E+06     8.72881E+06     196.010E+06     10.7016E+06         68.5907
             199     17.0952E-03     122.322E-03     182.354E-03     48.2385E-03    -101.334E-03    -100.422E-03     149.562E-03     80.1178E-03    -16.3917E-03     371.280E-03    -47.5993E-03    -323.656E-03    -265.373E-03     312.996E-03    -47.5993E-03     380.105E-03     171.976E+06     35.3163E+06    -35.4807E+06    -25.6208E+06     25.4563E+06     171.976E+06     6.57798E+06         63.4395
             200     17.1241E-03     123.700E-03     214.655E-03     44.8145E-03    -94.3866E-03    -90.4876E-03     40.9155E-03     214.655E-03     31.0137E-03     315.490E-03    -49.8904E-03    -265.458E-03    -156.168E-03     206.200E-03    -49.8904E-03     430.457E-03     95.5494E+06     12.5701E+06    -73.9079E+06    -9.42807E+06    -21.7475E+06     65.3871E+06    -36.1678E+06         57.8126
             201     17.0900E-03     124.596E-03     336.203E-03    -9.70330E-03    -118.420E-03    -54.2102E-03    -73.9129E-03     336.203E-03    -5.49561E-03     163.136E-03    -27.2945E-03    -135.696E-03    -8.84200E-03     69.9449E-03    -60.9576E-03     247.931E-03     93.9604E+06     58.5904E+06    -116.389E+06     8.07401E+06    -30.5027E+06     58.5904E+06     9.54420E+06         52.6642
             202     16.5297E-03     125.471E-03     452.863E-03    -26.6135E-03    -171.882E-03    -81.7731E-03    -116.723E-03     452.863E-03    -108.462E-03     62.1705E-03     22.0850E-03    -84.2239E-03     44.6571E-03     39.5984E-03    -84.2239E-03     38.9100E-03     89.6294E+06     54.6141E+06    -90.6126E+06     27.7036E+06     6.39774E+06     19.5296E+06     41.5935E+06         48.5909
             203     15.0919E-03     125.840E-03     496.011E-03    -12.2157E-03    -209.757E-03    -149.956E-03    -72.0161E-03     496.011E-03     23.8943E-03     58.4680E-03     39.2610E-03    -97.7287E-03     40.9461E-03     56.7829E-03    -97.7287E-03     10.6906E-03     26.9856E+06    -68.9483E+06    -114.317E+06    -49.7677E+06    -2.47893E+06    -104.033E+06     16.0298E+06         46.1532
             204     14.2735E-03     125.264E-03     454.621E-03     80.8837E-03    -232.039E-03    -70.5033E-03    -80.6516E-03     454.621E-03     286.839E-03     97.6793E-03    -3.27725E-03    -94.4180E-03     1.50881E-03     92.8932E-03    -94.4180E-03    -24.8842E-03     100.159E+06     24.5945E+06    -92.2800E+06    -42.1907E+06     50.0701E+06     24.5945E+06    -22.0885E+06         44.4031
             205     13.4629E-03     124.720E-03     403.109E-03     147.983E-03    -203.682E-03     38.7483E-03    -94.4473E-03     403.109E-03     325.001E-03     146.108E-03    -58.9504E-03    -87.2500E-03    -41.8128E-03     128.970E-03    -87.2500E-03    -110.149E-03     92.5625E+06     48.1014E+06    -114.105E+06    -25.3671E+06    -31.1976E+06     83.1238E+06    -44.7452E+06         42.1982
             206     12.7313E-03     124.273E-03     356.281E-03     148.458E-03    -137.629E-03     68.5671E-03    -57.7386E-03     356.281E-03     256.665E-03     162.533E-03    -76.9244E-03    -85.6794E-03    -60.8152E-03     139.171E-03    -78.4269E-03    -143.706E-03     60.1227E+06     15.4219E+06    -98.2653E+06    -29.7901E+06    -43.3748E+06     50.4443E+06    -19.2763E+06         39.6216
             207     11.9302E-03     123.921E-03     319.664E-03     188.918E-03    -118.522E-03     102.669E-03    -32.2732E-03     319.664E-03     276.201E-03     167.337E-03    -70.6283E-03    -96.7041E-03    -78.6245E-03     149.258E-03    -70.6283E-03    -133.067E-03     75.2226E+06     33.4323E+06    -64.2443E+06    -10.5445E+06    -10.5891E+06     65.5442E+06    -26.8452E+06         36.9365
             208     11.1102E-03     123.633E-03     290.415E-03     214.560E-03    -133.324E-03     131.705E-03    -50.4688E-03     290.415E-03     293.624E-03     169.831E-03    -63.4685E-03    -106.358E-03    -91.6004E-03     155.074E-03    -63.4685E-03    -123.940E-03     84.4123E+06     23.3142E+06    -42.8785E+06     1.49632E+06    -21.0606E+06     84.4123E+06    -9.54763E+06         34.2744
             209     10.2773E-03     123.395E-03     267.729E-03     209.630E-03    -116.999E-03     147.929E-03    -55.2980E-03     267.729E-03     255.705E-03     161.220E-03    -56.4977E-03    -104.837E-03    -94.2184E-03     150.601E-03    -56.4977E-03    -103.728E-03     98.4140E+06     36.8057E+06    -23.5575E+06     14.9811E+06    -1.73301E+06     98.4140E+06    -10.9838E+06         31.8479
             210     9.42344E-03     123.210E-03     251.202E-03     198.669E-03    -82.5484E-03     163.325E-03    -47.2049E-03     251.202E-03     174.969E-03     144.843E-03    -50.0976E-03    -94.8343E-03    -88.3449E-03     138.354E-03    -50.0976E-03    -77.2728E-03     93.8050E+06     27.8254E+06    -14.8359E+06     21.0841E+06    -8.09459E+06     93.8050E+06    -4.58608E+06         29.8091
             211     8.54417E-03     123.064E-03     239.202E-03     196.019E-03    -86.4088E-03     182.043E-03    -72.4326E-03     239.202E-03     122.467E-03     126.026E-03    -44.6101E-03    -81.3653E-03    -77.8316E-03     122.492E-03    -44.6101E-03    -53.3140E-03     90.9643E+06     31.1274E+06    -6.19226E+06     24.3210E+06     614.225E+03     90.9643E+06    -5.34543E+06         28.1891
             212     7.63986E-03     122.958E-03     230.131E-03     210.866E-03    -107.295E-03     194.068E-03    -90.4967E-03     230.131E-03     142.289E-03     108.859E-03    -40.0040E-03    -68.8176E-03    -66.8691E-03     106.911E-03    -40.0040E-03    -36.8337E-03     83.8690E+06     29.4805E+06    -4.13278E+06     27.3269E+06    -1.97920E+06     83.8690E+06    -4.06978E+06         26.9668
             213     6.71561E-03     122.873E-03     223.374E-03     205.517E-03    -96.0519E-03     196.109E-03    -86.6435E-03     223.374E-03     92.6279E-03     94.4570E-03    -36.0863E-03    -58.2910E-03    -57.1228E-03     93.2888E-03    -36.0863E-03    -26.5369E-03     79.6580E+06     31.0160E+06    -975.141E+03     28.6058E+06     1.43513E+06     79.6580E+06    -5.53521E+06         26.0241
             214     5.77967E-03     122.812E-03     219.113E-03     194.542E-03    -81.9733E-03     193.116E-03    -80.5475E-03     219.113E-03     39.5998E-03     82.3540E-03    -32.7884E-03    -49.4941E-03    -48.7800E-03     81.6400E-03    -32.7884E-03    -19.2538E-03     73.9148E+06     30.9445E+06    -3.66328E+06     29.7132E+06    -2.43194E+06     73.9148E+06    -5.47943E+06         25.2515
             215     4.83360E-03     122.763E-03     218.177E-03     190.398E-03    -65.2076E-03     186.350E-03    -61.1596E-03     218.177E-03     59.1504E-03     71.2894E-03    -30.0465E-03    -41.2302E-03    -40.8397E-03     70.8990E-03    -30.0465E-03    -13.1281E-03     68.6186E+06     33.6997E+06     673.435E+03     32.5743E+06     1.79882E+06     68.6186E+06    -4.89774E+06         24.6116
             216     3.87622E-03     122.729E-03     219.199E-03     202.686E-03    -72.5744E-03     199.343E-03    -69.2316E-03     219.199E-03     43.5178E-03     62.4168E-03    -27.9326E-03    -34.4676E-03    -34.2590E-03     62.2082E-03    -27.9326E-03    -8.93891E-03     62.8348E+06     34.5700E+06    -2.90699E+06      34.173E+06    -2.50997E+06     62.8348E+06    -3.82164E+06         24.0875
             217     2.91241E-03     122.704E-03     236.284E-03     214.622E-03    -110.978E-03     233.329E-03    -108.834E-03     215.433E-03    -35.5180E-03     56.3475E-03    -26.3339E-03    -29.9968E-03    -29.8810E-03     56.2317E-03    -26.3339E-03    -6.25154E-03     52.7915E+06     37.1698E+06     1.06326E+06     36.7738E+06     1.45923E+06     52.7915E+06    -3.74927E+06         23.6708
             218     1.94375E-03     122.688E-03     228.026E-03     201.581E-03    -85.1114E-03     219.862E-03    -82.5413E-03     207.175E-03    -25.2618E-03     51.6831E-03    -25.0422E-03    -26.6269E-03    -26.2652E-03     51.6175E-03    -25.3382E-03    -4.51760E-03     42.5800E+06     39.4218E+06    -1.65668E+06     41.6812E+06    -796.352E+03     39.4603E+06     -5.8617E+06         23.3699
             219     970.185E-06     122.675E-03     208.938E-03     200.338E-03    -78.1675E-03     199.519E-03    -74.3429E-03     205.931E-03    -31.9313E-03     50.2561E-03    -24.4424E-03    -25.8019E-03    -25.4574E-03     50.2076E-03    -24.7384E-03    -3.82057E-03     51.9004E+06     48.2972E+06    -4.04819E+06     49.6301E+06    -2.26139E+06     48.7806E+06    -9.79213E+06         23.1960
             220    -3.80300E-06     121.621E-03     203.459E-03     147.308E-03    -40.1607E-03     134.326E-03     28.9721E-03     147.308E-03    -106.470E-03     42.8202E-03    -20.2951E-03    -22.5262E-03    -21.3362E-03     42.7978E-03    -21.4627E-03    -2.18404E-03     35.7730E+06     34.8670E+06    -22.0012E+06     33.4614E+06    -20.5956E+06     35.7730E+06    -8.57658E+06         22.8394
             221     1.49631E-06     120.589E-03     351.095E-03     6.07422E-03    -33.3991E-03    -3.42119E-03     334.320E-03    -7.12847E-03    -120.002E-03     28.6766E-03    -13.5132E-03    -15.1645E-03    -13.9884E-03     28.6679E-03    -14.6807E-03    -1.08538E-03    -7.55431E+06    -16.4195E+06    -41.3549E+06    -9.30435E+06    -40.0275E+06    -15.9969E+06    -5.67997E+06         22.1453
             222    -670.296E-09     119.566E-03     738.807E-03    -185.745E-03    -219.472E-03    -202.347E-03     734.884E-03    -198.948E-03    -105.709E-03     18.5623E-03    -8.93892E-03    -9.62361E-03    -9.41090E-03     18.5504E-03    -9.13981E-03    -1.15009E-03    -45.0900E+06    -62.9229E+06    -74.7880E+06    -64.0973E+06    -55.7806E+06    -62.9229E+06    -4.93308E+06         21.4167
             223     367.934E-09     118.553E-03         1.14989    -387.981E-03    -411.862E-03    -407.689E-03         1.14908    -391.338E-03    -53.6499E-03     11.7763E-03    -5.75899E-03    -6.01675E-03    -5.81114E-03     11.7716E-03    -5.95988E-03    -503.872E-06    -74.8484E+06    -118.968E+06    -132.237E+06    -126.427E+06    -76.0599E+06    -123.566E+06    -7.57440E+06         20.8379
             224    -342.202E-09     117.542E-03         1.40773    -495.558E-03    -544.463E-03    -492.506E-03         1.40468    -544.463E-03     101.865E-03     6.52362E-03    -3.20960E-03    -3.31361E-03    -3.31253E-03     6.52254E-03    -3.20960E-03    -165.983E-06    -94.0479E+06    -173.524E+06    -182.286E+06    -176.581E+06    -95.1545E+06    -178.122E+06    -4.80737E+06         20.4359
             225     485.321E-09     116.540E-03         1.54150    -549.971E-03    -628.977E-03    -572.670E-03         1.53074    -595.519E-03     295.848E-03     2.66497E-03    -1.30504E-03    -1.36002E-03    -1.35699E-03     2.66194E-03    -1.30504E-03    -14.1313E-06    -119.593E+06    -223.081E+06    -230.679E+06    -229.289E+06    -120.983E+06    -223.081E+06    -7.88359E+06         20.2041
             226    -446.535E-09     115.538E-03         1.70337    -636.236E-03    -707.242E-03    -698.622E-03         1.69475    -636.236E-03     253.700E-03     1.81194E-03    -899.960E-06    -911.898E-06    -906.357E-06     1.80640E-03    -899.960E-06     245.463E-06    -94.2624E+06    -177.427E+06    -197.354E+06    -161.779E+06    -129.837E+06    -177.427E+06     6.04598E+06         20.1392
             227     203.765E-09     114.535E-03         1.96760    -763.270E-03    -836.522E-03    -831.618E-03         1.96269    -763.270E-03    -88.2111E-03     3.22041E-03    -1.60355E-03    -1.61671E-03    -1.60642E-03     3.21012E-03    -1.60355E-03     445.718E-06    -23.2859E+06    -70.0391E+06    -110.416E+06    -67.4975E+06    -66.2044E+06    -70.0391E+06     33.2108E+06         20.2044
             228     6.36024E-09     113.533E-03         2.27306    -909.651E-03    -998.437E-03    -941.331E-03         2.26903    -962.733E-03    -146.072E-03     6.07504E-03    -3.01978E-03    -3.05503E-03    -3.02436E-03     6.04438E-03    -3.01978E-03     1.04675E-03     23.3691E+06    -43.1992E+06    -71.2937E+06    -58.3006E+06     14.5860E+06    -47.4092E+06     19.9344E+06         20.4026
             229    -62.4638E-09     112.522E-03         2.51913        -1.03179        -1.10319        -1.03069         2.51804        -1.10319    -79.5498E-03     10.6635E-03    -5.29863E-03    -5.36464E-03    -5.29082E-03     10.5896E-03    -5.29863E-03     2.16737E-03     48.5797E+06    -29.6603E+06    -41.0427E+06    -36.6191E+06     48.3661E+06    -33.8703E+06    -487.147E+03         20.8122
             230     138.454E-09     111.511E-03         2.60173        -1.10215        -1.12266        -1.09984         2.59942        -1.12266     6.04194E-03     18.8997E-03    -9.34344E-03    -9.55617E-03    -9.45827E-03     18.8018E-03    -9.34344E-03     3.28946E-03     56.1983E+06     11.5833E+06    -1.98710E+06     4.55273E+06     56.0565E+06     5.18531E+06    -2.62578E+06         21.4867
             231     31.6762E-09     110.486E-03         2.70283        -1.14738        -1.18001        -1.14584         2.70129        -1.18001     45.8992E-03     32.1245E-03    -15.8963E-03    -16.2274E-03    -16.1363E-03     32.0333E-03    -15.8963E-03     4.14981E-03     55.7637E+06     38.0946E+06     30.3980E+06     37.2926E+06     48.2107E+06     38.7531E+06    -903.069E+03         22.4164
             232     308.565E-09     109.444E-03         2.82993        -1.18937        -1.22821        -1.18878         2.82935        -1.22821    -97.0669E-03     47.4174E-03    -23.4948E-03    -23.9216E-03    -23.8561E-03     47.3519E-03    -23.4948E-03     4.19474E-03     65.1214E+06     50.3744E+06     37.8812E+06     55.9611E+06     39.9851E+06     57.4308E+06    -5.40185E+06         23.5277
             233     90.5415E-09     108.390E-03         2.89223        -1.22529        -1.24309        -1.22497         2.89191        -1.24309    -29.1422E-03     62.4113E-03    -30.9927E-03    -31.4166E-03    -31.3910E-03     62.3857E-03    -30.9927E-03     2.75534E-03     75.0046E+06     64.5572E+06     21.6878E+06     70.9528E+06     22.9829E+06     67.3140E+06    -4.86165E+06         24.7078
             234     243.957E-09     107.318E-03         2.94961        -1.24283        -1.26474        -1.25531         2.94956        -1.25222     11.3667E-03     77.4895E-03    -38.5529E-03    -38.9391E-03    -38.6973E-03     77.4786E-03    -38.7837E-03     2.22713E-03     76.9824E+06     73.2512E+06    -7.28188E+06     73.8363E+06    -6.89251E+06     76.0080E+06    -4.47544E+06         25.8596
             235    -694.824E-09     106.228E-03         2.96480        -1.22721        -1.26380        -1.26362         2.96462        -1.22721    -45.0973E-03     92.0950E-03    -45.5995E-03    -46.5059E-03    -46.2638E-03     92.0837E-03    -45.8304E-03     2.44356E-03     73.4123E+06     71.4998E+06    -27.8455E+06     71.5471E+06    -26.9184E+06     72.4379E+06    -9.57015E+06         26.9017
             236     1.99331E-06     105.123E-03         3.01731        -1.22991        -1.29506        -1.25354         3.01688        -1.27100     9.39177E-03     103.153E-03    -50.8310E-03    -52.3307E-03    -52.3245E-03     103.147E-03    -50.8310E-03     1.95819E-03     63.9438E+06     60.5732E+06    -48.1238E+06     62.2932E+06    -47.4113E+06     61.5113E+06    -8.43200E+06         27.7630
             237    -464.409E-09     104.011E-03         2.97212        -1.21141        -1.25449        -1.21090         2.97161        -1.25449     2.49092E-03     110.216E-03    -54.6705E-03    -55.5492E-03    -55.5467E-03     110.214E-03    -54.6705E-03     929.246E-06     48.2436E+06     44.9981E+06    -74.8419E+06     47.2408E+06    -74.6521E+06     45.8111E+06    -4.21967E+06         28.4081
             238     580.471E-09     102.893E-03         2.80802        -1.13542        -1.15530        -1.15299         2.80769        -1.13741    -69.2315E-03     115.960E-03    -57.9054E-03    -58.0555E-03    -57.9600E-03     115.960E-03    -58.0009E-03     44.8315E-06     27.0763E+06     24.0383E+06    -103.644E+06     23.5159E+06    -103.122E+06     27.0763E+06    -6.73669E+06         28.8635
             239    -737.203E-09     101.765E-03         2.74000        -1.06948        -1.13556        -1.08505         2.73768        -1.11767    -154.721E-03     120.603E-03    -60.2270E-03    -60.3752E-03    -60.2266E-03     120.603E-03    -60.3752E-03    -354.504E-06     17.2458E+06     8.87490E+06    -125.237E+06      14.457E+06    -124.673E+06     11.0999E+06    -7.81654E+06         29.1851
             240     552.777E-09     100.637E-03         2.70371        -1.03405        -1.08370        -1.03180         2.70146        -1.08370    -135.564E-03     123.335E-03    -61.4437E-03    -61.8879E-03    -61.8338E-03     123.334E-03    -61.4964E-03    -991.640E-06     5.93233E+06    -4.82752E+06    -136.976E+06     1.22022E+06    -136.878E+06    -213.599E+03    -3.68044E+06         29.3966
             241     237.017E-09     99.5043E-03         2.57806    -983.879E-03    -990.335E-03    -988.704E-03         2.57789    -985.338E-03    -39.2573E-03     124.661E-03    -61.8246E-03    -62.8483E-03    -62.8471E-03     124.660E-03    -61.8246E-03    -841.624E-06    -21.7914E+06    -29.3515E+06    -154.502E+06    -26.4917E+06    -154.416E+06    -24.7376E+06    -3.32422E+06         29.5118
             242     893.685E-09     98.3719E-03         2.45430    -880.651E-03    -938.832E-03    -934.860E-03         2.45033    -880.651E-03    -193.145E-03     125.026E-03    -62.0423E-03    -62.9764E-03    -62.9753E-03     125.025E-03    -62.0423E-03    -846.525E-06    -40.8002E+06    -46.3188E+06    -172.402E+06    -43.5275E+06    -172.247E+06    -43.7463E+06    -4.36585E+06         29.5622
             243    -251.385E-09     97.2397E-03         2.27050    -760.325E-03    -824.831E-03    -813.709E-03         2.25937    -760.325E-03    -363.088E-03     125.028E-03    -62.3159E-03    -62.6892E-03    -62.6881E-03     125.027E-03    -62.3159E-03    -790.183E-06    -52.5103E+06    -59.5244E+06    -188.992E+06    -55.2524E+06    -188.822E+06    -56.9519E+06    -4.69773E+06         29.5781
             244     327.868E-09     96.1071E-03         2.09525    -676.744E-03    -707.351E-03    -694.135E-03         2.08204    -676.744E-03    -383.629E-03     125.400E-03    -62.5519E-03    -62.8526E-03    -62.8521E-03     125.400E-03    -62.5519E-03    -564.388E-06    -62.1376E+06    -73.2224E+06    -205.527E+06    -69.0523E+06    -205.256E+06    -66.5791E+06    -5.81230E+06         29.5834
             245     181.453E-09     94.9732E-03         1.97427    -569.405E-03    -667.430E-03    -654.688E-03         1.96153    -569.405E-03    -365.456E-03     125.495E-03    -62.2226E-03    -63.2671E-03    -63.2664E-03     125.494E-03    -62.2226E-03    -768.821E-06    -74.7173E+06    -88.2699E+06    -223.918E+06    -82.0253E+06    -223.253E+06    -81.6267E+06    -9.58410E+06         29.5869
             246     1.28248E-06     93.8419E-03         1.79787    -414.452E-03    -614.286E-03    -605.297E-03         1.78888    -414.452E-03    -284.852E-03     125.139E-03    -62.1086E-03    -63.0194E-03    -62.9228E-03     125.138E-03    -62.2041E-03    -942.557E-06    -91.0267E+06    -99.5259E+06    -247.199E+06    -93.0708E+06    -246.745E+06    -97.9361E+06    -5.46731E+06         29.5902
             247    -1.44795E-06     92.7098E-03         1.67617    -304.937E-03    -599.504E-03    -590.374E-03         1.66704    -304.937E-03    -276.293E-03     125.492E-03    -62.6362E-03    -62.8454E-03    -62.7467E-03     125.489E-03    -62.7316E-03    -1.52209E-03    -90.9315E+06    -94.2425E+06    -260.119E+06    -94.3541E+06    -260.007E+06    -90.9315E+06    -2.74625E+06         29.5965
             248     1.68721E-06     91.5770E-03         1.54143    -195.073E-03    -564.560E-03    -555.938E-03         1.53281    -195.073E-03    -257.148E-03     125.989E-03    -62.7072E-03    -63.2769E-03    -63.2719E-03     125.984E-03    -62.7072E-03    -1.95447E-03    -92.9355E+06    -98.3206E+06    -273.286E+06    -94.7890E+06    -273.154E+06    -96.5995E+06    -4.50728E+06         29.5986
             249    -857.633E-09     90.4439E-03         1.32101    -6.47622E-03    -509.007E-03    -504.283E-03         1.31629    -6.47622E-03    -182.446E-03     125.504E-03    -62.4476E-03    -63.0594E-03    -63.0537E-03     125.498E-03    -62.4476E-03    -2.07326E-03    -90.0028E+06    -95.9790E+06    -277.683E+06    -92.4430E+06    -277.555E+06    -93.6667E+06     1.70298E+06         29.5887
             250     1.16841E-06     89.3111E-03         1.19249     116.157E-03    -485.068E-03    -478.324E-03         1.18574     116.157E-03    -211.987E-03     125.008E-03    -61.9705E-03    -63.0194E-03    -63.0162E-03     125.005E-03    -61.9705E-03    -1.30331E-03    -85.9839E+06    -89.1149E+06    -273.775E+06    -88.5439E+06    -273.527E+06    -86.8026E+06    -491.121E+03         29.5685
             251     527.324E-09     88.1784E-03         1.13389     161.354E-03    -420.657E-03    -416.610E-03         1.12984     161.354E-03    -143.125E-03     124.590E-03    -61.5847E-03    -62.9900E-03    -62.4776E-03     124.590E-03    -62.0970E-03    -399.322E-06    -88.2270E+06    -90.3993E+06    -275.171E+06    -88.5005E+06    -274.897E+06    -90.3993E+06    -103.206E+03         29.5471
             252    -1.50975E-06     87.0482E-03         1.02559     247.705E-03    -366.890E-03    -363.365E-03         1.02206     247.705E-03     56.7903E-03     123.941E-03    -61.5784E-03    -62.3657E-03    -61.5762E-03     123.939E-03    -62.3657E-03    -1.06562E-03    -90.9738E+06    -93.6698E+06    -277.991E+06    -92.4802E+06    -277.827E+06    -92.3274E+06     5.23598E+06         29.5390
             253     997.345E-09     85.9173E-03     931.213E-03     302.189E-03    -303.651E-03    -300.387E-03     927.949E-03     302.189E-03     73.3752E-03     124.292E-03    -61.3673E-03    -62.9213E-03    -62.6440E-03     124.290E-03    -61.6424E-03    -895.885E-06    -87.7434E+06    -89.3217E+06    -274.913E+06    -89.3547E+06    -274.880E+06    -87.7434E+06     2.00292E+06         29.5494
             254     1.41517E-06     84.7850E-03     909.889E-03     250.955E-03    -203.030E-03    -198.252E-03     905.111E-03     250.955E-03     82.1755E-03     124.770E-03    -61.6063E-03    -63.1575E-03    -63.1569E-03     124.770E-03    -61.6063E-03    -465.803E-06    -83.6434E+06    -84.1785E+06    -271.548E+06    -84.1829E+06    -271.543E+06    -83.6434E+06    -283.606E+03         29.5655
             255    -905.815E-09     83.6547E-03     905.487E-03     177.158E-03    -115.032E-03    -104.969E-03     895.424E-03     177.158E-03     201.267E-03     124.334E-03    -61.8711E-03    -62.4619E-03    -62.4573E-03     124.329E-03    -61.8711E-03    -1.69915E-03    -82.0189E+06    -83.3629E+06    -271.127E+06    -82.3403E+06    -271.105E+06    -83.0636E+06    -1.90379E+06         29.5744
             256     1.47479E-06     82.5238E-03     888.652E-03     149.392E-03    -38.1932E-03     9.50256E-03     840.957E-03     149.392E-03     362.020E-03     124.346E-03    -61.7693E-03    -62.5658E-03    -62.5613E-03     124.341E-03    -61.7693E-03    -1.62444E-03    -80.0045E+06    -81.8638E+06    -269.096E+06    -80.0265E+06    -269.074E+06    -81.8638E+06    -769.897E+03         29.5806
             257    -577.117E-09     81.3918E-03     877.044E-03     121.669E-03     16.7338E-03     142.065E-03     785.816E-03     87.5655E-03     516.176E-03     125.037E-03    -62.2739E-03    -62.7551E-03    -62.7527E-03     125.035E-03    -62.2739E-03    -1.24182E-03    -81.1302E+06    -82.3098E+06    -271.642E+06    -81.5911E+06    -271.546E+06    -81.9448E+06     3.55025E+06         29.5865
             258     570.652E-09     80.2594E-03     960.979E-03     90.6628E-03    -37.9635E-03     232.389E-03     819.253E-03    -37.9635E-03     638.320E-03     125.210E-03    -62.5457E-03    -62.6740E-03    -62.5468E-03     125.208E-03    -62.6709E-03    -1.12791E-03    -77.7909E+06    -79.0657E+06    -272.041E+06    -79.1598E+06    -271.947E+06    -77.7909E+06     2.58687E+06         29.5801
             259    -794.720E-09     79.1264E-03         1.13306     94.2890E-03    -200.211E-03     259.502E-03     967.849E-03    -200.211E-03     755.127E-03     124.380E-03    -61.9543E-03    -62.4349E-03    -62.3061E-03     124.376E-03    -62.0794E-03    -1.40875E-03    -77.5883E+06    -78.6104E+06    -271.118E+06    -78.6571E+06    -271.071E+06    -77.5883E+06    -2.47887E+06         29.5660
             260     1.45179E-06     77.9976E-03         1.27436     149.456E-03    -382.899E-03     293.462E-03         1.13036    -382.899E-03     751.606E-03     124.063E-03    -61.5021E-03    -62.5424E-03    -62.5390E-03     124.060E-03    -61.5021E-03    -1.19614E-03    -75.9162E+06    -77.9440E+06    -267.731E+06    -76.0745E+06    -267.685E+06    -77.8317E+06    -2.38952E+06         29.5645
             261    -153.230E-09     76.8656E-03         1.34246     262.150E-03    -539.994E-03     412.957E-03         1.19165    -539.994E-03     747.233E-03     124.467E-03    -61.7754E-03    -62.6704E-03    -62.4573E-03     124.464E-03    -61.9855E-03    -1.13294E-03    -74.6220E+06    -79.1891E+06    -264.981E+06    -77.2781E+06    -264.977E+06    -76.5375E+06     256.482E+03         29.5730
             262    -220.640E-09     75.7345E-03         1.34513     396.470E-03    -670.984E-03     546.516E-03         1.19508    -670.984E-03     692.302E-03     124.648E-03    -61.9443E-03    -62.6933E-03    -62.4790E-03     124.644E-03    -62.1544E-03    -1.75769E-03    -75.1704E+06    -79.6708E+06    -265.888E+06    -77.8276E+06    -265.882E+06    -77.0193E+06     120.853E+03         29.5781
             263     1.22093E-06     74.6029E-03         1.45849     555.267E-03    -919.184E-03     654.334E-03         1.35942    -919.184E-03     545.305E-03     124.776E-03    -62.0673E-03    -62.6980E-03    -62.6951E-03     124.773E-03    -62.0673E-03    -1.47978E-03    -73.5776E+06    -76.7087E+06    -262.587E+06    -74.8627E+06    -262.584E+06    -75.4264E+06    -705.102E+03         29.5789
             264    -1.04615E-06     73.4704E-03         1.67448     676.682E-03        -1.23989     711.374E-03         1.63979        -1.23989     338.169E-03     124.435E-03    -61.9546E-03    -62.4801E-03    -62.4764E-03     124.431E-03    -61.9546E-03    -1.65843E-03    -73.5435E+06    -74.8949E+06    -261.406E+06    -74.8958E+06    -261.405E+06    -73.5435E+06    -137.331E+03         29.5791
             265     1.84902E-06     72.3397E-03         1.79165     807.162E-03        -1.47897     819.531E-03         1.77929        -1.47897     219.246E-03     124.551E-03    -61.7295E-03    -62.8024E-03    -62.8002E-03     124.549E-03    -61.7295E-03    -1.12467E-03    -73.9487E+06    -75.7773E+06    -261.352E+06    -74.0185E+06    -261.351E+06    -75.7082E+06     349.786E+03         29.5813
             266    -646.000E-09     71.2081E-03         1.89697     952.209E-03        -1.70482     958.524E-03         1.89065        -1.70482     74.9651E-03     124.973E-03    -62.1072E-03    -62.8488E-03    -62.7422E-03     124.969E-03    -62.2098E-03    -1.45384E-03    -77.5764E+06    -80.6084E+06    -261.509E+06    -78.9134E+06    -261.445E+06    -79.3359E+06     2.62770E+06         29.5844
             267     458.533E-09     70.0758E-03         2.20810     944.052E-03        -1.99221     949.586E-03         2.20256        -1.99221    -152.931E-03     124.843E-03    -62.2451E-03    -62.5983E-03    -62.4915E-03     124.838E-03    -62.3476E-03    -1.58609E-03    -74.6901E+06    -76.9401E+06    -260.108E+06    -76.0266E+06    -260.044E+06    -75.6676E+06     2.35836E+06         29.5880
             268    -9.63530E-09     68.9434E-03         2.56163     933.716E-03        -2.31006     955.918E-03         2.53943        -2.31006    -365.137E-03     124.769E-03    -62.1647E-03    -62.6035E-03    -62.6027E-03     124.768E-03    -62.1647E-03    -807.706E-06    -72.2759E+06    -75.5626E+06    -258.872E+06    -74.6011E+06    -258.856E+06    -73.2534E+06    -1.24454E+06         29.5945
             269     380.381E-09     67.8118E-03         2.74923     971.883E-03        -2.52603         1.02530         2.69582        -2.52603    -597.763E-03     124.764E-03    -62.1465E-03    -62.6180E-03    -62.6169E-03     124.763E-03    -62.1465E-03    -915.532E-06    -74.8927E+06    -79.5661E+06    -260.194E+06    -77.2295E+06    -260.167E+06    -77.2570E+06    -2.23844E+06         29.6033
             270     115.366E-09     66.6806E-03         2.91013     974.857E-03        -2.68312         1.08544         2.79955        -2.68312    -887.276E-03     125.148E-03    -62.2731E-03    -62.8780E-03    -62.8765E-03     125.147E-03    -62.2731E-03    -1.07442E-03    -74.5566E+06    -77.7388E+06    -259.157E+06    -75.4313E+06    -259.100E+06    -76.9209E+06     995.108E+03         29.6109
             271     522.004E-09     65.5479E-03         3.18905     951.614E-03        -2.91966         1.11509         3.02557        -2.91966        -1.16455     125.347E-03    -62.5022E-03    -62.8483E-03    -62.8205E-03     125.344E-03    -62.5267E-03    -1.53505E-03    -75.4164E+06    -76.3363E+06    -260.837E+06    -76.3235E+06    -260.747E+06    -75.5184E+06     1.09625E+03         29.6126
             272    -582.427E-09     64.4159E-03         3.57430     831.158E-03        -3.14994         1.01658         3.38887        -3.14994        -1.37627     124.954E-03    -62.4020E-03    -62.5546E-03    -62.5256E-03     124.950E-03    -62.4264E-03    -1.85562E-03    -73.3494E+06    -74.7941E+06    -260.333E+06    -73.3946E+06    -260.288E+06    -74.7941E+06    -1.69228E+06         29.6098
             273     788.647E-09     63.2844E-03         3.80556     755.196E-03        -3.27708     963.422E-03         3.59734        -3.27708        -1.53733     125.134E-03    -62.2157E-03    -62.9164E-03    -62.9138E-03     125.131E-03    -62.2157E-03    -1.29644E-03    -77.0528E+06    -78.4624E+06    -263.579E+06    -77.1461E+06    -263.486E+06    -78.4624E+06     3.26320E+06         29.6069
             274     15.9915E-03     61.9716E-03         3.28305    -893.699E-03        -1.12379    -893.693E-03         3.28304        -1.12379     2.40009E-03     292.580E-03    -62.5356E-03    -229.816E-03    -93.0916E-03     155.856E-03    -62.5356E-03     459.247E-03     148.621E+06     142.056E+06    -9.15443E+06    -9.12667E+06     142.029E+06     148.621E+06     436.811E+03         73.0628
             275     15.0478E-03     61.4622E-03         3.36410    -933.686E-03        -1.16404    -933.665E-03         3.36408        -1.16404    -8.09567E-03     223.790E-03    -62.4587E-03    -161.229E-03    -76.0942E-03     138.655E-03    -62.4587E-03     315.245E-03     117.670E+06     109.435E+06    -17.6752E+06    -17.6178E+06     109.378E+06     117.670E+06    -149.178E+03         68.4200
             276     14.1039E-03     61.2327E-03         3.44233    -978.880E-03        -1.19390    -978.857E-03         3.44231        -1.19390    -9.58656E-03     151.530E-03    -62.3567E-03    -89.2029E-03    -63.3244E-03     125.651E-03    -62.3567E-03     143.923E-03     87.1949E+06     79.6300E+06    -25.8898E+06    -25.8327E+06     82.1797E+06     84.5880E+06    -378.924E+03         62.4088
             277     13.1630E-03     61.1323E-03         3.51492        -1.02594        -1.21531        -1.02589         3.51487        -1.21531     22.2160E-03     130.410E-03    -62.2642E-03    -68.2460E-03    -60.2719E-03     122.436E-03    -62.2642E-03     76.9202E-03     68.4335E+06     50.1127E+06    -32.6040E+06    -32.5702E+06     68.3997E+06     50.1127E+06    -117.594E+03         56.3600
             278     12.2210E-03     61.0622E-03         3.57488        -1.06606        -1.23275        -1.06594         3.57476        -1.23275    -6.12172E-03     125.383E-03    -61.7421E-03    -63.7446E-03    -60.0760E-03     122.128E-03    -62.1553E-03     46.5098E-03     58.8155E+06     9.32726E+06    -38.3903E+06    -38.3512E+06     58.7764E+06     9.32726E+06    -131.083E+03         50.9221
             279     11.2786E-03     61.0292E-03         3.61903        -1.09393        -1.24792        -1.09378         3.61888        -1.24792    -4.14471E-03     123.132E-03    -61.0997E-03    -62.0823E-03    -60.4023E-03     122.435E-03    -62.0823E-03     20.4246E-03     49.4596E+06    -19.6125E+06    -42.1586E+06    -42.0992E+06     49.4002E+06    -19.6125E+06    -211.849E+03         46.1130
             280     10.3386E-03     61.0186E-03         3.66518        -1.12390        -1.26167        -1.12377         3.66505        -1.26167    -645.623E-06     123.179E-03    -61.0270E-03    -62.1841E-03    -60.8827E-03     123.035E-03    -62.1841E-03     10.2751E-03     13.6686E+06    -27.1688E+06    -42.7614E+06    -42.5281E+06     7.89566E+06    -21.6293E+06    -603.470E+03         41.9467
             281     9.39765E-03     61.0079E-03         3.71828        -1.16354        -1.27408        -1.16345         3.71819        -1.27408    -12.9126E-03     123.614E-03    -61.3180E-03    -62.3401E-03    -61.2315E-03     123.527E-03    -62.3401E-03     7.70434E-03    -20.0656E+06    -36.7903E+06    -62.8519E+06    -43.8579E+06    -55.7844E+06    -20.0656E+06     824.648E+03         38.4384
             282     8.45790E-03     61.0026E-03         3.77724        -1.21362        -1.28390        -1.21357         3.77720        -1.28390     9.53351E-03     124.026E-03    -61.6324E-03    -62.4319E-03    -61.6099E-03     124.003E-03    -62.4319E-03     3.51533E-03    -21.3887E+06    -46.3878E+06    -107.094E+06    -46.7911E+06    -106.690E+06    -21.3887E+06     2.49617E+06         35.6145
             283     7.51763E-03     61.0019E-03         3.81152        -1.23925        -1.29118        -1.23911         3.81139        -1.29118     35.1842E-03     124.305E-03    -61.7998E-03    -62.5241E-03    -61.7984E-03     124.303E-03    -62.5241E-03     785.922E-06    -20.8567E+06    -48.4429E+06    -148.269E+06    -48.6239E+06    -148.088E+06    -20.8567E+06     1.57479E+06         33.5143
             284     6.57741E-03     61.0023E-03         3.81271        -1.22766        -1.29954        -1.22748         3.81254        -1.29954     13.1162E-03     124.580E-03    -61.9840E-03    -62.5856E-03    -61.9825E-03     124.579E-03    -62.5856E-03    -676.749E-06    -25.5324E+06    -52.6803E+06    -187.822E+06    -52.7214E+06    -187.781E+06    -25.5324E+06     1.13037E+06         32.0664
             285     5.63783E-03     61.0045E-03         3.84241        -1.24460        -1.31004        -1.24418         3.84200        -1.31004     38.9602E-03     124.831E-03    -62.1918E-03    -62.6101E-03    -62.1878E-03     124.827E-03    -62.6101E-03    -1.70030E-03    -31.5730E+06    -57.5606E+06    -216.589E+06    -57.5707E+06    -216.579E+06    -31.5730E+06     920.556E+03         31.0684
             286     4.69800E-03     61.0073E-03         3.89261        -1.28718        -1.31862        -1.28582         3.89125        -1.31862    -32.9509E-03     124.986E-03    -62.3446E-03    -62.6161E-03    -62.3382E-03     124.980E-03    -62.6161E-03    -2.15839E-03    -39.0314E+06    -61.3837E+06    -232.444E+06    -61.3931E+06    -232.435E+06    -39.0314E+06     895.714E+03         30.4232
             287     3.75810E-03     61.0096E-03         3.91898        -1.30761        -1.32422        -1.30387         3.91524        -1.32422     74.3917E-03     125.104E-03    -62.4380E-03    -62.6445E-03    -62.4853E-03     125.097E-03    -62.5902E-03    -2.28251E-03    -49.0353E+06    -65.4784E+06    -244.460E+06    -65.4876E+06    -244.450E+06    -49.0353E+06     1.15049E+06         30.0716
             288     2.81880E-03     61.0129E-03         3.94075        -1.31177        -1.34011        -1.31740         3.93461        -1.32834    -19.9966E-03     125.055E-03    -62.4029E-03    -62.6357E-03    -62.4502E-03     125.048E-03    -62.5814E-03    -2.26393E-03    -58.9372E+06    -69.4760E+06    -250.685E+06    -69.4812E+06    -250.680E+06    -58.9372E+06     632.451E+03         29.8635
             289     1.87878E-03     61.0163E-03         3.98317        -1.31437        -1.37730        -1.34871         3.96384        -1.32363     225.450E-03     125.014E-03    -62.4282E-03    -62.6016E-03    -62.4264E-03     125.010E-03    -62.5986E-03    -1.80591E-03    -67.1600E+06    -73.0203E+06    -255.939E+06    -72.6546E+06    -255.920E+06    -67.5447E+06     1.00405E+06         29.7150
             290     939.246E-06     61.0168E-03         4.08694    -427.415E-03        -2.36228    -313.504E-03         3.93112        -2.32037    -563.935E-03     125.265E-03    -62.4355E-03    -62.8407E-03    -62.6910E-03     125.264E-03    -62.5837E-03    -1.05076E-03    -70.7554E+06    -74.3141E+06    -257.810E+06    -73.3443E+06    -257.764E+06    -71.7718E+06    -456.406E+03         29.6269
             291     15.9861E-03     60.8419E-03         3.38483    -923.556E-03        -1.18608    -923.542E-03         3.38482        -1.18608    -2.85909E-03     292.197E-03    -62.5129E-03    -229.495E-03    -93.2812E-03     155.984E-03    -62.5129E-03     458.270E-03     151.114E+06     142.812E+06    -8.74131E+06    -8.69904E+06     142.769E+06     151.114E+06     70.2866E+03         73.0316
             292     15.0454E-03     60.3255E-03         3.47345    -966.500E-03        -1.22670    -966.483E-03         3.47343        -1.22670    -1.27818E-03     225.193E-03    -62.4021E-03    -162.722E-03    -76.2800E-03     138.751E-03    -62.4021E-03     318.282E-03     118.504E+06     109.713E+06    -17.5130E+06    -17.4191E+06     109.619E+06     118.504E+06    -89.4121E+03         68.3945
             293     14.1065E-03     60.1057E-03         3.55017        -1.00876        -1.25762        -1.00875         3.55016        -1.25762    -10.9496E-03     151.375E-03    -62.3191E-03    -89.1363E-03    -63.0494E-03     125.288E-03    -62.3191E-03     144.838E-03     86.5292E+06     78.6549E+06    -25.7640E+06    -25.6951E+06     81.1094E+06     84.0058E+06     333.013E+03         62.3997
             294     13.1620E-03     59.9996E-03         3.62058        -1.05037        -1.28104        -1.05024         3.62045        -1.28104     31.5950E-03     130.136E-03    -62.2668E-03    -67.9674E-03    -59.6689E-03     121.838E-03    -62.2668E-03     78.2334E-03     68.0237E+06     49.1080E+06    -32.7711E+06    -32.7152E+06     67.9679E+06     49.1080E+06     805.884E+03         56.3705
             295     12.2210E-03     59.9322E-03         3.70188        -1.10722        -1.30066        -1.10704         3.70170        -1.30066     17.0423E-03     125.722E-03    -61.9462E-03    -63.8781E-03    -60.2822E-03     122.346E-03    -62.1663E-03     47.4461E-03     59.2786E+06     10.6188E+06    -38.5017E+06    -38.4470E+06     59.2238E+06     10.6188E+06     1.11038E+06         50.9472
             296     11.2802E-03     59.8973E-03         3.76538        -1.15174        -1.31721        -1.15159         3.76523        -1.31721     12.4995E-03     123.269E-03    -61.1609E-03    -62.1550E-03    -60.5022E-03     122.534E-03    -62.0788E-03     21.0575E-03     51.7074E+06    -16.6823E+06    -41.7781E+06    -41.7291E+06     51.6584E+06    -16.6823E+06    -707.092E+03         46.1448
             297     10.3389E-03     59.8866E-03         3.80758        -1.17728        -1.33218        -1.17716         3.80746        -1.33218     18.0998E-03     123.132E-03    -60.9882E-03    -62.1676E-03    -60.8336E-03     122.977E-03    -62.1676E-03     10.5951E-03     13.1985E+06    -28.8488E+06    -44.4827E+06    -44.1897E+06     6.98055E+06    -22.9238E+06    -1.49963E+06         41.9779
             298     9.39860E-03     59.8764E-03         3.86132        -1.21748        -1.34624        -1.21743         3.86126        -1.34624     5.72327E-03     123.554E-03    -61.2612E-03    -62.3341E-03    -61.1696E-03     123.462E-03    -62.3341E-03     7.96148E-03    -21.5991E+06    -39.4551E+06    -66.0804E+06    -46.3941E+06    -59.1414E+06    -21.5991E+06     615.776E+03         38.4666
             299     8.45748E-03     59.8705E-03         3.91131        -1.25450        -1.35885        -1.25441         3.91122        -1.35885     39.5166E-03     123.836E-03    -61.4571E-03    -62.4232E-03    -61.4306E-03     123.809E-03    -62.4232E-03     3.93247E-03    -23.6041E+06    -46.7995E+06    -105.312E+06    -47.1180E+06    -104.993E+06    -23.6041E+06     778.510E+03         35.6387
             300     7.51762E-03     59.8698E-03         3.95324        -1.28285        -1.37024        -1.28267         3.95306        -1.37024     57.2148E-03     124.385E-03    -61.8856E-03    -62.5182E-03    -61.8830E-03     124.382E-03    -62.5182E-03     1.11483E-03    -23.2176E+06    -48.6965E+06    -148.217E+06    -48.7441E+06    -148.169E+06    -23.2176E+06     524.702E+03         33.5341
             301     6.57780E-03     59.8704E-03         3.99893        -1.31501        -1.38036        -1.31484         3.99877        -1.38036     15.7016E-03     124.702E-03    -62.1051E-03    -62.5919E-03    -62.1038E-03     124.701E-03    -62.5919E-03    -511.764E-06    -24.2687E+06    -51.0213E+06    -188.178E+06    -51.0634E+06    -188.136E+06    -24.2687E+06     1.66946E+06         32.0813
             302     5.63750E-03     59.8724E-03         4.03608        -1.33942        -1.38909        -1.33912         4.03579        -1.38909     32.2588E-03     124.873E-03    -62.2635E-03    -62.5990E-03    -62.2598E-03     124.869E-03    -62.5990E-03    -1.61798E-03    -31.4089E+06    -55.4339E+06    -215.024E+06    -55.4597E+06    -214.998E+06    -31.4089E+06     1.55914E+06         31.0777
             303     4.69805E-03     59.8749E-03         4.06297        -1.35670        -1.39734        -1.35498         4.06126        -1.39734    -73.0985E-03     124.962E-03    -62.3518E-03    -62.5967E-03    -62.3460E-03     124.957E-03    -62.5967E-03    -2.07023E-03    -38.7513E+06    -60.8280E+06    -232.803E+06    -60.8449E+06    -232.787E+06    -38.7513E+06     768.207E+03         30.4270
             304     3.75849E-03     59.8778E-03         4.08814        -1.37504        -1.40569        -1.37137         4.08448        -1.40569     29.9057E-03     124.905E-03    -62.2689E-03    -62.5965E-03    -62.2619E-03     124.898E-03    -62.5965E-03    -2.29249E-03    -47.5105E+06    -65.0628E+06    -243.689E+06    -65.0745E+06    -243.678E+06    -47.5105E+06     833.961E+03         30.0728
             305     2.81826E-03     59.8807E-03         4.10810        -1.39103        -1.41498        -1.38387         4.10094        -1.41498    -77.7854E-03     125.085E-03    -62.4265E-03    -62.6295E-03    -62.4200E-03     125.079E-03    -62.6295E-03    -2.15706E-03    -57.6458E+06    -68.9215E+06    -249.928E+06    -68.9290E+06    -249.920E+06    -57.6458E+06     885.367E+03         29.8659
             306     1.87939E-03     59.8837E-03         4.15506        -1.41020        -1.44483        -1.40953         4.13305        -1.42349     204.015E-03     125.262E-03    -62.5782E-03    -62.6943E-03    -62.6768E-03     125.258E-03    -62.5919E-03    -1.58395E-03    -64.8282E+06    -71.9924E+06    -254.414E+06    -71.6111E+06    -254.410E+06    -65.2128E+06     87.5437E+03         29.7195
             307     939.830E-06     59.8850E-03         4.34096    -590.387E-03        -2.44515    -429.535E-03         4.15877        -2.42381    -699.603E-03     125.087E-03    -62.2864E-03    -62.8033E-03    -62.7014E-03     125.084E-03    -62.3858E-03    -1.33733E-03    -71.4375E+06    -75.6659E+06    -258.308E+06    -73.9683E+06    -258.243E+06    -73.1993E+06    -199.114E+03         29.6296
             308     15.9907E-03     59.7141E-03         3.46820    -941.342E-03        -1.24450    -941.305E-03         3.46817        -1.24450     13.7886E-03     291.276E-03    -62.5184E-03    -228.764E-03    -92.6185E-03     155.131E-03    -62.5184E-03     457.218E-03     148.919E+06     141.433E+06    -10.3553E+06    -10.3205E+06     141.398E+06     148.919E+06    -953.230E+03         72.9893
             309     15.0468E-03     59.1943E-03         3.57710    -997.747E-03        -1.28526    -997.726E-03         3.57708        -1.28526     10.5957E-03     225.049E-03    -62.4295E-03    -162.600E-03    -76.3285E-03     138.778E-03    -62.4295E-03     318.294E-03     116.135E+06     107.708E+06    -19.4669E+06    -19.3492E+06     107.590E+06     116.135E+06    -1.14980E+06         68.3542
             310     14.1038E-03     58.9718E-03         3.66466        -1.04826        -1.31662        -1.04824         3.66464        -1.31662     5.91101E-03     151.460E-03    -62.3710E-03    -89.0915E-03    -62.6729E-03     125.042E-03    -62.3710E-03     145.541E-03     84.9418E+06     78.3224E+06    -26.4733E+06    -26.3479E+06     80.6418E+06     82.4969E+06     103.580E+03         62.3702
             311     13.1628E-03     58.8733E-03         3.73736        -1.09139        -1.34084        -1.09127         3.73724        -1.34084     35.9556E-03     131.072E-03    -62.3289E-03    -68.8074E-03    -60.2187E-03     122.483E-03    -62.3289E-03     80.0504E-03     67.3709E+06     49.7672E+06    -33.0517E+06    -32.9780E+06     67.2972E+06     49.7672E+06     1.79744E+06         56.3558
             312     12.2194E-03     58.7973E-03         3.80566        -1.13279        -1.36215        -1.13268         3.80555        -1.36215     19.3902E-03     126.155E-03    -61.9882E-03    -64.2793E-03    -60.5037E-03     122.615E-03    -62.2246E-03     48.4202E-03     61.1530E+06     14.5077E+06    -37.9137E+06    -37.8706E+06     61.1099E+06     14.5077E+06     952.475E+03         50.9461
             313     11.2795E-03     58.7674E-03         3.88632        -1.18766        -1.38098        -1.18762         3.88629        -1.38098     2.96384E-03     123.392E-03    -61.2413E-03    -62.2039E-03    -60.5687E-03     122.643E-03    -62.1277E-03     21.7736E-03     53.5498E+06    -13.5073E+06    -40.7334E+06    -40.7076E+06     53.5241E+06    -13.5073E+06    -577.715E+03         46.1525
             314     10.3382E-03     58.7540E-03         3.95736        -1.24145        -1.39701        -1.24142         3.95733        -1.39701     11.0537E-03     123.256E-03    -61.0896E-03    -62.1922E-03    -60.9023E-03     123.069E-03    -62.1922E-03     11.6670E-03     11.1592E+06    -28.0068E+06    -43.6331E+06    -42.5443E+06     6.47497E+06    -24.4114E+06    -1.03903E+06         41.9901
             315     9.39788E-03     58.7448E-03         4.00155        -1.27187        -1.41159        -1.27186         4.00153        -1.41159     349.022E-06     123.704E-03    -61.4082E-03    -62.3397E-03    -61.3082E-03     123.604E-03    -62.3397E-03     8.36044E-03    -24.9537E+06    -38.1985E+06    -66.0362E+06    -43.2944E+06    -60.9403E+06    -24.9537E+06    -766.825E+03         38.4803
             316     8.45766E-03     58.7391E-03         4.03944        -1.29496        -1.42619        -1.29488         4.03936        -1.42619     3.28793E-03     123.939E-03    -61.5557E-03    -62.4296E-03    -61.5252E-03     123.908E-03    -62.4296E-03     4.28089E-03    -25.4580E+06    -45.6016E+06    -104.671E+06    -45.6989E+06    -104.573E+06    -25.4580E+06     466.521E+03         35.6522
             317     7.51703E-03     58.7374E-03         4.09438        -1.33675        -1.44007        -1.33663         4.09426        -1.44007     13.6786E-03     124.443E-03    -61.9330E-03    -62.5234E-03    -61.9295E-03     124.440E-03    -62.5234E-03     1.17437E-03    -24.7604E+06    -49.5536E+06    -148.587E+06    -49.5721E+06    -148.568E+06    -24.7604E+06     695.439E+03         33.5460
             318     6.57737E-03     58.7381E-03         4.16146        -1.39073        -1.45081        -1.39062         4.16136        -1.45081    -14.9952E-03     124.827E-03    -62.2223E-03    -62.5944E-03    -62.2212E-03     124.826E-03    -62.5944E-03    -540.046E-06    -25.5249E+06    -53.7845E+06    -189.386E+06    -53.8057E+06    -189.365E+06    -25.5249E+06     936.363E+03         32.0908
             319     5.63820E-03     58.7403E-03         4.20051        -1.41906        -1.45830        -1.41880         4.20024        -1.45830     20.1405E-03     124.885E-03    -62.2709E-03    -62.6008E-03    -62.2680E-03     124.882E-03    -62.6008E-03    -1.42252E-03    -30.4351E+06    -56.9973E+06    -213.290E+06    -57.0196E+06    -213.267E+06    -30.4351E+06     1.53868E+06         31.0843
             320     4.69817E-03     58.7427E-03         4.21258        -1.42176        -1.46599        -1.42054         4.21136        -1.46599    -60.4330E-03     124.931E-03    -62.3147E-03    -62.5942E-03    -62.3095E-03     124.926E-03    -62.5942E-03    -1.91564E-03    -37.8524E+06    -60.4577E+06    -232.109E+06    -60.4737E+06    -232.093E+06    -37.8524E+06     1.02609E+06         30.4314
             321     3.75829E-03     58.7459E-03         4.24301        -1.44497        -1.47536        -1.44262         4.23963        -1.47433     57.3418E-03     124.934E-03    -62.3262E-03    -62.5889E-03    -62.3187E-03     124.927E-03    -62.5889E-03    -2.36263E-03    -46.7784E+06    -64.6931E+06    -243.631E+06    -64.7051E+06    -243.619E+06    -46.7784E+06     356.239E+03         30.0766
             322     2.81848E-03     58.7490E-03         4.27239        -1.47231        -1.48510        -1.46930         4.26417        -1.47990    -95.2219E-03     125.035E-03    -62.4117E-03    -62.6109E-03    -62.4055E-03     125.029E-03    -62.6109E-03    -2.09482E-03    -56.6719E+06    -68.2424E+06    -248.831E+06    -68.2493E+06    -248.824E+06    -56.6719E+06     11.4366E+03         29.8691
             323     1.87847E-03     58.7502E-03         4.28254        -1.48135        -1.49258        -1.46097         4.25799        -1.48841     203.398E-03     125.203E-03    -62.5113E-03    -62.7065E-03    -62.6064E-03     125.198E-03    -62.6071E-03    -1.71917E-03    -64.4179E+06    -72.0096E+06    -254.229E+06    -72.0107E+06    -254.228E+06    -64.4179E+06    -387.563E+03         29.7232
             324     939.746E-06     58.7532E-03         4.48446    -691.075E-03        -2.47876    -510.557E-03         4.30395        -2.47876    -709.694E-03     125.162E-03    -62.2774E-03    -62.9033E-03    -62.8664E-03     125.158E-03    -62.3104E-03    -1.17769E-03    -70.5550E+06    -77.0888E+06    -258.905E+06    -76.3773E+06    -258.871E+06    -71.3004E+06     1.10290E+06         29.6358
             325     15.9813E-03     58.5692E-03         3.54270    -943.856E-03        -1.29713    -943.821E-03         3.54267        -1.29713     14.1626E-03     291.314E-03    -62.5503E-03    -228.727E-03    -91.4974E-03     154.084E-03    -62.5503E-03     458.396E-03     149.641E+06     142.154E+06    -9.16052E+06    -9.13523E+06     142.129E+06     149.641E+06    -214.416E+03         72.9391
             326     15.0461E-03     58.0648E-03         3.65746        -1.00680        -1.33774        -1.00676         3.65743        -1.33774     1.81080E-03     224.500E-03    -62.5119E-03    -161.939E-03    -75.9733E-03     138.535E-03    -62.5119E-03     317.346E-03     115.525E+06     106.277E+06    -18.9160E+06    -18.7181E+06     106.079E+06     115.525E+06     173.783E+03         68.3020
             327     14.1011E-03     57.8432E-03         3.76649        -1.07502        -1.36938        -1.07498         3.76645        -1.36938    -5.51446E-03     152.117E-03    -62.4773E-03    -89.6053E-03    -63.0370E-03     125.549E-03    -62.4773E-03     146.075E-03     84.2566E+06     76.6717E+06    -28.4708E+06    -28.2504E+06     79.6020E+06     81.1059E+06     1.10313E+06         62.3262
             328     13.1590E-03     57.7381E-03         3.85590        -1.13749        -1.39381        -1.13744         3.85586        -1.39381     18.8601E-03     131.746E-03    -62.4044E-03    -69.3829E-03    -60.8785E-03     123.242E-03    -62.4044E-03     79.9551E-03     68.2901E+06     50.5981E+06    -34.6353E+06    -34.5548E+06     68.2096E+06     50.5981E+06    -65.3281E+03         56.3263
             329     12.2207E-03     57.6682E-03         3.92164        -1.17645        -1.41523        -1.17639         3.92159        -1.41523    -3.78226E-03     126.504E-03    -62.0368E-03    -64.5718E-03    -60.8067E-03     122.976E-03    -62.2731E-03     48.4845E-03     61.5938E+06     15.3175E+06    -37.5909E+06    -37.5264E+06     61.5293E+06     15.3175E+06    -414.424E+03         50.9296
             330     11.2776E-03     57.6342E-03         3.98597        -1.21416        -1.43529        -1.21410         3.98591        -1.43529    -5.88368E-03     123.563E-03    -61.3916E-03    -62.2273E-03    -60.7007E-03     122.824E-03    -62.1797E-03     21.4221E-03     54.9815E+06    -12.8662E+06    -39.8427E+06    -39.8003E+06     54.9391E+06    -12.8662E+06    -72.8187E+03         46.1450
             331     10.3379E-03     57.6229E-03         4.06400        -1.27159        -1.45353        -1.27154         4.06394        -1.45353     1.75834E-03     123.391E-03    -61.1836E-03    -62.2440E-03    -61.0126E-03     123.220E-03    -62.2440E-03     11.1503E-03     12.8615E+06    -27.7194E+06    -43.5104E+06    -42.4546E+06     7.33758E+06    -23.2513E+06    -1.27120E+06         41.9888
             332     9.39702E-03     57.6123E-03         4.13351        -1.32494        -1.46949        -1.32489         4.13346        -1.46949    -5.30709E-03     123.888E-03    -61.5538E-03    -62.3783E-03    -61.4590E-03     123.793E-03    -62.3783E-03     8.13750E-03    -25.3807E+06    -40.0704E+06    -67.7055E+06    -45.0518E+06    -62.7241E+06    -25.3807E+06    -1.24929E+06         38.4829
             333     8.45726E-03     57.6071E-03         4.18756        -1.36581        -1.48355        -1.36576         4.18751        -1.48355    -6.94341E-03     124.246E-03    -61.8402E-03    -62.4455E-03    -61.8119E-03     124.218E-03    -62.4455E-03     4.07047E-03    -24.7886E+06    -45.6480E+06    -105.455E+06    -45.7965E+06    -105.306E+06    -24.7886E+06    -361.399E+03         35.6570
             334     7.51766E-03     57.6053E-03         4.22936        -1.39895        -1.49629        -1.39881         4.22922        -1.49629     9.77860E-03     124.463E-03    -61.9346E-03    -62.5379E-03    -61.9316E-03     124.460E-03    -62.5379E-03     1.15708E-03    -21.5038E+06    -47.0077E+06    -149.563E+06    -47.0290E+06    -149.542E+06    -21.5038E+06     1.12123E+06         33.5514
             335     6.57763E-03     57.6058E-03         4.26403        -1.42307        -1.50848        -1.42287         4.26383        -1.50848    -8.70055E-03     124.758E-03    -62.1214E-03    -62.6106E-03    -62.1199E-03     124.757E-03    -62.6106E-03    -463.312E-06    -21.0816E+06    -50.8446E+06    -188.991E+06    -50.8673E+06    -188.968E+06    -21.0816E+06     1.45287E+06         32.0955
             336     5.63745E-03     57.6081E-03         4.31087        -1.45453        -1.51999        -1.45421         4.31055        -1.51999     21.5568E-03     124.930E-03    -62.2823E-03    -62.6119E-03    -62.2796E-03     124.927E-03    -62.6119E-03    -1.39672E-03    -27.8677E+06    -55.4700E+06    -212.660E+06    -55.4757E+06    -212.655E+06    -27.8677E+06     147.901E+03         31.0882
             337     4.69782E-03     57.6107E-03         4.35724        -1.48885        -1.52956        -1.48733         4.35572        -1.52956    -69.1987E-03     125.001E-03    -62.3622E-03    -62.6064E-03    -62.3573E-03     124.996E-03    -62.6064E-03    -1.86472E-03    -37.0581E+06    -59.1690E+06    -231.735E+06    -59.1771E+06    -231.727E+06    -37.0581E+06     346.208E+03         30.4348
             338     3.75829E-03     57.6136E-03         4.38417        -1.51004        -1.53856        -1.50641         4.37950        -1.53753     76.4623E-03     125.109E-03    -62.4836E-03    -62.6347E-03    -62.5334E-03     125.102E-03    -62.5775E-03    -2.33774E-03    -46.5036E+06    -62.8344E+06    -242.865E+06    -62.8419E+06    -242.857E+06    -46.5036E+06     438.772E+03         30.0798
             339     2.81903E-03     57.6167E-03         4.41185        -1.52994        -1.54950        -1.52606         4.40277        -1.54430    -63.0067E-03     125.038E-03    -62.4532E-03    -62.6019E-03    -62.5038E-03     125.031E-03    -62.5448E-03    -2.18905E-03    -56.1669E+06    -67.1394E+06    -249.028E+06    -67.1428E+06    -249.024E+06    -56.1669E+06    -146.904E+03         29.8716
             340     1.87964E-03     57.6185E-03         4.45021        -1.54187        -1.57721        -1.54555         4.42442        -1.54774     230.972E-03     124.907E-03    -62.3348E-03    -62.5663E-03    -62.3303E-03     124.902E-03    -62.5663E-03    -1.72175E-03    -64.9292E+06    -70.9673E+06    -254.979E+06    -70.9678E+06    -254.979E+06    -64.9292E+06    -133.340E+03         29.7245
             341     939.059E-06     57.6205E-03         4.59011    -800.399E-03        -2.46309    -658.311E-03         4.42272        -2.43778    -655.471E-03     125.258E-03    -62.4512E-03    -62.8021E-03    -62.6256E-03     125.254E-03    -62.6238E-03    -1.12544E-03    -69.5523E+06    -74.5776E+06    -257.746E+06    -73.4142E+06    -257.732E+06    -70.7304E+06    -744.881E+03         29.6387
             342     15.9895E-03     57.4419E-03         3.62776    -954.630E-03        -1.34236    -954.606E-03         3.62774        -1.34236    -8.10981E-03     289.915E-03    -62.5817E-03    -227.162E-03    -89.6989E-03     152.452E-03    -62.5817E-03     456.850E-03     147.810E+06     141.221E+06    -9.21954E+06    -9.12411E+06     141.125E+06     147.810E+06    -132.670E+03         72.8878
             343     15.0391E-03     56.9315E-03         3.74241        -1.02095        -1.38174        -1.02093         3.74239        -1.38174    -7.47582E-03     223.876E-03    -62.5848E-03    -161.177E-03    -74.6819E-03     137.380E-03    -62.5848E-03     316.601E-03     116.091E+06     106.140E+06    -18.1467E+06    -17.9687E+06     105.962E+06     116.091E+06     1.96255E+06         68.2449
             344     14.1014E-03     56.7104E-03         3.85043        -1.08992        -1.41320        -1.08990         3.85040        -1.41320    -21.0808E-03     152.720E-03    -62.5825E-03    -90.1103E-03    -63.9158E-03     126.526E-03    -62.5825E-03     145.818E-03     87.4501E+06     78.8211E+06    -25.7967E+06    -25.6596E+06     81.3656E+06     84.7685E+06     1.36615E+06         62.2754
             345     13.1608E-03     56.6074E-03         3.94320        -1.15684        -1.43845        -1.15681         3.94317        -1.43845     6.87128E-03     132.207E-03    -62.4878E-03    -69.7872E-03    -61.2933E-03     123.713E-03    -62.4878E-03     79.9760E-03     70.2955E+06     51.4019E+06    -32.2011E+06    -32.1273E+06     69.6181E+06     52.0055E+06    -225.397E+03         56.2900
             346     12.2172E-03     56.5345E-03         4.02502        -1.21451        -1.46052        -1.21444         4.02494        -1.46052    -8.14699E-03     126.904E-03    -62.3114E-03    -64.6974E-03    -61.2758E-03     123.483E-03    -62.3114E-03     47.7794E-03     61.0635E+06     13.9650E+06    -38.6673E+06    -38.5287E+06     60.9249E+06     13.9650E+06    -810.241E+03         50.9050
             347     11.2794E-03     56.5028E-03         4.08931        -1.25606        -1.48075        -1.25596         4.08921        -1.48075    -1.28970E-03     123.853E-03    -61.6182E-03    -62.2843E-03    -61.0033E-03     123.151E-03    -62.1971E-03     20.8494E-03     55.5035E+06    -12.7519E+06    -42.0219E+06    -41.9210E+06     55.4025E+06    -12.7519E+06    -770.578E+03         46.1300
             348     10.3376E-03     56.4902E-03         4.14992        -1.29334        -1.50016        -1.29324         4.14982        -1.50016    -2.18954E-03     123.442E-03    -61.2150E-03    -62.2617E-03    -61.0617E-03     123.289E-03    -62.2617E-03     10.5768E-03     16.2618E+06    -29.8076E+06    -44.5255E+06    -44.4466E+06     6.87881E+06    -20.5035E+06     218.024E+03         41.9803
             349     9.39757E-03     56.4808E-03         4.22827        -1.35178        -1.51826        -1.35171         4.22819        -1.51826    -9.35908E-03     123.853E-03    -61.5261E-03    -62.3706E-03    -61.4391E-03     123.766E-03    -62.3706E-03     7.84952E-03    -26.5794E+06    -44.0946E+06    -64.7574E+06    -47.5586E+06    -61.2934E+06    -26.5794E+06    -884.278E+03         38.4787
             350     8.45741E-03     56.4738E-03         4.30105        -1.40933        -1.53373        -1.40931         4.30102        -1.53373     12.0394E-03     124.126E-03    -61.7426E-03    -62.4249E-03    -61.7149E-03     124.098E-03    -62.4249E-03     3.96972E-03    -30.5645E+06    -49.8056E+06    -106.975E+06    -49.9531E+06    -106.827E+06    -30.5645E+06    -2.13674E+06         35.6554
             351     7.51735E-03     56.4739E-03         4.34542        -1.44328        -1.54724        -1.44309         4.34523        -1.54724     44.1268E-03     124.426E-03    -61.9124E-03    -62.5172E-03    -61.9099E-03     124.424E-03    -62.5172E-03     1.24272E-03     -27.023E+06    -51.1320E+06    -151.690E+06    -51.1831E+06    -151.639E+06     -27.023E+06    -659.789E+03         33.5514
             352     6.57710E-03     56.4735E-03         4.38298        -1.47258        -1.56000        -1.47234         4.38274        -1.56000     23.8713E-03     124.729E-03    -62.1010E-03    -62.5867E-03    -62.0994E-03     124.727E-03    -62.5867E-03    -302.736E-06    -24.7344E+06    -51.9559E+06    -187.352E+06    -51.9826E+06    -187.326E+06    -24.7344E+06     90.0632E+03         32.0965
             353     5.63778E-03     56.4761E-03         4.42895        -1.50469        -1.57181        -1.50439         4.42865        -1.57181     31.3034E-03     125.001E-03    -62.3570E-03    -62.6082E-03    -62.3530E-03     124.997E-03    -62.6082E-03    -1.68576E-03    -28.8364E+06    -55.2240E+06    -212.904E+06    -55.2424E+06    -212.886E+06    -28.8364E+06     165.176E+03         31.0903
             354     4.69796E-03     56.4785E-03         4.47126        -1.53334        -1.58242        -1.53143         4.46935        -1.58242    -87.0243E-03     125.050E-03    -62.4332E-03    -62.6004E-03    -62.4268E-03     125.044E-03    -62.6004E-03    -2.17403E-03    -38.8150E+06    -60.1534E+06    -231.759E+06    -60.1666E+06    -231.746E+06    -38.8150E+06     234.078E+03         30.4368
             355     3.75835E-03     56.4813E-03         4.50311        -1.55427        -1.59289        -1.54896         4.49780        -1.59289     67.5757E-03     125.025E-03    -62.3971E-03    -62.6239E-03    -62.4480E-03     125.019E-03    -62.5668E-03    -2.15572E-03    -49.8509E+06    -63.9588E+06    -242.716E+06    -63.9603E+06    -242.715E+06    -49.8509E+06     178.072E+03         30.0806
             356     2.81900E-03     56.4840E-03         4.54195        -1.58233        -1.60444        -1.57420         4.53245        -1.60307    -59.2200E-03     125.066E-03    -62.4370E-03    -62.6315E-03    -62.5233E-03     125.061E-03    -62.5399E-03    -1.99746E-03    -59.0306E+06    -66.6407E+06    -248.851E+06    -66.6421E+06    -248.849E+06    -59.0306E+06     360.977E+03         29.8731
             357     1.87894E-03     56.4877E-03         4.59759        -1.60258        -1.64289        -1.61482         4.57236        -1.60543     223.006E-03     125.044E-03    -62.3919E-03    -62.6589E-03    -62.5087E-03     125.040E-03    -62.5386E-03    -1.50835E-03    -64.4194E+06    -69.1411E+06    -254.765E+06    -69.1422E+06    -254.764E+06    -64.4194E+06     360.310E+03         29.7269
             358     939.549E-06     56.4878E-03         4.72508    -921.632E-03        -2.45308    -788.895E-03         4.55624        -2.41698    -701.745E-03     125.041E-03    -62.3408E-03    -62.7015E-03    -62.5593E-03     125.039E-03    -62.4804E-03    -1.23441E-03    -70.0450E+06    -73.3714E+06    -257.460E+06    -72.2189E+06    -257.435E+06    -71.2230E+06     110.336E+03         29.6383
             359     15.9862E-03     56.3213E-03         3.72527    -991.861E-03        -1.38105    -991.838E-03         3.72525        -1.38105     331.178E-06     291.980E-03    -62.6555E-03    -229.097E-03    -89.6331E-03     152.516E-03    -62.6555E-03     461.343E-03     144.239E+06     140.575E+06    -11.4562E+06    -11.2951E+06     140.413E+06     144.239E+06    -16.1758E+03         72.8260
             360     15.0431E-03     55.8004E-03         3.83476        -1.05418        -1.41826        -1.05418         3.83475        -1.41826    -579.536E-06     226.446E-03    -62.6930E-03    -163.725E-03    -76.4458E-03     139.167E-03    -62.6930E-03     320.182E-03     114.751E+06     105.903E+06    -19.3553E+06    -19.2701E+06     105.818E+06     114.751E+06    -874.275E+03         68.1831
             361     14.0979E-03     55.5774E-03         3.92408        -1.10642        -1.44907        -1.10640         3.92406        -1.44907    -758.350E-06     152.629E-03    -62.6400E-03    -90.0182E-03    -64.3926E-03     127.003E-03    -62.6400E-03     144.263E-03     87.2146E+06     79.6692E+06    -24.7950E+06    -24.7784E+06     81.1002E+06     85.7669E+06    -355.575E+03         62.2253
             362     13.1571E-03     55.4739E-03         4.00946        -1.16640        -1.47520        -1.16636         4.00941        -1.47520     23.6222E-03     132.383E-03    -62.5332E-03    -69.9220E-03    -61.7436E-03     124.205E-03    -62.5332E-03     78.4624E-03     70.2793E+06     53.8013E+06    -31.5888E+06    -31.5555E+06     69.6424E+06     54.4050E+06     1.01585E+06         56.2533
             363     12.2204E-03     55.4019E-03         4.10091        -1.23490        -1.49846        -1.23484         4.10085        -1.49846     11.4918E-03     126.786E-03    -62.2095E-03    -64.6881E-03    -61.3329E-03     123.555E-03    -62.3342E-03     46.5170E-03     62.9459E+06     16.7124E+06    -36.7358E+06    -36.6315E+06     62.8416E+06     16.7124E+06     93.7127E+03         50.8783
             364     11.2777E-03     55.3699E-03         4.19008        -1.29997        -1.51886        -1.29992         4.19003        -1.51886    -873.737E-06     123.775E-03    -61.5901E-03    -62.2285E-03    -60.9526E-03     123.098E-03    -62.1889E-03     20.4681E-03     54.0533E+06    -12.9563E+06    -41.2243E+06    -41.1292E+06     53.9582E+06    -12.9563E+06    -346.885E+03         46.1103
             365     10.3385E-03     55.3586E-03         4.24972        -1.33714        -1.53761        -1.33709         4.24966        -1.53761    -10.2414E-03     123.526E-03    -61.3054E-03    -62.2459E-03    -61.1497E-03     123.370E-03    -62.2459E-03     10.6727E-03     14.4801E+06    -29.2972E+06    -43.9032E+06    -43.8336E+06     5.83591E+06    -20.7226E+06     540.617E+03         41.9662
             366     9.39784E-03     55.3481E-03         4.30370        -1.37191        -1.55624        -1.37187         4.30366        -1.55624    -3.61931E-03     123.741E-03    -61.4320E-03    -62.3574E-03    -61.3397E-03     123.649E-03    -62.3574E-03     8.04050E-03    -25.2652E+06    -41.6204E+06    -61.9227E+06    -45.4154E+06    -58.1277E+06    -25.2652E+06     -97.269E+03         38.4690
             367     8.45733E-03     55.3428E-03         4.37361        -1.42264        -1.57405        -1.42254         4.37350        -1.57405    -14.2070E-03     124.011E-03    -61.6350E-03    -62.4225E-03    -61.6069E-03     123.983E-03    -62.4225E-03     4.02781E-03    -30.8007E+06    -48.0331E+06    -107.711E+06    -48.0801E+06    -107.664E+06    -30.8007E+06    -1.39690E+06         35.6488
             368     7.51704E-03     55.3408E-03         4.43910        -1.47345        -1.58982        -1.47327         4.43892        -1.58982    -9.18980E-03     124.453E-03    -61.9577E-03    -62.5017E-03    -61.9553E-03     124.450E-03    -62.5017E-03     987.051E-06    -31.4998E+06    -51.1903E+06    -152.351E+06    -51.2434E+06    -152.298E+06    -31.4998E+06    -2.00825E+06         33.5475
             369     6.57770E-03     55.3420E-03         4.50072        -1.52540        -1.60262        -1.52529         4.50062        -1.60262     3.49382E-03     124.759E-03    -62.1638E-03    -62.5671E-03    -62.1632E-03     124.758E-03    -62.5671E-03    -401.484E-06    -30.8486E+06    -54.8435E+06    -188.004E+06    -54.8705E+06    -187.977E+06    -30.8486E+06    -1.58306E+06         32.0951
             370     5.63748E-03     55.3430E-03         4.54311        -1.55544        -1.61290        -1.55531         4.54298        -1.61290     19.5165E-03     124.991E-03    -62.3730E-03    -62.5982E-03    -62.3690E-03     124.987E-03    -62.5982E-03    -1.57959E-03    -32.3517E+06    -58.3087E+06    -213.650E+06    -58.3261E+06    -213.633E+06    -32.3517E+06    -190.859E+03         31.0907
             371     4.69835E-03     55.3464E-03         4.56959        -1.56556        -1.62354        -1.56424         4.56827        -1.62354    -86.7755E-03     125.043E-03    -62.4525E-03    -62.5916E-03    -62.4456E-03     125.036E-03    -62.5916E-03    -2.27789E-03    -39.9770E+06    -61.5062E+06    -231.228E+06    -61.5212E+06    -231.213E+06    -39.9770E+06     367.961E+03         30.4381
             372     3.75840E-03     55.3493E-03         4.61414        -1.59901        -1.63573        -1.59709         4.61049        -1.63399     53.5612E-03     124.892E-03    -62.3130E-03    -62.5651E-03    -62.3055E-03     124.884E-03    -62.5651E-03    -2.33451E-03    -51.2630E+06    -64.6434E+06    -243.036E+06    -64.6450E+06    -243.034E+06    -51.2630E+06     42.1633E+03         30.0805
             373     2.81814E-03     55.3522E-03         4.65773        -1.63381        -1.64402        -1.63027         4.65037        -1.64019    -72.3354E-03     125.012E-03    -62.4031E-03    -62.5893E-03    -62.4311E-03     125.005E-03    -62.5548E-03    -2.13542E-03    -61.4272E+06    -67.4735E+06    -248.210E+06    -67.4739E+06    -248.210E+06    -61.4272E+06     53.9586E+03         29.8719
             374     1.87940E-03     55.3544E-03         4.67639        -1.63918        -1.65794        -1.63203         4.65634        -1.64504     189.970E-03     125.210E-03    -62.5573E-03    -62.6806E-03    -62.6757E-03     125.207E-03    -62.5586E-03    -1.61357E-03    -65.4206E+06    -69.7860E+06    -254.918E+06    -69.7882E+06    -254.915E+06    -65.4206E+06     564.029E+03         29.7275
             375     940.264E-06     55.3564E-03         4.81731        -1.04879        -2.39811    -908.902E-03         4.66663        -2.38731    -737.765E-03     124.967E-03    -62.3395E-03    -62.6553E-03    -62.6540E-03     124.966E-03    -62.3395E-03    -845.224E-06    -69.4473E+06    -72.2256E+06    -257.450E+06    -72.2450E+06    -257.430E+06    -69.4473E+06     1.69087E+06         29.6390
             376     15.9736E-03     55.1798E-03         3.79583        -1.01297        -1.41351        -1.01296         3.79582        -1.41351     12.1135E-03     292.735E-03    -62.7516E-03    -229.619E-03    -90.1604E-03     153.276E-03    -62.7516E-03     462.066E-03     146.520E+06     142.094E+06    -9.48185E+06    -9.35968E+06     141.972E+06     146.520E+06     588.414E+03         72.7581
             377     15.0368E-03     54.6625E-03         3.90554        -1.07690        -1.44857        -1.07689         3.90552        -1.44857    -1.46788E-03     225.617E-03    -62.7548E-03    -162.716E-03    -78.3257E-03     141.226E-03    -62.7548E-03     315.546E-03     115.394E+06     106.207E+06    -18.5347E+06    -18.4616E+06     106.134E+06     115.394E+06    -440.894E+03         68.1242
             378     14.1018E-03     54.4468E-03         3.99190        -1.12628        -1.47830        -1.12626         3.99188        -1.47830     94.0040E-06     152.240E-03    -62.6192E-03    -89.6422E-03    -64.6821E-03     127.280E-03    -62.6192E-03     142.446E-03     85.9033E+06     78.7534E+06    -26.4380E+06    -26.4208E+06     80.1839E+06     84.4556E+06    -471.358E+03         62.1825
             379     13.1621E-03     54.3388E-03         4.07517        -1.18574        -1.50428        -1.18569         4.07513        -1.50428     24.7206E-03     131.889E-03    -62.4801E-03    -69.4642E-03    -61.3896E-03     123.814E-03    -62.4801E-03     77.8707E-03     69.7763E+06     54.0201E+06    -32.6797E+06    -32.6652E+06     69.6998E+06     54.0821E+06    -567.820E+03         56.2199
             380     12.2187E-03     54.2708E-03         4.16995        -1.25624        -1.52765        -1.25621         4.16992        -1.52765     21.8714E-03     126.362E-03    -62.1813E-03    -64.2936E-03    -60.9394E-03     123.132E-03    -62.3060E-03     46.4132E-03     62.8172E+06     16.1861E+06    -36.5155E+06    -36.4865E+06     62.7882E+06     16.1861E+06    -48.2198E+03         50.8502
             381     11.2793E-03     54.2376E-03         4.25957        -1.32165        -1.54835        -1.32164         4.25955        -1.54835    -4.33565E-03     123.641E-03    -61.4956E-03    -62.1943E-03    -60.8366E-03     122.957E-03    -62.1692E-03     20.5788E-03     52.8417E+06    -14.5475E+06    -39.2393E+06    -39.1421E+06     52.7445E+06    -14.5475E+06     1.10706E+06         46.0871
             382     10.3378E-03     54.2262E-03         4.33064        -1.37077        -1.56710        -1.37075         4.33062        -1.56710    -21.7761E-03     123.464E-03    -61.2587E-03    -62.2308E-03    -61.1039E-03     123.309E-03    -62.2308E-03     10.6151E-03     12.9066E+06    -28.7615E+06    -42.3105E+06    -42.1924E+06     6.12485E+06    -22.0979E+06     1.19270E+06         41.9479
             383     9.39752E-03     54.2165E-03         4.39088        -1.41072        -1.58496        -1.41067         4.39084        -1.58496     6.22829E-03     123.812E-03    -61.5194E-03    -62.3428E-03    -61.4318E-03     123.724E-03    -62.3428E-03     7.81468E-03    -25.9289E+06    -39.8192E+06    -61.8510E+06    -45.1907E+06    -56.4794E+06    -25.9289E+06     443.401E+03         38.4552
             384     8.45739E-03     54.2104E-03         4.45042        -1.45365        -1.60206        -1.45352         4.45029        -1.60206    -12.6822E-03     124.047E-03    -61.6897E-03    -62.4026E-03    -61.6637E-03     124.021E-03    -62.4026E-03     3.85976E-03    -31.3860E+06    -47.9425E+06    -107.164E+06    -47.9639E+06    -107.143E+06    -31.3860E+06    -193.327E+03         35.6389
             385     7.51775E-03     54.2089E-03         4.51445        -1.50249        -1.61757        -1.50236         4.51432        -1.61757    -22.7900E-03     124.436E-03    -61.9656E-03    -62.4919E-03    -61.9634E-03     124.433E-03    -62.4919E-03     955.094E-06    -31.5516E+06    -50.9729E+06    -151.740E+06    -50.9899E+06    -151.723E+06    -31.5516E+06    -965.748E+03         33.5407
             386     6.57734E-03     54.2095E-03         4.57067        -1.54512        -1.63090        -1.54505         4.57059        -1.63090    -11.8073E-03     124.734E-03    -62.1778E-03    -62.5596E-03    -62.1768E-03     124.733E-03    -62.5596E-03    -495.725E-06    -32.0049E+06    -53.9645E+06    -188.994E+06    -53.9958E+06    -188.963E+06    -32.0049E+06    -1.59236E+06         32.0910
             387     5.63800E-03     54.2111E-03         4.61385        -1.57322        -1.64280        -1.57316         4.61379        -1.64280    -6.36373E-03     124.873E-03    -62.2830E-03    -62.5950E-03    -62.2790E-03     124.869E-03    -62.5950E-03    -1.59859E-03    -34.2818E+06    -57.0447E+06    -215.228E+06    -57.0645E+06    -215.208E+06    -34.2818E+06    -1.39594E+06         31.0889
             388     4.69794E-03     54.2139E-03         4.66547        -1.60935        -1.65332        -1.60895         4.66470        -1.65295    -83.6662E-03     125.011E-03    -62.4205E-03    -62.6009E-03    -62.4204E-03     125.004E-03    -62.5936E-03    -2.31943E-03    -39.8024E+06    -60.1713E+06    -230.850E+06    -60.1841E+06    -230.837E+06    -39.8024E+06    -891.224E+03         30.4384
             389     3.75868E-03     54.2175E-03         4.71071        -1.64409        -1.66135        -1.64362         4.70813        -1.65925     54.7277E-03     125.045E-03    -62.4479E-03    -62.6042E-03    -62.4823E-03     125.035E-03    -62.5606E-03    -2.61201E-03    -48.1824E+06    -63.4920E+06    -242.599E+06    -63.5015E+06    -242.590E+06    -48.1824E+06    -194.443E+03         30.0810
             390     2.81915E-03     54.2204E-03         4.72928        -1.65832        -1.66734        -1.65814         4.72352        -1.66176    -71.9167E-03     124.894E-03    -62.3455E-03    -62.5536E-03    -62.3744E-03     124.887E-03    -62.5172E-03    -2.30985E-03    -58.5249E+06    -66.9844E+06    -249.078E+06    -66.9858E+06    -249.076E+06    -58.5249E+06     296.029E+03         29.8690
             391     1.87886E-03     54.2216E-03         4.73179        -1.66048        -1.67091        -1.65026         4.71701        -1.66634     144.214E-03     124.927E-03    -62.3824E-03    -62.5421E-03    -62.3793E-03     124.922E-03    -62.5403E-03    -1.84934E-03    -64.6338E+06    -69.2495E+06    -254.881E+06    -69.2528E+06    -254.878E+06    -64.6338E+06     112.560E+03         29.7221
             392     939.003E-06     54.2248E-03         4.84544        -1.15407        -2.29354        -1.04728         4.73794        -2.29283    -651.546E-03     125.148E-03    -62.2926E-03    -62.8443E-03    -62.7721E-03     125.146E-03    -62.3623E-03    -1.13262E-03    -67.9158E+06    -70.4862E+06    -256.236E+06    -70.4967E+06    -256.226E+06    -67.9158E+06     330.673E+03         29.6358
             393     15.9855E-03     54.0469E-03         3.84123        -1.01488        -1.43829        -1.01488         3.84122        -1.43829     6.40725E-03     293.265E-03    -62.6853E-03    -230.422E-03    -91.8065E-03     154.650E-03    -62.6853E-03     462.004E-03     148.153E+06     142.970E+06    -7.70957E+06    -7.63780E+06     142.899E+06     148.153E+06     1.53188E+06         72.7086
             394     15.0457E-03     53.5339E-03         3.95201        -1.08290        -1.47119        -1.08288         3.95199        -1.47119    -5.36185E-03     223.814E-03    -62.6473E-03    -160.982E-03    -76.4150E-03     139.246E-03    -62.6473E-03     314.090E-03     116.903E+06     108.213E+06    -16.4815E+06    -16.4503E+06     108.182E+06     116.903E+06     995.610E+03         68.0825
             395     14.1008E-03     53.3094E-03         4.05728        -1.15163        -1.49922        -1.15157         4.05722        -1.49922    -28.4079E-03     152.156E-03    -62.5507E-03    -89.5195E-03    -64.0566E-03     126.693E-03    -62.5507E-03     143.343E-03     85.3656E+06     79.7029E+06    -25.8095E+06    -25.7991E+06     80.1864E+06     84.8716E+06    -656.168E+03         62.1430
             396     13.1596E-03     53.2104E-03         4.14503        -1.21606        -1.52355        -1.21600         4.14498        -1.52355    -8.01864E-03     131.654E-03    -62.4336E-03    -69.2595E-03    -61.1343E-03     123.529E-03    -62.4336E-03     78.1456E-03     69.1998E+06     52.9378E+06    -32.1009E+06    -32.0866E+06     69.1235E+06     52.9997E+06    -1.06849E+06         56.1854
             397     12.2198E-03     53.1365E-03         4.22266        -1.27176        -1.54593        -1.27170         4.22261        -1.54593    -6.33295E-03     126.265E-03    -62.1450E-03    -64.2370E-03    -60.8307E-03     122.985E-03    -62.2721E-03     46.4294E-03     61.4358E+06     13.2890E+06    -37.8293E+06    -37.8037E+06     61.4102E+06     13.2890E+06    -188.108E+03         50.8211
             398     11.2784E-03     53.1069E-03         4.29792        -1.32023        -1.56719        -1.32018         4.29786        -1.56719    -26.7585E-03     123.578E-03    -61.4656E-03    -62.1713E-03    -60.8451E-03     122.932E-03    -62.1463E-03     20.0997E-03     51.9930E+06    -15.7692E+06    -41.1933E+06    -41.0893E+06     51.8890E+06    -15.7692E+06     775.731E+03         46.0631
             399     10.3381E-03     53.0935E-03         4.38421        -1.38360        -1.58694        -1.38355         4.38416        -1.58694    -31.2731E-03     123.455E-03    -61.2932E-03    -62.2010E-03    -61.1463E-03     123.308E-03    -62.2010E-03     10.3147E-03     13.2826E+06    -28.4192E+06    -41.1212E+06    -40.9455E+06     6.72673E+06    -22.0389E+06     949.427E+03         41.9287
             400     9.39810E-03     53.0845E-03         4.46017        -1.44265        -1.60440        -1.44258         4.46011        -1.60440    -14.6746E-03     123.887E-03    -61.6198E-03    -62.3170E-03    -61.5445E-03     123.811E-03    -62.3170E-03     7.24216E-03    -22.8790E+06    -38.8592E+06    -60.8045E+06    -42.5486E+06    -57.1150E+06    -22.8790E+06     2.02105E+06         38.4401
             401     8.45805E-03     53.0782E-03         4.51551        -1.48189        -1.62026        -1.48184         4.51546        -1.62026    -10.9204E-03     124.010E-03    -61.6723E-03    -62.3785E-03    -61.6507E-03     123.988E-03    -62.3785E-03     3.49911E-03    -26.3797E+06    -47.0426E+06    -104.998E+06    -47.2350E+06    -104.805E+06    -26.3797E+06     2.07789E+06         35.6273
             402     7.51736E-03     53.0773E-03         4.56933        -1.52182        -1.63506        -1.52177         4.56928        -1.63506     2.54272E-03     124.328E-03    -61.8996E-03    -62.4556E-03    -61.8978E-03     124.326E-03    -62.4556E-03     856.329E-06    -29.7486E+06    -50.9567E+06    -149.542E+06    -51.0411E+06    -149.458E+06    -29.7486E+06    -997.828E+03         33.5319
             403     6.57816E-03     53.0768E-03         4.61678        -1.55461        -1.64888        -1.55454         4.61670        -1.64888     2.75044E-03     124.656E-03    -62.1536E-03    -62.5181E-03    -62.1519E-03     124.655E-03    -62.5181E-03    -694.852E-06    -32.6663E+06    -52.9985E+06    -189.953E+06    -53.0792E+06    -189.872E+06    -32.6663E+06    -2.28071E+06         32.0844
             404     5.63799E-03     53.0795E-03         4.67039        -1.59135        -1.66145        -1.59125         4.67028        -1.66145     9.39147E-03     124.747E-03    -62.2101E-03    -62.5588E-03    -62.2057E-03     124.743E-03    -62.5588E-03    -1.77953E-03    -35.2184E+06    -55.3281E+06    -215.969E+06    -55.3547E+06    -215.943E+06    -35.2184E+06    -1.64274E+06         31.0844
             405     4.69831E-03     53.0815E-03         4.72818        -1.63451        -1.67131        -1.63425         4.72756        -1.67094    -59.4893E-03     124.894E-03    -62.3438E-03    -62.5700E-03    -62.3437E-03     124.886E-03    -62.5627E-03    -2.32596E-03    -40.2495E+06    -59.1402E+06    -231.353E+06    -59.1593E+06    -231.334E+06    -40.2495E+06    -1.57344E+06         30.4359
             406     3.75862E-03     53.0851E-03         4.76030        -1.65734        -1.67769        -1.65531         4.75790        -1.67732     69.7816E-03     125.096E-03    -62.4904E-03    -62.6199E-03    -62.5689E-03     125.087E-03    -62.5323E-03    -2.59972E-03    -46.7363E+06    -63.5602E+06    -243.754E+06    -63.5728E+06    -243.741E+06    -46.7363E+06    -944.477E+03         30.0799
             407     2.81937E-03     53.0881E-03         4.77948        -1.67013        -1.68548        -1.66830         4.77454        -1.68236    -41.3397E-03     124.960E-03    -62.3561E-03    -62.6149E-03    -62.5195E-03     124.952E-03    -62.4432E-03    -2.49235E-03    -55.1817E+06    -66.8962E+06    -249.295E+06    -66.9035E+06    -249.288E+06    -55.1817E+06     235.309E+03         29.8668
             408     1.87967E-03     53.0910E-03         4.79994        -1.68145        -1.70061        -1.68578         4.78794        -1.68428     145.002E-03     124.718E-03    -62.1938E-03    -62.5194E-03    -62.3562E-03     124.712E-03    -62.3505E-03    -2.19244E-03    -64.0349E+06    -70.1304E+06    -254.263E+06    -70.1350E+06    -254.258E+06    -64.0349E+06     279.872E+03         29.7150
             409     939.832E-06     53.0913E-03         4.86857        -1.28349        -2.17020        -1.21055         4.78242        -2.15698    -593.607E-03     124.665E-03    -61.9058E-03    -62.7431E-03    -62.3671E-03     124.661E-03    -62.2783E-03    -1.52905E-03    -69.7159E+06    -73.6111E+06    -256.759E+06    -72.1511E+06    -256.755E+06    -71.1803E+06    -623.751E+03         29.6241
             410     15.9885E-03     52.9191E-03         3.89065        -1.02532        -1.45525        -1.02530         3.89063        -1.45525     1.89380E-03     292.762E-03    -62.5380E-03    -230.270E-03    -92.5611E-03     155.053E-03    -62.5380E-03     460.620E-03     147.111E+06     142.594E+06    -8.64527E+06    -8.58483E+06     142.534E+06     147.111E+06     583.213E+03         72.6722
             411     15.0413E-03     52.4014E-03         3.99972        -1.09854        -1.48510        -1.09852         3.99970        -1.48510    -4.72412E-03     224.419E-03    -62.5289E-03    -161.905E-03    -74.5595E-03     137.073E-03    -62.5289E-03     318.215E-03     116.315E+06     109.018E+06    -16.9902E+06    -16.9771E+06     109.005E+06     116.315E+06     777.328E+03         68.0497
             412     14.1017E-03     52.1789E-03         4.10840        -1.17526        -1.51070        -1.17519         4.10833        -1.51070    -28.2098E-03     151.330E-03    -62.4756E-03    -88.8060E-03    -63.3186E-03     125.843E-03    -62.4756E-03     142.712E-03     85.9308E+06     79.3026E+06    -25.0451E+06    -25.0200E+06     81.0903E+06     84.1180E+06    -448.049E+03         62.1085
             413     13.1616E-03     52.0759E-03         4.19891        -1.23987        -1.53313        -1.23979         4.19883        -1.53313    -17.3378E-03     131.142E-03    -62.3675E-03    -68.8400E-03    -60.9543E-03     123.256E-03    -62.3675E-03     76.7581E-03     67.9479E+06     51.2206E+06    -32.6998E+06    -32.6635E+06     67.9116E+06     51.2206E+06    -502.285E+03         56.1545
             414     12.2201E-03     52.0063E-03         4.26550        -1.28429        -1.55434        -1.28423         4.26544        -1.55434    -10.1951E-03     126.127E-03    -61.9662E-03    -64.2745E-03    -60.8496E-03     122.960E-03    -62.2238E-03     45.7958E-03     60.4921E+06     13.3301E+06    -38.2535E+06    -38.2126E+06     60.4512E+06     13.3301E+06     523.648E+03         50.7950
             415     11.2797E-03     51.9734E-03         4.33518        -1.32867        -1.57516        -1.32860         4.33512        -1.57516    -34.9627E-03     123.471E-03    -61.4158E-03    -62.1014E-03    -60.7737E-03     122.829E-03    -62.1014E-03     19.9198E-03     52.9943E+06    -14.1940E+06    -41.0044E+06    -40.9594E+06     52.9492E+06    -14.1940E+06    -152.770E+03         46.0413
             416     10.3391E-03     51.9625E-03         4.41486        -1.38743        -1.59493        -1.38738         4.41480        -1.59493    -36.2376E-03     123.448E-03    -61.3309E-03    -62.1479E-03    -61.1895E-03     123.306E-03    -62.1479E-03     10.1583E-03     12.9474E+06    -29.0838E+06    -43.4773E+06    -43.3513E+06     5.73106E+06    -21.9935E+06    -128.433E+03         41.9106
             417     9.39848E-03     51.9512E-03         4.48941        -1.44435        -1.61282        -1.44429         4.48935        -1.61282    -37.2144E-03     123.710E-03    -61.4972E-03    -62.2572E-03    -61.4235E-03     123.637E-03    -62.2572E-03     7.10876E-03    -23.6432E+06    -39.8790E+06    -63.8862E+06    -44.2423E+06    -59.5229E+06    -23.6432E+06     1.53613E+06         38.4251
             418     8.45839E-03     51.9472E-03         4.54914        -1.48673        -1.62918        -1.48669         4.54910        -1.62918    -17.1741E-03     123.942E-03    -61.6599E-03    -62.3192E-03    -61.6401E-03     123.922E-03    -62.3192E-03     3.44469E-03    -23.5009E+06    -42.8110E+06    -101.562E+06    -42.9958E+06    -101.377E+06    -23.5009E+06     1.58833E+06         35.6148
             419     7.51869E-03     51.9446E-03         4.60092        -1.52359        -1.64468        -1.52357         4.60090        -1.64468     5.34869E-03     124.261E-03    -61.8739E-03    -62.4112E-03    -61.8717E-03     124.259E-03    -62.4112E-03     889.763E-06    -24.2299E+06    -44.7693E+06    -147.170E+06    -44.9004E+06    -147.039E+06    -24.2299E+06     91.4751E+03         33.5218
             420     6.57811E-03     51.9455E-03         4.66165        -1.56854        -1.65869        -1.56852         4.66163        -1.65869     15.8635E-03     124.529E-03    -62.0683E-03    -62.4736E-03    -62.0667E-03     124.527E-03    -62.4736E-03    -776.053E-06    -29.5444E+06    -50.5786E+06    -190.668E+06    -50.6871E+06    -190.559E+06    -29.5444E+06    -332.216E+03         32.0762
             421     5.63853E-03     51.9469E-03         4.71991        -1.61318        -1.66986        -1.61309         4.71982        -1.66986     22.9177E-03     124.705E-03    -62.2393E-03    -62.4872E-03    -62.2339E-03     124.699E-03    -62.4872E-03    -1.95778E-03    -35.4535E+06    -56.2118E+06    -215.248E+06    -56.2255E+06    -215.234E+06    -35.4535E+06    -1.12894E+06         31.0776
             422     4.69863E-03     51.9502E-03         4.75210        -1.63273        -1.67928        -1.63226         4.75164        -1.67928    -58.0074E-03     124.759E-03    -62.3009E-03    -62.4804E-03    -62.2925E-03     124.751E-03    -62.4804E-03    -2.49939E-03    -41.1913E+06    -60.5038E+06    -232.405E+06    -60.5226E+06    -232.386E+06    -41.1913E+06    -1.63402E+06         30.4290
             423     3.75890E-03     51.9524E-03         4.77615        -1.64599        -1.68965        -1.64425         4.77441        -1.68965     57.1457E-03     124.827E-03    -62.3260E-03    -62.5140E-03    -62.3605E-03     124.818E-03    -62.4699E-03    -2.65943E-03    -47.9592E+06    -64.6329E+06    -245.370E+06    -64.6422E+06    -245.361E+06    -47.9592E+06    -1.11957E+06         30.0724
             424     2.81936E-03     51.9561E-03         4.80947        -1.66922        -1.70114        -1.66605         4.80630        -1.70114    -25.9942E-03     124.923E-03    -62.3399E-03    -62.5905E-03    -62.5262E-03     124.915E-03    -62.3960E-03    -2.46007E-03    -56.5834E+06    -68.3739E+06    -249.864E+06    -68.3846E+06    -249.853E+06    -56.5834E+06    -629.032E+03         29.8609
             425     1.88022E-03     51.9588E-03         4.85428        -1.69480        -1.72260        -1.69751         4.84449        -1.71009     168.774E-03     124.727E-03    -62.2394E-03    -62.4931E-03    -62.4628E-03     124.723E-03    -62.2652E-03    -1.71637E-03    -63.4705E+06    -71.3775E+06    -253.655E+06    -71.3852E+06    -253.648E+06    -63.4705E+06     138.134E+03         29.7097
             426     940.586E-06     51.9611E-03         4.92775        -1.45842        -2.04255        -1.39659         4.85341        -2.03004    -572.046E-03     124.335E-03    -61.8763E-03    -62.4602E-03    -62.1296E-03     124.334E-03    -62.2050E-03    -1.13799E-03    -69.8713E+06    -76.1990E+06    -257.420E+06    -74.7413E+06    -257.414E+06    -71.3356E+06     432.911E+03         29.6163
             427     15.9940E-03     51.8055E-03         3.93867        -1.04263        -1.46460        -1.04257         3.93862        -1.46460    -8.15873E-03     291.183E-03    -62.4864E-03    -228.798E-03    -92.1327E-03     154.518E-03    -62.4864E-03     457.669E-03     146.161E+06     140.988E+06    -10.0665E+06    -10.0097E+06     140.931E+06     146.161E+06    -397.975E+03         72.6328
             428     15.0482E-03     51.2697E-03         4.04206        -1.11598        -1.49041        -1.11594         4.04202        -1.49041    -13.6787E-03     227.081E-03    -62.4480E-03    -164.704E-03    -75.8765E-03     138.254E-03    -62.4480E-03     323.074E-03     116.194E+06     109.709E+06    -17.9070E+06    -17.8705E+06     109.672E+06     116.194E+06    -345.040E+03         68.0170
             429     14.1051E-03     51.0488E-03         4.13666        -1.17894        -1.51355        -1.17890         4.13662        -1.51355    -14.3344E-03     151.406E-03    -62.4099E-03    -89.0443E-03    -63.3491E-03     125.711E-03    -62.4099E-03     143.583E-03     86.1749E+06     80.8000E+06    -25.0096E+06    -24.9419E+06     82.0511E+06     84.8561E+06     191.021E+03         62.0820
             430     13.1615E-03     50.9439E-03         4.22156        -1.23865        -1.53521        -1.23860         4.22151        -1.53521    -8.54244E-03     130.780E-03    -62.3007E-03    -68.5563E-03    -60.4979E-03     122.721E-03    -62.3007E-03     77.3676E-03     67.7624E+06     51.9169E+06    -32.5992E+06    -32.5317E+06     67.3762E+06     52.2357E+06     587.289E+03         56.1302
             431     12.2215E-03     50.8740E-03         4.30354        -1.29937        -1.55559        -1.29936         4.30352        -1.55559     5.64585E-03     125.889E-03    -62.0392E-03    -63.9574E-03    -60.6175E-03     122.680E-03    -62.1698E-03     46.1962E-03     60.5264E+06     14.3015E+06    -38.1478E+06    -38.1203E+06     60.4988E+06     14.3015E+06     102.285E+03         50.7722
             432     11.2798E-03     50.8425E-03         4.37906        -1.35364        -1.57459        -1.35362         4.37904        -1.57459    -19.1233E-03     123.555E-03    -61.4648E-03    -62.1252E-03    -60.8655E-03     122.875E-03    -62.0442E-03     20.4208E-03     53.4589E+06    -14.1613E+06    -41.3328E+06    -41.3173E+06     53.4435E+06    -14.1613E+06    -206.942E+03         46.0214
             433     10.3395E-03     50.8289E-03         4.43776        -1.39252        -1.59286        -1.39248         4.43773        -1.59286    -27.3395E-03     123.277E-03    -61.2043E-03    -62.0911E-03    -61.0634E-03     123.136E-03    -62.0911E-03     10.1347E-03     13.9326E+06    -30.3279E+06    -43.2822E+06    -43.2318E+06     5.22484E+06    -21.6707E+06    -66.4834E+03         41.8936
             434     9.39933E-03     50.8210E-03         4.49703        -1.43353        -1.61079        -1.43348         4.49697        -1.61079    -34.6811E-03     123.559E-03    -61.4065E-03    -62.1862E-03    -61.3303E-03     123.483E-03    -62.1862E-03     7.28060E-03    -26.5201E+06    -41.2222E+06    -62.3143E+06    -44.1175E+06    -59.4189E+06    -26.5201E+06    -1.10746E+06         38.4103
             435     8.45881E-03     50.8141E-03         4.56397        -1.48149        -1.62776        -1.48142         4.56389        -1.62776    -28.6288E-03     123.873E-03    -61.6696E-03    -62.2351E-03    -61.6471E-03     123.851E-03    -62.2351E-03     3.62730E-03    -28.8665E+06    -44.4117E+06    -101.177E+06    -44.5373E+06    -101.051E+06    -28.8665E+06    -1.48733E+06         35.6023
             436     7.51848E-03     50.8136E-03         4.62727        -1.52936        -1.64298        -1.52930         4.62721        -1.64298    -18.1660E-03     124.230E-03    -61.8958E-03    -62.3586E-03    -61.8934E-03     124.228E-03    -62.3586E-03     740.806E-06    -23.1251E+06    -45.5800E+06    -148.827E+06    -45.6395E+06    -148.767E+06    -23.1251E+06     1.35232E+06         33.5113
             437     6.57883E-03     50.8131E-03         4.68934        -1.58032        -1.65547        -1.58029         4.68930        -1.65547     2.49655E-03     124.441E-03    -62.0289E-03    -62.4251E-03    -62.0273E-03     124.439E-03    -62.4251E-03    -889.448E-06    -24.8782E+06    -49.2427E+06    -189.431E+06    -49.3222E+06    -189.352E+06    -24.8782E+06     2.66999E+06         32.0672
             438     5.63885E-03     50.8155E-03         4.73035        -1.61002        -1.66549        -1.60992         4.73024        -1.66549    -16.8127E-03     124.617E-03    -62.2188E-03    -62.4204E-03    -62.2133E-03     124.611E-03    -62.4204E-03    -1.96853E-03    -32.2445E+06    -54.8224E+06    -213.270E+06    -54.8509E+06    -213.241E+06    -32.2445E+06     556.767E+03         31.0694
             439     4.69937E-03     50.8176E-03         4.75396        -1.62212        -1.67552        -1.62176         4.75360        -1.67552    -88.2358E-03     124.612E-03    -62.2338E-03    -62.3995E-03    -62.2251E-03     124.603E-03    -62.3995E-03    -2.53664E-03    -39.9400E+06    -59.9757E+06    -232.427E+06    -59.9837E+06    -232.419E+06    -39.9400E+06    -904.241E+03         30.4198
             440     3.75942E-03     50.8214E-03         4.78647        -1.64433        -1.68627        -1.64349         4.78563        -1.68627     26.3452E-03     124.526E-03    -62.1387E-03    -62.4030E-03    -62.1302E-03     124.518E-03    -62.4030E-03    -2.51051E-03    -48.8963E+06    -64.1202E+06    -245.870E+06    -64.1354E+06    -245.855E+06    -48.8963E+06    -1.33136E+06         30.0613
             441     2.81916E-03     50.8237E-03         4.81732        -1.66545        -1.69741        -1.66298         4.81485        -1.69741    -72.8289E-03     124.583E-03    -62.1127E-03    -62.4836E-03    -62.1648E-03     124.576E-03    -62.4246E-03    -2.26119E-03    -57.3159E+06    -67.1485E+06    -251.130E+06     -67.166E+06    -251.113E+06    -57.3159E+06    -1.57661E+06         29.8513
             442     1.87927E-03     50.8273E-03         4.84987        -1.68496        -1.71190        -1.67713         4.84204        -1.71190     121.309E-03     124.709E-03    -62.2213E-03    -62.5050E-03    -62.2763E-03     124.705E-03    -62.4460E-03    -1.63257E-03    -63.7216E+06    -69.9219E+06    -254.373E+06    -69.9306E+06    -254.365E+06    -63.7216E+06    -856.808E+03         29.7069
             443     939.130E-06     50.8298E-03         4.95756        -1.58684        -1.91759        -1.52349         4.89420        -1.91759    -578.525E-03     124.933E-03    -62.1267E-03    -62.8145E-03    -62.7573E-03     124.932E-03    -62.1825E-03    -760.605E-06    -68.9636E+06    -73.3202E+06    -256.389E+06    -72.9799E+06    -256.383E+06    -69.3095E+06     352.880E+03         29.6220
             444     15.9821E-03     50.6640E-03         3.97568        -1.06433        -1.46612        -1.06429         3.97563        -1.46612    -14.9933E-03     290.532E-03    -62.5397E-03    -228.099E-03    -91.6672E-03     154.100E-03    -62.5397E-03     456.681E-03     147.994E+06     141.965E+06    -8.50666E+06    -8.47308E+06     141.932E+06     147.994E+06     498.485E+03         72.5891
             445     15.0439E-03     50.1395E-03         4.07439        -1.12725        -1.48772        -1.12722         4.07435        -1.48772    -7.45591E-03     228.047E-03    -62.4585E-03    -165.590E-03    -77.7232E-03     140.180E-03    -62.4585E-03     323.461E-03     115.802E+06     109.953E+06    -18.8405E+06    -18.8003E+06     109.913E+06     115.802E+06    -232.062E+03         67.9816
             446     14.1030E-03     49.9152E-03         4.15442        -1.17692        -1.50849        -1.17684         4.15434        -1.50849    -24.3447E-03     152.084E-03    -62.3808E-03    -89.6794E-03    -63.4814E-03     125.886E-03    -62.3808E-03     145.029E-03     84.5290E+06     80.1172E+06    -27.7174E+06    -27.6165E+06     81.0712E+06     83.4741E+06    -138.624E+03         62.0554
             447     13.1643E-03     49.8139E-03         4.22974        -1.23288        -1.52912        -1.23279         4.22966        -1.52912    -18.2701E-03     130.965E-03    -62.2853E-03    -68.7339E-03    -60.5486E-03     122.780E-03    -62.2853E-03     78.2405E-03     67.5580E+06     52.4350E+06    -33.2011E+06    -33.1112E+06     67.1493E+06     52.7538E+06    -25.5075E+03         56.1063
             448     12.2201E-03     49.7426E-03         4.31638        -1.29590        -1.54877        -1.29589         4.31637        -1.54877     2.41533E-03     126.133E-03    -62.1410E-03    -64.1155E-03    -60.7389E-03     122.756E-03    -62.1410E-03     47.1760E-03     61.2303E+06     15.7701E+06    -37.3442E+06    -37.3223E+06     61.2084E+06     15.7701E+06    -109.060E+03         50.7513
             449     11.2811E-03     49.7091E-03         4.39516        -1.35374        -1.56701        -1.35373         4.39515        -1.56701    -6.69550E-03     123.561E-03    -61.5082E-03    -62.1104E-03    -60.9423E-03     122.889E-03    -62.0048E-03     20.2741E-03     53.4399E+06    -13.3601E+06    -40.2841E+06    -40.2694E+06     53.4252E+06    -13.3601E+06    -362.099E+03         46.0032
             450     10.3402E-03     49.6988E-03         4.45810        -1.39918        -1.58415        -1.39915         4.45807        -1.58415    -15.4213E-03     123.083E-03    -61.0661E-03    -62.0526E-03    -60.9245E-03     122.941E-03    -62.0526E-03     10.1725E-03     14.1622E+06    -29.3394E+06    -41.8888E+06    -41.7076E+06     5.56849E+06    -20.9268E+06    -618.488E+03         41.8775
             451     9.39920E-03     49.6880E-03         4.51435        -1.43881        -1.60057        -1.43874         4.51427        -1.60057    -14.2546E-03     123.538E-03    -61.4186E-03    -62.1568E-03    -61.3360E-03     123.456E-03    -62.1568E-03     7.61954E-03    -24.7068E+06    -40.6916E+06    -60.5872E+06    -43.6498E+06    -57.6290E+06    -24.7068E+06    -1.65522E+06         38.3962
             452     8.45942E-03     49.6835E-03         4.57965        -1.48634        -1.61579        -1.48625         4.57956        -1.61579    -20.3069E-03     123.921E-03    -61.7578E-03    -62.1967E-03    -61.7326E-03     123.895E-03    -62.1967E-03     3.74266E-03    -28.9963E+06    -46.3512E+06    -102.986E+06    -46.4749E+06    -102.863E+06    -28.9963E+06    -1.42608E+06         35.5904
             453     7.51955E-03     49.6806E-03         4.63844        -1.53222        -1.62901        -1.53215         4.63837        -1.62901    -25.4914E-03     124.172E-03    -61.8948E-03    -62.3029E-03    -61.8929E-03     124.170E-03    -62.3029E-03     718.588E-06    -25.1262E+06    -49.2981E+06    -152.647E+06    -49.3127E+06    -152.633E+06    -25.1262E+06     588.506E+03         33.5013
             454     6.57936E-03     49.6823E-03         4.67887        -1.56283        -1.64063        -1.56274         4.67878        -1.64063     19.0205E-03     124.339E-03    -61.9862E-03    -62.3679E-03    -61.9849E-03     124.338E-03    -62.3679E-03    -700.707E-06    -23.6737E+06    -50.9498E+06    -188.054E+06    -50.9883E+06    -188.015E+06    -23.6737E+06     1.77129E+06         32.0587
             455     5.63935E-03     49.6830E-03         4.71275        -1.58672        -1.65164        -1.58657         4.71261        -1.65164    -4.69115E-03     124.430E-03    -62.0848E-03    -62.3691E-03    -62.0802E-03     124.426E-03    -62.3691E-03    -1.77810E-03    -28.9224E+06    -52.9207E+06    -211.040E+06    -52.9474E+06    -211.014E+06    -28.9224E+06     1.16443E+06         31.0616
             456     4.69931E-03     49.6866E-03         4.75490        -1.61693        -1.66159        -1.61674         4.75471        -1.66159    -62.3480E-03     124.451E-03    -62.1130E-03    -62.3591E-03    -62.1040E-03     124.442E-03    -62.3591E-03    -2.55642E-03    -36.7287E+06    -56.8030E+06    -231.762E+06    -56.8053E+06    -231.760E+06    -36.7287E+06    -64.1974E+03         30.4124
             457     3.75924E-03     49.6895E-03         4.78960        -1.64424        -1.66932        -1.64375         4.78911        -1.66932     35.2087E-03     124.370E-03    -62.0032E-03    -62.3845E-03    -61.9947E-03     124.362E-03    -62.3845E-03    -2.48630E-03    -46.9585E+06    -61.5324E+06    -245.702E+06    -61.5437E+06    -245.691E+06    -46.9585E+06    -907.182E+03         30.0540
             458     2.81939E-03     49.6929E-03         4.81158        -1.65991        -1.67749        -1.66091         4.81001        -1.67491    -47.0195E-03     124.424E-03    -61.9890E-03    -62.4505E-03    -61.9826E-03     124.417E-03    -62.4505E-03    -2.18204E-03    -58.1328E+06    -65.8903E+06    -252.074E+06    -65.9035E+06    -252.061E+06    -58.1328E+06    -863.538E+03         29.8449
             459     1.87881E-03     49.6956E-03         4.82728        -1.66471        -1.69174        -1.67169         4.82170        -1.67919     119.613E-03     124.809E-03    -62.2712E-03    -62.5581E-03    -62.3165E-03     124.804E-03    -62.5076E-03    -1.94967E-03    -65.7696E+06    -69.6343E+06    -255.357E+06    -69.6403E+06    -255.351E+06    -65.7696E+06    -774.321E+03         29.7053
             460     939.631E-06     49.6970E-03         4.88246        -1.60583        -1.80699        -1.64185         4.83185        -1.72036    -538.567E-03     125.070E-03    -62.2105E-03    -62.8703E-03    -62.7118E-03     125.067E-03    -62.3656E-03    -1.32220E-03    -69.1866E+06    -71.8484E+06    -256.143E+06    -70.9079E+06    -256.139E+06    -70.1302E+06    -597.016E+03         29.6264
             461     15.9861E-03     49.5261E-03         4.00873        -1.07458        -1.46004        -1.07455         4.00870        -1.46004    -14.7987E-03     291.355E-03    -62.5800E-03    -228.746E-03    -91.9440E-03     154.553E-03    -62.5800E-03     457.951E-03     148.116E+06     141.605E+06    -8.97359E+06    -8.96838E+06     141.600E+06     148.116E+06     451.086E+03         72.5524
             462     15.0470E-03     49.0100E-03         4.09625        -1.13053        -1.47780        -1.13050         4.09623        -1.47780    -10.3746E-03     225.864E-03    -62.5009E-03    -163.449E-03    -77.8305E-03     140.245E-03    -62.5009E-03     318.509E-03     116.774E+06     110.504E+06    -18.3064E+06    -18.2901E+06     110.488E+06     116.774E+06     971.099E+03         67.9522
             463     14.1047E-03     48.7824E-03         4.17011        -1.18217        -1.49587        -1.18208         4.17001        -1.49587    -33.8152E-03     151.991E-03    -62.3747E-03    -89.5841E-03    -63.3484E-03     125.755E-03    -62.3747E-03     145.034E-03     86.1564E+06     79.6993E+06    -27.4171E+06    -27.3356E+06     82.6434E+06     83.1307E+06     289.917E+03         62.0310
             464     13.1604E-03     48.6836E-03         4.24559        -1.23756        -1.51439        -1.23743         4.24546        -1.51439    -12.1878E-03     131.401E-03    -62.2631E-03    -69.1931E-03    -61.0513E-03     123.260E-03    -62.2631E-03     78.1339E-03     67.4660E+06     49.6191E+06    -34.9277E+06    -34.7541E+06     67.2924E+06     49.6191E+06    -1.31435E+06         56.0849
             465     12.2227E-03     48.6092E-03         4.31314        -1.28248        -1.53274        -1.28238         4.31303        -1.53274    -5.09598E-03     126.280E-03    -61.9052E-03    -64.5176E-03    -60.9773E-03     122.942E-03    -62.1075E-03     47.0783E-03     60.4268E+06     14.3241E+06    -38.6049E+06    -38.4911E+06     60.3130E+06     14.3241E+06    -1.25184E+06         50.7335
             466     11.2806E-03     48.5781E-03         4.38201        -1.33482        -1.55070        -1.33474         4.38193        -1.55070    -19.5571E-03     123.216E-03    -61.2945E-03    -62.0062E-03    -60.6380E-03     122.535E-03    -61.9816E-03     20.4863E-03     53.4102E+06    -12.3748E+06    -40.3004E+06    -40.2851E+06     53.3949E+06    -12.3748E+06    -285.077E+03         45.9870
             467     10.3402E-03     48.5661E-03         4.45847        -1.39230        -1.56736        -1.39212         4.45829        -1.56736    -36.5302E-03     123.185E-03    -61.2072E-03    -62.0328E-03    -61.0601E-03     123.038E-03    -62.0328E-03     10.3460E-03     14.1481E+06    -28.2803E+06    -43.2178E+06    -43.0310E+06     6.03631E+06    -20.3553E+06    -428.564E+03         41.8627
             468     9.39980E-03     48.5575E-03         4.52370        -1.44111        -1.58222        -1.44091         4.52350        -1.58222    -23.5287E-03     123.540E-03    -61.4585E-03    -62.1254E-03    -61.3762E-03     123.458E-03    -62.1254E-03     7.63482E-03    -24.8234E+06    -41.8364E+06    -61.1372E+06    -46.3383E+06    -56.6354E+06    -24.8234E+06    -787.501E+03         38.3837
             469     8.45950E-03     48.5497E-03         4.57872        -1.48524        -1.59528        -1.48519         4.57867        -1.59528     2.09693E-03     123.768E-03    -61.6318E-03    -62.1706E-03    -61.6050E-03     123.741E-03    -62.1706E-03     3.88710E-03    -29.5747E+06    -48.9005E+06    -104.622E+06    -48.9208E+06    -104.602E+06    -29.5747E+06    -635.867E+03         35.5796
             470     7.51944E-03     48.5504E-03         4.61892        -1.51140        -1.60736        -1.51137         4.61889        -1.60736    -14.1816E-03     124.097E-03    -61.8542E-03    -62.2698E-03    -61.8521E-03     124.095E-03    -62.2698E-03     1.04551E-03    -27.6322E+06    -50.8065E+06    -153.491E+06    -50.8184E+06    -153.479E+06    -27.6322E+06    -420.440E+03         33.4921
             471     6.57937E-03     48.5493E-03         4.64874        -1.52967        -1.61981        -1.52957         4.64864        -1.61981     32.6526E-03     124.272E-03    -61.9525E-03    -62.3343E-03    -61.9517E-03     124.271E-03    -62.3343E-03    -328.542E-06    -26.1267E+06    -52.4777E+06    -187.744E+06    -52.4970E+06    -187.725E+06    -26.1267E+06    -863.521E+03         32.0511
             472     5.63958E-03     48.5525E-03         4.69322        -1.56567        -1.63182        -1.56552         4.69307        -1.63182     7.60332E-03     124.326E-03    -61.9981E-03    -62.3491E-03    -61.9945E-03     124.323E-03    -62.3491E-03    -1.54656E-03    -30.3833E+06    -54.9501E+06    -211.584E+06    -54.9608E+06    -211.574E+06    -30.3833E+06    -150.709E+03         31.0556
             473     4.69946E-03     48.5543E-03         4.74378        -1.60755        -1.64073        -1.60748         4.74370        -1.64073    -37.2311E-03     124.342E-03    -62.0217E-03    -62.3437E-03    -62.0134E-03     124.334E-03    -62.3437E-03    -2.42674E-03    -38.9558E+06    -58.5431E+06    -230.805E+06    -58.5466E+06    -230.801E+06    -38.9558E+06     189.295E+03         30.4086
             474     3.75963E-03     48.5590E-03         4.76874        -1.62639        -1.64670        -1.62620         4.76855        -1.64670     26.8345E-03     124.412E-03    -62.0538E-03    -62.3795E-03    -62.0519E-03     124.403E-03    -62.3718E-03    -2.64036E-03    -47.6644E+06    -62.3217E+06    -245.414E+06    -62.3243E+06    -245.411E+06    -47.6644E+06     77.4651E+03         30.0529
             475     2.81879E-03     48.5613E-03         4.79058        -1.63853        -1.65670        -1.64454         4.79017        -1.65028    -10.0237E-03     124.543E-03    -62.1537E-03    -62.4058E-03    -62.1544E-03     124.536E-03    -62.3981E-03    -2.24467E-03    -57.4076E+06    -66.3822E+06    -252.180E+06    -66.3843E+06    -252.178E+06    -57.4076E+06     554.746E+03         29.8436
             476     1.87978E-03     48.5635E-03         4.80685        -1.64646        -1.66817        -1.66578         4.80446        -1.64646     111.978E-03     124.732E-03    -62.2838E-03    -62.4603E-03    -62.3303E-03     124.728E-03    -62.4098E-03    -1.69303E-03    -63.4374E+06    -69.3672E+06    -255.395E+06    -69.3706E+06    -255.391E+06    -63.4374E+06    -304.111E+03         29.7006
             477     940.119E-06     48.5647E-03         4.80750        -1.49939        -1.81503        -1.78404         4.77650        -1.49939    -449.909E-03     124.761E-03    -62.1929E-03    -62.5735E-03    -62.3957E-03     124.758E-03    -62.3676E-03    -1.44655E-03    -69.2937E+06    -73.9560E+06    -257.750E+06    -73.3614E+06    -257.747E+06    -69.8914E+06    -487.378E+03         29.6189
             478     15.9818E-03     48.3852E-03         4.04350        -1.08939        -1.44767        -1.08930         4.04341        -1.44767     3.89941E-03     291.921E-03    -62.5582E-03    -229.269E-03    -92.2621E-03     154.914E-03    -62.5582E-03     458.827E-03     147.133E+06     139.896E+06    -9.88033E+06    -9.87812E+06     139.893E+06     147.133E+06    -146.412E+03         72.5304
             479     15.0448E-03     47.8747E-03         4.11555        -1.14244        -1.46164        -1.14239         4.11551        -1.46164    -10.2426E-03     224.180E-03    -62.4915E-03    -161.751E-03    -76.4084E-03     138.838E-03    -62.4915E-03     316.107E-03     118.396E+06     110.498E+06    -17.8986E+06    -17.8775E+06     110.477E+06     118.396E+06     470.510E+03         67.9342
             480     14.1024E-03     47.6550E-03         4.18449        -1.19182        -1.47658        -1.19173         4.18441        -1.47658    -19.9534E-03     152.285E-03    -62.3774E-03    -89.9120E-03    -63.7390E-03     126.112E-03    -62.3774E-03     145.117E-03     88.7158E+06     81.8134E+06    -24.9984E+06    -24.9491E+06     84.8458E+06     85.6341E+06     1.16294E+06         62.0134
             481     13.1641E-03     47.5476E-03         4.25266        -1.23977        -1.49258        -1.23967         4.25256        -1.49258    -5.84310E-03     131.388E-03    -62.2341E-03    -69.2049E-03    -61.0873E-03     123.271E-03    -62.2341E-03     77.9905E-03     69.4059E+06     49.8099E+06    -33.0345E+06    -32.8684E+06     69.2398E+06     49.8099E+06    -48.5808E+03         56.0691
             482     12.2218E-03     47.4794E-03         4.31296        -1.28578        -1.50862        -1.28565         4.31283        -1.50862    -11.2054E-03     126.022E-03    -61.8743E-03    -64.2817E-03    -60.7677E-03     122.710E-03    -62.0766E-03     47.0227E-03     59.8871E+06     11.4642E+06    -39.6139E+06    -39.4284E+06     59.7016E+06     11.4642E+06    -1.32349E+06         50.7182
             483     11.2808E-03     47.4462E-03         4.36983        -1.32719        -1.52451        -1.32710         4.36974        -1.52451    -33.4552E-03     123.257E-03    -61.2821E-03    -62.0631E-03    -60.6752E-03     122.549E-03    -61.9624E-03     20.8183E-03     52.3644E+06    -14.3718E+06    -42.6762E+06    -42.6226E+06     52.3108E+06    -14.3718E+06    -981.002E+03         45.9726
             484     10.3401E-03     47.4345E-03         4.43155        -1.37076        -1.53999        -1.37058         4.43138        -1.53999    -44.0381E-03     123.200E-03    -61.2407E-03    -62.0195E-03    -61.0916E-03     123.051E-03    -62.0195E-03     10.4250E-03     14.5110E+06    -28.2360E+06    -44.2059E+06    -44.1018E+06     6.48749E+06    -20.3165E+06    -307.954E+03         41.8499
             485     9.40048E-03     47.4246E-03         4.49447        -1.41961        -1.55417        -1.41942         4.49429        -1.55417    -40.9046E-03     123.525E-03    -61.4611E-03    -62.1068E-03    -61.3751E-03     123.439E-03    -62.1068E-03     7.80811E-03    -24.6250E+06    -41.2160E+06    -61.3226E+06    -46.0813E+06    -56.4573E+06    -24.6250E+06    -209.706E+03         38.3726
             486     8.45959E-03     47.4198E-03         4.54107        -1.45425        -1.56701        -1.45424         4.54105        -1.56701    -5.48393E-03     123.651E-03    -61.5196E-03    -62.1620E-03    -61.4907E-03     123.622E-03    -62.1620E-03     4.10090E-03    -28.9027E+06    -48.4838E+06    -105.463E+06    -48.5107E+06    -105.436E+06    -28.9027E+06    -178.863E+03         35.5700
             487     7.51931E-03     47.4170E-03         4.58365        -1.48527        -1.57908        -1.48521         4.58359        -1.57908    -27.9374E-03     124.041E-03    -61.8129E-03    -62.2564E-03    -61.8101E-03     124.038E-03    -62.2564E-03     1.06262E-03    -28.9741E+06    -50.9587E+06    -151.708E+06    -50.9957E+06    -151.671E+06    -28.9741E+06    -1.52213E+06         33.4842
             488     6.57951E-03     47.4192E-03         4.62979        -1.52060        -1.58993        -1.52049         4.62967        -1.58993     6.52300E-03     124.236E-03    -61.9379E-03    -62.3197E-03    -61.9371E-03     124.235E-03    -62.3197E-03    -470.202E-06    -29.2637E+06    -53.3887E+06    -188.214E+06    -53.4423E+06    -188.161E+06    -29.2637E+06    -2.55057E+06         32.0454
             489     5.63912E-03     47.4197E-03         4.66627        -1.54735        -1.59931        -1.54698         4.66590        -1.59931    -29.0192E-03     124.203E-03    -61.8625E-03    -62.3653E-03    -61.8591E-03     124.200E-03    -62.3653E-03    -1.52797E-03    -31.9086E+06    -56.2733E+06    -213.835E+06    -56.2932E+06    -213.815E+06    -31.9086E+06    -1.16754E+06         31.0521
             490     4.69935E-03     47.4240E-03         4.69237        -1.56701        -1.60790        -1.56671         4.69207        -1.60790    -60.9623E-03     124.374E-03    -62.0163E-03    -62.3839E-03    -62.0103E-03     124.368E-03    -62.3839E-03    -2.09763E-03    -39.4496E+06    -59.5494E+06    -230.681E+06    -59.5555E+06    -230.675E+06    -39.4496E+06     253.305E+03         30.4082
             491     3.75892E-03     47.4266E-03         4.72703        -1.59147        -1.61731        -1.59405         4.72702        -1.61472     8.98676E-03     124.719E-03    -62.2809E-03    -62.4396E-03    -62.3309E-03     124.711E-03    -62.3815E-03    -2.44419E-03    -47.1335E+06    -64.2770E+06    -245.858E+06    -64.2816E+06    -245.853E+06    -47.1335E+06     559.952E+03         30.0559
             492     2.82032E-03     47.4305E-03         4.75717        -1.61156        -1.62431        -1.61866         4.75712        -1.61715    -8.82175E-03     124.651E-03    -62.2736E-03    -62.3708E-03    -62.3249E-03     124.644E-03    -62.3124E-03    -2.24627E-03    -56.2188E+06    -68.2478E+06    -250.858E+06    -68.2496E+06    -250.856E+06    -56.2188E+06     315.485E+03         29.8458
             493     1.87952E-03     47.4314E-03         4.75407        -1.60783        -1.62684        -1.61702         4.75338        -1.61696     62.1766E-03     124.366E-03    -62.0780E-03    -62.2978E-03    -62.0747E-03     124.363E-03    -62.2975E-03    -1.59448E-03    -65.2165E+06    -71.1454E+06    -255.297E+06    -71.1466E+06    -255.295E+06    -65.2165E+06    -95.3907E+03         29.6963
             494     939.321E-06     47.4339E-03         4.77067        -1.28880        -1.96513        -1.93639         4.75106        -1.29793    -433.993E-03     124.637E-03    -61.9781E-03    -62.6626E-03    -62.4801E-03     124.635E-03    -62.1588E-03    -1.02855E-03     -71.736E+06    -75.1998E+06    -259.167E+06    -74.8871E+06    -259.161E+06    -72.0545E+06    -542.085E+03         29.6088
             495     15.9949E-03     47.2603E-03         4.05351        -1.09874        -1.42995        -1.09865         4.05342        -1.42995     7.18001E-03     290.736E-03    -62.4776E-03    -228.099E-03    -91.7124E-03     154.350E-03    -62.4776E-03     456.717E-03     146.603E+06     140.556E+06    -9.30698E+06    -9.30109E+06     140.550E+06     146.603E+06     262.259E+03         72.5187
             496     15.0449E-03     46.7472E-03         4.12578        -1.15057        -1.43990        -1.15053         4.12574        -1.43990    -4.68895E-03     224.585E-03    -62.4323E-03    -162.132E-03    -75.0371E-03     137.491E-03    -62.4323E-03     318.310E-03     117.061E+06     109.484E+06    -17.6844E+06    -17.6138E+06     109.414E+06     117.061E+06    -281.853E+03         67.9221
             497     14.1054E-03     46.5185E-03         4.19240        -1.20197        -1.45132        -1.20188         4.19231        -1.45132    -17.8883E-03     152.500E-03    -62.3760E-03    -90.1723E-03    -63.9803E-03     126.308E-03    -62.3760E-03     145.515E-03     88.1530E+06     81.1590E+06    -24.9068E+06    -24.7836E+06     83.6191E+06     85.5697E+06     498.244E+03         61.9989
             498     13.1625E-03     46.4190E-03         4.24596        -1.23938        -1.46448        -1.23927         4.24586        -1.46448    -8.81326E-03     131.238E-03    -62.2311E-03    -69.0807E-03    -60.8490E-03     123.007E-03    -62.2311E-03     78.4597E-03     70.9577E+06     52.2478E+06    -31.5365E+06    -31.4345E+06     70.8556E+06     52.2478E+06     1.53331E+06         56.0552
             499     12.2211E-03     46.3464E-03         4.30393        -1.28324        -1.47808        -1.28318         4.30387        -1.47808     2.79908E-03     126.067E-03    -62.0606E-03    -64.1281E-03    -60.7765E-03     122.725E-03    -62.0701E-03     47.1747E-03     61.7875E+06     12.8724E+06    -37.1840E+06    -37.0596E+06     61.6631E+06     12.8724E+06     524.804E+03         50.7046
             500     11.2813E-03     46.3149E-03         4.35415        -1.32200        -1.49155        -1.32197         4.35412        -1.49155    -19.6246E-03     123.495E-03    -61.5083E-03    -62.0588E-03    -60.9028E-03     122.788E-03    -61.9581E-03     20.8318E-03     52.3747E+06    -14.5710E+06    -41.5150E+06    -41.3878E+06     52.2476E+06    -14.5710E+06    -1.07402E+06         45.9605
             501     10.3406E-03     46.3024E-03         4.39635        -1.35221        -1.50505        -1.35219         4.39633        -1.50505    -16.2129E-03     123.041E-03    -61.0757E-03    -62.0215E-03    -60.9228E-03     122.888E-03    -62.0215E-03     10.5689E-03     13.9408E+06    -28.2422E+06    -43.7110E+06    -43.6017E+06     5.80567E+06    -20.2164E+06    -1.35561E+06         41.8391
             502     9.39924E-03     46.2933E-03         4.44559        -1.38635        -1.51830        -1.38632         4.44556        -1.51830    -21.8215E-03     123.439E-03    -61.3687E-03    -62.1187E-03    -61.2792E-03     123.349E-03    -62.1187E-03     7.93193E-03    -24.3262E+06    -40.4385E+06    -61.6806E+06    -44.9226E+06    -57.1965E+06    -24.3262E+06    -644.980E+03         38.3627
             503     8.45971E-03     46.2872E-03         4.49190        -1.42105        -1.53081        -1.42103         4.49188        -1.53081    -12.6018E-03     123.810E-03    -61.6730E-03    -62.1706E-03    -61.6445E-03     123.781E-03    -62.1706E-03     4.11957E-03    -27.6673E+06    -46.1864E+06    -105.069E+06    -46.2223E+06    -105.033E+06    -27.6673E+06    -404.462E+03         35.5619
             504     7.51945E-03     46.2865E-03         4.54464        -1.46396        -1.54170        -1.46391         4.54459        -1.54170    -22.8682E-03     123.998E-03    -61.7675E-03    -62.2596E-03    -61.7645E-03     123.995E-03    -62.2596E-03     1.20191E-03    -27.4857E+06    -48.4209E+06    -149.675E+06    -48.4501E+06    -149.646E+06    -27.4857E+06    -1.20833E+06         33.4782
             505     6.57933E-03     46.2861E-03         4.59500        -1.50402        -1.54987        -1.50391         4.59489        -1.54987     10.1418E-03     124.154E-03    -61.8433E-03    -62.3358E-03    -61.8419E-03     124.152E-03    -62.3358E-03    -516.421E-06    -29.3114E+06    -52.7744E+06    -189.144E+06    -52.8120E+06    -189.106E+06    -29.3114E+06    -1.74320E+06         32.0416
             506     5.63948E-03     46.2899E-03         4.61193        -1.51384        -1.55685        -1.51346         4.61155        -1.55685    -28.3940E-03     124.235E-03    -61.8780E-03    -62.3893E-03    -61.8745E-03     124.232E-03    -62.3893E-03    -1.59698E-03    -32.8249E+06    -57.2380E+06    -215.400E+06    -57.2529E+06    -215.385E+06    -32.8249E+06    -1.39068E+06         31.0513
             507     4.69851E-03     46.2915E-03         4.62894        -1.52098        -1.56501        -1.52062         4.62858        -1.56501    -39.4467E-03     124.459E-03    -62.0791E-03    -62.4097E-03    -62.0728E-03     124.453E-03    -62.4097E-03    -2.12377E-03    -39.6739E+06    -61.5359E+06    -232.546E+06    -61.5441E+06    -232.537E+06    -39.6739E+06    -308.998E+03         30.4104
             508     3.75962E-03     46.2951E-03         4.66679        -1.54604        -1.57517        -1.54855         4.66671        -1.57258     36.8585E-03     124.709E-03    -62.2593E-03    -62.4532E-03    -62.3025E-03     124.702E-03    -62.4028E-03    -2.30427E-03    -47.9020E+06    -65.7686E+06    -245.239E+06    -65.7731E+06    -245.234E+06    -47.9020E+06     604.968E+03         30.0591
             509     2.81928E-03     46.2978E-03         4.68614        -1.56202        -1.58110        -1.56527         4.68607        -1.57778    -2.64304E-03     124.743E-03    -62.2397E-03    -62.5007E-03    -62.4246E-03     124.737E-03    -62.3104E-03    -1.99966E-03    -58.9782E+06    -70.1059E+06    -250.326E+06    -70.1088E+06    -250.323E+06    -58.9782E+06    -34.4665E+03         29.8496
             510     1.88030E-03     46.3017E-03         4.69082        -1.56660        -1.58586        -1.56773         4.69011        -1.58402     62.7105E-03     124.566E-03    -62.0389E-03    -62.5181E-03    -62.3823E-03     124.561E-03    -62.1700E-03    -1.84856E-03    -67.6984E+06    -73.6097E+06    -255.750E+06    -73.6276E+06    -255.732E+06    -67.6984E+06     611.812E+03         29.6992
             511     939.901E-06     46.3017E-03         4.72805        -1.07369        -2.11923        -2.09379         4.71174        -1.08282    -393.848E-03     124.153E-03    -61.7223E-03    -62.4145E-03    -62.2759E-03     124.150E-03    -61.8580E-03    -1.32822E-03    -74.1190E+06    -76.9400E+06    -258.292E+06    -76.3815E+06    -258.271E+06    -74.6989E+06     438.276E+03         29.6052
             512     15.9873E-03     46.1389E-03         4.05386        -1.10781        -1.40626        -1.10779         4.05384        -1.40626    -8.44750E-03     291.547E-03    -62.4908E-03    -228.801E-03    -91.2141E-03     153.960E-03    -62.4908E-03     458.902E-03     147.226E+06     141.523E+06    -9.20277E+06    -9.18386E+06     141.504E+06     147.226E+06     171.931E+03         72.4987
             513     15.0452E-03     45.6111E-03         4.11649        -1.15139        -1.41161        -1.15137         4.11648        -1.41161    -12.2603E-03     227.974E-03    -62.4552E-03    -165.512E-03    -77.3024E-03     139.765E-03    -62.4552E-03     323.345E-03     116.027E+06     109.723E+06    -18.2999E+06    -18.2097E+06     109.632E+06     116.027E+06     616.132E+03         67.9033
             514     14.1025E-03     45.3894E-03         4.17468        -1.19369        -1.41959        -1.19357         4.17455        -1.41959    -40.4982E-03     152.412E-03    -62.3952E-03    -90.0385E-03    -64.0078E-03     126.381E-03    -62.3952E-03     145.263E-03     85.8433E+06     78.8204E+06    -27.3858E+06    -27.1803E+06     81.2123E+06      83.246E+06    -154.964E+03         61.9845
             515     13.1623E-03     45.2848E-03         4.22379        -1.23059        -1.43032        -1.23042         4.22362        -1.43032    -14.7479E-03     131.374E-03    -62.2563E-03    -69.1962E-03    -60.9771E-03     123.155E-03    -62.2563E-03     78.3064E-03     70.9000E+06     53.0216E+06    -32.1605E+06    -32.0147E+06     70.7542E+06     53.0216E+06     282.950E+03         56.0425
             516     12.2224E-03     45.2160E-03         4.26900        -1.26390        -1.44201        -1.26384         4.26894        -1.44201     7.81056E-03     126.199E-03    -62.0623E-03    -64.2707E-03    -60.9571E-03     122.908E-03    -62.0854E-03     47.0961E-03     63.8020E+06     15.8887E+06    -35.6285E+06    -35.5459E+06     63.7194E+06     15.8887E+06     511.335E+03         50.6935
             517     11.2805E-03     45.1814E-03         4.32053        -1.30563        -1.45375        -1.30561         4.32051        -1.45375    -14.6896E-03     123.388E-03    -61.4830E-03    -61.9780E-03    -60.7547E-03     122.660E-03    -61.9780E-03     21.0191E-03     53.5599E+06    -12.3480E+06    -38.3622E+06    -38.2508E+06     53.4485E+06    -12.3480E+06    -539.555E+03         45.9503
             518     10.3402E-03     45.1720E-03         4.36208        -1.33876        -1.46508        -1.33869         4.36200        -1.46508    -23.4546E-03     123.145E-03    -61.1514E-03    -62.0414E-03    -60.9986E-03     122.992E-03    -62.0414E-03     10.5797E-03     13.8438E+06    -27.9064E+06    -41.0327E+06    -40.9076E+06     5.24425E+06    -19.4319E+06    -1.04620E+06         41.8298
             519     9.40007E-03     45.1615E-03         4.39540        -1.36139        -1.47623        -1.36130         4.39531        -1.47623    -19.3508E-03     123.486E-03    -61.4002E-03    -62.1323E-03    -61.3065E-03     123.392E-03    -62.1323E-03     8.12230E-03    -24.1842E+06    -40.1015E+06    -61.0227E+06    -43.5769E+06    -57.5473E+06    -24.1842E+06    -875.555E+03         38.3548
             520     8.45930E-03     45.1556E-03         4.44372        -1.39891        -1.48662        -1.39883         4.44365        -1.48662    -20.8351E-03     123.787E-03    -61.6411E-03    -62.1823E-03    -61.6116E-03     123.757E-03    -62.1823E-03     4.08003E-03    -28.3815E+06    -45.7098E+06    -104.935E+06    -45.7421E+06    -104.903E+06    -28.3815E+06    -967.808E+03         35.5556
             521     7.51945E-03     45.1545E-03         4.48684        -1.43093        -1.49546        -1.43085         4.48677        -1.49546    -17.8836E-03     123.967E-03    -61.7128E-03    -62.2854E-03    -61.7103E-03     123.964E-03    -62.2854E-03     1.19642E-03    -27.1816E+06    -48.2263E+06    -149.554E+06    -48.2341E+06    -149.546E+06    -27.1816E+06    -438.235E+03         33.4737
             522     6.57898E-03     45.1551E-03         4.51731        -1.45298        -1.50311        -1.45292         4.51725        -1.50311     10.2593E-03     124.193E-03    -61.8403E-03    -62.3785E-03    -61.8388E-03     124.192E-03    -62.3785E-03    -403.074E-06    -27.4911E+06    -51.3107E+06    -189.184E+06    -51.3127E+06    -189.182E+06    -27.4911E+06    -210.647E+03         32.0396
             523     5.63859E-03     45.1577E-03         4.54443        -1.47060        -1.51009        -1.47038         4.54421        -1.51009    -41.5252E-03     124.544E-03    -62.1551E-03    -62.4201E-03    -62.1582E-03     124.540E-03    -62.4132E-03    -1.65030E-03    -31.9925E+06    -56.3708E+06    -216.309E+06    -56.3772E+06    -216.303E+06    -31.9925E+06    -365.461E+03         31.0528
             524     4.69983E-03     45.1602E-03         4.57339        -1.49137        -1.51601        -1.49113         4.57315        -1.51601    -31.7069E-03     124.506E-03    -62.1413E-03    -62.3973E-03    -62.1414E-03     124.499E-03    -62.3904E-03    -2.21150E-03    -40.7281E+06    -61.7843E+06    -233.218E+06    -61.7902E+06    -233.212E+06    -40.7281E+06    -271.989E+03         30.4139
             525     3.75885E-03     45.1634E-03         4.58148        -1.49443        -1.52212        -1.49432         4.58138        -1.52212     18.5222E-03     124.504E-03    -62.1283E-03    -62.4024E-03    -62.1400E-03     124.496E-03    -62.3830E-03    -2.38829E-03    -50.8421E+06    -65.4943E+06    -245.167E+06    -65.5018E+06    -245.159E+06    -50.8421E+06    -409.525E+03         30.0610
             526     2.81926E-03     45.1665E-03         4.58858        -1.49363        -1.53217        -1.49354         4.58850        -1.53217    -18.4633E-03     124.766E-03    -62.2730E-03    -62.5138E-03    -62.4361E-03     124.759E-03    -62.3436E-03    -2.28019E-03    -57.9345E+06    -68.3143E+06    -250.865E+06    -68.3262E+06    -250.853E+06    -57.9345E+06    -71.7536E+03         29.8508
             527     1.87971E-03     45.1683E-03         4.62536        -1.52382        -1.54470        -1.52418         4.62460        -1.54358     65.6940E-03     124.723E-03    -62.1519E-03    -62.5623E-03    -62.5054E-03     124.717E-03    -62.2035E-03    -1.89789E-03    -63.1294E+06    -72.1243E+06    -256.054E+06    -72.1461E+06    -256.032E+06    -63.1294E+06     872.177E+03         29.7027
             528     941.447E-06     45.1720E-03         4.66652    -883.533E-03        -2.22810        -2.21125         4.65239    -886.244E-03    -361.968E-03     124.141E-03    -61.8504E-03    -62.2732E-03    -62.2150E-03     124.138E-03    -61.9065E-03    -963.199E-06    -71.1670E+06    -75.4592E+06    -256.476E+06    -75.2342E+06    -256.439E+06    -71.4284E+06     1.64062E+06         29.6089
             529     15.9791E-03     44.9988E-03         4.06670        -1.12949        -1.37723        -1.12948         4.06669        -1.37723    -613.943E-06     291.062E-03    -62.5662E-03    -228.310E-03    -91.0321E-03     153.784E-03    -62.5662E-03     458.004E-03     148.379E+06     140.642E+06    -9.73521E+06    -9.71177E+06     140.618E+06     148.379E+06     395.970E+03         72.4763
             530     15.0420E-03     44.4755E-03         4.11446        -1.16606        -1.37789        -1.16606         4.11445        -1.37789    -2.68515E-03     226.545E-03    -62.5061E-03    -163.994E-03    -78.7670E-03     141.318E-03    -62.5061E-03     318.076E-03     116.179E+06     109.874E+06    -19.3210E+06    -19.2356E+06     109.788E+06     116.179E+06     545.576E+03         67.8874
             531     14.1046E-03     44.2578E-03         4.15130        -1.18655        -1.38254        -1.18646         4.15121        -1.38254    -24.5997E-03     151.665E-03    -62.3917E-03    -89.2063E-03    -63.9062E-03     126.364E-03    -62.3917E-03     142.989E-03     85.9437E+06     79.8854E+06    -26.0676E+06    -25.8857E+06     82.2965E+06     83.3506E+06    -417.303E+03         61.9755
             532     13.1623E-03     44.1530E-03         4.19379        -1.21848        -1.39088        -1.21837         4.19369        -1.39088    -12.4375E-03     131.251E-03    -62.2584E-03    -69.0825E-03    -60.8841E-03     123.052E-03    -62.2584E-03     78.2934E-03     70.3695E+06     51.6220E+06    -32.2143E+06    -32.0186E+06     70.1737E+06     51.6220E+06    -1.04992E+06         56.0339
             533     12.2210E-03     44.0831E-03         4.23282        -1.25011        -1.40020        -1.25007         4.23278        -1.40020    -5.01085E-03     126.148E-03    -62.0825E-03    -64.2006E-03    -60.8756E-03     122.837E-03    -62.0961E-03     46.9114E-03     63.9401E+06     14.8611E+06    -36.5085E+06    -36.3858E+06     63.8174E+06     14.8611E+06    -1.17012E+06         50.6849
             534     11.2810E-03     44.0511E-03         4.27149        -1.28070        -1.40990        -1.28067         4.27146        -1.40990    -19.0994E-03     123.288E-03    -61.3377E-03    -62.0298E-03    -60.6845E-03     122.594E-03    -61.9885E-03     20.7110E-03     53.6769E+06    -13.9694E+06    -38.7931E+06    -38.7556E+06     53.6395E+06    -13.9694E+06    -410.704E+03         45.9420
             535     10.3396E-03     44.0389E-03         4.31161        -1.31402        -1.41940        -1.31389         4.31147        -1.41940    -41.4598E-03     123.119E-03    -61.1113E-03    -62.0570E-03    -60.9542E-03     122.962E-03    -62.0570E-03     10.6892E-03     13.9050E+06    -29.3280E+06    -41.2356E+06    -41.0924E+06     5.25050E+06    -20.8168E+06     52.5849E+03         41.8221
             536     9.39943E-03     44.0301E-03         4.34898        -1.34337        -1.42804        -1.34318         4.34879        -1.42804    -15.5093E-03     123.602E-03    -61.4848E-03    -62.1536E-03    -61.3908E-03     123.508E-03    -62.1536E-03     8.18695E-03    -24.5080E+06    -40.7454E+06    -60.5450E+06    -44.0263E+06    -57.2641E+06    -24.5080E+06     82.7829E+03         38.3483
             537     8.45935E-03     44.0235E-03         4.37969        -1.36559        -1.43594        -1.36545         4.37955        -1.43594    -6.91102E-03     123.690E-03    -61.5140E-03    -62.2100E-03    -61.4818E-03     123.658E-03    -62.2100E-03     4.26429E-03    -29.1426E+06    -47.2413E+06    -104.993E+06    -47.2503E+06    -104.985E+06    -29.1426E+06    -176.220E+03         35.5505
             538     7.51883E-03     44.0233E-03         4.40014        -1.37985        -1.44378        -1.37971         4.40001        -1.44378    -6.81417E-03     124.045E-03    -61.7625E-03    -62.3167E-03    -61.7600E-03     124.042E-03    -62.3167E-03     1.08195E-03    -28.2129E+06    -49.7087E+06    -149.976E+06    -49.7216E+06    -149.963E+06    -28.2129E+06    -604.197E+03         33.4704
             539     6.57876E-03     44.0239E-03         4.42761        -1.39702        -1.45173        -1.39689         4.42748        -1.45173     33.7689E-03     124.387E-03    -62.0212E-03    -62.3972E-03    -62.0202E-03     124.386E-03    -62.3972E-03    -453.191E-06    -28.4846E+06    -52.5554E+06    -188.994E+06    -52.5628E+06    -188.987E+06    -28.4846E+06    -351.905E+03         32.0387
             540     5.63939E-03     44.0252E-03         4.46715        -1.42733        -1.45834        -1.42713         4.46695        -1.45834    -23.4034E-03     124.567E-03    -62.1699E-03    -62.4281E-03    -62.1732E-03     124.563E-03    -62.4212E-03    -1.56468E-03    -32.1367E+06    -55.8221E+06    -216.769E+06    -55.8246E+06    -216.767E+06    -32.1367E+06     75.7404E+03         31.0554
             541     4.69891E-03     44.0287E-03         4.48911        -1.44629        -1.46273        -1.44607         4.48889        -1.46273    -14.6696E-03     124.655E-03    -62.1797E-03    -62.4958E-03    -62.2826E-03     124.648E-03    -62.3863E-03    -2.20650E-03    -39.6921E+06    -59.1994E+06    -233.220E+06    -59.2025E+06    -233.217E+06    -39.6921E+06     136.426E+03         30.4188
             542     3.75961E-03     44.0322E-03         4.49275        -1.44460        -1.46741        -1.44449         4.49264        -1.46741     15.5755E-03     124.648E-03    -62.1967E-03    -62.4696E-03    -62.3107E-03     124.640E-03    -62.3475E-03    -2.44975E-03    -48.1723E+06    -63.2968E+06    -244.964E+06    -63.3092E+06    -244.951E+06    -48.1723E+06     19.4913E+03         30.0639
             543     2.81984E-03     44.0340E-03         4.50948        -1.45011        -1.47908        -1.45578         4.50943        -1.47335    -2.73721E-03     124.446E-03    -62.1194E-03    -62.3461E-03    -62.1423E-03     124.439E-03    -62.3155E-03    -2.35868E-03    -57.9556E+06    -67.3575E+06    -251.660E+06    -67.3775E+06    -251.640E+06    -57.9556E+06    -36.2817E+03         29.8500
             544     1.87988E-03     44.0378E-03         4.52596        -1.46503        -1.48793        -1.47630         4.52580        -1.47650     29.8494E-03     124.419E-03    -62.0361E-03    -62.3696E-03    -62.0418E-03     124.413E-03    -62.3584E-03    -1.90431E-03    -64.6192E+06    -70.4224E+06    -256.002E+06    -70.4334E+06    -255.991E+06    -64.6192E+06    -531.468E+03         29.7032
             545     938.144E-06     44.0398E-03         4.54012    -651.112E-03        -2.31461        -2.30013         4.52835    -653.823E-03    -390.212E-03     124.877E-03    -62.1848E-03    -62.6728E-03    -62.5061E-03     124.875E-03    -62.3489E-03    -1.09542E-03    -69.1730E+06    -72.7300E+06    -256.355E+06    -72.7711E+06    -256.314E+06    -69.1730E+06    -458.545E+03         29.6167
             546     15.9864E-03     43.8616E-03         4.06546        -1.13305        -1.34412        -1.13301         4.06542        -1.34412     13.2934E-03     290.762E-03    -62.4844E-03    -228.150E-03    -92.0098E-03     154.623E-03    -62.4844E-03     456.493E-03     148.081E+06     139.758E+06    -8.97481E+06    -8.94969E+06     139.733E+06     148.081E+06     168.316E+03         72.4737
             547     15.0481E-03     43.3467E-03         4.10357        -1.16847        -1.34095        -1.16847         4.10356        -1.34095    -4.06564E-03     224.224E-03    -62.4203E-03    -161.749E-03    -76.4886E-03     138.963E-03    -62.4203E-03     315.783E-03     117.861E+06     111.025E+06    -16.9044E+06    -16.7737E+06     110.895E+06     117.861E+06     950.391E+03         67.8891
             548     14.1032E-03     43.1234E-03         4.13377        -1.19008        -1.34220        -1.19005         4.13374        -1.34220    -12.9990E-03     151.376E-03    -62.3486E-03    -89.0188E-03    -63.5056E-03     125.863E-03    -62.3486E-03     142.854E-03     88.1823E+06     81.3560E+06    -25.0559E+06    -24.8367E+06     84.6144E+06     84.7047E+06     188.577E+03         61.9730
             549     13.1631E-03     43.0239E-03         4.16782        -1.21592        -1.34727        -1.21590         4.16779        -1.34727    -6.81014E-03     130.821E-03    -62.2223E-03    -68.7026E-03    -60.6393E-03     122.758E-03    -62.2223E-03     77.7138E-03     70.9302E+06     49.5121E+06    -32.2268E+06    -32.0550E+06     70.7584E+06     49.5121E+06    -1.30726E+06         56.0295
             550     12.2216E-03     42.9495E-03         4.19934        -1.24037        -1.35347        -1.24035         4.19932        -1.35347    -8.06538E-03     125.767E-03    -61.8863E-03    -64.0016E-03    -60.4474E-03     122.400E-03    -62.0729E-03     47.0016E-03     61.8686E+06     10.2131E+06    -37.6369E+06    -37.5491E+06     61.7808E+06     10.2131E+06    -1.03094E+06         50.6791
             551     11.2807E-03     42.9202E-03         4.22237        -1.25862        -1.36047        -1.25858         4.22233        -1.36047    -27.4113E-03     123.262E-03    -61.3022E-03    -62.0350E-03    -60.6630E-03     122.582E-03    -61.9937E-03     20.6785E-03     52.9158E+06    -17.1461E+06    -41.6370E+06    -41.6000E+06     52.8788E+06    -17.1461E+06     476.195E+03         45.9357
             552     10.3397E-03     42.9077E-03         4.25095        -1.28115        -1.36792        -1.28104         4.25084        -1.36792    -44.1245E-03     123.113E-03    -61.0947E-03    -62.0751E-03    -60.9303E-03     122.949E-03    -62.0751E-03     10.9238E-03     14.0456E+06    -30.7720E+06    -44.5755E+06    -44.4811E+06     5.48044E+06    -22.3013E+06     763.536E+03         41.8164
             553     9.39932E-03     42.8977E-03         4.28381        -1.30834        -1.37474        -1.30820         4.28367        -1.37474    -18.6072E-03     123.489E-03    -61.3438E-03    -62.1889E-03    -61.2536E-03     123.399E-03    -62.1889E-03     7.95923E-03    -24.5531E+06    -41.9113E+06    -61.6458E+06    -46.4301E+06    -57.1270E+06    -24.5531E+06     161.268E+03         38.3432
             554     8.45874E-03     42.8926E-03         4.30093        -1.32189        -1.38109        -1.32177         4.30080        -1.38109    -15.9470E-03     123.772E-03    -61.5549E-03    -62.2516E-03    -61.5256E-03     123.743E-03    -62.2516E-03     4.18658E-03    -28.3894E+06    -47.3420E+06    -104.516E+06    -47.3531E+06    -104.505E+06    -28.3894E+06    -214.543E+03         35.5465
             555     7.51857E-03     42.8913E-03         4.31860        -1.33308        -1.38772        -1.33296         4.31848        -1.38772    -20.4847E-03     124.198E-03    -61.8882E-03    -62.3389E-03    -61.8850E-03     124.195E-03    -62.3389E-03     1.20898E-03    -28.9554E+06    -49.8123E+06    -149.560E+06    -49.8231E+06    -149.549E+06    -28.9554E+06    -291.869E+03         33.4682
             556     6.57916E-03     42.8917E-03         4.34428        -1.35231        -1.39417        -1.35220         4.34417        -1.39417     18.9995E-03     124.474E-03    -62.1008E-03    -62.4051E-03    -62.0998E-03     124.473E-03    -62.4051E-03    -466.206E-06    -30.7503E+06    -54.0313E+06    -189.354E+06    -54.0418E+06    -189.343E+06    -30.7503E+06    -326.772E+03         32.0387
             557     5.63859E-03     42.8943E-03         4.36945        -1.37091        -1.39970        -1.37058         4.36912        -1.39970    -33.1570E-03     124.523E-03    -62.1192E-03    -62.4322E-03    -62.1161E-03     124.520E-03    -62.4322E-03    -1.48620E-03    -34.3928E+06    -57.8860E+06    -217.302E+06    -57.8879E+06    -217.300E+06    -34.3928E+06    -211.340E+03         31.0576
             558     4.69907E-03     42.8965E-03         4.38436        -1.37886        -1.40493        -1.37841         4.38390        -1.40493    -46.2008E-03     124.721E-03    -62.2279E-03    -62.5054E-03    -62.3249E-03     124.715E-03    -62.4027E-03    -2.02705E-03    -40.9221E+06    -61.8808E+06    -233.026E+06    -61.8823E+06    -233.025E+06    -40.9221E+06     237.332E+03         30.4229
             559     3.75980E-03     42.8997E-03         4.40179        -1.39385        -1.41151        -1.39567         4.40157        -1.40948     11.4800E-03     124.663E-03    -62.2122E-03    -62.4608E-03    -62.3079E-03     124.656E-03    -62.3581E-03    -2.26515E-03    -49.8814E+06    -65.4135E+06    -245.014E+06    -65.4256E+06    -245.002E+06    -49.8814E+06     313.356E+03         30.0686
             560     2.81964E-03     42.9038E-03         4.42715        -1.40792        -1.42693        -1.42644         4.42712        -1.40838     21.4752E-03     124.382E-03    -62.0540E-03    -62.3433E-03    -62.0481E-03     124.376E-03    -62.3433E-03    -2.08792E-03    -60.4376E+06    -68.2006E+06    -251.798E+06    -68.2245E+06    -251.774E+06    -60.4376E+06     184.012E+03         29.8553
             561     1.87880E-03     42.9060E-03         4.42028        -1.39935        -1.42420        -1.42410         4.42018        -1.39935     31.9194E-03     124.604E-03    -62.0685E-03    -62.5081E-03    -62.2045E-03     124.599E-03    -62.3669E-03    -1.97264E-03    -67.8390E+06    -70.9427E+06    -255.946E+06    -70.9592E+06    -255.930E+06    -67.8390E+06    -450.979E+03         29.7097
             562     940.472E-06     42.9082E-03         4.39621    -433.704E-03        -2.36274        -2.35339         4.38686    -433.704E-03    -352.976E-03     124.844E-03    -62.1647E-03    -62.6457E-03    -62.5290E-03     124.840E-03    -62.2772E-03    -1.71606E-03    -70.4606E+06    -73.5461E+06    -256.616E+06    -72.1024E+06    -256.591E+06    -71.9289E+06    -1.80737E+06         29.6244
             563     15.9953E-03     42.7383E-03         4.04300        -1.12647        -1.30690        -1.12642         4.04294        -1.30690     12.3758E-03     291.797E-03    -62.4448E-03    -229.337E-03    -92.7459E-03     155.207E-03    -62.4448E-03     458.324E-03     148.332E+06     141.039E+06    -8.27160E+06    -8.23008E+06     140.998E+06     148.332E+06     655.070E+03         72.4752
             564     15.0449E-03     42.2152E-03         4.07474        -1.15835        -1.30007        -1.15832         4.07471        -1.30007    -21.2825E-03     225.700E-03    -62.3707E-03    -163.231E-03    -75.8604E-03     138.330E-03    -62.3707E-03     319.774E-03     118.209E+06     111.643E+06    -18.0369E+06    -17.8102E+06     111.416E+06     118.209E+06     140.265E+03         67.8921
             565     14.1053E-03     41.9926E-03         4.10183        -1.18492        -1.29786        -1.18483         4.10174        -1.29786    -39.8294E-03     150.970E-03    -62.3081E-03    -88.6454E-03    -63.1146E-03     125.439E-03    -62.3081E-03     142.858E-03     88.4604E+06     80.7871E+06    -26.7748E+06    -26.4762E+06     84.5509E+06     84.3979E+06    -950.951E+03         61.9735
             566     13.1634E-03     41.8908E-03         4.12141        -1.20234        -1.29990        -1.20225         4.12132        -1.29990    -15.2820E-03     130.386E-03    -62.2003E-03    -68.2590E-03    -60.1061E-03     122.233E-03    -62.2003E-03     77.8766E-03     70.7748E+06     48.7814E+06    -32.3740E+06    -32.2920E+06     70.6927E+06     48.7814E+06    -245.447E+03         56.0276
             567     12.2215E-03     41.8211E-03         4.14371        -1.21922        -1.30357        -1.21919         4.14368        -1.30357     736.579E-06     125.564E-03    -61.7839E-03    -63.9093E-03    -60.1842E-03     122.128E-03    -62.0731E-03     47.7532E-03     60.3334E+06     8.47626E+06    -38.6803E+06    -38.6555E+06     60.3086E+06     8.47626E+06     607.812E+03         50.6749
             568     11.2795E-03     41.7867E-03         4.16627        -1.23714        -1.30807        -1.23710         4.16624        -1.30807    -17.3594E-03     123.269E-03    -61.3363E-03    -62.0131E-03    -60.6054E-03     122.538E-03    -62.0131E-03     21.0844E-03     51.7140E+06    -18.2404E+06    -42.6182E+06    -42.5730E+06     51.6687E+06    -18.2404E+06     1.07678E+06         45.9307
             569     10.3398E-03     41.7766E-03         4.18501        -1.25261        -1.31300        -1.25256         4.18496        -1.31300    -21.1694E-03     123.246E-03    -61.2024E-03    -62.0970E-03    -61.0445E-03     123.088E-03    -62.0970E-03     10.7604E-03     13.4944E+06    -29.3467E+06    -44.6581E+06    -44.5926E+06     6.61607E+06    -22.5339E+06     1.06695E+06         41.8118
             570     9.39880E-03     41.7660E-03         4.20313        -1.26618        -1.31788        -1.26613         4.20308        -1.31788    -9.65398E-03     123.444E-03    -61.2825E-03    -62.2091E-03    -61.1899E-03     123.351E-03    -62.2091E-03     8.01732E-03    -25.2615E+06    -40.3809E+06    -61.9797E+06    -46.3891E+06    -55.9714E+06    -25.2615E+06    -368.361E+03         38.3394
             571     8.45854E-03     41.7610E-03         4.22564        -1.28140        -1.32246        -1.28132         4.22556        -1.32246    -21.7854E-03     123.829E-03    -61.5957E-03    -62.2708E-03    -61.5678E-03     123.801E-03    -62.2708E-03     4.13968E-03    -30.9356E+06    -49.1760E+06    -105.170E+06    -49.2162E+06    -105.130E+06    -30.9356E+06    -324.963E+03         35.5437
             572     7.51866E-03     41.7590E-03         4.25181        -1.30071        -1.32894        -1.30351         4.25171        -1.32604    -21.3364E-03     124.185E-03    -61.8559E-03    -62.3580E-03    -61.8523E-03     124.181E-03    -62.3580E-03     1.35480E-03    -31.3464E+06    -51.9999E+06    -149.607E+06    -52.0191E+06    -149.587E+06    -31.3464E+06     293.383E+03         33.4668
             573     6.57830E-03     41.7598E-03         4.26309        -1.31154        -1.33139        -1.31438         4.26303        -1.32849    -9.51102E-03     124.504E-03    -62.0933E-03    -62.4379E-03    -62.0922E-03     124.503E-03    -62.4379E-03    -381.624E-06    -30.9533E+06    -54.6511E+06    -189.041E+06    -54.6581E+06    -189.034E+06    -30.9533E+06    -207.292E+03         32.0391
             574     5.63902E-03     41.7626E-03         4.25802        -1.30771        -1.33165        -1.30741         4.25771        -1.33165    -66.5716E-03     124.703E-03    -62.2628E-03    -62.4670E-03    -62.2597E-03     124.700E-03    -62.4670E-03    -1.48340E-03    -34.0495E+06    -58.6949E+06    -217.757E+06    -58.6999E+06    -217.752E+06    -34.0495E+06     290.675E+03         31.0596
             575     4.69905E-03     41.7648E-03         4.26396        -1.31286        -1.33623        -1.31244         4.26354        -1.33623    -87.9161E-03     124.554E-03    -62.1334E-03    -62.4423E-03    -62.1285E-03     124.549E-03    -62.4423E-03    -1.90376E-03    -42.6928E+06    -63.3770E+06    -232.873E+06    -63.3819E+06    -232.868E+06    -42.6928E+06     466.760E+03         30.4261
             576     3.75870E-03     41.7684E-03         4.28067        -1.32923        -1.34197        -1.33106         4.28046        -1.33994    -10.6418E-03     124.616E-03    -62.1795E-03    -62.4548E-03    -62.1791E-03     124.609E-03    -62.4477E-03    -2.33100E-03    -52.1782E+06    -67.4700E+06    -244.807E+06    -67.4761E+06    -244.801E+06    -52.1782E+06    -504.673E+03         30.0748
             577     2.81892E-03     41.7723E-03         4.29087        -1.32614        -1.35456        -1.33888         4.29079        -1.34174     17.8377E-03     124.843E-03    -62.3216E-03    -62.5377E-03    -62.4375E-03     124.836E-03    -62.4147E-03    -2.26079E-03    -61.2954E+06    -71.0305E+06    -251.925E+06    -71.0440E+06    -251.911E+06    -61.2954E+06    -8.41241E+03         29.8656
             578     1.88014E-03     41.7741E-03         4.29893        -1.32331        -1.35781        -1.33632         4.29851        -1.34438     57.0508E-03     124.775E-03    -62.1930E-03    -62.5803E-03    -62.4459E-03     124.770E-03    -62.3231E-03    -1.74406E-03    -68.0279E+06    -73.3919E+06    -255.085E+06    -73.4020E+06    -255.075E+06    -68.0279E+06     122.098E+03         29.7203
             579     939.898E-06     41.7759E-03         4.33689    -265.219E-03        -2.43774        -2.42002         4.32732    -273.364E-03    -314.496E-03     124.530E-03    -62.0491E-03    -62.4700E-03    -62.3650E-03     124.528E-03    -62.1518E-03    -1.23966E-03    -72.0444E+06    -77.1639E+06    -257.638E+06    -75.6996E+06    -257.634E+06    -73.5127E+06    -509.015E+03         29.6318
             580     15.9835E-03     41.6078E-03         4.03183        -1.13747        -1.26646        -1.13744         4.03179        -1.26646     11.0047E-03     291.187E-03    -62.5081E-03    -228.830E-03    -92.8434E-03     155.200E-03    -62.5081E-03     457.013E-03     147.947E+06     140.867E+06    -10.3529E+06    -10.3122E+06     140.826E+06     147.947E+06     380.335E+03         72.4684
             581     15.0484E-03     41.0806E-03         4.04779        -1.15996        -1.25595        -1.15989         4.04772        -1.25595     3.88440E-03     225.595E-03    -62.3871E-03    -163.199E-03    -76.9977E-03     139.394E-03    -62.3871E-03     318.694E-03     117.760E+06     112.839E+06    -18.9176E+06    -18.7231E+06     112.645E+06     117.760E+06    -1.35024E+06         67.8911
             582     14.1063E-03     40.8639E-03         4.06642        -1.17747        -1.25069        -1.17734         4.06629        -1.25069    -22.8715E-03     150.538E-03    -62.2863E-03    -88.2101E-03    -62.1826E-03     124.510E-03    -62.2863E-03     144.270E-03     86.6903E+06     79.8191E+06    -25.7569E+06    -25.5446E+06     83.6111E+06     82.6861E+06    -934.924E+03         61.9738
             583     13.1621E-03     40.7604E-03         4.07642        -1.18647        -1.25009        -1.18635         4.07630        -1.25009    -6.80405E-03     130.916E-03    -62.2385E-03    -68.7042E-03    -60.1058E-03     122.318E-03    -62.2385E-03     79.8311E-03     68.4791E+06     47.8163E+06    -33.7403E+06    -33.6779E+06     68.4167E+06     47.8163E+06     733.353E+03         56.0237
             584     12.2208E-03     40.6892E-03         4.08634        -1.19481        -1.25137        -1.19473         4.08626        -1.25137     3.39283E-03     126.100E-03    -62.0235E-03    -64.1987E-03    -60.6623E-03     122.666E-03    -62.1261E-03     47.8640E-03     60.9994E+06     11.3034E+06    -38.6119E+06    -38.5711E+06     60.9585E+06     11.3034E+06     1.42478E+06         50.6711
             585     11.2804E-03     40.6558E-03         4.10052        -1.20518        -1.25379        -1.20514         4.10048        -1.25379    -18.1831E-03     123.255E-03    -61.2729E-03    -62.0674E-03    -60.5723E-03     122.525E-03    -62.0373E-03     21.1272E-03     52.2204E+06    -16.2836E+06    -40.8648E+06    -40.8495E+06     52.2051E+06    -16.2836E+06     525.612E+03         45.9276
             586     10.3388E-03     40.6436E-03         4.11569        -1.21953        -1.25669        -1.21950         4.11565        -1.25669    -14.4683E-03     123.091E-03    -61.0248E-03    -62.1209E-03    -60.8691E-03     122.935E-03    -62.1209E-03     10.6602E-03     13.3459E+06    -28.1836E+06    -41.7303E+06    -41.5927E+06     7.14553E+06    -22.1209E+06    -242.942E+03         41.8083
             587     9.39904E-03     40.6352E-03         4.12989        -1.23206        -1.25928        -1.23201         4.12984        -1.25928     1.18859E-03     123.655E-03    -61.4451E-03    -62.2512E-03    -61.3518E-03     123.562E-03    -62.2512E-03     8.13806E-03    -22.1472E+06    -38.6122E+06    -61.8104E+06    -43.7468E+06    -56.6758E+06    -22.1472E+06     1.11291E+06         38.3362
             588     8.45835E-03     40.6282E-03         4.14420        -1.24203        -1.26142        -1.24197         4.14414        -1.26142    -5.43099E-03     123.931E-03    -61.6559E-03    -62.3121E-03    -61.6248E-03     123.900E-03    -62.3121E-03     4.21152E-03    -26.5564E+06    -47.8176E+06    -105.062E+06    -48.1148E+06    -104.764E+06    -26.5564E+06     1.57149E+06         35.5417
             589     7.51825E-03     40.6278E-03         4.15812        -1.25292        -1.26574        -1.25565         4.15796        -1.26284     13.8156E-03     124.174E-03    -61.8194E-03    -62.3875E-03    -61.8167E-03     124.172E-03    -62.3875E-03     1.08085E-03    -29.4656E+06    -51.6516E+06    -148.696E+06    -51.6700E+06    -148.677E+06    -29.4656E+06    -225.055E+03         33.4660
             590     6.57826E-03     40.6277E-03         4.15980        -1.25624        -1.26654        -1.25900         4.15967        -1.26365     30.2903E-03     124.451E-03    -61.9994E-03    -62.4777E-03    -61.9987E-03     124.450E-03    -62.4777E-03    -372.809E-06    -29.8494E+06    -54.3685E+06    -189.752E+06    -54.3753E+06    -189.745E+06    -29.8494E+06    -353.317E+03         32.0399
             591     5.63841E-03     40.6300E-03         4.15051        -1.25315        -1.26509        -1.25310         4.15046        -1.26509    -15.1317E-03     124.696E-03    -62.2024E-03    -62.5241E-03    -62.1997E-03     124.693E-03    -62.5241E-03    -1.36198E-03    -32.9889E+06    -57.9929E+06    -218.058E+06    -57.9993E+06    -218.051E+06    -32.9889E+06     343.353E+03         31.0629
             592     4.69867E-03     40.6338E-03         4.15464        -1.25863        -1.26958        -1.26134         4.15457        -1.26679    -16.6489E-03     124.695E-03    -62.2175E-03    -62.5091E-03    -62.2118E-03     124.690E-03    -62.5091E-03    -2.03364E-03    -41.0676E+06    -61.4115E+06    -232.273E+06    -61.4191E+06    -232.265E+06    -41.0676E+06     238.764E+03         30.4321
             593     3.75863E-03     40.6366E-03         4.15755        -1.26408        -1.27047        -1.26681         4.15744        -1.26763     23.7936E-03     124.785E-03    -62.2876E-03    -62.5238E-03    -62.2864E-03     124.777E-03    -62.5167E-03    -2.45824E-03    -48.6649E+06    -65.6268E+06    -244.059E+06    -65.6291E+06    -244.057E+06    -48.6649E+06     166.881E+03         30.0822
             594     2.81934E-03     40.6396E-03         4.14118        -1.24482        -1.27261        -1.24476         4.14106        -1.27255     10.0915E-03     124.910E-03    -62.3145E-03    -62.6158E-03    -62.4307E-03     124.903E-03    -62.4928E-03    -2.21207E-03    -57.4439E+06    -70.5089E+06    -251.913E+06    -70.5107E+06    -251.911E+06    -57.4439E+06    -333.520E+03         29.8731
             595     1.87949E-03     40.6425E-03         4.17156        -1.25012        -1.28671        -1.24930         4.17073        -1.28671     73.0850E-03     124.758E-03    -62.2149E-03    -62.5657E-03    -62.3278E-03     124.755E-03    -62.4497E-03    -1.48242E-03    -67.0002E+06    -74.4010E+06    -255.201E+06     -74.403E+06    -255.199E+06    -67.0002E+06    -404.000E+03         29.7287
             596     939.393E-06     40.6452E-03         4.24895    -77.3698E-03        -2.52703        -2.50425         4.23772    -88.9135E-03    -315.619E-03     124.893E-03    -62.2128E-03    -62.6927E-03    -62.5702E-03     124.892E-03    -62.3339E-03    -956.372E-06    -74.0335E+06    -79.8214E+06    -258.955E+06    -78.5480E+06    -258.954E+06    -75.3081E+06     273.550E+03         29.6428
             597     15.9873E-03     40.4611E-03         4.03774        -1.16349        -1.22488        -1.16344         4.03769        -1.22488     9.52020E-03     291.112E-03    -62.5411E-03    -228.695E-03    -92.4111E-03     154.829E-03    -62.5411E-03     457.223E-03     148.613E+06     141.155E+06    -9.43058E+06    -9.40915E+06     141.133E+06     148.613E+06    -240.178E+03         72.4638
             598     15.0487E-03     39.9544E-03         4.02893        -1.16737        -1.21070        -1.16729         4.02886        -1.21070     3.28666E-03     223.857E-03    -62.4606E-03    -161.486E-03    -75.9743E-03     138.345E-03    -62.4606E-03     316.481E-03     116.978E+06     113.173E+06    -18.0144E+06    -17.9229E+06     113.081E+06     116.978E+06    -516.205E+03         67.8877
             599     14.1015E-03     39.7335E-03         4.02649        -1.16583        -1.20244        -1.16570         4.02637        -1.20244    -20.6068E-03     151.773E-03    -62.3756E-03    -89.4237E-03    -62.6318E-03     124.981E-03    -62.3756E-03     146.325E-03     84.9371E+06     80.2285E+06    -26.1175E+06    -25.9398E+06     82.4938E+06     82.4941E+06     817.760E+03         61.9689
             600     13.1612E-03     39.6288E-03         4.03497        -1.17502        -1.19971        -1.17566         4.03486        -1.19896    -13.2782E-03     131.634E-03    -62.3058E-03    -69.3593E-03    -60.8916E-03     123.166E-03    -62.3058E-03     79.6292E-03     67.6212E+06     49.2847E+06    -33.4110E+06    -33.2727E+06     67.4829E+06     49.2847E+06     1.12553E+06         56.0193
             601     12.2209E-03     39.5560E-03         4.03583        -1.17657        -1.19802        -1.17725         4.03576        -1.19727    -5.80575E-03     126.230E-03    -62.0465E-03    -64.2958E-03    -60.7350E-03     122.795E-03    -62.1726E-03     47.8951E-03     61.8244E+06     13.4801E+06    -37.9008E+06    -37.8567E+06     61.7803E+06     13.4801E+06     882.368E+03         50.6680
             602     11.2802E-03     39.5245E-03         4.03486        -1.17611        -1.19754        -1.17654         4.03480        -1.19705    -31.1256E-03     123.339E-03    -61.3148E-03    -62.1076E-03    -60.5988E-03     122.593E-03    -62.0775E-03     21.6213E-03     54.1718E+06    -14.2240E+06    -40.3363E+06    -40.3221E+06     54.1576E+06    -14.2240E+06     51.1618E+03         45.9242
             603     10.3390E-03     39.5124E-03         4.04092        -1.18327        -1.19901        -1.18457         4.04085        -1.19764    -35.4499E-03     123.185E-03    -61.0912E-03    -62.1497E-03    -60.9202E-03     123.014E-03    -62.1497E-03     11.1176E-03     13.4589E+06    -29.6027E+06    -43.4590E+06    -43.1912E+06     6.07443E+06    -22.4860E+06    -267.135E+03         41.8050
             604     9.39798E-03     39.5024E-03         4.04734        -1.19098        -1.19940        -1.19230         4.04726        -1.19801    -23.5515E-03     123.779E-03    -61.5405E-03    -62.2745E-03    -61.4507E-03     123.689E-03    -62.2745E-03     7.95864E-03    -22.4724E+06    -40.6798E+06    -63.6383E+06    -45.5010E+06    -58.8172E+06    -22.4724E+06     1.34638E+06         38.3336
             605     8.45853E-03     39.4969E-03         4.04435        -1.19132        -1.19884        -1.19175         4.04427        -1.19834    -23.6720E-03     123.973E-03    -61.6707E-03    -62.3374E-03    -61.6418E-03     123.944E-03    -62.3374E-03     4.07165E-03    -23.6932E+06    -45.7678E+06    -103.161E+06    -46.0728E+06    -102.856E+06    -23.6932E+06     1.43634E+06         35.5399
             606     7.51842E-03     39.4955E-03         4.03575        -1.18187        -1.19972        -1.18170         4.03558        -1.19972     3.55195E-03     124.171E-03    -61.7839E-03    -62.4207E-03    -61.7810E-03     124.168E-03    -62.4207E-03     1.20897E-03    -26.4181E+06    -48.2137E+06    -147.711E+06    -48.2376E+06    -147.687E+06    -26.4181E+06     599.223E+03         33.4653
             607     6.57836E-03     39.4966E-03         4.03631        -1.18160        -1.20237        -1.18148         4.03618        -1.20237     21.5618E-03     124.417E-03    -61.9312E-03    -62.5143E-03    -61.9303E-03     124.416E-03    -62.5143E-03    -240.920E-06    -29.3297E+06    -52.5024E+06    -190.566E+06    -52.5171E+06    -190.551E+06    -29.3297E+06     443.492E+03         32.0407
             608     5.63787E-03     39.4983E-03         4.05588        -1.19561        -1.21071        -1.20218         4.05585        -1.20413    -7.88200E-03     124.642E-03    -62.0904E-03    -62.5795E-03    -62.0875E-03     124.639E-03    -62.5795E-03    -1.41156E-03    -31.9746E+06    -56.7378E+06    -217.750E+06    -56.7409E+06    -217.747E+06    -31.9746E+06    -27.1483E+03         31.0666
             609     4.69813E-03     39.5010E-03         4.06362        -1.20271        -1.21297        -1.21201         4.06354        -1.20360    -13.8007E-03     124.912E-03    -62.3611E-03    -62.5791E-03    -62.3553E-03     124.907E-03    -62.5791E-03    -2.07155E-03    -38.9576E+06    -61.4369E+06    -232.235E+06    -61.4409E+06    -232.231E+06    -38.9576E+06     228.644E+03         30.4390
             610     3.75909E-03     39.5047E-03         4.05311        -1.20177        -1.20686        -1.20585         4.05285        -1.20252     26.3953E-03     124.910E-03    -62.3792E-03    -62.5462E-03    -62.3725E-03     124.904E-03    -62.5462E-03    -2.23043E-03    -49.5203E+06    -65.8880E+06    -243.976E+06    -65.8916E+06    -243.972E+06    -49.5203E+06     704.657E+03         30.0898
             611     2.81871E-03     39.5078E-03         4.05167        -1.18855        -1.22293        -1.21042         4.05129        -1.20068    -4.19718E-03     124.782E-03    -62.2200E-03    -62.5650E-03    -62.2141E-03     124.776E-03    -62.5650E-03    -2.10543E-03    -58.6659E+06    -69.3915E+06    -251.285E+06    -69.3947E+06    -251.282E+06    -58.6659E+06    -80.4737E+03         29.8799
             612     1.87864E-03     39.5112E-03         4.04644        -1.18117        -1.22402        -1.20693         4.04487        -1.19669     73.5980E-03     124.988E-03    -62.3790E-03    -62.6235E-03    -62.3933E-03     124.984E-03    -62.6054E-03    -1.60413E-03    -66.5730E+06    -74.2080E+06    -255.942E+06    -74.2099E+06    -255.940E+06    -66.5730E+06    -358.039E+03         29.7370
             613     939.528E-06     39.5123E-03         4.05508     130.174E-03        -2.53443        -2.51678         4.04082     126.775E-03    -333.961E-03     125.254E-03    -62.3879E-03    -62.8765E-03    -62.8566E-03     125.253E-03    -62.4064E-03    -977.242E-06    -73.9251E+06    -78.6313E+06    -258.787E+06    -77.3648E+06    -258.778E+06    -75.1997E+06     765.927E+03         29.6535
             614     15.9874E-03     39.3240E-03         4.00970        -1.16034        -1.18732        -1.16545         4.00963        -1.18215    -2.52040E-03     290.713E-03    -62.5590E-03    -228.147E-03    -90.6015E-03     153.168E-03    -62.5590E-03     458.020E-03     148.090E+06     140.494E+06    -8.39098E+06    -8.37239E+06     140.476E+06     148.090E+06    -328.198E+03         72.4633
             615     15.0407E-03     38.8252E-03         4.00431        -1.15365        -1.17818        -1.16743         4.00426        -1.16436    -28.0844E-03     223.446E-03    -62.5625E-03    -160.926E-03    -74.6857E-03     137.205E-03    -62.5625E-03     316.146E-03     116.305E+06     112.046E+06    -17.7327E+06    -17.5946E+06     111.908E+06     116.305E+06     552.039E+03         67.8808
             616     14.1026E-03     38.5993E-03         3.98788        -1.14196        -1.16863        -1.15760         3.98781        -1.15293    -26.6210E-03     153.390E-03    -62.4769E-03    -90.9179E-03    -64.5285E-03     127.001E-03    -62.4769E-03     146.064E-03     85.2392E+06     80.6079E+06    -26.7646E+06    -26.5332E+06     82.7680E+06     82.8477E+06     1.55604E+06         61.9622
             617     13.1626E-03     38.4967E-03         3.98072        -1.14328        -1.16194        -1.15843         3.98065        -1.14672    -12.8395E-03     131.484E-03    -62.3389E-03    -69.1904E-03    -61.0364E-03     123.330E-03    -62.3389E-03     78.4599E-03     68.9930E+06     51.3889E+06    -32.6261E+06    -32.4809E+06     68.8477E+06     51.3889E+06     1.39204E+06         56.0171
             618     12.2200E-03     38.4251E-03         3.97446        -1.14138        -1.15858        -1.15751         3.97442        -1.14242    -10.9051E-03     125.948E-03    -62.0181E-03    -64.0398E-03    -60.3462E-03     122.443E-03    -62.2060E-03     48.2253E-03     62.0266E+06     14.3058E+06    -37.4106E+06    -37.3418E+06     61.9578E+06     14.3058E+06     434.724E+03         50.6645
             619     11.2784E-03     38.3924E-03         3.96738        -1.13832        -1.15566        -1.15459         3.96734        -1.13936    -23.4803E-03     123.513E-03    -61.4761E-03    -62.1193E-03    -60.7306E-03     122.768E-03    -62.1193E-03     21.5200E-03     54.3001E+06    -14.9282E+06    -41.7509E+06    -41.6880E+06     54.2372E+06    -14.9282E+06     526.067E+03         45.9196
             620     10.3385E-03     38.3804E-03         3.95922        -1.13728        -1.15019        -1.15015         3.95918        -1.13728    -23.6874E-03     123.455E-03    -61.3380E-03    -62.1777E-03    -61.1650E-03     123.282E-03    -62.1777E-03     11.2323E-03     13.1395E+06    -31.1232E+06    -45.0004E+06    -44.7864E+06     5.38286E+06    -23.5805E+06     1.36866E+06         41.8012
             621     9.39898E-03     38.3706E-03         3.94903        -1.13587        -1.14230        -1.14220         3.94893        -1.13587    -4.77692E-03     123.758E-03    -61.5280E-03    -62.2736E-03    -61.4295E-03     123.659E-03    -62.2736E-03     8.29842E-03    -27.3316E+06    -43.1733E+06    -62.0340E+06    -46.9136E+06    -58.2937E+06    -27.3316E+06     365.534E+03         38.3306
             622     8.45815E-03     38.3649E-03         3.94241        -1.13276        -1.13935        -1.13682         3.94229        -1.13516    -12.0287E-03     123.899E-03    -61.5816E-03    -62.3540E-03    -61.5507E-03     123.868E-03    -62.3540E-03     4.25053E-03    -27.8288E+06    -48.1945E+06    -102.542E+06    -48.2465E+06     -102.49E+06    -27.8288E+06    -414.912E+03         35.5373
             623     7.51771E-03     38.3639E-03         3.93311        -1.12325        -1.14269        -1.13060         3.93303        -1.13526    -12.1852E-03     124.163E-03    -61.7183E-03    -62.4729E-03    -61.7148E-03     124.159E-03    -62.4729E-03     1.46125E-03    -26.2719E+06    -49.6212E+06    -148.634E+06    -49.6542E+06    -148.601E+06    -26.2719E+06     808.212E+03         33.4637
             624     6.57748E-03     38.3642E-03         3.92803        -1.12128        -1.14291        -1.12791         3.92792        -1.13617    -17.2635E-03     124.578E-03    -62.0412E-03    -62.5581E-03    -62.0402E-03     124.577E-03    -62.5581E-03    -52.7089E-06    -28.3554E+06    -52.1710E+06    -189.158E+06    -52.1864E+06    -189.142E+06    -28.3554E+06     1.06233E+06         32.0409
             625     5.63820E-03     38.3666E-03         3.93949        -1.12965        -1.14506        -1.13781         3.93939        -1.13679    -36.5817E-03     124.841E-03    -62.2496E-03    -62.6038E-03    -62.2466E-03     124.838E-03    -62.6038E-03    -1.41513E-03    -31.6955E+06    -56.3544E+06    -218.037E+06    -56.3587E+06    -218.033E+06    -31.6955E+06     592.102E+03         31.0689
             626     4.69806E-03     38.3691E-03         3.94157        -1.13270        -1.14325        -1.13882         3.94110        -1.13666    -70.7917E-03     124.845E-03    -62.2484E-03    -62.6068E-03    -62.2419E-03     124.838E-03    -62.6068E-03    -2.17679E-03    -40.8781E+06    -61.1322E+06    -233.173E+06    -61.1375E+06    -233.168E+06    -40.8781E+06     853.550E+03         30.4435
             627     3.75796E-03     38.3724E-03         3.94726        -1.13383        -1.14495        -1.14167         3.94608        -1.13593     18.4775E-03     124.920E-03    -62.3345E-03    -62.5926E-03    -62.3343E-03     124.912E-03    -62.5845E-03    -2.47104E-03    -52.1383E+06    -65.5848E+06    -243.810E+06    -65.5927E+06    -243.803E+06    -52.1383E+06     1.12211E+06         30.0969
             628     2.81866E-03     38.3764E-03         3.96606        -1.12841        -1.17191        -1.17044         3.96458        -1.12841    -2.62318E-03     125.034E-03    -62.4078E-03    -62.6387E-03    -62.4641E-03     125.026E-03    -62.5744E-03    -2.41860E-03    -62.4543E+06    -69.3640E+06    -250.112E+06    -69.3697E+06    -250.106E+06    -62.4543E+06     671.775E+03         29.8894
             629     1.87905E-03     38.3783E-03         3.92792        -1.10885        -1.16269        -1.15975         3.92498        -1.10885     62.9303E-03     125.095E-03    -62.4403E-03    -62.6686E-03    -62.5100E-03     125.091E-03    -62.5943E-03    -1.77440E-03    -67.8624E+06    -72.1204E+06    -255.216E+06    -72.1243E+06    -255.212E+06    -67.8624E+06     371.081E+03         29.7455
             630     939.489E-06     38.3799E-03         3.87759     327.582E-03        -2.53552        -2.52018         3.86226     327.582E-03    -304.969E-03     125.202E-03    -62.3904E-03    -62.8181E-03    -62.6153E-03     125.200E-03    -62.5917E-03    -1.01453E-03    -71.7802E+06    -75.2465E+06    -258.313E+06    -75.2645E+06    -258.295E+06    -71.7802E+06     318.489E+03         29.6581
             631     15.9881E-03     38.2045E-03         3.97636        -1.13190        -1.16477        -1.15856         3.97631        -1.13806     9.04234E-03     289.972E-03    -62.5881E-03    -227.252E-03    -89.1537E-03     151.874E-03    -62.5881E-03     457.621E-03     146.085E+06     139.254E+06    -10.0949E+06    -10.0771E+06     139.236E+06     146.085E+06    -484.715E+03         72.4603
             632     15.0422E-03     37.6930E-03         3.96689        -1.11795        -1.15867        -1.15865         3.96687        -1.11795    -14.6600E-03     225.649E-03    -62.5979E-03    -162.986E-03    -75.9848E-03     138.647E-03    -62.5979E-03     318.904E-03     115.346E+06     111.325E+06    -19.5813E+06    -19.4592E+06     111.203E+06     115.346E+06     1.10223E+06         67.8737
             633     14.1014E-03     37.4632E-03         3.95140        -1.10412        -1.15264        -1.15263         3.95139        -1.10412    -11.0295E-03     153.199E-03    -62.4998E-03    -90.6226E-03    -64.8912E-03     127.467E-03    -62.4998E-03     144.505E-03     86.6706E+06      80.204E+06    -27.7142E+06    -27.5740E+06     84.0528E+06     82.6816E+06     983.562E+03         61.9566
             634     13.1610E-03     37.3668E-03         3.93075        -1.09543        -1.14458        -1.14455         3.93072        -1.09543     7.62989E-03     131.222E-03    -62.3667E-03    -68.8890E-03    -60.7906E-03     123.124E-03    -62.3667E-03     78.1808E-03     69.8250E+06     50.4831E+06    -34.0575E+06    -33.9512E+06     69.7188E+06     50.4831E+06    -45.9567E+03         56.0121
             635     12.2195E-03     37.2936E-03         3.91430        -1.08870        -1.13647        -1.13643         3.91426        -1.08870     2.03136E-03     126.457E-03    -62.1754E-03    -64.4041E-03    -60.7681E-03     122.882E-03    -62.2371E-03     48.6880E-03     61.6096E+06     14.1488E+06    -38.2857E+06    -38.1524E+06     61.4764E+06     14.1488E+06     437.653E+03         50.6595
             636     11.2794E-03     37.2601E-03         3.89968        -1.08317        -1.12888        -1.12886         3.89966        -1.08317    -10.2006E-03     123.616E-03    -61.5266E-03    -62.1718E-03    -60.8260E-03     122.888E-03    -62.1444E-03     21.2062E-03     53.2805E+06    -13.9436E+06    -41.0437E+06    -40.9527E+06     53.1895E+06    -13.9436E+06     1.29392E+06         45.9156
             637     10.3384E-03     37.2483E-03         3.87930        -1.07887        -1.11362        -1.11353         3.87921        -1.07887    -22.8434E-03     123.307E-03    -61.1559E-03    -62.2128E-03    -60.9908E-03     123.142E-03    -62.2128E-03     10.9895E-03     13.3449E+06    -29.3143E+06    -42.7767E+06    -42.5969E+06     5.62214E+06    -21.7713E+06     1.50109E+06         41.7971
             638     9.39732E-03     37.2382E-03         3.85639        -1.07586        -1.09495        -1.09480         3.85623        -1.07586    -6.29644E-03     123.678E-03    -61.3973E-03    -62.3224E-03    -61.2981E-03     123.578E-03    -62.3224E-03     8.34816E-03    -25.6919E+06    -40.8412E+06    -59.7891E+06    -44.3529E+06    -56.2774E+06    -25.6919E+06     577.941E+03         38.3261
             639     8.45746E-03     37.2330E-03         3.84495        -1.07369        -1.09062        -1.09046         3.84479        -1.07369    -10.6717E-03     124.012E-03    -61.6297E-03    -62.4147E-03    -61.5981E-03     123.981E-03    -62.4147E-03     4.25505E-03    -27.2519E+06    -47.3576E+06    -102.973E+06    -47.3812E+06    -102.949E+06    -27.2519E+06    -157.147E+03         35.5333
             640     7.51746E-03     37.2320E-03         3.84634        -1.07109        -1.09625        -1.09610         3.84618        -1.07109    -8.58460E-03     124.391E-03    -61.8923E-03    -62.5235E-03    -61.8894E-03     124.388E-03    -62.5235E-03     1.30455E-03    -26.0557E+06    -50.9667E+06    -149.469E+06    -50.9867E+06    -149.449E+06    -26.0557E+06     150.166E+03         33.4610
             641     6.57747E-03     37.2323E-03         3.83502        -1.06802        -1.08963        -1.08949         3.83488        -1.06802    -7.51912E-03     124.671E-03    -62.1097E-03    -62.5734E-03    -62.1087E-03     124.670E-03    -62.5734E-03    -202.695E-06    -31.0889E+06    -54.6131E+06    -188.899E+06    -54.6191E+06    -188.893E+06    -31.0889E+06     743.473E+03         32.0398
             642     5.63748E-03     37.2341E-03         3.81177        -1.06343        -1.07252        -1.06941         3.81156        -1.06634    -7.79978E-03     124.892E-03    -62.2915E-03    -62.5944E-03    -62.2885E-03     124.889E-03    -62.5944E-03    -1.44294E-03    -36.5579E+06    -58.1196E+06    -218.163E+06    -58.1287E+06    -218.154E+06    -36.5579E+06     1.18923E+06         31.0698
             643     4.69832E-03     37.2375E-03         3.81436        -1.06161        -1.07488        -1.06978         3.81351        -1.06586    -63.8644E-03     124.944E-03    -62.3337E-03    -62.6003E-03    -62.3269E-03     124.938E-03    -62.6003E-03    -2.22633E-03    -43.5474E+06    -61.8434E+06    -233.382E+06    -61.8562E+06    -233.369E+06    -43.5474E+06     1.46242E+06         30.4469
             644     3.75821E-03     37.2405E-03         3.82396        -1.06245        -1.08192        -1.07875         3.82214        -1.06380     19.9694E-03     124.983E-03    -62.3797E-03    -62.6007E-03    -62.3791E-03     124.975E-03    -62.5926E-03    -2.54520E-03    -51.8485E+06    -65.2841E+06    -243.064E+06    -65.2950E+06    -243.053E+06    -51.8485E+06     1.31193E+06         30.1023
             645     2.81870E-03     37.2431E-03         3.80906        -1.04770        -1.08378        -1.06827         3.80674        -1.06090    -4.42669E-03     125.181E-03    -62.5167E-03    -62.6851E-03    -62.6215E-03     125.173E-03    -62.5725E-03    -2.41130E-03    -59.5597E+06    -67.6937E+06    -249.343E+06    -67.6984E+06    -249.338E+06    -59.5597E+06     836.068E+03         29.8952
             646     1.87953E-03     37.2466E-03         3.81255        -1.04311        -1.08826        -1.07029         3.80777        -1.05631     76.5089E-03     125.139E-03    -62.4902E-03    -62.6726E-03    -62.6083E-03     125.135E-03    -62.5499E-03    -1.76446E-03    -64.5699E+06    -69.0176E+06    -254.468E+06    -69.0258E+06    -254.459E+06    -64.5699E+06     1.13225E+06         29.7496
             647     939.497E-06     37.2477E-03         3.81141     465.727E-03        -2.59237        -2.57096         3.79001     465.727E-03    -339.329E-03     125.022E-03    -62.3819E-03    -62.6474E-03    -62.4447E-03     125.020E-03    -62.5832E-03    -944.615E-06    -69.0409E+06    -72.3027E+06    -257.226E+06    -71.5292E+06    -257.208E+06    -69.8322E+06    -156.968E+03         29.6575
             648     15.9812E-03     37.0791E-03         3.95352        -1.09446        -1.15618        -1.15614         3.95348        -1.09446     18.9751E-03     291.876E-03    -62.7174E-03    -229.104E-03    -90.1615E-03     152.934E-03    -62.7174E-03     460.684E-03     147.072E+06     139.719E+06    -9.95672E+06    -9.93586E+06     139.699E+06     147.072E+06     1.25658E+06         72.4497
             649     15.0403E-03     36.5529E-03         3.92572        -1.07251        -1.14815        -1.14814         3.92572        -1.07251    -9.11155E-03     226.790E-03    -62.6485E-03    -164.014E-03    -78.3824E-03     141.159E-03    -62.6485E-03     318.610E-03     116.408E+06     112.170E+06    -19.9407E+06    -19.8554E+06     112.085E+06     116.408E+06     1.68502E+06         67.8676
             650     14.1027E-03     36.3332E-03         3.90148        -1.05662        -1.14006        -1.14000         3.90142        -1.05662    -27.8758E-03     151.377E-03    -62.5231E-03    -88.8157E-03    -63.7275E-03     126.288E-03    -62.5231E-03     141.942E-03     86.6743E+06     80.7169E+06    -27.6894E+06    -27.5550E+06     84.2618E+06     82.9950E+06    -122.706E+03         61.9533
             651     13.1591E-03     36.2340E-03         3.87528        -1.04575        -1.12534        -1.12526         3.87520        -1.04575    -8.20355E-03     131.142E-03    -62.4188E-03    -68.7896E-03    -60.7381E-03     123.090E-03    -62.4188E-03     77.7627E-03     70.1586E+06     49.9836E+06    -33.9061E+06    -33.7527E+06     70.0052E+06     49.9836E+06    -597.459E+03         56.0059
             652     12.2196E-03     36.1608E-03         3.85034        -1.03705        -1.10939        -1.10937         3.85031        -1.03705     5.68759E-03     126.772E-03    -62.2638E-03    -64.6446E-03    -61.1534E-03     123.281E-03    -62.2638E-03     48.4421E-03     60.9793E+06     12.3292E+06    -39.7040E+06    -39.5718E+06     60.8470E+06     12.3292E+06     592.421E+03         50.6539
             653     11.2787E-03     36.1282E-03         3.82939        -1.02967        -1.09880        -1.09879         3.82938        -1.02967    -1.21313E-03     123.736E-03    -61.6314E-03    -62.2090E-03    -60.9377E-03     122.993E-03    -62.1598E-03     21.2880E-03     51.7611E+06    -15.0317E+06    -43.2896E+06    -43.2047E+06     51.6762E+06    -15.0317E+06     1.38302E+06         45.9109
             654     10.3381E-03     36.1165E-03         3.80907        -1.02314        -1.08627        -1.08617         3.80897        -1.02314    -22.5700E-03     123.244E-03    -61.0764E-03    -62.2220E-03    -60.9215E-03     123.089E-03    -62.2220E-03     10.6344E-03     11.9593E+06    -27.0581E+06    -44.9050E+06    -44.5321E+06     7.58715E+06    -23.0589E+06     417.928E+03         41.7923
             655     9.39775E-03     36.1065E-03         3.78374        -1.01725        -1.06852        -1.06842         3.78364        -1.01725    -27.2343E-03     123.572E-03    -61.2573E-03    -62.3383E-03    -61.1667E-03     123.481E-03    -62.3383E-03     7.96603E-03    -26.9292E+06    -38.1427E+06    -62.5342E+06    -44.7478E+06    -55.5492E+06    -27.3091E+06    -724.210E+03         38.3210
             656     8.45703E-03     36.1008E-03         3.75344        -1.01247        -1.04716        -1.04705         3.75333        -1.01247    -30.8617E-03     124.107E-03    -61.7025E-03    -62.4314E-03    -61.6751E-03     124.080E-03    -62.4314E-03     3.93053E-03    -29.2964E+06    -45.2472E+06    -104.045E+06    -45.2612E+06    -104.032E+06    -29.2964E+06     149.542E+03         35.5286
             657     7.51710E-03     36.0999E-03         3.73338        -1.00898        -1.03280        -1.03254         3.73312        -1.00898     4.72540E-03     124.589E-03    -62.0863E-03    -62.5348E-03    -62.0841E-03     124.587E-03    -62.5348E-03     1.02653E-03    -27.2733E+06    -48.0815E+06    -150.420E+06    -48.1439E+06    -150.357E+06    -27.2733E+06     1.74090E+06         33.4573
             658     6.57760E-03     36.1000E-03         3.72360        -1.00593        -1.02841        -1.02821         3.72340        -1.00593     13.2898E-03     124.718E-03    -62.1504E-03    -62.5867E-03    -62.1491E-03     124.716E-03    -62.5867E-03    -524.086E-06    -30.5701E+06    -53.4923E+06    -189.138E+06    -53.5759E+06    -189.054E+06    -30.5701E+06     2.51872E+06         32.0372
             659     5.63766E-03     36.1024E-03         3.71644        -1.00161        -1.02527        -1.02398         3.71619        -1.00265     19.2030E-03     124.773E-03    -62.1610E-03    -62.6017E-03    -62.1573E-03     124.769E-03    -62.6017E-03    -1.65073E-03    -36.4570E+06    -58.9470E+06    -216.597E+06    -58.9796E+06    -216.564E+06    -36.4570E+06     1.61364E+06         31.0689
             660     4.69741E-03     36.1046E-03         3.71038    -997.537E-03        -1.02475        -1.02299         3.70966    -998.579E-03    -27.9160E-03     125.048E-03    -62.4183E-03    -62.6208E-03    -62.4209E-03     125.041E-03    -62.6113E-03    -2.26158E-03    -41.7877E+06    -62.5085E+06    -233.326E+06    -62.5192E+06    -233.316E+06    -41.7877E+06     465.401E+03         30.4480
             661     3.75855E-03     36.1087E-03         3.69276    -994.060E-03        -1.01362        -1.01213         3.69127    -994.060E-03     24.5951E-03     125.126E-03    -62.5123E-03    -62.6035E-03    -62.5132E-03     125.118E-03    -62.5940E-03    -2.52599E-03    -48.7265E+06    -64.8118E+06    -241.945E+06    -64.8194E+06    -241.937E+06    -48.7265E+06     143.835E+03         30.1037
             662     2.81855E-03     36.1113E-03         3.66464    -979.126E-03    -999.455E-03    -981.365E-03         3.66153    -994.106E-03    -42.4549E-03     125.062E-03    -62.4180E-03    -62.6381E-03    -62.4597E-03     125.055E-03    -62.5897E-03    -2.19129E-03    -56.5887E+06    -67.2473E+06    -249.276E+06    -67.2489E+06    -249.275E+06    -56.5887E+06     354.680E+03         29.8946
             663     1.87904E-03     36.1142E-03         3.67923    -984.277E-03        -1.00952    -987.811E-03         3.67251    -999.257E-03     70.6836E-03     125.178E-03    -62.4621E-03    -62.7300E-03    -62.6307E-03     125.174E-03    -62.5573E-03    -1.72128E-03    -63.6371E+06    -70.7911E+06    -254.496E+06    -70.7985E+06    -254.488E+06    -63.6371E+06     442.210E+03         29.7477
             664     939.943E-06     36.1163E-03         3.73487     581.459E-03        -2.62303        -2.58662         3.69846     581.459E-03    -494.894E-03     125.003E-03    -62.3404E-03    -62.6681E-03    -62.6664E-03     125.001E-03    -62.3404E-03    -815.578E-06    -69.3732E+06    -73.3977E+06    -256.202E+06    -72.5088E+06    -256.186E+06    -70.2783E+06     318.844E+03         29.6552
             665     15.9775E-03     35.9353E-03         3.93275        -1.05284        -1.16527        -1.16524         3.93271        -1.05284     20.7824E-03     292.782E-03    -62.7018E-03    -230.032E-03    -91.8195E-03     154.569E-03    -62.7018E-03     461.009E-03     149.158E+06     139.755E+06    -9.06605E+06    -9.03902E+06     139.728E+06     149.158E+06     1.48016E+06         72.4452
             666     15.0464E-03     35.4199E-03         3.89299        -1.02878        -1.15418        -1.15417         3.89298        -1.02878     738.189E-06     223.824E-03    -62.6333E-03    -161.144E-03    -77.1817E-03     139.862E-03    -62.6333E-03     313.691E-03     119.815E+06     112.169E+06    -16.8438E+06    -16.7523E+06     112.077E+06     119.815E+06     1.14879E+06         67.8693
             667     14.1007E-03     35.2038E-03         3.85803        -1.01065        -1.13486        -1.13481         3.85797        -1.01065    -20.6909E-03     150.558E-03    -62.5419E-03    -88.0575E-03    -62.8315E-03     125.332E-03    -62.5419E-03     141.921E-03     89.3824E+06     81.3775E+06    -24.1764E+06    -23.8408E+06     84.7194E+06     85.7048E+06     1.50339E+06         61.9521
             668     13.1609E-03     35.1006E-03         3.82055    -997.613E-03        -1.10753        -1.10748         3.82050    -997.613E-03    -17.7789E-03     131.634E-03    -62.4396E-03    -69.2777E-03    -61.1116E-03     123.468E-03    -62.4396E-03     78.2083E-03     70.7056E+06     51.0999E+06    -32.9407E+06    -32.6347E+06     70.3995E+06     51.0999E+06     1.88830E+06         56.0022
             669     12.2189E-03     35.0299E-03         3.78286    -987.047E-03        -1.08279        -1.08278         3.78285    -987.047E-03    -8.88316E-03     126.580E-03    -62.1233E-03    -64.5735E-03    -61.1531E-03     123.289E-03    -62.2525E-03     46.9345E-03     60.6458E+06     11.2203E+06    -39.5609E+06    -39.4636E+06     60.5485E+06     11.2203E+06     1.32720E+06         50.6504
             670     11.2785E-03     34.9952E-03         3.75334    -978.179E-03        -1.06283        -1.06280         3.75331    -978.179E-03    -16.7057E-03     123.444E-03    -61.3854E-03    -62.1568E-03    -60.7231E-03     122.760E-03    -62.1350E-03     20.3483E-03     52.0423E+06    -17.1187E+06    -42.5065E+06    -42.3841E+06     51.9198E+06    -17.1187E+06     651.961E+03         45.9063
             671     10.3385E-03     34.9853E-03         3.73064    -970.403E-03        -1.04733        -1.04729         3.73060    -970.403E-03    -18.7855E-03     123.248E-03    -61.1000E-03    -62.2057E-03    -60.9556E-03     123.104E-03    -62.2057E-03     10.2920E-03     11.9239E+06    -25.8851E+06    -44.4035E+06    -44.0340E+06     9.78890E+06    -24.1197E+06    -260.139E+03         41.7867
             672     9.39741E-03     34.9747E-03         3.70754    -962.821E-03        -1.03601        -1.03596         3.70750    -962.821E-03    -1.61114E-03     123.683E-03    -61.3986E-03    -62.3183E-03    -61.3101E-03     123.595E-03    -62.3183E-03     7.86648E-03    -28.2468E+06    -37.8180E+06    -64.5548E+06    -46.4629E+06    -55.5300E+06    -28.6268E+06    -1.10958E+06         38.3156
             673     8.45737E-03     34.9688E-03         3.67296    -955.862E-03        -1.01047        -1.01042         3.67290    -955.862E-03    -4.31968E-03     124.057E-03    -61.6910E-03    -62.3999E-03    -61.6649E-03     124.031E-03    -62.3999E-03     3.79039E-03    -32.0373E+06    -48.6074E+06    -106.197E+06    -48.6609E+06    -106.143E+06    -32.0373E+06    -563.256E+03         35.5235
             674     7.51750E-03     34.9673E-03         3.63596    -950.741E-03    -982.801E-03    -982.652E-03         3.63582    -950.741E-03     15.8692E-03     124.500E-03    -62.0081E-03    -62.5269E-03    -62.0064E-03     124.498E-03    -62.5269E-03     705.731E-06    -27.0962E+06    -50.0999E+06    -153.249E+06    -50.1631E+06    -153.185E+06    -27.0962E+06     2.01321E+06         33.4524
             675     6.57750E-03     34.9680E-03         3.62244    -946.622E-03    -976.925E-03    -976.698E-03         3.62222    -946.622E-03    -261.784E-06     124.744E-03    -62.1592E-03    -62.6106E-03    -62.1576E-03     124.742E-03    -62.6106E-03    -854.039E-06    -23.9299E+06    -51.9746E+06    -188.417E+06    -52.0863E+06    -188.306E+06    -23.9299E+06     3.69674E+06         32.0329
             676     5.63776E-03     34.9701E-03         3.61970    -941.621E-03    -977.229E-03    -977.039E-03         3.61951    -941.621E-03    -5.50699E-03     124.853E-03    -62.2332E-03    -62.6197E-03    -62.2282E-03     124.848E-03    -62.6197E-03    -1.89851E-03    -28.5509E+06    -55.2961E+06    -212.605E+06    -55.3459E+06    -212.556E+06    -28.5509E+06     1.83059E+06         31.0651
             677     4.69814E-03     34.9727E-03         3.59885    -936.317E-03    -959.965E-03    -959.193E-03         3.59830    -936.543E-03    -38.9730E-03     124.900E-03    -62.2815E-03    -62.6241E-03    -62.2836E-03     124.893E-03    -62.6146E-03    -2.34639E-03    -38.8530E+06    -59.5172E+06    -232.612E+06    -59.5202E+06    -232.609E+06    -38.8530E+06    -541.446E+03         30.4441
             678     3.75816E-03     34.9753E-03         3.58225    -932.563E-03    -947.761E-03    -945.987E-03         3.58070    -932.789E-03     33.6971E-03     125.013E-03    -62.4204E-03    -62.6083E-03    -62.4206E-03     125.004E-03    -62.5988E-03    -2.62385E-03    -48.8387E+06    -63.7128E+06    -242.517E+06    -63.7170E+06    -242.513E+06    -48.8387E+06    -767.606E+03         30.1004
             679     2.81896E-03     34.9802E-03         3.57676    -927.122E-03    -948.562E-03    -943.281E-03         3.57326    -928.908E-03    -47.8946E-03     125.081E-03    -62.4766E-03    -62.6130E-03    -62.4860E-03     125.074E-03    -62.5966E-03    -2.20246E-03    -57.0528E+06    -67.8644E+06    -249.708E+06    -67.8684E+06    -249.704E+06    -57.0528E+06     185.934E+03         29.8928
             680     1.87874E-03     34.9810E-03         3.57409    -920.767E-03    -951.105E-03    -938.990E-03         3.56376    -922.553E-03     114.350E-03     125.100E-03    -62.4002E-03    -62.6879E-03    -62.5184E-03     125.096E-03    -62.5654E-03    -1.79787E-03    -65.3716E+06    -71.5237E+06    -253.279E+06    -71.4519E+06    -253.272E+06    -65.4503E+06    -113.621E+03         29.7464
             681     939.628E-06     34.9840E-03         3.58635     713.362E-03        -2.60512        -2.55163         3.53286     713.362E-03    -578.743E-03     125.162E-03    -62.3594E-03    -62.7774E-03    -62.7047E-03     125.160E-03    -62.4294E-03    -1.04237E-03    -71.3702E+06    -74.4526E+06    -256.882E+06    -74.2739E+06    -256.868E+06    -71.5627E+06    -413.063E+03         29.6569
             682     15.9940E-03     34.8067E-03         3.91675        -1.01372        -1.17391        -1.17389         3.91672        -1.01372     10.9255E-03     292.552E-03    -62.5174E-03    -229.922E-03    -92.4378E-03     155.069E-03    -62.5174E-03     459.953E-03     149.329E+06     138.674E+06    -7.37272E+06    -7.35983E+06     138.661E+06     149.329E+06     864.573E+03         72.4538
             683     15.0429E-03     34.2904E-03         3.87106    -987.928E-03        -1.15634        -1.15633         3.87105    -987.928E-03    -1.50269E-03     223.691E-03    -62.5287E-03    -161.127E-03    -74.2724E-03     136.836E-03    -62.5287E-03     316.424E-03     119.583E+06     110.552E+06    -15.1805E+06    -15.0782E+06     110.450E+06     119.583E+06     910.361E+03         67.8765
             684     14.1023E-03     34.0731E-03         3.82386    -967.981E-03        -1.12637        -1.12633         3.82382    -967.981E-03    -18.6521E-03     150.811E-03    -62.5045E-03    -88.3125E-03    -63.2859E-03     125.785E-03    -62.5045E-03     141.635E-03     89.3118E+06     81.7354E+06    -24.5596E+06    -24.2554E+06      84.214E+06     86.5290E+06     2.78354E+06         61.9528
             685     13.1595E-03     33.9677E-03         3.78038    -952.895E-03        -1.09938        -1.09934         3.78034    -952.895E-03    -9.28413E-03     131.413E-03    -62.3710E-03    -69.1265E-03    -61.0617E-03     123.349E-03    -62.3710E-03     77.6133E-03     71.4097E+06     52.3473E+06    -32.2308E+06    -31.8933E+06     71.0722E+06     52.3473E+06     3.67636E+06         56.0027
             686     12.2216E-03     33.8964E-03         3.73541    -940.025E-03        -1.06884        -1.06881         3.73538    -940.025E-03    -9.23788E-03     126.103E-03    -61.9517E-03    -64.2591E-03    -60.8201E-03     122.901E-03    -62.1883E-03     46.2318E-03     62.5097E+06     12.4013E+06    -36.9969E+06    -36.8086E+06     62.3214E+06     12.4013E+06     2.03473E+06         50.6483
             687     11.2799E-03     33.8652E-03         3.68331    -929.301E-03        -1.03192        -1.03188         3.68326    -929.301E-03    -19.4450E-03     123.165E-03    -61.1477E-03    -62.0939E-03    -60.4647E-03     122.482E-03    -62.0939E-03     20.4996E-03     54.1080E+06    -15.3146E+06    -39.3249E+06    -39.2305E+06     54.0136E+06    -15.3146E+06    -24.1233E+03         45.9014
             688     10.3378E-03     33.8523E-03         3.64067    -920.786E-03    -998.643E-03    -998.589E-03         3.64062    -920.786E-03    -21.1342E-03     123.245E-03    -61.1230E-03    -62.1877E-03    -60.9779E-03     123.100E-03    -62.1877E-03     10.2555E-03     15.2633E+06    -25.9479E+06    -41.2455E+06    -41.0329E+06     9.43335E+06    -20.3306E+06    -270.878E+03         41.7802
             689     9.39842E-03     33.8429E-03         3.61794    -913.296E-03    -984.247E-03    -984.186E-03         3.61788    -913.296E-03    -2.20422E-03     123.845E-03    -61.5872E-03    -62.3095E-03    -61.5112E-03     123.769E-03    -62.3095E-03     7.30040E-03    -21.1009E+06    -38.1806E+06    -62.7799E+06    -44.7890E+06    -56.1715E+06    -21.1009E+06     1.47277E+06         38.3089
             690     8.45802E-03     33.8366E-03         3.60736    -904.952E-03    -986.968E-03    -986.722E-03         3.60711    -904.952E-03    -21.0761E-03     123.929E-03    -61.5984E-03    -62.3734E-03    -61.5759E-03     123.907E-03    -62.3734E-03     3.56223E-03    -26.2449E+06    -50.1556E+06    -106.518E+06    -50.5865E+06    -106.087E+06    -26.2449E+06     1.66842E+06         35.5169
             691     7.51775E-03     33.8352E-03         3.58160    -895.500E-03    -972.753E-03    -972.512E-03         3.58136    -895.500E-03    -21.2039E-03     124.216E-03    -61.7655E-03    -62.4843E-03    -61.7639E-03     124.214E-03    -62.4843E-03     699.118E-06    -28.1420E+06    -55.3366E+06    -154.606E+06    -55.3568E+06    -154.586E+06    -28.1420E+06     503.293E+03         33.4458
             692     6.57785E-03     33.8359E-03         3.53914    -887.139E-03    -937.176E-03    -937.056E-03         3.53902    -887.139E-03    -14.6277E-03     124.614E-03    -62.0788E-03    -62.5623E-03    -62.0775E-03     124.612E-03    -62.5623E-03    -731.667E-06    -28.5534E+06    -56.2608E+06    -187.796E+06    -56.3421E+06    -187.715E+06    -28.5534E+06    -319.962E+03         32.0267
             693     5.63808E-03     33.8378E-03         3.50143    -881.652E-03    -905.973E-03    -905.824E-03         3.50128    -881.652E-03    -7.80357E-03     124.840E-03    -62.2698E-03    -62.5843E-03    -62.2650E-03     124.835E-03    -62.5843E-03    -1.81601E-03    -31.2261E+06    -56.0913E+06    -210.774E+06    -56.1598E+06    -210.706E+06    -31.2261E+06    -201.770E+03         31.0594
             694     4.69835E-03     33.8409E-03         3.47843    -878.697E-03    -888.209E-03    -887.413E-03         3.47786    -878.923E-03    -46.3614E-03     124.779E-03    -62.1938E-03    -62.5975E-03    -62.1867E-03     124.772E-03    -62.5975E-03    -2.30325E-03    -39.0551E+06    -59.3121E+06    -231.907E+06    -59.3240E+06    -231.895E+06    -39.0551E+06     712.688E+03         30.4380
             695     3.75818E-03     33.8440E-03         3.47948    -876.576E-03    -890.436E-03    -888.146E-03         3.47742    -876.802E-03     48.9356E-03     124.853E-03    -62.2795E-03    -62.5821E-03    -62.2714E-03     124.844E-03    -62.5821E-03    -2.45906E-03    -51.1768E+06    -65.0136E+06    -242.736E+06    -65.0263E+06    -242.723E+06    -51.1768E+06     537.681E+03         30.0947
             696     2.81839E-03     33.8467E-03         3.47946    -872.653E-03    -894.983E-03    -889.910E-03         3.47439    -872.653E-03    -52.7941E-03     125.108E-03    -62.5155E-03    -62.5980E-03    -62.5246E-03     125.101E-03    -62.5816E-03    -2.29175E-03    -60.2782E+06    -69.3082E+06    -249.851E+06    -69.3192E+06    -249.840E+06    -60.2782E+06    -244.730E+03         29.8904
             697     1.87971E-03     33.8500E-03         3.47040    -863.693E-03    -893.936E-03    -872.252E-03         3.45412    -869.104E-03     162.508E-03     125.083E-03    -62.4756E-03    -62.5973E-03    -62.4878E-03     125.078E-03    -62.5810E-03    -1.64192E-03    -65.7324E+06    -71.6063E+06    -253.390E+06    -71.5427E+06    -253.375E+06    -65.8111E+06    -83.0685E+03         29.7478
             698     939.089E-06     33.8513E-03         3.51375     788.050E-03        -2.58993        -2.52055         3.44978     782.639E-03    -559.090E-03     125.234E-03    -62.3895E-03    -62.8280E-03    -62.7450E-03     125.231E-03    -62.4694E-03    -1.27461E-03    -70.6178E+06    -75.3973E+06    -256.926E+06    -73.7372E+06    -256.914E+06    -72.2898E+06     141.300E+03         29.6614
             699     15.9926E-03     33.6962E-03         3.89619    -976.967E-03        -1.17533        -1.17532         3.89618    -976.967E-03     5.59572E-03     291.634E-03    -62.5055E-03    -229.062E-03    -91.7739E-03     154.345E-03    -62.5055E-03     458.678E-03     147.205E+06     137.475E+06    -8.46256E+06    -8.46024E+06     137.472E+06     147.205E+06     65.1149E+03         72.4531
             700     15.0440E-03     33.1562E-03         3.84582    -950.355E-03        -1.14801        -1.14798         3.84579    -950.355E-03    -7.91860E-03     227.298E-03    -62.5007E-03    -164.728E-03    -75.5865E-03     138.156E-03    -62.5007E-03     323.120E-03     116.781E+06     109.333E+06    -17.9530E+06    -17.8363E+06     109.216E+06     116.781E+06     658.841E+03         67.8751
             701     14.1041E-03     32.9413E-03         3.78759    -929.441E-03        -1.11300        -1.11295         3.78755    -929.441E-03    -20.3229E-03     151.573E-03    -62.4489E-03    -89.0972E-03    -63.8963E-03     126.372E-03    -62.4489E-03     142.642E-03     86.9678E+06     80.3127E+06    -27.1892E+06    -27.0319E+06     82.8274E+06     84.2958E+06     1.26321E+06         61.9529
             702     13.1646E-03     32.8359E-03         3.73883    -913.223E-03        -1.08289        -1.08282         3.73875    -913.223E-03     12.3056E-03     131.247E-03    -62.3159E-03    -69.0138E-03    -60.7298E-03     122.963E-03    -62.3159E-03     78.7343E-03     71.6044E+06     53.3626E+06    -31.6226E+06    -31.4453E+06     71.4272E+06     53.3626E+06     2.34170E+06         56.0009
             703     12.2197E-03     32.7652E-03         3.69040    -898.944E-03        -1.05261        -1.05254         3.69034    -898.944E-03     5.51519E-03     125.736E-03    -62.0159E-03    -63.8320E-03    -60.2910E-03     122.356E-03    -62.1766E-03     47.2647E-03     64.5892E+06     16.2013E+06    -35.4635E+06    -35.2395E+06     64.3652E+06     16.2013E+06     2.36994E+06         50.6419
             704     11.2791E-03     32.7332E-03         3.63676    -886.402E-03        -1.01537        -1.01533         3.63672    -886.402E-03    -1.65212E-03     123.517E-03    -61.4978E-03    -62.0931E-03    -60.7842E-03     122.803E-03    -62.0931E-03     21.0502E-03     56.7371E+06    -11.9665E+06    -39.6964E+06    -39.5979E+06     56.6385E+06    -11.9665E+06     871.637E+03         45.8926
             705     10.3396E-03     32.7208E-03         3.59044    -875.608E-03    -981.721E-03    -981.631E-03         3.59034    -875.608E-03    -12.7905E-03     123.379E-03    -61.2877E-03    -62.1590E-03    -61.1319E-03     123.223E-03    -62.1590E-03     10.6319E-03     16.0079E+06    -27.7214E+06    -44.0114E+06    -43.6307E+06     7.78327E+06    -19.8775E+06     564.956E+03         41.7713
             706     9.39859E-03     32.7101E-03         3.55470    -865.759E-03    -958.953E-03    -958.859E-03         3.55461    -865.759E-03    -12.9709E-03     123.653E-03    -61.4357E-03    -62.2706E-03    -61.3529E-03     123.571E-03    -62.2706E-03     7.61419E-03    -21.2080E+06    -40.3819E+06    -63.5234E+06    -45.6721E+06    -58.2332E+06    -21.2080E+06     2.33194E+06         38.2994
             707     8.45881E-03     32.7052E-03         3.52878    -855.787E-03    -947.359E-03    -947.089E-03         3.52851    -855.787E-03    -31.0898E-03     123.874E-03    -61.5669E-03    -62.3471E-03    -61.5405E-03     123.848E-03    -62.3471E-03     3.93637E-03    -22.5686E+06    -46.2298E+06    -104.804E+06    -46.6504E+06    -104.383E+06    -22.5686E+06      2.9894E+06         35.5070
             708     7.51812E-03     32.7035E-03         3.49520    -845.561E-03    -926.913E-03    -926.499E-03         3.49479    -845.561E-03    -12.5916E-03     124.192E-03    -61.7761E-03    -62.4440E-03    -61.7733E-03     124.189E-03    -62.4440E-03     973.237E-06    -24.7734E+06    -48.3199E+06    -150.967E+06    -48.3891E+06    -150.897E+06    -24.7734E+06     36.8701E+03         33.4365
             709     6.57789E-03     32.7040E-03         3.44764    -836.817E-03    -888.678E-03    -888.476E-03         3.44743    -836.817E-03     25.4670E-03     124.469E-03    -61.9816E-03    -62.5124E-03    -61.9805E-03     124.468E-03    -62.5124E-03    -645.826E-06    -29.5753E+06    -51.7902E+06    -187.106E+06    -51.8614E+06    -187.035E+06    -29.5753E+06    -2.71837E+06         32.0186
             710     5.63807E-03     32.7057E-03         3.41312    -830.744E-03    -860.338E-03    -860.148E-03         3.41293    -830.744E-03     29.7037E-03     124.658E-03    -62.1217E-03    -62.5620E-03    -62.1170E-03     124.654E-03    -62.5620E-03    -1.78458E-03    -34.0258E+06    -56.7310E+06    -214.179E+06    -56.7792E+06    -214.131E+06    -34.0258E+06    -1.20569E+06         31.0531
             711     4.69814E-03     32.7092E-03         3.39596    -825.872E-03    -852.190E-03    -851.243E-03         3.39501    -825.872E-03    -45.4231E-03     124.836E-03    -62.2718E-03    -62.5875E-03    -62.2643E-03     124.828E-03    -62.5875E-03    -2.37475E-03    -39.1791E+06    -61.2089E+06    -232.289E+06    -61.2226E+06    -232.276E+06    -39.1791E+06     1.28306E+06         30.4333
             712     3.75856E-03     32.7118E-03         3.38085    -820.952E-03    -843.726E-03    -841.145E-03         3.37827    -820.952E-03     42.2318E-03     124.859E-03    -62.2875E-03    -62.5747E-03    -62.2796E-03     124.851E-03    -62.5747E-03    -2.42438E-03    -48.6658E+06    -64.4770E+06    -241.306E+06    -64.4903E+06    -241.293E+06    -48.6658E+06     1.20748E+06         30.0895
             713     2.81898E-03     32.7147E-03         3.36402    -817.309E-03    -828.657E-03    -820.078E-03         3.35640    -818.273E-03    -97.1020E-03     124.922E-03    -62.3327E-03    -62.5823E-03    -62.3261E-03     124.915E-03    -62.5823E-03    -2.21018E-03    -59.6039E+06    -67.8881E+06    -248.909E+06    -67.8960E+06    -248.901E+06    -59.6039E+06    -211.610E+03         29.8847
             714     1.87839E-03     32.7177E-03         3.36932    -815.110E-03    -834.416E-03    -807.976E-03         3.34926    -821.486E-03     125.761E-03     125.173E-03    -62.4922E-03    -62.6889E-03    -62.5924E-03     125.169E-03    -62.5846E-03    -1.64286E-03    -65.6196E+06    -71.6493E+06    -254.324E+06    -71.6615E+06    -254.312E+06    -65.6196E+06    -228.724E+03         29.7448
             715     939.925E-06     32.7190E-03         3.44977     836.607E-03        -2.56139        -2.48314         3.37693     831.196E-03    -600.619E-03     125.144E-03    -62.2385E-03    -62.9196E-03    -62.9066E-03     125.140E-03    -62.2484E-03    -1.38929E-03    -68.9787E+06    -76.1310E+06    -256.919E+06    -74.5463E+06    -256.910E+06    -70.5721E+06     441.764E+03         29.6596
             716     15.9800E-03     32.5514E-03         3.87873    -943.811E-03        -1.18160        -1.18158         3.87871    -943.811E-03     20.9227E-03     291.806E-03    -62.6585E-03    -229.032E-03    -91.4132E-03     154.187E-03    -62.6585E-03     459.176E-03     145.882E+06     137.658E+06    -11.3060E+06    -11.2952E+06     137.647E+06     145.882E+06    -391.506E+03         72.4367
             717     15.0455E-03     32.0301E-03         3.81514    -917.257E-03        -1.14462        -1.14459         3.81510    -917.257E-03     3.87918E-03     227.460E-03    -62.5761E-03    -164.822E-03    -78.4611E-03     141.099E-03    -62.5761E-03     320.946E-03     115.681E+06     108.931E+06    -21.1529E+06    -21.0620E+06     108.840E+06     115.681E+06    -533.149E+03         67.8645
             718     14.1014E-03     31.8045E-03         3.75545    -895.837E-03        -1.10727        -1.10724         3.75542    -895.837E-03    -15.2878E-03     151.709E-03    -62.4648E-03    -89.2397E-03    -63.2214E-03     125.691E-03    -62.4648E-03     144.515E-03     86.1987E+06     78.5481E+06    -27.4651E+06    -27.3060E+06     81.3575E+06     83.2303E+06     117.377E+03         61.9460
             719     13.1603E-03     31.7062E-03         3.69586    -878.664E-03        -1.06507        -1.06501         3.69581    -878.664E-03     7.65403E-03     131.578E-03    -62.3639E-03    -69.2840E-03    -60.9022E-03     123.196E-03    -62.3639E-03     79.3456E-03     70.2597E+06     52.5894E+06    -33.4093E+06    -33.3186E+06     70.1690E+06     52.5894E+06     261.203E+03         55.9887
             720     12.2207E-03     31.6339E-03         3.64267    -863.723E-03        -1.02676        -1.02669         3.64261    -863.723E-03    -2.93740E-03     126.446E-03    -62.1646E-03    -64.3838E-03    -60.8585E-03     122.974E-03    -62.2179E-03     48.0561E-03     64.3705E+06     18.8533E+06    -36.8438E+06    -36.7419E+06     64.2686E+06     18.8533E+06     1.06878E+06         50.6290
             721     11.2798E-03     31.6005E-03         3.60137    -850.033E-03        -1.00131        -1.00127         3.60133    -850.033E-03    -3.45156E-03     123.678E-03    -61.6121E-03    -62.1375E-03    -60.9229E-03     122.956E-03    -62.1044E-03     21.1574E-03     57.7803E+06    -9.34167E+06    -39.4194E+06    -39.1979E+06     57.5588E+06    -9.34167E+06     2.32051E+06         45.8795
             722     10.3390E-03     31.5881E-03         3.56092    -836.651E-03    -981.030E-03    -980.966E-03         3.56086    -836.651E-03    -1.06187E-03     123.326E-03    -61.2399E-03    -62.1556E-03    -61.0764E-03     123.162E-03    -62.1556E-03     10.9418E-03     16.9769E+06    -28.3826E+06    -42.7470E+06    -42.3131E+06     7.49006E+06    -19.3297E+06     2.32835E+06         41.7572
             723     9.39881E-03     31.5793E-03         3.50669    -823.762E-03    -944.265E-03    -944.173E-03         3.50660    -823.762E-03     7.41160E-03     123.588E-03    -61.3901E-03    -62.2486E-03    -61.2961E-03     123.494E-03    -62.2486E-03     8.11932E-03    -25.3958E+06    -41.7340E+06    -61.8376E+06    -45.0008E+06    -58.5708E+06    -25.3958E+06     1.17126E+06         38.2846
             724     8.45773E-03     31.5727E-03         3.43866    -813.125E-03    -892.793E-03    -892.704E-03         3.43857    -813.125E-03     1.27526E-03     123.962E-03    -61.6846E-03    -62.3168E-03    -61.6552E-03     123.933E-03    -62.3168E-03     4.18295E-03    -27.1044E+06    -45.2730E+06    -102.968E+06    -45.3758E+06    -102.865E+06    -27.1044E+06     197.450E+03         35.4927
             725     7.51841E-03     31.5720E-03         3.39952    -804.938E-03    -864.289E-03    -864.070E-03         3.39930    -804.938E-03     15.3564E-03     124.336E-03    -61.9457E-03    -62.4210E-03    -61.9425E-03     124.333E-03    -62.4210E-03     1.15311E-03    -23.7451E+06    -45.6224E+06    -147.635E+06    -45.7284E+06    -147.529E+06    -23.7451E+06    -550.310E+03         33.4238
             726     6.57858E-03     31.5721E-03         3.38345    -797.234E-03    -853.878E-03    -853.500E-03         3.38307    -797.234E-03     11.0380E-03     124.441E-03    -61.9690E-03    -62.4972E-03    -61.9675E-03     124.439E-03    -62.4972E-03    -642.323E-06    -26.0479E+06    -49.2222E+06    -187.769E+06    -49.2461E+06    -187.745E+06    -26.0479E+06    -484.254E+03         32.0081
             727     5.63818E-03     31.5742E-03         3.36090    -788.815E-03    -842.824E-03    -842.312E-03         3.36039    -788.815E-03     27.6113E-03     124.575E-03    -62.0441E-03    -62.5597E-03    -62.0395E-03     124.570E-03    -62.5597E-03    -1.82068E-03    -31.1698E+06    -55.7207E+06    -217.326E+06    -55.7423E+06    -217.305E+06    -31.1698E+06     964.276E+03         31.0456
             728     4.69834E-03     31.5767E-03         3.33487    -779.800E-03    -827.517E-03    -826.284E-03         3.33364    -779.800E-03    -36.6287E-03     124.774E-03    -62.2316E-03    -62.5710E-03    -62.2246E-03     124.767E-03    -62.5710E-03    -2.27926E-03    -39.6927E+06    -61.3524E+06    -231.911E+06    -61.3729E+06    -231.890E+06    -39.6927E+06     1.03314E+06         30.4290
             729     3.75886E-03     31.5799E-03         3.29607    -772.735E-03    -796.452E-03    -792.918E-03         3.29254    -772.735E-03     56.2771E-03     124.857E-03    -62.3025E-03    -62.5806E-03    -62.3157E-03     124.849E-03    -62.5600E-03    -2.36328E-03    -49.3968E+06    -64.9813E+06    -240.370E+06    -64.9855E+06    -240.366E+06    -49.3968E+06     355.552E+03         30.0855
             730     2.81836E-03     31.5834E-03         3.27922    -768.163E-03    -785.185E-03    -776.249E-03         3.27125    -769.128E-03    -64.4540E-03     124.960E-03    -62.3468E-03    -62.6289E-03    -62.4345E-03     124.953E-03    -62.5344E-03    -2.25395E-03    -58.9444E+06    -68.1609E+06    -248.521E+06    -68.1624E+06    -248.519E+06    -58.9444E+06     383.496E+03         29.8771
             731     1.87952E-03     31.5846E-03         3.30932    -758.034E-03    -817.680E-03    -795.158E-03         3.28777    -758.998E-03     157.762E-03     125.011E-03    -62.3561E-03    -62.6592E-03    -62.5288E-03     125.006E-03    -62.4810E-03    -2.01099E-03    -66.2647E+06    -70.9491E+06    -254.342E+06    -70.9503E+06    -254.341E+06    -66.2647E+06    -88.1631E+03         29.7332
             732     939.662E-06     31.5868E-03         3.33412     898.049E-03        -2.48982        -2.39923         3.24353     898.049E-03    -675.324E-03     124.910E-03    -62.2095E-03    -62.7038E-03    -62.6328E-03     124.907E-03    -62.2773E-03    -1.48509E-03    -69.2598E+06    -75.7085E+06    -256.948E+06    -73.3555E+06    -256.942E+06    -71.6188E+06    -809.015E+03         29.6464
             733     15.9790E-03     31.4018E-03         3.85987    -915.475E-03        -1.18116        -1.18113         3.85985    -915.475E-03     5.64114E-03     292.294E-03    -62.6671E-03    -229.553E-03    -91.8514E-03     154.592E-03    -62.6671E-03     459.870E-03     147.404E+06     138.780E+06    -9.38631E+06    -9.34540E+06     138.739E+06     147.404E+06     813.692E+03         72.4279
             734     15.0443E-03     30.8969E-03         3.78544    -889.190E-03        -1.14019        -1.14017         3.78541    -889.190E-03     267.662E-06     223.975E-03    -62.5946E-03    -161.315E-03    -77.1757E-03     139.836E-03    -62.5946E-03     314.379E-03     116.218E+06     109.384E+06    -19.3116E+06    -19.2192E+06     109.292E+06     116.218E+06     982.277E+03         67.8574
             735     14.1029E-03     30.6770E-03         3.72472    -867.467E-03        -1.10065        -1.10063         3.72470    -867.467E-03    -16.2280E-03     151.941E-03    -62.5025E-03    -89.3929E-03    -63.3162E-03     125.864E-03    -62.5025E-03     144.634E-03     85.9594E+06     79.1286E+06    -26.1376E+06    -26.0223E+06     81.2000E+06     83.7728E+06     365.320E+03         61.9350
             736     13.1600E-03     30.5719E-03         3.66345    -849.306E-03        -1.05875        -1.05868         3.66338    -849.306E-03     1.23381E-03     131.532E-03    -62.4023E-03    -69.2052E-03    -61.0743E-03     123.401E-03    -62.4023E-03     78.1002E-03     70.0129E+06     52.6719E+06    -32.5678E+06    -32.4817E+06     69.9268E+06     52.6719E+06    -225.003E+03         55.9738
             737     12.2199E-03     30.5016E-03         3.60788    -833.008E-03        -1.01878        -1.01869         3.60779    -833.008E-03    -5.30814E-03     126.756E-03    -62.2335E-03    -64.6266E-03    -61.2781E-03     123.407E-03    -62.2335E-03     47.4168E-03     63.1379E+06     16.7982E+06    -38.2441E+06    -38.1935E+06     63.0873E+06     16.7982E+06     49.8171E+03         50.6123
             738     11.2796E-03     30.4686E-03         3.55625    -817.941E-03    -985.171E-03    -985.099E-03         3.55618    -817.941E-03    -27.1264E-03     123.579E-03    -61.4955E-03    -62.1643E-03    -60.8358E-03     122.860E-03    -62.1052E-03     21.1572E-03     55.9566E+06    -10.8405E+06    -40.8359E+06    -40.6708E+06     55.7916E+06    -10.8405E+06     1.42654E+06         45.8612
             739     10.3388E-03     30.4568E-03         3.50100    -804.007E-03    -947.284E-03    -947.251E-03         3.50097    -804.007E-03    -5.71167E-03     123.267E-03    -61.1645E-03    -62.1670E-03    -61.0045E-03     123.107E-03    -62.1670E-03     10.7767E-03     17.0881E+06    -26.9526E+06    -41.3109E+06    -40.8639E+06     8.21225E+06    -18.5237E+06     2.20409E+06         41.7372
             740     9.39811E-03     30.4468E-03         3.44411    -791.531E-03    -905.888E-03    -905.863E-03         3.44409    -791.531E-03     12.9806E-03     123.810E-03    -61.5999E-03    -62.2565E-03    -61.5128E-03     123.723E-03    -62.2565E-03     7.84379E-03    -23.3738E+06    -38.4253E+06    -59.1570E+06    -41.7254E+06    -55.8568E+06    -23.3738E+06     643.841E+03         38.2646
             741     8.45874E-03     30.4413E-03         3.39529    -780.498E-03    -873.601E-03    -873.567E-03         3.39526    -780.498E-03     2.75575E-03     124.076E-03    -61.8164E-03    -62.3006E-03    -61.7888E-03     124.048E-03    -62.3006E-03     3.97779E-03    -27.2197E+06    -43.8777E+06    -102.119E+06    -43.9948E+06    -102.002E+06    -27.2197E+06    -855.433E+03         35.4740
             742     7.51818E-03     30.4394E-03         3.36343    -770.217E-03    -851.259E-03    -851.182E-03         3.36335    -770.217E-03     14.7860E-03     124.270E-03    -61.8934E-03    -62.4121E-03    -61.8909E-03     124.268E-03    -62.4121E-03     815.562E-06    -23.6690E+06    -47.6234E+06    -148.819E+06    -47.6818E+06    -148.760E+06    -23.6690E+06    -47.7401E+03         33.4071
             743     6.57815E-03     30.4406E-03         3.33162    -760.390E-03    -827.671E-03    -827.334E-03         3.33129    -760.390E-03    -23.6545E-03     124.438E-03    -61.9671E-03    -62.4999E-03    -61.9659E-03     124.437E-03    -62.4999E-03    -691.355E-06    -24.5307E+06    -52.6891E+06    -188.829E+06    -52.7114E+06    -188.806E+06    -24.5307E+06     1.56342E+06         31.9944
             744     5.63853E-03     30.4425E-03         3.29662    -751.403E-03    -803.233E-03    -802.501E-03         3.29589    -751.403E-03     15.0094E-03     124.655E-03    -62.1421E-03    -62.5434E-03    -62.1383E-03     124.651E-03    -62.5434E-03    -1.63721E-03    -30.0882E+06    -56.5779E+06    -217.190E+06    -56.6227E+06    -217.145E+06    -30.0882E+06     1.24291E+06         31.0360
             745     4.69852E-03     30.4450E-03         3.26049    -744.005E-03    -777.910E-03    -776.127E-03         3.25870    -744.005E-03    -39.2084E-03     124.703E-03    -62.1865E-03    -62.5406E-03    -62.1781E-03     124.695E-03    -62.5406E-03    -2.44025E-03    -39.0223E+06    -59.9098E+06    -231.284E+06    -59.9545E+06    -231.239E+06    -39.0223E+06     839.564E+03         30.4233
             746     3.75808E-03     30.4483E-03         3.23529    -738.609E-03    -761.126E-03    -756.665E-03         3.23083    -738.609E-03     57.7319E-03     124.835E-03    -62.3212E-03    -62.5423E-03    -62.3332E-03     124.827E-03    -62.5217E-03    -2.46879E-03    -49.4141E+06    -64.5163E+06    -239.823E+06    -64.5353E+06    -239.804E+06    -49.4141E+06     825.052E+03         30.0805
             747     2.81975E-03     30.4506E-03         3.23172    -732.345E-03    -764.804E-03    -756.810E-03         3.22372    -732.345E-03    -38.5111E-03     125.006E-03    -62.4473E-03    -62.5815E-03    -62.5624E-03     125.000E-03    -62.4604E-03    -2.09044E-03    -58.9961E+06    -68.5695E+06    -247.954E+06    -68.5760E+06    -247.948E+06    -58.9961E+06     673.124E+03         29.8687
             748     1.87973E-03     30.4534E-03         3.23647    -720.121E-03    -776.895E-03    -749.399E-03         3.21015    -721.299E-03     214.902E-03     124.811E-03    -62.3068E-03    -62.5087E-03    -62.4359E-03     124.806E-03    -62.3747E-03    -1.89268E-03    -67.0097E+06    -71.4022E+06    -254.281E+06    -71.4093E+06    -254.274E+06    -67.0097E+06     200.209E+03         29.7192
             749     939.603E-06     30.4553E-03         3.28363     871.797E-03        -2.40891        -2.29955         3.17544     870.618E-03    -704.954E-03     124.681E-03    -62.2009E-03    -62.4822E-03    -62.4107E-03     124.677E-03    -62.2687E-03    -1.63174E-03    -70.6662E+06    -76.0529E+06    -257.053E+06    -73.7166E+06    -257.031E+06    -73.0252E+06     95.9455E+03         29.6293
             750     15.9932E-03     30.2781E-03         3.84595    -892.371E-03        -1.18874        -1.18871         3.84592    -892.371E-03    -2.00860E-03     292.565E-03    -62.5487E-03    -229.964E-03    -92.0043E-03     154.605E-03    -62.5487E-03     460.622E-03     145.797E+06     136.992E+06    -9.65505E+06    -9.62053E+06     136.957E+06     145.797E+06     576.303E+03         72.4296
             751     15.0418E-03     29.7661E-03         3.77165    -866.721E-03        -1.14529        -1.14527         3.77162    -866.721E-03     9.24661E-03     223.911E-03    -62.5516E-03    -161.298E-03    -74.9702E-03     137.584E-03    -62.5516E-03     316.235E-03     117.345E+06     110.882E+06    -17.1364E+06    -17.0691E+06     110.815E+06     117.345E+06     903.576E+03         67.8542
             752     14.1007E-03     29.5425E-03         3.69921    -845.112E-03        -1.09476        -1.09475         3.69920    -845.112E-03    -3.99201E-03     152.364E-03    -62.4961E-03    -89.7770E-03    -64.2396E-03     126.827E-03    -62.4961E-03     143.597E-03     87.1536E+06     81.4670E+06    -24.5538E+06    -24.4588E+06     83.1851E+06     85.3405E+06     78.8457E+03         61.9235
             753     13.1619E-03     29.4417E-03         3.64074    -826.527E-03        -1.05462        -1.05451         3.64062    -826.527E-03     23.1618E-03     131.325E-03    -62.3679E-03    -69.0275E-03    -60.9694E-03     123.267E-03    -62.3679E-03     77.8063E-03     69.5048E+06     52.3926E+06    -31.7402E+06    -31.6176E+06     69.3822E+06     52.3926E+06     382.511E+03         55.9592
             754     12.2202E-03     29.3678E-03         3.58842    -808.991E-03        -1.02194        -1.02180         3.58828    -808.991E-03     26.0806E-03     126.190E-03    -62.1614E-03    -64.1462E-03    -60.7215E-03     122.822E-03    -62.2184E-03     47.3379E-03     62.6359E+06     14.8239E+06    -37.1460E+06    -37.0624E+06     62.5523E+06     14.8239E+06     755.430E+03         50.5913
             755     11.2795E-03     29.3376E-03         3.51807    -792.812E-03    -968.800E-03    -968.701E-03         3.51798    -792.812E-03    -3.80248E-03     123.741E-03    -61.6957E-03    -62.1312E-03    -61.0115E-03     123.031E-03    -62.1052E-03     20.9331E-03     55.3214E+06    -12.6175E+06    -40.6528E+06    -40.6084E+06     55.2771E+06    -12.6175E+06     330.828E+03         45.8361
             756     10.3388E-03     29.3246E-03         3.44611    -779.146E-03    -912.039E-03    -911.936E-03         3.44601    -779.146E-03     14.3130E-03     123.465E-03    -61.3665E-03    -62.1569E-03    -61.2166E-03     123.315E-03    -62.1569E-03     10.4392E-03     16.4760E+06    -26.2737E+06    -42.9206E+06    -42.4120E+06     8.64364E+06    -18.9499E+06     409.141E+03         41.7113
             757     9.39889E-03     29.3155E-03         3.40605    -766.866E-03    -888.168E-03    -888.135E-03         3.40602    -766.866E-03     11.8992E-03     123.741E-03    -61.5498E-03    -62.2395E-03    -61.4658E-03     123.657E-03    -62.2395E-03     7.74337E-03    -22.8206E+06    -38.2639E+06    -58.8326E+06    -43.5087E+06    -53.5879E+06    -22.8206E+06     234.101E+03         38.2389
             758     8.45826E-03     29.3084E-03         3.38095    -753.836E-03    -877.097E-03    -877.055E-03         3.38091    -753.836E-03    -14.8641E-03     124.015E-03    -61.7624E-03    -62.2906E-03    -61.7340E-03     123.986E-03    -62.2906E-03     4.00951E-03    -26.5366E+06    -45.6382E+06    -102.730E+06    -45.7419E+06    -102.627E+06    -26.5366E+06     125.424E+03         35.4494
             759     7.51897E-03     29.3083E-03         3.32911    -740.998E-03    -836.259E-03    -836.150E-03         3.32900    -740.998E-03     8.23434E-03     124.236E-03    -61.8666E-03    -62.3985E-03    -61.8642E-03     124.234E-03    -62.3985E-03     823.315E-06    -24.3954E+06    -48.7445E+06    -150.937E+06    -48.7686E+06    -150.913E+06    -24.3954E+06     1.10952E+06         33.3852
             760     6.57845E-03     29.3089E-03         3.27021    -730.756E-03    -791.140E-03    -790.997E-03         3.27007    -730.756E-03     5.08859E-03     124.525E-03    -62.0680E-03    -62.4840E-03    -62.0663E-03     124.523E-03    -62.4840E-03    -776.751E-06    -23.1514E+06    -51.5790E+06    -188.168E+06    -51.6129E+06    -188.135E+06    -23.1514E+06     1.30315E+06         31.9766
             761     5.63841E-03     29.3104E-03         3.23079    -722.993E-03    -765.456E-03    -764.896E-03         3.23023    -722.993E-03     44.5151E-03     124.673E-03    -62.1909E-03    -62.5102E-03    -62.1857E-03     124.668E-03    -62.5102E-03    -1.90192E-03    -28.1070E+06    -55.0965E+06    -215.737E+06    -55.1463E+06    -215.687E+06    -28.1070E+06     720.798E+03         31.0237
             762     4.69883E-03     29.3133E-03         3.20317    -716.529E-03    -748.913E-03    -746.770E-03         3.20103    -716.529E-03    -52.0147E-03     124.695E-03    -62.2378E-03    -62.4799E-03    -62.2291E-03     124.686E-03    -62.4799E-03    -2.46597E-03    -39.2688E+06    -59.8726E+06    -231.629E+06    -59.9272E+06    -231.574E+06    -39.2688E+06     589.817E+03         30.4153
             763     3.75961E-03     29.3163E-03         3.19566    -708.868E-03    -751.422E-03    -746.502E-03         3.19074    -708.868E-03     46.2613E-03     124.733E-03    -62.2996E-03    -62.4578E-03    -62.2921E-03     124.726E-03    -62.4578E-03    -2.27862E-03    -48.8665E+06    -63.7699E+06    -239.647E+06    -63.8271E+06    -239.590E+06    -48.8665E+06     1.45547E+06         30.0728
             764     2.81859E-03     29.3184E-03         3.17695    -699.306E-03    -739.829E-03    -728.900E-03         3.16602    -699.306E-03    -79.8852E-03     124.743E-03    -62.3010E-03    -62.4609E-03    -62.3214E-03     124.737E-03    -62.4343E-03    -2.09801E-03    -57.4575E+06    -67.3073E+06    -246.858E+06    -67.3484E+06    -246.817E+06    -57.4575E+06     1.32109E+06         29.8595
             765     1.87940E-03     29.3215E-03         3.15681    -696.995E-03    -714.226E-03    -683.268E-03         3.12703    -698.174E-03     170.278E-03     124.798E-03    -62.3394E-03    -62.4659E-03    -62.3944E-03     124.793E-03    -62.4058E-03    -1.90064E-03    -64.2418E+06    -71.5286E+06    -253.708E+06    -71.5449E+06    -253.691E+06    -64.2418E+06     424.569E+03         29.7095
             766     940.164E-06     29.3234E-03         3.26672     805.080E-03        -2.32669        -2.20916         3.15036     803.901E-03    -748.367E-03     124.743E-03    -62.1349E-03    -62.6089E-03    -62.5981E-03     124.741E-03    -62.1429E-03    -1.30785E-03    -71.2716E+06    -77.7341E+06    -257.614E+06    -76.7071E+06    -257.587E+06    -72.3249E+06     890.713E+03         29.6208
             767     15.9858E-03     29.1578E-03         3.81706    -874.455E-03        -1.17713        -1.17709         3.81702    -874.455E-03     413.682E-06     292.178E-03    -62.5536E-03    -229.521E-03    -91.5178E-03     154.175E-03    -62.5536E-03     460.172E-03     145.597E+06     137.012E+06    -10.1754E+06    -10.1564E+06     136.993E+06     145.597E+06     294.551E+03         72.4197
             768     15.0432E-03     28.6315E-03         3.75390    -850.364E-03        -1.14008        -1.14004         3.75386    -850.364E-03     10.1986E-03     226.652E-03    -62.5522E-03    -163.996E-03    -76.4555E-03     139.111E-03    -62.5522E-03     320.524E-03     117.278E+06     111.445E+06    -18.0155E+06    -17.9247E+06     111.354E+06     117.278E+06    -830.174E+03         67.8422
             769     14.1040E-03     28.4112E-03         3.68898    -829.126E-03        -1.09664        -1.09662         3.68896    -829.126E-03    -12.1333E-03     151.715E-03    -62.4796E-03    -89.0973E-03    -63.7691E-03     126.387E-03    -62.4796E-03     143.198E-03     86.6664E+06     79.9084E+06    -26.5527E+06    -26.3637E+06     82.6571E+06     83.7288E+06    -146.816E+03         61.9065
             770     13.1617E-03     28.3081E-03         3.62257    -810.099E-03        -1.05173        -1.05164         3.62248    -810.099E-03     19.0905E-03     131.430E-03    -62.3690E-03    -69.1265E-03    -60.7243E-03     123.028E-03    -62.3690E-03     79.2760E-03     68.7337E+06     50.5822E+06    -33.1501E+06    -32.9452E+06     68.5288E+06     50.5822E+06     340.361E+03         55.9333
             771     12.2201E-03     28.2390E-03         3.55342    -792.583E-03        -1.00133        -1.00119         3.55328    -792.583E-03     17.9355E-03     126.546E-03    -62.1690E-03    -64.4980E-03    -60.9656E-03     123.070E-03    -62.2259E-03     48.3133E-03     62.5193E+06     14.8015E+06    -36.5403E+06    -36.4091E+06     62.3881E+06     14.8015E+06     291.190E+03         50.5600
             772     11.2788E-03     28.2027E-03         3.48748    -776.691E-03    -954.801E-03    -954.632E-03         3.48731    -776.691E-03    -14.7672E-03     123.867E-03    -61.7241E-03    -62.2218E-03    -61.0963E-03     123.126E-03    -62.1088E-03     21.1473E-03     55.9102E+06    -11.8979E+06    -39.1395E+06    -39.0991E+06     55.8698E+06    -11.8979E+06     785.797E+03         45.8023
             773     10.3398E-03     28.1935E-03         3.43583    -761.828E-03    -921.540E-03    -921.385E-03         3.43568    -761.828E-03     2.07634E-03     123.568E-03    -61.4790E-03    -62.1484E-03    -61.3287E-03     123.417E-03    -62.1484E-03     10.5213E-03     15.5710E+06    -26.1353E+06    -42.9108E+06    -42.5729E+06     8.83108E+06    -19.7332E+06     554.501E+03         41.6765
             774     9.39858E-03     28.1829E-03         3.39324    -747.119E-03    -893.635E-03    -893.582E-03         3.39319    -747.119E-03     13.8242E-03     123.733E-03    -61.5572E-03    -62.2242E-03    -61.4629E-03     123.638E-03    -62.2242E-03     8.14976E-03    -24.6104E+06    -39.6346E+06    -59.2971E+06    -45.8105E+06    -53.1212E+06    -24.6104E+06     634.625E+03         38.2045
             775     8.45892E-03     28.1769E-03         3.34073    -732.954E-03    -854.447E-03    -854.380E-03         3.34066    -732.954E-03    -13.2648E-03     123.928E-03    -61.6809E-03    -62.2839E-03    -61.6525E-03     123.900E-03    -62.2839E-03     3.88088E-03    -27.9931E+06    -48.4382E+06    -103.265E+06    -48.5048E+06    -103.198E+06    -27.9931E+06     947.890E+03         35.4169
             776     7.51790E-03     28.1757E-03         3.27618    -721.208E-03    -800.752E-03    -800.663E-03         3.27609    -721.208E-03    -3.41406E-03     124.343E-03    -62.0036E-03    -62.3653E-03    -62.0020E-03     124.341E-03    -62.3653E-03     770.207E-06    -27.9578E+06    -50.6895E+06    -150.207E+06    -50.7575E+06    -150.139E+06    -27.9578E+06     35.7119E+03         33.3564
             777     6.57886E-03     28.1759E-03         3.22645    -712.761E-03    -761.616E-03    -761.577E-03         3.22641    -712.761E-03     13.3542E-03     124.601E-03    -62.2028E-03    -62.4201E-03    -62.2004E-03     124.599E-03    -62.4201E-03    -854.367E-06    -27.6972E+06    -52.5248E+06    -188.370E+06    -52.5835E+06    -188.311E+06    -27.6972E+06    -214.584E+03         31.9536
             778     5.63928E-03     28.1786E-03         3.20462    -705.496E-03    -751.581E-03    -751.100E-03         3.20414    -705.496E-03     57.9084E-03     124.554E-03    -62.1295E-03    -62.4509E-03    -62.1239E-03     124.549E-03    -62.4509E-03    -1.99893E-03    -30.2855E+06    -56.0233E+06    -216.099E+06    -56.0549E+06    -216.068E+06    -30.2855E+06     1.10187E+06         31.0083
             779     4.69884E-03     28.1813E-03         3.19064    -696.609E-03    -749.609E-03    -747.805E-03         3.18883    -696.609E-03    -40.5702E-03     124.625E-03    -62.2234E-03    -62.4270E-03    -62.2202E-03     124.617E-03    -62.4227E-03    -2.30079E-03    -39.6034E+06    -60.4841E+06    -230.943E+06    -60.5295E+06    -230.898E+06    -39.6034E+06     1.22475E+06         30.4057
             780     3.75873E-03     28.1840E-03         3.16430    -686.449E-03    -732.558E-03    -727.065E-03         3.15880    -686.449E-03     76.9434E-03     124.678E-03    -62.3121E-03    -62.3899E-03    -62.3083E-03     124.670E-03    -62.3850E-03    -2.47027E-03    -49.0792E+06    -64.9996E+06    -240.068E+06    -65.0638E+06    -240.004E+06    -49.0792E+06     984.651E+03         30.0643
             781     2.81995E-03     28.1872E-03         3.13434    -678.265E-03    -709.566E-03    -697.075E-03         3.12185    -678.265E-03    -71.5089E-03     124.492E-03    -62.1324E-03    -62.3805E-03    -62.1249E-03     124.484E-03    -62.3800E-03    -2.41160E-03    -56.5227E+06    -68.4555E+06    -245.860E+06    -68.5252E+06    -245.791E+06    -56.5227E+06     1.44353E+06         29.8507
             782     1.87931E-03     28.1892E-03         3.13706    -674.354E-03    -712.013E-03    -677.551E-03         3.10260    -674.354E-03     193.164E-03     124.571E-03    -62.1399E-03    -62.4420E-03    -62.1345E-03     124.565E-03    -62.4420E-03    -1.93615E-03    -63.3116E+06    -72.2241E+06    -252.838E+06    -72.2663E+06    -252.796E+06    -63.3116E+06     825.927E+03         29.7026
             783     939.256E-06     28.1916E-03         3.22676     749.674E-03        -2.21399        -2.09754         3.11031     749.674E-03    -666.146E-03     124.947E-03    -62.2654E-03    -62.6837E-03    -62.5455E-03     124.945E-03    -62.4017E-03    -1.04197E-03    -70.5430E+06    -76.6936E+06    -256.086E+06    -75.6552E+06    -256.071E+06    -71.5962E+06    -387.798E+03         29.6187
             784     15.9824E-03     28.0253E-03         3.80645    -861.467E-03        -1.17348        -1.17345         3.80643    -861.467E-03    -7.27062E-03     293.013E-03    -62.7352E-03    -230.287E-03    -91.0484E-03     153.774E-03    -62.7352E-03     462.439E-03     147.415E+06     137.731E+06    -8.79554E+06    -8.76931E+06     137.705E+06     147.415E+06     747.006E+03         72.3912
             785     15.0439E-03     27.4951E-03         3.73312    -839.253E-03        -1.12629        -1.12627         3.73310    -839.253E-03     5.65415E-03     227.580E-03    -62.6565E-03    -164.866E-03    -78.2677E-03     140.982E-03    -62.6565E-03     320.972E-03     116.838E+06     111.018E+06    -18.2385E+06    -18.0626E+06     110.842E+06     116.838E+06     902.655E+03         67.8117
             786     14.1013E-03     27.2814E-03         3.67619    -819.284E-03        -1.08863        -1.08859         3.67616    -819.284E-03     2.01471E-03     152.065E-03    -62.5336E-03    -89.4236E-03    -63.6516E-03     126.293E-03    -62.5336E-03     144.396E-03     86.4093E+06     79.7621E+06    -26.7256E+06    -26.4071E+06     82.3317E+06     83.5213E+06     353.871E+03         61.8725
             787     13.1582E-03     27.1764E-03         3.61198    -800.716E-03        -1.04924        -1.04912         3.61187    -800.716E-03     33.1108E-03     132.110E-03    -62.4389E-03    -69.7275E-03    -61.2732E-03     123.655E-03    -62.4389E-03     79.7128E-03     69.9550E+06     50.9815E+06    -32.9899E+06    -32.7600E+06     69.7251E+06     50.9815E+06    -417.139E+03         55.8918
             788     12.2194E-03     27.1043E-03         3.53330    -783.351E-03    -995.905E-03    -995.759E-03         3.53315    -783.351E-03     16.1521E-03     127.017E-03    -62.2513E-03    -64.8775E-03    -61.4574E-03     123.597E-03    -62.2513E-03     47.9315E-03     61.7075E+06     12.9249E+06    -38.4604E+06    -38.3331E+06     61.5802E+06     12.9249E+06    -349.022E+03         50.5159
             789     11.2802E-03     27.0719E-03         3.47752    -766.897E-03    -961.377E-03    -961.213E-03         3.47735    -766.897E-03    -17.9774E-03     123.838E-03    -61.5562E-03    -62.3507E-03    -61.0745E-03     123.118E-03    -62.1128E-03     21.0839E-03     54.6441E+06    -14.3453E+06    -41.5595E+06    -41.4812E+06     54.5659E+06    -14.3453E+06     782.406E+03         45.7565
             790     10.3377E-03     27.0602E-03         3.43513    -750.413E-03    -932.644E-03    -932.487E-03         3.43497    -750.413E-03     2.67306E-03     123.549E-03    -61.4446E-03    -62.1575E-03    -61.2897E-03     123.394E-03    -62.1575E-03     10.6267E-03     15.7096E+06    -26.7149E+06    -43.4365E+06    -43.2558E+06     9.39663E+06    -20.5826E+06     1.40628E+06         41.6295
             791     9.39915E-03     27.0512E-03         3.36872    -734.951E-03    -877.404E-03    -877.321E-03         3.36864    -734.951E-03     25.6854E-03     124.033E-03    -61.8580E-03    -62.2200E-03    -61.7713E-03     123.947E-03    -62.2200E-03     7.77180E-03    -25.6487E+06    -39.2716E+06    -59.8433E+06    -45.4961E+06    -53.6189E+06    -25.6487E+06     1.50942E+06         38.1588
             792     8.45822E-03     27.0449E-03         3.30062    -722.317E-03    -821.011E-03    -820.956E-03         3.30057    -722.317E-03     8.91981E-03     124.087E-03    -61.8770E-03    -62.2497E-03    -61.8525E-03     124.062E-03    -62.2497E-03     3.53825E-03    -29.1431E+06    -47.4757E+06    -102.125E+06    -47.6175E+06    -101.983E+06    -29.1431E+06     1.21549E+06         35.3747
             793     7.51938E-03     27.0436E-03         3.25624    -712.074E-03    -788.164E-03    -788.116E-03         3.25619    -712.074E-03     7.23100E-03     124.301E-03    -62.0196E-03    -62.3136E-03    -62.0186E-03     124.300E-03    -62.3136E-03     525.548E-06    -29.4969E+06    -50.5999E+06    -148.341E+06    -50.6786E+06    -148.262E+06    -29.4969E+06     72.7965E+03         33.3193
             794     6.57901E-03     27.0441E-03         3.21999    -702.925E-03    -764.580E-03    -764.542E-03         3.21995    -702.925E-03     12.1793E-03     124.442E-03    -62.1034E-03    -62.3635E-03    -62.1006E-03     124.439E-03    -62.3635E-03    -1.07966E-03    -31.8216E+06    -55.0085E+06    -189.989E+06    -55.0810E+06    -189.917E+06    -31.8216E+06    -305.589E+03         31.9238
             795     5.63884E-03     27.0474E-03         3.19584    -694.047E-03    -748.565E-03    -747.956E-03         3.19524    -694.047E-03     64.4633E-03     124.586E-03    -62.1785E-03    -62.4401E-03    -62.2143E-03     124.580E-03    -62.3981E-03    -2.11738E-03    -32.8302E+06    -59.0205E+06    -216.834E+06    -59.0417E+06    -216.813E+06    -32.8302E+06     377.267E+03         30.9888
             796     4.69928E-03     27.0494E-03         3.17160    -684.951E-03    -733.702E-03    -731.205E-03         3.16911    -684.951E-03    -49.9351E-03     124.604E-03    -62.2306E-03    -62.4048E-03    -62.2684E-03     124.595E-03    -62.3584E-03    -2.48727E-03    -38.8862E+06    -62.4589E+06    -230.036E+06    -62.4876E+06    -230.007E+06    -38.8862E+06     779.374E+03         30.3949
             797     3.76011E-03     27.0524E-03         3.12550    -674.759E-03    -702.079E-03    -692.157E-03         3.11946    -678.651E-03     57.4356E-03     124.496E-03    -62.2158E-03    -62.3062E-03    -62.2105E-03     124.486E-03    -62.3014E-03    -2.74089E-03    -48.8594E+06    -65.5817E+06    -240.173E+06    -65.6185E+06    -240.136E+06    -48.8594E+06     364.932E+03         30.0547
             798     2.81933E-03     27.0560E-03         3.10643    -669.795E-03    -689.367E-03    -670.468E-03         3.09599    -678.256E-03    -42.2160E-03     124.344E-03    -62.0784E-03    -62.2865E-03    -62.0700E-03     124.335E-03    -62.2860E-03    -2.54346E-03    -57.9315E+06    -68.7147E+06    -245.964E+06    -68.7680E+06    -245.911E+06    -57.9315E+06     348.634E+03         29.8410
             799     1.87958E-03     27.0588E-03         3.14434    -674.717E-03    -720.109E-03    -680.245E-03         3.10905    -679.286E-03     253.576E-03     124.371E-03    -62.0272E-03    -62.3560E-03    -62.0222E-03     124.366E-03    -62.3560E-03    -1.79255E-03    -63.9311E+06    -71.0684E+06    -250.970E+06    -71.1344E+06    -250.904E+06    -63.9311E+06     775.505E+03         29.6956
             800     939.588E-06     27.0595E-03         3.23164     665.013E-03        -2.13841        -2.02325         3.11648     665.013E-03    -598.246E-03     124.803E-03    -62.2333E-03    -62.5745E-03    -62.3875E-03     124.801E-03    -62.4185E-03    -1.11515E-03    -70.5098E+06    -75.6788E+06    -254.925E+06    -74.5681E+06    -254.894E+06    -71.6516E+06    -200.157E+03         29.6120
             801     15.9775E-03     26.8754E-03         3.81735    -854.435E-03        -1.18386        -1.18385         3.81734    -854.435E-03    -6.40959E-03     294.661E-03    -62.7944E-03    -231.918E-03    -91.1106E-03     153.854E-03    -62.7944E-03     466.060E-03     146.345E+06     136.200E+06    -8.74733E+06    -8.70543E+06     136.159E+06     146.345E+06     1.18638E+06         72.3561
             802     15.0396E-03     26.3674E-03         3.74332    -834.241E-03        -1.12927        -1.12926         3.74332    -834.241E-03     6.25973E-03     224.567E-03    -62.7176E-03    -161.862E-03    -76.9683E-03     139.673E-03    -62.7176E-03     315.599E-03     116.587E+06     110.406E+06    -17.8373E+06    -17.6864E+06     110.255E+06     116.587E+06     1.32068E+06         67.7713
             803     14.0980E-03     26.1442E-03         3.66523    -816.015E-03        -1.07705        -1.07703         3.66521    -816.015E-03     14.0053E-03     152.406E-03    -62.5644E-03    -89.7311E-03    -64.3974E-03     127.073E-03    -62.5644E-03     142.636E-03     87.8103E+06     81.3300E+06    -25.5496E+06    -25.2702E+06     84.3490E+06     84.5120E+06     503.171E+03         61.8249
             804     13.1616E-03     26.0454E-03         3.60136    -798.676E-03        -1.04116        -1.04107         3.60127    -798.676E-03     19.9920E-03     132.252E-03    -62.4367E-03    -69.8672E-03    -61.9300E-03     124.315E-03    -62.4367E-03     77.7595E-03     70.1103E+06     50.1974E+06    -32.9574E+06    -32.7884E+06     69.9413E+06     50.1974E+06     144.734E+03         55.8401
             805     12.2194E-03     25.9705E-03         3.54338    -781.408E-03        -1.00688        -1.00679         3.54329    -781.408E-03     4.75572E-03     126.756E-03    -62.1779E-03    -64.6879E-03    -61.2685E-03     123.384E-03    -62.2246E-03     47.1272E-03     61.3804E+06     11.6516E+06    -38.9743E+06    -38.8825E+06     61.2886E+06     11.6516E+06     539.899E+03         50.4602
             806     11.2784E-03     25.9402E-03         3.48366    -764.336E-03    -967.063E-03    -966.997E-03         3.48360    -764.336E-03     15.3201E-03     123.873E-03    -61.7155E-03    -62.2225E-03    -61.1973E-03     123.230E-03    -62.0974E-03     19.9702E-03     54.1520E+06    -15.0568E+06    -42.5677E+06    -42.4413E+06     54.0256E+06    -15.0568E+06     199.229E+03         45.6973
             807     10.3395E-03     25.9276E-03         3.41784    -748.253E-03    -917.044E-03    -916.946E-03         3.41774    -748.253E-03     39.1941E-03     123.630E-03    -61.5430E-03    -62.1317E-03    -61.4061E-03     123.493E-03    -62.1317E-03     9.96644E-03     15.6722E+06    -26.6577E+06    -43.7405E+06    -43.5298E+06     9.22615E+06    -20.4223E+06     618.854E+03         41.5700
             808     9.39843E-03     25.9179E-03         3.35030    -734.340E-03    -860.037E-03    -859.919E-03         3.35018    -734.340E-03     42.5907E-03     124.000E-03    -61.8598E-03    -62.1852E-03    -61.7901E-03     123.930E-03    -62.1852E-03     6.97153E-03    -24.3008E+06    -37.9878E+06    -60.1170E+06    -44.3050E+06    -53.7999E+06    -24.3008E+06     1.05416E+06         38.1008
             809     8.45980E-03     25.9128E-03         3.29810    -722.811E-03    -817.873E-03    -817.791E-03         3.29802    -722.811E-03     27.7861E-03     124.156E-03    -61.9949E-03    -62.1998E-03    -61.9757E-03     124.137E-03    -62.1998E-03     3.22272E-03    -27.6164E+06    -45.8842E+06    -101.382E+06    -46.0860E+06    -101.181E+06    -27.6164E+06     1.16778E+06         35.3205
             810     7.51895E-03     25.9115E-03         3.26605    -712.042E-03    -800.129E-03    -800.072E-03         3.26599    -712.042E-03     22.6040E-03     124.227E-03    -61.9856E-03    -62.2723E-03    -61.9839E-03     124.226E-03    -62.2723E-03     315.475E-06    -26.1015E+06    -49.3441E+06    -148.193E+06    -49.4217E+06    -148.115E+06    -26.1015E+06     1.67617E+06         33.2715
             811     6.57928E-03     25.9131E-03         3.23917    -700.394E-03    -786.493E-03    -786.442E-03         3.23912    -700.394E-03     15.9625E-03     124.395E-03    -62.1009E-03    -62.3233E-03    -62.0968E-03     124.391E-03    -62.3233E-03    -1.45671E-03    -27.8257E+06    -53.9844E+06    -189.457E+06    -54.0498E+06    -189.392E+06    -27.8257E+06     1.50208E+06         31.8851
             812     5.63962E-03     25.9147E-03         3.18887    -689.158E-03    -750.769E-03    -750.247E-03         3.18835    -689.158E-03     59.2557E-03     124.568E-03    -62.2403E-03    -62.3624E-03    -62.2747E-03     124.561E-03    -62.3204E-03    -2.38789E-03    -32.3780E+06    -59.0639E+06    -215.819E+06    -59.1369E+06    -215.746E+06    -32.3780E+06     1.95063E+03         30.9629
             813     4.70011E-03     25.9178E-03         3.13246    -677.731E-03    -708.737E-03    -701.879E-03         3.12995    -682.086E-03    -58.6336E-03     124.477E-03    -62.1989E-03    -62.3087E-03    -62.2454E-03     124.467E-03    -62.2515E-03    -2.76112E-03    -40.4931E+06    -63.2298E+06    -230.308E+06    -63.2670E+06    -230.270E+06    -40.4931E+06    -826.535E+03         30.3798
             814     3.75941E-03     25.9214E-03         3.10924    -672.283E-03    -690.856E-03    -677.045E-03         3.10368    -680.530E-03     43.3174E-03     124.216E-03    -62.0313E-03    -62.2108E-03    -62.0341E-03     124.204E-03    -62.1957E-03    -2.97872E-03    -50.9678E+06    -65.9432E+06    -240.158E+06    -65.9788E+06    -240.123E+06    -50.9678E+06    -695.840E+03         30.0426
             815     2.82013E-03     25.9245E-03         3.10878    -674.134E-03    -690.741E-03    -672.755E-03         3.09926    -682.594E-03    -47.4298E-03     124.230E-03    -62.0142E-03    -62.2340E-03    -62.0650E-03     124.220E-03    -62.1733E-03    -2.66538E-03    -60.0850E+06    -67.9577E+06    -246.466E+06    -68.0037E+06    -246.420E+06    -60.0850E+06    -697.148E+03         29.8295
             816     1.87990E-03     25.9276E-03         3.14257    -680.859E-03    -715.576E-03    -680.681E-03         3.11224    -685.428E-03     222.096E-03     124.329E-03    -62.0538E-03    -62.2812E-03    -62.1826E-03     124.324E-03    -62.1468E-03    -1.90608E-03    -65.0088E+06    -70.1551E+06    -251.124E+06    -70.2047E+06    -251.074E+06    -65.0088E+06    -43.6274E+03         29.6851
             817     939.918E-06     25.9279E-03         3.23816     569.309E-03        -2.05382        -1.94286         3.12720     569.309E-03    -626.506E-03     124.231E-03    -61.9526E-03    -62.2797E-03    -62.2205E-03     124.229E-03    -62.0095E-03    -859.701E-06    -69.3112E+06    -74.1182E+06    -254.270E+06    -73.0267E+06    -254.220E+06    -70.4530E+06     632.091E+03         29.5964
             818     15.9881E-03     25.7484E-03         3.81390    -853.887E-03        -1.17548        -1.17545         3.81387    -853.887E-03     11.3316E-03     294.677E-03    -62.6276E-03    -232.057E-03    -91.9456E-03     154.565E-03    -62.6276E-03     465.432E-03     146.531E+06     135.786E+06    -8.35691E+06    -8.32416E+06     135.753E+06     146.531E+06     1.19692E+06         72.3204
             819     15.0426E-03     25.2373E-03         3.75064    -836.499E-03        -1.13482        -1.13479         3.75061    -836.499E-03     6.04213E-03     223.777E-03    -62.6002E-03    -161.145E-03    -75.4140E-03     138.046E-03    -62.6002E-03     315.104E-03     117.010E+06     110.619E+06    -17.5214E+06    -17.4318E+06     110.529E+06     117.010E+06     492.592E+03         67.7305
             820     14.1023E-03     25.0106E-03         3.67421    -819.544E-03        -1.08929        -1.08927         3.67419    -819.544E-03     5.41166E-03     151.694E-03    -62.4953E-03    -89.0266E-03    -64.2204E-03     126.888E-03    -62.4953E-03     141.184E-03     87.9786E+06     80.8359E+06    -25.6782E+06    -25.5317E+06     84.6078E+06     84.0601E+06     968.292E+03         61.7722
             821     13.1596E-03     24.9111E-03         3.60312    -802.798E-03        -1.04171        -1.04158         3.60299    -802.798E-03     24.3070E-03     131.527E-03    -62.3495E-03    -69.2245E-03    -61.4653E-03     123.768E-03    -62.3495E-03     76.4337E-03     69.5484E+06     49.0766E+06    -32.8393E+06    -32.7262E+06     69.4354E+06     49.0766E+06     1.45131E+06         55.7775
             822     12.2207E-03     24.8400E-03         3.54562    -786.413E-03        -1.00281        -1.00268         3.54549    -786.413E-03     13.3477E-03     126.592E-03    -62.0997E-03    -64.5954E-03    -61.3325E-03     123.376E-03    -62.1464E-03     46.1577E-03     62.1814E+06     12.6463E+06    -37.3758E+06    -37.2744E+06     62.0800E+06     12.6463E+06      992.77E+03         50.3902
             823     11.2805E-03     24.8064E-03         3.48239    -770.589E-03    -957.638E-03    -957.563E-03         3.48232    -770.589E-03     20.0795E-03     123.759E-03    -61.7603E-03    -62.0633E-03    -61.1847E-03     123.138E-03    -62.0179E-03     19.2768E-03     54.9565E+06    -13.2765E+06    -40.5253E+06    -40.4024E+06     54.8336E+06    -13.2765E+06     454.724E+03         45.6238
             824     10.3398E-03     24.7959E-03         3.41911    -756.071E-03    -907.423E-03    -907.346E-03         3.41904    -756.071E-03     34.5594E-03     123.519E-03    -61.5246E-03    -62.0499E-03    -61.4075E-03     123.401E-03    -62.0499E-03     9.28288E-03     15.1523E+06    -26.3477E+06    -43.6846E+06    -43.2689E+06     8.48778E+06    -20.0989E+06     135.834E+03         41.4956
             825     9.40027E-03     24.7863E-03         3.36934    -742.891E-03    -870.822E-03    -870.754E-03         3.36927    -742.891E-03     26.4899E-03     123.682E-03    -61.6213E-03    -62.1122E-03    -61.5548E-03     123.616E-03    -62.1122E-03     6.75756E-03    -23.2659E+06    -39.2105E+06    -60.2873E+06    -45.7415E+06    -53.7563E+06    -23.2659E+06     394.039E+03         38.0280
             826     8.45911E-03     24.7811E-03         3.32547    -730.247E-03    -843.804E-03    -843.714E-03         3.32538    -730.247E-03     6.57193E-03     123.984E-03    -61.8818E-03    -62.1356E-03    -61.8652E-03     123.967E-03    -62.1356E-03     2.68810E-03    -26.4957E+06    -47.5414E+06    -101.776E+06    -47.7633E+06    -101.554E+06    -26.4957E+06     606.874E+03         35.2518
             827     7.52016E-03     24.7800E-03         3.28325    -717.740E-03    -817.333E-03    -817.250E-03         3.28316    -717.740E-03     9.75475E-03     124.188E-03    -62.0113E-03    -62.2006E-03    -62.0100E-03     124.186E-03    -62.2006E-03    -244.066E-06    -25.0413E+06    -49.5666E+06    -149.278E+06    -49.7062E+06    -149.138E+06    -25.0413E+06     1.76510E+06         33.2102
             828     6.58009E-03     24.7809E-03         3.23995    -705.746E-03    -786.542E-03    -786.500E-03         3.23991    -705.746E-03     14.1821E-03     124.360E-03    -62.1133E-03    -62.2714E-03    -62.1509E-03     124.356E-03    -62.2299E-03    -1.58978E-03    -26.1732E+06    -52.2682E+06    -187.622E+06    -52.3709E+06    -187.519E+06    -26.1732E+06     2.11901E+06         31.8349
             829     5.64032E-03     24.7841E-03         3.18784    -696.030E-03    -743.489E-03    -743.126E-03         3.18748    -696.030E-03     50.6248E-03     124.406E-03    -62.1802E-03    -62.2565E-03    -62.2306E-03     124.395E-03    -62.1960E-03    -2.64085E-03    -32.6628E+06    -55.8652E+06    -214.133E+06    -55.9599E+06    -214.038E+06    -32.6628E+06     711.597E+03         30.9277
             830     4.70001E-03     24.7862E-03         3.14953    -685.890E-03    -714.419E-03    -708.463E-03         3.14793    -690.244E-03    -44.4520E-03     124.182E-03    -62.0474E-03    -62.1617E-03    -62.0675E-03     124.168E-03    -62.1277E-03    -3.14940E-03    -42.1110E+06    -60.9910E+06    -229.838E+06    -61.0599E+06    -229.769E+06    -42.1110E+06    -458.875E+03         30.3587
             831     3.76106E-03     24.7905E-03         3.14724    -681.574E-03    -714.001E-03    -705.614E-03         3.14321    -685.929E-03     48.0428E-03     124.105E-03    -61.9317E-03    -62.1951E-03    -62.0332E-03     124.091E-03    -62.0796E-03    -3.20911E-03    -51.2393E+06    -65.9100E+06    -240.153E+06    -65.9508E+06    -240.112E+06    -51.2393E+06    -1.08098E+06         30.0277
             832     2.81980E-03     24.7937E-03         3.15008    -677.769E-03    -721.403E-03    -711.964E-03         3.14064    -677.769E-03    -80.8142E-03     124.092E-03    -61.9321E-03    -62.1765E-03    -62.0866E-03     124.081E-03    -62.0110E-03    -2.80765E-03    -60.9504E+06    -69.9603E+06    -247.174E+06    -70.0012E+06    -247.133E+06    -60.9504E+06    -728.116E+03         29.8143
             833     1.88051E-03     24.7956E-03         3.12686    -667.200E-03    -714.721E-03    -686.813E-03         3.09895    -667.200E-03     173.812E-03     123.988E-03    -61.8973E-03    -62.0953E-03    -62.0892E-03     123.982E-03    -61.8973E-03    -2.07109E-03    -68.7901E+06    -73.0106E+06    -251.911E+06    -73.0392E+06    -251.882E+06    -68.7901E+06    -623.851E+03         29.6660
             834     940.720E-06     24.7985E-03         3.17380     460.900E-03        -1.88663        -1.78563         3.07280     460.900E-03    -590.178E-03     123.673E-03    -61.7053E-03    -61.9684E-03    -61.8764E-03     123.670E-03    -61.7950E-03    -801.888E-06    -70.9384E+06    -75.1330E+06    -254.122E+06    -73.4545E+06    -254.089E+06    -72.6495E+06    -80.9984E+03         29.5719
             835     15.9908E-03     24.6375E-03         3.81573    -859.809E-03        -1.18238        -1.18234         3.81568    -859.809E-03     17.8677E-03     294.491E-03    -62.5617E-03    -232.053E-03    -92.7348E-03     155.173E-03    -62.5617E-03     464.482E-03     146.901E+06     135.973E+06    -8.73770E+06    -8.73340E+06     135.969E+06     146.901E+06     249.991E+03         72.2653
             836     15.0433E-03     24.0965E-03         3.74237    -845.355E-03        -1.13599        -1.13595         3.74233    -845.355E-03     15.6044E-03     227.189E-03    -62.5018E-03    -164.623E-03    -76.3085E-03     138.874E-03    -62.5018E-03     322.016E-03     116.511E+06     110.960E+06    -17.1673E+06    -17.0909E+06     110.883E+06     116.511E+06     799.445E+03         67.6713
             837     14.1042E-03     23.8829E-03         3.68402    -830.210E-03        -1.09801        -1.09799         3.68400    -830.210E-03     8.54439E-03     151.544E-03    -62.4057E-03    -88.9944E-03    -64.0237E-03     126.573E-03    -62.4057E-03     141.917E-03     86.1928E+06     79.7882E+06    -25.6652E+06    -25.5195E+06     82.9467E+06     82.8886E+06     1.31810E+06         61.7020
             838     13.1628E-03     23.7773E-03         3.61939    -814.529E-03        -1.04865        -1.04848         3.61922    -814.529E-03     48.1721E-03     131.352E-03    -62.2502E-03    -69.1728E-03    -61.2967E-03     123.475E-03    -62.2502E-03     76.6769E-03     70.3229E+06     50.7747E+06    -31.5861E+06    -31.4605E+06     70.1973E+06     50.7747E+06     1.60416E+06         55.6959
             839     12.2221E-03     23.7075E-03         3.55529    -799.451E-03        -1.00049        -1.00033         3.55513    -799.451E-03     38.3633E-03     126.238E-03    -62.0415E-03    -64.3174E-03    -61.2269E-03     123.147E-03    -62.0415E-03     45.4748E-03     62.9141E+06     13.1394E+06    -36.4635E+06    -36.3557E+06     62.8064E+06     13.1394E+06     1.10547E+06         50.3008
             840     11.2812E-03     23.6745E-03         3.49537    -785.190E-03    -955.863E-03    -955.794E-03         3.49530    -785.190E-03     23.8003E-03     123.535E-03    -61.5842E-03    -62.0274E-03    -61.0639E-03     122.893E-03    -61.9060E-03     19.5844E-03     54.3336E+06    -14.4600E+06    -39.5078E+06    -39.4080E+06     54.2338E+06    -14.4600E+06     1.08694E+06         45.5304
             841     10.3413E-03     23.6633E-03         3.44449    -771.658E-03    -918.933E-03    -918.797E-03         3.44435    -771.658E-03     46.2639E-03     123.333E-03    -61.4585E-03    -61.9377E-03    -61.3472E-03     123.222E-03    -61.9377E-03     8.98612E-03     13.9505E+06    -26.0678E+06    -43.2978E+06    -42.4223E+06     8.31949E+06    -21.3123E+06     1.68477E+06         41.4015
             842     9.40042E-03     23.6545E-03         3.40617    -758.177E-03    -897.176E-03    -897.014E-03         3.40601    -758.177E-03     42.6799E-03     123.572E-03    -61.6362E-03    -61.9869E-03    -61.5793E-03     123.516E-03    -61.9869E-03     6.25809E-03    -25.8385E+06    -39.2373E+06    -60.7662E+06    -46.5242E+06    -53.4792E+06    -25.8385E+06     1.56727E+06         37.9364
             843     8.46120E-03     23.6486E-03         3.36194    -744.336E-03    -870.278E-03    -870.133E-03         3.36180    -744.336E-03     16.5991E-03     123.697E-03    -61.7318E-03    -62.0010E-03    -61.7175E-03     123.683E-03    -62.0010E-03     2.17796E-03    -30.7410E+06    -50.3403E+06    -102.150E+06    -50.6778E+06    -101.812E+06    -30.7410E+06     1.57083E+06         35.1656
             844     7.52057E-03     23.6479E-03         3.30195    -731.466E-03    -826.148E-03    -825.953E-03         3.30176    -731.466E-03     25.6634E-03     123.961E-03    -61.9094E-03    -62.0792E-03    -61.9412E-03     123.959E-03    -62.0456E-03    -826.752E-06    -31.3846E+06    -53.4423E+06    -148.787E+06    -53.7997E+06    -148.429E+06    -31.3846E+06     783.856E+03         33.1325
             845     6.58061E-03     23.6497E-03         3.24181    -721.862E-03    -773.484E-03    -773.344E-03         3.24167    -721.862E-03     32.8134E-03     124.071E-03    -61.9518E-03    -62.1407E-03    -62.0214E-03     124.065E-03    -62.0656E-03    -1.88594E-03    -32.1097E+06    -55.4411E+06    -187.140E+06    -55.6262E+06    -186.955E+06    -32.1097E+06     231.323E+03         31.7697
             846     5.64096E-03     23.6511E-03         3.21014    -715.535E-03    -747.199E-03    -746.734E-03         3.20967    -715.535E-03     65.3951E-03     124.084E-03    -61.9935E-03    -62.1212E-03    -62.0414E-03     124.071E-03    -62.0607E-03    -2.96848E-03    -34.8363E+06    -58.0467E+06    -213.735E+06    -58.1188E+06    -213.663E+06    -34.8363E+06     1.06346E+06         30.8804
             847     4.70146E-03     23.6561E-03         3.21240    -708.274E-03    -755.388E-03    -754.194E-03         3.21121    -708.274E-03    -13.9281E-03     123.954E-03    -61.9234E-03    -62.0609E-03    -61.9620E-03     123.937E-03    -62.0061E-03    -3.43971E-03    -42.2285E+06    -61.2793E+06    -228.388E+06    -61.3446E+06    -228.323E+06    -42.2285E+06     554.001E+03         30.3291
             848     3.75983E-03     23.6591E-03         3.19967    -696.776E-03    -754.639E-03    -751.536E-03         3.19656    -696.776E-03     61.9936E-03     123.937E-03    -61.8752E-03    -62.0837E-03    -62.0002E-03     123.923E-03    -61.9442E-03    -3.24938E-03    -50.9843E+06    -65.9513E+06    -239.792E+06    -65.9874E+06    -239.756E+06    -50.9843E+06     68.5151E+03         30.0057
             849     2.82173E-03     23.6624E-03         3.15739    -682.446E-03    -734.422E-03    -727.064E-03         3.15003    -682.446E-03    -54.6641E-03     123.904E-03    -61.8370E-03    -62.0825E-03    -62.0711E-03     123.892E-03    -61.8370E-03    -2.89218E-03    -60.4642E+06    -70.5578E+06    -247.421E+06    -70.5787E+06    -247.400E+06    -60.4642E+06     -228.02E+03         29.7905
             850     1.88060E-03     23.6654E-03         3.11655    -670.446E-03    -711.234E-03    -688.459E-03         3.09377    -670.446E-03     174.866E-03     123.587E-03    -61.6800E-03    -61.9145E-03    -61.9068E-03     123.579E-03    -61.6800E-03    -2.32432E-03    -68.2382E+06    -73.7446E+06    -251.650E+06    -73.7633E+06    -251.631E+06    -68.2382E+06    -387.835E+03         29.6381
             851     940.192E-06     23.6669E-03         3.14467     341.852E-03        -1.75339        -1.67418         3.06546     341.852E-03    -478.415E-03     123.199E-03    -61.3577E-03    -61.8448E-03    -61.7501E-03     123.194E-03    -61.4474E-03    -1.70500E-03    -72.2423E+06    -77.4227E+06    -254.860E+06    -75.7215E+06    -254.850E+06    -73.9534E+06    -556.574E+03         29.5427
             852     15.9841E-03     23.5001E-03         3.81333    -871.611E-03        -1.18639        -1.18637         3.81331    -871.611E-03    -2.82317E-03     293.133E-03    -62.5629E-03    -230.629E-03    -91.7727E-03     154.278E-03    -62.5629E-03     462.357E-03     144.331E+06     134.939E+06    -10.2055E+06    -10.1923E+06     134.925E+06     144.331E+06    -444.928E+03         72.1778
             853     15.0464E-03     22.9699E-03         3.74962    -860.039E-03        -1.13589        -1.13586         3.74960    -860.039E-03     16.9180E-03     229.333E-03    -62.4977E-03    -166.806E-03    -77.8892E-03     140.416E-03    -62.4977E-03     325.383E-03     114.681E+06     110.729E+06    -18.9975E+06    -18.9095E+06     110.641E+06     114.681E+06     664.400E+03         67.5768
             854     14.1025E-03     22.7458E-03         3.69606    -847.435E-03        -1.09452        -1.09450         3.69604    -847.435E-03     15.0076E-03     152.326E-03    -62.3638E-03    -89.9186E-03    -64.7327E-03     127.140E-03    -62.3638E-03     142.705E-03     85.6437E+06     79.7434E+06    -26.3316E+06    -26.1282E+06     83.1754E+06     82.0082E+06     721.765E+03         61.5998
             855     13.1643E-03     22.6465E-03         3.64559    -833.504E-03        -1.05580        -1.05569         3.64548    -833.504E-03     37.0983E-03     131.667E-03    -62.1658E-03    -69.5669E-03    -61.6211E-03     123.721E-03    -62.1658E-03     77.4497E-03     70.3805E+06     50.4983E+06    -32.0486E+06    -31.8863E+06     70.2182E+06     50.4983E+06     737.611E+03         55.5847
             856     12.2229E-03     22.5744E-03         3.58428    -819.671E-03        -1.00831        -1.00819         3.58415    -819.671E-03     20.9389E-03     126.378E-03    -61.9468E-03    -64.5541E-03    -61.3099E-03     123.134E-03    -61.9468E-03     46.1840E-03     63.2803E+06     12.8377E+06    -36.3146E+06    -36.2130E+06     63.1786E+06     12.8377E+06     934.406E+03         50.1841
             857     11.2829E-03     22.5434E-03         3.52625    -806.512E-03    -966.442E-03    -966.382E-03         3.52619    -806.512E-03     9.22238E-03     123.580E-03    -61.5501E-03    -62.1180E-03    -61.2624E-03     122.974E-03    -61.7998E-03     19.0907E-03     53.3916E+06    -15.5641E+06    -39.5559E+06    -39.3915E+06     53.2272E+06    -15.5641E+06     1.58203E+06         45.4117
             858     10.3417E-03     22.5314E-03         3.48243    -793.730E-03    -936.050E-03    -935.923E-03         3.48230    -793.730E-03     45.2913E-03     123.295E-03    -61.5237E-03    -61.8257E-03    -61.4468E-03     123.192E-03    -61.8000E-03     8.59564E-03     13.1581E+06    -25.4430E+06    -42.1898E+06    -41.1483E+06     8.27538E+06    -21.6018E+06     2.13223E+06         41.2843
             859     9.40286E-03     22.5226E-03         3.43764    -781.205E-03    -906.587E-03    -906.401E-03         3.43746    -781.205E-03     53.9257E-03     123.617E-03    -61.7495E-03    -61.9067E-03    -61.7749E-03     123.573E-03    -61.8370E-03     5.32928E-03    -22.6896E+06    -35.0138E+06    -61.9283E+06    -42.8277E+06    -54.1143E+06    -22.6896E+06     3.68959E+06         37.8234
             860     8.46178E-03     22.5174E-03         3.38866    -769.374E-03    -872.024E-03    -871.871E-03         3.38851    -769.374E-03     48.6078E-03     123.482E-03    -61.6388E-03    -61.8772E-03    -61.6738E-03     123.473E-03    -61.8332E-03     1.27982E-03    -25.8614E+06    -44.8334E+06    -100.996E+06    -45.9514E+06    -99.8777E+06    -25.8614E+06     3.73941E+06         35.0592
             861     7.52213E-03     22.5165E-03         3.34207    -758.893E-03    -836.269E-03    -836.034E-03         3.34183    -758.893E-03     58.6294E-03     123.651E-03    -61.7367E-03    -61.9456E-03    -61.8077E-03     123.646E-03    -61.8703E-03    -1.55174E-03    -26.4880E+06    -49.4278E+06    -146.306E+06    -49.8321E+06    -145.902E+06    -26.4880E+06     1.18166E+06         33.0353
             862     6.58236E-03     22.5185E-03         3.30262    -750.051E-03    -806.032E-03    -805.836E-03         3.30243    -750.051E-03     46.3986E-03     123.708E-03    -61.7738E-03    -61.9565E-03    -61.8366E-03     123.696E-03    -61.8811E-03    -2.92216E-03    -29.9382E+06    -55.0061E+06    -188.384E+06    -55.2385E+06    -188.152E+06    -29.9382E+06     483.054E+03         31.6857
             863     5.64163E-03     22.5208E-03         3.27853    -741.824E-03    -792.334E-03    -791.913E-03         3.27811    -741.824E-03     64.8378E-03     123.548E-03    -61.6990E-03    -61.8764E-03    -61.6800E-03     123.529E-03    -61.8764E-03    -3.67721E-03    -34.7270E+06    -59.9523E+06    -212.790E+06    -60.0049E+06    -212.737E+06    -34.7270E+06     93.8602E+03         30.8152
             864     4.70095E-03     22.5244E-03         3.25882    -732.780E-03    -781.515E-03    -780.654E-03         3.25795    -732.780E-03    -2.64262E-03     123.691E-03    -61.7618E-03    -61.9606E-03    -61.8685E-03     123.669E-03    -61.8319E-03    -4.00825E-03    -41.9173E+06    -63.4528E+06    -228.385E+06    -63.4838E+06    -228.354E+06    -41.9173E+06     56.5142E+03         30.2824
             865     3.76254E-03     22.5285E-03         3.22644    -721.916E-03    -760.599E-03    -755.921E-03         3.22373    -723.887E-03     73.0510E-03     123.616E-03    -61.7399E-03    -61.9000E-03    -61.8800E-03     123.596E-03    -61.7399E-03    -3.82148E-03    -52.5182E+06    -66.2392E+06    -239.233E+06    -66.2686E+06    -239.203E+06    -52.5182E+06     393.119E+03         29.9665
             866     2.82019E-03     22.5315E-03         3.19223    -715.979E-03    -735.885E-03    -728.780E-03         3.18710    -717.950E-03    -16.7662E-03     123.432E-03    -61.6310E-03    -61.8175E-03    -61.7847E-03     123.417E-03    -61.6486E-03    -3.28266E-03    -60.0000E+06    -68.9285E+06    -246.975E+06    -68.9525E+06    -246.951E+06    -60.0000E+06    -234.964E+03         29.7515
             867     1.88165E-03     22.5348E-03         3.18721    -714.591E-03    -736.944E-03    -720.234E-03         3.17050    -714.591E-03     177.640E-03     123.223E-03    -61.5153E-03    -61.7156E-03    -61.6761E-03     123.213E-03    -61.5448E-03    -2.53742E-03    -65.2941E+06    -72.4473E+06    -251.605E+06    -72.4739E+06    -251.579E+06    -65.2941E+06    -146.453E+03         29.6008
             868     941.155E-06     22.5377E-03         3.21501     197.786E-03        -1.69027        -1.62483         3.14958     197.786E-03    -442.667E-03     122.946E-03    -61.1489E-03    -61.7987E-03    -61.7820E-03     122.941E-03    -61.1608E-03    -1.49502E-03    -72.5921E+06    -77.3782E+06    -255.160E+06    -76.7813E+06    -255.149E+06    -73.2004E+06     172.187E+03         29.5102
             869     15.9877E-03     22.3739E-03         3.82493    -888.606E-03        -1.17968        -1.17967         3.82492    -888.606E-03     999.656E-06     292.363E-03    -62.5577E-03    -229.719E-03    -91.3443E-03     153.988E-03    -62.5577E-03     460.841E-03     143.720E+06     134.541E+06    -9.80785E+06    -9.75770E+06     134.491E+06     143.720E+06     936.535E+03         72.0625
             870     15.0400E-03     21.8333E-03         3.77465    -880.502E-03        -1.14176        -1.14174         3.77463    -880.502E-03     12.4474E-03     229.669E-03    -62.5147E-03    -167.164E-03    -78.4692E-03     140.974E-03    -62.5147E-03     325.378E-03     115.852E+06     111.244E+06    -18.4209E+06    -18.3071E+06     111.130E+06     115.852E+06     1.22468E+06         67.4520
             871     14.1056E-03     21.6124E-03         3.71802    -870.459E-03        -1.09779        -1.09776         3.71798    -870.459E-03     23.1601E-03     152.290E-03    -62.3573E-03    -89.9708E-03    -65.1411E-03     127.460E-03    -62.3573E-03     141.563E-03     87.0884E+06     80.4796E+06    -26.4484E+06    -26.2773E+06     84.3967E+06     83.0001E+06     210.867E+03         61.4641
             872     13.1629E-03     21.5144E-03         3.66908    -858.599E-03        -1.05969        -1.05951         3.66890    -858.599E-03     50.4426E-03     131.741E-03    -62.0961E-03    -69.6906E-03    -62.0820E-03     124.133E-03    -62.0961E-03     75.8689E-03     70.0767E+06     48.1155E+06    -33.3960E+06    -33.2291E+06     69.9097E+06     48.1155E+06    -340.632E+03         55.4404
             873     12.2238E-03     21.4415E-03         3.62186    -846.238E-03        -1.02696        -1.02678         3.62168    -846.238E-03     25.3592E-03     126.624E-03    -61.8336E-03    -64.9030E-03    -61.8104E-03     123.531E-03    -61.8336E-03     45.0328E-03     61.4838E+06     9.90517E+06    -38.6654E+06    -38.4384E+06     61.2569E+06     9.90517E+06     1.06420E+06         50.0371
             874     11.2840E-03     21.4109E-03         3.57269    -833.751E-03    -990.633E-03    -990.515E-03         3.57257    -833.751E-03     16.2547E-03     123.696E-03    -61.5573E-03    -62.2342E-03    -61.6053E-03     123.151E-03    -61.6415E-03     17.8305E-03     54.3783E+06    -15.8885E+06    -41.9275E+06    -41.6301E+06     54.0809E+06    -15.8885E+06     1.56775E+06         45.2659
             875     10.3447E-03     21.3993E-03         3.52057    -821.861E-03    -949.558E-03    -949.411E-03         3.52043    -821.861E-03     49.6368E-03     123.244E-03    -61.5202E-03    -61.7830E-03    -61.6183E-03     123.164E-03    -61.6044E-03     7.63657E-03     14.7017E+06    -27.3855E+06    -44.7169E+06    -43.3585E+06     7.81727E+06    -21.8594E+06     1.49498E+06         41.1423
             876     9.40381E-03     21.3897E-03         3.46561    -811.354E-03    -910.582E-03    -910.458E-03         3.46549    -811.354E-03     45.2735E-03     123.384E-03    -61.6131E-03    -61.8045E-03    -61.7712E-03     123.350E-03    -61.6131E-03     4.30509E-03    -23.1363E+06    -37.4375E+06    -63.3731E+06    -44.5423E+06    -56.2684E+06    -23.1363E+06     3.08291E+06         37.6867
             877     8.46510E-03     21.3863E-03         3.42608    -802.219E-03    -880.057E-03    -879.952E-03         3.42597    -802.219E-03     29.5244E-03     123.303E-03    -61.5142E-03    -61.8134E-03    -61.7452E-03     123.299E-03    -61.5782E-03     170.373E-06    -23.9988E+06    -43.1671E+06    -97.6912E+06    -44.5120E+06    -96.3463E+06    -23.9988E+06     3.26498E+06         34.9299
             878     7.52407E-03     21.3854E-03         3.40400    -793.570E-03    -863.516E-03    -863.423E-03         3.40390    -793.570E-03     15.3992E-03     123.196E-03    -61.4758E-03    -61.7489E-03    -61.6005E-03     123.187E-03    -61.6161E-03    -2.29060E-03    -22.2932E+06    -46.3709E+06    -145.549E+06    -46.7670E+06    -145.153E+06    -22.2932E+06     3.07413E+06         32.9157
             879     6.58386E-03     21.3864E-03         3.38644    -783.706E-03    -860.212E-03    -860.141E-03         3.38637    -783.706E-03     17.8839E-03     123.276E-03    -61.4905E-03    -61.8152E-03    -61.6643E-03     123.255E-03    -61.6205E-03    -3.82650E-03    -25.3034E+06    -50.9997E+06    -187.613E+06    -51.2127E+06    -187.400E+06    -25.3034E+06     2.94578E+06         31.5788
             880     5.64364E-03     21.3911E-03         3.35432    -772.419E-03    -841.571E-03    -841.304E-03         3.35405    -772.419E-03     53.3450E-03     123.221E-03    -61.4535E-03    -61.7966E-03    -61.6554E-03     123.190E-03    -61.5636E-03    -4.77476E-03    -33.0381E+06    -56.8828E+06    -210.066E+06    -57.0012E+06    -209.948E+06    -33.0381E+06     1.10711E+06         30.7261
             881     4.70338E-03     21.3928E-03         3.29688    -763.420E-03    -794.104E-03    -793.017E-03         3.29600    -763.630E-03    -23.8065E-03     123.041E-03    -61.3968E-03    -61.6713E-03    -61.5343E-03     123.006E-03    -61.4982E-03    -5.07913E-03    -41.7461E+06    -62.9381E+06    -228.753E+06    -62.9510E+06    -228.740E+06    -41.7461E+06    -476.576E+03         30.2099
             882     3.76179E-03     21.3986E-03         3.25692    -755.167E-03    -763.807E-03    -755.580E-03         3.25481    -761.280E-03     38.4899E-03     122.941E-03    -61.3671E-03    -61.5980E-03    -61.5210E-03     122.909E-03    -61.4121E-03    -4.78302E-03    -52.3853E+06    -67.2972E+06    -239.582E+06    -67.3131E+06    -239.566E+06    -52.3853E+06    -341.844E+03         29.9011
             883     2.82330E-03     21.4015E-03         3.26719    -757.057E-03    -766.730E-03    -756.424E-03         3.26279    -762.961E-03    -44.5030E-03     122.619E-03    -61.1911E-03    -61.4443E-03    -61.2618E-03     122.597E-03    -61.3513E-03    -3.99659E-03    -62.2552E+06    -71.1008E+06    -247.192E+06    -71.1344E+06    -247.158E+06    -62.2552E+06     68.5092E+03         29.6890
             884     1.88065E-03     21.4049E-03         3.27789    -758.375E-03    -777.901E-03    -757.261E-03         3.26504    -766.165E-03     129.069E-03     122.518E-03    -61.1378E-03    -61.3847E-03    -61.1249E-03     122.505E-03    -61.3847E-03    -2.89953E-03    -68.6025E+06    -74.3619E+06    -252.233E+06    -74.4118E+06    -252.184E+06    -68.6025E+06    -303.001E+03         29.5442
             885     939.987E-06     21.4078E-03         3.32317     26.7611E-03        -1.61709        -1.55618         3.27005     18.9702E-03    -412.323E-03     122.850E-03    -61.1821E-03    -61.6679E-03    -61.5763E-03     122.845E-03    -61.2688E-03    -1.47124E-03    -73.4673E+06    -76.8546E+06    -254.444E+06    -76.2947E+06    -254.395E+06    -74.0757E+06     666.322E+03         29.4610
             886     15.9848E-03     21.2455E-03         3.84073    -910.711E-03        -1.17225        -1.17223         3.84072    -910.711E-03     9.78702E-03     292.835E-03    -62.5702E-03    -230.189E-03    -92.6864E-03     155.332E-03    -62.5702E-03     460.473E-03     146.209E+06     135.061E+06    -8.44931E+06    -8.40334E+06     135.015E+06     146.209E+06     1.40914E+06         71.9132
             887     15.0489E-03     20.7008E-03         3.80069    -906.393E-03        -1.13932        -1.13931         3.80068    -906.393E-03     11.2247E-03     230.114E-03    -62.4667E-03    -167.619E-03    -79.2568E-03     141.752E-03    -62.4667E-03     325.525E-03     117.894E+06     111.481E+06    -17.2196E+06    -17.0650E+06     111.327E+06     117.894E+06     1.92532E+06         67.2958
             888     14.1029E-03     20.4790E-03         3.75134    -899.215E-03        -1.10370        -1.10367         3.75132    -899.215E-03     17.1716E-03     151.670E-03    -62.2592E-03    -89.4013E-03    -64.8943E-03     127.163E-03    -62.2592E-03     140.350E-03     87.6438E+06     80.0190E+06    -25.0113E+06    -24.8338E+06     84.3375E+06     83.1479E+06     1.08251E+06         61.2952
             889     13.1669E-03     20.3797E-03         3.69790    -889.656E-03        -1.06469        -1.06446         3.69768    -889.656E-03     56.4592E-03     132.080E-03    -61.9635E-03    -70.1533E-03    -62.7377E-03     124.664E-03    -61.9635E-03     74.9096E-03     69.6508E+06     46.7316E+06    -33.6296E+06    -33.3573E+06     69.3785E+06     46.7316E+06     1.34657E+06         55.2620
             890     12.2270E-03     20.3103E-03         3.66281    -879.285E-03        -1.04106        -1.04084         3.66260    -879.285E-03     40.1594E-03     126.951E-03    -61.6301E-03    -65.4352E-03    -62.5733E-03     124.089E-03    -61.6301E-03     43.3113E-03     61.2506E+06     8.61240E+06    -39.6649E+06    -39.2316E+06     60.8173E+06     8.61240E+06     1.49022E+06         49.8589
             891     11.2869E-03     20.2777E-03         3.62492    -868.233E-03        -1.01266        -1.01251         3.62476    -868.233E-03     32.7071E-03     123.615E-03    -61.3778E-03    -62.3334E-03    -61.8697E-03     123.152E-03    -61.3778E-03     15.8658E-03     55.1710E+06    -15.9279E+06    -42.1979E+06    -41.7491E+06     54.7222E+06    -15.9279E+06     1.36985E+06         45.0918
             892     10.3470E-03     20.2677E-03         3.56978    -857.666E-03    -969.843E-03    -969.650E-03         3.56958    -857.666E-03     57.0365E-03     122.942E-03    -61.3110E-03    -61.6863E-03    -61.6385E-03     122.894E-03    -61.3110E-03     5.79053E-03     14.7085E+06    -27.9417E+06    -45.8336E+06    -44.2804E+06     7.38918E+06    -22.1755E+06     2.00206E+06         40.9739
             893     9.40767E-03     20.2588E-03         3.52724    -848.166E-03    -942.360E-03    -942.173E-03         3.52705    -848.166E-03     55.6108E-03     122.911E-03    -61.2726E-03    -61.6796E-03    -61.6593E-03     122.891E-03    -61.2726E-03     2.92507E-03    -27.3243E+06    -39.6629E+06    -61.9147E+06    -45.7329E+06    -55.8448E+06    -27.3243E+06     796.977E+03         37.5256
             894     8.46640E-03     20.2550E-03         3.49965    -838.935E-03    -923.432E-03    -923.286E-03         3.49951    -838.935E-03     31.5130E-03     122.923E-03    -61.2000E-03    -61.7447E-03    -61.7350E-03     122.914E-03    -61.2000E-03    -1.36466E-03    -29.8487E+06    -45.8987E+06    -97.2963E+06    -46.4247E+06    -96.7703E+06    -29.8487E+06     1.30539E+06         34.7772
             895     7.52732E-03     20.2548E-03         3.47069    -829.721E-03    -902.728E-03    -902.620E-03         3.47058    -829.721E-03     12.0323E-03     122.821E-03    -61.1366E-03    -61.7024E-03    -61.5990E-03     122.794E-03    -61.2129E-03    -4.12609E-03    -24.8541E+06    -47.6760E+06    -146.617E+06    -48.1517E+06    -146.141E+06    -24.8541E+06     4.00619E+06         32.7723
             896     6.58596E-03     20.2568E-03         3.44057    -820.719E-03    -882.240E-03    -882.130E-03         3.44046    -820.719E-03     24.5811E-03     122.613E-03    -61.1072E-03    -61.5344E-03    -61.4097E-03     122.571E-03    -61.1899E-03    -5.40640E-03    -25.7942E+06    -51.7408E+06    -185.216E+06    -52.0381E+06    -184.919E+06    -25.7942E+06     4.31855E+06         31.4459
             897     5.64614E-03     20.2594E-03         3.40072    -812.858E-03    -853.323E-03    -852.976E-03         3.40037    -812.858E-03     61.7184E-03     122.552E-03    -61.1021E-03    -61.4802E-03    -61.4246E-03     122.503E-03    -61.1086E-03    -5.95505E-03    -32.3381E+06    -56.1372E+06    -207.198E+06    -56.2882E+06    -207.048E+06    -32.3381E+06     2.85704E+06         30.6073
             898     4.70559E-03     20.2658E-03         3.36667    -806.916E-03    -830.186E-03    -829.216E-03         3.36591    -807.125E-03    -1.98296E-03     122.294E-03    -60.9667E-03    -61.3515E-03    -61.2574E-03     122.245E-03    -61.0117E-03    -5.98878E-03    -40.5927E+06    -61.2559E+06    -227.451E+06    -61.3086E+06    -227.398E+06    -40.5927E+06     1.16198E+06         30.1055
             899     3.76525E-03     20.2679E-03         3.34470    -799.332E-03    -819.478E-03    -813.481E-03         3.34285    -803.475E-03     53.7467E-03     121.828E-03    -60.7321E-03    -61.1166E-03    -60.8718E-03     121.782E-03    -60.9308E-03    -5.78899E-03    -50.5586E+06    -67.3911E+06    -239.855E+06    -67.3993E+06    -239.847E+06    -50.5586E+06     156.017E+03         29.8036
             900     2.82256E-03     20.2733E-03         3.32575    -787.093E-03    -812.464E-03    -791.996E-03         3.32225    -804.065E-03    -19.8998E-03     121.641E-03    -60.5951E-03    -61.0570E-03    -60.7267E-03     121.607E-03    -60.8914E-03    -4.86468E-03    -61.7193E+06    -71.6319E+06    -246.797E+06    -71.6547E+06    -246.774E+06    -61.7193E+06     365.650E+03         29.5959
             901     1.88240E-03     20.2768E-03         3.33476    -791.794E-03    -816.816E-03    -785.896E-03         3.32467    -812.623E-03     128.897E-03     121.748E-03    -60.6501E-03    -61.0996E-03    -60.8635E-03     121.729E-03    -60.8677E-03    -3.61904E-03    -69.5230E+06    -74.5614E+06    -252.306E+06    -74.5971E+06    -252.270E+06    -69.5230E+06    -154.103E+03         29.4564
             902     941.122E-06     20.2776E-03         3.41135    -133.267E-03        -1.54195        -1.49736         3.37455    -141.058E-03    -314.158E-03     121.707E-03    -60.6394E-03    -61.0665E-03    -60.8601E-03     121.697E-03    -60.8360E-03    -2.60937E-03    -73.9714E+06    -76.8732E+06    -255.526E+06    -76.8624E+06    -255.440E+06    -74.0688E+06    -921.527E+03         29.3758
             903     15.9873E-03     20.1102E-03         3.85442    -937.255E-03        -1.16550        -1.16547         3.85439    -937.255E-03     2.99457E-03     293.295E-03    -62.5500E-03    -230.638E-03    -93.7167E-03     156.374E-03    -62.5500E-03     460.385E-03     145.553E+06     133.327E+06    -8.24757E+06    -8.22968E+06     133.309E+06     145.553E+06     462.535E+03         71.7167
             904     15.0443E-03     19.5657E-03         3.81468    -936.821E-03        -1.13105        -1.13103         3.81466    -936.821E-03     18.6703E-03     231.178E-03    -62.3579E-03    -168.662E-03    -80.5136E-03     143.030E-03    -62.3579E-03     326.161E-03     117.756E+06     111.070E+06    -15.9041E+06    -15.7809E+06     110.947E+06     117.756E+06     1.25133E+06         67.0912
             905     14.1102E-03     19.3476E-03         3.78312    -932.785E-03        -1.10948        -1.10947         3.78312    -932.785E-03     5.88357E-03     152.157E-03    -62.0691E-03    -89.9639E-03    -65.8058E-03     127.999E-03    -62.0691E-03     139.800E-03     86.9713E+06     80.3029E+06    -24.3876E+06    -24.0128E+06     83.9642E+06     82.9353E+06     2.84559E+06         61.0825
             906     13.1660E-03     19.2447E-03         3.74504    -925.367E-03        -1.07889        -1.07870         3.74485    -925.367E-03     42.5027E-03     132.263E-03    -61.7176E-03    -70.5466E-03    -63.4286E-03     125.145E-03    -61.7176E-03     73.2608E-03     70.4913E+06     48.6747E+06    -31.5428E+06    -31.0607E+06     70.0092E+06     48.6747E+06     2.94957E+06         55.0448
             907     12.2299E-03     19.1750E-03         3.70345    -917.273E-03        -1.04589        -1.04570         3.70326    -917.273E-03     43.9280E-03     127.092E-03    -61.3086E-03    -65.8859E-03    -63.3452E-03     124.551E-03    -61.3086E-03     40.3187E-03     63.3138E+06     10.2751E+06    -36.5763E+06    -36.0546E+06     62.7922E+06     10.2751E+06     1.98025E+06         49.6450
             908     11.2920E-03     19.1457E-03         3.66601    -908.872E-03        -1.02248        -1.02240         3.66593    -908.872E-03     22.7988E-03     123.532E-03    -60.9726E-03    -62.6337E-03    -62.2866E-03     123.185E-03    -60.9726E-03     13.1510E-03     53.6306E+06    -17.9272E+06    -39.9160E+06    -39.3998E+06     53.1144E+06    -17.9272E+06     2.14923E+06         44.8865
             909     10.3518E-03     19.1355E-03         3.63774    -899.947E-03        -1.00482        -1.00464         3.63756    -899.947E-03     50.0485E-03     122.593E-03    -60.8542E-03    -61.7874E-03    -61.7695E-03     122.575E-03    -60.8542E-03     3.19045E-03     14.1203E+06    -26.4645E+06    -42.7034E+06    -41.3975E+06     8.52929E+06    -22.1793E+06     2.28810E+06         40.7795
             910     9.41097E-03     19.1276E-03         3.61232    -890.684E-03    -987.047E-03    -986.840E-03         3.61211    -890.684E-03     58.0013E-03     122.523E-03    -60.7702E-03    -61.7965E-03    -61.7816E-03     122.508E-03    -60.7702E-03    -104.796E-06    -25.5700E+06    -35.9805E+06    -60.1597E+06    -43.6307E+06    -52.5095E+06    -25.5700E+06     653.844E+03         37.3429
             911     8.47198E-03     19.1244E-03         3.57578    -881.677E-03    -960.181E-03    -960.042E-03         3.57564    -881.677E-03     42.9451E-03     122.241E-03    -60.6399E-03    -61.6300E-03    -61.5918E-03     122.203E-03    -60.6399E-03    -4.53382E-03    -31.6707E+06    -45.6877E+06    -101.024E+06    -46.1827E+06    -100.529E+06    -31.6707E+06     1.02358E+06         34.6051
             912     7.53084E-03     19.1244E-03         3.54208    -873.576E-03    -933.879E-03    -933.638E-03         3.54184    -873.576E-03     56.7439E-03     122.080E-03    -60.5921E-03    -61.5038E-03    -61.4347E-03     122.011E-03    -60.5921E-03    -6.96176E-03    -27.6003E+06    -48.3931E+06    -148.576E+06    -48.8026E+06    -148.166E+06    -27.6003E+06     4.12168E+06         32.6081
             913     6.59166E-03     19.1275E-03         3.50394    -867.349E-03    -900.615E-03    -900.401E-03         3.50372    -867.349E-03     50.8931E-03     121.701E-03    -60.5182E-03    -61.2029E-03    -61.1115E-03     121.616E-03    -60.5246E-03    -7.77738E-03    -25.8336E+06    -51.8409E+06    -182.719E+06    -52.1800E+06    -182.380E+06    -25.8336E+06     4.88063E+06         31.2865
             914     5.64916E-03     19.1322E-03         3.47234    -864.259E-03    -871.107E-03    -870.670E-03         3.47190    -864.259E-03     68.8760E-03     121.200E-03    -60.4181E-03    -60.8058E-03    -60.7038E-03     121.104E-03    -60.4246E-03    -8.19981E-03    -31.8651E+06    -56.7687E+06    -204.439E+06    -56.9566E+06    -204.251E+06    -31.8651E+06     3.40042E+06         30.4523
             915     4.70837E-03     19.1354E-03         3.47302    -862.160E-03    -876.154E-03    -875.510E-03         3.47238    -862.160E-03     18.3204E-03     120.901E-03    -60.3222E-03    -60.6020E-03    -60.5012E-03     120.814E-03    -60.3365E-03    -7.75168E-03    -40.5929E+06    -61.3881E+06    -225.411E+06    -61.4556E+06    -225.344E+06    -40.5929E+06     2.16335E+06         29.9567
             916     3.76687E-03     19.1416E-03         3.46613    -857.688E-03    -882.320E-03    -880.843E-03         3.46465    -857.688E-03     60.2657E-03     120.643E-03    -60.0837E-03    -60.5767E-03    -60.3409E-03     120.575E-03    -60.2516E-03    -6.93576E-03    -49.7816E+06    -64.7696E+06    -239.349E+06    -64.7952E+06    -239.323E+06    -49.7816E+06     951.299E+03         29.6621
             917     2.82563E-03     19.1458E-03         3.43959    -841.042E-03    -872.645E-03    -856.980E-03         3.43697    -854.081E-03    -5.03189E-03     120.493E-03    -60.0040E-03    -60.4977E-03    -60.2957E-03     120.444E-03    -60.1577E-03    -5.84730E-03    -58.3570E+06    -68.3516E+06    -245.920E+06    -68.3732E+06    -245.899E+06    -58.3570E+06     352.879E+03         29.4606
             918     1.88373E-03     19.1480E-03         3.43786    -842.533E-03    -868.387E-03    -847.033E-03         3.42954    -855.571E-03     136.623E-03     120.281E-03    -59.9728E-03    -60.3098E-03    -60.2144E-03     120.255E-03    -60.0427E-03    -4.20527E-03    -65.6712E+06    -72.2935E+06    -251.435E+06    -72.3108E+06    -251.417E+06    -65.6712E+06     595.517E+03         29.3252
             919     942.708E-06     19.1513E-03         3.46122    -259.952E-03        -1.48602        -1.45510         3.43030    -259.952E-03    -268.730E-03     119.945E-03    -59.7752E-03    -60.1688E-03    -59.9674E-03     119.935E-03    -59.9669E-03    -2.37982E-03    -73.3666E+06    -77.0016E+06    -256.025E+06    -76.0534E+06    -255.956E+06    -74.3838E+06    -146.859E+03         29.2471
             920     15.9860E-03     18.9792E-03         3.88421    -968.436E-03        -1.17789        -1.17787         3.88419    -968.436E-03    -1.33337E-03     293.679E-03    -62.4929E-03    -231.019E-03    -94.8621E-03     157.522E-03    -62.4929E-03     460.001E-03     142.870E+06     132.535E+06    -8.60601E+06    -8.58398E+06     132.513E+06     142.870E+06     49.8028E+03         71.4639
             921     15.0493E-03     18.4298E-03         3.83835    -971.490E-03        -1.13892        -1.13888         3.83831    -971.490E-03     23.8405E-03     230.873E-03    -62.2247E-03    -168.442E-03    -81.7189E-03     144.150E-03    -62.2247E-03     323.916E-03     114.114E+06     109.466E+06    -18.3934E+06    -18.3220E+06     109.394E+06     114.114E+06     489.048E+03         66.8292
             922     14.1077E-03     18.2108E-03         3.81091    -970.534E-03        -1.11296        -1.11289         3.81084    -970.534E-03     25.9134E-03     153.038E-03    -61.8127E-03    -91.1180E-03    -67.6923E-03     129.612E-03    -61.8127E-03     137.744E-03     85.6094E+06     80.2039E+06    -26.0784E+06    -25.6403E+06     83.0686E+06     82.3067E+06     1.21380E+06         60.8169
             923     13.1761E-03     18.1111E-03         3.78416    -965.727E-03        -1.09213        -1.09193         3.78397    -965.727E-03     49.7963E-03     132.768E-03    -61.3183E-03    -71.5159E-03    -65.1013E-03     126.353E-03    -61.3183E-03     69.8800E-03     71.4692E+06     50.9023E+06    -30.5652E+06    -29.8268E+06     70.7308E+06     50.9023E+06     2.57937E+06         54.7838
             924     12.2361E-03     18.0402E-03         3.74620    -959.809E-03        -1.06441        -1.06422         3.74601    -959.809E-03     50.7347E-03     126.687E-03    -60.7771E-03    -66.0364E-03    -63.9105E-03     124.561E-03    -60.7771E-03     35.6584E-03     63.8120E+06     10.8219E+06    -35.1033E+06    -34.4888E+06     63.1976E+06     10.8219E+06     3.25481E+06         49.3949
             925     11.2974E-03     18.0133E-03         3.72283    -953.301E-03        -1.04600        -1.04594         3.72277    -953.301E-03     26.3060E-03     123.391E-03    -60.3356E-03    -63.1142E-03    -62.9119E-03     123.189E-03    -60.3356E-03     7.84068E-03     53.7144E+06    -19.0205E+06    -38.1524E+06    -37.6965E+06     53.2585E+06    -19.0205E+06     2.58429E+06         44.6510
             926     10.3583E-03     18.0046E-03         3.70631    -945.863E-03        -1.03709        -1.03694         3.70616    -945.863E-03     47.0363E-03     122.400E-03    -60.1065E-03    -62.3157E-03    -62.2957E-03     122.380E-03    -60.1065E-03    -1.56792E-03     14.1033E+06    -25.1371E+06    -40.2611E+06    -38.8110E+06     10.4218E+06    -22.9057E+06     2.03063E+06         40.5632
             927     9.41986E-03     17.9965E-03         3.67650    -938.249E-03        -1.01374        -1.01350         3.67626    -938.249E-03     63.8764E-03     121.851E-03    -59.9400E-03    -61.9459E-03    -61.8911E-03     121.796E-03    -59.9400E-03    -5.00069E-03    -23.7325E+06    -33.0084E+06    -61.1830E+06    -42.0855E+06    -52.1059E+06    -23.7325E+06     3.45840E+06         37.1465
             928     8.47876E-03     17.9948E-03         3.64631    -931.762E-03    -983.265E-03    -983.065E-03         3.64611    -931.762E-03     57.9958E-03     121.075E-03    -59.7343E-03    -61.3689E-03    -61.2388E-03     120.945E-03    -59.7343E-03    -9.20589E-03    -31.9640E+06    -46.5728E+06    -103.607E+06    -48.4035E+06    -101.776E+06    -31.9640E+06     4.44345E+06         34.4237
             929     7.53857E-03     17.9951E-03         3.61865    -926.901E-03    -958.801E-03    -958.495E-03         3.61835    -926.901E-03     72.2625E-03     120.476E-03    -59.6117E-03    -60.8861E-03    -60.7130E-03     120.303E-03    -59.6117E-03    -10.8828E-03    -32.5358E+06    -51.6517E+06    -148.254E+06    -51.8974E+06    -148.009E+06    -32.5358E+06     3.31376E+06         32.4324
             930     6.59608E-03     17.9992E-03         3.60098    -923.476E-03    -941.673E-03    -941.431E-03         3.60074    -923.476E-03     55.5541E-03     120.120E-03    -59.5091E-03    -60.6314E-03    -60.4467E-03     119.935E-03    -59.5091E-03    -11.2928E-03    -28.6600E+06    -52.6526E+06    -181.644E+06    -52.8424E+06    -181.454E+06    -28.6600E+06     3.64471E+06         31.1066
             931     5.65643E-03     18.0039E-03         3.59157    -920.737E-03    -935.558E-03    -935.199E-03         3.59121    -920.737E-03     65.4054E-03     119.437E-03    -59.3811E-03    -60.0783E-03    -59.8968E-03     119.256E-03    -59.3811E-03    -11.2704E-03    -32.1905E+06    -55.0220E+06    -202.130E+06    -55.2495E+06    -201.902E+06    -32.1905E+06     3.89550E+06         30.2581
             932     4.71304E-03     18.0105E-03         3.57844    -918.104E-03    -930.356E-03    -929.741E-03         3.57783    -918.104E-03     6.75869E-03     118.759E-03    -59.2716E-03    -59.5080E-03    -59.3351E-03     118.600E-03    -59.2859E-03    -10.5242E-03    -40.8699E+06    -58.9115E+06    -222.730E+06    -59.0219E+06    -222.620E+06    -40.8699E+06     2.19232E+06         29.7496
             933     3.77017E-03     18.0141E-03         3.57201    -915.095E-03    -928.769E-03    -927.954E-03         3.57119    -915.095E-03     18.0562E-03     118.707E-03    -59.1989E-03    -59.5201E-03    -59.3864E-03     118.587E-03    -59.2132E-03    -9.06364E-03    -49.4639E+06    -63.2400E+06    -238.317E+06    -63.2798E+06    -238.277E+06    -49.4639E+06     905.654E+03         29.4552
             934     2.82849E-03     18.0193E-03         3.57451    -908.405E-03    -939.144E-03    -937.608E-03         3.57297    -908.405E-03    -26.0694E-03     118.492E-03    -59.0937E-03    -59.4064E-03    -59.3069E-03     118.417E-03    -59.1185E-03    -7.14688E-03    -56.8447E+06    -67.0073E+06    -245.803E+06    -67.0413E+06    -245.769E+06    -56.8447E+06     671.473E+03         29.2604
             935     1.88595E-03     18.0235E-03         3.54375    -898.046E-03    -924.878E-03    -919.298E-03         3.53817    -898.046E-03     102.035E-03     118.021E-03    -58.9001E-03    -59.1253E-03    -58.8996E-03     117.985E-03    -59.0901E-03    -4.78516E-03    -63.3516E+06    -70.0535E+06    -250.483E+06    -70.0906E+06    -250.446E+06    -63.3516E+06     1.13519E+06         29.1326
             936     941.729E-06     18.0261E-03         3.51365    -422.105E-03        -1.38349        -1.36326         3.49343    -422.105E-03    -210.602E-03     118.222E-03    -58.9284E-03    -59.2936E-03    -59.1169E-03     118.211E-03    -59.0936E-03    -2.58321E-03    -69.9088E+06    -74.5674E+06    -254.268E+06    -73.6917E+06    -254.224E+06    -70.8286E+06     1.84125E+06         29.0626
             937     15.9875E-03     17.8328E-03         3.90951        -1.00434        -1.18344        -1.18344         3.90950        -1.00434     2.50931E-03     292.559E-03    -62.3323E-03    -230.127E-03    -96.8617E-03     159.294E-03    -62.3323E-03     455.587E-03     142.321E+06     131.782E+06    -9.49243E+06    -9.45854E+06     131.748E+06     142.321E+06     507.980E+03         71.1483
             938     15.0519E-03     17.3007E-03         3.88547        -1.01088        -1.15439        -1.15434         3.88542        -1.01088     26.6632E-03     229.219E-03    -61.9279E-03    -167.279E-03    -82.4158E-03     144.356E-03    -61.9279E-03     320.206E-03     113.124E+06     109.943E+06    -19.1367E+06    -19.0171E+06     109.823E+06     113.124E+06     797.348E+03         66.5077
             939     14.1177E-03     17.0709E-03         3.84928        -1.01314        -1.12023        -1.12008         3.84913        -1.01314     53.0229E-03     153.909E-03    -61.3895E-03    -92.5530E-03    -69.3660E-03     130.722E-03    -61.3895E-03     136.724E-03     84.8920E+06     79.6172E+06    -27.1834E+06    -26.8387E+06     83.1677E+06     80.9968E+06     47.8889E+03         60.4935
             940     13.1801E-03     16.9736E-03         3.82653        -1.01145        -1.10079        -1.10045         3.82620        -1.01145     78.6469E-03     133.623E-03    -60.7056E-03    -73.0968E-03    -67.5552E-03     128.082E-03    -60.7056E-03     65.0216E-03     69.3158E+06     48.3110E+06    -33.5695E+06    -32.8575E+06     68.6039E+06     48.3110E+06     1.06587E+06         54.4721
             941     12.2466E-03     16.9065E-03         3.81522        -1.00770        -1.09642        -1.09609         3.81490        -1.00770     77.5246E-03     127.173E-03    -59.9553E-03    -67.3906E-03    -65.7628E-03     125.545E-03    -59.9553E-03     29.2784E-03     63.7813E+06     13.0573E+06    -35.8487E+06    -35.1129E+06     63.0455E+06     13.0573E+06     2.65714E+06         49.1071
             942     11.3092E-03     16.8802E-03         3.80025        -1.00223        -1.08704        -1.08678         3.79998        -1.00223     68.5278E-03     123.097E-03    -59.3321E-03    -63.7989E-03    -63.6827E-03     122.981E-03    -59.3321E-03     671.287E-06     56.4465E+06    -15.4859E+06    -36.8214E+06    -36.2595E+06     55.8846E+06    -15.4859E+06     2.03768E+06         44.3895
             943     10.3712E-03     16.8731E-03         3.77337    -996.217E-03        -1.06344        -1.06320         3.77313    -996.217E-03     64.8662E-03     121.708E-03    -58.9382E-03    -62.7583E-03    -62.6543E-03     121.604E-03    -58.9382E-03    -8.13076E-03     14.0220E+06    -25.6569E+06    -40.8496E+06    -38.0508E+06     9.86216E+06    -24.2960E+06     2.42751E+06         40.3294
             944     9.43076E-03     16.8676E-03         3.74520    -991.182E-03        -1.03616        -1.03583         3.74487    -991.182E-03     75.9936E-03     120.652E-03    -58.6610E-03    -62.0037E-03    -61.7881E-03     120.436E-03    -58.6610E-03    -11.4918E-03    -22.8556E+06    -32.7683E+06    -64.2210E+06    -40.8313E+06    -56.1581E+06    -22.8556E+06     6.51703E+06         36.9436
             945     8.49110E-03     16.8671E-03         3.72903    -987.012E-03        -1.02319        -1.02290         3.72873    -987.012E-03     59.6024E-03     119.412E-03    -58.3637E-03    -61.0435E-03    -60.6840E-03     119.052E-03    -58.3637E-03    -15.6086E-03    -25.4344E+06    -41.8164E+06    -99.9951E+06    -43.9176E+06    -97.8938E+06    -25.4344E+06     7.74076E+06         34.2520
             946     7.54856E-03     16.8697E-03         3.71107    -983.306E-03        -1.00936        -1.00919         3.71091    -983.306E-03     36.2656E-03     118.332E-03    -58.1453E-03    -60.1800E-03    -59.7739E-03     117.926E-03    -58.1453E-03    -16.6681E-03    -30.2291E+06    -48.2892E+06    -144.982E+06    -48.9529E+06    -144.318E+06    -30.2291E+06     4.62942E+06         32.2743
             947     6.60749E-03     16.8733E-03         3.69861    -980.034E-03        -1.00055        -1.00040         3.69846    -980.034E-03     22.9010E-03     117.323E-03    -57.9758E-03    -59.3471E-03    -58.9513E-03     116.927E-03    -57.9758E-03    -16.4179E-03    -35.0433E+06    -53.4177E+06    -181.976E+06    -53.5193E+06    -181.875E+06    -35.0433E+06     2.70990E+06         30.9256
             948     5.66276E-03     16.8801E-03         3.69099    -976.275E-03        -1.00087        -1.00070         3.69082    -976.275E-03     28.0246E-03     116.666E-03    -57.8399E-03    -58.8310E-03    -58.4834E-03     116.319E-03    -57.8399E-03    -15.3533E-03    -37.8965E+06    -55.5649E+06    -200.467E+06    -55.7105E+06    -200.321E+06    -37.8965E+06     2.65284E+06         30.0266
             949     4.72059E-03     16.8861E-03         3.67825    -972.248E-03    -989.602E-03    -989.310E-03         3.67796    -972.248E-03    -5.01085E-03     116.223E-03    -57.7257E-03    -58.5028E-03    -58.2205E-03     115.941E-03    -57.7257E-03    -13.8368E-03    -40.7727E+06    -58.3274E+06    -220.594E+06    -58.5274E+06    -220.394E+06    -40.7727E+06     3.04233E+06         29.4735
             950     3.77692E-03     16.8918E-03         3.67085    -968.530E-03    -982.899E-03    -982.497E-03         3.67044    -968.530E-03     13.2837E-03     115.483E-03    -57.5047E-03    -57.9801E-03    -57.6452E-03     115.279E-03    -57.6351E-03    -11.7345E-03    -48.8312E+06    -63.0078E+06    -236.452E+06    -63.1292E+06    -236.331E+06    -48.8312E+06     2.23199E+06         29.1654
             951     2.83212E-03     16.8953E-03         3.66618    -958.651E-03    -987.033E-03    -981.382E-03         3.66546    -963.580E-03    -15.7749E-03     115.141E-03    -57.4611E-03    -57.6794E-03    -57.3807E-03     115.011E-03    -57.6306E-03    -9.27113E-03    -57.6143E+06    -67.2822E+06    -245.514E+06    -67.3093E+06    -245.487E+06    -57.6143E+06     648.048E+03         28.9763
             952     1.88755E-03     16.9016E-03         3.64813    -949.702E-03    -975.368E-03    -963.125E-03         3.64567    -959.484E-03     69.5435E-03     115.309E-03    -57.5085E-03    -57.7994E-03    -57.6017E-03     115.246E-03    -57.6429E-03    -6.25280E-03    -63.3517E+06    -70.2486E+06    -249.805E+06    -70.2829E+06    -249.771E+06    -63.3517E+06     775.485E+03         28.8569
             953     944.524E-06     16.9011E-03         3.64369    -596.732E-03        -1.32993        -1.31537         3.63398    -601.585E-03    -143.324E-03     115.270E-03    -57.3647E-03    -57.9034E-03    -57.7875E-03     115.249E-03    -57.4600E-03    -3.60120E-03    -68.1604E+06    -73.8021E+06    -252.411E+06    -72.6344E+06    -252.386E+06    -69.3529E+06     879.685E+03         28.7919
             954     15.9993E-03     16.7045E-03         3.91628        -1.04343        -1.16014        -1.16010         3.91624        -1.04343     22.1924E-03     291.947E-03    -62.0772E-03    -229.920E-03    -100.031E-03     162.058E-03    -62.0772E-03     451.194E-03     144.441E+06     132.075E+06    -7.85082E+06    -7.80754E+06     132.031E+06     144.441E+06     1.69659E+06         70.7483
             955     15.0616E-03     16.1664E-03         3.91165        -1.05424        -1.14819        -1.14815         3.91161        -1.05424     25.5848E-03     230.303E-03    -61.4738E-03    -168.986E-03    -84.1786E-03     145.495E-03    -61.4738E-03     321.463E-03     116.911E+06     111.219E+06    -17.2801E+06    -17.0853E+06     112.575E+06     115.360E+06     2.29189E+06         66.1040
             956     14.1232E-03     15.9344E-03         3.89764        -1.05990        -1.13451        -1.13435         3.89748        -1.05990     48.9962E-03     156.458E-03    -60.7330E-03    -95.9294E-03    -72.8653E-03     133.394E-03    -60.7330E-03     136.693E-03     85.7789E+06     79.9714E+06    -26.1873E+06    -25.7286E+06     84.1953E+06     81.0964E+06     428.739E+03         60.1003
             957     13.1938E-03     15.8326E-03         3.88965        -1.06060        -1.12204        -1.12167         3.88929        -1.06060     84.2185E-03     134.495E-03    -59.7730E-03    -75.0090E-03    -70.6209E-03     130.107E-03    -59.7730E-03     57.2281E-03     67.6215E+06     48.8723E+06    -32.8441E+06    -32.2508E+06     67.0282E+06     48.8723E+06    -188.237E+03         54.1082
             958     12.2615E-03     15.7705E-03         3.88541        -1.05869        -1.12384        -1.12354         3.88511        -1.05869     67.3861E-03     127.167E-03    -58.7573E-03    -68.6144E-03    -67.6566E-03     126.209E-03    -58.7573E-03     20.3516E-03     62.5967E+06     12.8310E+06    -36.9057E+06    -36.1404E+06     61.8314E+06     12.8310E+06     208.423E+03         48.7802
             959     11.3264E-03     15.7488E-03         3.86563        -1.05519        -1.11114        -1.11091         3.86539        -1.05519     59.6040E-03     122.732E-03    -57.9043E-03    -64.8492E-03    -64.6973E-03     122.580E-03    -57.9043E-03    -6.01751E-03     57.0776E+06    -16.7812E+06    -39.2814E+06    -38.1873E+06     55.9836E+06    -16.7812E+06     2.13717E+06         44.0988
             960     10.3870E-03     15.7442E-03         3.84703        -1.05142        -1.09352        -1.09323         3.84674        -1.05142     73.4806E-03     120.801E-03    -57.3124E-03    -63.4534E-03    -63.1322E-03     120.480E-03    -57.3124E-03    -14.9170E-03     13.0599E+06    -29.0489E+06    -44.4197E+06    -41.8691E+06     8.11116E+06    -26.6508E+06     5.05127E+06         40.0762
             961     9.44917E-03     15.7390E-03         3.84043        -1.04777        -1.08590        -1.08557         3.84010        -1.04777     78.7090E-03     119.009E-03    -56.8380E-03    -62.1435E-03    -61.6106E-03     118.476E-03    -56.8380E-03    -18.9376E-03    -28.9235E+06    -37.1550E+06    -64.6866E+06    -44.1987E+06    -57.6429E+06    -28.9235E+06     6.27492E+06         36.7327
             962     8.50695E-03     15.7437E-03         3.82905        -1.04401        -1.07682        -1.07659         3.82883        -1.04401     49.2529E-03     117.101E-03    -56.3841E-03    -60.6712E-03    -59.9363E-03     116.366E-03    -56.3841E-03    -22.5344E-03    -30.0897E+06    -41.9388E+06    -96.2468E+06    -43.4075E+06    -94.7780E+06    -30.0897E+06     6.42857E+06         34.0980
             963     7.56550E-03     15.7448E-03         3.81718        -1.04020        -1.06924        -1.06911         3.81704        -1.04020     31.0788E-03     115.441E-03    -56.0822E-03    -59.3173E-03    -58.5316E-03     114.655E-03    -56.0822E-03    -23.1087E-03    -27.8929E+06    -42.2869E+06    -142.060E+06    -43.2932E+06    -141.054E+06    -27.8929E+06     6.99604E+06         32.1525
             964     6.62031E-03     15.7535E-03         3.80628        -1.03634        -1.06105        -1.06077         3.80600        -1.03634     44.1908E-03     113.885E-03    -55.8414E-03    -58.0151E-03    -57.2531E-03     113.123E-03    -55.8414E-03    -22.5396E-03    -32.3984E+06    -47.2423E+06    -179.114E+06    -47.7058E+06    -178.650E+06    -32.3984E+06     5.89023E+06         30.7571
             965     5.67609E-03     15.7587E-03         3.79479        -1.03291        -1.04903        -1.04875         3.79452        -1.03291     46.3038E-03     112.728E-03    -55.6522E-03    -57.0514E-03    -56.4037E-03     112.081E-03    -55.6522E-03    -20.6529E-03    -39.3276E+06    -54.0646E+06    -199.138E+06    -54.2510E+06    -198.951E+06    -39.3276E+06     3.69489E+06         29.7653
             966     4.73011E-03     15.7653E-03         3.78913        -1.03017        -1.04097        -1.04082         3.78897        -1.03017     21.1124E-03     112.052E-03    -55.5349E-03    -56.4976E-03    -55.9959E-03     111.551E-03    -55.5349E-03    -18.1048E-03    -43.2777E+06    -59.3019E+06    -220.304E+06    -59.5201E+06    -220.086E+06    -43.2777E+06     3.56625E+06         29.1326
             967     3.78498E-03     15.7723E-03         3.78404        -1.02711        -1.03772        -1.03694         3.78372        -1.02757     44.8264E-03     111.351E-03    -55.3118E-03    -56.0220E-03    -55.5408E-03     111.000E-03    -55.4421E-03    -15.0539E-03    -49.2688E+06    -62.6315E+06    -232.962E+06    -62.7972E+06    -232.796E+06    -49.2688E+06     3.35093E+06         28.7912
             968     2.83820E-03     15.7788E-03         3.77328        -1.01807        -1.03195        -1.02278         3.77278        -1.02674     6.84183E-03     110.958E-03    -55.2563E-03    -55.6878E-03    -55.3309E-03     110.746E-03    -55.4011E-03    -11.6350E-03    -57.3973E+06    -66.9089E+06    -243.378E+06    -66.9802E+06    -243.306E+06    -57.3973E+06     1.70801E+06         28.6011
             969     1.89245E-03     15.7799E-03         3.78065        -1.01491        -1.03171        -1.01358         3.77932        -1.03171     56.4381E-03     110.931E-03    -55.3163E-03    -55.6080E-03    -55.4865E-03     110.824E-03    -55.3307E-03    -8.20949E-03    -65.1108E+06    -71.7517E+06    -249.870E+06    -71.7618E+06    -249.859E+06    -65.1108E+06     174.548E+03         28.4817
             970     946.360E-06     15.7843E-03         3.80823    -747.706E-03        -1.32977        -1.31593         3.80299    -756.300E-03    -110.097E-03     110.569E-03    -55.1130E-03    -55.4563E-03    -55.4178E-03     110.531E-03    -55.1130E-03    -4.52687E-03    -70.7401E+06    -75.8763E+06    -252.360E+06    -74.6900E+06    -252.354E+06    -71.9325E+06     393.585E+03         28.4148
             971     15.9980E-03     15.5606E-03         3.92971        -1.08476        -1.14633        -1.14626         3.92964        -1.08476     35.7171E-03     291.828E-03    -61.9376E-03    -229.956E-03    -103.031E-03     164.903E-03    -61.9376E-03     447.663E-03     142.781E+06     130.308E+06    -9.79913E+06    -9.76769E+06     130.276E+06     142.781E+06     331.075E+03         70.2252
             972     15.0640E-03     15.0327E-03         3.93159        -1.09963        -1.13516        -1.13507         3.93150        -1.09963     38.9344E-03     234.748E-03    -61.0404E-03    -173.838E-03    -90.7248E-03     151.635E-03    -61.0404E-03     323.004E-03     117.698E+06     111.153E+06    -16.3461E+06    -16.1652E+06     112.523E+06     116.147E+06     998.848E+03         65.5868
             973     14.1377E-03     14.7872E-03         3.95349        -1.10854        -1.15017        -1.15001         3.95333        -1.10854     51.6230E-03     160.177E-03    -59.8673E-03    -100.566E-03    -78.8038E-03     138.415E-03    -59.8673E-03     134.008E-03     88.0810E+06     82.0007E+06    -23.6631E+06    -22.9958E+06     85.7451E+06     83.6692E+06     1.75362E+06         59.6275
             974     13.2119E-03     14.6911E-03         3.96073        -1.11091        -1.15632        -1.15599         3.96040        -1.11091     80.8674E-03     134.702E-03    -58.5284E-03    -76.4967E-03    -73.1777E-03     131.383E-03    -58.5284E-03     49.7591E-03     69.1918E+06     50.5867E+06    -31.2972E+06    -30.3734E+06     68.2680E+06     50.5867E+06     485.990E+03         53.6877
             975     12.2812E-03     14.6353E-03         3.94582        -1.11060        -1.14410        -1.14385         3.94556        -1.11060     62.9898E-03     126.725E-03    -57.2524E-03    -69.6804E-03    -69.0440E-03     126.088E-03    -57.2524E-03     13.6119E-03     60.7139E+06     10.2596E+06    -37.8650E+06    -36.6374E+06     59.4863E+06     10.2596E+06     985.488E+03         48.4050
             976     11.3450E-03     14.6179E-03         3.93143        -1.10968        -1.12806        -1.12793         3.93131        -1.10968     45.4843E-03     122.657E-03    -56.1498E-03    -66.5452E-03    -66.2580E-03     122.370E-03    -56.1498E-03    -12.0632E-03     54.1062E+06    -22.2786E+06    -43.8062E+06    -42.4706E+06     52.7706E+06    -22.2786E+06     4.44061E+06         43.7698
             977     10.4101E-03     14.6145E-03         3.93221        -1.10844        -1.12545        -1.12514         3.93190        -1.10844     76.0734E-03     120.070E-03    -55.2928E-03    -64.7302E-03    -64.0968E-03     119.436E-03    -55.2928E-03    -21.3430E-03     13.1510E+06    -32.9009E+06    -48.1081E+06    -45.4328E+06     8.46695E+06    -30.8921E+06     6.82576E+06         39.7964
             978     9.46968E-03     14.6159E-03         3.93945        -1.10626        -1.13398        -1.13354         3.93902        -1.10626     91.9047E-03     117.252E-03    -54.5520E-03    -62.6394E-03    -61.6690E-03     116.282E-03    -54.5520E-03    -25.8952E-03    -32.9656E+06    -39.7464E+06    -62.8122E+06    -46.7131E+06    -53.4773E+06    -35.3338E+06        5.41E+06         36.5046
             979     8.52925E-03     14.6209E-03         3.93372        -1.10319        -1.12968        -1.12945         3.93349        -1.10319     63.2705E-03     114.378E-03    -53.8804E-03    -60.4328E-03    -59.1764E-03     113.122E-03    -53.8804E-03    -29.2833E-03    -40.2824E+06    -46.1311E+06    -96.3775E+06    -47.5092E+06    -94.9993E+06    -40.2824E+06     4.18923E+06         33.9333
             980     7.58429E-03     14.6275E-03         3.92192        -1.10022        -1.11902        -1.11885         3.92175        -1.10022     52.4296E-03     111.976E-03    -53.4245E-03    -58.5076E-03    -57.1824E-03     110.651E-03    -53.4245E-03    -29.6988E-03    -34.6624E+06    -47.6745E+06    -142.149E+06    -48.5190E+06    -141.305E+06    -34.6624E+06     7.22463E+06         32.0241
             981     6.64001E-03     14.6346E-03         3.91892        -1.09758        -1.11230        -1.11201         3.91862        -1.09758     68.7436E-03     109.890E-03    -53.0558E-03    -56.7977E-03    -55.5303E-03     108.622E-03    -53.0558E-03    -28.7416E-03    -32.9530E+06    -49.9850E+06    -174.742E+06    -50.7370E+06    -173.990E+06    -32.9530E+06     8.44797E+06         30.5831
             982     5.69269E-03     14.6450E-03         3.92027        -1.09486        -1.10955        -1.10927         3.91999        -1.09486     68.3538E-03     107.837E-03    -52.7485E-03    -55.0445E-03    -53.9794E-03     106.772E-03    -52.7485E-03    -26.0277E-03    -40.5655E+06    -53.3595E+06    -197.227E+06    -53.8304E+06    -196.756E+06    -40.5655E+06     7.19910E+06         29.4944
             983     4.74451E-03     14.6513E-03         3.91243        -1.09201        -1.10431        -1.10408         3.91220        -1.09201     16.5329E-03     106.372E-03    -52.5914E-03    -53.7426E-03    -52.9182E-03     105.548E-03    -52.5914E-03    -22.6701E-03    -46.7426E+06    -57.5871E+06    -218.427E+06    -57.8810E+06    -218.133E+06    -46.7426E+06     5.67492E+06         28.7590
             984     3.79493E-03     14.6587E-03         3.89761        -1.08503        -1.09524        -1.08944         3.89734        -1.09057     20.0135E-03     105.901E-03    -52.4933E-03    -53.3753E-03    -52.8013E-03     105.327E-03    -52.4933E-03    -18.8154E-03    -52.0320E+06    -62.9026E+06    -229.663E+06    -63.1115E+06    -229.454E+06    -52.0320E+06     4.15980E+06         28.3446
             985     2.84755E-03     14.6641E-03         3.89855        -1.08306        -1.09219        -1.08303         3.89820        -1.09187    -5.96371E-03     105.497E-03    -52.3743E-03    -53.0970E-03    -52.7594E-03     105.159E-03    -52.3743E-03    -14.3046E-03    -58.7706E+06    -67.0445E+06    -240.310E+06    -67.1753E+06    -240.179E+06    -58.7706E+06     3.30612E+06         28.1307
             986     1.89846E-03     14.6687E-03         3.90660        -1.08706        -1.09839        -1.09026         3.90549        -1.09407     53.3137E-03     104.715E-03    -52.1817E-03    -52.5243E-03    -52.2742E-03     104.553E-03    -52.2704E-03    -9.76873E-03    -66.6432E+06    -72.1659E+06    -248.457E+06    -72.2419E+06    -248.381E+06    -66.6432E+06     2.23810E+06         28.0048
             987     949.132E-06     14.6703E-03         3.91576    -899.974E-03        -1.29444        -1.28608         3.91114    -903.715E-03    -103.086E-03     104.518E-03    -52.1749E-03    -52.3440E-03    -52.1494E-03     104.464E-03    -52.3150E-03    -5.33752E-03    -72.8891E+06    -78.6760E+06    -252.220E+06    -76.7094E+06    -252.209E+06    -74.8674E+06      787.97E+03         27.9340
             988     15.9940E-03     14.4169E-03         3.96770        -1.12683        -1.15361        -1.15198         3.96763        -1.12838     35.2332E-03     293.068E-03    -61.8341E-03    -231.176E-03    -107.625E-03     169.518E-03    -61.8341E-03     444.795E-03     142.832E+06     128.224E+06    -9.77698E+06    -9.73811E+06     128.186E+06     142.832E+06    -1.50442E+06         69.5549
             989     15.0730E-03     13.8835E-03         3.97694        -1.14281        -1.15145        -1.14801         3.97680        -1.14612     50.6330E-03     237.567E-03    -60.4746E-03    -177.112E-03    -100.094E-03     160.549E-03    -60.4746E-03     316.134E-03     116.341E+06     109.443E+06    -18.2095E+06    -17.9182E+06     109.616E+06     115.877E+06     261.519E+03         64.9467
             990     14.1550E-03     13.6371E-03         3.99736        -1.14964        -1.16964        -1.16169         3.99713        -1.15737     67.3262E-03     160.908E-03    -58.8193E-03    -102.249E-03    -82.8237E-03     141.482E-03    -58.8193E-03     127.828E-03     89.5204E+06     82.7074E+06    -24.0314E+06    -23.3208E+06     87.1412E+06     84.3759E+06     2.93022E+06         59.0670
             991     13.2298E-03     13.5500E-03         4.01076        -1.14704        -1.18039        -1.16484         4.01039        -1.16223     85.7952E-03     134.494E-03    -57.1660E-03    -77.5878E-03    -74.8865E-03     131.793E-03    -57.1660E-03     44.4577E-03     70.4908E+06     47.8518E+06    -32.5207E+06    -31.1355E+06     69.1057E+06     47.8518E+06     3.17470E+06         53.1925
             992     12.2994E-03     13.4999E-03         4.01045        -1.15046        -1.17287        -1.15824         4.01010        -1.16474     83.0775E-03     127.499E-03    -55.6079E-03    -72.0823E-03    -71.5504E-03     126.967E-03    -55.6079E-03     7.63332E-03     59.1583E+06     7.58235E+06    -40.7603E+06    -39.1917E+06     57.5898E+06     7.58235E+06     4.56074E+06         47.9678
             993     11.3692E-03     13.4853E-03         4.01766        -1.16091        -1.16919        -1.16379         4.01733        -1.16599     78.2296E-03     122.734E-03    -54.2036E-03    -68.5712E-03    -68.0833E-03     122.246E-03    -54.2036E-03    -17.7823E-03     51.6948E+06    -24.5768E+06    -45.2643E+06    -43.8439E+06     50.2743E+06    -24.5768E+06     6.43331E+06         43.3961
             994     10.4319E-03     13.4879E-03         4.02656        -1.16380        -1.16942        -1.16663         4.02608        -1.16612     95.7123E-03     119.305E-03    -53.0342E-03    -66.2323E-03    -65.2370E-03     118.310E-03    -53.0342E-03    -26.8086E-03     13.5949E+06    -34.3238E+06    -48.9540E+06    -45.9629E+06     10.6038E+06    -34.3238E+06     7.04153E+06         39.4838
             995     9.49560E-03     13.4919E-03         4.02539        -1.15795        -1.17254        -1.16412         4.02490        -1.16588     100.212E-03     115.743E-03    -52.0025E-03    -63.6844E-03    -62.1939E-03     114.252E-03    -52.0025E-03    -32.2208E-03    -31.8006E+06    -38.3261E+06    -63.0879E+06    -47.6995E+06    -48.4496E+06    -37.0654E+06     6.03237E+06         36.2502
             996     8.55284E-03     13.5042E-03         4.02827        -1.15937        -1.17591        -1.16977         4.02796        -1.16520     76.3435E-03     111.809E-03    -51.0551E-03    -60.7026E-03    -58.8455E-03     109.952E-03    -51.0551E-03    -35.4648E-03    -43.4373E+06    -47.7280E+06    -97.7277E+06    -50.2354E+06    -95.2203E+06    -43.4373E+06     5.89585E+06         33.7313
             997     7.60948E-03     13.5118E-03         4.03666        -1.16332        -1.17715        -1.17660         4.03633        -1.16355     71.1723E-03     108.303E-03    -50.3252E-03    -57.9371E-03    -56.0044E-03     106.370E-03    -50.3252E-03    -35.5142E-03    -42.8506E+06    -52.3433E+06    -142.809E+06    -53.1787E+06    -141.973E+06    -42.8506E+06     7.48492E+06         31.8494
             998     6.66161E-03     13.5236E-03         4.03427        -1.16111        -1.17519        -1.17490         4.03398        -1.16111     64.6134E-03     105.156E-03    -49.7516E-03    -55.3573E-03    -53.5218E-03     103.320E-03    -49.7516E-03    -33.9844E-03    -40.4801E+06    -54.4018E+06    -172.580E+06    -55.1643E+06    -171.817E+06    -40.4801E+06     8.60594E+06         30.3892
             999     5.71287E-03     13.5352E-03         4.02248        -1.15468        -1.17156        -1.16722         4.02223        -1.15877     61.2149E-03     102.416E-03    -49.2914E-03    -53.0721E-03    -51.5082E-03     100.852E-03    -49.2914E-03    -30.8432E-03    -44.7462E+06    -57.5418E+06    -195.108E+06    -58.3294E+06    -194.320E+06    -44.7462E+06     9.34998E+06         29.2386
            1000     4.76167E-03     13.5459E-03         4.02246        -1.15247        -1.16715        -1.16230         4.02208        -1.15694     39.6489E-03     100.304E-03    -48.9531E-03    -51.3071E-03    -50.0981E-03     99.0953E-03    -48.9531E-03    -26.7772E-03    -53.0693E+06    -61.8308E+06    -214.294E+06    -62.4390E+06    -213.686E+06    -53.0693E+06     8.49756E+06         28.4035
            1001     3.81029E-03     13.5520E-03         4.02426        -1.14984        -1.16610        -1.16029         4.02391        -1.15529     37.2857E-03     98.8859E-03    -48.7494E-03    -50.0988E-03    -49.2604E-03     98.0475E-03    -48.7494E-03    -22.0368E-03    -59.3534E+06    -65.6093E+06    -226.438E+06    -65.8905E+06    -226.157E+06    -59.3534E+06     5.74474E+06         27.8739
            1002     2.85757E-03     13.5581E-03         4.01909        -1.14674        -1.16168        -1.15373         4.01880        -1.15440     12.0765E-03     98.0289E-03    -48.6603E-03    -49.3389E-03    -48.8389E-03     97.5289E-03    -48.6603E-03    -16.8459E-03    -63.6189E+06    -68.4636E+06    -238.541E+06    -68.6538E+06    -238.351E+06    -63.6189E+06     4.84283E+06         27.5872
            1003     1.90540E-03     13.5631E-03         4.01816        -1.14996        -1.15885        -1.15341         4.01730        -1.15453     57.4041E-03     97.4842E-03    -48.5256E-03    -48.9452E-03    -48.6216E-03     97.2493E-03    -48.6144E-03    -11.2560E-03    -66.4633E+06    -70.8237E+06    -243.894E+06    -70.9770E+06    -243.741E+06    -66.4633E+06     4.79007E+06         27.4406
            1004     952.205E-06     13.5658E-03         4.01727        -1.01957        -1.29281        -1.28774         4.01418        -1.02155    -72.0347E-03     97.2591E-03    -48.4073E-03    -48.8482E-03    -48.6345E-03     97.1855E-03    -48.5474E-03    -6.16098E-03    -70.4481E+06    -76.3748E+06    -248.515E+06    -74.4688E+06    -248.443E+06    -72.4263E+06     1.65531E+06         27.3639
            1005     15.9951E-03     13.2573E-03         4.01038        -1.15944        -1.17818        -1.16409         4.01032        -1.17346     31.6360E-03     295.609E-03    -61.4123E-03    -234.222E-03    -115.847E-03     177.234E-03    -61.4123E-03     441.114E-03     144.662E+06     129.030E+06    -6.95374E+06    -6.83155E+06     128.908E+06     144.662E+06     442.963E+03         68.7031
            1006     15.0902E-03     12.7215E-03         4.02707        -1.17444        -1.19289        -1.17434         4.02697        -1.19289     40.3690E-03     236.249E-03    -59.5687E-03    -176.655E-03    -104.939E-03     164.533E-03    -59.5687E-03     306.502E-03     117.356E+06     108.246E+06    -16.9824E+06    -16.3727E+06     108.100E+06     116.893E+06     1.06747E+06         64.1152
            1007     14.1727E-03     12.4927E-03         4.03583        -1.16570        -1.20589        -1.16540         4.03554        -1.20589     76.2095E-03     159.536E-03    -57.5892E-03    -102.125E-03    -84.8772E-03     142.289E-03    -57.5892E-03     119.838E-03     89.2315E+06     81.1208E+06    -25.9955E+06    -24.6726E+06     85.3626E+06     83.6668E+06     2.92405E+06         58.3665
            1008     13.2458E-03     12.4072E-03         4.04784        -1.16196        -1.21382        -1.16157         4.04744        -1.21382     89.9264E-03     134.636E-03    -55.7092E-03    -79.2570E-03    -77.1493E-03     132.529E-03    -55.7092E-03     37.8801E-03     70.0746E+06     48.0414E+06    -33.8023E+06    -32.2766E+06     68.5489E+06     48.0414E+06     6.32554E+06         52.6117
            1009     12.3234E-03     12.3592E-03         4.07310        -1.18018        -1.21920        -1.17990         4.07282        -1.21920     74.8574E-03     127.642E-03    -53.8736E-03    -73.9578E-03    -73.5229E-03     127.208E-03    -53.8736E-03     469.366E-06     58.4418E+06     7.50695E+06    -41.6226E+06    -39.8066E+06     56.6259E+06     7.50695E+06     7.57555E+06         47.4664
            1010     11.3908E-03     12.3572E-03         4.10530        -1.20076        -1.22300        -1.20129         4.10498        -1.22214     77.0545E-03     122.492E-03    -52.1850E-03    -70.3606E-03    -69.6481E-03     121.780E-03    -52.1850E-03    -22.7067E-03     52.6389E+06    -24.1427E+06    -45.6683E+06    -43.7148E+06     50.6855E+06    -24.1427E+06     7.22020E+06         42.9756
            1011     10.4583E-03     12.3597E-03         4.12149        -1.20946        -1.22425        -1.20998         4.12116        -1.22340     77.7583E-03     118.470E-03    -50.7227E-03    -67.7178E-03    -66.3694E-03     117.122E-03    -50.7227E-03    -31.2290E-03     16.2857E+06    -33.9212E+06    -49.1791E+06    -45.2786E+06     12.3852E+06    -33.9212E+06     7.52436E+06         39.1385
            1012     9.51974E-03     12.3727E-03         4.11733        -1.20389        -1.22447        -1.20360         4.11704        -1.22447     75.0126E-03     114.205E-03    -49.3842E-03    -64.7894E-03    -62.8124E-03     112.229E-03    -49.3842E-03    -37.2177E-03    -30.3909E+06    -40.0519E+06    -61.0772E+06    -48.3100E+06    -45.3910E+06    -37.8189E+06     8.54565E+06         35.9713
            1013     8.57984E-03     12.3875E-03         4.12173        -1.20384        -1.22596        -1.20360         4.12149        -1.22596     64.6331E-03     109.488E-03    -48.1273E-03    -61.3296E-03    -58.9501E-03     107.108E-03    -48.1273E-03    -39.9620E-03    -43.6026E+06    -48.4317E+06    -96.5132E+06    -51.1988E+06    -93.7462E+06    -43.6026E+06     8.42793E+06         33.5046
            1014     7.63395E-03     12.4036E-03         4.14458        -1.21808        -1.23565        -1.22708         4.14426        -1.22632     69.9926E-03     104.793E-03    -47.0701E-03    -57.6918E-03    -55.1893E-03     102.290E-03    -47.0701E-03    -39.9372E-03    -46.2022E+06    -51.7969E+06    -141.448E+06    -52.9462E+06    -140.298E+06    -46.2022E+06     8.18667E+06         31.6545
            1015     6.68604E-03     12.4175E-03         4.15899        -1.22398        -1.24465        -1.24434         4.15868        -1.22398     56.2957E-03     100.505E-03    -46.2326E-03    -54.2292E-03    -51.8212E-03     98.0966E-03    -46.2326E-03    -38.2146E-03    -44.2044E+06    -53.7818E+06    -172.881E+06    -54.6969E+06    -171.966E+06    -44.2044E+06     9.20135E+06         30.2004
            1016     5.73428E-03     12.4341E-03         4.14408        -1.21539        -1.23263        -1.22650         4.14385        -1.22129     30.5891E-03     96.9252E-03    -45.5529E-03    -51.3250E-03    -49.2554E-03     94.8556E-03    -45.5529E-03    -34.6618E-03    -43.3968E+06    -56.7378E+06    -194.151E+06    -57.7926E+06    -193.096E+06    -43.3968E+06     11.2461E+06         29.0233
            1017     4.78164E-03     12.4444E-03         4.13295        -1.21018        -1.22133        -1.20985         4.13262        -1.22133     27.2994E-03     93.8638E-03    -44.9691E-03    -48.8493E-03    -47.2686E-03     92.2831E-03    -44.9691E-03    -29.7148E-03    -52.4978E+06    -60.8730E+06    -208.381E+06    -61.6730E+06    -207.581E+06    -52.4978E+06     10.0839E+06         28.1198
            1018     3.82671E-03     12.4550E-03         4.14962        -1.21650        -1.22887        -1.22333         4.14933        -1.22175     30.1088E-03     91.3149E-03    -44.5874E-03    -46.6888E-03    -45.5959E-03     90.2221E-03    -44.5874E-03    -24.2756E-03    -61.4968E+06    -64.2845E+06    -222.551E+06    -64.7885E+06    -222.047E+06    -61.4968E+06     8.49118E+06         27.4804
            1019     2.87005E-03     12.4611E-03         4.15342        -1.21694        -1.23199        -1.22921         4.15323        -1.21952     11.9015E-03     89.7771E-03    -44.4460E-03    -45.3050E-03    -44.6406E-03     89.1127E-03    -44.4460E-03    -18.6333E-03    -64.0919E+06    -67.8445E+06    -235.435E+06    -68.1698E+06    -235.109E+06    -64.0919E+06     7.03220E+06         27.0823
            1020     1.91286E-03     12.4666E-03         4.13638        -1.20995        -1.22387        -1.21488         4.13597        -1.21852     48.3087E-03     89.2186E-03    -44.3582E-03    -44.8462E-03    -44.5226E-03     88.8951E-03    -44.3582E-03    -12.7416E-03    -66.8111E+06    -71.5909E+06    -239.253E+06    -71.7549E+06    -239.089E+06    -66.8111E+06     4.84842E+06         26.8688
            1021     957.425E-06     12.4680E-03         4.13610        -1.13750        -1.30262        -1.29508         4.13455        -1.14348    -47.8987E-03     88.7094E-03    -43.9702E-03    -44.7326E-03    -44.6257E-03     88.6025E-03    -43.9702E-03    -6.99119E-03    -70.9309E+06    -75.5383E+06    -243.269E+06    -74.8164E+06    -243.188E+06    -71.7345E+06     2.55085E+06         26.7626
            1022     16.0223E-03     12.1045E-03         4.03322        -1.16535        -1.21849        -1.16515         4.03303        -1.21849     42.9247E-03     295.235E-03    -60.6125E-03    -234.748E-03    -124.562E-03     185.050E-03    -60.6125E-03     429.444E-03     144.609E+06     130.360E+06    -7.17592E+06    -7.04131E+06     130.226E+06     144.609E+06     125.857E+03         67.6586
            1023     15.1050E-03     11.5636E-03         4.06934        -1.18645        -1.23990        -1.18617         4.06907        -1.23990     65.4836E-03     234.315E-03    -58.4205E-03    -175.856E-03    -104.781E-03     163.240E-03    -58.4205E-03     302.835E-03     117.537E+06     108.883E+06    -15.5493E+06    -14.8017E+06     108.136E+06     117.537E+06     1.69460E+06         63.0774
            1024     14.1884E-03     11.3441E-03         4.09336        -1.18322        -1.25502        -1.18271         4.09285        -1.25502     96.8239E-03     159.149E-03    -56.2708E-03    -102.981E-03    -87.4102E-03     143.578E-03    -56.2708E-03     113.005E-03     87.0374E+06     78.3497E+06    -26.4620E+06    -25.0026E+06     80.4504E+06     83.4773E+06     3.58817E+06         57.5086
            1025     13.2728E-03     11.2614E-03         4.11918        -1.19269        -1.26449        -1.19210         4.11859        -1.26449     107.754E-03     134.669E-03    -54.1626E-03    -80.8645E-03    -79.2893E-03     133.094E-03    -54.1626E-03     31.1528E-03     68.8436E+06     50.4985E+06    -34.8217E+06    -32.6913E+06     66.7132E+06     50.4985E+06     8.05485E+06         51.9413
            1026     12.3430E-03     11.2257E-03         4.15419        -1.21614        -1.27079        -1.21582         4.15387        -1.27079     80.5561E-03     125.966E-03    -52.1445E-03    -74.0009E-03    -73.6571E-03     125.623E-03    -52.1445E-03    -4.90170E-03     61.2271E+06     12.6784E+06    -40.6246E+06    -38.1646E+06     58.7671E+06     12.6784E+06     8.88869E+06         46.9044
            1027     11.4148E-03     11.2244E-03         4.18216        -1.22887        -1.27505        -1.22858         4.18187        -1.27505     76.5902E-03     121.366E-03    -50.2621E-03    -71.1702E-03    -70.3281E-03     120.524E-03    -50.2621E-03    -24.9380E-03     54.1892E+06    -23.0603E+06    -44.4577E+06    -41.6440E+06     51.3755E+06    -23.0603E+06     8.58432E+06         42.5127
            1028     10.4804E-03     11.2365E-03         4.20336        -1.24025        -1.27819        -1.24002         4.20314        -1.27819     66.4882E-03     117.415E-03    -48.5570E-03    -68.8589E-03    -67.2973E-03     115.854E-03    -48.5570E-03    -33.6008E-03     17.4592E+06    -35.3719E+06    -50.1787E+06    -45.4826E+06     12.7631E+06    -35.3719E+06     10.1111E+06         38.7672
            1029     9.54472E-03     11.2534E-03         4.22021        -1.25659        -1.28022        -1.25643         4.22005        -1.28022     54.5100E-03     112.492E-03    -46.9597E-03    -65.5208E-03    -63.2704E-03     110.242E-03    -46.9597E-03    -39.6603E-03    -27.0583E+06    -39.1496E+06    -61.8691E+06    -48.3767E+06    -42.2102E+06    -37.4901E+06     10.6718E+06         35.6807
            1030     8.60286E-03     11.2774E-03         4.22802        -1.26217        -1.28144        -1.26207         4.22793        -1.28144     33.5634E-03     107.275E-03    -45.4272E-03    -61.8247E-03    -59.1463E-03     104.596E-03    -45.4272E-03    -42.1812E-03    -39.9872E+06    -48.5288E+06    -95.1067E+06    -51.5073E+06    -91.0417E+06    -41.0737E+06     10.4185E+06         33.2805
            1031     7.65901E-03     11.2969E-03         4.23344        -1.25990        -1.28536        -1.26245         4.23338        -1.28275     30.2724E-03     101.817E-03    -44.0539E-03    -57.7444E-03    -54.8982E-03     98.9708E-03    -44.0539E-03    -42.2261E-03    -43.5004E+06    -53.1303E+06    -139.244E+06    -54.6906E+06    -137.683E+06    -43.5004E+06     10.0006E+06         31.4804
            1032     6.70927E-03     11.3197E-03         4.24682        -1.26361        -1.29375        -1.27355         4.24670        -1.28369     37.2391E-03     96.4508E-03    -42.8607E-03    -53.5620E-03    -50.8372E-03     93.7261E-03    -42.8607E-03    -40.0600E-03    -48.0675E+06    -56.5537E+06    -172.771E+06    -57.7646E+06    -171.560E+06    -48.0675E+06     9.93569E+06         30.0552
            1033     5.75698E-03     11.3377E-03         4.26428        -1.27315        -1.29810        -1.28818         4.26413        -1.28293     26.3733E-03     91.6387E-03    -41.8757E-03    -49.7254E-03    -47.3668E-03     89.2801E-03    -41.8757E-03    -36.1807E-03    -47.2616E+06    -56.9107E+06    -192.286E+06    -57.8169E+06    -191.380E+06    -47.2616E+06     10.2295E+06         28.8816
            1034     4.80083E-03     11.3537E-03         4.26703        -1.27456        -1.29170        -1.28476         4.26676        -1.28123     23.5648E-03     87.4843E-03    -41.0860E-03    -46.3547E-03    -44.5056E-03     85.6352E-03    -41.0860E-03    -31.1517E-03    -48.3349E+06    -57.2689E+06    -205.255E+06    -58.2136E+06    -204.310E+06    -48.3349E+06     11.6778E+06         27.9514
            1035     3.84254E-03     11.3646E-03         4.26153        -1.27194        -1.28392        -1.27466         4.26134        -1.28101     13.5653E-03     84.2661E-03    -40.4838E-03    -43.7422E-03    -42.4400E-03     82.9639E-03    -40.4838E-03    -25.5367E-03    -55.5793E+06    -61.5628E+06    -217.950E+06    -62.4942E+06    -217.018E+06    -55.5793E+06     11.8648E+06         27.2521
            1036     2.88324E-03     11.3743E-03         4.27479        -1.27652        -1.28671        -1.28201         4.27476        -1.28120    -9.69499E-03     81.9531E-03    -40.0539E-03    -41.8705E-03    -41.0825E-03     81.1651E-03    -40.0539E-03    -19.4397E-03    -62.6285E+06    -66.4495E+06    -229.511E+06    -66.8398E+06    -228.945E+06    -62.8040E+06     9.29595E+06         26.7657
            1037     1.92300E-03     11.3782E-03         4.28100        -1.27432        -1.29131        -1.28659         4.28076        -1.27880     15.4921E-03     80.3385E-03    -39.7789E-03    -40.5424E-03    -40.1566E-03     79.9527E-03    -39.7789E-03    -13.3376E-03    -66.2020E+06    -69.4356E+06    -234.325E+06    -69.4253E+06    -234.106E+06    -66.4318E+06     5.56206E+06         26.4630
            1038     960.919E-06     11.3829E-03         4.26598        -1.23221        -1.32202        -1.31711         4.26508        -1.23622    -58.8024E-03     79.4969E-03    -39.4670E-03    -40.0234E-03    -39.8480E-03     79.3637E-03    -39.5092E-03    -7.31282E-03    -68.7337E+06    -71.6073E+06    -237.255E+06    -70.8011E+06    -237.203E+06    -69.5917E+06     2.29369E+06         26.2998
            1039     16.0391E-03     10.9593E-03         4.03547        -1.13947        -1.26239        -1.13912         4.03512        -1.26239     68.2596E-03     293.335E-03    -59.8751E-03    -233.404E-03    -132.572E-03     192.502E-03    -59.8751E-03     413.164E-03     141.704E+06     130.022E+06    -7.96640E+06    -7.84239E+06     129.898E+06     141.704E+06    -515.767E+03         66.4699
            1040     15.1231E-03     10.4120E-03         4.09066        -1.16591        -1.28644        -1.16544         4.09020        -1.28644     96.9119E-03     236.660E-03    -57.2668E-03    -179.381E-03    -109.175E-03     166.454E-03    -57.2668E-03     303.228E-03     113.906E+06     106.312E+06    -17.1569E+06    -16.6059E+06     105.761E+06     113.906E+06     60.7202E+03         61.9701
            1041     14.2099E-03     10.1893E-03         4.15455        -1.20443        -1.30386        -1.20377         4.15389        -1.30386     113.016E-03     157.198E-03    -54.9370E-03    -102.410E-03    -88.2413E-03     143.030E-03    -54.9370E-03     106.613E-03     81.9536E+06     75.5368E+06    -28.8255E+06    -27.1328E+06     74.6641E+06     81.1336E+06     5.09267E+06         56.5761
            1042     13.2886E-03     10.1173E-03         4.20311        -1.23405        -1.31401        -1.23319         4.20225        -1.31401     134.472E-03     132.301E-03    -52.7386E-03    -79.8444E-03    -78.6267E-03     131.084E-03    -52.7386E-03     26.3898E-03     68.0200E+06     51.9124E+06    -36.3203E+06    -33.6534E+06     65.3531E+06     51.9124E+06     7.40074E+06         51.1853
            1043     12.3664E-03     10.0928E-03         4.23336        -1.24990        -1.32082        -1.24923         4.23268        -1.32082     119.161E-03     123.884E-03    -50.6462E-03    -73.3587E-03    -73.1169E-03     123.643E-03    -50.6462E-03    -5.24944E-03     62.9013E+06     14.4236E+06    -40.3007E+06    -36.9041E+06     59.5046E+06     14.4236E+06     8.79350E+06         46.2869
            1044     11.4314E-03     10.0963E-03         4.25799        -1.26255        -1.32616        -1.26205         4.25748        -1.32616     103.878E-03     119.445E-03    -48.6875E-03    -70.7934E-03    -70.0529E-03     118.704E-03    -48.6875E-03    -22.9308E-03     53.5466E+06    -22.4075E+06    -44.7982E+06    -41.3001E+06     50.0485E+06    -22.4075E+06     11.5843E+06         42.0174
            1045     10.5005E-03     10.1111E-03         4.28219        -1.27703        -1.33047        -1.27675         4.28190        -1.33047     78.8663E-03     115.700E-03    -46.8648E-03    -68.8495E-03    -67.3711E-03     114.222E-03    -46.8648E-03    -32.4881E-03     19.9673E+06    -33.0118E+06    -51.1440E+06    -44.7894E+06     13.6126E+06    -33.0118E+06     13.5106E+06         38.3823
            1046     9.56283E-03     10.1397E-03         4.31390        -1.30505        -1.33315        -1.30483         4.31368        -1.33315     64.9180E-03     110.783E-03    -45.0982E-03    -65.6780E-03    -63.5617E-03     108.667E-03    -45.0982E-03    -38.2925E-03    -22.0375E+06    -36.9229E+06    -62.3959E+06    -49.2565E+06    -38.7606E+06    -33.3392E+06     13.3263E+06         35.3951
            1047     8.62301E-03     10.1664E-03         4.33698        -1.32207        -1.33387        -1.32193         4.33684        -1.33387     44.8856E-03     105.129E-03    -43.3576E-03    -61.7428E-03    -59.2226E-03     102.609E-03    -43.3576E-03    -40.6128E-03    -34.5759E+06    -46.8272E+06    -93.6640E+06    -52.3412E+06    -87.0635E+06    -35.6623E+06     11.4883E+06         33.0816
            1048     7.67722E-03     10.1961E-03         4.32893        -1.30542        -1.33499        -1.30537         4.32888        -1.33499     30.2498E-03     99.3437E-03    -41.7316E-03    -57.5902E-03    -54.8976E-03     96.6511E-03    -41.7316E-03    -40.7252E-03    -38.6359E+06    -52.2611E+06    -137.802E+06    -54.0323E+06    -136.030E+06    -38.6359E+06     11.3455E+06         31.3536
            1049     6.72856E-03     10.2223E-03         4.32262        -1.29470        -1.33862        -1.29462         4.32254        -1.33862     37.2040E-03     93.3562E-03    -40.2172E-03    -53.1060E-03    -50.5405E-03     90.7907E-03    -40.2172E-03    -38.4048E-03    -45.0176E+06    -55.0144E+06    -168.196E+06    -56.1952E+06    -167.016E+06    -45.0176E+06     10.2758E+06         29.9843
            1050     5.77474E-03     10.2486E-03         4.35158        -1.31328        -1.35001        -1.32087         4.35144        -1.34229     36.7877E-03     87.5823E-03    -38.9023E-03    -48.6420E-03    -46.3783E-03     85.3186E-03    -38.9023E-03    -34.8073E-03    -48.3834E+06    -57.7286E+06    -190.981E+06    -58.4552E+06    -190.254E+06    -48.3834E+06     9.13430E+06         28.8465
            1051     4.81764E-03     10.2683E-03         4.38132        -1.33401        -1.36052        -1.35241         4.38111        -1.34192     40.2367E-03     82.4906E-03    -37.8208E-03    -44.6327E-03    -42.8053E-03     80.6632E-03    -37.8208E-03    -30.2121E-03    -48.2805E+06    -59.5884E+06    -206.156E+06    -60.5885E+06    -205.156E+06    -48.2805E+06     11.8172E+06         27.9299
            1052     3.85749E-03     10.2841E-03         4.37486        -1.33405        -1.35656        -1.35221         4.37472        -1.33825     25.0827E-03     78.3627E-03    -36.9204E-03    -41.4074E-03    -40.0984E-03     77.0537E-03    -36.9204E-03    -24.7996E-03    -51.2645E+06    -61.2768E+06    -212.705E+06    -62.4060E+06    -211.576E+06    -51.2645E+06     12.9929E+06         27.2213
            1053     2.89521E-03     10.2935E-03         4.36466        -1.32880        -1.34326        -1.33620         4.36464        -1.33583     7.42416E-03     75.0589E-03    -36.1875E-03    -38.8442E-03    -38.0457E-03     74.2603E-03    -36.1875E-03    -18.8075E-03    -58.7227E+06    -63.3664E+06    -222.041E+06    -63.9059E+06    -221.326E+06    -58.8982E+06     10.3948E+06         26.7031
            1054     1.93106E-03     10.3032E-03         4.38023        -1.33003        -1.34576        -1.34291         4.38021        -1.33286     2.61364E-03     72.5229E-03    -35.6784E-03    -36.8282E-03    -36.4399E-03     72.1346E-03    -35.6784E-03    -12.7126E-03    -62.7638E+06    -64.6731E+06    -226.687E+06    -64.7361E+06    -226.394E+06    -62.9937E+06     6.62886E+06         26.3534
            1055     966.055E-06     10.3054E-03         4.37919        -1.28584        -1.37475        -1.37434         4.37878        -1.28584    -70.4174E-03     71.1232E-03    -35.2982E-03    -35.8192E-03    -35.4093E-03     70.9945E-03    -35.5794E-03    -6.80957E-03    -64.6937E+06    -68.0187E+06    -230.322E+06    -66.7013E+06    -230.233E+06    -66.1002E+06     3.13688E+06         26.1501
            1056     16.0329E-03     9.78015E-03         4.05183        -1.12458        -1.30461        -1.12409         4.05135        -1.30461     95.2047E-03     290.424E-03    -59.5054E-03    -230.873E-03    -140.924E-03     200.476E-03    -59.5054E-03     393.026E-03     138.278E+06     129.472E+06    -9.07778E+06    -8.97653E+06     129.370E+06     138.278E+06     439.232E+03         65.1570
            1057     15.1419E-03     9.24966E-03         4.11561        -1.15718        -1.32971        -1.15660         4.11503        -1.32971     108.555E-03     235.257E-03    -56.3373E-03    -178.959E-03    -115.907E-03     172.205E-03    -56.3373E-03     291.494E-03     109.439E+06     103.152E+06    -22.0371E+06    -21.1564E+06     102.271E+06     109.439E+06     2.47962E+06         60.8002
            1058     14.2298E-03     9.04135E-03         4.19049        -1.20744        -1.34839        -1.20679         4.18983        -1.34839     116.065E-03     153.151E-03    -53.8138E-03    -99.5346E-03    -85.5064E-03     139.123E-03    -53.8138E-03     105.408E-03     81.8151E+06     75.0018E+06    -33.2575E+06    -30.6263E+06     74.9075E+06     79.2782E+06     4.18704E+06         55.5890
            1059     13.3065E-03     8.97910E-03         4.25626        -1.25315        -1.35994        -1.25248         4.25559        -1.35994     116.268E-03     128.218E-03    -51.7595E-03    -76.6626E-03    -75.3054E-03     126.860E-03    -51.7595E-03     28.4120E-03     65.2869E+06     49.0448E+06    -38.7477E+06    -35.1730E+06     61.7122E+06     49.0448E+06     5.28162E+06         50.3699
            1060     12.3730E-03     8.96198E-03         4.30335        -1.27944        -1.36791        -1.27892         4.30282        -1.36791     96.8529E-03     121.452E-03    -49.7984E-03    -71.7419E-03    -71.5740E-03     121.284E-03    -49.7984E-03     276.048E-06     58.9735E+06     13.6969E+06    -44.0499E+06    -40.4159E+06     55.3395E+06     13.6969E+06     10.0894E+06         45.6278
            1061     11.4460E-03     8.97027E-03         4.34061        -1.29995        -1.37413        -1.29961         4.34028        -1.37413     76.9217E-03     117.377E-03    -47.8931E-03    -69.4973E-03    -69.1055E-03     116.986E-03    -47.8931E-03    -15.3815E-03     52.4701E+06    -18.2948E+06    -49.6292E+06    -44.9567E+06     47.7977E+06    -18.2948E+06     14.5996E+06         41.5019
            1062     10.5087E-03     8.99182E-03         4.36800        -1.31612        -1.37915        -1.31594         4.36782        -1.37915     63.1213E-03     113.359E-03    -46.0545E-03    -67.2989E-03    -66.3426E-03     112.403E-03    -46.0545E-03    -25.1350E-03     23.2022E+06    -31.7877E+06    -57.1884E+06    -49.5357E+06     15.5495E+06    -31.7877E+06     16.2185E+06         37.9982
            1063     9.57332E-03     9.02314E-03         4.38888        -1.33109        -1.38325        -1.33083         4.38863        -1.38325     74.0992E-03     108.847E-03    -44.2691E-03    -64.5638E-03    -63.1218E-03     107.405E-03    -44.2691E-03    -31.0112E-03    -13.9453E+06    -35.8356E+06    -63.1993E+06    -50.4649E+06    -32.7735E+06    -29.7418E+06     13.0589E+06         35.1312
            1064     8.63156E-03     9.06049E-03         4.40969        -1.34618        -1.38645        -1.34597         4.40948        -1.38645     65.9251E-03     103.482E-03    -42.4798E-03    -60.9489E-03    -59.2145E-03     101.747E-03    -42.4798E-03    -33.1058E-03    -27.8511E+06    -44.6076E+06    -90.3729E+06    -50.3646E+06    -84.6160E+06    -27.8511E+06     10.8704E+06         32.9277
            1065     7.68741E-03     9.09512E-03         4.43053        -1.35916        -1.38878        -1.35906         4.43043        -1.38878     45.8037E-03     97.7877E-03    -40.7186E-03    -57.0188E-03    -55.1349E-03     95.9037E-03    -40.7186E-03    -33.5192E-03    -31.0446E+06    -50.5739E+06    -135.679E+06    -52.0540E+06    -134.199E+06    -31.0446E+06     10.3277E+06         31.2987
            1066     6.73805E-03     9.13024E-03         4.44049        -1.36072        -1.39111        -1.36060         4.44037        -1.39111     45.5087E-03     91.8383E-03    -38.9967E-03    -52.7915E-03    -50.9671E-03     90.0139E-03    -38.9967E-03    -31.9076E-03    -36.7256E+06    -52.6774E+06    -164.850E+06    -53.6836E+06    -163.844E+06    -36.7256E+06     10.4800E+06         30.0152
            1067     5.78528E-03     9.16038E-03         4.44599        -1.35914        -1.39476        -1.35905         4.44591        -1.39476     28.3139E-03     85.8391E-03    -37.4042E-03    -48.3882E-03    -46.7398E-03     84.1907E-03    -37.4042E-03    -29.2500E-03    -40.7765E+06    -56.4659E+06    -190.020E+06    -57.4227E+06    -189.063E+06    -40.7765E+06     10.9729E+06         28.9474
            1068     4.82799E-03     9.18787E-03         4.46690        -1.37357        -1.40627        -1.38166         4.46686        -1.39814     10.7178E-03     80.0635E-03    -35.9611E-03    -44.0628E-03    -42.7144E-03     78.7151E-03    -35.9611E-03    -25.4640E-03    -46.2467E+06    -59.9149E+06    -205.085E+06    -60.7448E+06    -204.255E+06    -46.2467E+06     10.5251E+06         28.0825
            1069     3.86717E-03     9.20660E-03         4.48295        -1.38942        -1.41343        -1.40497         4.48294        -1.39787     976.965E-06     74.9059E-03    -34.7240E-03    -40.1521E-03    -39.1749E-03     73.9287E-03    -34.7240E-03    -20.8935E-03    -48.8241E+06    -59.2717E+06    -207.949E+06    -59.9871E+06    -207.234E+06    -48.8241E+06     9.76229E+06         27.4058
            1070     2.90317E-03     9.22241E-03         4.47895        -1.39051        -1.40974        -1.40591         4.47876        -1.39415     38.6975E-03     70.7142E-03    -33.7653E-03    -36.9294E-03    -36.3004E-03     70.0853E-03    -33.7653E-03    -16.2138E-03    -47.9769E+06    -58.2504E+06    -215.215E+06    -58.7584E+06    -214.707E+06    -47.9769E+06     8.63586E+06         26.9015
            1071     1.93676E-03     9.23086E-03         4.46962        -1.38449        -1.40322        -1.39819         4.46942        -1.38931     31.1829E-03     67.4816E-03    -33.0521E-03    -34.4198E-03    -34.1022E-03     67.1640E-03    -33.0521E-03    -11.0313E-03    -52.2662E+06    -60.0973E+06    -218.212E+06    -60.3653E+06    -217.944E+06    -52.2662E+06     6.14720E+06         26.5535
            1072     968.690E-06     9.23851E-03         4.45940        -1.35666        -1.41694        -1.40152         4.45911        -1.37179    -65.9492E-03     65.5995E-03    -32.3691E-03    -33.2278E-03    -32.8931E-03     65.5039E-03    -32.6082E-03    -5.46310E-03    -58.5303E+06    -64.3916E+06    -223.604E+06    -63.1389E+06    -223.505E+06    -59.8823E+06     3.94071E+06         26.3457
            1073     16.0394E-03     8.55488E-03         4.09317        -1.14085        -1.34491        -1.14005         4.09237        -1.34491     128.486E-03     287.761E-03    -59.3453E-03    -228.526E-03    -148.921E-03     208.156E-03    -59.3453E-03     372.384E-03     136.967E+06     126.965E+06    -12.3703E+06    -12.0977E+06     126.692E+06     136.967E+06     3.52276E+06         63.6320
            1074     15.1574E-03     8.09380E-03         4.16759        -1.18419        -1.36902        -1.18325         4.16665        -1.36902     140.115E-03     225.287E-03    -55.8880E-03    -169.425E-03    -113.334E-03     169.196E-03    -55.8880E-03     273.085E-03     109.990E+06     104.889E+06    -24.3754E+06    -23.3099E+06     103.824E+06     109.990E+06     4.58987E+06         59.4767
            1075     14.2347E-03     7.89882E-03         4.24328        -1.22934        -1.38713        -1.22838         4.24232        -1.38713     142.589E-03     150.611E-03    -53.5280E-03    -97.0463E-03    -80.5785E-03     134.143E-03    -53.5280E-03     114.638E-03     82.5030E+06     77.1249E+06    -32.4231E+06    -28.6049E+06     76.2318E+06     79.5778E+06     5.96214E+06         54.5310
            1076     13.3048E-03     7.84661E-03         4.31106        -1.27288        -1.39928        -1.27237         4.31055        -1.39928     100.475E-03     126.130E-03    -51.7481E-03    -74.4639E-03    -72.0859E-03     123.752E-03    -51.7481E-03     39.5846E-03     62.7219E+06     44.9367E+06    -44.0722E+06    -39.3788E+06     58.0285E+06     44.9367E+06     7.36429E+06         49.5171
            1077     12.3766E-03     7.83287E-03         4.36703        -1.30239        -1.40825        -1.30215         4.36680        -1.40825     69.3397E-03     118.955E-03    -50.0447E-03    -68.9967E-03    -68.5417E-03     118.500E-03    -50.0447E-03     13.6565E-03     54.2180E+06     11.3037E+06    -50.3989E+06    -45.9721E+06     49.7913E+06     11.3037E+06     10.9673E+06         44.9448
            1078     11.4383E-03     7.84553E-03         4.40833        -1.32109        -1.41581        -1.32094         4.40817        -1.41581     49.5462E-03     115.077E-03    -48.4041E-03    -66.6671E-03    -66.4862E-03     114.897E-03    -48.4041E-03    -729.917E-06     49.3500E+06    -13.2494E+06    -55.5424E+06    -50.0551E+06     43.8626E+06    -13.2494E+06     16.2722E+06         40.9804
            1079     10.5061E-03     7.87239E-03         4.43604        -1.33989        -1.42247        -1.33981         4.43596        -1.42247     38.6520E-03     111.015E-03    -46.7865E-03    -64.2022E-03    -63.9155E-03     110.729E-03    -46.7865E-03    -9.55580E-03     28.0238E+06    -22.2252E+06    -55.4385E+06    -51.0723E+06     23.6576E+06    -22.2252E+06     14.2994E+06         37.6289
            1080     9.56530E-03     7.91141E-03         4.45630        -1.35345        -1.42854        -1.35333         4.45617        -1.42854     41.6703E-03     107.004E-03    -45.2192E-03    -61.7948E-03    -61.3023E-03     106.512E-03    -45.2192E-03    -13.9761E-03    -6.28722E+06    -34.3965E+06    -58.9435E+06    -50.1488E+06    -27.4875E+06    -21.9909E+06     8.97563E+06         34.9052
            1081     8.62535E-03     7.95332E-03         4.48272        -1.36843        -1.43430        -1.36834         4.48263        -1.43430     28.9891E-03     103.022E-03    -43.6150E-03    -59.3940E-03    -58.7871E-03     102.415E-03    -43.6150E-03    -16.1988E-03    -18.0546E+06    -46.0521E+06    -88.6433E+06    -49.6629E+06    -85.0325E+06    -18.0546E+06     8.12382E+06         32.8380
            1082     7.68040E-03     7.99584E-03         4.52742        -1.40375        -1.43843        -1.40365         4.52732        -1.43843     16.4992E-03     98.3865E-03    -41.9087E-03    -56.4540E-03    -55.7783E-03     97.7107E-03    -41.9087E-03    -16.9455E-03    -18.8528E+06    -49.7726E+06    -133.132E+06    -50.7690E+06    -132.135E+06    -18.8528E+06     8.60433E+06         31.3394
            1083     6.73319E-03     8.03559E-03         4.55216        -1.42495        -1.44004        -1.42476         4.55197        -1.44004     4.70318E-03     93.3080E-03    -40.1265E-03    -53.1544E-03    -52.4710E-03     92.6246E-03    -40.1265E-03    -17.1320E-03    -24.7935E+06    -51.8169E+06    -164.439E+06    -52.5285E+06    -163.728E+06    -24.7935E+06     8.54985E+06         30.1780
            1084     5.78168E-03     8.07463E-03         4.54701        -1.41620        -1.44169        -1.41604         4.54685        -1.44169     23.0859E-03     87.7965E-03    -38.3630E-03    -49.4063E-03    -48.7591E-03     87.1494E-03    -38.3630E-03    -16.5252E-03    -27.0886E+06    -51.8171E+06    -188.322E+06    -52.4952E+06    -187.644E+06    -27.0886E+06     9.06664E+06         29.2187
            1085     4.82682E-03     8.10646E-03         4.54946        -1.41355        -1.44565        -1.41346         4.54937        -1.44565     15.6465E-03     82.0006E-03    -36.6557E-03    -45.3162E-03    -44.7563E-03     81.4407E-03    -36.6557E-03    -15.1773E-03    -28.8520E+06    -51.5433E+06    -199.792E+06    -52.0018E+06    -199.334E+06    -28.8520E+06     7.14683E+06         28.4438
            1086     3.86741E-03     8.13305E-03         4.56961        -1.42745        -1.45065        -1.42736         4.56952        -1.45065    -21.4856E-03     76.2344E-03    -35.0960E-03    -41.1154E-03    -40.6864E-03     75.8054E-03    -35.0960E-03    -12.9881E-03    -34.0626E+06    -51.5237E+06    -204.682E+06    -51.6851E+06    -204.521E+06    -34.0626E+06     4.18637E+06         27.8362
            1087     2.90440E-03     8.15130E-03         4.59613        -1.44083        -1.46159        -1.44878         4.59592        -1.45343     17.1956E-03     71.2277E-03    -33.8232E-03    -37.3904E-03    -37.0918E-03     70.9290E-03    -33.8232E-03    -10.5620E-03    -35.6023E+06    -50.3268E+06    -210.951E+06    -50.5086E+06    -210.770E+06    -35.6023E+06     2.66716E+06         27.3796
            1088     1.93819E-03     8.16631E-03         4.59999        -1.43895        -1.46378        -1.44691         4.59978        -1.45561     29.3851E-03     67.3780E-03    -32.8765E-03    -34.4967E-03    -34.3347E-03     67.2159E-03    -32.8765E-03    -7.45055E-03    -36.7029E+06    -49.9526E+06    -213.124E+06    -50.0958E+06    -212.981E+06    -36.7029E+06     2.32068E+06         27.0608
            1089     969.319E-06     8.17264E-03         4.62039        -1.43773        -1.47675        -1.45224         4.62019        -1.46203    -28.8605E-03     64.9210E-03    -32.0592E-03    -32.8617E-03    -32.8155E-03     64.8749E-03    -32.0592E-03    -3.40417E-03    -45.0722E+06    -53.0344E+06    -218.084E+06    -53.0878E+06    -218.030E+06    -45.0722E+06     2.34704E+06         26.8689
            1090     16.0479E-03     7.32924E-03         4.11255        -1.13986        -1.38165        -1.13855         4.11124        -1.38165     162.089E-03     282.542E-03    -59.7189E-03    -222.898E-03    -149.485E-03     209.129E-03    -59.7189E-03     354.784E-03     137.552E+06     126.438E+06    -9.75846E+06    -9.45500E+06     126.134E+06     137.552E+06     5.16241E+06         61.8953
            1091     15.1473E-03     6.94191E-03         4.21896        -1.20762        -1.40427        -1.20609         4.21743        -1.40427     179.425E-03     216.198E-03    -56.5118E-03    -159.631E-03    -103.843E-03     160.410E-03    -56.5118E-03     265.849E-03     111.810E+06     104.750E+06    -17.9496E+06    -15.9175E+06     102.718E+06     111.810E+06     7.92571E+06         58.0630
            1092     14.2182E-03     6.76191E-03         4.31028        -1.25918        -1.42126        -1.25795         4.30905        -1.42126     165.141E-03     151.260E-03    -54.6313E-03    -96.5059E-03    -76.2154E-03     130.970E-03    -54.6313E-03     129.095E-03     81.7802E+06     76.6440E+06    -32.6130E+06    -28.2833E+06     73.8147E+06     80.2798E+06      9.6913E+06         53.4309
            1093     13.2898E-03     6.71075E-03         4.36947        -1.29322        -1.43354        -1.29246         4.36871        -1.43354     126.856E-03     125.656E-03    -53.2598E-03    -72.4270E-03    -67.7398E-03     120.969E-03    -53.2598E-03     57.5274E-03     63.5990E+06     49.1856E+06    -44.1719E+06    -37.4431E+06     56.8701E+06     49.1856E+06     12.3288E+06         48.6300
            1094     12.3509E-03     6.71181E-03         4.41547        -1.31899        -1.44355        -1.31859         4.41506        -1.44355     95.0852E-03     118.245E-03    -51.9839E-03    -66.3129E-03    -64.3169E-03     116.249E-03    -51.9839E-03     35.3257E-03     53.8972E+06     15.0664E+06    -55.8847E+06    -49.0241E+06     47.0366E+06     15.0664E+06     15.0611E+06         44.2509
            1095     11.4169E-03     6.72117E-03         4.45976        -1.34008        -1.45249        -1.33987         4.45956        -1.45249     58.4656E-03     113.115E-03    -50.8641E-03    -62.2549E-03    -61.2078E-03     112.068E-03    -50.8641E-03     22.2748E-03     49.9043E+06    -2.56287E+06    -55.9900E+06    -52.9108E+06     46.8252E+06    -2.56287E+06     11.9242E+06         40.4725
            1096     10.4745E-03     6.75905E-03         4.50259        -1.37207        -1.46014        -1.37204         4.50256        -1.46014     25.0004E-03     109.572E-03    -49.8632E-03    -59.7096E-03    -58.9135E-03     108.776E-03    -49.8632E-03     16.3780E-03     33.6190E+06    -4.24308E+06    -51.4839E+06    -49.4969E+06     31.6320E+06    -4.24308E+06     7.10828E+06         37.2930
            1097     9.53421E-03     6.79757E-03         4.54094        -1.40008        -1.46617        -1.40004         4.54090        -1.46617     539.172E-06     107.722E-03    -48.8766E-03    -58.8757E-03    -58.1453E-03     106.992E-03    -48.8766E-03     14.2642E-03     7.02592E+06    -25.1977E+06    -59.4120E+06    -47.4353E+06    -25.8617E+06    -4.28681E+06     3.26895E+06         34.7338
            1098     8.59092E-03     6.84640E-03         4.56886        -1.41448        -1.47129        -1.41439         4.56877        -1.47129    -30.2077E-03     106.038E-03    -47.7541E-03    -58.3106E-03    -57.6726E-03     105.400E-03    -47.7541E-03     11.9293E-03    -2.18403E+06    -45.6205E+06    -89.8004E+06    -46.8730E+06    -88.5478E+06    -2.18403E+06     3.28007E+06         32.8331
            1099     7.64844E-03     6.89190E-03         4.58493        -1.42605        -1.47625        -1.42595         4.58483        -1.47625    -37.3394E-03     103.813E-03    -46.3956E-03    -57.4354E-03    -56.8940E-03     103.272E-03    -46.3956E-03     10.1418E-03    -181.935E+03    -46.5375E+06    -131.112E+06    -47.0309E+06    -130.618E+06    -181.935E+03     4.08665E+06         31.5052
            1100     6.70391E-03     6.93838E-03         4.61003        -1.44401        -1.48063        -1.44391         4.60993        -1.48063    -43.7971E-03     100.555E-03    -44.7982E-03    -55.7619E-03    -55.3282E-03     100.121E-03    -44.7982E-03     7.62590E-03    -3.19337E+06    -46.3829E+06    -163.604E+06    -46.5720E+06    -163.415E+06    -3.19337E+06     2.23235E+06         30.5115
            1101     5.75726E-03     6.98132E-03         4.63886        -1.45614        -1.48411        -1.45603         4.63875        -1.48411    -1.41045E-03     96.2240E-03    -43.0307E-03    -53.1951E-03    -52.8698E-03     95.8987E-03    -43.0307E-03     5.13927E-03    -7.43602E+06    -45.0155E+06    -185.960E+06    -45.2558E+06    -185.720E+06    -7.43602E+06     741.844E+03         29.7102
            1102     4.80693E-03     7.02031E-03         4.65135        -1.46110        -1.48771        -1.46100         4.65125        -1.48771    -3.74874E-03     90.9918E-03    -41.2001E-03    -49.7895E-03    -49.5649E-03     90.7672E-03    -41.2001E-03     2.60621E-03    -8.82804E+06    -43.4885E+06    -197.113E+06    -43.6416E+06    -196.960E+06    -8.82804E+06    -581.047E+03         29.0712
            1103     3.85309E-03     7.05196E-03         4.66419        -1.47276        -1.49228        -1.47346         4.66406        -1.49145    -27.9648E-03     85.1344E-03    -39.4036E-03    -45.7283E-03    -45.5847E-03     84.9908E-03    -39.4036E-03     779.312E-06    -16.5746E+06    -43.0683E+06    -202.083E+06    -43.1496E+06    -202.002E+06    -16.5746E+06    -1.39048E+06         28.5663
            1104     2.89434E-03     7.07811E-03         4.67462        -1.47937        -1.49627        -1.47993         4.67435        -1.49544    -38.3999E-03     79.5555E-03    -37.7961E-03    -41.7580E-03    -41.6709E-03     79.4684E-03    -37.7961E-03    -389.815E-06    -27.7029E+06    -43.9136E+06    -209.017E+06    -44.0276E+06    -208.903E+06    -27.7029E+06    -3.50011E+06         28.1819
            1105     1.93178E-03     7.09522E-03         4.67735        -1.47611        -1.50473        -1.47585         4.67709        -1.50473    -44.3339E-03     75.1336E-03    -36.5029E-03    -38.6309E-03    -38.5884E-03     75.0911E-03    -36.5029E-03    -918.832E-06    -34.7976E+06    -45.7437E+06    -214.904E+06    -45.9348E+06    -214.713E+06    -34.7976E+06    -3.97614E+06         27.9118
            1106     967.493E-06     7.10699E-03         4.73377        -1.49066        -1.53309        -1.51383         4.73337        -1.50951     41.7728E-03     71.7987E-03    -35.5029E-03    -36.2954E-03    -36.2559E-03     71.7871E-03    -35.5308E-03    -287.114E-06    -40.6180E+06    -45.9183E+06    -216.305E+06    -46.0483E+06    -216.175E+06    -40.6180E+06    -1.19204E+06         27.7486
            1107     16.0228E-03     6.12168E-03         4.14084        -1.14524        -1.41287        -1.14245         4.13804        -1.41287     234.469E-03     270.213E-03    -61.3929E-03    -208.782E-03    -138.151E-03     199.581E-03    -61.3929E-03     337.353E-03     136.118E+06     122.780E+06    -8.44157E+06    -7.67446E+06     122.013E+06     136.118E+06     7.64001E+06         60.2272
            1108     15.1076E-03     5.78700E-03         4.27285        -1.22812        -1.43354        -1.22576         4.27048        -1.43354     215.235E-03     213.135E-03    -58.8062E-03    -154.303E-03    -96.3401E-03     155.172E-03    -58.8062E-03     266.498E-03     109.849E+06     99.4629E+06    -19.5620E+06    -17.4520E+06     97.3529E+06     109.849E+06     10.0803E+06         56.6934
            1109     14.1835E-03     5.61794E-03         4.36314        -1.27297        -1.44954        -1.27206         4.36223        -1.44954     139.256E-03     153.289E-03    -57.4094E-03    -95.8313E-03    -72.2491E-03     129.707E-03    -57.4094E-03     141.842E-03     82.2233E+06     74.1205E+06    -32.5048E+06    -24.8814E+06     68.2994E+06     80.4210E+06     15.0748E+06         52.2917
            1110     13.2409E-03     5.59118E-03         4.42422        -1.30240        -1.46234        -1.30187         4.42369        -1.46234     94.4467E-03     126.552E-03    -56.6086E-03    -69.9958E-03    -61.7049E-03     118.261E-03    -56.6086E-03     77.8305E-03     66.4135E+06     54.2756E+06    -50.0134E+06    -40.1113E+06     56.5114E+06     54.2756E+06     19.8469E+06         47.7253
            1111     12.3044E-03     5.57932E-03         4.47613        -1.33601        -1.47341        -1.33578         4.47590        -1.47341     49.7573E-03     118.213E-03    -55.1454E-03    -63.1020E-03    -57.0030E-03     113.079E-03    -56.1103E-03     58.4217E-03     60.1070E+06     32.8799E+06    -52.0278E+06    -47.4395E+06     55.5187E+06     32.8799E+06     13.7725E+06         43.5846
            1112     11.3592E-03     5.61038E-03         4.52462        -1.36765        -1.48307        -1.36755         4.52453        -1.48307     29.0538E-03     113.270E-03    -53.9167E-03    -59.3699E-03    -53.4543E-03     109.276E-03    -55.8383E-03     49.4778E-03     57.5817E+06     15.6989E+06    -47.7995E+06    -46.5281E+06     56.3103E+06     15.6989E+06     3.82534E+06         40.0180
            1113     10.4129E-03     5.64172E-03         4.57819        -1.40881        -1.49084        -1.40875         4.57813        -1.49084    -1.30101E-03     112.107E-03    -53.7698E-03    -58.3520E-03    -52.6380E-03     108.398E-03    -55.7750E-03     47.1617E-03     41.7185E+06     3.47167E+06    -46.0663E+06    -45.1105E+06     33.5114E+06     10.7230E+06    -1.91626E+06         37.0301
            1114     9.46709E-03     5.68640E-03         4.60920        -1.43079        -1.49691        -1.43072         4.60913        -1.49691    -16.1835E-03     113.400E-03    -54.5644E-03    -58.8550E-03    -54.2080E-03     109.927E-03    -55.7387E-03     45.9892E-03     19.8300E+06    -22.5662E+06    -58.1732E+06    -44.3278E+06    -30.4074E+06     13.8258E+06    -3.38940E+06         34.6519
            1115     8.52442E-03     5.73183E-03         4.61978        -1.43738        -1.50265        -1.43727         4.61967        -1.50265    -12.5773E-03     115.029E-03    -55.3210E-03    -59.7118E-03    -56.4643E-03     111.907E-03    -55.4467E-03     44.0738E-03     15.3821E+06    -42.6311E+06    -92.0008E+06    -44.1883E+06    -90.4436E+06     15.3821E+06    -4.63138E+06         32.9326
            1116     7.58347E-03     5.78112E-03         4.63111        -1.43989        -1.50923        -1.43975         4.63098        -1.50923     353.951E-06     115.792E-03    -54.8059E-03    -60.9856E-03    -58.2704E-03     113.077E-03    -54.8059E-03     41.3451E-03     18.9419E+06    -40.3644E+06    -132.434E+06    -41.2886E+06    -131.509E+06     18.9419E+06    -6.53702E+06         31.8189
            1117     6.64364E-03     5.82763E-03         4.66425        -1.45824        -1.51621        -1.45817         4.66419        -1.51621     9.75589E-03     115.248E-03    -53.7738E-03    -61.4752E-03    -59.2365E-03     113.009E-03    -53.7738E-03     37.4061E-03     17.1822E+06    -38.7812E+06    -164.869E+06    -39.3812E+06    -164.269E+06     17.1822E+06    -6.91190E+06         31.0849
            1118     5.70370E-03     5.87551E-03         4.70545        -1.48703        -1.52173        -1.48701         4.70542        -1.52173     13.7674E-03     112.938E-03    -52.3508E-03    -60.5913E-03    -58.8979E-03     111.244E-03    -52.3508E-03     32.1065E-03     5.47320E+06    -39.8910E+06    -186.092E+06    -40.4068E+06    -185.576E+06     5.47320E+06    -8.07024E+06         30.5269
            1119     4.76200E-03     5.91876E-03         4.73080        -1.50468        -1.52525        -1.50464         4.73075        -1.52525    -3.85859E-03     109.025E-03    -50.6954E-03    -58.3338E-03    -57.1398E-03     107.831E-03    -50.6954E-03     26.1593E-03    -6.79031E+06    -42.0346E+06    -198.079E+06    -42.5583E+06    -197.555E+06    -6.79031E+06    -8.38276E+06         30.0630
            1120     3.81683E-03     5.95850E-03         4.74447        -1.51980        -1.52900        -1.52210         4.74441        -1.52663    -10.2713E-03     104.113E-03    -48.9338E-03    -55.1836E-03    -54.4452E-03     103.374E-03    -48.9338E-03     19.7877E-03    -17.9633E+06    -44.0031E+06    -202.742E+06    -44.4674E+06    -202.278E+06    -17.9633E+06    -7.83566E+06         29.6793
            1121     2.86780E-03     5.98941E-03         4.74390        -1.52070        -1.53496        -1.52994         4.74364        -1.52545    -40.1742E-03     98.6585E-03    -47.2138E-03    -51.4474E-03    -51.0539E-03     98.2650E-03    -47.2138E-03     13.8386E-03    -30.2977E+06    -45.9040E+06    -210.947E+06    -46.2435E+06    -210.608E+06    -30.2977E+06    -7.23439E+06         29.3858
            1122     1.91533E-03     6.01251E-03         4.73767        -1.50842        -1.54249        -1.52779         4.73740        -1.52286    -62.5580E-03     93.7673E-03    -45.7779E-03    -47.9878E-03    -47.8031E-03     93.5827E-03    -45.7779E-03     8.85992E-03    -41.6668E+06    -48.8243E+06    -219.660E+06    -49.1109E+06    -219.374E+06    -41.6668E+06    -6.57033E+06         29.1806
            1123     958.485E-06     6.02762E-03         4.71671        -1.50265        -1.54072        -1.52361         4.71630        -1.51935     44.2189E-03     90.2438E-03    -44.6664E-03    -45.5754E-03    -45.4876E-03     90.1840E-03    -44.6943E-03     4.61234E-03    -47.8972E+06    -50.6814E+06    -223.111E+06    -50.8845E+06    -222.908E+06    -47.8972E+06    -4.14884E+06         29.0555
            1124     15.9604E-03     4.92483E-03         4.21929        -1.18029        -1.43752        -1.17549         4.21449        -1.43752     317.115E-03     259.621E-03    -64.6696E-03    -194.790E-03    -119.987E-03     184.818E-03    -64.6696E-03     335.392E-03     131.639E+06     113.697E+06    -5.97341E+06    -5.23072E+06     112.955E+06     131.639E+06     6.90625E+06         58.8390
            1125     15.0492E-03     4.61031E-03         4.34974        -1.25383        -1.45547        -1.25120         4.34711        -1.45547     226.100E-03     214.605E-03    -62.7242E-03    -151.840E-03    -96.0297E-03     158.795E-03    -62.7242E-03     261.187E-03     105.893E+06     89.5981E+06    -21.5367E+06    -14.3156E+06     83.7228E+06     104.547E+06     17.7734E+06         55.4402
            1126     14.1140E-03     4.49185E-03         4.43471        -1.29627        -1.46965        -1.29573         4.43417        -1.46965     96.3242E-03     153.564E-03    -61.6290E-03    -91.8978E-03    -69.5047E-03     131.171E-03    -61.6290E-03     138.923E-03     85.6132E+06     75.2264E+06    -45.2205E+06    -32.7479E+06     69.2844E+06     79.0827E+06     25.3475E+06         51.2048
            1127     13.1779E-03     4.45592E-03         4.48995        -1.32016        -1.48182        -1.32007         4.48986        -1.48182     24.2750E-03     125.587E-03    -58.3984E-03    -67.2283E-03    -53.6067E-03     115.118E-03    -61.5503E-03     86.3608E-03     76.2785E+06     61.5294E+06    -45.0082E+06    -38.6416E+06     66.7033E+06     64.7382E+06     15.8601E+06         46.9066
            1128     12.2265E-03     4.46923E-03         4.53692        -1.34899        -1.49323        -1.34888         4.53681        -1.49323    -29.4470E-03     117.590E-03    -54.2897E-03    -63.3085E-03    -47.2156E-03     109.341E-03    -62.1332E-03     73.3278E-03     71.7489E+06     47.7065E+06    -37.8465E+06    -36.3091E+06     67.0028E+06     50.9152E+06     5.27943E+06         43.0445
            1129     11.2728E-03     4.49111E-03         4.57777        -1.37524        -1.50401        -1.37513         4.57766        -1.50401    -30.0886E-03     116.063E-03    -53.0995E-03    -62.9681E-03    -46.0325E-03     108.996E-03    -62.9681E-03     67.5069E-03     66.5939E+06     26.7549E+06    -39.3899E+06    -38.3448E+06     65.5488E+06     26.7549E+06    -2.72296E+06         39.7061
            1130     10.3228E-03     4.52948E-03         4.60827        -1.39673        -1.51438        -1.39667         4.60822        -1.51438    -22.3753E-03     118.505E-03    -54.4920E-03    -64.0021E-03    -47.5767E-03     111.589E-03    -64.0021E-03     67.5847E-03     39.4547E+06     5.30483E+06    -42.3344E+06    -41.3399E+06     29.6713E+06     14.0937E+06    -7.38140E+06         36.9215
            1131     9.37359E-03     4.56624E-03         4.63605        -1.41654        -1.52450        -1.41648         4.63599        -1.52450    -11.8491E-03     122.821E-03    -57.6979E-03    -65.1051E-03    -51.1374E-03     116.261E-03    -65.1051E-03     67.3527E-03     18.2606E+06    -19.2518E+06    -58.1827E+06    -42.5708E+06    -34.8636E+06     18.2606E+06    -10.2536E+06         34.7299
            1132     8.43004E-03     4.60901E-03         4.67130        -1.44345        -1.53400        -1.44341         4.67126        -1.53400     9.94632E-03     127.433E-03    -60.9499E-03    -66.4738E-03    -55.4316E-03     121.407E-03    -65.9656E-03     66.1998E-03     19.8008E+06    -35.7684E+06    -95.5745E+06    -40.9222E+06    -90.4206E+06     19.8008E+06    -15.6565E+06         33.1817
            1133     7.49087E-03     4.65403E-03         4.71714        -1.47951        -1.54180        -1.47942         4.71705        -1.54180     12.0717E-03     131.737E-03    -63.5788E-03    -68.1508E-03    -59.7836E-03     126.257E-03    -66.4664E-03     64.5466E-03     21.2273E+06    -35.7713E+06    -139.996E+06    -39.6987E+06    -136.068E+06     21.2273E+06    -18.7636E+06         32.3047
            1134     6.55532E-03     4.70009E-03         4.74606        -1.50118        -1.54789        -1.50110         4.74597        -1.54789     2.14794E-03     134.649E-03    -65.2538E-03    -69.3791E-03    -63.4260E-03     129.968E-03    -66.5258E-03     60.6381E-03     19.6860E+06    -35.9391E+06    -171.880E+06    -38.4286E+06    -169.390E+06     19.6860E+06    -17.2313E+06         31.9334
            1135     5.62263E-03     4.74723E-03         4.75809        -1.51120        -1.55365        -1.51116         4.75805        -1.55365    -8.43750E-03     135.644E-03    -65.7430E-03    -69.8824E-03    -65.7901E-03     131.878E-03    -66.0690E-03     54.7759E-03     4.67534E+06    -37.1817E+06    -190.853E+06    -38.7252E+06    -189.309E+06     4.67534E+06    -14.8896E+06         31.7273
            1136     4.69013E-03     4.79468E-03         4.77889        -1.52869        -1.55908        -1.52867         4.77887        -1.55908     3.79324E-03     134.836E-03    -65.2079E-03    -69.6147E-03    -66.7927E-03     132.014E-03    -65.2079E-03     47.3688E-03    -11.4920E+06    -39.7649E+06    -201.733E+06    -40.9701E+06    -200.528E+06    -11.4920E+06    -13.5878E+06         31.5074
            1137     3.75729E-03     4.83634E-03         4.80447        -1.54332        -1.56471        -1.54482         4.80443        -1.56316     6.38721E-03     132.398E-03    -64.0875E-03    -68.3070E-03    -66.3933E-03     130.485E-03    -64.0875E-03     38.5545E-03    -24.7843E+06    -43.8608E+06    -207.756E+06    -44.6798E+06    -206.937E+06    -24.7843E+06    -11.4851E+06         31.2936
            1138     2.82307E-03     4.87423E-03         4.82863        -1.55033        -1.57385        -1.55889         4.82851        -1.56517     11.5025E-03     128.875E-03    -62.8446E-03    -66.0320E-03    -64.8956E-03     127.739E-03    -62.8446E-03     29.1369E-03    -38.1712E+06    -49.1119E+06    -217.933E+06    -49.5660E+06    -217.479E+06    -38.1712E+06    -8.00563E+06         31.1199
            1139     1.88378E-03     4.90289E-03         4.83717        -1.55371        -1.58824        -1.58306         4.83707        -1.55879     2.10901E-03     125.071E-03    -61.7635E-03    -63.3045E-03    -62.7566E-03     124.523E-03    -61.7635E-03     19.6505E-03    -47.1616E+06    -53.1801E+06    -225.438E+06    -53.3359E+06    -225.282E+06    -47.1616E+06    -4.48175E+06         30.9902
            1140     942.858E-06     4.92083E-03         4.77793        -1.52554        -1.57755        -1.57046         4.77786        -1.53256     20.1996E-03     122.515E-03    -60.9542E-03    -61.5581E-03    -61.2857E-03     122.324E-03    -61.0361E-03     11.0909E-03    -56.6084E+06    -59.2206E+06    -232.143E+06    -59.3299E+06    -232.034E+06    -56.6084E+06    -3.97381E+06         30.9038
            1141     15.8661E-03     3.68707E-03         4.31316        -1.21198        -1.45303        -1.20607         4.30725        -1.45303     349.081E-03     264.832E-03    -68.8790E-03    -195.766E-03    -113.614E-03     182.680E-03    -68.8790E-03     345.361E-03     126.203E+06     109.313E+06    -12.3347E+06    -4.26448E+06     102.223E+06     125.223E+06     22.2164E+06         57.7179
            1142     14.9639E-03     3.43464E-03         4.43458        -1.27540        -1.46786        -1.27352         4.43271        -1.46786     181.361E-03     206.219E-03    -67.1786E-03    -138.901E-03    -100.969E-03     168.288E-03    -67.1786E-03     209.137E-03     102.432E+06     86.5368E+06    -43.4426E+06    -30.7588E+06     81.0790E+06     95.2062E+06     26.3157E+06         54.4125
            1143     14.0514E-03     3.34027E-03         4.50313        -1.30454        -1.48035        -1.30421         4.50280        -1.48035     31.2173E-03     142.886E-03    -60.9226E-03    -81.8645E-03    -61.9142E-03     128.398E-03    -66.3855E-03     106.758E-03     97.4367E+06     78.3189E+06    -38.0667E+06    -29.0743E+06     79.9563E+06     86.8069E+06     14.8680E+06         50.3844
            1144     13.0985E-03     3.34722E-03         4.53726        -1.32587        -1.49247        -1.32581         4.53720        -1.49247    -21.3401E-03     120.539E-03    -52.6626E-03    -67.8872E-03    -43.4093E-03     110.670E-03    -67.2711E-03     80.3979E-03     90.2985E+06     68.3301E+06    -24.0861E+06    -21.6708E+06     76.1866E+06     80.0268E+06     6.85950E+06         46.3660
            1145     12.1364E-03     3.34853E-03         4.56818        -1.34739        -1.50471        -1.34728         4.56807        -1.50471    -36.3183E-03     117.343E-03    -48.4158E-03    -68.9485E-03    -39.8117E-03     108.739E-03    -68.9485E-03     73.3202E-03     81.4801E+06     54.2574E+06    -26.6308E+06    -25.6057E+06     77.2462E+06     57.4661E+06     218.672E+03         42.7823
            1146     11.1811E-03     3.37791E-03         4.59176        -1.36145        -1.51744        -1.36128         4.59159        -1.51744    -53.1935E-03     119.333E-03    -48.4704E-03    -70.8743E-03    -40.9791E-03     111.841E-03    -70.8743E-03     69.2638E-03     68.9490E+06     22.4078E+06    -32.3665E+06    -32.1068E+06     68.6893E+06     22.4078E+06    -4.29488E+06         39.6716
            1147     10.2229E-03     3.40558E-03         4.61532        -1.37101        -1.53131        -1.37082         4.61513        -1.53131    -55.2218E-03     125.239E-03    -52.2629E-03    -73.0221E-03    -44.8075E-03     117.784E-03    -73.0221E-03     71.1163E-03     35.3895E+06     383.491E+03    -40.9499E+06    -36.4337E+06     29.3358E+06     1.92103E+06    -9.72090E+06         37.0819
            1148     9.27442E-03     3.43762E-03         4.66773        -1.41245        -1.54521        -1.41217         4.66745        -1.54521    -61.1123E-03     131.963E-03    -56.7331E-03    -75.2989E-03    -49.7298E-03     124.960E-03    -75.2989E-03     71.1760E-03     7.30966E+06    -14.9523E+06    -62.1301E+06    -36.4086E+06    -35.6198E+06     2.25566E+06    -18.6325E+06         35.0611
            1149     8.32790E-03     3.47404E-03         4.72485        -1.46986        -1.55649        -1.46964         4.72463        -1.55649    -56.0510E-03     139.084E-03    -61.6521E-03    -77.4842E-03    -55.1407E-03     132.573E-03    -77.4842E-03     70.9868E-03     4.65146E+06    -27.0313E+06    -101.225E+06    -36.5646E+06    -91.6921E+06     4.65146E+06    -23.7779E+06         33.6635
            1150     7.38806E-03     3.51020E-03         4.76623        -1.50933        -1.56445        -1.50925         4.76615        -1.56445    -39.6318E-03     146.673E-03    -67.2771E-03    -79.4359E-03    -61.2690E-03     140.665E-03    -79.4359E-03     70.4666E-03     5.07208E+06    -30.4343E+06    -149.966E+06    -37.2477E+06    -143.153E+06     5.07208E+06    -27.1706E+06         32.9802
            1151     6.45532E-03     3.55097E-03         4.79269        -1.52485        -1.57072        -1.52478         4.79262        -1.57072    -38.8501E-03     153.436E-03    -72.4208E-03    -81.0367E-03    -67.1905E-03     148.205E-03    -81.0367E-03     67.7129E-03     4.59483E+06    -33.4880E+06    -184.756E+06    -38.0012E+06    -180.242E+06     4.59483E+06    -25.3150E+06         32.9241
            1152     5.52642E-03     3.59438E-03         4.80814        -1.53132        -1.57725        -1.53126         4.80808        -1.57725    -28.6649E-03     158.972E-03    -76.4579E-03    -82.5178E-03    -72.4314E-03     154.582E-03    -82.1543E-03     63.4922E-03    -7.11014E+06    -38.0297E+06    -199.887E+06    -40.5828E+06    -197.334E+06    -7.11014E+06    -19.7432E+06         33.1081
            1153     4.60331E-03     3.63740E-03         4.82815        -1.54217        -1.58468        -1.54211         4.82809        -1.58468    -9.94148E-03     162.943E-03    -79.1292E-03    -83.8021E-03    -76.6766E-03     159.510E-03    -82.8218E-03     57.0818E-03    -23.9424E+06    -43.0378E+06    -210.322E+06    -44.4276E+06    -208.933E+06    -23.9424E+06    -14.9541E+06         33.2612
            1154     3.68216E-03     3.68128E-03         4.84884        -1.55051        -1.59364        -1.55035         4.84868        -1.59364    -22.1674E-03     165.171E-03    -80.8281E-03    -84.3249E-03    -79.5522E-03     162.716E-03    -83.1467E-03     48.6770E-03    -37.0143E+06    -47.9001E+06    -216.869E+06    -48.5975E+06    -216.172E+06    -37.0143E+06    -9.76830E+06         33.3623
            1155     2.76082E-03     3.71873E-03         4.86911        -1.56358        -1.60522        -1.56341         4.86894        -1.60522     5.00655E-03     166.223E-03    -81.9657E-03    -84.2517E-03    -81.4913E-03     164.693E-03    -83.1957E-03     38.4145E-03    -46.0217E+06    -54.1218E+06    -225.058E+06    -54.3678E+06    -224.812E+06    -46.0217E+06    -5.18265E+06         33.4248
            1156     1.84242E-03     3.74979E-03         4.89911        -1.58471        -1.62670        -1.59433         4.89892        -1.61689    -15.9865E-03     166.278E-03    -82.6226E-03    -83.6499E-03    -82.5319E-03     165.534E-03    -82.9961E-03     26.4105E-03    -53.9164E+06    -59.7967E+06    -231.273E+06    -59.8636E+06    -231.206E+06    -53.9164E+06    -3.02430E+06         33.4541
            1157     920.680E-06     3.77094E-03         4.92696        -1.59629        -1.64661        -1.62860         4.92679        -1.61413    -8.20095E-03     165.609E-03    -82.6665E-03    -82.9354E-03    -82.5733E-03     165.357E-03    -82.7764E-03     14.7918E-03    -60.7276E+06    -64.9755E+06    -238.219E+06    -62.8454E+06    -238.191E+06    -62.8859E+06    -1.65662E+06         33.4604
            1158     15.7966E-03     2.42424E-03         4.44295        -1.23191        -1.45672        -1.22466         4.43570        -1.45672     357.594E-03     272.369E-03    -71.8602E-03    -200.438E-03    -130.644E-03     202.575E-03    -71.8602E-03     309.756E-03     115.300E+06     104.889E+06    -37.9006E+06    -28.0734E+06     97.4145E+06     112.947E+06     11.8560E+06         56.9304
            1159     14.9390E-03     2.23727E-03         4.51285        -1.26358        -1.46929        -1.26273         4.51200        -1.46929     92.3040E-03     171.422E-03    -61.9311E-03    -109.463E-03    -87.9475E-03     158.213E-03    -70.2381E-03     108.250E-03     111.268E+06     90.7091E+06    -28.1066E+06    -19.8256E+06     89.6809E+06     104.015E+06     6.92237E+06         53.7675
            1160     13.9892E-03     2.23476E-03         4.51823        -1.27031        -1.48278        -1.27022         4.51814        -1.48278    -20.3533E-03     122.360E-03    -48.6216E-03    -73.6587E-03    -44.9045E-03     115.529E-03    -70.5447E-03     66.8209E-03     104.963E+06     73.6852E+06    -12.4841E+06    -9.29783E+06     79.9830E+06     95.4791E+06     1.53680E+06         50.0151
            1161     13.0193E-03     2.22292E-03         4.54499        -1.29881        -1.49737        -1.29869         4.54487        -1.49737    -40.8827E-03     115.414E-03    -42.8937E-03    -72.5624E-03    -36.2558E-03     108.776E-03    -72.5624E-03     62.2199E-03     92.7215E+06     73.7512E+06    -15.8797E+06    -14.1741E+06     82.5174E+06     82.2497E+06     1.91958E+06         46.3033
            1162     12.0612E-03     2.23656E-03         4.56994        -1.32409        -1.51220        -1.32397         4.56982        -1.51220    -44.0725E-03     116.124E-03    -41.1106E-03    -75.0912E-03    -35.7434E-03     110.757E-03    -75.0912E-03     55.6664E-03     81.9015E+06     54.9593E+06    -19.3954E+06    -19.3536E+06     81.8493E+06     54.9698E+06    -935.461E+03         42.9660
            1163     11.0926E-03     2.25504E-03         4.60175        -1.35189        -1.52720        -1.35177         4.60163        -1.52720    -47.5038E-03     121.213E-03    -43.3453E-03    -77.8667E-03    -38.3708E-03     116.239E-03    -77.8667E-03     55.1853E-03     71.8133E+06     14.7673E+06    -26.9919E+06    -22.9129E+06     71.2858E+06     11.2158E+06    -3.69355E+06         40.0533
            1164     10.1384E-03     2.27601E-03         4.65163        -1.38862        -1.54189        -1.38843         4.65143        -1.54189    -49.0128E-03     129.531E-03    -48.6808E-03    -80.9211E-03    -43.7601E-03     124.610E-03    -80.9211E-03     57.0922E-03     38.4327E+06    -13.8955E+06    -40.2328E+06    -24.9680E+06     33.8099E+06    -24.5375E+06    -10.5720E+06         37.6261
            1165     9.18340E-03     2.29891E-03         4.70248        -1.42795        -1.55562        -1.42767         4.70220        -1.55562    -53.4829E-03     138.156E-03    -54.0496E-03    -84.2393E-03    -49.4710E-03     133.578E-03    -84.2393E-03     57.2809E-03     694.365E+03    -32.8460E+06    -65.3685E+06    -29.3042E+06    -33.3517E+06    -34.8641E+06    -19.6308E+06         35.7406
            1166     8.23800E-03     2.32447E-03         4.74554        -1.46904        -1.56778        -1.46884         4.74534        -1.56778    -47.6747E-03     147.727E-03    -60.1118E-03    -87.6439E-03    -55.7758E-03     143.391E-03    -87.6439E-03     58.1748E-03    -12.5240E+06    -43.0053E+06    -105.976E+06    -31.6151E+06    -95.1478E+06    -34.7425E+06    -26.8543E+06         34.4558
            1167     7.29784E-03     2.35090E-03         4.77396        -1.49735        -1.57846        -1.49728         4.77389        -1.57846    -16.2558E-03     157.804E-03    -66.7351E-03    -91.0570E-03    -62.7006E-03     153.770E-03    -91.0570E-03     58.4689E-03    -16.3555E+06    -40.0184E+06    -158.239E+06    -32.9747E+06    -151.604E+06    -30.0340E+06    -28.1753E+06         33.8503
            1168     6.36346E-03     2.38069E-03         4.80592        -1.52576        -1.58788        -1.52571         4.80586        -1.58788    -17.2337E-03     168.092E-03    -73.7472E-03    -94.3405E-03    -70.2234E-03     164.568E-03    -94.3405E-03     56.7149E-03    -20.6268E+06    -37.6119E+06    -198.606E+06    -38.2430E+06    -194.374E+06    -24.2282E+06    -25.3149E+06         33.9138
            1169     5.43847E-03     2.41385E-03         4.84127        -1.55298        -1.59562        -1.55292         4.84122        -1.59562    -7.25116E-03     178.066E-03    -80.7645E-03    -97.3020E-03    -77.7441E-03     175.046E-03    -97.3020E-03     54.3694E-03    -29.5049E+06    -42.1134E+06    -212.765E+06    -43.8908E+06    -210.619E+06    -29.8740E+06    -18.2808E+06         34.3947
            1170     4.51878E-03     2.44803E-03         4.86289        -1.56667        -1.60243        -1.56660         4.86281        -1.60243     186.584E-06     187.430E-03    -87.4834E-03    -99.9439E-03    -85.0401E-03     184.987E-03    -99.9439E-03     50.3629E-03    -40.2448E+06    -48.6456E+06    -220.338E+06    -49.2170E+06    -219.397E+06    -40.6140E+06    -12.0069E+06         34.9748
            1171     3.60631E-03     2.48443E-03         4.87950        -1.57879        -1.61136        -1.58064         4.87935        -1.60937    -44.1854E-03     196.021E-03    -93.7933E-03    -102.216E-03    -91.9969E-03     194.225E-03    -102.216E-03     44.3130E-03    -47.7124E+06    -53.7076E+06    -227.781E+06    -54.0583E+06    -227.430E+06    -47.7124E+06    -6.42272E+06         35.5135
            1172     2.70070E-03     2.51735E-03         4.88717        -1.58395        -1.62035        -1.58576         4.88698        -1.61836    -57.5180E-03     203.062E-03    -99.0225E-03    -104.026E-03    -97.8759E-03     201.915E-03    -104.026E-03     35.9905E-03    -51.6604E+06    -57.7442E+06    -230.681E+06    -57.8271E+06    -230.598E+06    -51.6604E+06    -2.53317E+06         35.9649
            1173     1.79693E-03     2.54434E-03         4.90768        -1.58579        -1.63676        -1.58559         4.90748        -1.63676    -58.0969E-03     208.379E-03    -102.941E-03    -105.419E-03    -102.483E-03     207.798E-03    -105.295E-03     25.8197E-03    -56.9052E+06    -62.7441E+06    -234.846E+06    -62.7939E+06    -234.796E+06    -56.9052E+06    -635.661E+03         36.2903
            1174     900.016E-06     2.56272E-03         4.99403        -1.62943        -1.67057        -1.63603         4.99360        -1.66352     26.4217E-03     211.508E-03    -105.298E-03    -106.194E-03    -105.371E-03     211.303E-03    -105.916E-03     14.8541E-03    -61.4540E+06    -68.4334E+06    -241.357E+06    -66.2986E+06    -241.334E+06    -63.6123E+06     1.14318E+06         36.4838
            1175     15.8538E-03     1.13827E-03         4.63374        -1.26342        -1.45237        -1.25775         4.62807        -1.45237     277.834E-03     275.986E-03    -70.1220E-03    -205.752E-03    -163.882E-03     237.603E-03    -73.6094E-03     233.855E-03     126.319E+06     109.360E+06    -16.1422E+06    -6.31543E+06     100.906E+06     124.946E+06     5.95834E+06         56.7242
            1176     14.9197E-03     1.13130E-03         4.55720        -1.22334        -1.46468        -1.22313         4.55699        -1.46468     6.94944E-03     135.919E-03    -53.4566E-03    -82.4983E-03    -60.9284E-03     132.860E-03    -71.9679E-03     48.5814E-03     122.341E+06     91.9682E+06     9.26918E+06     11.9445E+06     90.6654E+06     120.968E+06    -1.40439E+06         53.7748
            1177     13.9374E-03     1.11636E-03         4.51747        -1.22506        -1.48105        -1.22501         4.51742        -1.48105    -30.0108E-03     113.004E-03    -39.5335E-03    -73.4667E-03    -36.5907E-03     110.062E-03    -73.4667E-03     39.4400E-03     104.579E+06     77.1834E+06    -2.41633E+06    -1.44719E+06     80.7988E+06     99.9940E+06     1.15225E+06         50.3087
            1178     12.9779E-03     1.10944E-03         4.53314        -1.26028        -1.49877        -1.26021         4.53307        -1.49877    -31.3657E-03     111.052E-03    -34.9597E-03    -76.1340E-03    -32.6289E-03     108.721E-03    -76.1340E-03     32.5122E-03     91.9458E+06     73.9640E+06    -7.60616E+06    -7.45576E+06     85.3970E+06     80.3624E+06    -565.742E+03         46.8895
            1179     12.0030E-03     1.11862E-03         4.56836        -1.30142        -1.51631        -1.30129         4.56824        -1.51631    -46.4614E-03     114.161E-03    -34.9923E-03    -79.2267E-03    -33.3056E-03     112.474E-03    -79.2267E-03     28.5462E-03     84.6554E+06     47.6972E+06    -13.4569E+06    -13.0232E+06     84.2111E+06     47.7077E+06    -1.51007E+06         43.7350
            1180     11.0430E-03     1.12912E-03         4.61849        -1.35148        -1.53284        -1.35141         4.61842        -1.53284    -32.2923E-03     121.984E-03    -39.4341E-03    -82.5737E-03    -37.7228E-03     120.273E-03    -82.5737E-03     30.0088E-03     74.2278E+06     5.67531E+06    -24.5658E+06    -16.3811E+06     73.1591E+06    -1.44076E+06    -3.62462E+06         40.9604
            1181     10.0783E-03     1.13867E-03         4.67009        -1.40005        -1.54772        -1.40000         4.67004        -1.54772    -22.3012E-03     131.018E-03    -44.8714E-03    -86.2038E-03    -43.2111E-03     129.358E-03    -86.2038E-03     30.7532E-03     38.3409E+06    -21.3519E+06    -54.3410E+06    -19.7399E+06     36.7289E+06    -54.3410E+06    -4.95824E+06         38.6449
            1182     9.12651E-03     1.15116E-03         4.70903        -1.43045        -1.56149        -1.43041         4.70899        -1.56149    -7.53546E-03     141.255E-03    -51.1238E-03    -90.2242E-03    -49.5650E-03     139.696E-03    -90.2242E-03     31.0839E-03     1.15544E+06    -43.5445E+06    -83.3992E+06    -22.4883E+06    -26.3928E+06    -76.9071E+06    -12.5320E+06         36.8487
            1183     8.17682E-03     1.16554E-03         4.74763        -1.45634        -1.57508        -1.45629         4.74759        -1.57508    -13.5092E-03     152.528E-03    -58.0513E-03    -94.5202E-03    -56.5346E-03     151.012E-03    -94.5202E-03     32.0195E-03    -20.8412E+06    -71.4430E+06    -112.778E+06    -26.5836E+06    -99.5457E+06    -78.9326E+06    -19.0503E+06         35.6253
            1184     7.23509E-03     1.17883E-03         4.78783        -1.48911        -1.58825        -1.48904         4.78776        -1.58825    -18.2044E-03     164.381E-03    -65.3555E-03    -98.9878E-03    -63.9056E-03     162.931E-03    -98.9878E-03     32.4202E-03    -30.2954E+06    -71.9947E+06    -164.216E+06    -33.8331E+06    -160.679E+06    -71.9947E+06    -19.0393E+06         35.0178
            1185     6.30213E-03     1.19453E-03         4.82550        -1.52651        -1.59995        -1.52647         4.82546        -1.59995    -10.8623E-03     176.967E-03    -73.3070E-03    -103.569E-03    -72.0425E-03     175.703E-03    -103.569E-03     31.8530E-03    -39.1922E+06    -59.9895E+06    -208.630E+06    -41.8262E+06    -206.732E+06    -59.2541E+06    -15.8104E+06         35.0495
            1186     5.37566E-03     1.21278E-03         4.86019        -1.55819        -1.60961        -1.55816         4.86015        -1.60961     4.99987E-03     190.330E-03    -82.1754E-03    -108.077E-03    -81.0838E-03     189.238E-03    -108.077E-03     30.8323E-03    -46.9131E+06    -53.8712E+06    -223.912E+06    -48.5620E+06    -222.999E+06    -53.1357E+06    -11.0460E+06         35.6278
            1187     4.45909E-03     1.23268E-03         4.88667        -1.58318        -1.61728        -1.58315         4.88664        -1.61728     15.6314E-03     204.182E-03    -91.7438E-03    -112.394E-03    -90.8475E-03     203.285E-03    -112.394E-03     29.0938E-03    -51.4917E+06    -53.9925E+06    -228.806E+06    -53.4965E+06    -228.433E+06    -52.3607E+06    -6.51370E+06         36.4926
            1188     3.55206E-03     1.25166E-03         4.91371        -1.60642        -1.62428        -1.60832         4.91362        -1.62229     15.4724E-03     217.884E-03    -101.488E-03    -116.363E-03    -100.813E-03     217.209E-03    -116.363E-03     26.2067E-03    -53.3838E+06    -56.9015E+06    -234.790E+06    -57.0288E+06    -234.663E+06    -53.3838E+06    -3.59017E+06         37.4017
            1189     2.65356E-03     1.27147E-03         4.93476        -1.61341        -1.63179        -1.62045         4.93458        -1.62457    -4.23147E-03     230.237E-03    -110.439E-03    -119.763E-03    -109.993E-03     229.791E-03    -119.763E-03     21.8251E-03    -55.8136E+06    -59.7791E+06    -235.940E+06    -59.8236E+06    -235.896E+06    -55.8136E+06    -387.217E+03         38.2195
            1190     1.76468E-03     1.28800E-03         4.94057        -1.60143        -1.64931        -1.62528         4.94039        -1.62528    -1.85119E-03     240.239E-03    -117.753E-03    -122.460E-03    -117.516E-03     240.002E-03    -122.460E-03     15.9021E-03    -56.6647E+06    -62.3340E+06    -236.455E+06    -62.3441E+06    -236.445E+06    -56.6647E+06     1.04975E+06         38.8449
            1191     877.823E-06     1.29901E-03         4.94330        -1.59748        -1.65431        -1.63746         4.94270        -1.61374     100.041E-03     247.218E-03    -122.730E-03    -124.484E-03    -123.045E-03     247.127E-03    -124.078E-03     8.52882E-03    -61.6167E+06    -66.8956E+06    -241.022E+06    -66.6925E+06    -240.989E+06    -61.8528E+06     793.541E+03         39.2259
            1192     939.361E-06     63.2820E-03         3.68895    -190.031E-03        -2.22550    -86.7693E-03         3.57405        -2.21386    -450.440E-03     125.109E-03    -62.3028E-03    -62.8007E-03    -62.7200E-03     125.106E-03    -62.3800E-03    -1.56414E-03    -73.3106E+06    -76.4728E+06    -260.580E+06    -75.3108E+06    -260.529E+06    -74.5232E+06     1.09127E+06         29.6351
            1193     1.87944E-03     63.2795E-03         3.55061        -1.12926        -1.16168        -1.12850         3.53443        -1.14626     96.0967E-03     125.202E-03    -62.4950E-03    -62.7271E-03    -62.6454E-03     125.198E-03    -62.5722E-03    -1.81570E-03    -67.6494E+06    -73.2414E+06    -256.334E+06    -72.7417E+06    -256.326E+06    -68.1572E+06     17.4035E+03         29.7205
            1194     2.81816E-03     63.2778E-03         3.52921        -1.13004        -1.14362        -1.12697         3.52235        -1.13983    -105.320E-03     125.198E-03    -62.5491E-03    -62.6920E-03    -62.6270E-03     125.191E-03    -62.6075E-03    -2.18916E-03    -61.2780E+06    -70.1029E+06    -252.081E+06    -70.1077E+06    -252.076E+06    -61.2780E+06     784.466E+03         29.8636
            1195     3.75812E-03     63.2744E-03         3.51900        -1.12967        -1.13670        -1.12708         3.51641        -1.13670     15.7297E-03     125.016E-03    -62.4111E-03    -62.6133E-03    -62.4033E-03     125.008E-03    -62.6133E-03    -2.39672E-03    -51.4418E+06    -66.5134E+06    -245.506E+06    -66.5196E+06    -245.499E+06    -51.4418E+06     923.419E+03         30.0685
            1196     4.69817E-03     63.2718E-03         3.50667        -1.12226        -1.13440        -1.12109         3.50549        -1.13440    -80.9132E-03     124.963E-03    -62.3177E-03    -62.6097E-03    -62.3121E-03     124.957E-03    -62.6097E-03    -2.03481E-03    -41.3394E+06    -62.2266E+06    -234.346E+06    -62.2466E+06    -234.326E+06    -41.3394E+06     1.54395E+06         30.4132
            1197     5.63745E-03     63.2684E-03         3.50736        -1.12191        -1.13361        -1.12290         3.50722        -1.13248    -8.58960E-03     124.833E-03    -62.1924E-03    -62.6028E-03    -62.1890E-03     124.830E-03    -62.6028E-03    -1.53969E-03    -32.5725E+06    -57.1421E+06    -217.691E+06    -57.1716E+06    -217.662E+06    -32.5725E+06     1.91531E+06         31.0418
            1198     6.57748E-03     63.2664E-03         3.49310        -1.10703        -1.13136        -1.10783         3.49277        -1.13023     16.9571E-03     124.589E-03    -62.0090E-03    -62.5695E-03    -62.0079E-03     124.587E-03    -62.5695E-03    -441.445E-06    -28.4376E+06    -53.1404E+06    -188.384E+06    -53.2244E+06    -188.300E+06    -28.4376E+06     3.06639E+06         32.0205
            1199     7.51725E-03     63.2659E-03         3.45624        -1.07948        -1.12578        -1.07922         3.45598        -1.12578     56.0074E-03     124.230E-03    -61.7576E-03    -62.4954E-03    -61.7557E-03     124.228E-03    -62.4954E-03     970.937E-06    -26.8887E+06    -50.3952E+06    -147.944E+06    -50.4812E+06    -147.858E+06    -26.8887E+06     1.38001E+06         33.4515
            1200     8.45773E-03     63.2663E-03         3.42993        -1.06312        -1.11959        -1.06303         3.42984        -1.11959    -132.605E-06     123.806E-03    -61.4526E-03    -62.3939E-03    -61.4231E-03     123.777E-03    -62.3939E-03     3.99979E-03    -26.2192E+06    -48.0583E+06    -102.433E+06    -48.1307E+06    -102.360E+06    -26.2192E+06    -1.52770E+06         35.5359
            1201     9.39815E-03     63.2721E-03         3.40362        -1.04183        -1.11248        -1.04177         3.40356        -1.11248    -13.6343E-03     123.605E-03    -61.3415E-03    -62.3103E-03    -61.2511E-03     123.515E-03    -62.3103E-03     8.01106E-03    -23.9108E+06    -43.0133E+06    -61.4234E+06    -46.2028E+06    -58.2339E+06    -23.9108E+06    -288.524E+03         38.3439
            1202     10.3388E-03     63.2816E-03         3.36646        -1.01469        -1.10416        -1.01457         3.36635        -1.10416     26.3683E-03     123.235E-03    -61.0763E-03    -62.1789E-03    -60.9247E-03     123.083E-03    -62.1789E-03     10.5255E-03     14.1419E+06    -30.6432E+06    -44.1899E+06     -43.971E+06     4.79230E+06    -21.5125E+06     1.56116E+06         41.8341
            1203     11.2792E-03     63.2930E-03         3.33770    -996.483E-03        -1.09478    -996.338E-03         3.33756        -1.09478     14.1840E-03     123.398E-03    -61.3286E-03    -62.1128E-03    -60.6498E-03     122.719E-03    -62.1128E-03     20.4633E-03     54.1908E+06    -12.7517E+06    -40.2602E+06    -40.2251E+06     54.1557E+06    -12.7517E+06     1.03742E+06         45.9758
            1204     12.2199E-03     63.3254E-03         3.30161    -970.869E-03        -1.08373    -970.791E-03         3.30153        -1.08373     4.97338E-03     126.368E-03    -62.0925E-03    -64.3844E-03    -60.9950E-03     123.128E-03    -62.2411E-03     46.4988E-03     62.2734E+06     16.5051E+06    -36.7421E+06    -36.6479E+06     62.1792E+06     16.5051E+06    -1.00720E+06         50.7816
            1205     13.1604E-03     63.3940E-03         3.25437    -939.008E-03        -1.06996    -938.917E-03         3.25427        -1.06996     3.81185E-03     131.975E-03    -62.3989E-03    -69.6410E-03    -61.2913E-03     123.625E-03    -62.3989E-03     79.0522E-03     67.9936E+06     53.3058E+06    -33.1766E+06    -33.0647E+06     67.8818E+06     53.3058E+06    -2.26725E+06         56.2685
            1206     14.1009E-03     63.5024E-03         3.20906    -911.912E-03        -1.05231    -911.867E-03         3.20901        -1.05231    -22.7217E-03     152.080E-03    -62.5095E-03    -89.5633E-03    -63.6353E-03     126.152E-03    -62.5095E-03     144.815E-03     83.4243E+06     78.4542E+06    -28.0241E+06    -27.9778E+06     78.6155E+06     83.2166E+06    -729.760E+03         62.3876
            1207     15.0427E-03     63.7181E-03         3.15590    -889.009E-03        -1.02612    -888.985E-03         3.15588        -1.02612    -8.43553E-03     227.684E-03    -62.6007E-03    -165.038E-03    -77.7818E-03     140.428E-03    -62.6007E-03     321.981E-03     114.886E+06     105.589E+06    -19.6208E+06    -19.5296E+06     105.497E+06     114.886E+06     1.02259E+06         68.4478
            1208     15.9843E-03     64.2467E-03         3.08208    -870.068E-03    -989.555E-03    -870.018E-03         3.08203    -989.555E-03    -15.0904E-03     291.710E-03    -62.6116E-03    -228.995E-03    -90.9421E-03     153.656E-03    -62.6116E-03     459.648E-03     150.018E+06     143.039E+06    -8.48775E+06    -8.40339E+06     142.954E+06     150.018E+06     1.10190E+06         73.1147
            1209     940.151E-06     64.4139E-03         3.46185    -103.826E-03        -2.10707    -5.89335E-03         3.35891        -2.10206    -389.327E-03     125.085E-03    -62.4718E-03    -62.6282E-03    -62.6121E-03     125.081E-03    -62.4840E-03    -1.69932E-03    -72.1357E+06    -74.9757E+06    -259.903E+06    -73.7750E+06    -259.874E+06    -73.3658E+06    -454.667E+03         29.6379
            1210     1.87871E-03     64.4123E-03         3.32893        -1.03176        -1.05622        -1.02655         3.31625        -1.04875     158.765E-03     125.192E-03    -62.5357E-03    -62.6829E-03    -62.6395E-03     125.188E-03    -62.5756E-03    -1.62353E-03    -68.2277E+06    -73.3388E+06    -257.433E+06    -72.8397E+06    -257.424E+06    -68.7355E+06     274.563E+03         29.7217
            1211     2.81874E-03     64.4100E-03         3.31652        -1.03254        -1.04954        -1.03520         3.31192        -1.04229    -5.20261E-03     125.115E-03    -62.5164E-03    -62.6312E-03    -62.5378E-03     125.109E-03    -62.6041E-03    -2.04748E-03    -61.4631E+06    -69.9198E+06    -252.502E+06    -69.9219E+06    -252.500E+06    -61.4631E+06    -42.1589E+03         29.8619
            1212     3.75809E-03     64.4066E-03         3.31775        -1.03481        -1.05007        -1.04062         3.31480        -1.04131     57.7961E-03     124.982E-03    -62.3958E-03    -62.5961E-03    -62.3885E-03     124.974E-03    -62.5961E-03    -2.34811E-03    -52.2501E+06    -65.9308E+06    -246.169E+06    -65.9345E+06    -246.166E+06    -52.2501E+06     460.028E+03         30.0641
            1213     4.69768E-03     64.4035E-03         3.31254        -1.03425        -1.04670        -1.03866         3.31150        -1.04125    -35.3684E-03     124.817E-03    -62.1930E-03    -62.5915E-03    -62.1868E-03     124.810E-03    -62.5915E-03    -2.13299E-03    -41.4574E+06    -61.3957E+06    -234.920E+06    -61.4027E+06    -234.913E+06    -41.4574E+06     829.959E+03         30.4045
            1214     5.63803E-03     64.4008E-03         3.30377        -1.02729        -1.04173        -1.02849         3.30348        -1.04025     19.7677E-03     124.746E-03    -62.1359E-03    -62.5889E-03    -62.1326E-03     124.743E-03    -62.5889E-03    -1.49129E-03    -31.9622E+06    -56.7354E+06    -218.425E+06    -56.7489E+06    -218.412E+06    -31.9622E+06     945.390E+03         31.0238
            1215     6.57765E-03     64.3983E-03         3.28385        -1.00744        -1.03728        -1.00714         3.28355        -1.03728     23.8189E-03     124.546E-03    -61.9868E-03    -62.5611E-03    -61.9859E-03     124.545E-03    -62.5611E-03    -366.391E-06    -26.2103E+06    -51.0297E+06    -190.286E+06    -51.0722E+06    -190.244E+06    -26.2103E+06     1.52700E+06         31.9906
            1216     7.51803E-03     64.3978E-03         3.26009    -991.859E-03        -1.03263    -991.589E-03         3.25982        -1.03263     56.3346E-03     124.160E-03    -61.7109E-03    -62.4724E-03    -61.7087E-03     124.158E-03    -62.4724E-03     1.00135E-03    -22.3832E+06    -46.2763E+06    -144.833E+06    -46.3234E+06    -144.786E+06    -22.3832E+06     1.52546E+06         33.4106
            1217     8.45811E-03     64.3978E-03         3.23674    -977.712E-03        -1.02717    -977.652E-03         3.23668        -1.02717     26.6026E-03     123.944E-03    -61.5987E-03    -62.3863E-03    -61.5714E-03     123.917E-03    -62.3863E-03     3.90575E-03    -20.3709E+06    -45.2279E+06    -101.883E+06    -45.3963E+06    -101.715E+06    -20.3709E+06     1.18349E+06         35.4842
            1218     9.39849E-03     64.4040E-03         3.22773    -973.967E-03        -1.02158    -973.927E-03         3.22769        -1.02158     9.94082E-03     123.671E-03    -61.3997E-03    -62.3187E-03    -61.3140E-03     123.586E-03    -62.3187E-03     7.77225E-03    -19.5818E+06    -41.2284E+06    -65.8542E+06    -46.1490E+06    -60.9335E+06    -19.5818E+06     1.70507E+06         38.2809
            1219     10.3386E-03     64.4135E-03         3.21479    -966.564E-03        -1.01620    -966.426E-03         3.21465        -1.01620     26.3462E-03     123.155E-03    -61.0056E-03    -62.1707E-03    -60.8510E-03     123.001E-03    -62.1707E-03     10.5977E-03     15.8296E+06    -28.5242E+06    -44.9582E+06    -44.6603E+06     6.61631E+06    -19.6088E+06     367.469E+03         41.7590
            1220     11.2794E-03     64.4250E-03         3.18985    -948.413E-03        -1.01010    -948.262E-03         3.18970        -1.01010     21.5027E-03     123.321E-03    -61.2688E-03    -62.0943E-03    -60.5613E-03     122.614E-03    -62.0943E-03     20.9098E-03     55.1534E+06    -11.7395E+06    -40.7016E+06    -40.6546E+06     55.1063E+06    -11.7395E+06    -1.39116E+06         45.8872
            1221     12.2211E-03     64.4565E-03         3.16642    -932.308E-03        -1.00206    -932.152E-03         3.16627        -1.00206     21.2886E-03     126.515E-03    -62.0373E-03    -64.5818E-03    -60.9770E-03     123.096E-03    -62.2233E-03     47.7410E-03     62.5828E+06     18.1684E+06    -36.2410E+06    -36.2252E+06     62.5671E+06     18.1684E+06    -328.139E+03         50.6940
            1222     13.1608E-03     64.5292E-03         3.13316    -910.060E-03    -991.378E-03    -909.884E-03         3.13298    -991.378E-03     23.5913E-03     131.721E-03    -62.3569E-03    -69.4214E-03    -60.9789E-03     123.279E-03    -62.3569E-03     79.5505E-03     68.0863E+06     53.4937E+06    -33.3380E+06    -33.1631E+06     67.9113E+06     53.4937E+06     1.58426E+06         56.2125
            1223     14.1036E-03     64.6304E-03         3.09081    -884.784E-03    -976.698E-03    -884.741E-03         3.09076    -976.698E-03    -9.50858E-03     151.954E-03    -62.4480E-03    -89.4800E-03    -63.5070E-03     125.981E-03    -62.4480E-03     144.854E-03     83.4825E+06     77.1910E+06    -29.0116E+06    -28.7169E+06     78.5290E+06     81.8498E+06     132.232E+03         62.3746
            1224     15.0464E-03     64.8533E-03         3.04182    -865.135E-03    -953.061E-03    -865.115E-03         3.04180    -953.061E-03    -5.34305E-03     226.559E-03    -62.5104E-03    -164.039E-03    -75.9847E-03     138.504E-03    -62.5104E-03     321.521E-03     114.480E+06     105.491E+06    -20.4615E+06    -20.3159E+06     105.345E+06     114.480E+06    -2.16492E+06         68.4679
            1225     15.9884E-03     65.3797E-03         2.97680    -845.291E-03    -918.358E-03    -845.243E-03         2.97675    -918.358E-03    -11.5046E-03     291.263E-03    -62.5329E-03    -228.677E-03    -91.5972E-03     154.183E-03    -62.5329E-03     458.132E-03     147.594E+06     141.417E+06    -10.7046E+06    -10.6624E+06     141.375E+06     147.594E+06    -1.13543E+06         73.1435
            1226     939.004E-06     65.5462E-03         3.15117     15.9613E-03        -1.94320     80.8553E-03         3.06275        -1.91968    -351.562E-03     125.230E-03    -62.5103E-03    -62.7445E-03    -62.6779E-03     125.226E-03    -62.5739E-03    -1.49373E-03    -72.1299E+06    -75.5974E+06    -259.335E+06    -75.6084E+06    -259.273E+06    -72.1809E+06    -174.924E+03         29.6386
            1227     1.87936E-03     65.5448E-03         3.10582    -925.423E-03    -957.080E-03    -947.912E-03         3.09665    -925.423E-03     96.0266E-03     125.051E-03    -62.4590E-03    -62.6135E-03    -62.4646E-03     125.047E-03    -62.6037E-03    -1.75179E-03    -66.6358E+06    -72.6967E+06    -256.824E+06    -72.7156E+06    -256.806E+06    -66.6358E+06    -441.047E+03         29.7187
            1228     2.81864E-03     65.5419E-03         3.10002    -933.035E-03    -947.852E-03    -943.518E-03         3.09569    -933.035E-03    -16.4103E-03     124.994E-03    -62.4169E-03    -62.5681E-03    -62.4109E-03     124.988E-03    -62.5681E-03    -2.11032E-03    -59.9775E+06    -68.9291E+06    -252.912E+06    -68.9306E+06    -252.911E+06    -59.9775E+06    -231.558E+03         29.8564
            1229     3.75839E-03     65.5391E-03         3.10983    -936.889E-03    -953.793E-03    -951.456E-03         3.10749    -936.889E-03     58.0524E-03     124.950E-03    -62.3809E-03    -62.5635E-03    -62.3739E-03     124.943E-03    -62.5635E-03    -2.29107E-03    -50.6396E+06    -65.5902E+06    -246.772E+06    -65.5903E+06    -246.772E+06    -50.6396E+06     59.1209E+03         30.0583
            1230     4.69818E-03     65.5352E-03         3.11428    -940.286E-03    -953.830E-03    -953.084E-03         3.11354    -940.286E-03    -16.6212E-03     124.846E-03    -62.2569E-03    -62.5834E-03    -62.2507E-03     124.840E-03    -62.5834E-03    -2.12608E-03    -40.3308E+06    -61.6648E+06    -235.392E+06    -61.6682E+06    -235.389E+06    -40.3308E+06     345.178E+03         30.3955
            1231     5.63797E-03     65.5324E-03         3.09747    -930.093E-03    -944.470E-03    -933.103E-03         3.09716    -941.149E-03     21.5609E-03     124.668E-03    -62.0827E-03    -62.5858E-03    -62.0794E-03     124.665E-03    -62.5858E-03    -1.53977E-03    -31.0290E+06    -57.2179E+06    -218.793E+06    -57.2239E+06    -218.787E+06    -31.0290E+06     510.567E+03         31.0039
            1232     6.57810E-03     65.5307E-03         3.07828    -914.200E-03    -938.872E-03    -913.820E-03         3.07790    -938.872E-03     27.4814E-03     124.455E-03    -61.9234E-03    -62.5439E-03    -61.9223E-03     124.454E-03    -62.5439E-03    -674.916E-06    -26.4260E+06    -52.9919E+06    -190.384E+06    -52.9978E+06    -190.378E+06    -26.4260E+06    -68.9009E+03         31.9570
            1233     7.51810E-03     65.5288E-03         3.06477    -907.149E-03    -935.364E-03    -906.822E-03         3.06444    -935.364E-03     44.1399E-03     124.278E-03    -61.8580E-03    -62.4483E-03    -61.8561E-03     124.276E-03    -62.4483E-03     770.338E-06    -24.8035E+06    -49.4837E+06    -145.842E+06    -49.5184E+06    -145.808E+06    -24.8035E+06     814.664E+03         33.3643
            1234     8.45816E-03     65.5309E-03         3.05397    -904.291E-03    -932.113E-03    -904.452E-03         3.05393    -931.913E-03     8.05739E-03     124.015E-03    -61.6690E-03    -62.3941E-03    -61.6469E-03     123.993E-03    -62.3941E-03     3.57154E-03    -19.0183E+06    -46.0569E+06    -104.444E+06    -46.3800E+06    -104.121E+06    -19.0183E+06     3.56738E+06         35.4257
            1235     9.39797E-03     65.5356E-03         3.05441    -908.275E-03    -929.124E-03    -908.413E-03         3.05434    -928.924E-03    -588.730E-06     123.608E-03    -61.3320E-03    -62.3308E-03    -61.2492E-03     123.525E-03    -62.3308E-03     7.54712E-03    -15.2360E+06    -37.8353E+06    -64.6822E+06    -43.0147E+06    -59.5028E+06    -15.2360E+06     3.11978E+06         38.2105
            1236     10.3393E-03     65.5451E-03         3.05390    -910.082E-03    -926.436E-03    -909.999E-03         3.05382    -926.436E-03     5.70011E-03     123.089E-03    -60.9564E-03    -62.1603E-03    -60.8099E-03     122.943E-03    -62.1603E-03     10.3233E-03     18.0752E+06    -24.5980E+06    -40.5209E+06    -40.2583E+06     10.2303E+06    -17.0157E+06     35.4558E+03         41.6767
            1237     11.2804E-03     65.5563E-03         3.03337    -894.088E-03    -923.203E-03    -893.988E-03         3.03327    -923.203E-03     3.84589E-03     123.452E-03    -61.3799E-03    -62.1063E-03    -60.7116E-03     122.773E-03    -62.0959E-03     20.3536E-03     55.2774E+06    -9.65360E+06    -40.1336E+06    -40.0848E+06     55.2287E+06    -9.65360E+06    -693.043E+03         45.7925
            1238     12.2205E-03     65.5887E-03         3.00649    -874.214E-03    -917.482E-03    -874.035E-03         3.00631    -917.482E-03     14.2896E-03     126.232E-03    -62.1583E-03    -64.1711E-03    -60.7995E-03     122.918E-03    -62.2153E-03     46.8920E-03     59.7836E+06     15.5564E+06    -39.5313E+06    -39.5139E+06     59.7662E+06     15.5564E+06     365.384E+03         50.6016
            1239     13.1628E-03     65.6608E-03         2.99283    -868.743E-03    -909.183E-03    -868.606E-03         2.99270    -909.183E-03     29.5268E-03     131.085E-03    -62.3190E-03    -68.7911E-03    -60.7631E-03     123.057E-03    -62.3190E-03     77.5092E-03     67.2756E+06     50.2101E+06    -33.6087E+06    -33.3662E+06     67.0331E+06     50.2101E+06     904.548E+03         56.1501
            1240     14.1032E-03     65.7619E-03         2.97553    -865.241E-03    -899.530E-03    -867.067E-03         2.97551    -897.684E-03     8.27518E-03     152.130E-03    -62.4356E-03    -89.6765E-03    -63.8405E-03     126.294E-03    -62.4356E-03     144.156E-03     87.6269E+06     79.7912E+06    -24.1571E+06    -23.7587E+06     82.0711E+06     84.9485E+06    -46.3792E+03         62.3528
            1241     15.0410E-03     65.9871E-03         2.93231    -846.198E-03    -878.987E-03    -848.011E-03         2.93228    -877.142E-03     19.4920E-03     224.229E-03    -62.5208E-03    -161.758E-03    -75.2245E-03     137.696E-03    -62.5208E-03     317.164E-03     118.231E+06      107.12E+06    -16.9931E+06    -16.8184E+06     106.945E+06     118.231E+06    -237.989E+03         68.4738
            1242     15.9916E-03     66.4975E-03         2.87529    -818.566E-03    -850.138E-03    -824.220E-03         2.87526    -844.455E-03     8.97640E-03     292.221E-03    -62.5378E-03    -229.621E-03    -92.3939E-03     154.994E-03    -62.5378E-03     459.428E-03     148.715E+06     140.166E+06    -10.4046E+06    -10.3781E+06     140.140E+06     148.715E+06    -50.4102E+03         73.1558
            1243     939.724E-06     66.6788E-03         2.90845     76.4171E-03        -1.78016     109.301E-03         2.84797        -1.75257    -246.382E-03     125.111E-03    -62.3754E-03    -62.7722E-03    -62.7188E-03     125.109E-03    -62.4267E-03    -1.21122E-03    -73.1221E+06    -76.1905E+06    -258.369E+06    -75.0478E+06    -258.329E+06    -74.3043E+06    -204.259E+03         29.6362
            1244     1.87870E-03     66.6766E-03         2.90386    -829.373E-03    -866.753E-03    -858.402E-03         2.89551    -829.373E-03     43.9204E-03     125.017E-03    -62.4354E-03    -62.6149E-03    -62.4743E-03     125.012E-03    -62.5719E-03    -1.71004E-03    -68.1272E+06    -73.4236E+06    -256.566E+06    -73.4361E+06    -256.554E+06    -68.1272E+06    -959.922E+03         29.7140
            1245     2.81887E-03     66.6740E-03         2.89696    -838.433E-03    -852.328E-03    -848.006E-03         2.89264    -838.433E-03    -61.1631E-03     124.927E-03    -62.3488E-03    -62.5518E-03    -62.3423E-03     124.920E-03    -62.5518E-03    -2.18607E-03    -59.2683E+06    -70.1228E+06    -253.237E+06    -70.1242E+06    -253.236E+06    -59.2683E+06    -223.933E+03         29.8493
            1246     3.75869E-03     66.6709E-03         2.88915    -832.071E-03    -850.676E-03    -840.564E-03         2.88727    -840.306E-03     18.9480E-03     124.887E-03    -62.3215E-03    -62.5506E-03    -62.3135E-03     124.879E-03    -62.5506E-03    -2.44369E-03    -48.7165E+06    -65.9952E+06    -247.019E+06    -65.9954E+06    -247.018E+06    -48.7165E+06     10.5844E+03         30.0514
            1247     4.69843E-03     66.6674E-03         2.88267    -826.786E-03    -848.108E-03    -834.056E-03         2.88184    -840.012E-03    -45.3043E-03     124.872E-03    -62.3115E-03    -62.5745E-03    -62.3043E-03     124.865E-03    -62.5745E-03    -2.29927E-03    -39.3450E+06    -61.8243E+06    -235.799E+06    -61.8260E+06    -235.797E+06    -39.3450E+06     178.613E+03         30.3862
            1248     5.63793E-03     66.6647E-03         2.88081    -829.093E-03    -840.825E-03    -830.763E-03         2.88064    -838.989E-03     6.85032E-03     124.687E-03    -62.1251E-03    -62.5752E-03    -62.1211E-03     124.683E-03    -62.5752E-03    -1.67613E-03    -31.8755E+06    -57.9407E+06    -219.726E+06    -57.9482E+06    -219.718E+06    -31.8755E+06     877.532E+03         30.9828
            1249     6.57813E-03     66.6617E-03         2.88192    -828.647E-03    -842.843E-03    -833.032E-03         2.88159    -838.125E-03     22.1886E-03     124.484E-03    -61.9741E-03    -62.5262E-03    -61.9728E-03     124.483E-03    -62.5262E-03    -663.631E-06    -27.5558E+06    -54.8579E+06    -189.520E+06    -54.8774E+06    -189.500E+06    -27.5558E+06     928.232E+03         31.9204
            1250     7.51806E-03     66.6618E-03         2.88346    -828.602E-03    -850.299E-03    -840.591E-03         2.88313    -837.981E-03     24.4042E-03     124.297E-03    -61.8921E-03    -62.4368E-03    -61.8895E-03     124.294E-03    -62.4368E-03     960.646E-06    -27.7404E+06    -52.7827E+06    -148.791E+06    -52.8523E+06    -148.721E+06    -27.7404E+06     1.70253E+06         33.3139
            1251     8.45759E-03     66.6623E-03         2.88429    -833.470E-03    -847.932E-03    -843.069E-03         2.88424    -838.275E-03    -17.1544E-03     123.951E-03    -61.6340E-03    -62.3655E-03    -61.6115E-03     123.928E-03    -62.3655E-03     3.67504E-03    -25.5276E+06    -49.3437E+06    -106.430E+06    -49.5901E+06    -106.183E+06    -25.5276E+06     2.33840E+06         35.3624
            1252     9.39889E-03     66.6673E-03         2.87545    -832.195E-03    -839.988E-03    -834.210E-03         2.87541    -837.930E-03    -15.2026E-03     123.727E-03    -61.4676E-03    -62.3112E-03    -61.3885E-03     123.648E-03    -62.3112E-03     7.39400E-03    -18.8951E+06    -37.6680E+06    -62.4560E+06    -44.2970E+06    -55.8271E+06    -18.8951E+06     773.092E+03         38.1347
            1253     10.3387E-03     66.6771E-03         2.86991    -829.882E-03    -836.759E-03    -829.789E-03         2.86977    -836.716E-03     7.69064E-03     123.466E-03    -61.3157E-03    -62.1799E-03    -61.1878E-03     123.338E-03    -62.1799E-03     9.70439E-03     16.9172E+06    -24.9143E+06    -41.1624E+06    -41.1430E+06     10.3714E+06    -18.3878E+06     722.251E+03         41.5879
            1254     11.2790E-03     66.6880E-03         2.87253    -829.240E-03    -840.753E-03    -834.710E-03         2.87234    -835.100E-03    -782.400E-06     123.627E-03    -61.5323E-03    -62.1400E-03    -60.8862E-03     122.971E-03    -62.1296E-03     19.7693E-03     53.7503E+06    -12.7011E+06    -40.2566E+06    -40.1751E+06     53.6687E+06    -12.7011E+06     2.36121E+06         45.6906
            1255     12.2199E-03     66.7216E-03         2.85859    -816.455E-03    -841.682E-03    -825.947E-03         2.85840    -832.001E-03     1.06847E-03     126.238E-03    -62.1190E-03    -64.2261E-03    -60.8778E-03     123.026E-03    -62.2551E-03     46.2722E-03     60.8777E+06     14.8289E+06    -37.8696E+06    -37.7874E+06     60.7955E+06     14.8289E+06     1.35838E+06         50.5012
            1256     13.1601E-03     66.7908E-03         2.84137    -811.433E-03    -831.508E-03    -816.551E-03         2.84125    -826.266E-03     30.1877E-03     131.098E-03    -62.3931E-03    -68.7770E-03    -60.8240E-03     123.145E-03    -62.3931E-03     77.0434E-03     68.2289E+06     51.8908E+06    -33.1408E+06    -33.0340E+06     68.1221E+06     51.8908E+06    -1.48251E+06         56.0783
            1257     14.1015E-03     66.8958E-03         2.83328    -812.950E-03    -824.850E-03    -820.766E-03         2.83324    -816.999E-03     12.8451E-03     151.649E-03    -62.4921E-03    -89.1983E-03    -63.1458E-03     125.596E-03    -62.4921E-03     144.248E-03     86.0021E+06     79.1601E+06    -26.0853E+06    -25.9032E+06     80.4137E+06     84.5664E+06    -1.11349E+06         62.3232
            1258     15.0473E-03     67.1175E-03         2.80942    -794.947E-03    -819.827E-03    -815.781E-03         2.80939    -798.963E-03     16.4805E-03     224.150E-03    -62.5485E-03    -161.605E-03    -76.6405E-03     139.186E-03    -62.5485E-03     315.686E-03     117.554E+06     106.642E+06    -17.3342E+06    -17.2259E+06     106.533E+06     117.554E+06     1.23383E+06         68.4705
            1259     15.9809E-03     67.6278E-03         2.77455    -765.753E-03    -815.378E-03    -811.333E-03         2.77452    -769.769E-03    -1.78358E-03     292.969E-03    -62.5761E-03    -230.177E-03    -92.6145E-03     155.406E-03    -62.5761E-03     460.579E-03     150.853E+06     142.258E+06    -8.48624E+06    -8.46598E+06     142.238E+06     150.853E+06     1.62230E+06         73.1597
            1260     939.772E-06     67.8108E-03         2.72172     119.443E-03        -1.64641     140.669E-03         2.69141        -1.63733    -148.394E-03     124.894E-03    -62.3106E-03    -62.5974E-03    -62.5953E-03     124.891E-03    -62.3106E-03    -1.21022E-03    -73.2778E+06    -76.9404E+06    -258.090E+06    -75.7720E+06    -258.077E+06    -74.4600E+06    -1.13917E+06         29.6298
            1261     1.87962E-03     67.8090E-03         2.68842    -735.091E-03    -760.746E-03    -742.839E-03         2.68298    -747.559E-03     39.2578E-03     125.004E-03    -62.4620E-03    -62.5598E-03    -62.5234E-03     124.999E-03    -62.4936E-03    -1.83223E-03    -67.8216E+06    -73.4913E+06    -255.836E+06    -73.4928E+06    -255.835E+06    -67.8216E+06    -269.756E+03         29.7093
            1262     2.81876E-03     67.8058E-03         2.68556    -741.974E-03    -754.254E-03    -746.650E-03         2.68261    -746.622E-03    -24.1676E-03     124.950E-03    -62.3980E-03    -62.5404E-03    -62.4059E-03     124.942E-03    -62.5252E-03    -2.32311E-03    -59.5664E+06    -70.8919E+06    -253.618E+06    -70.8946E+06    -253.615E+06    -59.5664E+06    -487.233E+03         29.8450
            1263     3.75863E-03     67.8028E-03         2.66744    -728.529E-03    -748.594E-03    -730.358E-03         2.66574    -745.068E-03     24.7131E-03     124.832E-03    -62.2894E-03    -62.5374E-03    -62.2816E-03     124.824E-03    -62.5374E-03    -2.40717E-03    -49.6623E+06    -66.7372E+06    -247.700E+06    -66.7406E+06    -247.697E+06    -49.6623E+06     2.92781E+03         30.0469
            1264     4.69819E-03     67.7996E-03         2.64982    -715.933E-03    -740.945E-03    -715.211E-03         2.64910    -740.945E-03    -32.1493E-03     124.747E-03    -62.2138E-03    -62.5567E-03    -62.2069E-03     124.740E-03    -62.5567E-03    -2.26026E-03    -39.6271E+06    -62.4897E+06    -236.598E+06    -62.4940E+06    -236.593E+06    -39.6271E+06     656.720E+03         30.3770
            1265     5.63852E-03     67.7960E-03         2.66354    -728.786E-03    -741.900E-03    -732.304E-03         2.66331    -738.148E-03     5.36918E-03     124.703E-03    -62.1694E-03    -62.5570E-03    -62.1652E-03     124.699E-03    -62.5570E-03    -1.70499E-03    -31.6861E+06    -57.7848E+06    -220.014E+06    -57.7906E+06    -220.008E+06    -31.6861E+06     865.308E+03         30.9605
            1266     6.57808E-03     67.7943E-03         2.68434    -738.059E-03    -755.664E-03    -754.450E-03         2.68402    -738.948E-03     13.7857E-03     124.561E-03    -62.0681E-03    -62.5089E-03    -62.0671E-03     124.560E-03    -62.5089E-03    -485.172E-06    -27.6010E+06    -53.4545E+06    -190.672E+06    -53.4960E+06    -190.631E+06    -27.6010E+06     1.91163E+06         31.8819
            1267     7.51803E-03     67.7932E-03         2.69937    -741.760E-03    -768.514E-03    -768.228E-03         2.69908    -741.760E-03     29.7890E-03     124.252E-03    -61.8566E-03    -62.4255E-03    -61.8545E-03     124.250E-03    -62.4255E-03     962.128E-06    -27.0650E+06    -50.0546E+06    -150.209E+06    -50.1316E+06    -150.132E+06    -27.0650E+06     2.33435E+06         33.2608
            1268     8.45883E-03     67.7945E-03         2.69411    -744.269E-03    -762.464E-03    -762.383E-03         2.69403    -744.269E-03    -416.309E-06     124.108E-03    -61.8008E-03    -62.3476E-03    -61.7775E-03     124.085E-03    -62.3476E-03     3.64456E-03    -26.5675E+06    -47.0312E+06    -104.543E+06    -47.1087E+06    -104.466E+06    -26.5675E+06     788.406E+03         35.2957
            1269     9.39775E-03     67.7995E-03         2.68908    -743.235E-03    -758.858E-03    -756.604E-03         2.68897    -745.380E-03     17.3008E-03     124.025E-03    -61.7483E-03    -62.3209E-03    -61.6716E-03     123.948E-03    -62.3209E-03     7.34232E-03    -20.8496E+06    -38.4985E+06    -62.6498E+06    -45.8971E+06    -55.2513E+06    -20.8496E+06     423.998E+03         38.0547
            1270     10.3381E-03     67.8096E-03         2.69309    -743.560E-03    -759.109E-03    -756.785E-03         2.69291    -745.704E-03     33.3324E-03     123.635E-03    -61.4415E-03    -62.2179E-03    -61.2987E-03     123.492E-03    -62.2179E-03     10.1842E-03     16.0342E+06    -27.1475E+06    -44.7987E+06    -44.6988E+06     8.28364E+06    -19.4969E+06     1.36009E+06         41.4950
            1271     11.2781E-03     67.8207E-03         2.69753    -745.599E-03    -762.576E-03    -762.389E-03         2.69734    -745.599E-03     25.6072E-03     123.774E-03    -61.5992E-03    -62.2100E-03    -60.9742E-03     123.100E-03    -62.1606E-03     20.3871E-03     53.1167E+06    -15.0394E+06    -41.0147E+06    -40.9159E+06     53.0179E+06    -15.0394E+06     1.33797E+06         45.5857
            1272     12.2194E-03     67.8522E-03         2.71297    -744.778E-03    -781.344E-03    -781.100E-03         2.71272    -744.778E-03     34.0127E-03     126.276E-03    -62.1557E-03    -64.2214E-03    -60.7326E-03     122.924E-03    -62.2918E-03     47.0674E-03     62.7358E+06     15.6921E+06    -35.9549E+06    -35.8018E+06     62.5827E+06     15.6921E+06     1.16981E+06         50.3991
            1273     13.1601E-03     67.9254E-03         2.71254    -742.431E-03    -785.641E-03    -785.437E-03         2.71234    -742.431E-03     51.2466E-03     131.084E-03    -62.4347E-03    -68.7557E-03    -60.5210E-03     122.850E-03    -62.4347E-03     78.4180E-03     69.9849E+06     55.1031E+06    -31.6828E+06    -31.6103E+06     69.9124E+06     55.1031E+06     859.941E+03         56.0071
            1274     14.1022E-03     68.0239E-03         2.69969    -736.353E-03    -779.533E-03    -779.479E-03         2.69963    -736.353E-03     23.6347E-03     152.123E-03    -62.5251E-03    -89.7092E-03    -63.8689E-03     126.282E-03    -62.5251E-03     144.510E-03     85.1719E+06     78.4484E+06    -27.2181E+06    -27.1431E+06     78.8365E+06     84.7088E+06     130.833E+03         62.2906
            1275     15.0419E-03     68.2489E-03         2.69025    -721.606E-03    -787.014E-03    -786.986E-03         2.69023    -721.606E-03    -4.25205E-03     225.468E-03    -62.5929E-03    -162.853E-03    -77.5824E-03     140.198E-03    -62.5929E-03     317.055E-03     115.469E+06     105.459E+06    -19.6542E+06    -19.5657E+06     105.370E+06     115.469E+06    -139.362E+03         68.4634
            1276     15.9829E-03     68.7693E-03         2.67593    -696.863E-03    -800.687E-03    -800.638E-03         2.67588    -696.863E-03    -5.26232E-03     292.091E-03    -62.6018E-03    -229.232E-03    -91.1022E-03     153.961E-03    -62.6018E-03     460.090E-03     148.747E+06     142.356E+06    -9.57701E+06    -9.56085E+06     142.339E+06     148.747E+06     57.6890E+03         73.1666
            1277     939.703E-06     68.9427E-03         2.51761     151.894E-03        -1.48554     164.014E-03         2.50549        -1.48554    -104.432E-03     124.846E-03    -62.3093E-03    -62.5409E-03    -62.5391E-03     124.845E-03    -62.3093E-03    -1.05465E-03    -71.1060E+06    -75.2660E+06    -258.595E+06    -74.7953E+06    -258.577E+06    -71.5948E+06     26.8513E+03         29.6218
            1278     1.87913E-03     68.9408E-03         2.45135    -619.741E-03    -652.524E-03    -618.086E-03         2.44970    -652.524E-03     28.5785E-03     124.919E-03    -62.4471E-03    -62.4798E-03    -62.4694E-03     124.914E-03    -62.4526E-03    -1.82891E-03    -66.5050E+06    -73.3452E+06    -256.331E+06    -73.3552E+06    -256.321E+06    -66.5050E+06     692.327E+03         29.7037
            1279     2.81908E-03     68.9381E-03         2.43994    -621.012E-03    -642.103E-03    -620.425E-03         2.43805    -640.803E-03     36.3036E-03     124.915E-03    -62.4160E-03    -62.5015E-03    -62.4234E-03     124.907E-03    -62.4864E-03    -2.40065E-03    -59.3747E+06    -70.0000E+06    -252.921E+06    -70.0023E+06    -252.919E+06    -59.3747E+06     21.6486E+03         29.8425
            1280     3.75862E-03     68.9346E-03         2.45259    -626.629E-03    -647.850E-03    -635.430E-03         2.45102    -637.483E-03     43.6231E-03     124.772E-03    -62.2708E-03    -62.5094E-03    -62.2630E-03     124.764E-03    -62.5094E-03    -2.40206E-03    -51.4963E+06    -66.9238E+06    -248.660E+06    -66.9282E+06    -248.655E+06    -51.4963E+06     326.402E+03         30.0457
            1281     4.69893E-03     68.9314E-03         2.45839    -626.279E-03    -655.593E-03    -643.316E-03         2.45790    -638.065E-03    -9.10821E-03     124.708E-03    -62.2136E-03    -62.5203E-03    -62.2069E-03     124.701E-03    -62.5203E-03    -2.22211E-03    -41.2871E+06    -62.4933E+06    -236.665E+06    -62.4971E+06    -236.661E+06    -41.2871E+06     311.819E+03         30.3695
            1282     5.63826E-03     68.9283E-03         2.46604    -636.288E-03    -654.553E-03    -650.806E-03         2.46577    -639.770E-03     9.90856E-03     124.745E-03    -62.2383E-03    -62.5334E-03    -62.2338E-03     124.741E-03    -62.5334E-03    -1.79055E-03    -32.6811E+06    -57.8098E+06    -220.664E+06    -57.8174E+06    -220.656E+06    -32.6811E+06     521.534E+03         30.9380
            1283     6.57839E-03     68.9259E-03         2.47453    -642.053E-03    -659.181E-03    -658.682E-03         2.47403    -642.053E-03     27.2977E-03     124.555E-03    -62.0782E-03    -62.4941E-03    -62.0766E-03     124.553E-03    -62.4941E-03    -660.273E-06    -29.5973E+06    -53.6935E+06    -192.451E+06    -53.7292E+06    -192.415E+06    -29.5973E+06     1.19728E+06         31.8421
            1284     7.51832E-03     68.9254E-03         2.48269    -644.654E-03    -666.959E-03    -666.542E-03         2.48227    -644.654E-03     55.9022E-03     124.362E-03    -61.9666E-03    -62.4222E-03    -61.9645E-03     124.359E-03    -62.4222E-03     922.106E-06    -27.2529E+06    -49.2489E+06    -149.634E+06    -49.2909E+06    -149.592E+06    -27.2529E+06     1.11007E+06         33.2055
            1285     8.45757E-03     68.9262E-03         2.49610    -647.470E-03    -676.577E-03    -676.544E-03         2.49607    -647.470E-03     14.6103E-03     124.161E-03    -61.8458E-03    -62.3545E-03    -61.8184E-03     124.133E-03    -62.3545E-03     3.89352E-03    -25.4884E+06    -46.5116E+06    -103.750E+06    -46.5580E+06    -103.704E+06    -25.4884E+06     1.21940E+06         35.2264
            1286     9.39823E-03     68.9329E-03         2.51535    -650.662E-03    -691.552E-03    -691.426E-03         2.51522    -650.662E-03     34.0065E-03     123.865E-03    -61.5928E-03    -62.3197E-03    -61.5059E-03     123.779E-03    -62.3197E-03     7.83156E-03    -20.3083E+06    -39.6294E+06    -61.9782E+06    -44.6895E+06    -56.9181E+06    -20.3083E+06     2.08851E+06         37.9727
            1287     10.3381E-03     68.9407E-03         2.52585    -653.928E-03    -697.207E-03    -697.087E-03         2.52573    -653.928E-03     28.8635E-03     123.501E-03    -61.3150E-03    -62.2076E-03    -61.1509E-03     123.337E-03    -62.2076E-03     10.9171E-03     18.1730E+06    -26.8204E+06    -43.5099E+06    -42.9820E+06     8.39914E+06    -17.5744E+06     1.96182E+06         41.4015
            1288     11.2793E-03     68.9536E-03         2.53275    -656.461E-03    -700.862E-03    -700.790E-03         2.53268    -656.461E-03     17.0143E-03     123.809E-03    -61.6344E-03    -62.2011E-03    -60.9709E-03     123.096E-03    -62.1517E-03     21.1830E-03     54.5099E+06    -12.2047E+06    -41.4984E+06    -41.4664E+06     54.4779E+06    -12.2047E+06     162.711E+03         45.4815
            1289     12.2187E-03     68.9849E-03         2.55806    -658.157E-03    -726.374E-03    -726.228E-03         2.55791    -658.157E-03     36.6993E-03     126.132E-03    -62.2347E-03    -63.9944E-03    -60.6223E-03     122.804E-03    -62.2794E-03     47.0064E-03     61.1007E+06     15.3706E+06    -38.3521E+06    -38.2440E+06     60.9926E+06     15.3706E+06    -23.7352E+03         50.2985
            1290     13.1622E-03     69.0545E-03         2.58349    -659.087E-03    -753.287E-03    -753.094E-03         2.58330    -659.087E-03     19.7100E-03     131.029E-03    -62.4149E-03    -68.6892E-03    -60.5172E-03     122.857E-03    -62.4149E-03     78.0816E-03     69.4651E+06     53.8258E+06    -32.1035E+06    -31.9453E+06     69.3070E+06     53.8258E+06     1.80508E+06         55.9360
            1291     14.1030E-03     69.1584E-03         2.58476    -657.084E-03    -760.648E-03    -760.541E-03         2.58466    -657.084E-03     3.18098E-03     153.581E-03    -62.5195E-03    -91.1151E-03    -64.8170E-03     127.282E-03    -62.5195E-03     146.520E-03     87.3195E+06     80.3399E+06    -25.1918E+06    -25.0835E+06     81.1080E+06     86.4430E+06     2.26630E+06         62.2576
            1292     15.0402E-03     69.3853E-03         2.58241    -646.645E-03    -768.863E-03    -768.830E-03         2.58238    -646.645E-03    -504.941E-06     225.973E-03    -62.6063E-03    -163.279E-03    -77.2657E-03     139.959E-03    -62.6063E-03     318.398E-03     117.839E+06     107.297E+06    -17.6797E+06    -17.6162E+06     107.233E+06     117.839E+06     1.18139E+06         68.4586
            1293     15.9852E-03     69.8948E-03         2.57370    -626.119E-03    -780.185E-03    -780.127E-03         2.57364    -626.119E-03     7.05849E-03     290.138E-03    -62.6029E-03    -227.317E-03    -89.7627E-03     152.584E-03    -62.6029E-03     457.185E-03     149.320E+06     141.528E+06    -8.86091E+06    -8.82565E+06     141.493E+06     149.320E+06    -293.556E+03         73.1748
            1294     939.826E-06     70.0741E-03         2.22574     214.863E-03        -1.27724     201.753E-03         2.22260        -1.26099    -33.2475E-03     124.767E-03    -62.2516E-03    -62.5159E-03    -62.3781E-03     124.764E-03    -62.3865E-03    -1.31519E-03    -70.8084E+06    -74.4573E+06    -260.273E+06    -74.0112E+06    -260.231E+06    -71.2971E+06     1.67488E+06         29.6137
            1295     1.87972E-03     70.0731E-03         2.22356    -509.128E-03    -548.534E-03    -527.586E-03         2.22293    -529.443E-03     13.0086E-03     124.700E-03    -62.2998E-03    -62.4058E-03    -62.3132E-03     124.696E-03    -62.3889E-03    -1.52459E-03    -65.0395E+06    -70.7054E+06    -257.023E+06    -70.7312E+06    -256.997E+06    -65.0395E+06     1.37555E+06         29.6948
            1296     2.81907E-03     70.0698E-03         2.21136    -512.764E-03    -536.239E-03    -519.722E-03         2.20999    -527.906E-03     45.5690E-03     124.810E-03    -62.3691E-03    -62.4554E-03    -62.4061E-03     124.803E-03    -62.4115E-03    -2.25062E-03    -59.0918E+06    -68.9620E+06    -252.724E+06    -68.9817E+06    -252.704E+06    -59.0918E+06     1.49634E+06         29.8373
            1297     3.75903E-03     70.0664E-03         2.24353    -527.027E-03    -555.377E-03    -551.374E-03         2.24208    -529.577E-03     34.5336E-03     124.850E-03    -62.3667E-03    -62.5018E-03    -62.3894E-03     124.841E-03    -62.4708E-03    -2.49171E-03    -50.6021E+06    -65.9100E+06    -248.309E+06    -65.9151E+06    -248.304E+06    -50.6021E+06     503.517E+03         30.0447
            1298     4.69843E-03     70.0629E-03         2.27293    -536.391E-03    -574.867E-03    -574.439E-03         2.27250    -536.391E-03    -21.7559E-03     124.780E-03    -62.3110E-03    -62.4912E-03    -62.3043E-03     124.773E-03    -62.4912E-03    -2.20834E-03    -42.9190E+06    -62.3876E+06    -236.616E+06    -62.3936E+06    -236.610E+06    -42.9190E+06     111.557E+03         30.3637
            1299     5.63858E-03     70.0604E-03         2.27040    -542.516E-03    -567.546E-03    -567.421E-03         2.27027    -542.516E-03     5.36625E-03     124.733E-03    -62.2364E-03    -62.5206E-03    -62.2321E-03     124.729E-03    -62.5206E-03    -1.77102E-03    -34.1363E+06    -59.0182E+06    -221.908E+06    -59.0299E+06    -221.896E+06    -34.1363E+06     555.082E+03         30.9158
            1300     6.57799E-03     70.0576E-03         2.26492    -545.822E-03    -560.985E-03    -560.580E-03         2.26451    -545.822E-03     31.1086E-03     124.546E-03    -62.0691E-03    -62.4926E-03    -62.0673E-03     124.544E-03    -62.4926E-03    -675.155E-06    -29.2356E+06    -54.4010E+06    -192.198E+06    -54.4098E+06    -192.189E+06    -29.2356E+06     59.4449E+03         31.8013
            1301     7.51814E-03     70.0573E-03         2.28122    -548.578E-03    -575.500E-03    -575.131E-03         2.28085    -548.578E-03     47.7391E-03     124.275E-03    -61.8885E-03    -62.4104E-03    -61.8846E-03     124.271E-03    -62.4104E-03     1.32652E-03    -28.4602E+06    -50.7450E+06    -150.115E+06    -50.7613E+06    -150.099E+06    -28.4602E+06     43.3499E+03         33.1489
            1302     8.45837E-03     70.0591E-03         2.31618    -553.010E-03    -605.714E-03    -605.713E-03         2.31618    -553.010E-03     2.69739E-03     123.911E-03    -61.6182E-03    -62.3258E-03    -61.5889E-03     123.882E-03    -62.3258E-03     4.25842E-03    -26.7138E+06    -47.5126E+06    -105.526E+06    -47.6307E+06    -105.407E+06    -26.7138E+06     1.59271E+06         35.1560
            1303     9.39849E-03     70.0634E-03         2.34126    -558.765E-03    -623.954E-03    -623.922E-03         2.34123    -558.765E-03     6.71528E-03     123.635E-03    -61.4076E-03    -62.2697E-03    -61.3136E-03     123.541E-03    -62.2697E-03     8.09832E-03    -21.2843E+06    -40.3145E+06    -62.4967E+06    -45.0794E+06    -57.7319E+06    -21.2843E+06     2.37807E+06         37.8898
            1304     10.3394E-03     70.0740E-03         2.36350    -564.693E-03    -639.024E-03    -638.942E-03         2.36341    -564.693E-03     14.8394E-03     123.413E-03    -61.2840E-03    -62.1577E-03    -61.1186E-03     123.248E-03    -62.1577E-03     11.0056E-03     18.9737E+06    -26.4899E+06    -43.3759E+06    -42.8795E+06     9.13354E+06    -17.1461E+06     2.20205E+06         41.3069
            1305     11.2790E-03     70.0850E-03         2.39656    -570.859E-03    -666.822E-03    -666.743E-03         2.39649    -570.859E-03    -1.04438E-03     123.495E-03    -61.4341E-03    -62.1007E-03    -60.7170E-03     122.778E-03    -62.1007E-03     21.0872E-03     56.4289E+06    -9.90812E+06    -40.8501E+06    -40.8166E+06     56.3955E+06    -9.90812E+06     1.38362E+06         45.3762
            1306     12.2213E-03     70.1174E-03         2.41599    -576.327E-03    -681.649E-03    -681.548E-03         2.41589    -576.327E-03     10.9509E-03     126.352E-03    -62.0173E-03    -64.4414E-03    -60.9346E-03     123.062E-03    -62.2342E-03     46.9945E-03      60.849E+06     17.0321E+06    -38.5578E+06    -38.5117E+06     60.8029E+06     17.0321E+06     172.719E+03         50.1958
            1307     13.1600E-03     70.1857E-03         2.43706    -579.948E-03    -700.639E-03    -700.492E-03         2.43691    -579.948E-03     310.585E-06     131.986E-03    -62.4001E-03    -69.6517E-03    -61.5625E-03     123.896E-03    -62.4001E-03     78.0578E-03     67.4743E+06     51.2899E+06    -33.7529E+06    -33.6121E+06     67.3335E+06     51.2899E+06     493.297E+03         55.8588
            1308     14.1016E-03     70.2909E-03         2.46454    -580.694E-03    -727.536E-03    -727.436E-03         2.46444    -580.694E-03    -7.75862E-03     153.082E-03    -62.5090E-03    -90.5168E-03    -63.8157E-03     126.381E-03    -62.5090E-03     146.623E-03      86.081E+06     78.6727E+06    -26.0789E+06    -25.9540E+06     81.1325E+06     83.4963E+06     1.40739E+06         62.2213
            1309     15.0452E-03     70.5205E-03         2.47585    -573.768E-03    -747.776E-03    -747.730E-03         2.47581    -573.768E-03     21.5750E-03     225.488E-03    -62.5650E-03    -162.697E-03    -76.5864E-03     139.378E-03    -62.5650E-03     318.611E-03     117.371E+06     107.950E+06    -17.7263E+06    -17.6653E+06     107.889E+06     117.371E+06     965.386E+03         68.4560
            1310     15.9824E-03     71.0264E-03         2.46945    -557.299E-03    -763.774E-03    -763.739E-03         2.46941    -557.299E-03     17.0748E-03     288.860E-03    -62.5701E-03    -225.929E-03    -89.9007E-03     152.831E-03    -62.5701E-03     453.954E-03     149.702E+06     142.160E+06    -8.87066E+06    -8.81386E+06     142.103E+06     149.702E+06     498.016E+03         73.1819
            1311     939.483E-06     71.2058E-03         1.94265     277.269E-03        -1.07538     256.444E-03         1.93935        -1.05125     37.4962E-03     124.753E-03    -62.1170E-03    -62.6279E-03    -62.4324E-03     124.749E-03    -62.3084E-03    -1.58415E-03    -73.5181E+06    -77.2232E+06    -260.689E+06    -76.3765E+06    -260.656E+06    -74.3979E+06     1.05746E+06         29.6090
            1312     1.87969E-03     71.2041E-03         2.00709    -408.326E-03    -451.102E-03    -450.567E-03         2.00655    -408.326E-03    -43.1925E-03     124.489E-03    -62.1322E-03    -62.3646E-03    -62.1410E-03     124.485E-03    -62.3517E-03    -1.73756E-03    -66.6865E+06    -72.1586E+06    -258.533E+06    -72.1746E+06    -258.517E+06    -66.6865E+06     659.271E+03         29.6884
            1313     2.81983E-03     71.2020E-03         2.03191    -424.816E-03    -460.206E-03    -459.102E-03         2.03081    -424.816E-03     16.0679E-03     124.700E-03    -62.2706E-03    -62.4345E-03    -62.3485E-03     124.693E-03    -62.3500E-03    -2.19586E-03    -58.6865E+06    -68.2648E+06    -253.343E+06    -68.2839E+06    -253.324E+06    -58.6865E+06     1.45024E+06         29.8315
            1314     3.75899E-03     71.1982E-03         2.03632    -432.146E-03    -461.924E-03    -459.119E-03         2.03530    -433.933E-03     24.7673E-03     124.941E-03    -62.4272E-03    -62.5209E-03    -62.5087E-03     124.933E-03    -62.4309E-03    -2.51421E-03    -49.5621E+06    -65.0465E+06    -247.786E+06    -65.0633E+06    -247.770E+06    -49.5621E+06     1.12894E+06         30.0415
            1315     4.69883E-03     71.1952E-03         2.04553    -437.885E-03    -465.120E-03    -462.910E-03         2.04511    -439.671E-03    -13.8896E-03     124.787E-03    -62.3072E-03    -62.5001E-03    -62.3191E-03     124.781E-03    -62.4818E-03    -2.18085E-03    -41.0868E+06    -61.8902E+06    -237.162E+06    -61.9082E+06    -237.144E+06    -41.0868E+06     1.18874E+06         30.3565
            1316     5.63825E-03     71.1920E-03         2.06522    -444.884E-03    -476.742E-03    -476.597E-03         2.06507    -444.884E-03     10.3170E-03     124.585E-03    -62.1052E-03    -62.5004E-03    -62.1018E-03     124.582E-03    -62.5004E-03    -1.48025E-03    -32.2757E+06    -57.8322E+06    -221.514E+06    -57.8400E+06    -221.506E+06    -32.2757E+06     746.074E+03         30.8928
            1317     6.57859E-03     71.1900E-03         2.08643    -450.655E-03    -492.483E-03    -492.037E-03         2.08598    -450.655E-03     35.6070E-03     124.494E-03    -62.0475E-03    -62.4590E-03    -62.0465E-03     124.493E-03    -62.4590E-03    -236.678E-06    -28.6979E+06    -54.6529E+06    -191.641E+06    -54.6560E+06    -191.638E+06    -28.6979E+06     71.5928E+03         31.7598
            1318     7.51827E-03     71.1889E-03         2.11461    -457.205E-03    -514.386E-03    -513.955E-03         2.11418    -457.205E-03     50.9381E-03     124.133E-03    -61.7816E-03    -62.3747E-03    -61.7778E-03     124.129E-03    -62.3747E-03     1.40994E-03    -28.3305E+06    -51.7485E+06    -150.888E+06    -51.7587E+06    -150.878E+06    -28.3305E+06     154.583E+03         33.0917
            1319     8.45876E-03     71.1906E-03         2.14351    -464.610E-03    -536.597E-03    -536.590E-03         2.14350    -464.610E-03     3.33741E-03     123.766E-03    -61.5133E-03    -62.2827E-03    -61.4852E-03     123.737E-03    -62.2827E-03     4.15900E-03     -27.841E+06    -49.1077E+06    -107.933E+06    -49.2021E+06    -107.839E+06     -27.841E+06     1.03365E+06         35.0848
            1320     9.39924E-03     71.1957E-03         2.17233    -472.351E-03    -555.391E-03    -555.361E-03         2.17230    -472.351E-03    -12.7699E-03     123.631E-03    -61.4422E-03    -62.2255E-03    -61.3518E-03     123.540E-03    -62.2255E-03     7.94286E-03    -22.0710E+06    -40.4988E+06    -63.8903E+06    -46.4115E+06    -57.9776E+06    -22.0710E+06     1.97444E+06         37.8055
            1321     10.3390E-03     71.2057E-03         2.20807    -480.383E-03    -580.408E-03    -580.297E-03         2.20796    -480.383E-03     10.5746E-03     123.170E-03    -61.0893E-03    -62.1110E-03    -60.9256E-03     123.006E-03    -62.1110E-03     10.9179E-03     18.8611E+06    -26.1372E+06    -43.3412E+06    -42.9908E+06     9.94453E+06    -17.5710E+06     1.63851E+06         41.2103
            1322     11.2806E-03     71.2171E-03         2.25322    -489.151E-03    -618.320E-03    -618.179E-03         2.25308    -489.151E-03     21.5215E-03     123.336E-03    -61.2713E-03    -62.1120E-03    -60.6479E-03     122.646E-03    -62.0455E-03     20.7685E-03     56.4628E+06    -10.8545E+06    -40.3682E+06    -40.2930E+06     56.3876E+06    -10.8545E+06     1.51964E+06         45.2679
            1323     12.2208E-03     71.2478E-03         2.28478    -497.559E-03    -643.357E-03    -643.179E-03         2.28460    -497.559E-03     26.3961E-03     126.506E-03    -62.0111E-03    -64.6053E-03    -61.0436E-03     123.116E-03    -62.1833E-03     47.4306E-03     61.8595E+06     17.0397E+06    -37.5846E+06    -37.5217E+06     61.7967E+06     17.0397E+06     1.85276E+06         50.0897
            1324     13.1620E-03     71.3216E-03         2.30553    -503.888E-03    -656.756E-03    -656.534E-03         2.30531    -503.888E-03     37.6971E-03     132.528E-03    -62.3458E-03    -70.2133E-03    -61.7418E-03     124.056E-03    -62.3458E-03     80.0361E-03     67.7956E+06     51.8962E+06    -33.1397E+06    -33.0811E+06     67.7370E+06     51.8962E+06     655.677E+03         55.7818
            1325     14.0997E-03     71.4226E-03         2.34379    -507.255E-03    -689.206E-03    -689.084E-03         2.34367    -507.255E-03     20.4945E-03     152.904E-03    -62.4828E-03    -90.3805E-03    -63.9376E-03     126.461E-03    -62.4828E-03     146.319E-03     84.9715E+06     78.5985E+06    -26.3718E+06    -26.2988E+06     80.4903E+06     83.0068E+06     337.848E+03         62.1837
            1326     15.0443E-03     71.6458E-03         2.36557    -503.725E-03    -720.402E-03    -720.358E-03         2.36553    -503.725E-03     13.9907E-03     225.894E-03    -62.5474E-03    -163.164E-03    -75.5312E-03     138.261E-03    -62.5474E-03     320.483E-03     116.470E+06     107.712E+06    -17.9843E+06    -17.9330E+06     107.660E+06     116.470E+06     197.011E+03         68.4506
            1327     15.9864E-03     72.1718E-03         2.37130    -491.804E-03    -746.480E-03    -746.456E-03         2.37128    -491.804E-03     6.79491E-03     289.127E-03    -62.5189E-03    -226.256E-03    -90.1207E-03     152.992E-03    -62.5189E-03     454.381E-03     148.750E+06     142.483E+06    -9.45307E+06    -9.41664E+06     142.446E+06     148.750E+06     316.507E+03         73.1908
            1328     939.783E-06     72.3382E-03         1.78796     250.063E-03    -911.157E-03     248.911E-03         1.78122    -903.270E-03     65.6682E-03     124.697E-03    -61.9994E-03    -62.6957E-03    -62.6358E-03     124.693E-03    -62.0559E-03    -1.47095E-03    -71.9080E+06    -75.1117E+06    -260.389E+06    -74.2326E+06    -260.388E+06    -72.7878E+06     195.208E+03         29.6080
            1329     1.87939E-03     72.3349E-03         1.80544    -317.598E-03    -353.903E-03    -340.561E-03         1.80472    -330.217E-03    -70.6335E-03     124.683E-03    -62.2199E-03    -62.4783E-03    -62.3183E-03     124.678E-03    -62.3749E-03    -1.90644E-03    -67.6279E+06    -72.8297E+06    -259.193E+06    -72.8316E+06    -259.191E+06    -67.6279E+06    -171.455E+03         29.6883
            1330     2.81937E-03     72.3336E-03         1.83521    -335.332E-03    -369.010E-03    -366.029E-03         1.83458    -337.684E-03     9.62835E-03     124.578E-03    -62.1615E-03    -62.4231E-03    -62.1953E-03     124.571E-03    -62.3824E-03    -2.23409E-03    -60.8217E+06    -69.4563E+06    -255.099E+06    -69.4625E+06    -255.092E+06    -60.8217E+06     381.555E+03         29.8274
            1331     3.75935E-03     72.3305E-03         1.83309    -342.918E-03    -363.815E-03    -361.261E-03         1.83233    -344.704E-03     4.79765E-03     124.706E-03    -62.2458E-03    -62.4673E-03    -62.2969E-03     124.698E-03    -62.4084E-03    -2.40366E-03    -50.2122E+06    -65.7278E+06    -248.166E+06    -65.7448E+06    -248.149E+06    -50.2122E+06     1.30107E+06         30.0342
            1332     4.69858E-03     72.3270E-03         1.83421    -346.375E-03    -361.662E-03    -359.438E-03         1.83377    -348.161E-03    -19.1329E-03     124.653E-03    -62.2084E-03    -62.4613E-03    -62.2202E-03     124.646E-03    -62.4430E-03    -2.18925E-03    -39.0722E+06    -61.0162E+06    -237.080E+06    -61.0347E+06    -237.061E+06    -39.0722E+06     1.38082E+06         30.3446
            1333     5.63919E-03     72.3236E-03         1.87016    -352.518E-03    -388.728E-03    -388.506E-03         1.86994    -352.518E-03    -6.32545E-03     124.481E-03    -62.0490E-03    -62.4499E-03    -62.0459E-03     124.478E-03    -62.4499E-03    -1.36368E-03    -30.9099E+06    -56.4930E+06    -221.044E+06    -56.5027E+06    -221.035E+06    -30.9099E+06     1.17422E+06         30.8678
            1334     6.57892E-03     72.3218E-03         1.91849    -360.470E-03    -428.400E-03    -427.768E-03         1.91785    -360.470E-03     32.0073E-03     124.377E-03    -61.9842E-03    -62.4056E-03    -61.9837E-03     124.377E-03    -62.4056E-03    -101.645E-06    -27.3364E+06    -53.4689E+06    -191.562E+06    -53.4941E+06    -191.537E+06    -27.3364E+06     1.24576E+06         31.7177
            1335     7.51885E-03     72.3213E-03         1.95374    -370.533E-03    -454.458E-03    -453.913E-03         1.95320    -370.533E-03     56.5737E-03     124.146E-03    -61.8370E-03    -62.3326E-03    -61.8340E-03     124.143E-03    -62.3326E-03     1.26336E-03    -26.7052E+06    -51.5913E+06    -151.588E+06    -51.6267E+06    -151.553E+06    -26.7052E+06     1.47182E+06         33.0343
            1336     8.45898E-03     72.3216E-03         1.97517    -380.387E-03    -466.356E-03    -466.327E-03         1.97514    -380.387E-03     10.7250E-03     123.783E-03    -61.5783E-03    -62.2429E-03    -61.5463E-03     123.751E-03    -62.2429E-03     4.30332E-03    -28.1642E+06    -49.8892E+06    -108.465E+06    -49.9457E+06    -108.408E+06    -28.1642E+06     1.29943E+06         35.0131
            1337     9.39890E-03     72.3285E-03         2.01310    -389.941E-03    -493.731E-03    -493.484E-03         2.01285    -389.941E-03     18.7566E-03     123.457E-03    -61.3323E-03    -62.1673E-03    -61.2369E-03     123.362E-03    -62.1673E-03     8.22003E-03    -25.5437E+06    -39.8398E+06    -64.9737E+06    -46.9560E+06    -57.8576E+06    -25.5437E+06     358.388E+03         37.7207
            1338     10.3401E-03     72.3367E-03         2.05997    -400.244E-03    -527.211E-03    -526.900E-03         2.05966    -400.244E-03     35.0266E-03     123.034E-03    -61.0128E-03    -62.0523E-03    -60.8507E-03     122.872E-03    -62.0523E-03     10.8653E-03     15.1237E+06    -24.9804E+06    -43.9099E+06    -43.3153E+06     9.77176E+06    -20.2231E+06     487.374E+03         41.1130
            1339     11.2807E-03     72.3489E-03         2.10022    -410.860E-03    -554.085E-03    -553.910E-03         2.10005    -410.860E-03     42.5806E-03     123.417E-03    -61.3990E-03    -62.0750E-03    -60.7565E-03     122.708E-03    -62.0085E-03     20.9810E-03     55.0138E+06    -11.2183E+06    -41.0683E+06    -40.9734E+06     54.9189E+06    -11.2183E+06     1.90209E+06         45.1576
            1340     12.2212E-03     72.3810E-03         2.14885    -421.006E-03    -593.782E-03    -593.624E-03         2.14869    -421.006E-03     32.1950E-03     126.244E-03    -62.1168E-03    -64.2415E-03    -60.8057E-03     122.829E-03    -62.1378E-03     47.6060E-03     62.0851E+06     16.4259E+06    -37.8946E+06    -37.8286E+06     62.0190E+06     16.4259E+06     2.05644E+06         49.9816
            1341     13.1624E-03     72.4517E-03         2.19827    -430.434E-03    -634.196E-03    -633.956E-03         2.19803    -430.434E-03     42.1281E-03     131.673E-03    -62.2611E-03    -69.4793E-03    -60.8033E-03     122.997E-03    -62.2611E-03     80.5191E-03     69.1201E+06     52.9236E+06    -32.8458E+06    -32.8048E+06     69.0791E+06     52.9236E+06     1.14169E+06         55.7072
            1342     14.1059E-03     72.5584E-03         2.23770    -437.749E-03    -666.729E-03    -666.537E-03         2.23750    -437.749E-03     25.6402E-03     152.818E-03    -62.3875E-03    -90.5152E-03    -63.8339E-03     126.136E-03    -62.3875E-03     147.363E-03     85.5881E+06     79.3881E+06    -26.5075E+06    -26.4808E+06     80.7840E+06     84.1654E+06     19.1577E+03         62.1536
            1343     15.0415E-03     72.7782E-03         2.26385    -438.508E-03    -696.626E-03    -696.581E-03         2.26381    -438.508E-03    -17.0911E-03     225.856E-03    -62.4670E-03    -163.388E-03    -75.7356E-03     138.203E-03    -62.4670E-03     320.493E-03     116.717E+06     108.041E+06    -18.5168E+06    -18.5045E+06     108.029E+06     116.717E+06     303.587E+03         68.4495
            1344     15.9938E-03     73.2925E-03         2.28625    -431.546E-03    -732.560E-03    -732.497E-03         2.28619    -431.546E-03     293.016E-06     289.662E-03    -62.4758E-03    -227.011E-03    -91.0885E-03     153.740E-03    -62.4758E-03     454.925E-03     148.665E+06     142.598E+06    -10.2367E+06    -10.2297E+06     142.591E+06     148.665E+06     304.356E+03         73.1983
            1345     940.374E-06     73.4694E-03         1.64667     218.603E-03    -756.003E-03     230.372E-03         1.62885    -749.950E-03     135.351E-03     124.596E-03    -62.0942E-03    -62.5085E-03    -62.4573E-03     124.593E-03    -62.1424E-03    -1.52826E-03    -71.3792E+06    -73.8577E+06    -260.046E+06    -73.4094E+06    -260.045E+06    -71.8282E+06     61.9967E+03         29.6065
            1346     1.87943E-03     73.4680E-03         1.61318    -239.257E-03    -262.934E-03    -243.963E-03         1.61184    -256.881E-03    -5.53686E-03     124.774E-03    -62.2901E-03    -62.4983E-03    -62.4268E-03     124.770E-03    -62.3574E-03    -1.74186E-03    -66.7894E+06    -71.9202E+06    -259.112E+06    -71.4798E+06    -259.104E+06    -67.2384E+06     429.779E+03         29.6876
            1347     2.81896E-03     73.4643E-03         1.62305    -246.766E-03    -264.212E-03    -255.686E-03         1.62188    -254.123E-03     54.4658E-03     124.612E-03    -62.1894E-03    -62.4386E-03    -62.2213E-03     124.607E-03    -62.4011E-03    -2.05715E-03    -60.1360E+06    -69.7403E+06    -256.096E+06    -69.7539E+06    -256.082E+06    -60.1360E+06     516.609E+03         29.8237
            1348     3.75929E-03     73.4621E-03         1.65307    -257.801E-03    -283.944E-03    -283.324E-03         1.65245    -257.801E-03    -6.11881E-03     124.398E-03    -62.0255E-03    -62.3896E-03    -62.0188E-03     124.391E-03    -62.3896E-03    -2.22365E-03    -49.7996E+06    -65.7259E+06    -248.755E+06    -65.7323E+06    -248.749E+06    -49.7996E+06     421.754E+03         30.0261
            1349     4.69971E-03     73.4586E-03         1.67915    -264.698E-03    -299.787E-03    -299.431E-03         1.67880    -264.698E-03    -29.7875E-03     124.510E-03    -62.1316E-03    -62.3947E-03    -62.1321E-03     124.503E-03    -62.3869E-03    -2.32811E-03    -38.3719E+06    -60.8592E+06    -237.694E+06    -60.8659E+06    -237.688E+06    -38.3719E+06     644.054E+03         30.3309
            1350     5.63906E-03     73.4551E-03         1.70634    -272.163E-03    -317.852E-03    -317.647E-03         1.70613    -272.163E-03    -23.8546E-03     124.492E-03    -62.0982E-03    -62.4109E-03    -62.1019E-03     124.488E-03    -62.4030E-03    -1.62759E-03    -29.7543E+06    -56.4098E+06    -221.548E+06    -56.4267E+06    -221.531E+06    -29.7543E+06     1.29529E+06         30.8416
            1351     6.57919E-03     73.4536E-03         1.74213    -280.550E-03    -343.744E-03    -343.179E-03         1.74157    -280.550E-03     14.2770E-03     124.225E-03    -61.8709E-03    -62.3691E-03    -61.8700E-03     124.224E-03    -62.3691E-03    -266.004E-06    -25.4542E+06    -52.1689E+06    -192.605E+06    -52.2088E+06    -192.565E+06    -25.4542E+06     2.13167E+06         31.6755
            1352     7.51948E-03     73.4526E-03         1.78003    -290.068E-03    -370.675E-03    -370.275E-03         1.77963    -290.068E-03     40.2311E-03     124.060E-03    -61.7888E-03    -62.2941E-03    -61.7857E-03     124.057E-03    -62.2941E-03     1.28526E-03    -24.0686E+06    -49.0527E+06    -152.424E+06    -49.1411E+06    -152.336E+06    -24.0686E+06     2.69782E+06         32.9772
            1353     8.45921E-03     73.4541E-03         1.81812    -300.543E-03    -400.984E-03    -400.955E-03         1.81809    -300.543E-03     4.09450E-03     123.701E-03    -61.5371E-03    -62.1996E-03    -61.5060E-03     123.670E-03    -62.1996E-03     4.26089E-03    -24.8922E+06    -46.3166E+06    -106.776E+06    -46.4396E+06    -106.653E+06    -24.8922E+06     1.62505E+06         34.9424
            1354     9.40028E-03     73.4587E-03         1.86627    -312.045E-03    -437.941E-03    -437.706E-03         1.86604    -312.045E-03     32.1909E-03     123.311E-03    -61.2357E-03    -62.1189E-03    -61.1364E-03     123.212E-03    -62.1189E-03     8.33805E-03    -23.4537E+06    -37.9190E+06    -63.4163E+06    -44.5845E+06    -56.7508E+06    -23.4537E+06     7.60612E+03         37.6371
            1355     10.3403E-03     73.4693E-03         1.92310    -324.802E-03    -480.295E-03    -480.025E-03         1.92283    -324.802E-03     34.7594E-03     123.082E-03    -61.0981E-03    -62.0079E-03    -60.9321E-03     122.916E-03    -62.0079E-03     11.0209E-03     13.5282E+06    -24.4800E+06    -44.4132E+06    -43.7597E+06     7.74616E+06    -19.3513E+06     644.355E+03         41.0169
            1356     11.2809E-03     73.4800E-03         1.97270    -338.230E-03    -515.238E-03    -515.122E-03         1.97258    -338.230E-03     18.9866E-03     123.366E-03    -61.4400E-03    -61.9683E-03    -60.7003E-03     122.626E-03    -61.9683E-03     21.3217E-03     53.6134E+06    -9.85839E+06    -41.4643E+06    -41.3765E+06     53.5256E+06    -9.85839E+06     2.01604E+06         45.0485
            1357     12.2222E-03     73.5132E-03         2.02667    -351.216E-03    -552.871E-03    -552.808E-03         2.02660    -351.216E-03     9.24346E-03     125.904E-03    -61.9885E-03    -64.0442E-03    -60.6033E-03     122.531E-03    -62.0559E-03     47.5062E-03     62.3651E+06     16.3989E+06    -37.8526E+06    -37.7901E+06     62.3026E+06     16.3989E+06     2.03769E+06         49.8749
            1358     13.1634E-03     73.5826E-03         2.08676    -363.659E-03    -603.726E-03    -603.625E-03         2.08666    -363.659E-03     5.23990E-03     130.921E-03    -62.1607E-03    -68.9246E-03    -60.2732E-03     122.270E-03    -62.1607E-03     79.9889E-03     69.7102E+06     51.3961E+06    -33.0253E+06    -32.9788E+06     69.6637E+06     51.3961E+06     1.27334E+06         55.6334
            1359     14.1039E-03     73.6888E-03         2.13032    -374.316E-03    -639.322E-03    -639.205E-03         2.13021    -374.316E-03     1.15025E-03     151.352E-03    -62.2625E-03    -89.2273E-03    -62.3729E-03     124.498E-03    -62.2625E-03     146.817E-03     86.6163E+06     78.3577E+06    -26.2991E+06    -26.2729E+06     81.2717E+06     83.6762E+06     429.321E+03         62.1275
            1360     15.0533E-03     73.9109E-03         2.17162    -378.887E-03    -678.614E-03    -678.572E-03         2.17158    -378.887E-03    -16.4557E-03     226.101E-03    -62.3506E-03    -163.795E-03    -77.4972E-03     139.803E-03    -62.3506E-03     319.876E-03     114.821E+06     106.186E+06    -20.6768E+06    -20.6745E+06     106.184E+06     114.821E+06     106.758E+03         68.4528
            1361     15.9823E-03     74.4263E-03         2.20424    -376.453E-03    -721.509E-03    -721.426E-03         2.20416    -376.453E-03     8.94792E-03     290.086E-03    -62.4630E-03    -227.551E-03    -92.4925E-03     155.027E-03    -62.4630E-03     454.612E-03     148.021E+06     142.768E+06    -10.8028E+06    -10.7987E+06     142.764E+06     148.021E+06    -286.827E+03         73.2067
            1362     939.101E-06     74.6007E-03         1.44938     201.352E-03    -556.909E-03     231.176E-03         1.39852    -535.874E-03     224.815E-03     124.604E-03    -62.0854E-03    -62.5135E-03    -62.3982E-03     124.601E-03    -62.1981E-03    -1.38278E-03    -71.8104E+06    -76.3965E+06    -261.588E+06    -75.0431E+06    -261.568E+06    -73.1839E+06     616.722E+03         29.6043
            1363     1.88003E-03     74.5993E-03         1.44428    -154.935E-03    -196.236E-03    -189.035E-03         1.44208    -159.939E-03    -2.24049E-03     124.509E-03    -62.1649E-03    -62.3520E-03    -62.1989E-03     124.505E-03    -62.3144E-03    -1.60378E-03    -65.9502E+06    -73.8948E+06    -259.724E+06    -73.4735E+06    -259.696E+06    -66.3992E+06     1.21499E+06         29.6834
            1364     2.81968E-03     74.5966E-03         1.45986    -166.145E-03    -199.719E-03    -193.537E-03         1.45868    -171.149E-03     63.5757E-03     124.657E-03    -62.2378E-03    -62.4254E-03    -62.3124E-03     124.651E-03    -62.3446E-03    -2.12086E-03    -57.2088E+06    -69.2991E+06    -255.216E+06    -69.3118E+06    -255.203E+06    -57.2088E+06     367.806E+03         29.8202
            1365     3.75928E-03     74.5930E-03         1.48826    -179.233E-03    -213.019E-03    -212.419E-03         1.48766    -179.233E-03    -10.3364E-03     124.516E-03    -62.1072E-03    -62.4159E-03    -62.1421E-03     124.508E-03    -62.3726E-03    -2.47207E-03    -48.4979E+06    -65.3616E+06    -248.896E+06    -65.3663E+06    -248.891E+06    -48.4979E+06     335.297E+03         30.0218
            1366     4.69932E-03     74.5903E-03         1.52863    -188.844E-03    -241.829E-03    -241.451E-03         1.52825    -188.844E-03    -11.1157E-03     124.379E-03    -62.0187E-03    -62.3794E-03    -62.0189E-03     124.371E-03    -62.3716E-03    -2.36248E-03    -38.6430E+06    -61.3862E+06    -238.939E+06    -61.3909E+06    -238.934E+06    -38.6430E+06     558.058E+03         30.3197
            1367     5.63929E-03     74.5873E-03         1.56337    -199.514E-03    -262.409E-03    -262.185E-03         1.56315    -199.514E-03    -5.12990E-03     124.375E-03    -62.0124E-03    -62.3839E-03    -62.0158E-03     124.371E-03    -62.3761E-03    -1.77909E-03    -29.5894E+06    -56.8947E+06    -223.042E+06    -56.9125E+06    -223.024E+06    -29.5894E+06     1.38181E+06         30.8164
            1368     6.57946E-03     74.5843E-03         1.58199    -209.060E-03    -268.455E-03    -267.842E-03         1.58138    -209.060E-03     18.7693E-03     124.171E-03    -61.8489E-03    -62.3385E-03    -61.8471E-03     124.170E-03    -62.3385E-03    -391.546E-06    -25.3893E+06    -52.9139E+06    -193.836E+06    -52.9582E+06    -193.792E+06    -25.3893E+06     2.34080E+06         31.6341
            1369     7.51946E-03     74.5849E-03         1.61723    -217.982E-03    -293.556E-03    -293.076E-03         1.61675    -217.982E-03     36.9571E-03     123.872E-03    -61.6358E-03    -62.2588E-03    -61.6335E-03     123.870E-03    -62.2588E-03     1.18885E-03    -23.0569E+06    -48.6043E+06    -152.655E+06    -48.6908E+06    -152.569E+06    -23.0569E+06     2.19392E+06         32.9212
            1370     8.46021E-03     74.5851E-03         1.68171    -229.140E-03    -347.269E-03    -347.258E-03         1.68170    -229.140E-03    -9.24201E-03     123.569E-03    -61.4428E-03    -62.1587E-03    -61.4159E-03     123.542E-03    -62.1587E-03     3.88040E-03    -22.5777E+06    -45.2158E+06    -105.342E+06    -45.4074E+06    -105.150E+06    -22.5777E+06     1.43972E+06         34.8729
            1371     9.40002E-03     74.5907E-03         1.74034    -242.953E-03    -394.003E-03    -393.983E-03         1.74032    -242.953E-03     106.305E-06     123.322E-03    -61.2680E-03    -62.0894E-03    -61.1764E-03     123.231E-03    -62.0894E-03     7.98504E-03    -19.8374E+06    -39.0163E+06    -61.1646E+06    -43.7374E+06    -56.4436E+06    -19.8374E+06     1.49536E+06         37.5552
            1372     10.3411E-03     74.6005E-03         1.79434    -257.891E-03    -431.507E-03    -431.401E-03         1.79423    -257.891E-03     14.8407E-03     122.982E-03    -61.0197E-03    -61.9777E-03    -60.8579E-03     122.820E-03    -61.9777E-03     10.8606E-03     15.3837E+06    -25.7462E+06    -42.8008E+06    -42.3711E+06     6.13072E+06    -16.9230E+06     2.03159E+06         40.9230
            1373     11.2819E-03     74.6123E-03         1.85936    -273.497E-03    -479.853E-03    -479.755E-03         1.85927    -273.497E-03     5.70312E-03     123.163E-03    -61.2808E-03    -61.9165E-03    -60.5657E-03     122.448E-03    -61.9165E-03     21.0084E-03     52.9945E+06    -9.99340E+06    -40.8756E+06    -40.7605E+06     52.8794E+06    -9.99340E+06     2.01625E+06         44.9432
            1374     12.2226E-03     74.6441E-03         1.91933    -289.265E-03    -525.929E-03    -525.674E-03         1.91908    -289.265E-03     21.0195E-03     125.734E-03    -61.8737E-03    -63.9860E-03    -60.4830E-03     122.353E-03    -61.9965E-03     47.3524E-03     63.0361E+06     16.6670E+06    -37.0153E+06    -36.9579E+06     62.9787E+06     16.6670E+06     1.71976E+06         49.7740
            1375     13.1638E-03     74.7146E-03         1.97290    -304.153E-03    -564.636E-03    -564.368E-03         1.97263    -304.153E-03     18.2585E-03     130.361E-03    -62.1023E-03    -68.4048E-03    -59.9608E-03     121.917E-03    -62.1023E-03     78.9783E-03     70.5442E+06     52.7805E+06    -31.6481E+06    -31.6068E+06     70.5030E+06     52.7805E+06     1.79434E+06         55.5661
            1376     14.1085E-03     74.8175E-03         2.02734    -316.978E-03    -606.721E-03    -606.649E-03         2.02727    -316.978E-03     5.80840E-03     151.266E-03    -62.1919E-03    -89.0628E-03    -62.7614E-03     124.964E-03    -62.1919E-03     145.336E-03     85.7407E+06     78.7699E+06    -26.3932E+06    -26.2994E+06     80.7518E+06     83.6649E+06     2.31361E+06         62.1015
            1377     15.0466E-03     75.0393E-03         2.08334    -324.608E-03    -658.555E-03    -658.501E-03         2.08328    -324.608E-03     11.3969E-03     227.335E-03    -62.2751E-03    -164.929E-03    -77.2730E-03     139.679E-03    -62.2751E-03     322.315E-03     115.545E+06     107.222E+06    -17.7153E+06    -17.6427E+06     107.149E+06     115.545E+06     1.47965E+06         68.4559
            1378     15.9913E-03     75.5740E-03         2.13011    -326.512E-03    -708.347E-03    -708.318E-03         2.13008    -326.512E-03     3.06880E-03     290.582E-03    -62.3991E-03    -228.077E-03    -92.5060E-03     155.011E-03    -62.3991E-03     455.711E-03     149.030E+06     143.875E+06    -8.11703E+06    -8.11028E+06     143.869E+06     149.030E+06    -411.986E+03         73.2236
            1379     940.411E-06     75.7326E-03         1.31181     158.939E-03    -393.764E-03     217.835E-03         1.23393    -374.788E-03     257.447E-03     124.603E-03    -62.0796E-03    -62.5201E-03    -62.3459E-03     124.598E-03    -62.2492E-03    -1.79390E-03    -71.4747E+06    -76.4059E+06    -263.968E+06    -75.5087E+06    -263.941E+06    -72.3991E+06     468.897E+03         29.6022
            1380     1.87948E-03     75.7301E-03         1.30071    -88.6213E-03    -131.923E-03    -128.568E-03         1.29736    -88.6213E-03    -55.4316E-03     124.488E-03    -62.1830E-03    -62.3125E-03    -62.1800E-03     124.484E-03    -62.3112E-03    -1.77053E-03    -65.0325E+06    -71.8192E+06    -260.159E+06    -71.8702E+06    -260.108E+06    -65.0325E+06     1.16161E+06         29.6798
            1381     2.81979E-03     75.7282E-03         1.32761    -105.151E-03    -144.265E-03    -143.741E-03         1.32708    -105.151E-03     26.0388E-03     124.536E-03    -62.1843E-03    -62.3581E-03    -62.2205E-03     124.529E-03    -62.3148E-03    -2.23484E-03    -57.8435E+06    -69.4135E+06    -255.393E+06    -69.4430E+06    -255.364E+06    -57.8435E+06     1.21339E+06         29.8175
            1382     3.75929E-03     75.7249E-03         1.34025    -115.443E-03    -145.459E-03    -145.098E-03         1.33989    -115.443E-03    -38.3701E-03     124.553E-03    -62.1745E-03    -62.3891E-03    -62.2092E-03     124.544E-03    -62.3458E-03    -2.52049E-03    -48.6543E+06    -66.3530E+06    -249.258E+06    -66.3688E+06    -249.242E+06    -48.6543E+06     1.21295E+06         30.0198
            1383     4.69912E-03     75.7210E-03         1.36339    -122.781E-03    -157.863E-03    -157.453E-03         1.36298    -122.781E-03    -17.7562E-03     124.343E-03    -62.0100E-03    -62.3584E-03    -62.0039E-03     124.337E-03    -62.3584E-03    -2.11717E-03    -39.4859E+06    -62.9933E+06    -239.595E+06    -63.0152E+06    -239.573E+06    -39.4859E+06     1.62353E+06         30.3119
            1384     5.63970E-03     75.7189E-03         1.40248    -130.804E-03    -183.777E-03    -183.609E-03         1.40232    -130.804E-03     13.0072E-03     124.314E-03    -61.9777E-03    -62.3643E-03    -61.9737E-03     124.310E-03    -62.3643E-03    -1.70441E-03    -30.8357E+06    -59.2497E+06    -224.616E+06    -59.2753E+06    -224.591E+06    -30.8357E+06     1.98025E+06         30.7941
            1385     6.57937E-03     75.7163E-03         1.45098    -140.990E-03    -220.957E-03    -220.319E-03         1.45035    -140.990E-03     42.4005E-03     124.211E-03    -61.9057E-03    -62.3236E-03    -61.9040E-03     124.210E-03    -62.3236E-03    -655.497E-06    -25.9763E+06    -54.3594E+06    -194.212E+06    -54.3994E+06    -194.172E+06    -25.9763E+06     2.04756E+06         31.5948
            1386     7.51974E-03     75.7157E-03         1.50117    -153.214E-03    -258.242E-03    -257.487E-03         1.50041    -153.214E-03     60.8556E-03     123.798E-03    -61.5825E-03    -62.2426E-03    -61.5803E-03     123.796E-03    -62.2426E-03     891.190E-06    -24.0951E+06    -50.4506E+06    -152.032E+06    -50.4978E+06    -151.984E+06    -24.0951E+06     1.40544E+06         32.8667
            1387     8.45983E-03     75.7167E-03         1.55876    -167.071E-03    -301.016E-03    -300.793E-03         1.55853    -167.071E-03     17.2238E-03     123.530E-03    -61.4237E-03    -62.1428E-03    -61.3994E-03     123.505E-03    -62.1428E-03     3.69055E-03    -23.5243E+06    -47.2547E+06    -105.414E+06    -47.3950E+06    -105.274E+06    -23.5243E+06     1.30258E+06         34.8050
            1388     9.40070E-03     75.7223E-03         1.62017    -182.478E-03    -347.648E-03    -347.538E-03         1.62006    -182.478E-03     13.1181E-03     123.323E-03    -61.2867E-03    -62.0788E-03    -61.2045E-03     123.241E-03    -62.0788E-03     7.56168E-03    -20.0375E+06    -40.0360E+06    -61.7134E+06    -44.4164E+06    -57.3330E+06    -20.0375E+06     1.91900E+06         37.4749
            1389     10.3408E-03     75.7318E-03         1.67647    -198.828E-03    -387.102E-03    -386.858E-03         1.67623    -198.828E-03     38.0931E-03     122.852E-03    -60.9199E-03    -61.9672E-03    -60.7693E-03     122.701E-03    -61.9672E-03     10.4582E-03     14.9954E+06    -26.2346E+06    -42.5651E+06    -41.9307E+06     4.97954E+06    -16.8532E+06     2.54145E+06         40.8316
            1390     11.2818E-03     75.7436E-03         1.74175    -215.741E-03    -435.635E-03    -435.370E-03         1.74148    -215.741E-03     36.8903E-03     122.930E-03    -61.0912E-03    -61.8936E-03    -60.4127E-03     122.252E-03    -61.8936E-03     20.4585E-03     53.4526E+06    -9.67222E+06    -39.4677E+06    -39.3442E+06     53.3291E+06    -9.67222E+06     2.48420E+06         44.8423
            1391     12.2234E-03     75.7753E-03         1.80991    -232.930E-03    -487.562E-03    -487.182E-03         1.80953    -232.930E-03     40.7242E-03     125.470E-03    -61.7841E-03    -63.7969E-03    -60.2520E-03     122.138E-03    -61.9967E-03     46.7967E-03     63.5592E+06     18.3190E+06    -36.7551E+06    -36.6898E+06     63.4938E+06     18.3190E+06     1.81369E+06         49.6805
            1392     13.1651E-03     75.8461E-03         1.87166    -249.627E-03    -533.335E-03    -532.982E-03         1.87131    -249.627E-03     43.8459E-03     130.618E-03    -62.1185E-03    -68.5813E-03    -60.5407E-03     122.577E-03    -62.1185E-03     77.4914E-03     69.7882E+06     54.3837E+06    -32.3802E+06    -32.3257E+06     69.7337E+06     54.3837E+06     1.99228E+06         55.5076
            1393     14.1060E-03     75.9457E-03         1.94326    -265.073E-03    -590.362E-03    -590.209E-03         1.94311    -265.073E-03     29.4131E-03     151.943E-03    -62.2100E-03    -89.6412E-03    -63.5299E-03     125.832E-03    -62.2100E-03     144.591E-03     86.5834E+06     79.8532E+06    -25.3130E+06    -25.1983E+06     81.1790E+06     85.1429E+06     2.15969E+06         62.0825
            1394     15.0476E-03     76.1782E-03         2.00457    -276.517E-03    -641.486E-03    -641.426E-03         2.00451    -276.517E-03     10.2289E-03     226.497E-03    -62.2718E-03    -164.105E-03    -75.8047E-03     138.197E-03    -62.2718E-03     322.111E-03     117.988E+06     108.780E+06    -15.9209E+06    -15.8406E+06     108.699E+06     117.988E+06     1.10502E+06         68.4638
            1395     15.9937E-03     76.6921E-03         2.06073    -283.308E-03    -695.725E-03    -695.705E-03         2.06071    -283.308E-03    -2.38734E-03     291.070E-03    -62.3781E-03    -228.674E-03    -92.5678E-03     154.964E-03    -62.3781E-03     456.941E-03     149.973E+06     144.954E+06    -7.64939E+06    -7.62877E+06     144.997E+06     149.908E+06     727.054E+03         73.2429
            1396     939.292E-06     76.8639E-03         1.25458     109.220E-03    -302.484E-03     184.642E-03         1.17516    -298.491E-03     276.114E-03     124.593E-03    -62.0477E-03    -62.5342E-03    -62.4252E-03     124.590E-03    -62.1528E-03    -1.47177E-03    -73.5821E+06    -76.9438E+06    -264.290E+06    -75.9945E+06    -264.281E+06    -74.5399E+06    -249.040E+03         29.5977
            1397     1.87984E-03     76.8616E-03         1.16150    -35.7109E-03    -67.4466E-03    -43.8695E-03         1.15661    -54.3892E-03    -51.4136E-03     124.581E-03    -62.2329E-03    -62.3510E-03    -62.2673E-03     124.576E-03    -62.3121E-03    -1.79600E-03    -69.0514E+06    -73.2311E+06    -262.086E+06    -73.2618E+06    -262.055E+06    -69.0514E+06     778.043E+03         29.6768
            1398     2.81930E-03     76.8597E-03         1.17605    -41.3538E-03    -75.6284E-03    -62.6066E-03         1.17507    -53.3939E-03     54.0238E-03     124.395E-03    -62.0964E-03    -62.3135E-03    -62.0898E-03     124.388E-03    -62.3135E-03    -2.17044E-03    -60.7255E+06    -70.4457E+06    -257.007E+06    -70.4967E+06    -256.956E+06    -60.7255E+06     2.36832E+06         29.8161
            1399     3.75985E-03     76.8562E-03         1.20894    -58.8165E-03    -88.8834E-03    -88.6947E-03         1.20875    -58.8165E-03    -6.23511E-03     124.398E-03    -62.1064E-03    -62.3122E-03    -62.0972E-03     124.389E-03    -62.3122E-03    -2.57996E-03    -50.0170E+06    -67.3177E+06    -250.244E+06    -67.3631E+06    -250.198E+06    -50.0170E+06     2.50309E+06         30.0204
            1400     4.69981E-03     76.8531E-03         1.22708    -65.6958E-03    -95.6653E-03    -95.5461E-03         1.22696    -65.6958E-03    -15.9192E-03     124.476E-03    -62.1564E-03    -62.3447E-03    -62.1482E-03     124.467E-03    -62.3447E-03    -2.42645E-03    -38.4291E+06    -63.2998E+06    -240.247E+06    -63.3501E+06    -240.197E+06    -38.4291E+06     2.83196E+06         30.3082
            1401     5.63924E-03     76.8497E-03         1.26369    -72.7450E-03    -120.165E-03    -119.981E-03         1.26351    -72.7450E-03    -4.97641E-03     124.407E-03    -62.0583E-03    -62.3764E-03    -62.0539E-03     124.402E-03    -62.3764E-03    -1.74928E-03    -29.5567E+06    -59.5567E+06    -224.996E+06    -59.6174E+06    -224.936E+06    -29.5567E+06     3.06115E+06         30.7755
            1402     6.57946E-03     76.8484E-03         1.33334    -83.3531E-03    -175.907E-03    -175.519E-03         1.33295    -83.3531E-03     10.9580E-03     124.204E-03    -61.8911E-03    -62.3319E-03    -61.8900E-03     124.203E-03    -62.3319E-03    -793.771E-06    -26.4396E+06    -56.0339E+06    -193.606E+06    -56.0646E+06    -193.576E+06    -26.4396E+06     1.79280E+06         31.5583
            1403     7.51937E-03     76.8464E-03         1.39513    -97.7174E-03    -222.154E-03    -221.693E-03         1.39467    -97.7174E-03     38.3631E-03     123.923E-03    -61.6991E-03    -62.2568E-03    -61.6970E-03     123.921E-03    -62.2568E-03     685.153E-06    -24.4902E+06    -51.4929E+06    -151.332E+06    -51.5178E+06    -151.307E+06    -24.4902E+06     763.614E+03         32.8147
            1404     8.46004E-03     76.8483E-03         1.44334    -113.133E-03    -252.781E-03    -252.539E-03         1.44310    -113.133E-03     22.2636E-03     123.544E-03    -61.4219E-03    -62.1656E-03    -61.3998E-03     123.521E-03    -62.1656E-03     3.57797E-03    -23.5935E+06    -47.6466E+06    -106.415E+06    -47.7430E+06    -106.319E+06    -23.5935E+06     1.13533E+06         34.7390
            1405     9.39986E-03     76.8537E-03         1.50766    -129.187E-03    -300.345E-03    -300.103E-03         1.50742    -129.187E-03     27.4725E-03     123.277E-03    -61.2319E-03    -62.0991E-03    -61.1517E-03     123.197E-03    -62.0991E-03     7.42818E-03    -20.0522E+06    -41.1192E+06    -63.1459E+06    -45.3340E+06    -58.9311E+06    -20.0522E+06     2.10443E+06         37.3968
            1406     10.3410E-03     76.8633E-03         1.57898    -146.826E-03    -355.517E-03    -355.173E-03         1.57863    -146.826E-03     29.0543E-03     122.910E-03    -60.9664E-03    -61.9860E-03    -60.8242E-03     122.768E-03    -61.9860E-03     10.1782E-03     15.3975E+06    -26.9422E+06    -43.9403E+06    -43.2646E+06     4.48799E+06    -16.7084E+06     2.47137E+06         40.7430
            1407     11.2820E-03     76.8746E-03         1.63882    -165.374E-03    -399.115E-03    -398.796E-03         1.63850    -165.374E-03     28.9085E-03     122.938E-03    -61.0677E-03    -61.9155E-03    -60.4257E-03     122.296E-03    -61.9155E-03     19.8078E-03     53.4642E+06    -9.66231E+06    -40.8983E+06    -40.8174E+06     53.3833E+06    -9.66231E+06     2.31675E+06         44.7449
            1408     12.2230E-03     76.9065E-03         1.70700    -183.823E-03    -448.019E-03    -447.799E-03         1.70678    -183.823E-03     28.1309E-03     125.500E-03    -61.7546E-03    -63.8515E-03    -60.4581E-03     122.373E-03    -62.0209E-03     45.4246E-03     63.3019E+06     17.6480E+06    -37.7105E+06    -37.5976E+06     63.1890E+06     17.6480E+06     2.70353E+06         49.5911
            1409     13.1650E-03     76.9759E-03         1.78729    -202.358E-03    -510.494E-03    -510.355E-03         1.78715    -202.358E-03     22.0025E-03     131.258E-03    -62.1636E-03    -69.1231E-03    -61.0916E-03     123.226E-03    -62.1636E-03     77.3984E-03     69.8234E+06     53.7796E+06    -32.3531E+06    -32.2502E+06     69.7205E+06     53.7796E+06     1.97029E+06         55.4571
            1410     14.1032E-03     77.0828E-03         1.86664    -220.656E-03    -573.763E-03    -573.632E-03         1.86651    -220.656E-03     21.2851E-03     151.586E-03    -62.3074E-03    -89.2213E-03    -63.6886E-03     126.054E-03    -62.3074E-03     143.231E-03     88.4424E+06     81.3629E+06    -24.3838E+06    -24.3189E+06     82.7085E+06     87.0320E+06     823.371E+03         62.0746
            1411     15.0492E-03     77.2984E-03         1.93973    -235.993E-03    -631.125E-03    -631.112E-03         1.93972    -235.993E-03    -7.06048E-03     225.208E-03    -62.4088E-03    -162.779E-03    -76.6151E-03     139.044E-03    -62.4088E-03     317.910E-03     119.247E+06     109.374E+06    -17.0179E+06    -16.9780E+06     109.335E+06     119.247E+06     828.903E+03         68.4722
            1412     15.9867E-03     77.8316E-03         2.00324    -247.425E-03    -684.942E-03    -684.885E-03         2.00318    -247.425E-03     10.3064E-03     291.118E-03    -62.4901E-03    -228.618E-03    -91.9343E-03     154.434E-03    -62.4901E-03     457.619E-03     148.837E+06     144.495E+06    -10.0019E+06    -9.96542E+06     144.523E+06     148.773E+06     927.553E+03         73.2579
            1413     940.576E-06     77.9951E-03         1.18069     70.7642E-03    -205.678E-03     149.053E-03         1.10240    -205.678E-03     260.225E-03     124.382E-03    -61.8585E-03    -62.5038E-03    -62.5014E-03     124.380E-03    -61.8585E-03    -1.04249E-03    -74.1518E+06    -76.8952E+06    -266.240E+06    -75.9703E+06    -266.207E+06    -75.1096E+06    -375.222E+03         29.5912
            1414     1.87932E-03     77.9939E-03         1.05458     12.0513E-03    -18.9395E-03     19.3268E-03         1.04731    -18.9395E-03    -71.5661E-03     124.579E-03    -62.1895E-03    -62.3838E-03    -62.3269E-03     124.574E-03    -62.2420E-03    -1.62618E-03    -69.5211E+06    -74.6946E+06    -263.748E+06    -74.7079E+06    -263.735E+06    -69.5211E+06     1.29214E+06         29.6741
            1415     2.81985E-03     77.9903E-03         1.04200     15.6727E-03    -12.3504E-03     11.5003E-03         1.04030    -6.48099E-03     78.8393E-03     124.464E-03    -62.1675E-03    -62.3110E-03    -62.1777E-03     124.458E-03    -62.2942E-03    -2.19275E-03    -61.4168E+06    -71.3050E+06    -258.719E+06    -71.3361E+06    -258.688E+06    -61.4168E+06     1.84689E+06         29.8163
            1416     3.75941E-03     77.9878E-03         1.08537    -4.93605E-03    -31.2071E-03    -28.4321E-03         1.08402    -6.36366E-03     5.53578E-03     124.531E-03    -62.2191E-03    -62.3285E-03    -62.2174E-03     124.522E-03    -62.3210E-03    -2.54451E-03    -50.4441E+06    -66.8397E+06    -251.332E+06    -66.8859E+06    -251.286E+06    -50.4441E+06     2.65530E+06         30.0231
            1417     4.69920E-03     77.9843E-03         1.13980    -15.0126E-03    -73.8179E-03    -72.6381E-03         1.13862    -15.0126E-03    -8.48731E-03     124.584E-03    -62.2221E-03    -62.3801E-03    -62.2198E-03     124.574E-03    -62.3726E-03    -2.66130E-03    -37.7965E+06    -61.8367E+06    -241.445E+06    -61.8906E+06    -241.391E+06    -37.7965E+06     2.99544E+06         30.3076
            1418     5.63934E-03     77.9820E-03         1.19483    -27.7827E-03    -111.197E-03    -110.545E-03         1.19418    -27.7827E-03     11.4454E-03     124.428E-03    -62.0353E-03    -62.4141E-03    -62.0298E-03     124.423E-03    -62.4141E-03    -1.96291E-03    -26.8430E+06    -56.6186E+06    -226.477E+06    -56.7207E+06    -226.375E+06    -26.8430E+06     3.97844E+06         30.7604
            1419     6.57930E-03     77.9789E-03         1.23715    -41.3536E-03    -134.146E-03    -133.780E-03         1.23678    -41.3536E-03     3.64048E-03     124.209E-03    -61.8635E-03    -62.3610E-03    -61.8615E-03     124.207E-03    -62.3610E-03    -799.485E-06    -23.5160E+06    -53.5673E+06    -191.510E+06    -53.6711E+06    -191.406E+06    -23.5160E+06     3.43354E+06         31.5250
            1420     7.51953E-03     77.9788E-03         1.28211    -54.9152E-03    -166.208E-03    -165.935E-03         1.28184    -54.9152E-03     15.2167E-03     124.029E-03    -61.7780E-03    -62.2803E-03    -61.7765E-03     124.027E-03    -62.2803E-03     781.290E-06    -23.5160E+06    -52.0871E+06    -150.146E+06    -52.1269E+06    -150.106E+06    -23.5160E+06     1.13930E+06         32.7652
            1421     8.45910E-03     77.9795E-03         1.34222    -69.5489E-03    -209.141E-03    -209.107E-03         1.34219    -69.5489E-03     1.22388E-03     123.700E-03    -61.5408E-03    -62.1988E-03    -61.5188E-03     123.678E-03    -62.1988E-03     3.49283E-03    -23.8854E+06    -49.6719E+06    -108.771E+06    -49.7920E+06    -108.651E+06    -23.8854E+06     1.37695E+06         34.6751
            1422     9.40052E-03     77.9853E-03         1.41483    -86.0961E-03    -265.718E-03    -265.536E-03         1.41465    -86.0961E-03     22.4092E-03     123.435E-03    -61.3422E-03    -62.1390E-03    -61.2678E-03     123.361E-03    -62.1390E-03     7.19362E-03    -20.2584E+06    -42.7571E+06    -64.5162E+06    -47.3268E+06    -59.9466E+06    -20.2584E+06     2.45378E+06         37.3201
            1423     10.3404E-03     77.9951E-03         1.48945    -104.738E-03    -324.011E-03    -323.783E-03         1.48922    -104.738E-03     10.7899E-03     123.108E-03    -61.1021E-03    -62.0325E-03    -60.9766E-03     122.982E-03    -62.0325E-03     9.56985E-03     15.5889E+06    -27.4793E+06    -44.8617E+06    -44.5724E+06     4.38051E+06    -16.5602E+06     2.22647E+06         40.6554
            1424     11.2809E-03     78.0062E-03         1.55697    -124.404E-03    -369.716E-03    -369.555E-03         1.55681    -124.404E-03     5.61129E-03     123.329E-03    -61.3180E-03    -62.0429E-03    -60.7791E-03     122.726E-03    -61.9788E-03     19.1323E-03     53.2093E+06    -9.79048E+06    -42.0999E+06    -42.0200E+06     53.1295E+06    -9.79048E+06     2.43190E+06         44.6481
            1425     12.2220E-03     78.0376E-03         1.63427    -144.376E-03    -427.277E-03    -427.096E-03         1.63409    -144.376E-03     26.0741E-03     126.174E-03    -61.9733E-03    -64.3038E-03    -61.1103E-03     123.111E-03    -62.1035E-03     45.0179E-03     63.3832E+06     16.6809E+06    -38.3153E+06    -38.1997E+06     63.2676E+06     16.6809E+06     2.03755E+06         49.5016
            1426     13.1612E-03     78.1090E-03         1.72271    -164.970E-03    -493.494E-03    -493.387E-03         1.72260    -164.970E-03     14.7573E-03     130.836E-03    -62.2587E-03    -68.5984E-03    -60.7001E-03     122.937E-03    -62.2587E-03     76.5259E-03     70.3831E+06     53.0933E+06    -32.1562E+06    -32.0291E+06     70.2559E+06     53.0933E+06     1.56133E+06         55.4098
            1427     14.1064E-03     78.2123E-03         1.80103    -185.404E-03    -550.162E-03    -550.117E-03         1.80098    -185.404E-03     9.34553E-03     152.222E-03    -62.4169E-03    -89.7627E-03    -64.3950E-03     126.855E-03    -62.4169E-03     143.509E-03     87.2233E+06     80.8284E+06    -25.6494E+06    -25.5737E+06     82.1909E+06     85.7852E+06     1.74860E+06         62.0714
            1428     15.0399E-03     78.4353E-03         1.87822    -203.430E-03    -611.002E-03    -610.979E-03         1.87820    -203.430E-03     3.78076E-03     225.825E-03    -62.5297E-03    -163.244E-03    -77.3082E-03     139.890E-03    -62.5297E-03     317.734E-03     117.522E+06     109.257E+06    -18.6862E+06    -18.6523E+06     109.223E+06     117.522E+06     1.69271E+06         68.4848
            1429     15.9841E-03     78.9545E-03         1.94957    -218.701E-03    -668.060E-03    -668.006E-03         1.94952    -218.701E-03     7.37333E-03     292.073E-03    -62.5576E-03    -229.434E-03    -91.0745E-03     153.714E-03    -62.5576E-03     460.481E-03     149.070E+06     145.629E+06    -9.94616E+06    -9.92216E+06     145.605E+06     149.070E+06     667.185E+03         73.2814
            1430     939.905E-06     79.1264E-03         1.05322     68.0397E-03    -90.5809E-03     152.060E-03     961.455E-03    -82.8369E-03     248.291E-03     124.394E-03    -61.9700E-03    -62.4208E-03    -62.2318E-03     124.391E-03    -62.1555E-03    -1.36871E-03    -74.2656E+06    -77.1095E+06    -268.912E+06    -77.1437E+06    -268.878E+06    -74.2656E+06    -305.574E+03         29.5928
            1431     1.88046E-03     79.1253E-03     973.734E-03     47.6903E-03     15.6989E-03     38.9852E-03     962.761E-03     35.3777E-03    -71.8842E-03     124.508E-03    -62.1183E-03    -62.3868E-03    -62.2572E-03     124.501E-03    -62.2413E-03    -2.03946E-03    -68.1047E+06    -74.5413E+06    -264.869E+06    -74.5587E+06    -264.852E+06    -68.1047E+06     1.72358E+06         29.6761
            1432     2.81951E-03     79.1215E-03     971.222E-03     45.9429E-03     21.1759E-03     33.7920E-03     968.719E-03     35.8294E-03     89.8201E-03     124.623E-03    -62.2752E-03    -62.3616E-03    -62.3252E-03     124.615E-03    -62.3036E-03    -2.41020E-03    -60.3558E+06    -71.6156E+06    -259.698E+06    -71.6315E+06    -259.682E+06    -60.3558E+06     1.66518E+06         29.8185
            1433     3.75954E-03     79.1197E-03     994.204E-03     34.0770E-03     7.88493E-03     10.6315E-03     992.885E-03     32.6494E-03     7.32947E-03     124.609E-03    -62.2627E-03    -62.3621E-03    -62.2627E-03     124.601E-03    -62.3547E-03    -2.31158E-03    -50.3161E+06    -67.1774E+06    -252.585E+06    -67.1992E+06    -252.563E+06    -50.3161E+06     1.57994E+06         30.0246
            1434     4.69917E-03     79.1161E-03         1.05974     23.1174E-03    -45.0988E-03    -43.8870E-03         1.05853     23.1174E-03     8.52434E-03     124.612E-03    -62.2239E-03    -62.4045E-03    -62.2237E-03     124.605E-03    -62.3970E-03    -2.36835E-03    -38.5542E+06    -61.9941E+06    -243.310E+06    -62.0318E+06    -243.272E+06    -38.5542E+06     2.19442E+06         30.3061
            1435     5.63896E-03     79.1132E-03         1.11841     8.52527E-03    -85.7918E-03    -85.1943E-03         1.11781     8.52527E-03     32.5552E-03     124.485E-03    -62.0650E-03    -62.4376E-03    -62.0596E-03     124.480E-03    -62.4376E-03    -2.00146E-03    -26.6889E+06    -55.6564E+06    -228.233E+06    -55.7316E+06    -228.157E+06    -26.6889E+06     2.91583E+06         30.7483
            1436     6.57920E-03     79.1106E-03         1.15909    -6.56676E-03    -108.330E-03    -107.657E-03         1.15841    -6.56676E-03     39.7495E-03     124.258E-03    -61.8789E-03    -62.3905E-03    -61.8765E-03     124.256E-03    -62.3905E-03    -716.144E-06    -20.4245E+06    -48.9744E+06    -191.217E+06    -49.1192E+06    -191.073E+06    -20.4245E+06     3.77864E+06         31.4955
            1437     7.51917E-03     79.1108E-03         1.20562    -21.1028E-03    -138.541E-03    -137.869E-03         1.20495    -21.1028E-03     42.3936E-03     124.125E-03    -61.8218E-03    -62.3245E-03    -61.8208E-03     124.124E-03    -62.3245E-03     716.369E-06    -17.1163E+06    -45.9294E+06    -150.098E+06    -46.2471E+06    -149.780E+06    -17.1163E+06     4.81848E+06         32.7181
            1438     8.45985E-03     79.1112E-03         1.26436    -36.4297E-03    -181.860E-03    -181.752E-03         1.26425    -36.4297E-03     15.6492E-03     123.990E-03    -61.7742E-03    -62.2493E-03    -61.7514E-03     123.967E-03    -62.2493E-03     3.37623E-03    -19.9288E+06    -46.9471E+06    -109.651E+06    -47.3153E+06    -109.282E+06    -19.9288E+06     4.03289E+06         34.6126
            1439     9.39869E-03     79.1172E-03         1.33540    -53.5092E-03    -236.711E-03    -236.358E-03         1.33505    -53.5092E-03     41.0635E-03     123.754E-03    -61.6045E-03    -62.1954E-03    -61.5306E-03     123.680E-03    -62.1954E-03     7.22562E-03    -19.4794E+06    -42.2754E+06    -65.2769E+06    -47.3215E+06    -60.2308E+06    -19.4794E+06     3.36348E+06         37.2439
            1440     10.3395E-03     79.1266E-03         1.40937    -72.4789E-03    -293.796E-03    -293.515E-03         1.40909    -72.4789E-03     19.6031E-03     123.378E-03    -61.3018E-03    -62.1063E-03    -61.1743E-03     123.251E-03    -62.1063E-03     9.64367E-03     16.7278E+06    -26.9272E+06    -46.6046E+06    -45.8768E+06     4.72608E+06    -15.6533E+06     3.07217E+06         40.5673
            1441     11.2802E-03     79.1380E-03         1.49073    -92.9681E-03    -352.767E-03    -352.695E-03         1.49066    -92.9681E-03     6.31729E-03     123.782E-03    -61.6266E-03    -62.1926E-03    -61.1305E-03     123.155E-03    -62.0611E-03     19.5848E-03     53.6481E+06    -10.3191E+06    -43.3857E+06    -43.2863E+06     53.5486E+06    -10.3191E+06     1.65643E+06         44.5500
            1442     12.2197E-03     79.1707E-03         1.57849    -114.549E-03    -415.757E-03    -415.592E-03         1.57832    -114.549E-03     35.1809E-03     126.444E-03    -62.2024E-03    -64.3448E-03    -61.1604E-03     123.259E-03    -62.2024E-03     45.9024E-03     63.4612E+06     16.8208E+06    -38.9089E+06    -38.7901E+06     63.3424E+06     16.8208E+06     1.05733E+06         49.4121
            1443     13.1611E-03     79.2410E-03         1.65892    -136.662E-03    -473.051E-03    -472.937E-03         1.65880    -136.662E-03     21.6125E-03     131.122E-03    -62.3628E-03    -68.8371E-03    -61.0319E-03     123.317E-03    -62.3628E-03     76.4763E-03     70.0884E+06     52.4693E+06    -33.8370E+06    -33.7227E+06     69.9741E+06     52.4693E+06     1.49615E+06         55.3612
            1444     14.1007E-03     79.3404E-03         1.73974    -158.458E-03    -530.053E-03    -529.966E-03         1.73965    -158.458E-03     18.9688E-03     153.449E-03    -62.4836E-03    -90.9002E-03    -64.5364E-03     127.085E-03    -62.4836E-03     145.986E-03     85.3838E+06     78.7495E+06    -27.2980E+06    -27.2036E+06     81.2198E+06     82.8190E+06     2.12833E+06         62.0688
            1445     15.0442E-03     79.5774E-03         1.82072    -178.850E-03    -592.563E-03    -592.462E-03         1.82062    -178.850E-03     16.0478E-03     224.376E-03    -62.5475E-03    -161.678E-03    -75.6913E-03     138.389E-03    -62.5475E-03     316.765E-03     115.637E+06     109.471E+06    -19.1709E+06    -19.1281E+06     109.428E+06     115.637E+06     1.65490E+06         68.5107
            1446     15.9875E-03     80.0760E-03         1.89373    -198.188E-03    -655.595E-03    -655.569E-03         1.89371    -198.188E-03    -10.3996E-03     292.608E-03    -62.5592E-03    -229.841E-03    -91.3577E-03     154.124E-03    -62.5592E-03     461.182E-03     149.633E+06     147.273E+06    -8.94169E+06    -8.93431E+06     147.265E+06     149.633E+06     743.708E+03         73.3260
            1447     939.334E-06     80.2579E-03     921.100E-03     88.8127E-03     5.34999E-03     149.432E-03     841.331E-03     24.4996E-03     199.146E-03     124.887E-03    -62.3204E-03    -62.5555E-03    -62.3184E-03     124.883E-03    -62.5539E-03    -1.53151E-03    -74.2545E+06    -78.3910E+06    -269.986E+06    -78.4403E+06    -269.937E+06    -74.2545E+06     1.76003E+06         29.6041
            1448     1.87924E-03     80.2560E-03     908.114E-03     78.0728E-03     32.4414E-03     42.5968E-03     897.959E-03     78.0728E-03    -85.3269E-03     124.550E-03    -62.1085E-03    -62.4319E-03    -62.1436E-03     124.544E-03    -62.3908E-03    -2.09479E-03    -68.6371E+06    -75.5021E+06    -266.027E+06    -75.5090E+06    -266.020E+06    -68.6371E+06     1.10867E+06         29.6826
            1449     2.81954E-03     80.2541E-03     935.176E-03     62.9103E-03     23.5468E-03     25.3715E-03     933.351E-03     62.9103E-03     21.1542E-03     124.600E-03    -62.2037E-03    -62.4105E-03    -62.2364E-03     124.592E-03    -62.3693E-03    -2.47167E-03    -61.5446E+06    -71.7364E+06    -260.796E+06    -71.7561E+06    -260.776E+06    -61.5446E+06     1.83263E+06         29.8208
            1450     3.75918E-03     80.2505E-03     952.110E-03     52.2707E-03     16.8027E-03     17.4125E-03     951.500E-03     52.2707E-03    -18.2603E-03     124.506E-03    -62.1420E-03    -62.3811E-03    -62.1338E-03     124.498E-03    -62.3811E-03    -2.44689E-03    -50.5447E+06    -68.5895E+06    -253.695E+06    -68.6345E+06    -253.650E+06    -50.5447E+06     2.30340E+06         30.0232
            1451     4.69941E-03     80.2483E-03     984.789E-03     42.5982E-03    -10.5367E-03    -10.3243E-03     984.577E-03     42.5982E-03    -7.48796E-03     124.474E-03    -62.1044E-03    -62.3888E-03    -62.0982E-03     124.468E-03    -62.3888E-03    -2.15164E-03    -40.1474E+06    -64.7962E+06    -244.853E+06    -64.8418E+06    -244.807E+06    -40.1474E+06     1.99942E+06         30.3028
            1452     5.63911E-03     80.2446E-03         1.02322     31.5326E-03    -37.6443E-03    -37.3916E-03         1.02296     31.5326E-03    -14.6201E-03     124.586E-03    -62.1759E-03    -62.4277E-03    -62.1935E-03     124.581E-03    -62.4055E-03    -1.82044E-03    -32.3149E+06    -59.7981E+06    -227.353E+06    -59.8139E+06    -227.337E+06    -32.3149E+06     880.813E+03         30.7388
            1453     6.57896E-03     80.2424E-03         1.08555     18.5314E-03    -83.2141E-03    -82.7234E-03         1.08506     18.5314E-03     11.0566E-03     124.392E-03    -62.0003E-03    -62.4032E-03    -62.0208E-03     124.390E-03    -62.3810E-03    -641.119E-06    -26.7874E+06    -54.0544E+06    -194.130E+06    -54.1178E+06    -194.066E+06    -26.7874E+06     1.72174E+06         31.4695
            1454     7.51915E-03     80.2423E-03         1.15203     2.91422E-03    -131.775E-03    -131.138E-03         1.15139     2.91422E-03     10.6459E-03     124.202E-03    -61.8821E-03    -62.3443E-03    -61.8802E-03     124.200E-03    -62.3443E-03     831.296E-06    -19.9648E+06    -47.9436E+06    -154.059E+06    -48.3504E+06    -153.652E+06    -19.9648E+06     5.62189E+06         32.6728
            1455     8.45844E-03     80.2431E-03         1.20690    -13.9448E-03    -167.375E-03    -167.066E-03         1.20660    -13.9448E-03    -2.40646E-03     124.033E-03    -61.7779E-03    -62.2967E-03    -61.7539E-03     124.009E-03    -62.2967E-03     3.57061E-03    -15.6649E+06    -43.5708E+06    -109.489E+06    -44.5778E+06    -108.482E+06    -15.6649E+06     7.34600E+06         34.5509
            1456     9.39947E-03     80.2495E-03         1.27299    -31.5064E-03    -214.420E-03    -214.111E-03         1.27268    -31.5064E-03     29.6222E-03     123.805E-03    -61.6157E-03    -62.2385E-03    -61.5308E-03     123.720E-03    -62.2385E-03     7.68556E-03    -15.1937E+06    -38.2806E+06    -65.6886E+06    -43.7491E+06    -60.2201E+06    -15.1937E+06     6.19394E+06         37.1682
            1457     10.3391E-03     80.2585E-03         1.35255    -50.7401E-03    -276.034E-03    -275.708E-03         1.35222    -50.7401E-03     2.23611E-03     123.644E-03    -61.5311E-03    -62.1395E-03    -61.3775E-03     123.490E-03    -62.1395E-03     10.6036E-03     17.9897E+06    -24.1083E+06    -44.4773E+06    -42.7339E+06     6.30010E+06    -14.1621E+06     4.35308E+06         40.4792
            1458     11.2789E-03     80.2708E-03         1.43932    -71.9700E-03    -341.429E-03    -341.238E-03         1.43913    -71.9700E-03     445.347E-06     123.885E-03    -61.7352E-03    -62.1777E-03    -61.1121E-03     123.195E-03    -62.1103E-03     20.6859E-03     55.5192E+06    -7.05875E+06    -41.6457E+06    -41.5010E+06     55.3745E+06    -7.05875E+06     2.30992E+06         44.4512
            1459     12.2200E-03     80.3026E-03         1.52094    -94.4003E-03    -398.540E-03    -398.411E-03         1.52081    -94.4003E-03     26.8792E-03     126.308E-03    -62.1513E-03    -64.2581E-03    -60.9165E-03     123.048E-03    -62.2335E-03     46.6321E-03     63.1784E+06     18.1800E+06    -39.6106E+06    -39.4662E+06     63.0341E+06     18.1800E+06     1.47338E+06         49.3220
            1460     13.1610E-03     80.3722E-03         1.59575    -117.087E-03    -450.427E-03    -450.383E-03         1.59571    -117.087E-03     12.1346E-03     132.070E-03    -62.3820E-03    -69.8087E-03    -61.6658E-03     123.927E-03    -62.3820E-03     78.3437E-03     69.7601E+06     51.6338E+06    -34.5357E+06    -34.4078E+06     69.6322E+06     51.6338E+06     1.78230E+06         55.3116
            1461     14.1006E-03     80.4769E-03         1.68479    -139.886E-03    -514.240E-03    -514.100E-03         1.68465    -139.886E-03     28.2482E-03     153.562E-03    -62.5008E-03    -90.9985E-03    -64.3633E-03     126.927E-03    -62.5008E-03     146.882E-03     85.3605E+06     78.0829E+06    -27.7869E+06    -27.6532E+06     81.5034E+06     81.8064E+06     1.23194E+06         62.0675
            1462     15.0415E-03     80.7027E-03         1.77631    -162.894E-03    -587.559E-03    -587.326E-03         1.77607    -162.894E-03     5.29747E-03     223.476E-03    -62.5886E-03    -160.669E-03    -76.0286E-03     138.836E-03    -62.5886E-03     314.460E-03     115.554E+06     110.377E+06    -18.9680E+06    -18.9027E+06     110.497E+06     115.369E+06     544.305E+03         68.5429
            1463     15.9835E-03     81.2089E-03         1.85658    -186.157E-03    -648.663E-03    -648.514E-03         1.85643    -186.157E-03    -11.5371E-03     290.950E-03    -62.6174E-03    -228.030E-03    -90.6414E-03     153.561E-03    -62.6174E-03     457.885E-03     148.942E+06     147.249E+06    -9.25606E+06    -9.25200E+06     147.464E+06     148.723E+06     496.180E+03         73.3953
            1464     939.625E-06     81.3902E-03     860.901E-03     109.364E-03     35.5733E-03     101.809E-03     811.717E-03     92.3122E-03     201.263E-03     124.966E-03    -62.3224E-03    -62.6210E-03    -62.5699E-03     124.963E-03    -62.3704E-03    -1.47537E-03    -77.2627E+06    -79.8021E+06    -270.703E+06    -79.4443E+06    -270.654E+06    -77.6700E+06     1.81042E+06         29.6099
            1465     1.87931E-03     81.3874E-03     869.708E-03     86.9133E-03     42.3824E-03     46.3282E-03     865.763E-03     86.9133E-03    -38.7372E-03     124.742E-03    -62.2758E-03    -62.4557E-03    -62.2820E-03     124.739E-03    -62.4457E-03    -1.68138E-03    -70.1678E+06    -75.7057E+06    -267.527E+06    -75.7191E+06    -267.513E+06    -70.1678E+06     991.283E+03         29.6862
            1466     2.81920E-03     81.3854E-03     908.670E-03     69.5833E-03     25.4190E-03     26.4927E-03     907.596E-03     69.5833E-03     9.73070E-03     124.590E-03    -62.1778E-03    -62.4278E-03    -62.1708E-03     124.583E-03    -62.4278E-03    -2.21450E-03    -62.4591E+06    -72.6865E+06    -262.367E+06    -72.7084E+06    -262.345E+06    -62.4591E+06     1.89114E+06         29.8217
            1467     3.75922E-03     81.3825E-03     928.085E-03     57.7042E-03     19.4167E-03     20.1809E-03     927.321E-03     57.7042E-03    -8.63423E-03     124.475E-03    -62.0940E-03    -62.4011E-03    -62.0852E-03     124.466E-03    -62.4011E-03    -2.55730E-03    -52.7103E+06    -69.0158E+06    -255.678E+06    -69.0703E+06    -255.623E+06    -52.7103E+06     2.93271E+06         30.0223
            1468     4.69923E-03     81.3790E-03     943.172E-03     48.9890E-03     8.56041E-03     8.83571E-03     942.897E-03     48.9890E-03    -1.79487E-03     124.413E-03    -62.0415E-03    -62.3957E-03    -62.0351E-03     124.406E-03    -62.3957E-03    -2.17740E-03    -41.3478E+06    -64.9344E+06    -244.469E+06    -65.0026E+06    -244.401E+06    -41.3478E+06     3.05609E+06         30.3013
            1469     5.63951E-03     81.3769E-03     984.574E-03     39.6031E-03    -25.0416E-03    -24.7424E-03     984.275E-03     39.6031E-03    -4.13061E-03     124.555E-03    -62.1530E-03    -62.4271E-03    -62.1710E-03     124.551E-03    -62.4049E-03    -1.72495E-03    -33.1737E+06    -61.4816E+06    -225.298E+06    -61.5054E+06    -225.274E+06    -33.1737E+06     1.13696E+06         30.7318
            1470     6.57872E-03     81.3743E-03         1.04478     27.2719E-03    -70.3850E-03    -70.2432E-03         1.04463     27.2719E-03     4.86602E-03     124.523E-03    -62.1377E-03    -62.4046E-03    -62.1585E-03     124.522E-03    -62.3824E-03    -582.973E-06    -29.8258E+06    -58.0323E+06    -196.983E+06    -58.0474E+06    -196.968E+06    -29.8258E+06     1.03005E+06         31.4458
            1471     7.51864E-03     81.3737E-03         1.10295     12.4555E-03    -113.467E-03    -113.152E-03         1.10263     12.4555E-03    -17.2581E-03     124.154E-03    -61.8477E-03    -62.3394E-03    -61.8442E-03     124.150E-03    -62.3394E-03     1.27224E-03    -26.4712E+06    -53.8423E+06    -158.749E+06    -54.0026E+06    -158.589E+06    -26.4712E+06     3.25221E+06         32.6288
            1472     8.45919E-03     81.3759E-03         1.16973    -4.11716E-03    -161.468E-03    -161.172E-03         1.16943    -4.11716E-03    -19.4691E-03     123.859E-03    -61.6209E-03    -62.2835E-03    -61.5939E-03     123.832E-03    -62.2835E-03     4.08401E-03    -20.6058E+06    -47.3863E+06    -111.601E+06    -48.2382E+06    -110.749E+06    -20.6058E+06     5.96969E+06         34.4900
            1473     9.39887E-03     81.3803E-03         1.23928    -22.2268E-03    -210.122E-03    -210.088E-03         1.23924    -22.2268E-03     4.87280E-03     123.760E-03    -61.5736E-03    -62.2298E-03    -61.4812E-03     123.668E-03    -62.2298E-03     7.99747E-03    -15.0770E+06    -37.0080E+06    -64.8255E+06    -42.3954E+06    -59.4381E+06    -15.0770E+06     6.42923E+06         37.0925
            1474     10.3395E-03     81.3916E-03         1.31062    -41.5798E-03    -261.137E-03    -261.038E-03         1.31052    -41.5798E-03    -16.6837E-03     123.486E-03    -61.3912E-03    -62.1192E-03    -61.2212E-03     123.316E-03    -62.1192E-03     11.1536E-03     18.0192E+06    -22.3099E+06     -41.246E+06    -39.3296E+06     7.39990E+06    -13.6071E+06     5.38089E+06         40.3905
            1475     11.2799E-03     81.4026E-03         1.39425    -62.2111E-03    -319.345E-03    -319.154E-03         1.39405    -62.2111E-03     2.05333E-03     123.657E-03    -61.5843E-03    -62.1004E-03    -60.8937E-03     122.943E-03    -62.0772E-03     21.1521E-03     56.5302E+06    -5.39617E+06    -38.6184E+06    -38.2769E+06     56.1887E+06    -5.39617E+06     5.40351E+06         44.3510
            1476     12.2205E-03     81.4346E-03         1.48049    -84.1945E-03    -381.489E-03    -381.394E-03         1.48039    -84.1945E-03     17.0286E-03     126.366E-03    -62.1018E-03    -64.3646E-03    -60.9414E-03     123.025E-03    -62.1841E-03     47.2282E-03     64.6546E+06     19.7522E+06    -37.8623E+06    -37.5775E+06     64.3699E+06     19.7522E+06     4.21376E+06         49.2287
            1477     13.1609E-03     81.5051E-03         1.56582    -107.345E-03    -443.276E-03    -443.226E-03         1.56577    -107.345E-03    -8.80502E-03     132.561E-03    -62.3454E-03    -70.3336E-03    -61.7337E-03     123.962E-03    -62.3454E-03     80.4890E-03     70.3090E+06     52.2158E+06    -34.4086E+06    -34.1768E+06     70.0772E+06     52.2158E+06     1.83653E+06         55.2591
            1478     14.1011E-03     81.6113E-03         1.65132    -131.406E-03    -504.062E-03    -503.939E-03         1.65120    -131.406E-03     8.85520E-03     153.024E-03    -62.4998E-03    -90.4956E-03    -64.0659E-03     126.595E-03    -62.4998E-03     146.688E-03     87.3928E+06     79.3791E+06    -27.2917E+06    -27.1518E+06     82.7301E+06     83.9019E+06     256.572E+03         62.0676
            1479     15.0431E-03     81.8330E-03         1.73534    -156.351E-03    -571.382E-03    -571.196E-03         1.73515    -156.351E-03    -6.01646E-03     226.870E-03    -62.6030E-03    -164.098E-03    -78.2991E-03     141.071E-03    -62.6030E-03     319.566E-03     116.661E+06     110.688E+06    -18.7025E+06    -18.6621E+06     110.833E+06     116.475E+06    -134.159E+03         68.5884
            1480     15.9776E-03     82.3490E-03         1.82141    -182.310E-03    -628.375E-03    -628.210E-03         1.82124    -182.310E-03    -7.90684E-03     289.803E-03    -62.6234E-03    -226.912E-03    -89.7965E-03     152.688E-03    -62.6234E-03     456.208E-03     148.404E+06     146.820E+06    -9.21639E+06    -9.21469E+06     147.037E+06     148.185E+06     388.810E+03         73.5018
            1481     939.920E-06     82.5215E-03     860.787E-03     120.433E-03     9.53279E-03     40.8586E-03     836.651E-03     113.243E-03     163.001E-03     124.572E-03    -62.0408E-03    -62.5153E-03    -62.5118E-03     124.568E-03    -62.0408E-03    -1.48724E-03    -78.4642E+06    -80.6706E+06    -271.238E+06    -79.7530E+06    -271.225E+06    -79.3939E+06    -403.737E+03         29.6054
            1482     1.87965E-03     82.5194E-03     848.113E-03     80.8082E-03     51.6874E-03     59.6385E-03     847.353E-03     73.6178E-03    -9.04564E-03     124.771E-03    -62.3276E-03    -62.4406E-03    -62.4264E-03     124.767E-03    -62.3382E-03    -1.57565E-03    -73.4750E+06    -78.0805E+06    -270.192E+06    -78.0926E+06    -270.179E+06    -73.4750E+06     818.938E+03         29.6839
            1483     2.81917E-03     82.5172E-03     877.654E-03     65.8028E-03     39.0446E-03     39.7109E-03     876.987E-03     65.8028E-03     22.2053E-03     124.689E-03    -62.2802E-03    -62.4245E-03    -62.2999E-03     124.683E-03    -62.3984E-03    -2.14229E-03    -64.5015E+06    -74.7014E+06    -263.424E+06    -74.7218E+06    -263.404E+06    -64.5015E+06     1.74651E+06         29.8212
            1484     3.75923E-03     82.5135E-03     903.719E-03     57.2939E-03     23.0403E-03     23.9060E-03     902.853E-03     57.2939E-03    -5.50216E-03     124.596E-03    -62.2003E-03    -62.4156E-03    -62.1917E-03     124.587E-03    -62.4156E-03    -2.53799E-03    -54.0670E+06    -70.2688E+06    -256.865E+06    -70.2938E+06    -256.840E+06    -54.0670E+06     1.93544E+06         30.0233
            1485     4.69911E-03     82.5109E-03     934.564E-03     48.3103E-03    -670.082E-06     114.593E-06     933.779E-03     48.3103E-03    -4.82379E-03     124.480E-03    -62.0771E-03    -62.4276E-03    -62.0702E-03     124.474E-03    -62.4276E-03    -2.23342E-03    -41.7566E+06    -64.6286E+06    -244.805E+06    -64.6723E+06    -244.761E+06    -41.7566E+06     2.47759E+06         30.3023
            1486     5.63880E-03     82.5080E-03     980.174E-03     37.3398E-03    -36.7532E-03    -36.6045E-03     980.026E-03     37.3398E-03     16.3491E-03     124.384E-03    -61.9783E-03    -62.4322E-03    -61.9752E-03     124.381E-03    -62.4322E-03    -1.43299E-03    -30.2329E+06    -59.2948E+06    -224.530E+06    -59.3548E+06    -224.470E+06    -30.2329E+06     2.62621E+06         30.7258
            1487     6.57930E-03     82.5064E-03         1.02619     24.6160E-03    -67.5288E-03    -67.3748E-03         1.02604     24.6160E-03     18.6387E-03     124.385E-03    -62.0261E-03    -62.3781E-03    -62.0253E-03     124.385E-03    -62.3781E-03    -294.265E-06    -27.4688E+06    -55.9237E+06    -197.706E+06    -55.9667E+06    -197.663E+06    -27.4688E+06     1.89079E+06         31.4228
            1488     7.51882E-03     82.5056E-03         1.08054     10.7683E-03    -105.857E-03    -105.683E-03         1.08036     10.7683E-03     6.50516E-03     124.140E-03    -61.8573E-03    -62.3087E-03    -61.8536E-03     124.136E-03    -62.3087E-03     1.35719E-03    -28.2935E+06    -52.6270E+06    -161.431E+06    -52.6891E+06    -161.369E+06    -28.2935E+06     2.23250E+06         32.5859
            1489     8.45915E-03     82.5066E-03         1.15511    -5.35864E-03    -164.494E-03    -164.367E-03         1.15499    -5.35864E-03     4.16322E-03     123.843E-03    -61.6403E-03    -62.2400E-03    -61.6085E-03     123.811E-03    -62.2400E-03     4.38260E-03    -25.8509E+06    -48.4776E+06    -112.942E+06    -48.6701E+06    -112.750E+06    -25.8509E+06     2.67911E+06         34.4294
            1490     9.39956E-03     82.5136E-03         1.22632    -23.7949E-03    -215.178E-03    -215.107E-03         1.22625    -23.7949E-03     11.9435E-03     123.684E-03    -61.5197E-03    -62.1990E-03    -61.4253E-03     123.590E-03    -62.1990E-03     8.17164E-03    -18.0285E+06    -39.6437E+06    -64.5435E+06    -44.0785E+06    -60.1086E+06    -18.0285E+06     3.45165E+06         37.0160
            1491     10.3395E-03     82.5225E-03         1.28882    -43.0777E-03    -255.591E-03    -255.563E-03         1.28879    -43.0777E-03    -11.0463E-03     123.100E-03    -61.0340E-03    -62.0849E-03    -60.8662E-03     122.932E-03    -62.0849E-03     11.0424E-03     17.3546E+06    -24.2558E+06    -41.4997E+06    -39.9377E+06     5.40494E+06    -13.8681E+06     5.89727E+06         40.2999
            1492     11.2808E-03     82.5351E-03         1.36049    -62.7855E-03    -301.793E-03    -301.683E-03         1.36038    -62.7855E-03     7.83482E-03     123.340E-03    -61.3411E-03    -62.0314E-03    -60.6407E-03     122.610E-03    -62.0019E-03     21.3380E-03     55.6885E+06    -8.10445E+06    -38.5908E+06    -37.9552E+06     55.0529E+06    -8.10445E+06     7.57276E+06         44.2474
            1493     12.2213E-03     82.5661E-03         1.45445    -83.9617E-03    -371.279E-03    -371.166E-03         1.45433    -83.9617E-03     23.3421E-03     126.312E-03    -62.1028E-03    -64.3095E-03    -60.9478E-03     122.951E-03    -62.1028E-03     47.4371E-03     67.4622E+06     19.3075E+06    -35.6677E+06    -35.1960E+06     66.9905E+06     19.3075E+06     6.39611E+06         49.1303
            1494     13.1627E-03     82.6374E-03         1.55538    -107.480E-03    -447.910E-03    -447.832E-03         1.55530    -107.480E-03    -4.49043E-03     132.215E-03    -62.2635E-03    -70.0289E-03    -61.0830E-03     123.269E-03    -62.2635E-03     81.6566E-03     73.2226E+06     55.0905E+06    -31.4843E+06    -31.1823E+06     72.9206E+06     55.0905E+06     3.32974E+06         55.2031
            1495     14.1027E-03     82.7460E-03         1.63488    -132.515E-03    -501.144E-03    -501.065E-03         1.63480    -132.515E-03     533.904E-06     152.499E-03    -62.3999E-03    -90.0236E-03    -63.5188E-03     125.995E-03    -62.3999E-03     147.139E-03     87.6080E+06     81.1388E+06    -26.7206E+06    -26.5391E+06     83.5050E+06     85.0604E+06     1.17134E+06         62.0712
            1496     15.0455E-03     82.9612E-03         1.71081    -158.665E-03    -553.489E-03    -553.427E-03         1.71075    -158.665E-03     915.198E-06     229.176E-03    -62.4399E-03    -166.542E-03    -77.4047E-03     140.039E-03    -62.4399E-03     325.791E-03     117.990E+06     112.123E+06    -18.4184E+06    -18.3913E+06     112.777E+06     117.309E+06    -179.374E+03         68.6584
            1497     15.9872E-03     83.5001E-03         1.79851    -187.057E-03    -620.179E-03    -620.138E-03         1.79847    -187.057E-03    -10.9839E-03     289.569E-03    -62.4443E-03    -226.857E-03    -90.4575E-03     153.170E-03    -62.4443E-03     455.218E-03     148.792E+06     146.278E+06    -9.60605E+06    -9.59505E+06     146.948E+06     148.111E+06    -708.185E+03         73.6369
            1498     940.296E-06     83.6527E-03     871.802E-03     126.317E-03    -32.5725E-03    -13.8535E-03     865.878E-03     113.522E-03     108.529E-03     124.521E-03    -62.0665E-03    -62.4481E-03    -62.4242E-03     124.517E-03    -62.0864E-03    -1.59678E-03    -78.9205E+06    -82.3512E+06    -272.250E+06    -81.8411E+06    -272.238E+06    -79.4429E+06    -610.535E+03         29.5988
            1499     1.87977E-03     83.6516E-03     846.273E-03     64.9519E-03     46.8397E-03     61.1575E-03     844.751E-03     52.1570E-03     20.0819E-03     124.637E-03    -62.2375E-03    -62.3980E-03    -62.3245E-03     124.632E-03    -62.3056E-03    -1.91596E-03    -73.8024E+06    -79.8459E+06    -271.390E+06    -79.8480E+06    -271.388E+06    -73.8024E+06     300.461E+03         29.6773
            1500     2.81962E-03     83.6481E-03     871.999E-03     51.4081E-03     32.2989E-03     33.1369E-03     871.161E-03     51.4081E-03     26.0374E-03     124.631E-03    -62.2668E-03    -62.3744E-03    -62.2861E-03     124.625E-03    -62.3483E-03    -2.20914E-03    -65.9513E+06    -75.8758E+06    -265.129E+06    -75.8846E+06    -265.120E+06    -65.9513E+06     748.851E+03         29.8167
            1501     3.75901E-03     83.6458E-03     914.273E-03     43.6939E-03     4.50732E-03     5.85430E-03     912.926E-03     43.6939E-03    -32.4841E-03     124.631E-03    -62.2520E-03    -62.3923E-03    -62.2454E-03     124.624E-03    -62.3923E-03    -2.18576E-03    -53.0721E+06    -71.0194E+06    -256.707E+06    -71.0296E+06    -256.697E+06    -53.0721E+06     1.24264E+06         30.0219
            1502     4.69878E-03     83.6420E-03     952.907E-03     33.5319E-03    -22.6207E-03    -21.4535E-03     951.739E-03     33.5319E-03    -43.9237E-03     124.481E-03    -62.0851E-03    -62.4109E-03    -62.0797E-03     124.476E-03    -62.4109E-03    -1.94875E-03    -41.9682E+06    -65.4923E+06    -244.731E+06    -65.4999E+06    -244.723E+06    -41.9682E+06     691.242E+03         30.3027
            1503     5.63943E-03     83.6395E-03     977.813E-03     22.9080E-03    -39.2766E-03    -39.1940E-03     977.731E-03     22.9080E-03    -7.50254E-03     124.323E-03    -61.9379E-03    -62.4024E-03    -61.9358E-03     124.321E-03    -62.4024E-03    -1.16380E-03    -33.1139E+06    -58.9386E+06    -226.272E+06    -58.9761E+06    -226.235E+06    -33.1139E+06     1.45247E+06         30.7205
            1504     6.57911E-03     83.6381E-03         1.02121     11.8704E-03    -70.7541E-03    -70.5673E-03         1.02103     11.8704E-03     7.50338E-03     124.246E-03    -61.8952E-03    -62.3618E-03    -61.8948E-03     124.245E-03    -62.3618E-03    -283.377E-06    -26.2666E+06    -53.5462E+06    -198.552E+06    -53.6408E+06    -198.457E+06    -26.2666E+06     2.79161E+06         31.4007
            1505     7.51965E-03     83.6370E-03         1.08574    -1.49348E-03    -121.515E-03    -121.155E-03         1.08538    -1.49348E-03    -966.187E-06     124.182E-03    -61.9104E-03    -62.2880E-03    -61.9073E-03     124.179E-03    -62.2880E-03     1.13950E-03    -26.3238E+06    -49.8524E+06    -160.264E+06    -49.9930E+06    -160.123E+06    -26.3238E+06     1.30311E+06         32.5434
            1506     8.45924E-03     83.6387E-03         1.14620    -17.1367E-03    -163.786E-03    -163.444E-03         1.14586    -17.1367E-03    -1.11966E-03     123.890E-03    -61.7151E-03    -62.2086E-03    -61.6829E-03     123.858E-03    -62.2086E-03     4.34749E-03    -26.6492E+06    -45.7628E+06    -112.861E+06    -45.8431E+06    -112.781E+06    -26.6492E+06    -116.120E+03         34.3684
            1507     9.39935E-03     83.6449E-03         1.21543    -34.2029E-03    -211.361E-03    -211.215E-03         1.21529    -34.2029E-03     23.7213E-03     123.467E-03    -61.3309E-03    -62.1697E-03    -61.2400E-03     123.376E-03    -62.1697E-03     8.05430E-03    -19.1006E+06    -39.9242E+06    -66.4610E+06    -42.1166E+06    -64.2685E+06    -19.1006E+06     2.27158E+06         36.9387
            1508     10.3403E-03     83.6547E-03         1.29012    -52.8687E-03    -266.057E-03    -265.969E-03         1.29003    -52.8687E-03    -6.59172E-03     123.024E-03    -60.9851E-03    -62.0540E-03    -60.8299E-03     122.869E-03    -62.0540E-03     10.6160E-03     15.5144E+06    -26.1419E+06    -43.3828E+06    -40.2759E+06     839.988E+03    -14.5744E+06     6.15002E+06         40.2073
            1509     11.2813E-03     83.6657E-03         1.36100    -72.8043E-03    -313.453E-03    -313.245E-03         1.36079    -72.8043E-03     9.16958E-03     123.280E-03    -61.3456E-03    -61.9672E-03    -60.6419E-03     122.570E-03    -61.9610E-03     20.9211E-03     55.3418E+06     -8.7848E+06    -38.4229E+06    -37.7347E+06     54.6537E+06     -8.7848E+06     7.62862E+06         44.1393
            1510     12.2224E-03     83.6996E-03         1.44320    -93.9694E-03    -370.569E-03    -370.387E-03         1.44302    -93.9694E-03     30.4730E-03     126.028E-03    -61.9954E-03    -64.1353E-03    -60.8359E-03     122.777E-03    -62.0441E-03     46.6541E-03     69.6735E+06     17.6311E+06    -34.3834E+06    -33.9165E+06     69.2066E+06     17.6311E+06     6.27400E+06         49.0257
            1511     13.1624E-03     83.7684E-03         1.53277    -116.905E-03    -435.789E-03    -435.731E-03         1.53271    -116.905E-03    -165.721E-06     130.853E-03    -62.1918E-03    -68.7334E-03    -60.1880E-03     122.307E-03    -62.1918E-03     79.2949E-03     75.4468E+06     54.0037E+06    -29.7970E+06    -29.4862E+06     75.1360E+06     54.0037E+06     4.99601E+06         55.1410
            1512     14.1076E-03     83.8762E-03         1.62237    -141.642E-03    -495.822E-03    -495.764E-03         1.62231    -141.642E-03    -4.59018E-03     151.581E-03    -62.2863E-03    -89.3095E-03    -62.6113E-03     124.883E-03    -62.2863E-03     146.671E-03     89.1148E+06     82.4964E+06    -23.9863E+06    -23.8058E+06     85.7545E+06     85.6762E+06     2.96560E+06         62.0745
            1513     15.0464E-03     84.0978E-03         1.70690    -169.053E-03    -555.187E-03    -555.129E-03         1.70685    -169.053E-03    -6.51526E-03     226.484E-03    -62.2607E-03    -164.152E-03    -74.8890E-03     137.221E-03    -62.2607E-03     323.187E-03     118.539E+06     114.248E+06    -17.5537E+06    -17.4913E+06     114.867E+06     117.858E+06     869.662E+03         68.7350
            1514     15.9989E-03     84.6213E-03         1.78763    -199.925E-03    -616.668E-03    -616.621E-03         1.78758    -199.925E-03    -8.71438E-03     289.742E-03    -62.3153E-03    -227.249E-03    -92.1278E-03     154.621E-03    -62.3153E-03     454.146E-03     148.578E+06     146.611E+06    -10.1042E+06    -10.0778E+06     147.266E+06     147.897E+06    -556.223E+03         73.7736
            1515     939.255E-06     84.7848E-03     889.137E-03     146.838E-03    -87.6990E-03    -78.4429E-03     885.486E-03     141.234E-03     39.4555E-03     124.708E-03    -61.9300E-03    -62.7746E-03    -62.7035E-03     124.706E-03    -61.9990E-03    -1.05216E-03    -80.8905E+06    -83.9061E+06    -272.536E+06    -83.9091E+06    -272.533E+06    -80.8905E+06     10.7369E+03         29.5897
            1516     1.87937E-03     84.7825E-03     880.539E-03     36.2835E-03     19.6461E-03     27.2284E-03     878.561E-03     30.6791E-03     32.3928E-03     124.530E-03    -62.1783E-03    -62.3561E-03    -62.1729E-03     124.525E-03    -62.3561E-03    -1.93636E-03    -73.9352E+06    -81.3878E+06    -271.814E+06    -81.3907E+06    -271.811E+06    -73.9352E+06     261.291E+03         29.6683
            1517     2.81943E-03     84.7801E-03     913.982E-03     25.2066E-03    -3.78742E-03    -2.86444E-03     913.059E-03     25.2066E-03     47.6280E-03     124.409E-03    -62.0911E-03    -62.3275E-03    -62.0847E-03     124.403E-03    -62.3275E-03    -2.14837E-03    -64.7042E+06    -76.7138E+06    -265.689E+06    -76.7187E+06    -265.684E+06    -64.7042E+06     47.9823E+03         29.8091
            1518     3.75972E-03     84.7772E-03     950.886E-03     15.4644E-03    -26.4493E-03    -25.7194E-03     950.156E-03     15.4644E-03    -13.4408E-03     124.416E-03    -62.1110E-03    -62.3176E-03    -62.1053E-03     124.411E-03    -62.3176E-03    -2.05093E-03    -54.5514E+06    -71.3752E+06    -257.246E+06    -71.3799E+06    -257.242E+06    -54.5514E+06     69.0912E+03         30.0178
            1519     4.69976E-03     84.7736E-03     974.992E-03     6.24812E-03    -35.8396E-03    -35.2809E-03     974.433E-03     6.24812E-03    -35.0176E-03     124.553E-03    -62.1868E-03    -62.3809E-03    -62.2255E-03     124.548E-03    -62.3376E-03    -1.84253E-03    -44.2961E+06    -65.9129E+06    -243.386E+06    -65.9211E+06    -243.378E+06    -44.2961E+06    -548.537E+03         30.3031
            1520     5.63896E-03     84.7710E-03         1.00015    -2.08366E-03    -53.1088E-03    -53.0156E-03         1.00006    -2.08366E-03    -11.2778E-03     124.502E-03    -62.1044E-03    -62.4119E-03    -62.1452E-03     124.499E-03    -62.3685E-03    -1.33289E-03    -36.4236E+06    -60.6725E+06    -227.419E+06    -60.6894E+06    -227.402E+06    -36.4236E+06    -1.22765E+06         30.7169
            1521     6.57945E-03     84.7694E-03         1.04984    -12.1588E-03    -94.7898E-03    -94.3089E-03         1.04935    -12.1588E-03     26.4379E-03     124.293E-03    -61.9487E-03    -62.3532E-03    -61.9478E-03     124.292E-03    -62.3532E-03    -341.577E-06    -29.8100E+06    -53.5304E+06    -200.725E+06    -53.6282E+06    -200.628E+06    -29.8100E+06    -8.99723E+03         31.3795
            1522     7.51903E-03     84.7691E-03         1.10845    -25.1702E-03    -140.186E-03    -139.500E-03         1.10776    -25.1702E-03     5.97630E-03     124.141E-03    -61.8713E-03    -62.2892E-03    -61.8686E-03     124.138E-03    -62.2892E-03     1.12913E-03    -25.6143E+06    -46.9801E+06    -156.688E+06    -47.1202E+06    -156.548E+06    -25.6143E+06    -303.744E+03         32.5007
            1523     8.45936E-03     84.7707E-03         1.15707    -39.7871E-03    -173.583E-03    -173.246E-03         1.15673    -39.7871E-03    -14.4091E-03     123.763E-03    -61.6071E-03    -62.1914E-03    -61.5782E-03     123.734E-03    -62.1914E-03     4.07998E-03    -27.8372E+06    -44.3884E+06    -113.503E+06    -44.4511E+06    -113.440E+06    -27.8372E+06    -995.795E+03         34.3073
            1524     9.39978E-03     84.7763E-03         1.21933    -55.2947E-03    -214.352E-03    -214.244E-03         1.21922    -55.2947E-03     18.0929E-03     123.408E-03    -61.3124E-03    -62.1402E-03    -61.2262E-03     123.322E-03    -62.1402E-03     7.81278E-03    -23.9906E+06    -41.5710E+06    -72.5563E+06    -43.2985E+06    -70.8288E+06    -23.9906E+06     2.53741E+06         36.8608
            1525     10.3405E-03     84.7855E-03         1.30406    -72.7219E-03    -276.630E-03    -276.271E-03         1.30370    -72.7219E-03    -21.2851E-03     123.233E-03    -61.2175E-03    -62.0441E-03    -61.0694E-03     123.085E-03    -62.0441E-03     10.3946E-03     12.7017E+06    -28.2456E+06    -45.4621E+06    -40.8514E+06    -2.73463E+06    -17.4199E+06     5.88912E+06         40.1134
            1526     11.2805E-03     84.7981E-03         1.38683    -92.5667E-03    -338.014E-03    -337.513E-03         1.38633    -92.5667E-03    -5.15991E-03     123.415E-03    -61.4842E-03    -61.9679E-03    -60.7979E-03     122.729E-03    -61.9679E-03     20.5450E-03     54.8694E+06    -10.8428E+06    -37.9437E+06    -37.4261E+06     54.3518E+06    -10.8428E+06     6.42416E+06         44.0291
            1527     12.2211E-03     84.8303E-03         1.45407    -113.805E-03    -379.275E-03    -379.085E-03         1.45388    -113.805E-03     20.8628E-03     125.927E-03    -61.9485E-03    -64.0862E-03    -60.6973E-03     122.644E-03    -62.0548E-03     46.6956E-03     70.1666E+06     15.5605E+06    -34.7494E+06    -34.3179E+06     69.7351E+06     15.5605E+06     6.41403E+06         48.9190
            1528     13.1628E-03     84.9017E-03         1.51878    -135.633E-03    -419.791E-03    -419.751E-03         1.51874    -135.633E-03    -11.7456E-03     130.229E-03    -62.2008E-03    -68.1438E-03    -60.1045E-03     122.190E-03    -62.2008E-03     77.1543E-03     77.0041E+06     53.1656E+06    -30.0742E+06    -29.7351E+06     76.6651E+06     53.1656E+06     5.50695E+06         55.0747
            1529     14.1038E-03     85.0016E-03         1.60806    -159.197E-03    -485.606E-03    -485.463E-03         1.60791    -159.197E-03     4.29745E-03     151.113E-03    -62.2947E-03    -88.8567E-03    -62.4202E-03     124.677E-03    -62.2947E-03     144.926E-03     91.8358E+06     84.5115E+06    -23.3161E+06    -23.1388E+06     89.1572E+06     87.0128E+06     3.84724E+06         62.0709
            1530     15.0516E-03     85.2312E-03         1.70847    -187.041E-03    -561.948E-03    -561.798E-03         1.70832    -187.041E-03    -284.333E-06     223.449E-03    -62.3275E-03    -161.030E-03    -75.2491E-03     137.667E-03    -62.3275E-03     316.033E-03     118.554E+06     115.463E+06    -16.6951E+06    -16.6316E+06     115.400E+06     118.554E+06     2.65066E+06         68.7987
            1531     15.9877E-03     85.7416E-03         1.78717    -219.447E-03    -612.214E-03    -612.165E-03         1.78712    -219.447E-03    -4.87603E-03     290.393E-03    -62.4294E-03    -227.788E-03    -92.4048E-03     155.011E-03    -62.4294E-03     455.225E-03     149.191E+06     148.143E+06    -8.18112E+06    -8.14586E+06     148.179E+06     149.121E+06     1.54527E+06         73.9161
            1532     940.122E-06     85.9164E-03     952.148E-03     146.425E-03    -167.859E-03    -165.330E-03     949.619E-03     146.425E-03    -4.06880E-03     124.375E-03    -61.7506E-03    -62.6215E-03    -62.4328E-03     124.373E-03    -61.9373E-03    -1.06229E-03    -83.3540E+06    -87.4106E+06    -274.351E+06    -87.4282E+06    -274.333E+06    -83.3540E+06     1.18813E+06         29.5759
            1533     1.87978E-03     85.9138E-03     968.588E-03    -11.8886E-03    -31.7635E-03    -29.2956E-03     967.504E-03    -13.2723E-03    -25.4446E-03     124.421E-03    -62.1184E-03    -62.3075E-03    -62.1945E-03     124.418E-03    -62.2281E-03    -1.54184E-03    -75.0101E+06    -82.9241E+06    -271.404E+06    -82.9296E+06    -271.398E+06    -75.0101E+06     91.2032E+03         29.6594
            1534     2.81968E-03     85.9112E-03     966.618E-03    -12.1944E-03    -36.0442E-03    -29.1658E-03     966.401E-03    -18.8555E-03     20.6852E-03     124.418E-03    -62.0952E-03    -62.3339E-03    -62.1644E-03     124.412E-03    -62.2589E-03    -2.07798E-03    -66.5544E+06    -78.0242E+06    -264.797E+06     -78.032E+06    -264.790E+06    -66.5544E+06    -652.468E+03         29.8052
            1535     3.75976E-03     85.9081E-03     978.032E-03    -16.9969E-03    -42.4483E-03    -36.8529E-03     977.714E-03    -22.2742E-03    -16.1380E-03     124.468E-03    -62.1566E-03    -62.3249E-03    -62.1898E-03     124.461E-03    -62.2844E-03    -2.34513E-03    -58.1196E+06    -73.2608E+06    -256.664E+06    -73.2906E+06    -256.634E+06    -58.1196E+06    -1.76311E+06         30.0175
            1536     4.69951E-03     85.9055E-03         1.00535    -27.1259E-03    -58.7501E-03    -58.4157E-03         1.00501    -27.1259E-03    -31.4251E-03     124.538E-03    -62.2054E-03    -62.3519E-03    -62.2426E-03     124.532E-03    -62.3086E-03    -2.11890E-03    -49.1339E+06    -67.7239E+06    -241.848E+06    -67.7843E+06    -241.788E+06    -49.1339E+06    -2.76727E+06         30.3046
            1537     5.63937E-03     85.9028E-03         1.05237    -35.2503E-03    -96.2418E-03    -96.1812E-03         1.05230    -35.2503E-03    -4.42229E-03     124.571E-03    -62.1911E-03    -62.4002E-03    -62.2312E-03     124.568E-03    -62.3568E-03    -1.52174E-03    -39.4253E+06    -61.2486E+06    -225.749E+06    -61.3633E+06    -225.635E+06    -39.4253E+06    -3.90039E+06         30.7128
            1538     6.57880E-03     85.9006E-03         1.09748    -46.0671E-03    -127.512E-03    -127.130E-03         1.09710    -46.0671E-03     29.8358E-03     124.387E-03    -62.0519E-03    -62.3468E-03    -62.0507E-03     124.385E-03    -62.3468E-03    -268.950E-06    -35.0240E+06    -54.6258E+06    -200.902E+06    -54.8455E+06    -200.683E+06    -35.0240E+06    -5.16867E+06         31.3579
            1539     7.51928E-03     85.9013E-03         1.14179    -58.1539E-03    -159.355E-03    -158.915E-03         1.14135    -58.1539E-03     10.3287E-03     124.042E-03    -61.7818E-03    -62.2833E-03    -61.7792E-03     124.040E-03    -62.2833E-03     1.24764E-03    -30.7233E+06    -48.3404E+06    -157.273E+06    -48.5438E+06    -157.070E+06    -30.7233E+06    -3.78502E+06         32.4579
            1540     8.45922E-03     85.9020E-03         1.20112    -71.9735E-03    -206.140E-03    -206.064E-03         1.20104    -71.9735E-03    -16.5992E-03     123.698E-03    -61.5195E-03    -62.2140E-03    -61.4956E-03     123.674E-03    -62.2140E-03     3.74256E-03    -26.0762E+06    -44.1598E+06    -116.924E+06    -44.3302E+06    -116.753E+06    -26.0762E+06    -25.2578E+03         34.2461
            1541     9.39981E-03     85.9078E-03         1.25568    -87.3455E-03    -242.023E-03    -241.926E-03         1.25558    -87.3455E-03     11.1797E-03     123.534E-03    -61.4375E-03    -62.1407E-03    -61.3496E-03     123.446E-03    -62.1407E-03     7.75845E-03    -25.5217E+06    -40.3457E+06    -75.8453E+06    -41.8262E+06    -74.3648E+06    -25.5217E+06     1.80196E+06         36.7830
            1542     10.3397E-03     85.9180E-03         1.32530    -103.875E-03    -290.910E-03    -290.533E-03         1.32493    -103.875E-03    -7.60853E-03     123.306E-03    -61.3048E-03    -62.0325E-03    -61.1462E-03     123.148E-03    -62.0325E-03     10.7651E-03     5.91649E+06    -28.2192E+06    -43.8250E+06    -38.2706E+06    -5.94503E+06    -21.9122E+06     3.37038E+06         40.0200
            1543     11.2806E-03     85.9300E-03         1.40500    -122.294E-03    -348.484E-03    -348.131E-03         1.40464    -122.294E-03    -14.5435E-03     123.395E-03    -61.4580E-03    -61.9793E-03    -60.7647E-03     122.702E-03    -61.9793E-03     20.7130E-03     51.9284E+06    -12.3242E+06    -36.5730E+06    -36.0154E+06     51.3708E+06    -12.3242E+06     6.80898E+06         43.9217
            1544     12.2218E-03     85.9618E-03         1.46113    -142.017E-03    -382.195E-03    -382.109E-03         1.46105    -142.017E-03     4.27363E-03     125.800E-03    -61.9675E-03    -63.9447E-03    -60.4924E-03     122.443E-03    -62.0637E-03     47.0926E-03     71.0284E+06     14.7595E+06    -35.0359E+06    -34.4726E+06     70.4652E+06     14.7595E+06     7.49986E+06         48.8180
            1545     13.1624E-03     86.0333E-03         1.52387    -162.484E-03    -423.789E-03    -423.773E-03         1.52385    -162.484E-03    -4.25980E-03     130.739E-03    -62.2270E-03    -68.6264E-03    -60.6863E-03     122.799E-03    -62.2270E-03     77.1261E-03     79.1817E+06     54.3891E+06    -30.1348E+06    -29.8037E+06     78.8507E+06     54.3891E+06     5.42639E+06         55.0138
            1546     14.1055E-03     86.1316E-03         1.60657    -185.130E-03    -483.835E-03    -483.668E-03         1.60641    -185.130E-03     24.6864E-03     152.132E-03    -62.3822E-03    -89.7781E-03    -63.7564E-03     126.110E-03    -62.3822E-03     144.340E-03     92.4998E+06     84.9745E+06    -23.3132E+06    -23.0033E+06     89.6124E+06     87.5521E+06     4.93964E+06         62.0680
            1547     15.0419E-03     86.3613E-03         1.69450    -212.630E-03    -546.279E-03    -546.027E-03         1.69425    -212.630E-03     8.59805E-03     225.405E-03    -62.4796E-03    -162.794E-03    -76.8919E-03     139.503E-03    -62.4796E-03     318.067E-03     119.511E+06     116.697E+06    -15.9124E+06    -15.7015E+06     116.487E+06     119.511E+06     4.10248E+06         68.8678
            1548     15.9843E-03     86.8733E-03         1.77378    -245.717E-03    -598.078E-03    -597.970E-03         1.77367    -245.717E-03    -22.6538E-03     292.188E-03    -62.5405E-03    -229.429E-03    -91.5117E-03     154.270E-03    -62.5405E-03     460.062E-03     151.224E+06     150.061E+06    -8.53146E+06    -8.48644E+06     150.943E+06     150.297E+06     1.98552E+06         74.0857
            1549     940.259E-06     87.0469E-03         1.04221     89.6149E-03    -228.995E-03    -226.533E-03         1.03975     89.6149E-03     33.9994E-03     124.103E-03    -61.8334E-03    -62.2722E-03    -61.8756E-03     124.100E-03    -62.2274E-03    -1.27092E-03    -85.6233E+06    -89.6227E+06    -273.983E+06    -89.0598E+06    -273.869E+06    -86.3001E+06     1.65992E+06         29.5677
            1550     1.88030E-03     87.0456E-03         1.05847    -70.5651E-03    -88.2370E-03    -86.0709E-03         1.05769    -71.9488E-03    -1.86454E-03     124.377E-03    -62.1237E-03    -62.2608E-03    -62.2551E-03     124.371E-03    -62.1240E-03    -1.92284E-03    -77.5990E+06    -83.7021E+06    -270.287E+06    -83.7401E+06    -270.249E+06    -77.5990E+06    -1.71340E+06         29.6566
            1551     2.81997E-03     87.0425E-03         1.03972    -63.8919E-03    -79.3901E-03    -68.7549E-03         1.03961    -74.4151E-03    -2.10550E-03     124.666E-03    -62.2343E-03    -62.4244E-03    -62.4170E-03     124.658E-03    -62.2343E-03    -2.33310E-03    -70.5786E+06    -79.7546E+06    -263.074E+06    -79.7950E+06    -263.033E+06    -70.5786E+06    -2.21142E+06         29.8078
            1552     3.75923E-03     87.0400E-03         1.03631    -63.5176E-03    -77.4944E-03    -67.2663E-03         1.03522    -72.6570E-03    -42.3183E-03     124.752E-03    -62.3110E-03    -62.4352E-03    -62.4009E-03     124.743E-03    -62.3370E-03    -2.49116E-03    -60.8292E+06    -74.4312E+06    -253.076E+06    -74.5772E+06    -252.930E+06    -60.8292E+06    -4.49794E+06         30.0220
            1553     4.69896E-03     87.0367E-03         1.07576    -74.4877E-03    -102.230E-03    -100.997E-03         1.07452    -74.4877E-03    -66.2511E-03     124.517E-03    -62.1650E-03    -62.3676E-03    -62.1576E-03     124.509E-03    -62.3676E-03    -2.31207E-03    -51.6759E+06    -67.0396E+06    -239.784E+06    -67.3523E+06    -239.472E+06    -51.6759E+06    -6.80379E+06         30.3070
            1554     5.63910E-03     87.0344E-03         1.12479    -81.9515E-03    -141.375E-03    -141.129E-03         1.12455    -81.9515E-03    -26.3142E-03     124.429E-03    -62.0700E-03    -62.3761E-03    -62.0665E-03     124.426E-03    -62.3761E-03    -1.58673E-03    -42.3561E+06    -60.0296E+06    -223.943E+06    -60.4085E+06    -223.564E+06    -42.3561E+06    -7.52792E+06         30.7073
            1555     6.57907E-03     87.0329E-03         1.16539    -92.2918E-03    -169.224E-03    -169.008E-03         1.16517    -92.2918E-03    -18.2974E-03     124.373E-03    -62.0276E-03    -62.3579E-03    -62.0264E-03     124.371E-03    -62.3579E-03    -347.668E-06    -35.5074E+06    -54.7408E+06    -198.688E+06    -55.2450E+06    -198.184E+06    -35.5074E+06    -8.22065E+06         31.3355
            1556     7.51872E-03     87.0323E-03         1.19937    -103.322E-03    -192.706E-03    -192.267E-03         1.19893    -103.322E-03    -37.1413E-03     124.045E-03    -61.7901E-03    -62.2833E-03    -61.7874E-03     124.043E-03    -62.2833E-03     1.23910E-03    -34.1180E+06    -49.6317E+06    -160.222E+06    -50.2134E+06    -159.640E+06    -34.1180E+06    -7.82724E+06         32.4154
            1557     8.45928E-03     87.0339E-03         1.24671    -115.292E-03    -229.435E-03    -229.054E-03         1.24633    -115.292E-03    -39.9190E-03     123.787E-03    -61.6087E-03    -62.2187E-03    -61.5861E-03     123.765E-03    -62.2187E-03     3.69572E-03    -29.7838E+06    -42.4679E+06    -122.134E+06    -43.1798E+06    -121.422E+06    -29.7838E+06    -4.51566E+06         34.1852
            1558     9.39929E-03     87.0388E-03         1.30470    -128.997E-03    -271.979E-03    -271.792E-03         1.30451    -128.997E-03    -5.26086E-03     123.562E-03    -61.4516E-03    -62.1540E-03    -61.3618E-03     123.473E-03    -62.1540E-03     7.79559E-03    -25.5876E+06    -35.7476E+06    -76.7400E+06    -36.5487E+06    -75.9390E+06    -25.5876E+06    -1.01856E+06         36.7055
            1559     10.3402E-03     87.0501E-03         1.35827    -143.930E-03    -306.934E-03    -306.828E-03         1.35816    -143.930E-03     11.5923E-03     123.185E-03    -61.1686E-03    -62.0363E-03    -61.0102E-03     123.026E-03    -62.0363E-03     10.7745E-03     630.404E+03    -27.5717E+06    -44.2239E+06    -35.3520E+06    -12.1852E+06    -23.6280E+06     3.52096E+06         39.9282
            1560     11.2807E-03     87.0609E-03         1.41452    -159.628E-03    -344.051E-03    -344.004E-03         1.41448    -159.628E-03     7.39901E-03     123.360E-03    -61.4068E-03    -61.9792E-03    -60.7312E-03     122.684E-03    -61.9792E-03     20.4180E-03     47.8509E+06    -13.4728E+06    -36.6198E+06    -35.8381E+06     47.0692E+06    -13.4728E+06     8.02825E+06         43.8177
            1561     12.2212E-03     87.0938E-03         1.48257    -176.882E-03    -392.974E-03    -392.920E-03         1.48251    -176.882E-03     10.7886E-03     125.601E-03    -61.9780E-03    -63.7285E-03    -60.4250E-03     122.387E-03    -62.0672E-03     46.1087E-03     72.9928E+06     15.5563E+06    -34.1487E+06    -33.4928E+06     72.3369E+06     15.5563E+06     8.23398E+06         48.7212
            1562     13.1643E-03     87.1629E-03         1.55569    -196.474E-03    -446.990E-03    -446.957E-03         1.55565    -196.474E-03    -613.801E-06     131.249E-03    -62.2239E-03    -69.0833E-03    -60.9457E-03     123.112E-03    -62.2239E-03     77.9276E-03     79.9138E+06     53.3874E+06    -31.2551E+06    -30.6609E+06     79.3195E+06     53.3874E+06     7.14238E+06         54.9589
            1563     14.1011E-03     87.2685E-03         1.62755    -218.867E-03    -495.980E-03    -495.793E-03         1.62737    -218.867E-03     19.1859E-03     152.640E-03    -62.3680E-03    -90.1950E-03    -63.9989E-03     126.443E-03    -62.3680E-03     145.462E-03     92.0702E+06     83.1617E+06    -27.0575E+06    -26.5318E+06     90.1883E+06     84.5178E+06     5.90390E+06         62.0777
            1564     15.0469E-03     87.4895E-03         1.69283    -246.132E-03    -536.563E-03    -536.239E-03         1.69251    -246.132E-03     63.3076E-06     226.950E-03    -62.4606E-03    -164.261E-03    -76.8614E-03     139.550E-03    -62.4606E-03     321.436E-03     119.853E+06     116.870E+06    -18.8201E+06    -18.6126E+06     118.060E+06     118.456E+06     3.91166E+06         68.9604
            1565     15.9892E-03     88.0138E-03         1.76115    -279.163E-03    -578.449E-03    -578.215E-03         1.76092    -279.163E-03    -21.6036E-03     291.796E-03    -62.5317E-03    -229.060E-03    -91.2196E-03     153.956E-03    -62.5317E-03     459.539E-03     153.354E+06     151.669E+06    -9.47899E+06    -9.43660E+06     153.082E+06     151.899E+06     1.94685E+06         74.2686
            1566     939.744E-06     88.1778E-03         1.10788     31.4396E-03    -271.105E-03    -257.454E-03         1.10388     21.7900E-03    -6.04334E-03     124.506E-03    -61.8783E-03    -62.6219E-03    -62.3225E-03     124.504E-03    -62.1753E-03    -1.10096E-03    -87.7416E+06    -90.3239E+06    -269.947E+06    -88.5368E+06    -269.780E+06    -89.6963E+06    -1.27092E+06         29.5759
            1567     1.87962E-03     88.1765E-03         1.10565    -108.640E-03    -132.204E-03    -120.480E-03         1.10358    -118.289E-03     60.8584E-03     124.601E-03    -62.2406E-03    -62.3685E-03    -62.3220E-03     124.595E-03    -62.2816E-03    -1.99085E-03    -83.1405E+06    -88.1571E+06    -268.162E+06    -87.3679E+06    -268.082E+06    -84.0092E+06    -3.03952E+06         29.6642
            1568     2.81926E-03     88.1744E-03         1.13833    -118.406E-03    -147.630E-03    -143.324E-03         1.13789    -122.268E-03     17.4857E-03     124.817E-03    -62.3149E-03    -62.4967E-03    -62.4518E-03     124.809E-03    -62.3521E-03    -2.35361E-03    -75.5261E+06    -82.7059E+06    -259.571E+06    -82.9027E+06    -259.375E+06    -75.5261E+06    -5.18408E+06         29.8137
            1569     3.75889E-03     88.1720E-03         1.15494    -124.467E-03    -154.704E-03    -149.691E-03         1.15379    -128.329E-03    -5.16705E-03     124.771E-03    -62.3033E-03    -62.4649E-03    -62.3522E-03     124.762E-03    -62.4072E-03    -2.54421E-03    -66.2017E+06    -75.7029E+06    -246.738E+06    -76.2588E+06    -246.182E+06    -66.2017E+06    -8.98080E+06         30.0267
            1570     4.69862E-03     88.1683E-03         1.17913    -134.118E-03    -167.835E-03    -166.796E-03         1.17809    -134.118E-03    -31.1169E-03     124.634E-03    -62.2187E-03    -62.4323E-03    -62.2113E-03     124.627E-03    -62.4323E-03    -2.33086E-03    -56.2640E+06    -68.9265E+06    -236.772E+06    -69.7654E+06    -235.933E+06    -56.2640E+06    -11.4683E+06         30.3106
            1571     5.63849E-03     88.1663E-03         1.21129    -141.539E-03    -193.273E-03    -192.953E-03         1.21097    -141.539E-03    -18.4378E-03     124.433E-03    -62.0179E-03    -62.4297E-03    -62.0138E-03     124.429E-03    -62.4297E-03    -1.70838E-03    -47.1775E+06    -61.9870E+06    -222.199E+06    -63.0168E+06    -221.169E+06    -47.1775E+06    -12.2821E+06         30.7033
            1572     6.57877E-03     88.1645E-03         1.24217    -150.443E-03    -216.487E-03    -216.259E-03         1.24195    -150.443E-03    -31.8494E-03     124.245E-03    -61.8854E-03    -62.3739E-03    -61.8841E-03     124.244E-03    -62.3739E-03    -611.696E-06    -40.4561E+06    -53.9381E+06    -196.883E+06    -55.2140E+06    -195.607E+06    -40.4561E+06    -12.8711E+06         31.3141
            1573     7.51900E-03     88.1641E-03         1.26888    -159.471E-03    -229.381E-03    -228.932E-03         1.26843    -159.471E-03    -45.4419E-03     124.062E-03    -61.8062E-03    -62.2869E-03    -61.8039E-03     124.059E-03    -62.2869E-03     947.636E-06    -38.7897E+06    -47.0923E+06    -161.485E+06    -48.4481E+06    -160.129E+06    -38.7897E+06    -12.1286E+06         32.3734
            1574     8.45885E-03     88.1650E-03         1.30460    -168.678E-03    -254.824E-03    -254.365E-03         1.30414    -168.678E-03    -28.8028E-03     123.834E-03    -61.6580E-03    -62.2172E-03    -61.6339E-03     123.810E-03    -62.2172E-03     3.74481E-03    -37.4289E+06    -42.8609E+06    -125.607E+06    -44.3018E+06    -124.166E+06    -37.4289E+06    -10.5644E+06         34.1245
            1575     9.39916E-03     88.1713E-03         1.35772    -179.541E-03    -296.026E-03    -295.865E-03         1.35756    -179.541E-03    -4.74630E-03     123.571E-03    -61.4415E-03    -62.1780E-03    -61.3595E-03     123.489E-03    -62.1780E-03     7.55636E-03    -30.6989E+06    -39.9717E+06    -84.1529E+06    -40.9367E+06    -83.1879E+06    -30.6989E+06    -4.57141E+06         36.6282
            1576     10.3396E-03     88.1807E-03         1.39730    -191.612E-03    -319.402E-03    -319.206E-03         1.39710    -191.612E-03    -18.9164E-03     123.203E-03    -61.1555E-03    -62.0692E-03    -61.0041E-03     123.051E-03    -62.0692E-03     10.5014E-03    -2.00622E+06    -32.9136E+06    -50.6733E+06    -38.0561E+06    -21.2736E+06    -26.2635E+06     4.54268E+06         39.8363
            1577     11.2804E-03     88.1941E-03         1.44386    -204.298E-03    -351.893E-03    -351.668E-03         1.44364    -204.298E-03    -3.58653E-03     123.267E-03    -61.2996E-03    -61.9866E-03    -60.6549E-03     122.623E-03    -61.9866E-03     20.0552E-03     45.5913E+06    -17.6177E+06    -37.0795E+06    -36.0930E+06     44.6048E+06    -17.6177E+06     8.48287E+06         43.7136
            1578     12.2216E-03     88.2247E-03         1.52856    -219.637E-03    -418.073E-03    -417.954E-03         1.52844    -219.637E-03     3.93461E-03     125.838E-03    -61.8855E-03    -64.0500E-03    -60.6833E-03     122.679E-03    -62.0932E-03     45.6503E-03     72.9212E+06     12.8035E+06    -35.2601E+06    -34.3661E+06     72.0272E+06     12.8035E+06     9.34385E+06         48.6234
            1579     13.1613E-03     88.2946E-03         1.60485    -238.604E-03    -474.894E-03    -474.623E-03         1.60457    -238.604E-03    -32.7066E-03     131.114E-03    -62.2419E-03    -68.9432E-03    -60.7481E-03     122.919E-03    -62.2419E-03     78.0231E-03     79.6515E+06     50.4927E+06    -32.3838E+06    -31.3571E+06     78.6248E+06     50.4927E+06     10.1963E+06         54.9030
            1580     14.1066E-03     88.4008E-03         1.65437    -260.223E-03    -503.465E-03    -503.160E-03         1.65407    -260.223E-03    -8.38580E-03     151.532E-03    -62.3611E-03    -89.0950E-03    -63.2667E-03     125.704E-03    -62.3611E-03     144.151E-03     94.8102E+06     84.9539E+06    -26.8270E+06    -26.2067E+06     94.1899E+06     84.9539E+06     7.32246E+06         62.0902
            1581     15.0450E-03     88.6200E-03         1.70755    -286.346E-03    -530.723E-03    -530.456E-03         1.70728    -286.346E-03    -9.37425E-03     226.043E-03    -62.4568E-03    -163.411E-03    -76.2386E-03     138.870E-03    -62.4568E-03     319.958E-03     122.281E+06     119.012E+06    -19.0762E+06    -18.9308E+06     120.730E+06     120.417E+06     2.99645E+06         69.0536
            1582     15.9858E-03     89.1453E-03         1.77208    -318.599E-03    -565.823E-03    -565.610E-03         1.77187    -318.599E-03    -15.8553E-03     291.514E-03    -62.5211E-03    -228.799E-03    -91.5119E-03     154.228E-03    -62.5211E-03     458.617E-03     155.170E+06     151.599E+06    -10.1206E+06    -10.1018E+06     153.746E+06     153.004E+06     1.59678E+06         74.4370
            1583     939.476E-06     89.3098E-03         1.19041    -21.6066E-03    -340.873E-03    -326.313E-03         1.18550    -31.2561E-03    -65.0804E-03     125.005E-03    -62.2064E-03    -62.7929E-03    -62.7492E-03     125.002E-03    -62.2470E-03    -1.36581E-03    -84.1228E+06    -89.2807E+06    -267.155E+06    -88.1351E+06    -267.022E+06    -85.4007E+06    -891.221E+03         29.5955
            1584     1.87927E-03     89.3081E-03         1.19823    -164.135E-03    -194.616E-03    -178.399E-03         1.19644    -178.561E-03     27.5426E-03     124.977E-03    -62.4188E-03    -62.5668E-03    -62.4662E-03     124.973E-03    -62.5159E-03    -1.59320E-03    -80.9639E+06    -86.6308E+06    -262.024E+06    -85.9221E+06    -261.858E+06    -81.8384E+06    -4.30912E+06         29.6781
            1585     2.81863E-03     89.3068E-03         1.23583    -176.891E-03    -207.438E-03    -201.459E-03         1.23462    -181.668E-03    -21.6097E-03     124.846E-03    -62.3357E-03    -62.5252E-03    -62.3590E-03     124.840E-03    -62.4957E-03    -2.10691E-03    -78.9878E+06    -82.2750E+06    -253.496E+06    -82.4760E+06    -252.959E+06    -79.3236E+06    -9.10021E+06         29.8210
            1586     3.75856E-03     89.3033E-03         1.27370    -189.212E-03    -225.838E-03    -224.522E-03         1.27238    -189.212E-03    -28.4087E-03     124.748E-03    -62.3014E-03    -62.4652E-03    -62.2938E-03     124.740E-03    -62.4652E-03    -2.37251E-03    -72.3181E+06    -77.8881E+06    -239.621E+06    -78.5521E+06    -238.627E+06    -72.6480E+06    -12.4367E+06         30.0316
            1587     4.69836E-03     89.3009E-03         1.29440    -197.501E-03    -238.384E-03    -237.939E-03         1.29395    -197.501E-03    -12.2270E-03     124.749E-03    -62.2967E-03    -62.4702E-03    -62.2895E-03     124.742E-03    -62.4702E-03    -2.32092E-03    -62.6708E+06    -72.3968E+06    -231.653E+06    -73.9932E+06    -230.056E+06    -62.6708E+06    -15.4823E+06         30.3162
            1588     5.63797E-03     89.2977E-03         1.31260    -205.357E-03    -253.013E-03    -252.894E-03         1.31248    -205.357E-03     9.15688E-03     124.594E-03    -62.1442E-03    -62.4698E-03    -62.1395E-03     124.590E-03    -62.4698E-03    -1.76302E-03    -55.3046E+06    -65.2863E+06    -217.757E+06    -67.7174E+06    -215.325E+06    -55.3046E+06    -18.5029E+06         30.7028
            1589     6.57789E-03     89.2958E-03         1.32777    -212.613E-03    -260.057E-03    -260.007E-03         1.32772    -212.613E-03     414.759E-06     124.345E-03    -61.9335E-03    -62.4298E-03    -61.9326E-03     124.344E-03    -62.4298E-03    -695.508E-06    -48.1647E+06     -56.441E+06    -195.608E+06    -59.7100E+06    -192.339E+06    -48.1647E+06    -20.3939E+06         31.2949
            1590     7.51807E-03     89.2957E-03         1.35456    -219.595E-03    -277.422E-03    -277.314E-03         1.35446    -219.595E-03    -18.7821E-03     124.098E-03    -61.7616E-03    -62.3627E-03    -61.7603E-03     124.096E-03    -62.3627E-03     579.254E-06    -42.1877E+06    -48.5105E+06    -164.450E+06    -51.8313E+06    -161.129E+06    -42.1877E+06    -18.7722E+06         32.3319
            1591     8.45852E-03     89.2971E-03         1.39272    -227.748E-03    -307.614E-03    -307.442E-03         1.39255    -227.748E-03    -10.5238E-03     123.838E-03    -61.5823E-03    -62.2931E-03    -61.5619E-03     123.818E-03    -62.2931E-03     3.33623E-03    -37.5377E+06    -43.7499E+06    -129.892E+06    -46.0415E+06    -127.600E+06    -37.5377E+06    -13.6452E+06         34.0637
            1592     9.39873E-03     89.3028E-03         1.42678    -237.123E-03    -329.848E-03    -329.745E-03         1.42667    -237.123E-03     15.4600E-06     123.712E-03    -61.5185E-03    -62.2430E-03    -61.4435E-03     123.637E-03    -62.2430E-03     7.19892E-03    -33.4394E+06    -42.4026E+06    -93.8090E+06    -43.3260E+06    -92.8856E+06    -33.4394E+06    -6.67934E+06         36.5500
            1593     10.3392E-03     89.3125E-03         1.46859    -247.290E-03    -358.368E-03    -357.853E-03         1.46807    -247.290E-03    -49.9256E-03     123.285E-03    -61.1934E-03    -62.1171E-03    -61.0530E-03     123.144E-03    -62.1171E-03     10.1033E-03    -9.78335E+06    -36.9147E+06    -55.7828E+06    -39.8773E+06    -31.0990E+06    -31.5045E+06     995.187E+03         39.7425
            1594     11.2798E-03     89.3251E-03         1.51910    -258.785E-03    -393.177E-03    -392.684E-03         1.51860    -258.785E-03    -39.4224E-03     123.198E-03    -61.2174E-03    -62.0072E-03    -60.5917E-03     122.573E-03    -62.0072E-03     19.6660E-03     39.9339E+06    -24.7735E+06    -37.7796E+06    -36.5968E+06     38.7511E+06    -24.7735E+06     8.26422E+06         43.6066
            1595     12.2209E-03     89.3557E-03         1.57241    -272.391E-03    -431.619E-03    -431.540E-03         1.57233    -272.391E-03    -11.6790E-03     126.100E-03    -61.9094E-03    -64.2895E-03    -60.9277E-03     122.935E-03    -62.1064E-03     45.6867E-03     71.9332E+06     4.59578E+06    -36.5696E+06    -35.1715E+06     70.5351E+06     4.59578E+06     11.6528E+06         48.5217
            1596     13.1621E-03     89.4279E-03         1.63348    -288.579E-03    -476.657E-03    -476.389E-03         1.63321    -288.579E-03    -41.0052E-03     130.961E-03    -62.3023E-03    -68.7728E-03    -60.8322E-03     123.021E-03    -62.3023E-03     76.9435E-03     80.9518E+06     46.9682E+06    -31.4954E+06    -30.5744E+06     80.0309E+06     46.9682E+06     9.78900E+06         54.8406
            1597     14.1009E-03     89.5288E-03         1.68337    -307.476E-03    -504.580E-03    -504.367E-03         1.68316    -307.476E-03    -18.6937E-03     151.413E-03    -62.4530E-03    -89.0537E-03    -63.3172E-03     125.676E-03    -62.4530E-03     143.516E-03     97.9498E+06     87.1915E+06    -23.3971E+06    -22.9356E+06     97.4883E+06     87.1915E+06     7.28603E+06         62.0910
            1598     15.0452E-03     89.7549E-03         1.72976    -331.642E-03    -528.144E-03    -528.050E-03         1.72966    -331.642E-03    -6.55994E-03     224.961E-03    -62.5235E-03    -162.454E-03    -75.9836E-03     138.491E-03    -62.5235E-03     318.026E-03     126.452E+06     122.495E+06    -16.9182E+06    -16.6214E+06     124.903E+06     123.747E+06     5.65446E+06         69.1286
            1599     15.9903E-03     90.2738E-03         1.79231    -362.947E-03    -563.762E-03    -563.679E-03         1.79223    -362.947E-03    -11.7857E-03     290.976E-03    -62.5282E-03    -228.171E-03    -90.6389E-03     153.444E-03    -62.5282E-03     458.175E-03     158.334E+06     153.789E+06    -10.3417E+06    -10.2204E+06     156.961E+06     155.041E+06     3.05042E+06         74.5880
            1600     939.769E-06     90.4413E-03         1.34730    -137.336E-03    -402.052E-03    -399.272E-03         1.34452    -137.336E-03    -65.7382E-03     125.365E-03    -62.4742E-03    -62.8780E-03    -62.7979E-03     125.361E-03    -62.5507E-03    -1.58333E-03    -86.2165E+06    -93.9164E+06    -264.158E+06    -90.2019E+06    -264.052E+06    -90.0364E+06    -871.801E+03         29.6125
            1601     1.87857E-03     90.4412E-03         1.37135    -265.937E-03    -286.595E-03    -281.149E-03         1.37068    -270.714E-03     1.14030E-03     125.109E-03    -62.4420E-03    -62.6562E-03    -62.4599E-03     125.105E-03    -62.6348E-03    -1.55358E-03    -81.8157E+06    -88.6807E+06    -252.437E+06    -86.9298E+06    -252.194E+06    -83.8094E+06    -5.83940E+06         29.6898
            1602     2.81864E-03     90.4376E-03         1.35636    -250.047E-03    -278.626E-03    -256.966E-03         1.35546    -270.811E-03    -63.0685E-03     124.948E-03    -62.3708E-03    -62.5786E-03    -62.3647E-03     124.942E-03    -62.5786E-03    -2.12850E-03    -80.6137E+06    -83.8599E+06    -243.948E+06    -84.5116E+06    -242.961E+06    -80.9495E+06    -11.6536E+06         29.8298
            1603     3.75836E-03     90.4358E-03         1.36232    -252.042E-03    -282.969E-03    -265.980E-03         1.36132    -268.029E-03    -60.7489E-03     124.849E-03    -62.3301E-03    -62.5233E-03    -62.3231E-03     124.842E-03    -62.5233E-03    -2.29227E-03    -75.3972E+06    -78.8136E+06    -232.009E+06    -80.3639E+06    -230.128E+06    -75.7272E+06    -16.4075E+06         30.0390
            1604     4.69778E-03     90.4327E-03         1.39500    -270.103E-03    -295.963E-03    -295.473E-03         1.39451    -270.103E-03    -39.7065E-03     124.848E-03    -62.3309E-03    -62.5292E-03    -62.3241E-03     124.841E-03    -62.5292E-03    -2.25262E-03    -64.9528E+06    -71.8670E+06    -225.212E+06    -74.6150E+06    -222.464E+06    -64.9528E+06    -19.9066E+06         30.3235
            1605     5.63770E-03     90.4297E-03         1.41167    -274.868E-03    -304.234E-03    -303.831E-03         1.41127    -274.868E-03    -32.5019E-03     124.804E-03    -62.2816E-03    -62.5367E-03    -62.2772E-03     124.800E-03    -62.5367E-03    -1.73932E-03    -55.9731E+06    -65.1793E+06    -211.001E+06    -69.0948E+06    -207.085E+06    -55.9731E+06    -23.3777E+06         30.7040
            1606     6.57729E-03     90.4277E-03         1.42906    -279.778E-03    -316.992E-03    -316.412E-03         1.42848    -279.778E-03    -36.3494E-03     124.591E-03    -62.0856E-03    -62.5181E-03    -62.0844E-03     124.589E-03    -62.5181E-03    -640.436E-06    -49.9650E+06    -58.9178E+06    -191.823E+06    -64.2520E+06    -186.489E+06    -49.9650E+06    -25.8694E+06         31.2774
            1607     7.51718E-03     90.4273E-03         1.46235    -286.044E-03    -345.255E-03    -344.736E-03         1.46183    -286.044E-03    -48.2818E-03     124.274E-03    -61.8466E-03    -62.4519E-03    -61.8452E-03     124.273E-03    -62.4519E-03     725.300E-06    -47.6393E+06    -53.7265E+06    -168.308E+06    -59.1689E+06    -162.453E+06    -48.0521E+06    -25.1554E+06         32.2916
            1608     8.45723E-03     90.4287E-03         1.48829    -293.702E-03    -363.582E-03    -363.195E-03         1.48790    -293.702E-03    -48.2115E-03     123.917E-03    -61.5916E-03    -62.3641E-03    -61.5732E-03     123.899E-03    -62.3641E-03     3.21594E-03    -45.6011E+06    -50.0624E+06    -138.976E+06    -53.2439E+06    -134.714E+06    -46.6817E+06    -18.6689E+06         34.0030
            1609     9.39784E-03     90.4343E-03         1.51329    -301.732E-03    -378.085E-03    -377.879E-03         1.51308    -301.732E-03    -30.4036E-03     123.761E-03    -61.4941E-03    -62.3090E-03    -61.4152E-03     123.682E-03    -62.3090E-03     7.28724E-03    -39.0753E+06    -43.8177E+06    -102.063E+06    -45.8805E+06    -98.9319E+06    -40.1439E+06    -11.9961E+06         36.4708
            1610     10.3378E-03     90.4450E-03         1.55887    -310.544E-03    -408.589E-03    -408.110E-03         1.55839    -310.544E-03    -50.6369E-03     123.349E-03    -61.1903E-03    -62.1819E-03    -61.0603E-03     123.219E-03    -62.1819E-03     9.77919E-03    -21.2632E+06    -37.5912E+06    -60.9108E+06    -39.6946E+06    -42.8540E+06    -37.2166E+06    -3.87466E+06         39.6464
            1611     11.2791E-03     90.4555E-03         1.59501    -320.583E-03    -432.782E-03    -432.331E-03         1.59456    -320.583E-03    -39.9054E-03     123.332E-03    -61.3252E-03    -62.0384E-03    -60.6704E-03     122.678E-03    -62.0384E-03     19.7042E-03     28.4077E+06    -33.5520E+06    -40.1366E+06    -37.2797E+06     27.3414E+06    -35.3427E+06     7.23220E+06         43.4951
            1612     12.2197E-03     90.4891E-03         1.61436    -331.528E-03    -442.529E-03    -442.504E-03         1.61433    -331.528E-03     5.34481E-03     126.004E-03    -62.0093E-03    -64.0950E-03    -60.7599E-03     122.765E-03    -62.1047E-03     46.3794E-03     71.6546E+06    -5.69531E+06    -36.3121E+06    -34.4728E+06     70.3505E+06    -6.23048E+06     11.3439E+06         48.4147
            1613     13.1596E-03     90.5593E-03         1.64924    -343.614E-03    -463.103E-03    -462.989E-03         1.64913    -343.614E-03    -15.4975E-03     130.973E-03    -62.3123E-03    -68.7643E-03    -60.7129E-03     122.921E-03    -62.3123E-03     77.4644E-03     83.4472E+06     43.9943E+06    -30.4615E+06    -29.6886E+06     82.6743E+06     43.9943E+06     9.22138E+06         54.7740
            1614     14.1035E-03     90.6614E-03         1.70759    -358.744E-03    -504.719E-03    -504.589E-03         1.70746    -358.744E-03    -5.72471E-03     152.228E-03    -62.4674E-03    -89.8094E-03    -63.5446E-03     125.964E-03    -62.4674E-03     145.314E-03     98.5308E+06     85.8916E+06    -26.2640E+06    -25.6366E+06     97.9034E+06     85.8916E+06     8.46120E+06         62.0867
            1615     15.0427E-03     90.8856E-03         1.76716    -381.074E-03    -545.072E-03    -544.868E-03         1.76696    -381.074E-03    -7.42255E-03     225.807E-03    -62.5357E-03    -163.235E-03    -76.3225E-03     138.894E-03    -62.5357E-03     319.672E-03     127.249E+06     122.691E+06    -18.6405E+06    -18.1282E+06     126.737E+06     122.691E+06     8.00438E+06         69.1961
            1616     15.9809E-03     91.4000E-03         1.80656    -411.297E-03    -561.900E-03    -561.697E-03         1.80636    -411.297E-03    -8.47849E-03     291.260E-03    -62.5352E-03    -228.554E-03    -89.9871E-03     152.693E-03    -62.5352E-03     459.679E-03     162.675E+06     159.139E+06    -7.72594E+06    -7.52735E+06     162.476E+06     159.139E+06     5.15417E+06         74.7323
            1617     938.423E-06     91.5745E-03         1.52149    -265.719E-03    -468.839E-03    -449.037E-03         1.51562    -279.650E-03    -54.7607E-03     125.582E-03    -62.5787E-03    -62.9793E-03    -62.8596E-03     125.578E-03    -62.6944E-03    -1.70559E-03    -94.7709E+06    -100.476E+06    -257.243E+06    -95.8424E+06    -257.032E+06    -99.6156E+06    -5.32762E+06         29.6216
            1618     1.87902E-03     91.5730E-03         1.50850    -344.165E-03    -368.097E-03    -349.462E-03         1.50692    -361.220E-03     67.5610E-03     125.139E-03    -62.4470E-03    -62.6702E-03    -62.4431E-03     125.135E-03    -62.6702E-03    -1.67297E-03    -91.8439E+06    -97.1813E+06    -241.873E+06    -94.8473E+06    -241.194E+06    -94.8565E+06    -8.91262E+06         29.6984
            1619     2.81816E-03     91.5706E-03         1.50118    -336.995E-03    -363.189E-03    -343.962E-03         1.50106    -356.106E-03    -25.0612E-03     125.094E-03    -62.4444E-03    -62.6305E-03    -62.4381E-03     125.087E-03    -62.6305E-03    -2.15642E-03    -82.7798E+06    -87.8916E+06    -231.819E+06    -89.5577E+06    -230.153E+06    -82.7798E+06    -14.5573E+06         29.8388
            1620     3.75758E-03     91.5677E-03         1.49388    -335.228E-03    -358.452E-03    -341.035E-03         1.49371    -352.469E-03    -4.75458E-03     124.937E-03    -62.3303E-03    -62.5884E-03    -62.3229E-03     124.930E-03    -62.5884E-03    -2.35568E-03    -75.1918E+06    -81.0159E+06    -221.959E+06    -84.1992E+06    -218.775E+06    -75.1918E+06    -20.5974E+06         30.0469
            1621     4.69776E-03     91.5651E-03         1.51297    -350.266E-03    -359.977E-03    -358.329E-03         1.51258    -351.520E-03    -20.3887E-03     124.853E-03    -62.2622E-03    -62.5819E-03    -62.2564E-03     124.847E-03    -62.5819E-03    -2.07216E-03    -66.8993E+06    -74.3912E+06    -217.904E+06    -78.9687E+06    -213.327E+06    -66.8993E+06    -24.8969E+06         30.3295
            1622     5.63696E-03     91.5625E-03         1.52949    -353.360E-03    -370.153E-03    -369.581E-03         1.52892    -353.360E-03    -60.1274E-03     124.846E-03    -62.2694E-03    -62.5771E-03    -62.2661E-03     124.843E-03    -62.5771E-03    -1.46686E-03    -58.3696E+06    -66.1831E+06    -204.880E+06    -72.1334E+06    -198.929E+06    -58.3696E+06    -27.6687E+06         30.7039
            1623     6.57676E-03     91.5598E-03         1.54755    -356.725E-03    -387.370E-03    -386.801E-03         1.54698    -356.725E-03    -52.7165E-03     124.728E-03    -62.1865E-03    -62.5525E-03    -62.1854E-03     124.727E-03    -62.5525E-03    -356.408E-06    -53.4334E+06    -58.1223E+06    -186.544E+06    -65.7767E+06    -178.890E+06    -53.4334E+06    -30.0305E+06         31.2612
            1624     7.51671E-03     91.5595E-03         1.56706    -361.343E-03    -402.005E-03    -401.422E-03         1.56648    -361.343E-03    -59.5869E-03     124.481E-03    -61.9905E-03    -62.5114E-03    -61.9890E-03     124.479E-03    -62.5114E-03     911.459E-06    -51.0523E+06    -54.6126E+06    -170.836E+06    -61.6398E+06    -163.396E+06    -51.4652E+06    -28.3479E+06         32.2541
            1625     8.45666E-03     91.5603E-03         1.58352    -366.446E-03    -411.437E-03    -410.970E-03         1.58305    -366.446E-03    -57.8676E-03     124.132E-03    -61.7444E-03    -62.4259E-03    -61.7208E-03     124.109E-03    -62.4259E-03     3.58859E-03    -47.5504E+06    -55.2233E+06    -146.033E+06    -57.2436E+06    -138.157E+06    -53.4061E+06    -25.5755E+06         33.9445
            1626     9.39668E-03     91.5661E-03         1.60505    -372.088E-03    -428.271E-03    -428.066E-03         1.60485    -372.088E-03    -22.7603E-03     123.775E-03    -61.4552E-03    -62.3569E-03    -61.3712E-03     123.691E-03    -62.3569E-03     7.62846E-03    -42.4441E+06    -49.4221E+06    -111.473E+06    -50.1983E+06    -103.718E+06    -49.4221E+06    -21.3819E+06         36.3918
            1627     10.3378E-03     91.5767E-03         1.62939    -378.490E-03    -445.129E-03    -444.944E-03         1.62920    -378.490E-03    -22.8757E-03     123.389E-03    -61.1687E-03    -62.2381E-03    -61.0336E-03     123.254E-03    -62.2381E-03     9.95785E-03    -32.2656E+06    -43.4932E+06    -72.5421E+06    -43.3240E+06    -59.0836E+06    -45.8932E+06    -9.67037E+06         39.5484
            1628     11.2779E-03     91.5871E-03         1.65639    -385.567E-03    -459.794E-03    -459.517E-03         1.65611    -385.567E-03    -38.0704E-03     123.284E-03    -61.2721E-03    -62.0481E-03    -60.5970E-03     122.608E-03    -62.0481E-03     20.0545E-03     16.9113E+06    -39.8406E+06    -48.3966E+06    -37.8193E+06     14.8899E+06    -48.3966E+06     2.83679E+06         43.3800
            1629     12.2193E-03     91.6208E-03         1.67466    -393.574E-03    -466.707E-03    -466.564E-03         1.67452    -393.574E-03    -13.2274E-03     125.485E-03    -61.8207E-03    -63.7681E-03    -60.1594E-03     122.125E-03    -62.0700E-03     47.0375E-03     68.9736E+06    -12.1061E+06    -41.1962E+06    -34.1828E+06     68.1161E+06    -18.2621E+06     9.33899E+06         48.3019
            1630     13.1622E-03     91.6909E-03         1.69488    -402.836E-03    -476.173E-03    -475.909E-03         1.69461    -402.836E-03    -31.3128E-03     130.853E-03    -62.2645E-03    -68.6924E-03    -60.4971E-03     122.657E-03    -62.2645E-03     78.2261E-03     83.9012E+06     35.8903E+06    -33.3012E+06    -32.1471E+06     82.7471E+06     35.8903E+06     11.3630E+06         54.6998
            1631     14.1017E-03     91.7926E-03         1.73821    -415.076E-03    -504.122E-03    -503.853E-03         1.73795    -415.076E-03    -16.1681E-03     151.991E-03    -62.4410E-03    -89.5947E-03    -63.1419E-03     125.538E-03    -62.4410E-03     145.483E-03     100.366E+06     82.7524E+06    -27.2842E+06    -26.3665E+06     99.4484E+06     82.7524E+06     9.83429E+06         62.0772
            1632     15.0453E-03     92.0177E-03         1.78627    -434.774E-03    -540.235E-03    -539.904E-03         1.78594    -434.774E-03    -21.9985E-03     226.089E-03    -62.5085E-03    -163.552E-03    -75.1970E-03     137.735E-03    -62.5085E-03     321.852E-03     129.717E+06     124.388E+06    -18.5567E+06    -18.1263E+06     129.286E+06     124.388E+06     7.03947E+06         69.2648
            1633     15.9933E-03     92.5362E-03         1.81058    -462.393E-03    -549.332E-03    -548.948E-03         1.81019    -462.393E-03    -15.1664E-03     292.223E-03    -62.4846E-03    -229.683E-03    -90.5244E-03     153.064E-03    -62.4846E-03     461.559E-03     165.586E+06     160.077E+06    -10.8960E+06    -10.7603E+06     165.450E+06     160.077E+06     3.91283E+06         74.8745
            1634     939.849E-06     92.7075E-03         1.65444    -356.441E-03    -521.438E-03    -501.360E-03         1.64829    -370.372E-03    -60.6286E-03     125.520E-03    -62.6347E-03    -62.8771E-03    -62.7869E-03     125.517E-03    -62.7217E-03    -1.53172E-03    -90.6760E+06    -95.0250E+06    -246.116E+06    -94.3174E+06    -245.799E+06    -91.7008E+06    -5.60650E+06         29.6231
            1635     1.87807E-03     92.7048E-03         1.62627    -412.162E-03    -435.248E-03    -414.357E-03         1.62469    -431.465E-03     80.4976E-03     125.398E-03    -62.5949E-03    -62.8058E-03    -62.6901E-03     125.395E-03    -62.7073E-03    -1.57622E-03    -89.7286E+06    -92.7543E+06    -228.468E+06    -92.7102E+06    -227.332E+06    -90.9082E+06    -11.8761E+06         29.7040
            1636     2.81790E-03     92.7034E-03         1.64417    -423.555E-03    -445.884E-03    -440.327E-03         1.64399    -428.927E-03    -24.3871E-03     125.152E-03    -62.4599E-03    -62.6759E-03    -62.4541E-03     125.147E-03    -62.6759E-03    -2.04313E-03    -84.7930E+06    -87.6538E+06    -219.432E+06    -90.0090E+06    -216.922E+06    -84.9478E+06    -17.6557E+06         29.8446
            1637     3.75763E-03     92.6998E-03         1.66351    -431.906E-03    -454.999E-03    -453.472E-03         1.66324    -433.161E-03    -9.01849E-03     124.964E-03    -62.3027E-03    -62.6323E-03    -62.2958E-03     124.957E-03    -62.6323E-03    -2.24855E-03    -75.1589E+06    -82.6423E+06    -210.821E+06    -86.6757E+06    -206.787E+06    -75.1589E+06    -22.1616E+06         30.0522
            1638     4.69683E-03     92.6972E-03         1.65448    -434.108E-03    -443.157E-03    -440.781E-03         1.65396    -435.966E-03    -23.7399E-03     124.842E-03    -62.2186E-03    -62.5972E-03    -62.2140E-03     124.837E-03    -62.5972E-03    -1.84500E-03    -68.7937E+06    -76.4429E+06    -207.245E+06    -82.6625E+06    -201.025E+06    -68.7937E+06    -27.5725E+06         30.3337
            1639     5.63727E-03     92.6941E-03         1.65722    -436.287E-03    -445.624E-03    -444.495E-03         1.65669    -436.890E-03    -60.8631E-03     124.789E-03    -62.2128E-03    -62.5541E-03    -62.2102E-03     124.786E-03    -62.5541E-03    -1.30450E-03    -65.4691E+06    -68.4543E+06    -197.978E+06    -77.8777E+06    -188.383E+06    -65.6404E+06    -33.3453E+06         30.7034
            1640     6.57685E-03     92.6926E-03         1.66565    -436.705E-03    -451.260E-03    -449.575E-03         1.66546    -438.202E-03    -35.2162E-03     124.706E-03    -62.1563E-03    -62.5466E-03    -62.1556E-03     124.705E-03    -62.5466E-03    -304.722E-06    -59.2880E+06    -61.6935E+06    -184.581E+06    -72.1968E+06    -173.907E+06    -59.4593E+06    -34.3847E+06         31.2495
            1641     7.51623E-03     92.6919E-03         1.67016    -438.276E-03    -454.474E-03    -452.643E-03         1.66983    -439.774E-03    -48.8124E-03     124.491E-03    -61.9794E-03    -62.5289E-03    -61.9768E-03     124.489E-03    -62.5289E-03     1.09720E-03    -51.0022E+06    -58.5614E+06    -172.452E+06    -65.7591E+06    -161.627E+06    -54.6296E+06    -33.1552E+06         32.2246
            1642     8.45628E-03     92.6925E-03         1.68288    -441.907E-03    -463.997E-03    -463.721E-03         1.68260    -441.907E-03    -43.0814E-03     124.237E-03    -61.8323E-03    -62.4383E-03    -61.8016E-03     124.207E-03    -62.4383E-03     4.16099E-03    -42.9298E+06    -58.5644E+06    -147.643E+06    -58.0566E+06    -134.333E+06    -56.7472E+06    -33.4843E+06         33.8918
            1643     9.39636E-03     92.6984E-03         1.69740    -444.959E-03    -474.706E-03    -474.595E-03         1.69729    -444.959E-03    -19.1891E-03     123.917E-03    -61.5736E-03    -62.3754E-03    -61.4881E-03     123.831E-03    -62.3754E-03     7.83933E-03    -39.8389E+06    -55.8576E+06    -122.416E+06    -52.0178E+06    -110.237E+06    -55.8576E+06    -29.1046E+06         36.3142
            1644     10.3366E-03     92.7069E-03         1.70829    -448.580E-03    -483.100E-03    -482.983E-03         1.70817    -448.580E-03    -19.4575E-03     123.352E-03    -61.1012E-03    -62.2627E-03    -60.9532E-03     123.204E-03    -62.2627E-03     10.3706E-03    -36.7305E+06    -53.3209E+06    -86.7604E+06    -46.4241E+06    -75.9223E+06    -54.4654E+06    -17.7373E+06         39.4486
            1645     11.2779E-03     92.7199E-03         1.72642    -452.872E-03    -494.674E-03    -494.524E-03         1.72627    -452.872E-03    -31.5090E-03     123.130E-03    -61.1268E-03    -62.0379E-03    -60.4655E-03     122.468E-03    -62.0379E-03     20.2325E-03     8.27624E+06    -47.0039E+06    -61.7902E+06    -41.0079E+06     1.15046E+06    -60.6604E+06    -4.29098E+06         43.2614
            1646     12.2196E-03     92.7494E-03         1.74808    -458.535E-03    -503.942E-03    -503.804E-03         1.74794    -458.535E-03    -29.7007E-03     125.147E-03    -61.7420E-03    -63.5085E-03    -59.9918E-03     121.884E-03    -61.9962E-03     46.1773E-03     60.7723E+06    -24.0573E+06    -50.6063E+06    -37.3899E+06     60.0678E+06    -36.5692E+06     6.64991E+06         48.1762
            1647     13.1613E-03     92.8226E-03         1.76695    -465.991E-03    -512.926E-03    -512.653E-03         1.76668    -465.991E-03    -42.6719E-03     130.547E-03    -62.1838E-03    -68.4637E-03    -60.0884E-03     122.172E-03    -62.1838E-03     78.7107E-03     81.5875E+06     21.1556E+06    -34.0625E+06    -32.9127E+06     80.4377E+06     21.1556E+06     11.1982E+06         54.6020
            1648     14.1030E-03     92.9265E-03         1.77619    -472.348E-03    -515.131E-03    -511.388E-03         1.77586    -475.766E-03    -15.1946E-03     150.799E-03    -62.3892E-03    -88.4570E-03    -62.3355E-03     124.677E-03    -62.3892E-03     144.323E-03     103.700E+06     78.1381E+06    -27.3632E+06    -26.4640E+06     102.801E+06     78.1381E+06     9.84823E+06         62.0481
            1649     15.0476E-03     93.1428E-03         1.78703    -481.509E-03    -524.833E-03    -514.774E-03         1.78684    -491.372E-03     411.987E-06     224.557E-03    -62.4804E-03    -162.029E-03    -74.9450E-03     137.473E-03    -62.4804E-03     318.557E-03     133.929E+06     125.147E+06    -20.3292E+06    -19.8841E+06     133.484E+06     125.147E+06     7.43042E+06         69.3151
            1650     15.9898E-03     93.6659E-03         1.81802    -502.278E-03    -544.496E-03    -531.918E-03         1.81779    -514.633E-03     3.97035E-03     290.368E-03    -62.4417E-03    -227.849E-03    -89.5507E-03     152.070E-03    -62.4417E-03     458.406E-03     169.349E+06     162.800E+06    -11.7785E+06    -11.6260E+06     169.196E+06     162.800E+06     4.19926E+06         75.0001
            1651     939.261E-06     93.8401E-03         1.80045    -465.367E-03    -572.359E-03    -567.368E-03         1.79545    -465.367E-03    -123.325E-03     125.311E-03    -62.3702E-03    -62.9407E-03    -62.8915E-03     125.309E-03    -62.4179E-03    -1.07046E-03    -88.3598E+06    -95.9497E+06    -232.485E+06    -91.4368E+06    -231.871E+06    -93.4861E+06    -7.64548E+06         29.6186
            1652     1.87887E-03     93.8389E-03         1.79195    -512.599E-03    -523.755E-03    -518.735E-03         1.79101    -516.680E-03    -10.2467E-03     125.398E-03    -62.6333E-03    -62.7812E-03    -62.7453E-03     125.395E-03    -62.6660E-03    -1.50403E-03    -84.4279E+06    -89.3903E+06    -214.027E+06    -88.9178E+06    -212.673E+06    -86.2543E+06    -12.5816E+06         29.7030
            1653     2.81769E-03     93.8353E-03         1.78354    -504.179E-03    -529.103E-03    -515.913E-03         1.78297    -516.799E-03    -48.8113E-03     125.187E-03    -62.5093E-03    -62.6613E-03    -62.5044E-03     125.182E-03    -62.6613E-03    -1.88880E-03    -81.2509E+06    -83.9033E+06    -205.689E+06    -86.5688E+06    -202.343E+06    -81.9315E+06    -19.3655E+06         29.8462
            1654     3.75731E-03     93.8326E-03         1.79614    -509.824E-03    -542.784E-03    -534.091E-03         1.79598    -518.362E-03    -18.2632E-03     125.048E-03    -62.4047E-03    -62.6175E-03    -62.3995E-03     125.043E-03    -62.6175E-03    -1.94587E-03    -74.3986E+06    -78.3951E+06    -199.980E+06    -82.5737E+06    -194.617E+06    -75.5836E+06    -24.9352E+06         30.0554
            1655     4.69743E-03     93.8290E-03         1.79887    -520.872E-03    -536.170E-03    -535.224E-03         1.79853    -521.475E-03    -35.4146E-03     125.025E-03    -62.4113E-03    -62.6155E-03    -62.4066E-03     125.021E-03    -62.6155E-03    -1.87197E-03    -64.9662E+06    -70.8898E+06    -194.525E+06    -77.8162E+06    -186.939E+06    -65.6254E+06    -29.4653E+06         30.3372
            1656     5.63635E-03     93.8270E-03         1.78733    -519.534E-03    -525.575E-03    -522.023E-03         1.78685    -522.607E-03    -63.9619E-03     124.791E-03    -62.1874E-03    -62.5857E-03    -62.1844E-03     124.788E-03    -62.5857E-03    -1.39583E-03    -60.5505E+06    -64.7061E+06    -186.787E+06    -75.4373E+06    -175.885E+06    -60.7218E+06    -34.6254E+06         30.7038
            1657     6.57607E-03     93.8248E-03         1.78166    -514.384E-03    -522.271E-03    -514.387E-03         1.78127    -521.880E-03    -59.2143E-03     124.486E-03    -61.9215E-03    -62.5477E-03    -61.9205E-03     124.485E-03    -62.5477E-03    -202.585E-06    -57.2163E+06    -63.3823E+06    -181.856E+06    -73.2480E+06    -168.701E+06    -60.5052E+06    -37.4755E+06         31.2446
            1658     7.51665E-03     93.8236E-03         1.78557    -511.750E-03    -523.958E-03    -514.176E-03         1.78491    -520.875E-03    -75.9510E-03     124.350E-03    -61.8826E-03    -62.4910E-03    -61.8787E-03     124.346E-03    -62.4910E-03     1.44067E-03    -49.9016E+06    -61.6640E+06    -169.818E+06    -68.1390E+06    -153.431E+06    -59.8137E+06    -40.2495E+06         32.2066
            1659     8.45639E-03     93.8247E-03         1.79132    -512.018E-03    -526.905E-03    -517.899E-03         1.79073    -520.436E-03    -66.4916E-03     124.173E-03    -61.8056E-03    -62.4029E-03    -61.7720E-03     124.140E-03    -62.4029E-03     4.49660E-03    -42.9407E+06    -62.2523E+06    -149.713E+06     -62.376E+06    -130.278E+06    -62.2523E+06    -41.0572E+06         33.8458
            1660     9.39652E-03     93.8303E-03         1.79423    -514.655E-03    -529.225E-03    -522.853E-03         1.79397    -520.762E-03    -44.7611E-03     123.887E-03    -61.5672E-03    -62.3515E-03    -61.4766E-03     123.797E-03    -62.3515E-03     8.07381E-03    -40.5518E+06    -62.6023E+06    -133.817E+06    -57.1302E+06    -117.239E+06    -62.6023E+06    -35.4904E+06         36.2369
            1661     10.3369E-03     93.8391E-03         1.79767    -514.267E-03    -531.180E-03    -523.615E-03         1.79738    -521.543E-03    -45.3632E-03     123.374E-03    -61.1553E-03    -62.2370E-03    -60.9994E-03     123.218E-03    -62.2370E-03     10.6502E-03    -36.0218E+06    -63.3008E+06    -102.557E+06    -51.3781E+06    -87.2006E+06    -63.3008E+06    -26.7799E+06         39.3455
            1662     11.2781E-03     93.8498E-03         1.80210    -512.403E-03    -536.006E-03    -525.362E-03         1.80182    -522.768E-03    -43.0807E-03     123.277E-03    -61.2901E-03    -62.0214E-03    -60.6134E-03     122.601E-03    -62.0214E-03     20.5409E-03    -757.636E+03    -53.6202E+06    -76.5111E+06    -44.2237E+06    -15.7915E+06    -70.8737E+06    -13.7054E+06         43.1367
            1663     12.2184E-03     93.8827E-03         1.81559    -517.421E-03    -542.822E-03    -534.700E-03         1.81549    -525.439E-03    -20.7487E-03     125.309E-03    -61.8350E-03    -63.5721E-03    -60.2782E-03     122.121E-03    -61.9415E-03     45.8531E-03     47.4511E+06    -35.7933E+06    -57.2982E+06    -38.1672E+06     46.7871E+06    -54.2604E+06     1.03261E+06         48.0346
            1664     13.1607E-03     93.9516E-03         1.82493    -517.542E-03    -546.982E-03    -534.465E-03         1.82482    -529.941E-03    -22.3570E-03     129.995E-03    -62.1054E-03    -67.9641E-03    -59.4911E-03     121.522E-03    -62.1054E-03     78.6754E-03     78.1551E+06     5.66559E+06    -35.3382E+06    -33.3497E+06     77.3803E+06     4.45201E+06     8.61401E+06         54.4781
            1665     14.1046E-03     94.0602E-03         1.81653    -513.997E-03    -544.624E-03    -522.099E-03         1.81630    -536.287E-03     1.94725E-03     150.200E-03    -62.3402E-03    -87.9168E-03    -62.1783E-03     124.461E-03    -62.3402E-03     143.656E-03     103.970E+06     71.8163E+06    -29.1916E+06    -28.3343E+06     103.113E+06     71.8163E+06     10.4047E+06         61.9929
            1666     15.0453E-03     94.2707E-03         1.81426    -511.841E-03    -548.114E-03    -511.718E-03         1.81414    -548.114E-03     20.4649E-03     225.451E-03    -62.4748E-03    -163.012E-03    -75.9850E-03     138.425E-03    -62.4748E-03     319.114E-03     136.466E+06     124.421E+06    -21.1895E+06    -20.6324E+06     135.909E+06     124.421E+06     8.81583E+06         69.3429
            1667     15.9853E-03     94.7990E-03         1.82799    -515.484E-03    -567.697E-03    -515.430E-03         1.82794    -567.697E-03     12.0549E-03     289.870E-03    -62.4130E-03    -227.395E-03    -87.6405E-03     150.116E-03    -62.4130E-03     459.355E-03     174.503E+06     166.870E+06    -9.69688E+06    -9.52925E+06     174.335E+06     166.870E+06     4.89729E+06         75.1118
            1668     939.555E-06     94.9732E-03         1.97104    -593.009E-03    -648.814E-03    -640.384E-03         1.96261    -593.009E-03    -120.833E-03     125.321E-03    -62.3589E-03    -62.9564E-03    -62.8963E-03     125.319E-03    -62.4175E-03    -1.04236E-03    -79.0495E+06    -87.5246E+06    -215.569E+06    -83.2486E+06    -214.692E+06    -84.2030E+06    -10.5709E+06         29.6137
            1669     1.87860E-03     94.9711E-03         1.96333    -615.613E-03    -625.829E-03    -621.207E-03         1.96054    -617.447E-03     1.06433E-03     125.051E-03    -62.4575E-03    -62.5986E-03    -62.4707E-03     125.048E-03    -62.5820E-03    -1.57984E-03    -79.9816E+06    -86.1269E+06    -200.998E+06    -83.4996E+06    -198.948E+06    -84.6596E+06    -14.8400E+06         29.6975
            1670     2.81843E-03     94.9685E-03         1.94142    -601.160E-03    -617.435E-03    -602.008E-03         1.94067    -615.846E-03    -68.4867E-03     125.126E-03    -62.4606E-03    -62.6741E-03    -62.5741E-03     125.122E-03    -62.5564E-03    -1.74450E-03    -75.2923E+06    -80.6022E+06    -189.483E+06    -81.1748E+06    -185.068E+06    -79.1350E+06    -21.3565E+06         29.8441
            1671     3.75786E-03     94.9647E-03         1.92643    -590.889E-03    -618.805E-03    -597.935E-03         1.92623    -611.568E-03    -33.5636E-03     125.249E-03    -62.5522E-03    -62.7076E-03    -62.6652E-03     125.244E-03    -62.5899E-03    -1.85969E-03    -70.9237E+06    -72.5032E+06    -187.189E+06    -78.4608E+06    -179.709E+06    -72.4463E+06    -28.2304E+06         30.0557
            1672     4.69645E-03     94.9622E-03         1.93231    -601.678E-03    -619.543E-03    -611.019E-03         1.93184    -609.729E-03    -63.6344E-03     124.985E-03    -62.3791E-03    -62.6149E-03    -62.3746E-03     124.981E-03    -62.6149E-03    -1.74815E-03    -62.2613E+06    -65.9103E+06    -184.526E+06    -74.1479E+06    -174.725E+06    -63.8247E+06    -32.6863E+06         30.3363
            1673     5.63634E-03     94.9590E-03         1.93234    -607.097E-03    -615.099E-03    -611.701E-03         1.93163    -609.790E-03    -81.0563E-03     124.660E-03    -62.0576E-03    -62.5979E-03    -62.0557E-03     124.658E-03    -62.5979E-03    -992.140E-06    -54.0644E+06    -58.3211E+06    -176.150E+06    -68.7664E+06    -164.801E+06    -54.9686E+06    -34.8082E+06         30.7014
            1674     6.57692E-03     94.9565E-03         1.92132    -595.761E-03    -611.718E-03    -597.699E-03         1.92053    -608.987E-03    -86.7945E-03     124.499E-03    -61.9422E-03    -62.5593E-03    -61.9416E-03     124.499E-03    -62.5593E-03     64.0966E-06    -49.2257E+06    -54.2253E+06    -171.882E+06    -65.1054E+06    -157.326E+06    -52.9016E+06    -39.2404E+06         31.2425
            1675     7.51643E-03     94.9563E-03         1.90739    -578.860E-03    -606.349E-03    -577.845E-03         1.90637    -606.349E-03    -99.3922E-03     124.289E-03    -61.8397E-03    -62.4812E-03    -61.8354E-03     124.285E-03    -62.4812E-03     1.55163E-03    -42.2276E+06    -55.1106E+06    -162.088E+06    -62.4143E+06    -141.901E+06    -55.1106E+06    -44.5023E+06         32.1940
            1676     8.45659E-03     94.9572E-03         1.89999    -571.410E-03    -602.885E-03    -570.549E-03         1.89913    -602.885E-03    -88.9745E-03     123.981E-03    -61.6300E-03    -62.3976E-03    -61.5964E-03     123.947E-03    -62.3976E-03     4.52323E-03    -37.5330E+06    -58.0293E+06    -150.595E+06    -60.0972E+06    -128.031E+06    -58.0293E+06    -45.0801E+06         33.8016
            1677     9.39676E-03     94.9622E-03         1.90032    -573.246E-03    -600.073E-03    -572.767E-03         1.89984    -600.073E-03    -65.9730E-03     123.677E-03    -61.3960E-03    -62.3198E-03    -61.3030E-03     123.584E-03    -62.3198E-03     8.15168E-03    -36.6868E+06    -62.0793E+06    -141.545E+06    -57.3389E+06    -120.893E+06    -62.0793E+06    -41.4933E+06         36.1560
            1678     10.3376E-03     94.9705E-03         1.89143    -564.176E-03    -597.745E-03    -563.395E-03         1.89065    -597.745E-03    -83.0466E-03     123.437E-03    -61.2774E-03    -62.1793E-03    -61.1093E-03     123.268E-03    -62.1793E-03     11.0395E-03    -28.7714E+06    -68.1739E+06    -114.476E+06    -51.5130E+06    -91.7340E+06    -68.1739E+06    -36.7851E+06         39.2354
            1679     11.2776E-03     94.9832E-03         1.87512    -546.056E-03    -595.164E-03    -545.435E-03         1.87450    -595.164E-03    -68.2114E-03     123.371E-03    -61.4212E-03    -61.9839E-03    -60.7070E-03     122.657E-03    -61.9839E-03     21.1690E-03    -9.17922E+06    -60.7673E+06    -88.6099E+06    -44.8191E+06    -35.5401E+06    -78.1972E+06    -24.7551E+06         43.0030
            1680     12.2196E-03     95.0137E-03         1.86437    -539.168E-03    -593.216E-03    -539.061E-03         1.86427    -593.216E-03    -22.2125E-03     125.446E-03    -61.7376E-03    -63.8025E-03    -60.3628E-03     122.160E-03    -61.8913E-03     46.6740E-03     31.1350E+06    -43.6571E+06    -67.3926E+06    -40.0298E+06     27.5078E+06    -67.3926E+06    -5.86170E+06         47.8828
            1681     13.1604E-03     95.0838E-03         1.85591    -533.231E-03    -592.903E-03    -533.134E-03         1.85582    -592.903E-03    -23.1842E-03     130.081E-03    -62.0335E-03    -68.1126E-03    -59.7976E-03     121.766E-03    -62.0335E-03     78.2205E-03     73.5820E+06    -6.28115E+06    -42.7346E+06    -36.0055E+06     73.1586E+06    -12.5868E+06     5.97463E+06         54.3382
            1682     14.1038E-03     95.1864E-03         1.85831    -535.829E-03    -595.381E-03    -535.677E-03         1.85816    -595.381E-03    -5.78751E-03     150.635E-03    -62.2858E-03    -88.3979E-03    -61.9366E-03     124.174E-03    -62.2858E-03     145.047E-03     101.088E+06     60.5311E+06    -30.7326E+06    -30.0991E+06     100.455E+06     60.5311E+06     8.58580E+06         61.9193
            1683     15.0463E-03     95.4076E-03         1.86169    -533.566E-03    -604.700E-03    -533.425E-03         1.86155    -604.700E-03    -1.71956E-03     225.305E-03    -62.3709E-03    -162.949E-03    -73.5147E-03     135.871E-03    -62.3709E-03     322.136E-03     136.958E+06     122.637E+06    -21.6810E+06    -21.2888E+06     136.566E+06     122.637E+06     7.50162E+06         69.3659
            1684     15.9947E-03     95.9254E-03         1.84773    -511.441E-03    -621.511E-03    -511.338E-03         1.84762    -621.511E-03    -2.97785E-03     289.908E-03    -62.2444E-03    -227.562E-03    -86.8847E-03     149.230E-03    -62.2444E-03     460.435E-03     179.615E+06     169.851E+06    -11.3158E+06    -11.1986E+06     179.498E+06     169.851E+06     3.99521E+06         75.2206
            1685     938.939E-06     96.1059E-03         2.10531    -686.667E-03    -715.750E-03    -706.645E-03         2.09620    -686.667E-03    -79.7080E-03     125.216E-03    -62.4936E-03    -62.7182E-03    -62.6425E-03     125.214E-03    -62.5679E-03    -961.213E-06    -63.6125E+06    -69.7537E+06    -197.197E+06    -67.7814E+06    -196.349E+06    -66.4321E+06    -9.47680E+06         29.6107
            1686     1.87910E-03     96.1037E-03         2.12414    -701.951E-03    -727.049E-03    -723.743E-03         2.12083    -701.951E-03     44.5316E-03     125.051E-03    -62.4092E-03    -62.6442E-03    -62.5076E-03     125.047E-03    -62.5422E-03    -1.60498E-03    -64.9796E+06    -69.4671E+06    -184.150E+06    -67.3684E+06    -181.762E+06    -69.4671E+06    -16.1826E+06         29.6939
            1687     2.81877E-03     96.1006E-03         2.11404    -702.456E-03    -719.347E-03    -712.927E-03         2.11319    -708.030E-03    -81.7564E-03     125.155E-03    -62.4391E-03    -62.7398E-03    -62.6548E-03     125.151E-03    -62.5201E-03    -1.71363E-03    -63.7724E+06    -70.3403E+06    -172.673E+06    -68.8211E+06    -167.624E+06    -70.3403E+06    -22.3523E+06         29.8380
            1688     3.75720E-03     96.0991E-03         2.07297    -682.071E-03    -705.638E-03    -681.864E-03         2.07276    -705.638E-03    -34.7433E-03     125.103E-03    -62.4292E-03    -62.6951E-03    -62.5421E-03     125.098E-03    -62.5774E-03    -1.86293E-03    -60.0055E+06    -64.2869E+06    -172.119E+06    -69.3567E+06    -164.370E+06    -62.6848E+06    -28.0326E+06         30.0473
            1689     4.69721E-03     96.0942E-03         2.05583    -674.080E-03    -699.780E-03    -673.695E-03         2.05544    -699.780E-03    -43.6719E-03     124.728E-03    -62.1573E-03    -62.5699E-03    -62.1531E-03     124.724E-03    -62.5699E-03    -1.68029E-03    -55.4523E+06    -59.3777E+06    -172.919E+06    -68.6179E+06    -161.355E+06    -57.7755E+06    -34.0454E+06         30.3269
            1690     5.63767E-03     96.0912E-03         2.06569    -683.468E-03    -698.793E-03    -685.631E-03         2.06512    -696.062E-03    -59.7502E-03     124.548E-03    -62.0279E-03    -62.5255E-03    -62.0267E-03     124.547E-03    -62.5255E-03    -716.829E-06    -50.0725E+06    -53.3930E+06    -168.124E+06    -65.1522E+06    -153.341E+06    -53.0962E+06    -38.8356E+06         30.6931
            1691     6.57648E-03     96.0891E-03         2.06196    -677.136E-03    -696.723E-03    -679.272E-03         2.06136    -693.991E-03    -64.6853E-03     124.532E-03    -62.0404E-03    -62.5119E-03    -62.0395E-03     124.531E-03    -62.5119E-03     346.029E-06    -41.3931E+06    -46.2679E+06    -162.380E+06    -59.2845E+06    -144.786E+06    -45.9711E+06    -42.2189E+06         31.2378
            1692     7.51667E-03     96.0881E-03         2.04081    -655.893E-03    -690.656E-03    -655.000E-03         2.03991    -690.656E-03    -86.9483E-03     124.164E-03    -61.7651E-03    -62.4340E-03    -61.7587E-03     124.157E-03    -62.4340E-03     1.89894E-03    -32.9661E+06    -47.9609E+06    -152.397E+06    -55.2160E+06    -130.147E+06    -47.9609E+06    -46.1779E+06         32.1798
            1693     8.45687E-03     96.0890E-03         2.01544    -633.112E-03    -685.552E-03    -632.309E-03         2.01464    -685.552E-03    -87.1072E-03     123.684E-03    -61.3968E-03    -62.3373E-03    -61.3599E-03     123.648E-03    -62.3373E-03     4.83527E-03    -30.8725E+06    -53.2358E+06    -148.282E+06    -53.8930E+06    -125.262E+06    -53.2358E+06    -46.5466E+06         33.7525
            1694     9.39775E-03     96.0928E-03         1.99351    -617.799E-03    -679.791E-03    -617.419E-03         1.99313    -679.791E-03    -57.8731E-03     123.504E-03    -61.3001E-03    -62.2339E-03    -61.1943E-03     123.398E-03    -62.2339E-03     8.63467E-03    -27.5309E+06    -59.0111E+06    -141.373E+06    -51.8392E+06    -117.065E+06    -59.0111E+06    -46.4574E+06         36.0655
            1695     10.3381E-03     96.1020E-03         1.97253    -598.200E-03    -673.772E-03    -597.406E-03         1.97174    -673.772E-03    -82.8012E-03     123.264E-03    -61.1841E-03    -62.0917E-03    -60.9977E-03     123.078E-03    -62.0917E-03     11.6486E-03    -21.1194E+06    -68.8322E+06    -121.638E+06    -48.9898E+06    -93.7673E+06    -68.8322E+06    -44.7652E+06         39.1126
            1696     11.2793E-03     96.1144E-03         1.94423    -572.280E-03    -667.319E-03    -571.627E-03         1.94358    -667.319E-03    -71.2891E-03     123.239E-03    -61.3201E-03    -61.9661E-03    -60.6157E-03     122.502E-03    -61.9338E-03     21.5689E-03    -17.1248E+06    -68.8434E+06    -95.5019E+06    -47.4858E+06    -55.5664E+06    -78.4180E+06    -31.9747E+06         42.8567
            1697     12.2202E-03     96.1439E-03         1.91600    -552.012E-03    -661.299E-03    -551.704E-03         1.91569    -661.299E-03    -46.5637E-03     125.445E-03    -61.6821E-03    -63.8665E-03    -60.3830E-03     122.069E-03    -61.7897E-03     47.3010E-03     15.0484E+06    -53.7180E+06    -79.6450E+06    -44.8536E+06     6.18400E+06    -79.6450E+06    -13.5662E+06         47.7201
            1698     13.1622E-03     96.2155E-03         1.90076    -540.563E-03    -656.902E-03    -539.949E-03         1.90015    -656.902E-03    -69.3180E-03     130.098E-03    -61.8461E-03    -68.3147E-03    -59.8476E-03     121.631E-03    -61.8461E-03     78.9963E-03     64.2835E+06    -21.1194E+06    -56.1657E+06    -39.0310E+06     63.5011E+06    -37.4718E+06     260.325E+03         54.1888
            1699     14.1031E-03     96.3155E-03         1.89439    -540.999E-03    -655.712E-03    -540.604E-03         1.89400    -655.712E-03    -41.2169E-03     150.470E-03    -62.0846E-03    -88.4022E-03    -61.1864E-03     123.254E-03    -62.0846E-03     146.556E-03     98.5764E+06     44.7483E+06    -31.2357E+06    -30.9382E+06     98.2788E+06     44.7483E+06     5.58551E+06         61.8377
            1700     15.0508E-03     96.5346E-03         1.88872    -535.821E-03    -661.409E-03    -535.747E-03         1.88865    -661.409E-03    -16.3024E-03     223.122E-03    -62.1906E-03    -160.918E-03    -71.7639E-03     133.969E-03    -62.1906E-03     319.969E-03     137.639E+06     118.855E+06    -22.2108E+06    -21.9753E+06     137.403E+06     118.855E+06     5.32105E+06         69.3752
            1701     16.0000E-03     97.0501E-03         1.87305    -508.474E-03    -674.069E-03    -508.385E-03         1.87296    -674.069E-03    -10.0007E-03     288.654E-03    -62.0891E-03    -226.482E-03    -86.4326E-03     148.605E-03    -62.0891E-03     458.367E-03     182.908E+06     172.231E+06    -11.5687E+06    -11.4930E+06     182.832E+06     172.231E+06     3.44419E+06         75.3100
            1702     940.132E-06     97.2385E-03         2.27010    -773.610E-03    -819.207E-03    -809.608E-03         2.26356    -776.674E-03    -104.211E-03     125.047E-03    -62.3921E-03    -62.6322E-03    -62.6138E-03     125.045E-03    -62.4078E-03    -1.26796E-03    -54.7436E+06    -59.4559E+06    -178.186E+06    -56.8092E+06    -177.407E+06    -58.1696E+06    -8.49547E+06         29.6069
            1703     1.87919E-03     97.2362E-03         2.26473    -780.675E-03    -814.118E-03    -798.860E-03         2.26290    -794.110E-03     5.77675E-03     125.200E-03    -62.5156E-03    -62.6825E-03    -62.6516E-03     125.196E-03    -62.5426E-03    -1.52496E-03    -54.6092E+06    -56.8309E+06    -165.133E+06    -57.5842E+06    -162.265E+06    -56.7238E+06    -16.6191E+06         29.6893
            1704     2.81772E-03     97.2343E-03         2.25329    -779.125E-03    -803.788E-03    -787.854E-03         2.25229    -794.060E-03    -100.218E-03     125.015E-03    -62.3684E-03    -62.6581E-03    -62.4667E-03     125.011E-03    -62.5561E-03    -1.52268E-03    -50.4754E+06    -54.3101E+06    -157.401E+06    -56.2332E+06    -152.227E+06    -53.7265E+06    -22.4151E+06         29.8258
            1705     3.75838E-03     97.2310E-03         2.23822    -776.633E-03    -794.917E-03    -779.964E-03         2.23800    -791.363E-03    -43.5484E-03     124.657E-03    -62.1360E-03    -62.5265E-03    -62.1316E-03     124.653E-03    -62.5265E-03    -1.78736E-03    -44.8209E+06    -49.9203E+06    -156.788E+06    -54.3999E+06    -149.231E+06    -47.8985E+06    -27.4655E+06         30.0275
            1706     4.69805E-03     97.2268E-03         2.21501    -760.258E-03    -790.826E-03    -763.384E-03         2.21459    -787.272E-03    -47.0803E-03     124.685E-03    -62.1974E-03    -62.4995E-03    -62.1938E-03     124.681E-03    -62.4995E-03    -1.59351E-03    -38.2224E+06    -42.2382E+06    -156.718E+06    -51.4368E+06    -145.049E+06    -40.6929E+06    -34.3635E+06         30.3047
            1707     5.63715E-03     97.2232E-03         2.18792    -745.486E-03    -781.547E-03    -744.572E-03         2.18701    -781.547E-03    -79.0282E-03     124.507E-03    -62.0679E-03    -62.4576E-03    -62.0666E-03     124.505E-03    -62.4576E-03    -630.899E-06    -34.4384E+06    -38.9545E+06    -155.938E+06    -49.6965E+06    -140.680E+06    -38.9545E+06    -40.0423E+06         30.6719
            1708     6.57807E-03     97.2215E-03         2.17347    -740.668E-03    -775.734E-03    -739.829E-03         2.17263    -775.734E-03    -78.6165E-03     124.118E-03    -61.7435E-03    -62.3949E-03    -61.7418E-03     124.116E-03    -62.3949E-03     822.914E-06    -28.0788E+06     -38.775E+06    -151.915E+06    -48.3288E+06    -131.665E+06     -38.775E+06    -45.3953E+06         31.2233
            1709     7.51773E-03     97.2204E-03         2.16207    -732.130E-03    -770.630E-03    -731.194E-03         2.16113    -770.630E-03    -93.2193E-03     123.875E-03    -61.5868E-03    -62.3157E-03    -61.5778E-03     123.866E-03    -62.3157E-03     2.42816E-03    -23.5227E+06    -39.0319E+06    -144.759E+06    -46.2670E+06    -122.014E+06    -39.0319E+06    -47.2565E+06         32.1588
            1710     8.45831E-03     97.2202E-03         2.12554    -696.056E-03    -764.368E-03    -695.193E-03         2.12468    -764.368E-03    -94.9434E-03     123.563E-03    -61.3741E-03    -62.2250E-03    -61.3320E-03     123.520E-03    -62.2250E-03     5.23237E-03    -21.3588E+06    -43.8442E+06    -142.535E+06    -44.8113E+06    -119.083E+06    -43.8442E+06    -47.7357E+06         33.6910
            1711     9.39894E-03     97.2240E-03         2.07310    -651.105E-03    -755.565E-03    -650.823E-03         2.07282    -755.565E-03    -52.6388E-03     123.345E-03    -61.2404E-03    -62.1250E-03    -61.1180E-03     123.223E-03    -62.1250E-03     9.26441E-03    -17.6184E+06    -50.2189E+06    -135.647E+06    -44.1643E+06    -109.101E+06    -50.2189E+06    -49.2008E+06         35.9556
            1712     10.3396E-03     97.2339E-03         2.04441    -631.940E-03    -745.659E-03    -631.587E-03         2.04406    -745.659E-03    -56.0916E-03     123.060E-03    -61.0545E-03    -62.0069E-03    -60.8645E-03     122.870E-03    -62.0069E-03     11.8119E-03    -18.3139E+06    -60.7608E+06    -123.714E+06    -45.8365E+06    -96.1912E+06    -60.7608E+06    -46.0834E+06         38.9687
            1713     11.2806E-03     97.2437E-03         2.02917    -619.648E-03    -736.513E-03    -619.103E-03         2.02862    -736.513E-03    -73.7225E-03     123.132E-03    -61.2958E-03    -61.8789E-03    -60.5541E-03     122.358E-03    -61.8466E-03     21.8431E-03    -17.9567E+06    -71.6102E+06    -100.544E+06    -45.9761E+06    -70.0173E+06    -74.1172E+06    -37.3974E+06         42.6898
            1714     12.2219E-03     97.2757E-03         1.99653    -592.257E-03    -728.457E-03    -591.739E-03         1.99601    -728.457E-03    -70.3283E-03     125.205E-03    -61.6276E-03    -63.6693E-03    -60.2501E-03     121.797E-03    -61.6390E-03     47.7010E-03     6.20316E+06    -57.9963E+06    -90.6477E+06    -41.6503E+06    -13.5251E+06    -87.2654E+06    -23.0764E+06         47.5389
            1715     13.1635E-03     97.3433E-03         1.96487    -565.408E-03    -721.450E-03    -564.765E-03         1.96423    -721.450E-03    -74.5550E-03     129.262E-03    -61.5831E-03    -67.7024E-03    -59.2066E-03     120.766E-03    -61.5831E-03     78.7627E-03     50.8247E+06    -32.9842E+06    -67.3005E+06    -36.7156E+06     48.9042E+06    -61.6487E+06    -7.65728E+06         54.0254
            1716     14.1094E-03     97.4457E-03         1.93306    -538.430E-03    -716.480E-03    -538.005E-03         1.93263    -716.480E-03    -50.9548E-03     149.912E-03    -61.8121E-03    -88.0354E-03    -61.2106E-03     123.088E-03    -61.8121E-03     145.692E-03     94.1210E+06     26.3069E+06    -33.0491E+06    -30.7864E+06     93.7607E+06     24.4046E+06     1.92303E+06         61.7395
            1717     15.0517E-03     97.6608E-03         1.89968    -511.960E-03    -717.031E-03    -511.921E-03         1.89965    -717.031E-03    -11.7942E-03     222.437E-03    -62.0189E-03    -160.385E-03    -72.3553E-03     134.407E-03    -62.0189E-03     317.670E-03     138.814E+06     112.507E+06    -22.4693E+06    -22.3401E+06     138.685E+06     112.507E+06     3.83647E+06         69.3580
            1718     15.9938E-03     98.1740E-03         1.86792    -487.555E-03    -724.131E-03    -487.504E-03         1.86787    -724.131E-03    -12.0796E-03     289.091E-03    -61.9530E-03    -227.070E-03    -85.0314E-03     147.053E-03    -61.9530E-03     461.020E-03     184.175E+06     173.014E+06    -11.5220E+06    -11.4816E+06     184.135E+06     173.014E+06     2.53470E+06         75.3774
            1719     939.124E-06     98.3706E-03         2.44006    -883.034E-03    -919.355E-03    -909.654E-03         2.43759    -890.265E-03    -52.2964E-03     125.099E-03    -62.2832E-03    -62.8012E-03    -62.7856E-03     125.097E-03    -62.2963E-03    -1.10700E-03    -39.0069E+06    -43.9327E+06    -158.958E+06    -42.6009E+06    -158.183E+06    -41.1136E+06    -8.18610E+06         29.5896
            1720     1.87876E-03     98.3690E-03         2.39476    -860.575E-03    -891.753E-03    -859.587E-03         2.39378    -891.753E-03    -11.5390E-03     124.957E-03    -62.3706E-03    -62.5816E-03    -62.4056E-03     124.954E-03    -62.5437E-03    -1.22266E-03    -34.7313E+06    -38.6813E+06    -144.408E+06    -40.9671E+06    -141.489E+06    -35.3649E+06    -16.5031E+06         29.6677
            1721     2.81911E-03     98.3672E-03         2.38416    -852.388E-03    -884.393E-03    -856.480E-03         2.38350    -879.639E-03    -86.5361E-03     124.546E-03    -62.0776E-03    -62.4818E-03    -62.0740E-03     124.543E-03    -62.4818E-03    -1.51482E-03    -30.9379E+06    -33.8450E+06    -144.049E+06    -38.3782E+06    -138.869E+06    -31.5849E+06    -23.1412E+06         29.7962
            1722     3.75862E-03     98.3624E-03         2.40291    -872.680E-03    -884.361E-03    -880.472E-03         2.40240    -876.054E-03    -77.0185E-03     124.270E-03    -61.9193E-03    -62.3653E-03    -61.9157E-03     124.266E-03    -62.3653E-03    -1.56221E-03    -27.5582E+06    -31.9307E+06    -140.763E+06    -36.0272E+06    -132.771E+06    -31.4541E+06    -28.5678E+06         29.9883
            1723     4.69881E-03     98.3596E-03         2.36779    -853.365E-03    -878.016E-03    -855.905E-03         2.36678    -874.462E-03    -110.671E-03     124.197E-03    -61.9229E-03    -62.2909E-03    -61.9215E-03     124.196E-03    -62.2909E-03    -809.933E-06    -23.9746E+06    -29.5948E+06    -140.597E+06    -35.4049E+06    -129.167E+06    -29.5948E+06    -34.5717E+06         30.2583
            1724     5.63887E-03     98.3557E-03         2.31319    -815.719E-03    -867.887E-03    -814.443E-03         2.31191    -867.887E-03    -120.136E-03     124.048E-03    -61.8149E-03    -62.2499E-03    -61.8138E-03     124.047E-03    -62.2499E-03     172.331E-06    -18.4724E+06    -26.2344E+06    -141.736E+06    -33.4196E+06    -126.788E+06    -26.2344E+06    -40.0330E+06         30.6226
            1725     6.57854E-03     98.3523E-03         2.27983    -794.428E-03    -858.580E-03    -793.391E-03         2.27879    -858.580E-03    -105.540E-03     123.646E-03    -61.4918E-03    -62.1729E-03    -61.4867E-03     123.641E-03    -62.1729E-03     1.61485E-03    -13.9034E+06    -26.9120E+06    -137.318E+06    -32.8164E+06    -118.405E+06    -26.9120E+06    -44.2235E+06         31.1816
            1726     7.51991E-03     98.3521E-03         2.25407    -776.174E-03    -849.188E-03    -774.861E-03         2.25275    -849.188E-03    -122.633E-03     123.430E-03    -61.3547E-03    -62.0957E-03    -61.3393E-03     123.415E-03    -62.0957E-03     3.21172E-03    -13.9365E+06    -28.5760E+06    -136.650E+06    -35.0276E+06    -115.558E+06    -28.5760E+06    -46.1614E+06         32.1114
            1727     8.46006E-03     98.3512E-03         2.21769    -743.666E-03    -839.184E-03    -742.096E-03         2.21612    -839.184E-03    -132.622E-03     123.349E-03    -61.3730E-03    -62.0064E-03    -61.3180E-03     123.294E-03    -62.0064E-03     6.00952E-03    -12.3443E+06    -34.1246E+06    -133.352E+06    -36.2296E+06    -109.467E+06    -34.1246E+06    -48.0013E+06         33.5993
            1728     9.40053E-03     98.3552E-03         2.16701    -700.611E-03    -827.643E-03    -699.523E-03         2.16593    -827.643E-03    -104.626E-03     123.087E-03    -61.1845E-03    -61.9184E-03    -61.0381E-03     122.940E-03    -61.9184E-03     10.1415E-03    -12.0567E+06    -42.9375E+06    -129.224E+06    -37.5469E+06    -103.733E+06    -42.9375E+06    -48.3242E+06         35.8131
            1729     10.3415E-03     98.3642E-03         2.12491    -673.310E-03    -815.254E-03    -672.593E-03         2.12419    -815.254E-03    -84.2083E-03     122.926E-03    -61.0943E-03    -61.8182E-03    -60.8690E-03     122.701E-03    -61.8182E-03     12.8166E-03    -13.1071E+06    -54.3458E+06    -121.905E+06    -38.7669E+06    -96.2452E+06    -54.3458E+06    -46.0696E+06         38.7932
            1730     11.2823E-03     98.3747E-03         2.09617    -656.715E-03    -803.504E-03    -655.805E-03         2.09526    -803.504E-03    -95.7572E-03     122.895E-03    -61.2533E-03    -61.6631E-03    -60.4397E-03     122.081E-03    -61.6631E-03     22.5834E-03    -9.40794E+06    -69.8017E+06    -103.575E+06    -37.8780E+06    -75.1053E+06    -69.8017E+06    -42.9361E+06         42.4930
            1731     12.2241E-03     98.4053E-03         2.05452    -624.359E-03    -792.788E-03    -623.521E-03         2.05368    -792.788E-03    -89.4574E-03     124.856E-03    -61.3306E-03    -63.5838E-03    -59.8905E-03     121.277E-03    -61.4457E-03     48.7121E-03     3.39884E+06    -63.2942E+06    -95.7021E+06    -35.4875E+06    -32.2189E+06    -87.8911E+06    -32.6394E+06         47.3310
            1732     13.1667E-03     98.4732E-03         2.00329    -582.922E-03    -782.640E-03    -582.539E-03         2.00290    -782.640E-03    -60.7429E-03     129.070E-03    -61.3386E-03    -67.7705E-03    -59.3729E-03     120.673E-03    -61.3386E-03     78.6048E-03     37.5636E+06    -40.6670E+06    -76.8627E+06    -32.7973E+06     29.6939E+06    -76.8627E+06    -14.9467E+06         53.8348
            1733     14.1090E-03     98.5709E-03         1.95844    -544.609E-03    -773.858E-03    -544.405E-03         1.95824    -773.858E-03    -43.4203E-03     150.299E-03    -61.5293E-03    -88.7394E-03    -61.3643E-03     122.924E-03    -61.5293E-03     146.708E-03     86.5852E+06     12.3921E+06    -41.2196E+06    -29.2863E+06     86.2506E+06     793.222E+03    -2.25678E+06         61.6136
            1734     15.0522E-03     98.7950E-03         1.90600    -501.449E-03    -769.724E-03    -501.396E-03         1.90595    -769.724E-03    -12.8542E-03     222.137E-03    -61.7362E-03    -160.333E-03    -71.0083E-03     132.812E-03    -61.7362E-03     319.217E-03     138.133E+06     100.864E+06    -22.1788E+06    -21.9867E+06     137.940E+06     100.864E+06     2.48433E+06         69.3242
            1735     16.0059E-03     99.2943E-03         1.84776    -461.206E-03    -770.943E-03    -461.115E-03         1.84767    -770.943E-03     2.27104E-03     289.271E-03    -61.6299E-03    -227.590E-03    -83.0919E-03     144.773E-03    -61.6299E-03     463.905E-03     185.710E+06     172.433E+06    -11.5540E+06    -11.4931E+06     185.649E+06     172.433E+06     2.60573E+06         75.4370
            1736     939.976E-06     99.5036E-03         2.56267    -970.683E-03    -983.687E-03    -973.000E-03         2.56249    -981.189E-03    -32.2399E-03     124.544E-03    -61.9981E-03    -62.5539E-03    -62.5094E-03     124.543E-03    -62.0420E-03    -497.203E-06    -21.0005E+06    -27.4069E+06    -139.282E+06    -25.6150E+06    -138.507E+06    -23.5672E+06    -7.68848E+06         29.5357
            1737     1.87943E-03     99.5019E-03         2.54412    -948.388E-03    -974.591E-03    -950.941E-03         2.54382    -971.740E-03    -47.2359E-03     124.231E-03    -62.0142E-03    -62.2228E-03    -62.0129E-03     124.229E-03    -62.2228E-03    -713.428E-06    -18.1910E+06    -23.4415E+06    -124.687E+06    -23.9532E+06    -122.134E+06    -20.2322E+06    -15.6008E+06         29.6075
            1738     2.81939E-03     99.4980E-03         2.54281    -948.596E-03    -972.419E-03    -955.926E-03         2.54253    -964.815E-03    -57.0356E-03     123.827E-03    -61.7091E-03    -62.1290E-03    -61.7068E-03     123.825E-03    -62.1290E-03    -1.11656E-03    -15.2154E+06    -19.6593E+06    -127.748E+06    -22.2996E+06    -122.341E+06    -17.9827E+06    -23.5193E+06         29.7306
            1739     3.76007E-03     99.4948E-03         2.52184    -943.331E-03    -966.069E-03    -947.498E-03         2.52126    -961.315E-03    -81.7477E-03     123.480E-03    -61.5010E-03    -61.9952E-03    -61.4996E-03     123.479E-03    -61.9952E-03    -527.343E-06    -12.7966E+06    -19.3689E+06    -126.424E+06    -20.9271E+06    -118.293E+06    -19.3689E+06    -29.1848E+06         29.9155
            1740     4.70043E-03     99.4899E-03         2.47984    -914.863E-03    -955.197E-03    -913.913E-03         2.47889    -955.197E-03    -112.133E-03     123.242E-03    -61.3677E-03    -61.8912E-03    -61.3664E-03     123.240E-03    -61.8912E-03     403.772E-06    -8.75091E+06    -17.5239E+06    -124.540E+06    -20.0472E+06    -113.243E+06    -17.5239E+06    -34.2169E+06         30.1769
            1741     5.64136E-03     99.4876E-03         2.44434    -890.567E-03    -946.157E-03    -889.964E-03         2.44374    -946.157E-03    -86.1057E-03     123.129E-03    -61.3095E-03    -61.8369E-03    -61.3061E-03     123.126E-03    -61.8369E-03     1.36995E-03    -4.79381E+06    -13.9277E+06    -127.437E+06     -20.098E+06    -112.133E+06    -13.9277E+06    -40.4139E+06         30.5333
            1742     6.58216E-03     99.4833E-03         2.40211    -861.163E-03    -935.916E-03    -860.683E-03         2.40163    -935.916E-03    -78.1442E-03     123.025E-03    -61.2712E-03    -61.7731E-03    -61.2575E-03     123.012E-03    -61.7731E-03     2.92095E-03    -3.02874E+06    -14.4951E+06    -126.636E+06    -20.0624E+06    -109.602E+06    -14.4951E+06    -42.5584E+06         31.0872
            1743     7.52218E-03     99.4824E-03         2.34707    -818.149E-03    -923.767E-03    -816.850E-03         2.34577    -923.767E-03    -122.980E-03     122.841E-03    -61.1523E-03    -61.7129E-03    -61.1159E-03     122.804E-03    -61.7129E-03     4.95701E-03    -1.00517E+06    -15.6548E+06    -124.493E+06    -19.6583E+06    -105.840E+06    -15.6548E+06    -44.0760E+06         32.0022
            1744     8.46332E-03     99.4826E-03         2.30368    -786.105E-03    -910.141E-03    -784.411E-03         2.30199    -910.141E-03    -141.255E-03     122.784E-03    -61.1570E-03    -61.6469E-03    -61.0633E-03     122.690E-03    -61.6469E-03     7.93752E-03     -52.101E+03    -20.6638E+06    -122.198E+06    -21.1054E+06    -101.145E+06    -20.6638E+06    -45.8672E+06         33.4522
            1745     9.40397E-03     99.4864E-03         2.26731    -766.079E-03    -896.792E-03    -764.617E-03         2.26585    -896.792E-03    -130.349E-03     122.702E-03    -61.1426E-03    -61.5671E-03    -60.9412E-03     122.500E-03    -61.5671E-03     11.9429E-03    -1.11218E+06    -31.0622E+06    -121.145E+06    -23.4044E+06    -98.8530E+06    -31.0622E+06    -46.5067E+06         35.6249
            1746     10.3450E-03     99.4947E-03         2.20675    -720.289E-03    -883.185E-03    -719.158E-03         2.20561    -883.185E-03    -113.162E-03     122.444E-03    -60.9783E-03    -61.4798E-03    -60.6542E-03     122.120E-03    -61.4798E-03     15.2625E-03    -1.05805E+06    -44.3811E+06    -116.742E+06    -25.2563E+06    -92.5436E+06    -44.3811E+06    -46.7865E+06         38.5772
            1747     11.2858E-03     99.5060E-03         2.14105    -670.610E-03    -868.255E-03    -669.381E-03         2.13982    -868.255E-03    -114.569E-03     122.497E-03    -60.9790E-03    -61.5529E-03    -60.2568E-03     121.570E-03    -61.3480E-03     24.6872E-03    -173.312E+03    -60.3939E+06    -102.691E+06    -27.7052E+06    -75.1590E+06    -60.3939E+06    -45.0393E+06         42.2596
            1748     12.2281E-03     99.5328E-03         2.08775    -634.815E-03    -853.303E-03    -633.596E-03         2.08653    -853.303E-03    -113.006E-03     124.632E-03    -61.0334E-03    -63.6365E-03    -59.6234E-03     120.723E-03    -61.1371E-03     50.7188E-03     1.26593E+06    -65.5227E+06    -93.6157E+06    -30.3640E+06    -46.4809E+06    -81.0276E+06    -37.6225E+06         47.0895
            1749     13.1705E-03     99.6040E-03         2.03115    -588.851E-03    -839.130E-03    -588.244E-03         2.03054    -839.130E-03    -79.1630E-03     129.393E-03    -60.9443E-03    -68.5444E-03    -59.4188E-03     120.268E-03    -60.9443E-03     82.0738E-03     23.8988E+06    -47.9786E+06    -90.7488E+06    -31.1530E+06     7.07319E+06    -90.7488E+06    -21.4063E+06         53.6152
            1750     14.1129E-03     99.6996E-03         1.97214    -546.720E-03    -826.272E-03    -546.462E-03         1.97189    -826.272E-03    -42.8923E-03     149.901E-03    -60.9897E-03    -89.0258E-03    -60.2856E-03     121.161E-03    -60.9897E-03     149.806E-03     76.6867E+06    -4.69102E+06    -56.7867E+06    -28.0000E+06     75.1653E+06    -31.9563E+06    -6.08899E+06         61.4704
            1751     15.0622E-03     99.9204E-03         1.90830    -498.105E-03    -817.417E-03    -498.066E-03         1.90826    -817.417E-03    -13.1388E-03     222.297E-03    -61.2001E-03    -161.080E-03    -70.3965E-03     131.614E-03    -61.2001E-03     322.179E-03     135.472E+06     79.8115E+06    -22.4592E+06    -22.3134E+06     135.326E+06     79.8115E+06    -117.603E+03         69.2792
            1752     16.0085E-03     100.418E-03         1.83944    -441.854E-03    -812.645E-03    -441.685E-03         1.83927    -812.645E-03     19.9288E-03     286.688E-03    -61.1348E-03    -225.571E-03    -80.8147E-03     141.932E-03    -61.1348E-03     461.207E-03     185.542E+06     168.627E+06    -12.2262E+06    -12.1351E+06     185.451E+06     168.627E+06     1.18862E+06         75.4870
            1753     940.162E-06     100.635E-03         2.69117        -1.03752        -1.06832        -1.03665         2.68993        -1.06796    -95.9594E-03     123.020E-03    -61.3503E-03    -61.6695E-03    -61.5453E-03     123.020E-03    -61.4738E-03    -406.130E-06     1.66694E+06    -6.77731E+06    -121.212E+06    -1.28859E+06    -120.563E+06    -4.47035E+06    -7.33810E+06         29.4163
            1754     1.88121E-03     100.633E-03         2.68144        -1.04053        -1.05359        -1.04349         2.68118        -1.05038    -59.1975E-03     122.632E-03    -61.2294E-03    -61.4088E-03    -61.2288E-03     122.632E-03    -61.4088E-03     86.5166E-06    -2.01450E+06    -7.69237E+06    -106.295E+06    -4.53734E+06    -103.772E+06    -7.69237E+06    -15.3572E+06         29.4828
            1755     2.82169E-03     100.629E-03         2.65458        -1.01753        -1.04722        -1.02016         2.65436        -1.04437    -55.3990E-03     122.448E-03    -61.1003E-03    -61.3582E-03    -61.1101E-03     122.447E-03    -61.3474E-03     242.206E-06     538.405E+03    -3.35090E+06    -108.744E+06    -4.97626E+06    -103.230E+06    -3.35090E+06    -23.6232E+06         29.6056
            1756     3.76273E-03     100.625E-03         2.61092    -987.147E-03        -1.03416    -986.782E-03         2.61056        -1.03416    -66.4975E-03     122.187E-03    -60.9015E-03    -61.3007E-03    -60.9099E-03     122.185E-03    -61.2898E-03     979.137E-06     4.62003E+06     -89.737E+03    -112.277E+06    -3.63279E+06    -104.024E+06     -89.737E+03    -29.8788E+06         29.7891
            1757     4.70410E-03     100.621E-03         2.59218    -978.692E-03        -1.02345    -977.879E-03         2.59136        -1.02345    -101.751E-03     121.923E-03    -60.7430E-03    -61.1955E-03    -60.7356E-03     121.916E-03    -61.1955E-03     2.05010E-03     8.81793E+06    -930.735E+03    -109.310E+06    -2.45907E+06    -98.0330E+06    -930.735E+03    -34.4760E+06         30.0437
            1758     5.64489E-03     100.617E-03         2.55951    -960.040E-03        -1.01409    -959.027E-03         2.55850        -1.01409    -114.529E-03     121.765E-03    -60.6427E-03    -61.1388E-03    -60.6238E-03     121.746E-03    -61.1388E-03     3.33339E-03     10.3598E+06     806.353E+03    -112.762E+06    -3.21753E+06    -99.1849E+06     806.353E+03    -38.4718E+06         30.3862
            1759     6.58614E-03     100.614E-03         2.49654    -916.406E-03        -1.00307    -915.528E-03         2.49566        -1.00307    -106.286E-03     121.722E-03    -60.6733E-03    -61.0698E-03    -60.6276E-03     121.676E-03    -61.0698E-03     5.31957E-03     10.8353E+06    -2.34824E+06    -116.675E+06    -4.81193E+06    -101.028E+06    -2.34824E+06    -41.6352E+06         30.9188
            1760     7.52770E-03     100.612E-03         2.43382    -870.577E-03    -989.231E-03    -869.306E-03         2.43255    -989.231E-03    -126.863E-03     121.675E-03    -60.6926E-03    -61.0026E-03    -60.6047E-03     121.587E-03    -61.0026E-03     7.72884E-03     11.7956E+06    -7.82877E+06    -113.756E+06    -5.67620E+06    -96.2838E+06    -7.82877E+06    -43.4511E+06         31.8102
            1761     8.46868E-03     100.612E-03         2.38560    -838.118E-03    -974.158E-03    -836.974E-03         2.38445    -974.158E-03    -116.609E-03     121.644E-03    -60.6886E-03    -60.9664E-03    -60.4979E-03     121.453E-03    -60.9664E-03     11.3144E-03     11.8809E+06    -11.7192E+06    -113.146E+06    -6.32564E+06    -94.9399E+06    -11.7192E+06    -44.0779E+06         33.2349
            1762     9.40998E-03     100.617E-03         2.34370    -809.473E-03    -959.221E-03    -808.505E-03         2.34273    -959.221E-03    -106.873E-03     121.766E-03    -60.7553E-03    -61.0191E-03    -60.5155E-03     121.412E-03    -60.9051E-03     15.7126E-03     10.6987E+06    -21.1254E+06    -111.788E+06    -8.54662E+06    -92.5423E+06    -21.1254E+06    -44.5229E+06         35.3825
            1763     10.3510E-03     100.624E-03         2.27610    -759.298E-03    -943.626E-03    -758.196E-03         2.27500    -943.626E-03    -114.043E-03     121.565E-03    -60.5973E-03    -60.9955E-03    -60.2541E-03     121.064E-03    -60.8374E-03     18.9077E-03     8.85133E+06    -35.1120E+06    -108.689E+06    -12.4105E+06    -87.4267E+06    -35.1120E+06    -45.0778E+06         38.3153
            1764     11.2937E-03     100.634E-03         2.18935    -692.950E-03    -926.110E-03    -692.051E-03         2.18845    -926.110E-03    -96.5598E-03     122.004E-03    -60.5526E-03    -61.4816E-03    -60.0608E-03     120.771E-03    -60.7402E-03     28.6654E-03     7.05377E+06    -50.6741E+06    -98.1870E+06    -16.6261E+06    -74.5071E+06    -50.6741E+06    -43.5563E+06         41.9846
            1765     12.2344E-03     100.663E-03         2.11958    -641.054E-03    -907.578E-03    -640.263E-03         2.11879    -907.578E-03    -88.0298E-03     124.630E-03    -60.5991E-03    -64.0620E-03    -59.8351E-03     120.403E-03    -60.5991E-03     53.4924E-03     3.20823E+06    -62.5977E+06    -86.7456E+06    -21.4797E+06    -54.9072E+06    -69.7482E+06    -37.2061E+06         46.8090
            1766     13.1789E-03     100.728E-03         2.05361    -595.924E-03    -889.535E-03    -595.424E-03         2.05311    -889.535E-03    -71.4139E-03     128.941E-03    -60.3563E-03    -68.6656E-03    -58.8037E-03     119.079E-03    -60.3563E-03     84.8618E-03     14.7059E+06    -49.6197E+06    -94.0155E+06    -24.2130E+06    -10.7008E+06    -94.0155E+06    -25.9794E+06         53.3650
            1767     14.1234E-03     100.831E-03         1.98123    -542.296E-03    -872.595E-03    -542.090E-03         1.98103    -872.595E-03    -31.9121E-03     147.988E-03    -60.2468E-03    -87.8179E-03    -59.2245E-03     119.395E-03    -60.2468E-03     149.445E-03     62.7142E+06    -20.9239E+06    -67.5982E+06    -24.1727E+06     58.7167E+06    -60.3519E+06    -11.5088E+06         61.3040
            1768     15.0715E-03     101.036E-03         1.90477    -486.467E-03    -858.829E-03    -486.402E-03         1.90471    -858.829E-03    -17.0336E-03     224.002E-03    -60.4122E-03    -163.590E-03    -69.8605E-03     130.272E-03    -60.4122E-03     327.547E-03     132.120E+06     57.8380E+06    -22.1690E+06    -19.6427E+06     131.776E+06     55.6553E+06    -1.88809E+06         69.2188
            1769     16.0170E-03     101.562E-03         1.81717    -425.252E-03    -848.354E-03    -424.908E-03         1.81682    -848.354E-03     17.8160E-03     285.916E-03    -60.3503E-03    -225.640E-03    -78.6105E-03     138.886E-03    -60.3503E-03     462.918E-03     186.372E+06     163.811E+06    -10.6450E+06    -10.5688E+06     186.295E+06     163.811E+06     1.30179E+06         75.5275
            1770     941.759E-06     101.765E-03         2.76379        -1.08991        -1.13272        -1.10671         2.76188        -1.11401    -33.9817E-03     120.260E-03    -60.0383E-03    -60.2225E-03    -60.0378E-03     120.260E-03    -60.2225E-03     107.974E-06     16.3267E+06     7.66189E+06    -105.646E+06     14.1718E+06    -104.604E+06     8.77437E+06    -9.95346E+06         29.2041
            1771     1.88348E-03     101.761E-03         2.77388        -1.10170        -1.12011        -1.11057         2.77298        -1.11035     11.3766E-03     119.878E-03    -59.8507E-03    -60.0318E-03    -59.8476E-03     119.875E-03    -60.0318E-03     1.17332E-03     16.3435E+06     8.93310E+06    -87.0209E+06     13.5842E+06    -84.2615E+06     8.93310E+06    -16.0468E+06         29.2691
            1772     2.82599E-03     101.758E-03         2.73251        -1.07270        -1.10485        -1.07242         2.73224        -1.10485    -63.3966E-03     120.018E-03    -59.9356E-03    -60.0919E-03    -60.0138E-03     120.011E-03    -60.0067E-03     1.99458E-03     17.4162E+06     12.1104E+06    -90.4981E+06     12.1753E+06    -85.2573E+06     12.1104E+06    -22.9902E+06         29.3910
            1773     3.76724E-03     101.753E-03         2.70878        -1.05839        -1.09467        -1.05810         2.70849        -1.09467    -65.7180E-03     120.029E-03    -59.9288E-03    -60.1161E-03    -59.9976E-03     120.012E-03    -60.0309E-03     3.04429E-03     19.8269E+06     13.1770E+06    -96.0092E+06     11.2785E+06    -87.4608E+06     13.1770E+06    -30.0141E+06         29.5719
            1774     4.70897E-03     101.749E-03         2.69514        -1.05007        -1.08613        -1.04883         2.69389        -1.08613    -123.187E-03     119.625E-03    -59.6626E-03    -59.9804E-03    -59.6229E-03     119.586E-03    -59.9804E-03     4.85498E-03     22.3025E+06     8.52982E+06    -96.9301E+06     10.9382E+06    -85.5658E+06     8.52982E+06    -34.7848E+06         29.8189
            1775     5.65165E-03     101.745E-03         2.63854        -1.00775        -1.07632        -1.00595         2.63675        -1.07632    -160.170E-03     119.491E-03    -59.5898E-03    -59.9181E-03    -59.5182E-03     119.415E-03    -59.9131E-03     6.94524E-03     23.1432E+06     6.53731E+06    -100.374E+06     10.4887E+06    -87.7192E+06     6.53731E+06    -37.3224E+06         30.1473
            1776     6.59392E-03     101.741E-03         2.56451    -955.609E-03        -1.06254    -954.022E-03         2.56292        -1.06254    -146.788E-03     119.530E-03    -59.6877E-03    -59.8625E-03    -59.5554E-03     119.393E-03    -59.8576E-03     9.49258E-03     23.8882E+06     5.42871E+06    -104.902E+06     9.65396E+06    -90.6674E+06     5.42871E+06    -40.1636E+06         30.6623
            1777     7.53583E-03     101.740E-03         2.50997    -920.671E-03        -1.04673    -919.039E-03         2.50833        -1.04673    -146.960E-03     119.582E-03    -59.6986E-03    -59.8892E-03    -59.5601E-03     119.356E-03    -59.8011E-03     12.3003E-03     23.2518E+06    -2.24204E+06    -104.449E+06     7.21288E+06    -88.4101E+06    -2.24204E+06    -42.1586E+06         31.5382
            1778     8.47822E-03     101.740E-03         2.45709    -886.010E-03        -1.03068    -884.516E-03         2.45560        -1.03068    -135.601E-03     119.747E-03    -59.7230E-03    -60.0292E-03    -59.5809E-03     119.356E-03    -59.7808E-03     16.2544E-03     21.0527E+06    -7.86626E+06    -106.023E+06     4.21896E+06    -89.1894E+06    -7.86626E+06    -42.9585E+06         32.9501
            1779     9.42066E-03     101.745E-03         2.38613    -832.127E-03        -1.01363    -830.821E-03         2.38482        -1.01363    -124.029E-03     120.081E-03    -59.7477E-03    -60.3638E-03    -59.7053E-03     119.440E-03    -59.7652E-03     21.1420E-03     18.1748E+06    -16.3324E+06    -104.709E+06     1.19093E+06    -87.7249E+06    -16.3324E+06    -42.2853E+06         35.0844
            1780     10.3628E-03     101.753E-03         2.31766    -779.779E-03    -994.961E-03    -777.956E-03         2.31584    -994.961E-03    -143.215E-03     120.597E-03    -59.7456E-03    -60.8740E-03    -60.0657E-03     119.789E-03    -59.7456E-03     23.9799E-03     15.5141E+06    -30.4350E+06    -100.260E+06    -3.00230E+06    -81.7435E+06    -30.4350E+06    -42.1742E+06         38.0047
            1781     11.3040E-03     101.762E-03         2.23640    -720.005E-03    -974.994E-03    -718.285E-03         2.23468    -974.994E-03    -131.096E-03     121.476E-03    -59.7234E-03    -61.7596E-03    -60.1000E-03     119.817E-03    -59.7234E-03     33.4741E-03     10.9818E+06    -45.7936E+06    -93.6397E+06    -8.71619E+06    -73.9417E+06    -45.7936E+06    -40.6791E+06         41.6637
            1782     12.2469E-03     101.792E-03         2.14477    -652.760E-03    -953.988E-03    -651.780E-03         2.14379    -953.988E-03    -98.4040E-03     124.649E-03    -59.6961E-03    -64.9699E-03    -60.1029E-03     119.782E-03    -59.6961E-03     58.0431E-03     6.91464E+06    -61.9093E+06    -81.5519E+06    -13.1449E+06    -59.6977E+06    -63.7039E+06    -36.2036E+06         46.4864
            1783     13.1868E-03     101.856E-03         2.06358    -597.006E-03    -932.676E-03    -596.206E-03         2.06278    -932.676E-03    -87.2529E-03     128.874E-03    -59.5303E-03    -69.3825E-03    -58.9365E-03     118.428E-03    -59.5303E-03     87.4837E-03     12.1439E+06    -51.7806E+06    -90.4935E+06    -16.8788E+06    -22.7579E+06    -90.4935E+06    -27.9821E+06         53.0801
            1784     14.1338E-03     101.953E-03         1.98125    -534.868E-03    -911.914E-03    -534.574E-03         1.98095    -911.914E-03    -38.9731E-03     148.664E-03    -59.4036E-03    -89.2978E-03    -60.0525E-03     119.418E-03    -59.4036E-03     152.054E-03     50.8736E+06    -27.0754E+06    -75.9451E+06    -19.7789E+06     43.5770E+06    -75.9451E+06    -15.1650E+06         61.1060
            1785     15.0791E-03     102.165E-03         1.89472    -476.737E-03    -893.510E-03    -476.632E-03         1.89462    -893.510E-03    -23.6682E-03     221.238E-03    -59.4467E-03    -161.829E-03    -65.8476E-03     125.257E-03    -59.4467E-03     326.628E-03     124.012E+06     39.7584E+06    -28.7737E+06    -16.4568E+06     123.646E+06     27.8071E+06    -3.01101E+06         69.1385
            1786     16.0470E-03     102.678E-03         1.79569    -412.372E-03    -877.395E-03    -411.948E-03         1.79527    -877.395E-03     15.6622E-03     285.055E-03    -59.2850E-03    -225.854E-03    -75.6617E-03     134.863E-03    -59.2850E-03     465.462E-03     184.497E+06     152.024E+06    -9.16512E+06    -9.11992E+06     184.452E+06     152.024E+06     2.21421E+06         75.5560
            1787     943.573E-06     102.889E-03         2.82542        -1.14157        -1.16288        -1.15895         2.82445        -1.14454     912.867E-06     115.998E-03    -57.8859E-03    -58.1138E-03    -58.0202E-03     115.996E-03    -57.9773E-03     824.877E-06     26.1359E+06     21.7040E+06    -84.8105E+06     23.2169E+06    -83.4105E+06     23.2230E+06    -10.4639E+06         28.8851
            1788     1.88780E-03     102.887E-03         2.83731        -1.14648        -1.16577        -1.15795         2.83588        -1.15287    -25.1467E-03     116.072E-03    -57.9370E-03    -58.1434E-03    -58.0846E-03     116.062E-03    -57.9856E-03     2.43579E-03     25.9609E+06     18.9598E+06    -69.2913E+06     22.4546E+06    -65.7850E+06     18.9598E+06    -17.6765E+06         28.9491
            1789     2.83096E-03     102.883E-03         2.83538        -1.14587        -1.16173        -1.15292         2.83451        -1.15382    -104.243E-03     116.055E-03    -57.9277E-03    -58.1403E-03    -58.0219E-03     116.026E-03    -58.0173E-03     4.15537E-03     29.1480E+06     18.9922E+06    -74.8485E+06     23.0140E+06    -68.7146E+06     18.9922E+06    -24.3343E+06         29.0608
            1790     3.77471E-03     102.879E-03         2.80750        -1.12035        -1.15464        -1.12435         2.80709        -1.15022    -79.6586E-03     116.041E-03    -57.9366E-03    -58.1063E-03    -57.9488E-03     115.978E-03    -58.0319E-03     6.17809E-03     34.0997E+06     21.1188E+06    -78.9194E+06     24.6288E+06    -69.4484E+06     21.1188E+06    -31.1206E+06         29.2320
            1791     4.71850E-03     102.874E-03         2.74265        -1.07170        -1.13987        -1.07065         2.74160        -1.13987    -113.979E-03     116.011E-03    -57.9075E-03    -58.1051E-03    -57.8631E-03     115.887E-03    -58.0255E-03     8.86331E-03     38.4488E+06     20.9108E+06    -85.7117E+06     26.3976E+06    -73.6605E+06     20.9108E+06    -36.6984E+06         29.4712
            1792     5.66231E-03     102.870E-03         2.69095        -1.04113        -1.12564        -1.03981         2.68963        -1.12564    -133.362E-03     115.981E-03    -57.8804E-03    -58.1146E-03    -57.7859E-03     115.759E-03    -57.9876E-03     11.9356E-03     40.0381E+06     17.7506E+06    -90.8715E+06     27.4588E+06    -78.2921E+06     17.7506E+06    -38.4388E+06         29.7929
            1793     6.60590E-03     102.867E-03         2.64768        -1.01680        -1.11150        -1.01525         2.64614        -1.11150    -144.397E-03     116.174E-03    -57.9710E-03    -58.2150E-03    -57.8543E-03     115.817E-03    -57.9746E-03     15.2357E-03     40.4889E+06     18.1971E+06    -93.7254E+06     27.1036E+06    -80.3401E+06     18.1971E+06    -40.0840E+06         30.3108
            1794     7.55002E-03     102.864E-03         2.58461    -973.662E-03        -1.09677    -971.913E-03         2.58286        -1.09677    -156.057E-03     116.596E-03    -57.9728E-03    -58.6122E-03    -58.0773E-03     116.065E-03    -57.9763E-03     18.7922E-03     39.4139E+06     12.7749E+06    -96.7030E+06     25.6784E+06    -82.9676E+06     12.7749E+06    -40.7193E+06         31.1960
            1795     8.49329E-03     102.866E-03         2.50732    -916.514E-03        -1.07984    -914.594E-03         2.50540        -1.07984    -159.562E-03     117.257E-03    -58.0058E-03    -59.2455E-03    -58.4523E-03     116.464E-03    -58.0058E-03     23.0977E-03     34.6118E+06     4.48410E+06    -97.0252E+06     21.4107E+06    -83.8242E+06     4.48410E+06    -39.2678E+06         32.6105
            1796     9.43634E-03     102.870E-03         2.42189    -850.850E-03        -1.06030    -848.989E-03         2.42003        -1.06030    -153.582E-03     118.110E-03    -58.0657E-03    -60.0778E-03    -58.9147E-03     116.947E-03    -58.0657E-03     28.2321E-03     30.5431E+06    -5.16878E+06    -96.6016E+06     16.1678E+06    -82.2264E+06    -5.16878E+06    -40.1081E+06         34.7376
            1797     10.3790E-03     102.880E-03         2.34164    -790.838E-03        -1.03872    -788.821E-03         2.33962        -1.03872    -153.100E-03     119.257E-03    -58.1351E-03    -61.1290E-03    -59.6882E-03     117.816E-03    -58.1351E-03     31.7042E-03     25.1938E+06    -21.6732E+06    -94.0118E+06     10.8917E+06    -79.7097E+06    -21.6732E+06    -38.5393E+06         37.6445
            1798     11.3203E-03     102.890E-03         2.26450    -735.166E-03        -1.01611    -732.842E-03         2.26217        -1.01611    -164.116E-03     120.913E-03    -58.2406E-03    -62.6694E-03    -60.2191E-03     118.462E-03    -58.2406E-03     41.0035E-03     17.2780E+06    -36.3392E+06    -87.0934E+06     3.02964E+06    -72.8450E+06    -36.3392E+06    -35.2150E+06         41.2948
            1799     12.2616E-03     102.918E-03         2.16616    -663.744E-03    -992.710E-03    -662.271E-03         2.16468    -992.710E-03    -127.444E-03     124.611E-03    -58.3230E-03    -66.3217E-03    -60.1203E-03     118.409E-03    -58.3230E-03     65.7559E-03     11.4920E+06    -55.7256E+06    -77.9011E+06    -5.28247E+06    -60.0725E+06    -56.7797E+06    -34.0890E+06         46.1288
            1800     13.2061E-03     102.986E-03         2.06666    -593.288E-03    -968.462E-03    -592.363E-03         2.06574    -968.462E-03    -96.8977E-03     129.645E-03    -58.2621E-03    -71.4164E-03    -59.6576E-03     117.886E-03    -58.2621E-03     93.6894E-03     9.06116E+06    -52.9415E+06    -89.8369E+06    -11.8115E+06    -33.5207E+06     -88.385E+06    -27.7201E+06         52.7777
            1801     14.1482E-03     103.075E-03         1.96836    -525.876E-03    -944.166E-03    -525.411E-03         1.96790    -944.166E-03    -61.7865E-03     151.543E-03    -58.2043E-03    -93.4187E-03    -61.2132E-03     119.337E-03    -58.2043E-03     160.738E-03     42.1830E+06    -28.5182E+06    -86.2049E+06    -16.5884E+06     30.2532E+06    -86.2049E+06    -15.6344E+06         60.9085
            1802     15.0939E-03     103.297E-03         1.86073    -456.067E-03    -921.201E-03    -455.884E-03         1.86055    -921.201E-03    -35.4856E-03     217.865E-03    -58.2956E-03    -159.716E-03    -65.2106E-03     123.360E-03    -58.2956E-03     322.885E-03     115.873E+06     28.0403E+06    -40.5508E+06    -16.6318E+06     115.251E+06     4.74296E+06    -5.82342E+06         69.0561
            1803     16.0546E-03     103.760E-03         1.74456    -383.446E-03    -899.166E-03    -383.209E-03         1.74433    -899.166E-03     9.15729E-03     284.431E-03    -58.1552E-03    -226.359E-03    -73.1232E-03     131.195E-03    -58.1552E-03     467.932E-03     179.665E+06     139.299E+06    -9.87833E+06    -9.82425E+06     179.577E+06     139.333E+06     754.973E+03         75.5914
            1804     947.089E-06     104.009E-03         2.93932        -1.19858        -1.23565        -1.19822         2.93895        -1.23565    -28.0802E-03     110.453E-03    -54.9335E-03    -55.5234E-03    -55.5147E-03     110.444E-03    -54.9335E-03     1.97833E-03     48.9259E+06     45.5730E+06    -60.9422E+06     47.1815E+06    -59.6043E+06     45.9795E+06    -9.74939E+06         28.4271
            1805     1.89223E-03     104.008E-03         2.90057        -1.18547        -1.21452        -1.18827         2.89987        -1.21102    -75.6579E-03     110.540E-03    -55.1329E-03    -55.4157E-03    -55.3010E-03     110.509E-03    -55.2166E-03     4.18145E-03     50.3758E+06     43.5907E+06     -49.989E+06     46.4282E+06    -46.0414E+06     43.5907E+06    -19.1853E+06         28.4822
            1806     2.83872E-03     104.003E-03         2.88669        -1.17519        -1.20981        -1.18234         2.88593        -1.20190    -80.7381E-03     110.167E-03    -54.9455E-03    -55.2329E-03    -54.9088E-03     110.081E-03    -55.1843E-03     7.03849E-03     52.5572E+06     39.1246E+06    -57.5628E+06     45.5588E+06    -50.5644E+06     39.1246E+06    -26.7316E+06         28.5812
            1807     3.78570E-03     103.999E-03         2.83763        -1.13478        -1.19626        -1.13865         2.83708        -1.19185    -84.4334E-03     110.138E-03    -54.9407E-03    -55.1938E-03    -54.8601E-03     109.959E-03    -55.0957E-03     10.3827E-03     54.9861E+06     34.5350E+06    -63.0126E+06     44.4799E+06    -52.5064E+06     34.5350E+06    -33.3978E+06         28.7416
            1808     4.73212E-03     103.994E-03         2.77397        -1.09265        -1.17659        -1.09168         2.77299        -1.17659    -117.431E-03     110.511E-03    -55.0954E-03    -55.4195E-03    -55.1047E-03     110.196E-03    -55.0954E-03     13.9162E-03     54.5254E+06     33.1857E+06    -73.1349E+06     42.1747E+06    -60.7842E+06     33.1857E+06    -37.5481E+06         28.9731
            1809     5.67804E-03     103.990E-03         2.74336        -1.08094        -1.16121        -1.07991         2.74233        -1.16121    -122.881E-03     110.784E-03    -55.1076E-03    -55.6800E-03    -55.1552E-03     110.259E-03    -55.1076E-03     18.1039E-03     52.8985E+06     27.6661E+06    -82.8077E+06     39.8176E+06    -69.7268E+06     27.6661E+06    -39.7423E+06         29.2998
            1810     6.62488E-03     103.987E-03         2.71182        -1.06478        -1.14830        -1.06344         2.71048        -1.14830    -138.037E-03     111.308E-03    -55.1180E-03    -56.1768E-03    -55.3662E-03     110.497E-03    -55.1180E-03     22.6725E-03     52.3779E+06     21.1832E+06    -85.0332E+06     38.3758E+06    -71.0311E+06     21.1832E+06    -41.3603E+06         29.8526
            1811     7.57023E-03     103.986E-03         2.63847        -1.01133        -1.13443        -1.00971         2.63684        -1.13443    -153.942E-03     112.348E-03    -55.2211E-03    -57.1219E-03    -55.9828E-03     111.208E-03    -55.2211E-03     27.1069E-03     49.3336E+06     18.7590E+06    -92.5857E+06     36.6929E+06    -79.9451E+06     18.7590E+06    -40.2573E+06         30.7966
            1812     8.51565E-03     103.987E-03         2.53975    -938.135E-03        -1.11669    -936.504E-03         2.53812        -1.11669    -148.432E-03     113.762E-03    -55.3415E-03    -58.4190E-03    -56.8065E-03     112.149E-03    -55.3415E-03     32.4835E-03     46.1114E+06     9.82812E+06    -91.1420E+06     34.8621E+06    -79.8928E+06     9.82812E+06    -37.5806E+06         32.2479
            1813     9.45970E-03     103.993E-03         2.44779    -867.416E-03        -1.09540    -865.901E-03         2.44627        -1.09540    -139.342E-03     115.488E-03    -55.5331E-03    -59.9565E-03    -57.7324E-03     113.264E-03    -55.5331E-03     38.6057E-03     42.0833E+06     2.95756E+06    -87.9570E+06     30.8156E+06    -76.6892E+06     2.95756E+06    -36.4384E+06         34.3575
            1814     10.4029E-03     104.003E-03         2.35444    -801.343E-03        -1.07187    -799.793E-03         2.35289        -1.07187    -138.661E-03     117.185E-03    -55.7481E-03    -61.4319E-03    -58.7277E-03     114.481E-03    -55.7481E-03     43.0461E-03     33.4861E+06    -14.0488E+06    -92.3239E+06     23.5572E+06    -82.3949E+06    -14.0488E+06    -33.5224E+06         37.2296
            1815     11.3459E-03     104.016E-03         2.25961    -735.202E-03        -1.04691    -733.453E-03         2.25787        -1.04691    -144.169E-03     119.853E-03    -56.0097E-03    -63.8587E-03    -59.8310E-03     115.825E-03    -56.0097E-03     52.8139E-03     24.3320E+06    -28.3416E+06    -81.6167E+06     15.7244E+06    -73.0091E+06    -28.3416E+06    -28.6004E+06         40.8770
            1816     12.2875E-03     104.045E-03         2.16812    -667.235E-03        -1.02101    -666.017E-03         2.16690        -1.02101    -115.761E-03     124.922E-03    -56.2830E-03    -68.6964E-03    -60.4395E-03     116.666E-03    -56.2830E-03     76.6836E-03     17.2620E+06    -41.1660E+06    -66.0022E+06     6.30072E+06    -55.0409E+06    -41.1660E+06    -27.2725E+06         45.7544
            1817     13.2293E-03     104.110E-03         2.06623    -599.918E-03    -994.561E-03    -599.214E-03         2.06552    -994.561E-03    -86.0749E-03     131.295E-03    -56.3871E-03    -74.9575E-03    -60.6111E-03     116.948E-03    -56.3871E-03     104.280E-03     8.05053E+06    -51.7888E+06    -81.2529E+06    -4.15352E+06    -42.3502E+06    -78.4874E+06    -24.1215E+06         52.4930
            1818     14.1728E-03     104.204E-03         1.95146    -524.029E-03    -967.733E-03    -523.506E-03         1.95094    -967.733E-03    -71.7273E-03     153.313E-03    -56.4448E-03    -96.9207E-03    -61.7296E-03     118.122E-03    -56.4448E-03     169.706E-03     38.4368E+06    -32.4975E+06    -85.6364E+06    -12.7389E+06     18.6782E+06    -85.6364E+06    -13.9788E+06         60.7524
            1819     15.1231E-03     104.418E-03         1.82481    -438.739E-03    -940.749E-03    -438.475E-03         1.82454    -940.749E-03    -44.0051E-03     220.573E-03    -56.6290E-03    -164.045E-03    -68.0826E-03     124.611E-03    -56.6290E-03     329.686E-03     111.548E+06     18.5776E+06    -42.1516E+06    -15.0963E+06     110.933E+06    -7.86260E+06    -6.24078E+06         69.0281
            1820     16.0690E-03     104.887E-03         1.69386    -360.887E-03    -913.175E-03    -360.797E-03         1.69377    -913.175E-03     5.23691E-03     284.842E-03    -56.6308E-03    -228.262E-03    -72.4531E-03     129.033E-03    -56.6308E-03     471.617E-03     175.171E+06     126.387E+06    -10.4375E+06    -10.3345E+06     173.058E+06     128.397E+06    -757.340E+03         75.6981
            1821     949.197E-06     105.123E-03         2.99732        -1.22854        -1.28024        -1.24587         2.99704        -1.26264     5.31743E-03     102.745E-03    -50.8851E-03    -51.8663E-03    -51.6516E-03     102.720E-03    -51.0752E-03     3.44337E-03     64.3869E+06     58.3243E+06    -37.8291E+06     62.0044E+06    -35.9157E+06     58.7934E+06    -12.4188E+06         27.7745
            1822     1.89994E-03     105.120E-03         2.95393        -1.21517        -1.25310        -1.22059         2.95379        -1.24753    -15.4500E-03     102.214E-03    -50.9447E-03    -51.2728E-03    -50.8977E-03     102.126E-03    -51.2315E-03     6.83229E-03     65.0923E+06     54.3398E+06    -30.1898E+06     60.5889E+06    -25.6864E+06     54.3398E+06    -19.8494E+06         27.8199
            1823     2.85044E-03     105.116E-03         2.89582        -1.18250        -1.23235        -1.18203         2.89535        -1.23235    -63.5471E-03     102.202E-03    -50.9288E-03    -51.2717E-03    -50.8958E-03     101.993E-03    -51.0959E-03     10.8225E-03     65.0034E+06     47.1423E+06    -38.5133E+06     57.1882E+06    -30.6981E+06     47.1423E+06    -27.0339E+06         27.9146
            1824     3.80082E-03     105.111E-03         2.85206        -1.16064        -1.21674        -1.15964         2.85106        -1.21674    -117.518E-03     102.372E-03    -50.9530E-03    -51.4143E-03    -50.9412E-03     101.969E-03    -51.0234E-03     15.2234E-03     63.3039E+06     36.6924E+06    -47.8553E+06     52.2054E+06    -36.7568E+06     36.6924E+06    -33.1093E+06         28.0690
            1825     4.75095E-03     105.107E-03         2.82495        -1.14813        -1.20378        -1.14650         2.82332        -1.20378    -158.996E-03     102.753E-03    -51.0333E-03    -51.7315E-03    -51.0447E-03     102.067E-03    -51.0333E-03     20.0032E-03     60.8735E+06     31.8215E+06    -61.7350E+06     48.1784E+06    -49.0399E+06     31.8215E+06    -37.1144E+06         28.2931
            1826     5.70123E-03     105.102E-03         2.77185        -1.10909        -1.19101        -1.10750         2.77026        -1.19101    -155.478E-03     103.655E-03    -51.0839E-03    -52.5566E-03    -51.4563E-03     102.554E-03    -51.0839E-03     25.4828E-03     59.5137E+06     26.3546E+06    -72.6807E+06     45.4539E+06    -58.6208E+06     26.3546E+06    -40.4785E+06         28.6443
            1827     6.65013E-03     105.100E-03         2.70792        -1.05872        -1.17554        -1.05707         2.70627        -1.17554    -155.418E-03     104.896E-03    -51.1627E-03    -53.6955E-03    -52.0593E-03     103.260E-03    -51.1627E-03     31.4079E-03     55.5411E+06     16.4486E+06    -78.7610E+06     41.3239E+06    -64.5438E+06     16.4486E+06    -41.2312E+06         29.2748
            1828     7.59944E-03     105.100E-03         2.64195        -1.01308        -1.15792        -1.01105         2.63991        -1.15792    -171.738E-03     106.538E-03    -51.3725E-03    -55.1798E-03    -52.9215E-03     104.280E-03    -51.3725E-03     37.2718E-03     49.8931E+06     13.8768E+06    -89.1285E+06     37.2147E+06    -76.4501E+06     13.8768E+06    -39.9809E+06         30.3264
            1829     8.54674E-03     105.103E-03         2.55491    -952.243E-03        -1.13840    -950.417E-03         2.55309        -1.13840    -158.277E-03     108.829E-03    -51.6233E-03    -57.2352E-03    -54.1454E-03     105.739E-03    -51.6233E-03     44.1314E-03     45.2645E+06     6.20216E+06    -89.9361E+06     33.7363E+06    -78.4079E+06     6.20216E+06    -37.7403E+06         31.8436
            1830     9.49351E-03     105.110E-03         2.45383    -881.839E-03        -1.11633    -880.426E-03         2.45242        -1.11633    -135.286E-03     111.603E-03    -51.9667E-03    -59.6438E-03    -55.5967E-03     107.556E-03    -51.9667E-03     51.3727E-03     39.3542E+06     1.89804E+06    -85.2286E+06     29.5965E+06    -75.4709E+06     1.89804E+06    -33.4119E+06         33.9295
            1831     10.4388E-03     105.123E-03         2.35130    -812.478E-03        -1.09202    -810.679E-03         2.34950        -1.09202    -147.055E-03     114.464E-03    -52.3913E-03    -62.0813E-03    -57.3403E-03     109.723E-03    -52.3913E-03     56.5429E-03     32.0463E+06    -6.92066E+06    -92.2456E+06     24.7699E+06    -84.9692E+06    -6.92066E+06    -28.9969E+06         36.7530
            1832     11.3819E-03     105.137E-03         2.24235    -732.356E-03        -1.06565    -730.339E-03         2.24033        -1.06565    -153.286E-03     118.413E-03    -52.8303E-03    -65.6282E-03    -59.1874E-03     111.972E-03    -52.8303E-03     66.8258E-03     24.0465E+06    -25.1745E+06    -81.9048E+06     18.3685E+06    -76.2267E+06    -25.1745E+06    -23.6042E+06         40.4124
            1833     12.3243E-03     105.171E-03         2.14068    -663.229E-03        -1.03784    -662.059E-03         2.13951        -1.03784    -112.723E-03     125.223E-03    -53.3644E-03    -71.9152E-03    -60.7658E-03     114.074E-03    -53.3644E-03     89.9698E-03     17.1703E+06    -28.1762E+06    -56.9300E+06     10.8436E+06    -50.6033E+06    -28.1762E+06    -20.2579E+06         45.3880
            1834     13.2662E-03     105.235E-03         2.04059    -599.950E-03        -1.00959    -599.105E-03         2.03974        -1.00959    -93.8098E-03     133.606E-03    -53.7624E-03    -79.8814E-03    -62.0851E-03     115.810E-03    -53.7624E-03     117.487E-03     7.17342E+06    -44.2564E+06    -72.6374E+06     973.691E+03    -49.5254E+06    -61.1686E+06    -16.7090E+06         52.2705
            1835     14.2079E-03     105.331E-03         1.92092    -517.568E-03    -980.542E-03    -516.956E-03         1.92031    -980.542E-03    -74.3982E-03     155.335E-03    -54.0329E-03    -101.330E-03    -63.0151E-03     117.020E-03    -54.0329E-03     179.578E-03     41.5460E+06    -37.9173E+06    -77.5095E+06    -9.43141E+06     13.0601E+06    -77.5095E+06    -8.95085E+06         60.6799
            1836     15.1522E-03     105.541E-03         1.79636    -434.611E-03    -950.193E-03    -434.372E-03         1.79612    -950.193E-03    -44.0627E-03     224.681E-03    -54.2466E-03    -170.459E-03    -68.8412E-03     123.064E-03    -54.2466E-03     342.103E-03     110.222E+06     6.90281E+06    -36.8791E+06    -13.9778E+06     110.000E+06    -15.7772E+06    -4.41080E+06         69.1050
            1837     16.1159E-03     106.020E-03         1.65633    -348.411E-03    -917.985E-03    -348.292E-03         1.65621    -917.985E-03    -4.11303E-03     283.380E-03    -54.4837E-03    -228.941E-03    -76.3826E-03     130.822E-03    -54.4837E-03     468.312E-03     171.704E+06     111.851E+06    -9.72518E+06    -9.65455E+06     166.524E+06      116.96E+06    -1.19148E+06         75.8967
            1838     954.924E-06     106.226E-03         2.97247        -1.23789        -1.26250        -1.26151         2.97223        -1.23863    -33.8197E-03     91.6582E-03    -45.4837E-03    -46.1810E-03    -45.8250E-03     91.6078E-03    -45.7892E-03     4.66550E-03     71.6459E+06     65.5538E+06    -14.7341E+06     68.9034E+06    -12.4606E+06     66.0229E+06    -12.6136E+06         26.9169
            1839     1.91074E-03     106.221E-03         2.95385        -1.23563        -1.25379        -1.24086         2.95351        -1.24822    -50.8353E-03     91.4471E-03    -45.5018E-03    -45.9453E-03    -45.5573E-03     91.2621E-03    -45.7047E-03     9.54504E-03     70.0175E+06     55.4627E+06    -9.53946E+06     64.3390E+06    -3.86091E+06     55.4627E+06    -20.1360E+06         26.9696
            1840     2.86621E-03     106.218E-03         2.90785        -1.21123        -1.24127        -1.21061         2.90722        -1.24127    -94.8263E-03     91.8999E-03    -45.6662E-03    -46.2218E-03    -45.7912E-03     91.4821E-03    -45.6791E-03     14.7040E-03     69.4787E+06     48.2244E+06    -22.1634E+06     60.3180E+06    -13.0027E+06     48.2244E+06    -27.3109E+06         27.0686
            1841     3.82061E-03     106.213E-03         2.87479        -1.19363        -1.23132        -1.19284         2.87399        -1.23132    -105.320E-03     92.3266E-03    -45.7109E-03    -46.6016E-03    -45.8136E-03     91.5385E-03    -45.7109E-03     20.2720E-03     68.5574E+06     40.3242E+06    -33.3764E+06     56.8528E+06    -21.6718E+06     40.3242E+06    -32.4286E+06         27.2234
            1842     4.77615E-03     106.208E-03         2.84133        -1.17433        -1.22163        -1.17314         2.84014        -1.22163    -129.556E-03     93.0818E-03    -45.7610E-03    -47.3412E-03    -46.0152E-03     91.7558E-03    -45.7610E-03     26.5391E-03     66.3102E+06     30.4054E+06    -49.9943E+06     52.8325E+06    -36.5166E+06     30.4054E+06    -37.1365E+06         27.4540
            1843     5.73073E-03     106.205E-03         2.77640        -1.12127        -1.20930        -1.11986         2.77499        -1.20930    -145.589E-03     94.5827E-03    -45.8729E-03    -48.7079E-03    -46.6678E-03     92.5426E-03    -45.8729E-03     33.3146E-03     60.8534E+06     21.7988E+06    -63.2709E+06     46.7052E+06    -49.1227E+06     21.7988E+06    -39.3838E+06         27.8574
            1844     6.68475E-03     106.204E-03         2.68868        -1.04561        -1.19133        -1.04389         2.68697        -1.19133    -157.338E-03     96.6866E-03    -46.0638E-03    -50.5951E-03    -47.6470E-03     93.7384E-03    -46.0638E-03     40.6068E-03     52.4128E+06     13.8149E+06    -73.6808E+06     39.5428E+06    -60.8107E+06     13.8149E+06    -37.9830E+06         28.5970
            1845     7.63688E-03     106.205E-03         2.61472    -993.930E-03        -1.16973    -991.667E-03         2.61246        -1.16973    -180.611E-03     99.2403E-03    -46.3734E-03    -52.8788E-03    -48.8904E-03     95.2519E-03    -46.3734E-03     47.9765E-03     42.0129E+06     6.94979E+06    -84.1578E+06     30.7625E+06    -72.9074E+06     6.94979E+06    -35.8847E+06         29.7529
            1846     8.58886E-03     106.211E-03         2.54144    -949.426E-03        -1.14756    -946.936E-03         2.53896        -1.14756    -185.784E-03     102.629E-03    -46.7939E-03    -55.8540E-03    -50.5767E-03     97.3519E-03    -46.7939E-03     56.2234E-03     31.0291E+06    -183.478E+03    -88.3861E+06     21.0636E+06    -78.4206E+06    -183.478E+03    -32.9232E+06         31.3253
            1847     9.53801E-03     106.221E-03         2.44149    -884.995E-03        -1.12448    -882.961E-03         2.43945        -1.12448    -161.696E-03     106.757E-03    -47.3070E-03    -59.4565E-03    -52.8276E-03     100.128E-03    -47.3070E-03     64.5046E-03     20.0427E+06    -6.30090E+06    -85.5613E+06     11.7213E+06    -77.2399E+06    -6.30090E+06    -28.3544E+06         33.4171
            1848     10.4854E-03     106.236E-03         2.33235    -816.155E-03        -1.09963    -814.003E-03         2.33020        -1.09963    -160.636E-03     111.176E-03    -47.9880E-03    -63.1855E-03    -55.6276E-03     103.618E-03    -47.9880E-03     70.5393E-03     12.0737E+06    -9.41009E+06    -92.0486E+06     4.94944E+06    -84.9243E+06    -9.41009E+06    -26.0413E+06         36.2166
            1849     11.4298E-03     106.255E-03         2.22553    -740.118E-03        -1.07297    -737.640E-03         2.22306        -1.07297    -170.731E-03     116.870E-03    -48.7149E-03    -68.1795E-03    -58.6171E-03     107.308E-03    -48.7149E-03     81.3272E-03     8.41073E+06    -25.2337E+06    -86.6642E+06     2.47830E+06    -80.7318E+06    -25.2337E+06    -22.6048E+06         39.9170
            1850     12.3720E-03     106.291E-03         2.10786    -658.200E-03        -1.04449    -656.640E-03         2.10630        -1.04449    -128.969E-03     125.536E-03    -49.5797E-03    -75.9903E-03    -61.3820E-03     110.928E-03    -49.5797E-03     103.798E-03     5.51704E+06    -24.3134E+06    -56.5541E+06    -555.939E+03    -51.7753E+06    -23.0192E+06    -15.7965E+06         45.0631
            1851     13.3135E-03     106.359E-03         1.98754    -577.661E-03        -1.01440    -576.201E-03         1.98608        -1.01440    -118.464E-03     135.885E-03    -50.3984E-03    -85.5072E-03    -64.2641E-03     114.641E-03    -50.3984E-03     130.083E-03    -2.03509E+06    -39.8813E+06    -65.8921E+06    -6.39591E+06    -55.4642E+06    -45.9484E+06    -10.9905E+06         52.1529
            1852     14.2521E-03     106.459E-03         1.86902    -495.560E-03    -982.736E-03    -494.481E-03         1.86794    -982.736E-03    -92.7443E-03     156.572E-03    -51.0311E-03    -105.577E-03    -65.2317E-03     116.226E-03    -51.0311E-03     186.506E-03     44.6823E+06    -41.6717E+06    -61.0886E+06    -11.1123E+06     11.8357E+06    -58.8014E+06    -5.42290E+06         60.7314
            1853     15.2025E-03     106.663E-03         1.74227    -419.512E-03    -949.049E-03    -419.274E-03         1.74204    -949.049E-03    -37.0637E-03     226.059E-03    -51.5899E-03    -174.527E-03    -73.0431E-03     124.576E-03    -51.5899E-03     345.552E-03     115.069E+06     7.42863E+06    -24.9733E+06    -14.8473E+06     114.711E+06    -2.33984E+06    -3.59064E+06         69.2888
            1854     16.1553E-03     107.148E-03         1.58578    -331.808E-03    -912.312E-03    -331.741E-03         1.58571    -912.312E-03    -8.59181E-03     282.083E-03    -52.4386E-03    -229.708E-03    -87.8865E-03     140.262E-03    -52.4386E-03     457.649E-03     170.420E+06     108.764E+06    -11.4773E+06    -11.3180E+06     161.212E+06     117.813E+06    -2.60563E+06         76.1534
            1855     962.446E-06     107.314E-03         2.93563        -1.23562        -1.25498        -1.24171         2.93546        -1.24872    -26.8066E-03     77.8607E-03    -38.6948E-03    -39.1688E-03    -38.9617E-03     77.7690E-03    -38.8102E-03     5.50946E-03     77.2747E+06     70.0370E+06     6.56081E+06     73.0715E+06     9.38560E+06     71.4154E+06    -10.2823E+06         25.8873
            1856     1.92368E-03     107.311E-03         2.91964        -1.23124        -1.24449        -1.23262         2.91924        -1.24271    -77.8020E-03     78.6193E-03    -38.9475E-03    -39.6719E-03    -39.3424E-03     78.2898E-03    -38.9475E-03     11.8799E-03     75.9346E+06     63.7032E+06     11.1503E+06     69.2988E+06     17.7862E+06     63.7032E+06    -19.4012E+06         25.9589
            1857     2.88449E-03     107.308E-03         2.90801        -1.23188        -1.24094        -1.23288         2.90722        -1.23916    -106.047E-03     79.1818E-03    -39.0957E-03    -40.0741E-03    -39.3566E-03     78.4642E-03    -39.0957E-03     17.9467E-03     73.3326E+06     53.2436E+06    -6.45572E+06     63.4429E+06     3.43393E+06     53.2436E+06    -26.1419E+06         26.0681
            1858     3.84669E-03     107.303E-03         2.86279        -1.20167        -1.23398        -1.20071         2.86183        -1.23398    -113.973E-03     80.0418E-03    -39.1615E-03    -40.8721E-03    -39.5316E-03     78.7013E-03    -39.1615E-03     24.7441E-03     69.8794E+06     36.9342E+06    -20.4709E+06     56.9221E+06    -7.51361E+06     36.9342E+06    -31.4960E+06         26.2332
            1859     4.80704E-03     107.298E-03         2.80564        -1.15442        -1.22292        -1.15360         2.80483        -1.22292    -108.065E-03     81.6827E-03    -39.3037E-03    -42.3911E-03    -40.1658E-03     79.4574E-03    -39.3037E-03     32.3736E-03     60.3182E+06     21.8361E+06    -39.5521E+06     47.3126E+06    -26.5464E+06     21.8361E+06    -33.4173E+06         26.5061
            1860     5.76707E-03     107.296E-03         2.75561        -1.11298        -1.20801        -1.11192         2.75455        -1.20801    -126.049E-03     83.8910E-03    -39.5319E-03    -44.3512E-03    -40.9916E-03     80.5315E-03    -39.5319E-03     40.3593E-03     46.3968E+06     7.72556E+06    -55.3978E+06     34.6582E+06    -43.6593E+06     7.72556E+06    -32.4691E+06         27.0113
            1861     6.72607E-03     107.296E-03         2.67616        -1.05295        -1.19013        -1.05141         2.67463        -1.19013    -150.394E-03     86.8671E-03    -39.8562E-03    -46.9972E-03    -42.2666E-03     82.1365E-03    -39.8562E-03     48.8505E-03     30.7247E+06    -2.69048E+06    -69.5406E+06     20.8031E+06    -59.6190E+06    -2.69048E+06     -29.727E+06         27.8718
            1862     7.68401E-03     107.300E-03         2.58206    -986.365E-03        -1.16874    -984.441E-03         2.58013        -1.16874    -164.928E-03     90.7589E-03    -40.3409E-03    -50.4168E-03    -44.1820E-03     84.5241E-03    -40.3409E-03     57.4847E-03     15.7518E+06    -8.62563E+06    -79.3768E+06     7.72669E+06    -71.3517E+06    -8.62563E+06    -26.4134E+06         29.1036
            1863     8.63891E-03     107.308E-03         2.49972    -932.112E-03        -1.14529    -929.492E-03         2.49710        -1.14529    -188.443E-03     95.6276E-03    -40.9893E-03    -54.6228E-03    -46.6528E-03     87.6576E-03    -40.9893E-03     66.8646E-03     4.66686E+06    -13.1408E+06    -85.7511E+06    -3.56918E+06    -79.0979E+06    -11.5580E+06    -23.2512E+06         30.7014
            1864     9.59243E-03     107.323E-03         2.40760    -875.249E-03        -1.12095    -872.564E-03         2.40492        -1.12095    -186.313E-03     101.391E-03    -41.7710E-03    -59.6056E-03    -49.8868E-03     91.6724E-03    -41.7710E-03     76.2979E-03    -4.23746E+06    -16.0713E+06    -84.3974E+06    -12.7608E+06    -79.0828E+06    -12.8625E+06    -19.4416E+06         32.8146
            1865     10.5416E-03     107.343E-03         2.30118    -808.053E-03        -1.09544    -805.369E-03         2.29849        -1.09544    -180.809E-03     107.542E-03    -42.7574E-03    -64.7839E-03    -54.0169E-03     96.7755E-03    -42.7574E-03     83.1240E-03    -7.65809E+06    -18.1327E+06    -85.9296E+06    -19.8467E+06    -78.9374E+06    -12.9363E+06    -21.2563E+06         35.6418
            1866     11.4874E-03     107.367E-03         2.19451    -735.645E-03        -1.06841    -733.194E-03         2.19205        -1.06841    -167.722E-03     115.221E-03    -43.8797E-03    -71.3425E-03    -58.5916E-03     102.470E-03    -43.8797E-03     93.8730E-03    -12.8981E+06    -28.3199E+06    -91.7288E+06    -24.2415E+06    -83.9558E+06    -24.7495E+06    -22.7218E+06         39.4379
            1867     12.4293E-03     107.409E-03         2.07112    -651.681E-03        -1.03949    -649.965E-03         2.06940        -1.03949    -136.327E-03     126.197E-03    -45.1789E-03    -81.0125E-03    -63.2651E-03     108.450E-03    -45.1789E-03     115.615E-03    -11.0194E+06    -25.7332E+06    -65.7831E+06    -23.8633E+06    -57.8125E+06    -20.8599E+06    -16.0851E+06         44.8202
            1868     13.3678E-03     107.484E-03         1.93231    -555.763E-03        -1.00814    -554.195E-03         1.93074        -1.00814    -120.939E-03     138.380E-03    -46.5405E-03    -91.8429E-03    -68.1377E-03     114.674E-03    -46.5405E-03     139.825E-03    -10.7607E+06    -38.1594E+06    -64.6357E+06    -21.2943E+06    -58.9755E+06    -33.2861E+06    -11.4507E+06         52.1649
            1869     14.3044E-03     107.588E-03         1.80161    -470.152E-03    -974.406E-03    -469.216E-03         1.80068    -974.406E-03    -84.0349E-03     158.176E-03    -47.8688E-03    -110.328E-03    -72.3693E-03     120.218E-03    -47.8688E-03     185.442E-03     44.3648E+06    -28.3035E+06    -52.4546E+06    -20.2567E+06     12.1669E+06    -28.3035E+06    -6.93838E+06         60.8965
            1870     15.2434E-03     107.782E-03         1.65524    -387.947E-03    -937.523E-03    -387.681E-03         1.65497    -937.523E-03    -38.5205E-03     227.909E-03    -49.2729E-03    -178.659E-03    -85.2610E-03     134.511E-03    -49.2729E-03     338.469E-03     120.446E+06     26.3178E+06    -19.1675E+06    -18.7417E+06     120.020E+06     26.3178E+06    -3.45345E+06         69.5386
            1871     16.1758E-03     108.296E-03         1.48753    -293.566E-03    -895.982E-03    -293.473E-03         1.48743    -895.982E-03    -18.6475E-03     283.912E-03    -51.0619E-03    -232.877E-03    -102.236E-03     153.270E-03    -51.0619E-03     448.786E-03     172.887E+06     113.532E+06    -11.8074E+06    -11.6098E+06     157.320E+06     128.901E+06    -3.50600E+06         76.4504
            1872     969.558E-06     108.387E-03         2.88478        -1.21986        -1.23977        -1.22300         2.88457        -1.23643    -34.8996E-03     62.8820E-03    -31.1687E-03    -31.7132E-03    -31.5634E-03     62.7321E-03    -31.1687E-03     6.43016E-03     72.6179E+06     62.9314E+06     27.7056E+06     67.4992E+06     31.4459E+06     64.3097E+06    -9.12063E+06         24.7381
            1873     1.93833E-03     108.385E-03         2.87664        -1.21626        -1.23319        -1.22115         2.87641        -1.22807    -57.7355E-03     63.6854E-03    -31.4265E-03    -32.2604E-03    -31.7625E-03     63.1875E-03    -31.4265E-03     13.2830E-03      68.542E+06     55.8247E+06     25.1725E+06     61.0033E+06     32.7113E+06     55.8247E+06    -15.9269E+06         24.8186
            1874     2.90720E-03     108.381E-03         2.85758        -1.21364        -1.22653        -1.21476         2.85691        -1.22475    -87.1676E-03     64.7584E-03    -31.5735E-03    -33.1812E-03    -32.0796E-03     63.6568E-03    -31.5735E-03     20.1232E-03     64.0484E+06     39.8754E+06     8.31336E+06     53.0580E+06     19.3038E+06     39.8754E+06    -21.5025E+06         24.9447
            1875     3.87482E-03     108.377E-03         2.81858        -1.18844        -1.21921        -1.18757         2.81771        -1.21921    -95.9185E-03     66.4813E-03    -31.7416E-03    -34.7352E-03    -32.7101E-03     64.4562E-03    -31.7416E-03     27.8060E-03     51.9436E+06     17.5519E+06    -9.38191E+06     39.6269E+06     2.93471E+06     17.5519E+06    -24.2424E+06         25.1481
            1876     4.84252E-03     108.374E-03         2.76207        -1.13889        -1.20830        -1.13803         2.76121        -1.20830    -105.397E-03     68.8861E-03    -32.0220E-03    -36.8545E-03    -33.5732E-03     65.6048E-03    -32.0220E-03     36.1594E-03     32.5864E+06    -2.31148E+06    -32.2955E+06     22.5706E+06    -22.2797E+06    -2.31148E+06    -23.2469E+06         25.5198
            1877     5.80870E-03     108.373E-03         2.68834        -1.08357        -1.19213        -1.08191         2.68668        -1.19213    -151.015E-03     72.1419E-03    -32.4109E-03    -39.7222E-03    -34.8515E-03     67.2712E-03    -32.4109E-03     45.1798E-03     12.4447E+06    -17.6393E+06    -49.9230E+06     5.39840E+06    -42.8767E+06    -17.6393E+06    -19.6916E+06         26.1726
            1878     6.77349E-03     108.376E-03         2.61704        -1.03611        -1.17303        -1.03422         2.61515        -1.17303    -163.007E-03     76.3281E-03    -32.9518E-03    -43.3781E-03    -36.6711E-03     69.6212E-03    -32.9518E-03     54.6453E-03    -5.81899E+06    -24.6967E+06    -64.9818E+06    -10.8325E+06    -59.9683E+06    -24.6967E+06    -16.2408E+06         27.1538
            1879     7.73592E-03     108.382E-03         2.53749    -984.643E-03        -1.15246    -982.983E-03         2.53583        -1.15246    -152.283E-03     81.6246E-03    -33.6836E-03    -47.9297E-03    -39.2632E-03     72.9581E-03    -33.6836E-03     64.3695E-03    -15.5055E+06    -28.2838E+06    -75.3428E+06    -23.9891E+06    -70.9992E+06    -24.1437E+06    -14.7528E+06         28.4528
            1880     8.69605E-03     108.395E-03         2.44702    -920.311E-03        -1.12998    -918.015E-03         2.44472        -1.12998    -174.661E-03     88.2261E-03    -34.6062E-03    -53.6032E-03    -42.8375E-03     77.4604E-03    -34.6062E-03     74.8221E-03    -16.6281E+06    -32.0890E+06    -83.6301E+06    -32.4245E+06    -79.8748E+06    -20.0478E+06    -13.7287E+06         30.0671
            1881     9.65170E-03     108.414E-03         2.35372    -859.230E-03        -1.10559    -856.234E-03         2.35072        -1.10559    -195.140E-03     95.9051E-03    -35.7282E-03    -60.1658E-03    -47.4075E-03     83.1469E-03    -35.7282E-03     85.3097E-03    -14.7078E+06    -28.6871E+06    -81.8698E+06    -34.4860E+06    -76.0710E+06    -14.7078E+06    -15.0396E+06         32.2031
            1882     10.6038E-03     108.443E-03         2.24193    -788.063E-03        -1.07957    -784.744E-03         2.23861        -1.07957    -200.126E-03     103.943E-03    -37.1153E-03    -66.8174E-03    -53.1168E-03     90.2427E-03    -37.1153E-03     92.6135E-03    -8.57878E+06    -26.6238E+06    -80.7058E+06    -33.7304E+06    -73.5992E+06    -8.57878E+06    -16.6956E+06         35.1077
            1883     11.5490E-03     108.473E-03         2.11996    -703.399E-03        -1.05137    -701.015E-03         2.11758        -1.05137    -161.141E-03     114.015E-03    -38.7334E-03    -75.2730E-03    -59.8569E-03     98.5987E-03    -38.7334E-03     103.432E-03    -12.8317E+06    -28.8699E+06    -89.0045E+06    -35.7098E+06    -81.8829E+06    -13.1135E+06    -18.5944E+06         39.0532
            1884     12.4890E-03     108.525E-03         1.99912    -626.513E-03        -1.02104    -624.635E-03         1.99724        -1.02104    -138.254E-03     127.512E-03    -40.5763E-03    -86.9280E-03    -67.0723E-03     107.656E-03    -40.5763E-03     124.187E-03    -12.1949E+06    -24.6469E+06    -72.2774E+06    -35.6574E+06     -60.985E+06    -12.4767E+06    -19.0799E+06         44.6974
            1885     13.4241E-03     108.609E-03         1.86586    -540.656E-03    -988.742E-03    -539.132E-03         1.86434    -988.742E-03    -115.798E-03     142.776E-03    -42.6163E-03    -100.148E-03    -75.7917E-03     118.420E-03    -42.6163E-03     145.874E-03    -13.8372E+06    -33.1036E+06    -72.4764E+06    -31.5282E+06    -63.1660E+06    -24.7231E+06    -15.9990E+06         52.2927
            1886     14.3512E-03     108.722E-03         1.72463    -450.871E-03    -954.044E-03    -450.298E-03         1.72406    -954.044E-03    -68.5819E-03     165.888E-03    -44.9700E-03    -120.907E-03    -86.7579E-03     131.739E-03    -44.9700E-03     184.988E-03     42.9128E+06    -5.51897E+06    -55.7491E+06    -26.0375E+06     13.2012E+06    -5.51897E+06    -11.3174E+06         61.1266
            1887     15.2673E-03     108.926E-03         1.57310    -363.061E-03    -914.978E-03    -362.592E-03         1.57263    -914.978E-03    -58.0821E-03     232.440E-03    -47.4842E-03    -184.947E-03    -101.406E-03     148.899E-03    -47.4842E-03     328.947E-03     119.623E+06     37.9616E+06    -19.4638E+06    -18.8448E+06     119.004E+06     37.9616E+06    -7.18810E+06         69.8074
            1888     16.1909E-03     109.441E-03         1.39779    -258.992E-03    -869.483E-03    -258.631E-03         1.39743    -869.483E-03    -46.0611E-03     286.283E-03    -50.2281E-03    -236.080E-03    -113.567E-03     163.771E-03    -50.2281E-03     442.437E-03     173.984E+06     109.162E+06    -9.17764E+06    -8.78419E+06     152.884E+06     129.868E+06    -3.44558E+06         76.7541
            1889     976.670E-06     109.444E-03         2.82697        -1.19410        -1.22121        -1.19711         2.82663        -1.21786    -68.5386E-03     47.4743E-03    -23.5417E-03    -23.9325E-03    -23.7207E-03     47.2625E-03    -23.5417E-03     7.09315E-03     64.4549E+06     49.3875E+06     36.2054E+06     52.9697E+06     47.5798E+06     49.4983E+06    -7.07364E+06         23.5582
            1890     1.95363E-03     109.442E-03         2.80044        -1.18337        -1.20667        -1.18637         2.80009        -1.20333    -64.3534E-03     48.1229E-03    -23.6220E-03    -24.5005E-03    -23.8282E-03     47.4506E-03    -23.6220E-03     13.3721E-03     58.0807E+06     39.0835E+06     26.2056E+06     44.9030E+06     44.9070E+06     33.5597E+06    -11.0667E+06         23.6492
            1891     2.93034E-03     109.439E-03         2.76130        -1.16200        -1.19381        -1.16145         2.76076        -1.19381    -80.8134E-03     49.8674E-03    -23.7791E-03    -26.0865E-03    -24.6075E-03     48.3885E-03    -23.7791E-03     20.5405E-03     43.6649E+06     21.1396E+06     10.2184E+06     31.5218E+06     27.5998E+06     15.9013E+06    -12.6301E+06         23.8095
            1892     3.90554E-03     109.436E-03         2.74032        -1.15499        -1.18477        -1.15467         2.73999        -1.18477    -58.1951E-03     52.4410E-03    -24.1021E-03    -28.3373E-03    -25.6755E-03     49.7792E-03    -24.1021E-03     28.4418E-03     22.1452E+06     2.16297E+06    -8.49372E+06     13.6874E+06     5.37856E+06    -3.25151E+06    -10.4757E+06         24.0958
            1893     4.87928E-03     109.434E-03         2.69928        -1.12656        -1.17605        -1.12587         2.69858        -1.17605    -90.2422E-03     55.7866E-03    -24.5569E-03    -31.2240E-03    -26.9485E-03     51.5111E-03    -24.5569E-03     37.2305E-03    -1.43532E+06    -18.2797E+06    -28.7835E+06    -5.44167E+06    -22.4946E+06    -20.5623E+06    -7.30324E+06         24.6059
            1894     5.85201E-03     109.436E-03         2.61426        -1.06226        -1.16250        -1.06059         2.61259        -1.16250    -151.928E-03     60.1616E-03    -25.1547E-03    -35.0131E-03    -28.7645E-03     53.9130E-03    -25.1547E-03     46.8138E-03    -20.2549E+06    -32.9251E+06    -48.7336E+06    -23.6138E+06    -45.9148E+06    -32.3850E+06    -3.94383E+06         25.4002
            1895     6.82224E-03     109.441E-03         2.53218        -1.00366        -1.14374        -1.00182         2.53034        -1.14374    -157.425E-03     65.7121E-03    -25.9325E-03    -39.7851E-03    -31.2942E-03     57.2211E-03    -25.9325E-03     57.1125E-03    -30.3342E+06    -40.0580E+06    -61.6605E+06    -37.5936E+06    -59.8438E+06    -34.6154E+06    -2.46145E+06         26.4851
            1896     7.78988E-03     109.453E-03         2.46368    -961.329E-03        -1.12312    -959.268E-03         2.46162        -1.12312    -165.397E-03     72.4913E-03    -26.9245E-03    -45.5505E-03    -34.7246E-03     61.6654E-03    -26.9245E-03     67.9207E-03    -28.2459E+06    -45.6209E+06    -70.7619E+06    -46.6147E+06    -69.5329E+06    -28.4811E+06    -3.49766E+06         27.8513
            1897     8.75360E-03     109.470E-03         2.37513    -901.978E-03        -1.10128    -899.638E-03         2.37279        -1.10128    -173.818E-03     80.8996E-03    -28.1531E-03    -52.7293E-03    -39.4655E-03     67.6359E-03    -28.1531E-03     79.7356E-03    -19.4040E+06    -46.0904E+06    -79.6855E+06    -50.3555E+06    -75.4205E+06    -19.4040E+06    -8.41551E+06         29.5109
            1898     9.71265E-03     109.498E-03         2.26744    -825.391E-03        -1.07679    -822.824E-03         2.26487        -1.07679    -176.651E-03     90.6608E-03    -29.6410E-03    -61.0245E-03    -45.6213E-03     75.2576E-03    -29.6410E-03     91.5059E-03    -11.7374E+06    -40.7256E+06    -77.6234E+06    -49.5938E+06    -68.7552E+06    -11.7374E+06    -14.3650E+06         31.7093
            1899     10.6647E-03     109.534E-03         2.15245    -752.378E-03        -1.04970    -749.538E-03         2.14961        -1.04970    -180.298E-03     100.828E-03    -31.4654E-03    -69.3699E-03    -53.1517E-03     84.6096E-03    -31.4654E-03     99.8145E-03    -6.27139E+06    -38.3185E+06    -82.4478E+06    -46.8750E+06    -73.8913E+06    -6.27139E+06    -15.6976E+06         34.7164
            1900     11.6106E-03     109.577E-03         2.02547    -669.914E-03        -1.02044    -668.046E-03         2.02360        -1.02044    -137.406E-03     113.775E-03    -33.6118E-03    -80.1493E-03    -62.4343E-03     96.0598E-03    -33.6118E-03     111.695E-03    -6.31800E+06    -33.5956E+06    -83.6596E+06    -42.4545E+06    -74.8007E+06    -6.31800E+06    -17.4450E+06         38.8249
            1901     12.5468E-03     109.641E-03         1.90492    -593.172E-03    -989.077E-03    -591.586E-03         1.90333    -989.077E-03    -121.543E-03     130.981E-03    -36.1259E-03    -94.8364E-03    -73.6648E-03     109.809E-03    -36.1259E-03     131.618E-03     -5.4593E+06    -24.3213E+06    -71.5161E+06    -38.0980E+06    -57.7394E+06     -5.4593E+06    -21.0185E+06         44.7052
            1902     13.4745E-03     109.738E-03         1.78755    -521.424E-03    -956.051E-03    -519.926E-03         1.78605    -956.051E-03    -114.249E-03     151.403E-03    -39.0537E-03    -112.318E-03    -87.8951E-03     126.981E-03    -39.0537E-03     152.840E-03    -12.5918E+06    -30.2243E+06    -78.2008E+06    -33.5049E+06    -66.3804E+06    -21.1317E+06    -21.5944E+06         52.4887
            1903     14.3867E-03     109.874E-03         1.64554    -432.763E-03    -920.717E-03    -432.050E-03         1.64483    -920.717E-03    -76.5987E-03     178.431E-03    -42.5443E-03    -135.854E-03    -103.834E-03     146.410E-03    -42.5443E-03     189.692E-03     42.3158E+06     1.04535E+06    -57.2038E+06    -26.7797E+06     11.8917E+06     1.04535E+06    -17.7806E+06         61.3649
            1904     15.2880E-03     110.094E-03         1.49108    -340.540E-03    -879.783E-03    -340.073E-03         1.49061    -879.783E-03    -50.5327E-03     237.258E-03    -46.2277E-03    -191.015E-03    -117.507E-03     163.750E-03    -46.2277E-03     317.381E-03     114.723E+06     38.5644E+06    -19.7360E+06    -18.2739E+06     113.261E+06     38.5644E+06    -11.6668E+06         70.0357
            1905     16.1893E-03     110.587E-03         1.33502    -254.479E-03    -830.758E-03    -254.199E-03         1.33474    -830.758E-03    -26.2635E-03     285.349E-03    -49.8165E-03    -235.641E-03    -120.774E-03     170.483E-03    -49.8165E-03     431.641E-03     169.631E+06     102.199E+06    -11.8193E+06    -11.1421E+06     144.950E+06     126.203E+06    -7.08640E+06         76.9784
            1906     984.277E-06     110.485E-03         2.71002        -1.15058        -1.17496        -1.15351         2.70922        -1.17123     20.4106E-03     32.4993E-03    -15.9752E-03    -16.5247E-03    -16.2550E-03     32.2296E-03    -15.9752E-03     6.71592E-03     61.2116E+06     32.3793E+06     24.2899E+06     32.9033E+06       56.51E+06     28.4674E+06    -2.98831E+06         22.4600
            1907     1.96878E-03     110.482E-03         2.70901        -1.14450        -1.16773        -1.15154         2.70863        -1.16031    -52.8625E-03     33.8124E-03    -16.1991E-03    -17.6129E-03    -16.7963E-03     32.9958E-03    -16.1991E-03     12.4349E-03     52.9473E+06     18.7904E+06     10.8632E+06     21.0167E+06     50.7211E+06     10.8632E+06    -3.58138E+06         22.5822
            1908     2.95155E-03     110.481E-03         2.68290        -1.12676        -1.15778        -1.12950         2.68194        -1.15409    -117.914E-03     35.9494E-03    -16.5276E-03    -19.4189E-03    -17.6762E-03     34.2067E-03    -16.5276E-03     18.9914E-03     28.9425E+06     1.01613E+06    -5.99499E+06     4.27643E+06     25.4892E+06    -5.80198E+06     934.708E+03         22.8004
            1909     3.93390E-03     110.479E-03         2.62442        -1.08851        -1.14310        -1.08760         2.62351        -1.14310    -110.952E-03     39.0028E-03    -16.9709E-03    -22.0345E-03    -18.9420E-03     35.9102E-03    -16.9709E-03     26.4604E-03     5.10576E+06    -17.3110E+06    -25.8122E+06    -15.1480E+06    -143.969E+03    -22.7255E+06     6.96789E+06         23.1916
            1910     4.91452E-03     110.481E-03         2.56497        -1.05164        -1.12838        -1.05097         2.56430        -1.12838    -92.7095E-03     43.3060E-03    -17.5807E-03    -25.7245E-03    -20.7929E-03     38.3745E-03    -17.5807E-03     35.2946E-03    -17.4032E+06    -32.3985E+06    -46.4346E+06    -34.6129E+06    -26.9424E+06    -34.6810E+06     11.2867E+06         23.8269
            1911     5.89258E-03     110.484E-03         2.52969        -1.03898        -1.11408        -1.03813         2.52884        -1.11408    -107.214E-03     48.7194E-03    -18.3801E-03    -30.3441E-03    -23.1296E-03     41.5049E-03    -18.3801E-03     45.3136E-03    -33.2652E+06    -40.8960E+06    -61.8567E+06    -49.0237E+06    -47.3833E+06    -39.6110E+06     10.9440E+06         24.7269
            1912     6.86843E-03     110.495E-03         2.46179    -995.241E-03        -1.09974    -994.044E-03         2.46060        -1.09974    -127.442E-03     55.4493E-03    -19.3611E-03    -36.0906E-03    -26.2531E-03     45.6118E-03    -19.3611E-03     56.5134E-03    -37.1949E+06    -47.7087E+06    -66.7608E+06    -56.2977E+06    -58.1717E+06    -37.1949E+06     7.65886E+06         25.8922
            1913     7.84053E-03     110.511E-03         2.36152    -919.600E-03        -1.08130    -917.852E-03         2.35978        -1.08130    -146.553E-03     63.7891E-03    -20.5785E-03    -43.1962E-03    -30.6611E-03     51.2540E-03    -20.5785E-03     68.6748E-03    -27.9883E+06    -54.0988E+06    -68.4543E+06    -57.4801E+06    -65.0731E+06    -27.9883E+06     2.40932E+06         27.3193
            1914     8.80799E-03     110.537E-03         2.26181    -848.991E-03        -1.05835    -847.042E-03         2.25986        -1.05835    -151.715E-03     74.0383E-03    -22.0951E-03    -51.9252E-03    -36.5591E-03     58.6722E-03    -22.0951E-03     82.3309E-03    -15.1578E+06    -50.2555E+06    -69.1401E+06    -55.0394E+06    -64.3563E+06    -15.1578E+06    -6.14646E+06         29.0489
            1915     9.76916E-03     110.573E-03         2.15656    -778.009E-03        -1.03240    -776.175E-03         2.15473        -1.03240    -146.167E-03     85.8380E-03    -23.9302E-03    -61.9172E-03    -44.1751E-03     68.0959E-03    -23.9302E-03     95.9550E-03    -7.09697E+06    -45.3937E+06    -71.8168E+06    -53.0872E+06    -64.1233E+06    -7.09697E+06    -11.5661E+06         31.3547
            1916     10.7232E-03     110.622E-03         2.05325    -710.929E-03        -1.00444    -708.802E-03         2.05112        -1.00444    -151.841E-03     98.5491E-03    -26.1605E-03    -72.4140E-03    -53.8274E-03     79.9626E-03    -26.1605E-03     106.292E-03    -4.40322E+06    -42.0279E+06    -78.7381E+06    -50.8836E+06    -69.8823E+06    -4.40322E+06    -15.3710E+06         34.4910
            1917     11.6666E-03     110.678E-03         1.93865    -643.659E-03    -975.032E-03    -641.863E-03         1.93686    -975.032E-03    -132.412E-03     115.224E-03    -28.8492E-03    -86.3589E-03    -66.2446E-03     95.1099E-03    -28.8492E-03     120.795E-03    -4.98689E+06    -33.9984E+06    -80.2207E+06    -46.4531E+06    -67.7660E+06    -4.98689E+06    -20.3407E+06         38.7555
            1918     12.5993E-03     110.761E-03         1.80908    -564.544E-03    -943.679E-03    -563.372E-03         1.80791    -943.679E-03    -103.947E-03     137.850E-03    -32.1168E-03    -105.701E-03    -82.5804E-03     114.730E-03    -32.1168E-03     142.746E-03    -2.51069E+06    -20.7508E+06    -71.7209E+06    -41.2166E+06    -51.2550E+06    -2.51069E+06    -23.6031E+06         44.8158
            1919     13.5146E-03     110.879E-03         1.68160    -489.172E-03    -909.962E-03    -488.184E-03         1.68061    -909.962E-03    -92.2801E-03     164.008E-03    -36.0283E-03    -127.966E-03    -102.113E-03     138.155E-03    -36.0283E-03     165.855E-03    -7.14907E+06    -23.9396E+06    -83.9321E+06    -35.6522E+06    -62.2014E+06    -17.1672E+06    -29.2190E+06         52.7031
            1920     14.4139E-03     111.042E-03         1.54466    -408.195E-03    -873.455E-03    -407.491E-03         1.54396    -873.455E-03    -73.8686E-03     193.088E-03    -40.5891E-03    -152.483E-03    -120.241E-03     160.846E-03    -40.5891E-03     200.827E-03     38.2829E+06    -1.19242E+06    -64.7515E+06    -28.0839E+06     1.61533E+06    -1.19242E+06    -25.6468E+06         61.5529
            1921     15.2978E-03     111.279E-03         1.38951    -310.195E-03    -830.786E-03    -309.753E-03         1.38907    -830.786E-03    -46.7619E-03     243.673E-03    -45.3290E-03    -198.336E-03    -131.780E-03     177.117E-03    -45.3290E-03     311.205E-03     106.471E+06     41.2422E+06    -23.4590E+06    -20.9968E+06     104.009E+06     41.2422E+06    -16.0096E+06         70.1532
            1922     16.1888E-03     111.752E-03         1.23326    -219.162E-03    -779.335E-03    -218.952E-03         1.23305    -779.335E-03    -20.2836E-03     280.690E-03    -49.6003E-03    -231.172E-03    -125.015E-03     174.533E-03    -49.6003E-03     414.211E-03     165.552E+06     103.266E+06    -13.0496E+06    -11.7329E+06     137.720E+06     129.781E+06    -10.3692E+06         77.0320
            1923     991.614E-06     111.509E-03         2.59877        -1.09901        -1.11931        -1.10129         2.59732        -1.11559    -21.9223E-03     19.8003E-03    -9.54810E-03    -10.2525E-03    -9.95511E-03     19.5029E-03    -9.54810E-03     5.54542E-03     56.8068E+06     6.09066E+06    -3.54050E+06     1.25888E+06     56.0301E+06     2.06800E+06     1.79359E+06         21.5433
            1924     1.98073E-03     111.509E-03         2.59398        -1.09270        -1.11416        -1.09959         2.59345        -1.10675    -66.8723E-03     21.7245E-03    -9.98387E-03    -11.7411E-03    -10.8847E-03     20.8680E-03    -9.98387E-03     10.2963E-03     45.9221E+06    -6.70255E+06    -16.5685E+06    -11.0409E+06     42.7981E+06    -9.10606E+06     10.5131E+06         21.6990
            1925     2.97003E-03     111.508E-03         2.56401        -1.07419        -1.10470        -1.07727         2.56340        -1.10101    -81.2815E-03     24.1421E-03    -10.4587E-03    -13.6839E-03    -11.8805E-03     22.3387E-03    -10.4587E-03     15.8864E-03     22.9228E+06    -23.7405E+06    -37.7512E+06    -28.4829E+06     15.2344E+06    -25.3203E+06     18.6009E+06         21.9801
            1926     3.95769E-03     111.510E-03         2.48973        -1.01998        -1.08833        -1.01921         2.48896        -1.08833    -91.5975E-03     27.6077E-03    -11.0128E-03    -16.5964E-03    -13.3498E-03     24.3612E-03    -11.0128E-03     22.8654E-03     2.70235E+06    -38.2488E+06    -57.1606E+06    -43.7464E+06    -10.7119E+06    -38.2488E+06     24.6548E+06         22.4617
            1927     4.94363E-03     111.513E-03         2.42154    -975.778E-03        -1.06999    -975.133E-03         2.42090        -1.06999    -91.7121E-03     32.3432E-03    -11.7290E-03    -20.6187E-03    -15.4216E-03     27.1461E-03    -11.7290E-03     31.3377E-03    -14.6467E+06    -44.0724E+06     -71.896E+06    -54.7333E+06    -31.8095E+06    -44.0724E+06     26.1035E+06         23.1846
            1928     5.92723E-03     111.521E-03         2.39466    -977.871E-03        -1.05366    -977.107E-03         2.39389        -1.05366    -98.6480E-03     38.4166E-03    -12.6350E-03    -25.7928E-03    -18.1023E-03     30.7261E-03    -12.6350E-03     41.5438E-03    -29.4665E+06    -42.7837E+06    -75.7941E+06    -60.6023E+06    -45.4033E+06    -42.0387E+06     21.3912E+06         24.1578
            1929     6.90774E-03     111.536E-03         2.34634    -952.713E-03        -1.04007    -951.468E-03         2.34509        -1.04007    -127.041E-03     46.1679E-03    -13.7412E-03    -32.4416E-03    -21.7678E-03     35.4941E-03    -13.7412E-03     53.7381E-03    -32.9993E+06    -45.5855E+06    -71.9263E+06    -62.3079E+06    -53.5535E+06    -34.6498E+06     13.0853E+06         25.3842
            1930     7.88448E-03     111.559E-03         2.23835    -869.976E-03        -1.02273    -868.831E-03         2.23721        -1.02273    -118.076E-03     55.7399E-03    -15.1020E-03    -40.6432E-03    -26.8048E-03     41.9015E-03    -15.1020E-03     67.4919E-03    -24.5773E+06    -49.9185E+06    -66.1866E+06    -60.3531E+06    -55.7521E+06    -24.5773E+06     3.14390E+06         26.8621
            1931     8.85537E-03     111.592E-03         2.13112    -792.006E-03    -999.576E-03    -790.926E-03         2.13004    -999.576E-03    -111.095E-03     67.6119E-03    -16.7896E-03    -50.8072E-03    -33.5612E-03     50.3658E-03    -16.7896E-03     83.4375E-03    -13.0095E+06    -47.6573E+06    -63.0222E+06    -56.3283E+06    -54.3511E+06    -13.0095E+06    -5.33398E+06         28.6640
            1932     9.81960E-03     111.641E-03         2.04621    -739.315E-03    -973.655E-03    -737.827E-03         2.04473    -973.655E-03    -127.738E-03     81.6762E-03    -18.8771E-03    -62.7967E-03    -42.6264E-03     61.5059E-03    -18.8771E-03     100.019E-03    -4.27546E+06    -42.3401E+06    -68.0581E+06    -50.4562E+06    -59.9420E+06    -4.27546E+06    -11.2739E+06         31.0972
            1933     10.7741E-03     111.702E-03         1.94778    -677.245E-03    -946.479E-03    -674.827E-03         1.94536    -946.479E-03    -156.302E-03     97.3749E-03    -21.4545E-03    -75.9238E-03    -54.5257E-03     75.9768E-03    -21.4545E-03     113.817E-03     1.64547E+06    -31.5412E+06    -71.4041E+06    -42.3100E+06    -60.6352E+06     1.64547E+06    -17.3998E+06         34.3945
            1934     11.7173E-03     111.777E-03         1.82987    -604.106E-03    -917.279E-03    -601.805E-03         1.82757    -917.279E-03    -147.020E-03     118.716E-03    -24.6487E-03    -94.0485E-03    -70.5679E-03     95.2352E-03    -24.6487E-03     133.240E-03     2.22564E+06    -22.8831E+06    -74.4718E+06    -35.3902E+06    -61.9647E+06     2.22564E+06    -21.7283E+06         38.8129
            1935     12.6435E-03     111.884E-03         1.70076    -529.020E-03    -885.375E-03    -527.614E-03         1.69935    -885.375E-03    -111.423E-03     147.175E-03    -28.5864E-03    -118.592E-03    -91.3339E-03     119.917E-03    -28.5864E-03     161.139E-03     2.81980E+06    -10.5068E+06    -66.1208E+06    -31.9830E+06    -44.2887E+06     2.46379E+06    -24.4859E+06         44.9896
            1936     13.5509E-03     112.034E-03         1.56491    -447.170E-03    -850.453E-03    -446.067E-03         1.56381    -850.453E-03    -93.2279E-03     178.378E-03    -33.3258E-03    -145.053E-03    -114.482E-03     147.807E-03    -33.3258E-03     189.077E-03    -2.47507E+06    -11.1643E+06    -75.3776E+06    -30.9453E+06    -49.3885E+06    -8.68320E+06    -31.3118E+06         52.9046
            1937     14.4368E-03     112.224E-03         1.43282    -369.091E-03    -812.244E-03    -368.215E-03         1.43195    -812.244E-03    -78.9766E-03     209.960E-03    -38.7637E-03    -171.178E-03    -134.983E-03     173.765E-03    -38.7637E-03     223.356E-03     30.8375E+06     424.555E+03    -66.7771E+06    -27.0911E+06    -8.84852E+06     424.555E+03    -32.7428E+06         61.6612
            1938     15.3133E-03     112.481E-03         1.29338    -291.230E-03    -768.437E-03    -290.466E-03         1.29261    -768.437E-03    -69.0213E-03     252.334E-03    -44.3507E-03    -208.009E-03    -144.338E-03     188.663E-03    -44.3507E-03     314.041E-03     96.9327E+06     45.2560E+06    -25.8758E+06    -18.7822E+06     89.8391E+06     45.2560E+06    -20.7572E+06         70.1107
            1939     16.1916E-03     112.934E-03         1.12891    -201.677E-03    -716.962E-03    -201.299E-03         1.12853    -716.962E-03    -36.5435E-03     273.878E-03    -49.2221E-03    -224.693E-03    -129.785E-03     178.969E-03    -49.2221E-03     390.389E-03     160.174E+06     104.554E+06    -12.3651E+06    -10.6990E+06     130.004E+06     133.058E+06    -11.1053E+06         76.8387
            1940     994.874E-06     112.524E-03         2.47592        -1.02312        -1.07610        -1.02196         2.47476        -1.07610    -38.1131E-03     11.0329E-03    -5.35628E-03    -5.67611E-03    -5.44021E-03     10.7980E-03    -5.35724E-03     3.67436E-03     43.1132E+06    -34.2856E+06    -43.7199E+06    -39.5648E+06     41.0631E+06    -36.3906E+06     8.57227E+06         20.8673
            1941     1.99015E-03     112.524E-03         2.41294        -1.00478        -1.03997        -1.00402         2.41218        -1.03997    -20.1570E-03     12.4504E-03    -5.59852E-03    -6.85050E-03    -6.11551E-03     11.7164E-03    -5.59948E-03     7.21848E-03     30.5406E+06    -37.4030E+06    -56.3525E+06    -46.4347E+06     20.6227E+06    -37.4030E+06     25.6301E+06         21.0354
            1942     2.98315E-03     112.526E-03         2.37903    -983.999E-03        -1.02407    -983.412E-03         2.37844        -1.02407    -61.7821E-03     15.1151E-03    -6.04545E-03    -9.07118E-03    -7.42138E-03     13.4653E-03    -6.04545E-03     12.0538E-03     17.1213E+06    -37.9098E+06    -72.7082E+06    -54.5823E+06    -1.00462E+06    -37.9098E+06     35.5885E+06         21.3585
            1943     3.97522E-03     112.529E-03         2.35665    -973.198E-03        -1.01206    -972.345E-03         2.35580        -1.01206    -91.8859E-03     18.8480E-03    -6.63818E-03    -12.2081E-03    -9.10465E-03     15.7445E-03    -6.63818E-03     18.4978E-03     1.63802E+06    -42.8835E+06    -83.2392E+06    -60.9565E+06    -20.6447E+06    -42.8835E+06     37.1046E+06         21.8960
            1944     4.96526E-03     112.536E-03         2.31291    -945.298E-03        -1.00097    -944.627E-03         2.31224        -1.00097    -92.1105E-03     23.5872E-03    -7.36301E-03    -16.2199E-03    -11.0839E-03     18.4512E-03    -7.36301E-03     26.5723E-03    -12.3816E+06    -45.7691E+06    -86.0619E+06    -63.5949E+06    -34.8486E+06    -45.7691E+06     33.7828E+06         22.6717
            1945     5.95334E-03     112.547E-03         2.23777    -891.428E-03    -986.516E-03    -890.789E-03         2.23714    -986.516E-03    -87.0487E-03     29.9140E-03    -8.25153E-03    -21.6660E-03    -13.8117E-03     22.0598E-03    -8.25153E-03     36.9533E-03    -23.4129E+06    -42.3185E+06    -81.8518E+06    -63.9309E+06    -41.3338E+06    -42.3185E+06     26.7258E+06         23.6917
            1946     6.93833E-03     112.567E-03         2.16916    -852.085E-03    -968.687E-03    -850.462E-03         2.16754    -968.687E-03    -131.415E-03     38.3407E-03    -9.36785E-03    -28.9809E-03    -17.7489E-03     27.1086E-03    -9.36785E-03     50.0995E-03    -28.3545E+06    -39.5418E+06    -71.9979E+06    -62.4362E+06    -44.4302E+06    -33.0278E+06     15.7151E+06         24.9598
            1947     7.91855E-03     112.597E-03         2.09662    -809.429E-03    -949.228E-03    -807.721E-03         2.09492    -949.228E-03    -135.838E-03     48.7136E-03    -10.7650E-03    -37.9600E-03    -23.0104E-03     33.7641E-03    -10.7650E-03     65.3940E-03    -21.7229E+06    -41.7769E+06    -61.4491E+06    -59.1868E+06    -44.0392E+06    -21.7229E+06     3.41617E+06         26.4768
            1948     8.89391E-03     112.640E-03         2.00746    -751.051E-03    -927.484E-03    -750.062E-03         2.00647    -927.484E-03    -104.276E-03     61.9190E-03    -12.5006E-03    -49.4194E-03    -30.2574E-03     42.7570E-03    -12.5006E-03     83.9518E-03    -11.2616E+06    -41.7596E+06    -58.8502E+06    -54.2759E+06    -46.3339E+06    -11.2616E+06    -5.89677E+06         28.3473
            1949     9.86125E-03     112.700E-03         1.91664    -695.109E-03    -903.154E-03    -693.995E-03         1.91553    -903.154E-03    -104.836E-03     78.1689E-03    -14.6795E-03    -63.4862E-03    -40.4072E-03     55.0899E-03    -14.6795E-03     104.471E-03    -2.71230E+06    -34.0116E+06    -64.2338E+06    -47.4751E+06    -50.7703E+06    -2.71230E+06    -14.7450E+06         30.9109
            1950     10.8182E-03     112.779E-03         1.81863    -633.533E-03    -876.527E-03    -631.580E-03         1.81668    -876.527E-03    -131.555E-03     97.1789E-03    -17.4431E-03    -79.7265E-03    -54.3499E-03     71.8024E-03    -17.4431E-03     123.739E-03     3.23519E+06    -21.9771E+06    -69.3194E+06    -39.3106E+06    -51.9859E+06     3.23519E+06    -22.6224E+06         34.3813
            1951     11.7602E-03     112.875E-03         1.70304    -562.059E-03    -847.093E-03    -560.277E-03         1.70125    -847.093E-03    -121.401E-03     123.465E-03    -20.9680E-03    -102.490E-03    -73.6003E-03     94.5754E-03    -20.9680E-03     150.693E-03     5.28238E+06    -12.8751E+06    -74.5196E+06    -29.9600E+06    -57.4347E+06     5.28238E+06    -26.8352E+06         38.9439
            1952     12.6843E-03     113.014E-03         1.57434    -488.988E-03    -814.265E-03    -487.426E-03         1.57277    -814.265E-03    -107.797E-03     156.891E-03    -25.3614E-03    -131.518E-03    -97.4822E-03     122.855E-03    -25.3614E-03     185.839E-03     7.46503E+06    -986.717E+03    -60.4150E+06    -20.8073E+06    -40.2384E+06     7.10902E+06    -26.6158E+06         45.1793
            1953     13.5876E-03     113.195E-03         1.43834    -406.665E-03    -777.766E-03    -405.311E-03         1.43699    -777.766E-03    -86.8622E-03     191.565E-03    -30.6406E-03    -160.887E-03    -122.813E-03     153.491E-03    -30.6406E-03     218.572E-03     4.07959E+06     1.43748E+06    -58.5215E+06    -16.7743E+06    -38.4769E+06     2.24670E+06    -27.3188E+06         53.0567
            1954     14.4718E-03     113.421E-03         1.30589    -332.614E-03    -737.674E-03    -331.877E-03         1.30515    -737.674E-03    -61.1166E-03     226.031E-03    -36.6450E-03    -189.372E-03    -145.638E-03     182.297E-03    -36.6450E-03     254.801E-03     31.7261E+06     12.0420E+06    -54.7513E+06    -19.2306E+06    -3.79461E+06     12.0420E+06    -29.7528E+06         61.6610
            1955     15.3319E-03     113.701E-03         1.17430    -269.971E-03    -692.698E-03    -269.248E-03         1.17357    -692.698E-03    -61.9413E-03     263.573E-03    -42.8269E-03    -220.778E-03    -156.106E-03     198.900E-03    -42.8269E-03     327.413E-03     85.7208E+06     44.0778E+06    -30.8021E+06    -20.4322E+06     75.3510E+06     44.0778E+06    -26.4003E+06         69.8691
            1956     16.2050E-03     114.126E-03         1.03298    -200.190E-03    -642.004E-03    -199.900E-03         1.03269    -642.004E-03    -28.8589E-03     271.169E-03    -48.4102E-03    -222.825E-03    -140.470E-03     188.814E-03    -48.4102E-03     367.447E-03     153.840E+06     93.2881E+06    -13.7702E+06    -8.83632E+06     111.790E+06     130.404E+06    -14.0190E+06         76.3382
            1957     996.740E-06     113.531E-03         2.25075    -915.887E-03    -974.615E-03    -934.757E-03         2.24839    -953.385E-03    -45.8718E-03     6.09522E-03    -3.00018E-03    -3.09470E-03    -2.94387E-03     5.94535E-03    -3.00114E-03     2.07454E-03     19.6448E+06    -54.5074E+06    -80.2975E+06    -66.4872E+06     7.93948E+06    -56.6124E+06     26.8258E+06         20.4437
            1958     1.99391E-03     113.532E-03         2.22495    -918.675E-03    -945.033E-03    -923.415E-03         2.22448    -939.825E-03     8.95538E-03     6.90598E-03    -3.09105E-03    -3.81478E-03    -3.23357E-03     6.32573E-03    -3.09200E-03     4.70889E-03     10.3513E+06    -59.8694E+06    -92.8768E+06    -75.3188E+06    -7.20669E+06    -59.8694E+06     37.1307E+06         20.5960
            1959     2.99123E-03     113.535E-03         2.21162    -912.054E-03    -934.078E-03    -913.283E-03         2.21102    -932.248E-03    -66.9726E-03     9.16825E-03    -3.40667E-03    -5.76196E-03    -4.34311E-03     7.74940E-03    -3.40667E-03     8.67257E-03     4.80307E+06    -48.7651E+06    -93.2328E+06    -70.5576E+06    -17.8721E+06    -48.7651E+06     41.0882E+06         20.9253
            1960     3.98582E-03     113.541E-03         2.19225    -900.929E-03    -925.405E-03    -900.193E-03         2.19152    -925.405E-03    -75.5023E-03     12.6109E-03    -3.88503E-03    -8.72291E-03    -5.87993E-03     9.76792E-03    -3.88503E-03     14.4000E-03    -1.53246E+06    -44.1996E+06    -90.7235E+06    -62.4392E+06    -29.8167E+06    -44.1996E+06     40.9659E+06         21.4821
            1961     4.97922E-03     113.550E-03         2.15310    -872.751E-03    -916.903E-03    -872.375E-03         2.15272    -916.903E-03    -52.9685E-03     17.3084E-03    -4.49834E-03    -12.8065E-03    -7.78507E-03     12.2870E-03    -4.49834E-03     22.3555E-03    -8.27649E+06    -43.2738E+06    -87.9068E+06    -59.3283E+06    -36.8550E+06    -43.2738E+06     37.7792E+06         22.2810
            1962     5.97058E-03     113.566E-03         2.07345    -816.417E-03    -903.687E-03    -816.197E-03         2.07323    -903.687E-03    -46.4447E-03     23.7975E-03    -5.29261E-03    -18.5075E-03    -10.5118E-03     15.8018E-03    -5.29261E-03     33.0506E-03    -15.3508E+06    -38.6136E+06    -79.2933E+06    -58.6455E+06    -35.9986E+06    -38.6136E+06     29.5299E+06         23.3241
            1963     6.95883E-03     113.590E-03         1.99503    -765.890E-03    -885.552E-03    -764.701E-03         1.99384    -885.552E-03    -94.9289E-03     32.3476E-03    -6.32345E-03    -26.0240E-03    -14.2492E-03     20.5728E-03    -6.32345E-03     46.7714E-03    -22.8454E+06    -30.5182E+06    -67.3216E+06    -57.3159E+06    -33.5004E+06    -29.8688E+06     17.6118E+06         24.6150
            1964     7.94345E-03     113.628E-03         1.94363    -743.260E-03    -866.025E-03    -741.682E-03         1.94205    -866.025E-03    -125.563E-03     43.1168E-03    -7.63653E-03    -35.4742E-03    -19.3728E-03     27.0154E-03    -7.63653E-03     63.3547E-03    -17.8351E+06    -28.5865E+06    -56.4099E+06    -53.8987E+06    -30.7913E+06    -18.1415E+06     3.80178E+06         26.1568
            1965     8.92209E-03     113.679E-03         1.87221    -702.591E-03    -845.933E-03    -701.197E-03         1.87082    -845.933E-03    -116.458E-03     57.4438E-03    -9.29780E-03    -48.1459E-03    -26.7830E-03     36.0809E-03    -9.29780E-03     84.7290E-03    -7.33098E+06    -29.4171E+06    -53.9398E+06    -47.0805E+06    -36.2765E+06    -7.33098E+06    -8.91457E+06         28.0824
            1966     9.89338E-03     113.753E-03         1.76340    -629.268E-03    -822.476E-03    -627.854E-03         1.76199    -822.476E-03    -111.099E-03     75.4166E-03    -11.4193E-03    -63.9985E-03    -37.3810E-03     48.7991E-03    -11.4193E-03     109.411E-03     844.575E+03    -22.7193E+06    -57.2145E+06    -39.6681E+06    -40.2657E+06     844.575E+03    -17.1083E+06         30.7614
            1967     10.8538E-03     113.848E-03         1.65913    -568.126E-03    -795.073E-03    -566.190E-03         1.65719    -795.073E-03    -122.775E-03     97.4285E-03    -14.1797E-03    -83.2477E-03    -52.5498E-03     66.7306E-03    -14.1797E-03     135.398E-03     5.29037E+06    -14.7226E+06    -63.7945E+06    -36.1014E+06    -42.4157E+06     5.29037E+06    -24.2851E+06         34.3927
            1968     11.7985E-03     113.971E-03         1.55902    -515.191E-03    -764.803E-03    -513.334E-03         1.55716    -764.803E-03    -117.191E-03     128.153E-03    -17.7864E-03    -110.367E-03    -73.9511E-03     91.7369E-03    -17.7864E-03     171.283E-03     6.36167E+06    -8.12268E+06    -75.1323E+06    -33.6910E+06    -49.5641E+06     6.36167E+06    -32.1186E+06         39.0748
            1969     12.7232E-03     114.140E-03         1.43616    -442.851E-03    -730.884E-03    -440.729E-03         1.43404    -730.884E-03    -116.926E-03     165.571E-03    -22.3338E-03    -143.211E-03    -100.101E-03     122.460E-03    -22.3338E-03     213.676E-03     7.38645E+06    -973.843E+03    -70.2126E+06    -28.9183E+06    -40.4618E+06     5.58011E+06    -34.2805E+06         45.3114
            1970     13.6263E-03     114.360E-03         1.29821    -366.109E-03    -692.690E-03    -364.239E-03         1.29634    -692.690E-03    -94.3477E-03     203.056E-03    -27.8173E-03    -175.218E-03    -127.199E-03     155.037E-03    -27.8173E-03     251.447E-03     6.05801E+06    -82.9644E+03    -62.9311E+06    -22.3821E+06    -37.8628E+06     3.28880E+06    -30.5900E+06         53.0839
            1971     14.5063E-03     114.619E-03         1.16026    -297.481E-03    -650.909E-03    -296.335E-03         1.15912    -650.909E-03    -66.4741E-03     238.698E-03    -34.0355E-03    -204.667E-03    -150.640E-03     184.670E-03    -34.0355E-03     289.772E-03     35.2404E+06     17.5968E+06    -46.0988E+06    -16.7338E+06     3.31289E+06     20.1594E+06    -27.3965E+06         61.4855
            1972     15.3766E-03     114.936E-03         1.02298    -225.731E-03    -604.412E-03    -224.623E-03         1.02187    -604.412E-03    -65.8039E-03     277.008E-03    -40.5862E-03    -236.426E-03    -166.756E-03     207.338E-03    -40.5862E-03     351.022E-03     80.2970E+06     50.2485E+06    -23.9417E+06    -14.5935E+06     70.9489E+06     50.2485E+06    -22.6669E+06         69.3780
            1973     16.2294E-03     115.353E-03     894.761E-03    -163.079E-03    -554.319E-03    -162.848E-03     894.531E-03    -554.319E-03    -24.4846E-03     277.443E-03    -47.0439E-03    -230.410E-03    -160.301E-03     207.334E-03    -47.0439E-03     348.643E-03     144.903E+06     84.4094E+06    -19.4117E+06    -12.8806E+06     93.8086E+06     128.973E+06    -15.6422E+06         75.4891
            1974     998.723E-06     114.537E-03         2.00875    -792.760E-03    -854.377E-03    -851.815E-03         2.00619    -792.760E-03    -33.6410E-03     3.41140E-03    -1.64333E-03    -1.76801E-03    -1.67664E-03     3.32003E-03    -1.64333E-03     1.18177E-03    -7.89822E+06    -61.0845E+06    -101.365E+06    -64.3874E+06    -44.8763E+06    -61.0845E+06     39.0677E+06         20.2305
            1975     1.99648E-03     114.537E-03         2.02778    -817.888E-03    -853.374E-03    -844.439E-03         2.02751    -826.553E-03    -18.9386E-03     4.59693E-03    -1.79589E-03    -2.80128E-03    -2.08260E-03     3.87825E-03    -1.79589E-03     4.08157E-03     4.60038E+06    -49.9957E+06    -96.0351E+06    -60.5772E+06    -30.8575E+06    -49.9957E+06     44.4224E+06         20.3522
            1976     2.99332E-03     114.541E-03         2.00181    -812.202E-03    -829.941E-03    -813.683E-03         2.00146    -828.112E-03    -21.0754E-03     6.51558E-03    -2.05840E-03    -4.45709E-03    -2.81188E-03     4.87037E-03    -2.05840E-03     7.73180E-03     773.666E+03    -47.0524E+06    -99.4196E+06    -63.4360E+06    -35.2099E+06    -47.0524E+06     45.0527E+06         20.6593
            1977     3.99089E-03     114.548E-03         1.98401    -801.070E-03    -823.834E-03    -802.367E-03         1.98381    -822.343E-03     6.84409E-03     9.15063E-03    -2.40452E-03    -6.74402E-03    -3.85011E-03     6.25673E-03    -2.40452E-03     12.1887E-03    -6.22241E+06    -48.5816E+06    -100.326E+06    -68.3586E+06    -38.1894E+06    -48.5816E+06     44.2288E+06         21.2097
            1978     4.98692E-03     114.560E-03         1.94600    -776.788E-03    -816.327E-03    -778.179E-03         1.94590    -814.837E-03    -23.5616E-03     13.5555E-03    -2.88492E-03    -10.6738E-03    -5.58067E-03     8.46239E-03    -2.88492E-03     19.6944E-03    -10.5957E+06    -45.8863E+06    -90.4936E+06    -64.4463E+06    -36.6430E+06    -45.8863E+06     36.2005E+06         22.0093
            1979     5.98050E-03     114.578E-03         1.89288    -743.606E-03    -804.053E-03    -743.245E-03         1.89252    -804.053E-03    -51.2782E-03     19.9335E-03    -3.56329E-03    -16.3768E-03    -8.11642E-03     11.6732E-03    -3.56329E-03     30.3921E-03    -12.5615E+06    -35.7112E+06    -69.4244E+06    -52.3780E+06    -29.6080E+06    -35.7112E+06     25.0922E+06         23.0533
            1980     6.97126E-03     114.607E-03         1.83216    -706.096E-03    -789.953E-03    -705.414E-03         1.83148    -789.953E-03    -74.2332E-03     28.4243E-03    -4.46617E-03    -23.9637E-03    -11.5106E-03     15.9713E-03    -4.46617E-03     44.5448E-03    -14.8017E+06    -23.4435E+06    -52.5063E+06    -41.8389E+06    -25.4690E+06    -23.4435E+06     16.3414E+06         24.3460
            1981     7.95849E-03     114.650E-03         1.76923    -668.278E-03    -773.108E-03    -667.570E-03         1.76852    -773.108E-03    -80.3745E-03     39.3652E-03    -5.62900E-03    -33.7336E-03    -16.2841E-03     21.9157E-03    -5.62900E-03     62.2577E-03    -9.16495E+06    -15.1935E+06    -43.3285E+06    -38.9385E+06    -18.1203E+06    -10.6281E+06     6.95617E+06         25.8940
            1982     8.94110E-03     114.712E-03         1.69635    -625.502E-03    -753.442E-03    -624.577E-03         1.69543    -753.442E-03    -76.0644E-03     54.3439E-03    -7.12739E-03    -47.2091E-03    -23.3549E-03     30.4897E-03    -7.12739E-03     86.0138E-03    -3.24027E+06    -16.3861E+06    -48.1352E+06    -42.3881E+06    -22.1331E+06    -3.24027E+06    -6.06413E+06         27.8504
            1983     9.91618E-03     114.797E-03         1.60380    -569.610E-03    -730.140E-03    -568.567E-03         1.60275    -730.140E-03    -74.6813E-03     73.6892E-03    -9.08320E-03    -64.6095E-03    -33.8341E-03     42.9138E-03    -9.08320E-03     114.877E-03     1.35424E+06    -14.9807E+06    -57.6160E+06    -43.0903E+06    -29.5064E+06     1.35424E+06    -18.4294E+06         30.6079
            1984     10.8807E-03     114.911E-03         1.50623    -515.783E-03    -703.092E-03    -514.433E-03         1.50488    -703.092E-03    -81.7787E-03     98.0765E-03    -11.6841E-03    -86.4138E-03    -49.3061E-03     60.9689E-03    -11.6841E-03     147.615E-03     7.51296E+06    -9.30292E+06    -61.4420E+06    -37.4015E+06    -33.3434E+06     7.51296E+06    -25.5053E+06         34.3654
            1985     11.8302E-03     115.059E-03         1.40192    -457.202E-03    -672.131E-03    -455.624E-03         1.40034    -672.131E-03    -95.2664E-03     132.280E-03    -15.1429E-03    -117.143E-03    -71.7509E-03     86.8874E-03    -15.1429E-03     192.147E-03     10.9021E+06    -6.64701E+06    -67.2045E+06    -34.2230E+06    -39.6285E+06     10.9021E+06    -30.0660E+06         39.1289
            1986     12.7592E-03     115.264E-03         1.28435    -393.262E-03    -636.468E-03    -391.349E-03         1.28243    -636.468E-03    -109.083E-03     172.523E-03    -19.5664E-03    -152.967E-03    -99.2131E-03     118.769E-03    -19.5664E-03     241.298E-03     9.99544E+06    -3.57661E+06    -70.2751E+06    -36.3262E+06    -35.7191E+06     8.18910E+06    -33.8601E+06         45.2960
            1987     13.6665E-03     115.518E-03         1.16313    -331.381E-03    -596.426E-03    -329.931E-03         1.16168    -596.426E-03    -78.7828E-03     212.008E-03    -24.9357E-03    -187.096E-03    -127.210E-03     152.123E-03    -24.9357E-03     284.649E-03     6.86929E+06    -1.63614E+06    -75.7975E+06    -36.6654E+06    -38.1033E+06     4.20431E+06    -37.8405E+06         52.8978
            1988     14.5543E-03     115.820E-03         1.03499    -269.259E-03    -552.735E-03    -268.275E-03         1.03401    -552.735E-03    -57.2132E-03     249.324E-03    -31.0814E-03    -218.245E-03    -152.822E-03     183.901E-03    -31.0814E-03     324.134E-03     35.5236E+06     17.6896E+06    -62.1512E+06    -31.2103E+06     2.02006E+06     20.2521E+06    -38.4154E+06         61.0613
            1989     15.4195E-03     116.161E-03     898.866E-03    -208.217E-03    -504.276E-03    -207.287E-03     897.935E-03    -504.276E-03    -54.4691E-03     293.092E-03    -37.9002E-03    -255.186E-03    -177.908E-03     215.814E-03    -37.9002E-03     381.450E-03     77.0520E+06     57.0616E+06    -35.4846E+06    -19.3582E+06     59.1660E+06     58.8212E+06    -31.1015E+06         68.5857
            1990     16.2689E-03     116.625E-03     765.155E-03    -150.366E-03    -454.599E-03    -150.234E-03     765.023E-03    -454.599E-03    -10.6010E-03     295.050E-03    -45.3075E-03    -249.775E-03    -187.676E-03     232.950E-03    -45.3075E-03     339.770E-03     138.093E+06     81.4240E+06    -21.4490E+06    -8.33144E+06     72.1244E+06     134.275E+06    -16.5092E+06         74.2695
            1991     998.791E-06     115.538E-03         1.75975    -667.860E-03    -735.711E-03    -731.274E-03         1.75532    -667.860E-03     134.997E-03     1.95038E-03    -939.952E-06    -1.01041E-03    -971.318E-06     1.91128E-03    -939.952E-06     596.086E-06    -63.7628E+06    -151.551E+06    -171.968E+06    -144.327E+06    -91.0207E+06    -151.934E+06     14.9483E+06         20.1581
            1992     1.99827E-03     115.540E-03         1.79834    -698.520E-03    -747.981E-03    -738.976E-03         1.79800    -707.185E-03    -22.4063E-03     3.08325E-03    -1.12259E-03    -1.96064E-03    -1.40642E-03     2.52904E-03    -1.12259E-03     2.89251E-03    -29.0994E+06    -108.665E+06    -135.509E+06    -109.562E+06    -54.6639E+06    -109.048E+06     28.2323E+06         20.2597
            1993     2.99693E-03     115.545E-03         1.77012    -695.550E-03    -721.377E-03    -703.500E-03         1.76962    -712.930E-03    -28.7839E-03     4.82122E-03    -1.40929E-03    -3.41168E-03    -2.01528E-03     3.42483E-03    -1.40929E-03     6.12106E-03    -19.9715E+06    -78.9215E+06    -112.986E+06    -78.6578E+06    -54.2994E+06    -78.9215E+06     37.2829E+06         20.5441
            1994     3.99357E-03     115.553E-03         1.75949    -697.549E-03    -710.554E-03    -698.533E-03         1.75898    -709.063E-03    -24.1036E-03     7.55486E-03    -1.73150E-03    -5.82197E-03    -2.87791E-03     4.61080E-03    -1.73150E-03     11.0346E-03    -9.09323E+06    -55.1358E+06    -91.7388E+06    -55.7666E+06    -45.0654E+06    -55.1358E+06     39.0158E+06         21.0766
            1995     4.98954E-03     115.566E-03         1.73972    -682.799E-03    -705.626E-03    -683.821E-03         1.73925    -704.135E-03    -58.6235E-03     12.1749E-03    -2.15979E-03    -10.0164E-03    -4.51948E-03     6.67792E-03    -2.15979E-03     19.1411E-03    -2.99431E+06    -39.0072E+06    -75.1205E+06    -44.8033E+06    -33.3115E+06    -39.0072E+06     31.7141E+06         21.8588
            1996     5.98430E-03     115.588E-03         1.69334    -650.862E-03    -695.805E-03    -650.319E-03         1.69280    -695.805E-03    -67.0243E-03     18.2442E-03    -2.74979E-03    -15.4961E-03    -6.82138E-03     9.56948E-03    -2.74979E-03     29.4804E-03    -7.21494E+06    -32.7835E+06    -63.7726E+06    -46.0133E+06    -24.9742E+06    -32.7835E+06     23.4498E+06         22.8824
            1997     6.97724E-03     115.621E-03         1.64037    -623.689E-03    -683.931E-03    -623.243E-03         1.63992    -683.931E-03    -55.4871E-03     26.2873E-03    -3.54173E-03    -22.7490E-03    -9.79723E-03     13.3356E-03    -3.54173E-03     43.2260E-03    -10.4305E+06    -26.2234E+06    -56.4718E+06    -48.5126E+06    -18.3896E+06    -26.2234E+06     14.4833E+06         24.1519
            1998     7.96691E-03     115.670E-03         1.57057    -577.794E-03    -668.554E-03    -577.481E-03         1.57026    -668.554E-03    -46.5865E-03     37.0657E-03    -4.56070E-03    -32.5091E-03    -13.9523E-03     18.5089E-03    -4.56070E-03     61.5120E-03    -3.41453E+06    -15.0924E+06    -45.0546E+06    -41.5884E+06    -8.82475E+06    -13.1484E+06     4.92536E+06         25.6791
            1999     8.95174E-03     115.737E-03         1.49194    -534.228E-03    -649.003E-03    -533.864E-03         1.49157    -649.003E-03    -46.2728E-03     52.4409E-03    -5.88393E-03    -46.5545E-03    -20.4232E-03     26.3096E-03    -5.88393E-03     87.2222E-03     4.80011E+06    -9.54531E+06    -35.7997E+06    -30.9358E+06    -10.4609E+06     851.747E+03    -2.73482E+06         27.6295
            2000     9.93044E-03     115.835E-03         1.42730    -508.540E-03    -626.539E-03    -507.934E-03         1.42670    -626.539E-03    -51.8887E-03     72.7995E-03    -7.64059E-03    -65.1572E-03    -30.3655E-03     38.0079E-03    -7.64059E-03     119.717E-03     11.1391E+06    -6.38426E+06    -39.8846E+06    -30.2500E+06    -16.0190E+06     11.1391E+06    -10.8901E+06         30.4074
            2001     10.8996E-03     115.965E-03         1.34152    -457.736E-03    -600.745E-03    -456.773E-03         1.34056    -600.745E-03    -64.3235E-03     99.1175E-03    -9.99206E-03    -89.1209E-03    -45.5540E-03     55.5506E-03    -9.99206E-03     158.574E-03     14.7099E+06    -4.91605E+06    -53.5488E+06    -36.7060E+06    -21.7588E+06     14.7099E+06    -21.5545E+06         34.2270
            2002     11.8543E-03     116.138E-03         1.22856    -393.730E-03    -569.350E-03    -392.686E-03         1.22752    -569.350E-03    -71.6738E-03     135.723E-03    -13.1538E-03    -122.564E-03    -67.9150E-03     81.0747E-03    -13.1538E-03     210.722E-03     16.1701E+06    -5.32794E+06    -63.6601E+06    -36.1962E+06    -32.7919E+06     16.1701E+06    -28.7713E+06         39.0096
            2003     12.7902E-03     116.377E-03         1.11854    -340.652E-03    -532.032E-03    -339.484E-03         1.11738    -532.032E-03    -81.4101E-03     177.691E-03    -17.2621E-03    -160.460E-03    -95.7476E-03     112.979E-03    -17.2621E-03     265.629E-03     18.8086E+06     53.4171E+03    -59.7610E+06    -29.7196E+06    -29.9880E+06     18.8086E+06    -29.4850E+06         45.0388
            2004     13.7053E-03     116.667E-03         1.00201    -282.537E-03    -489.847E-03    -281.838E-03         1.00131    -489.847E-03    -48.4917E-03     217.714E-03    -22.3414E-03    -195.418E-03    -124.901E-03     147.197E-03    -22.3414E-03     310.541E-03     22.0058E+06     7.53654E+06    -60.8264E+06    -26.8113E+06    -25.6199E+06     21.1471E+06    -34.1129E+06         52.4146
            2005     14.5995E-03     117.006E-03     883.524E-03    -234.727E-03    -443.741E-03    -234.238E-03     883.035E-03    -443.741E-03    -34.3293E-03     258.117E-03    -28.3527E-03    -229.779E-03    -155.566E-03     183.904E-03    -28.3527E-03     350.166E-03     46.9027E+06     29.4468E+06    -56.5935E+06    -24.3459E+06     8.85731E+06     35.2445E+06    -41.6326E+06         60.2954
            2006     15.4692E-03     117.399E-03     763.528E-03    -192.276E-03    -392.825E-03    -191.551E-03     762.804E-03    -392.825E-03    -46.1495E-03     308.992E-03    -35.4193E-03    -273.564E-03    -190.738E-03     226.165E-03    -35.4193E-03     406.845E-03     73.1639E+06     52.8912E+06    -38.9286E+06    -18.0842E+06     42.8463E+06     62.3644E+06    -36.7237E+06         67.4220
            2007     16.3025E-03     117.912E-03     635.573E-03    -141.698E-03    -342.129E-03    -141.301E-03     635.176E-03    -342.129E-03    -6.03223E-03     317.601E-03    -43.7509E-03    -273.885E-03    -214.936E-03     258.652E-03    -43.7509E-03     341.963E-03     132.134E+06     59.0313E+06    -28.9391E+06    -13.8938E+06     43.9860E+06     132.134E+06    -20.1066E+06         72.6439
            2008     998.356E-06     116.539E-03         1.53176    -559.627E-03    -618.279E-03    -581.606E-03         1.52627    -590.814E-03     151.432E-03     2.97209E-03    -1.40815E-03    -1.56398E-03    -1.55149E-03     2.95960E-03    -1.40815E-03     218.389E-06    -95.3133E+06    -211.713E+06    -221.508E+06    -218.940E+06    -97.4986E+06    -212.096E+06    -10.2167E+06         20.2186
            2009     1.99589E-03     116.542E-03         1.55304    -581.779E-03    -616.528E-03    -607.533E-03         1.55246    -590.193E-03    -41.5876E-03     3.39627E-03    -1.53066E-03    -1.86566E-03    -1.68650E-03     3.26977E-03    -1.58332E-03     1.20469E-03    -68.5813E+06    -186.625E+06    -195.783E+06    -191.297E+06    -71.4638E+06    -188.228E+06    -6.45595E+06         20.3100
            2010     2.99362E-03     116.548E-03         1.56730    -593.322E-03    -611.505E-03    -608.260E-03         1.56664    -595.906E-03    -53.0984E-03     3.89705E-03    -1.62908E-03    -2.26789E-03    -1.70748E-03     3.39720E-03    -1.68964E-03     3.03464E-03    -54.3205E+06    -159.560E+06    -164.394E+06    -151.758E+06    -65.7365E+06    -160.780E+06    -259.440E+03         20.5794
            2011     3.99319E-03     116.557E-03         1.53227    -575.852E-03    -594.377E-03    -575.124E-03         1.53155    -594.377E-03    -5.95010E-03     6.05942E-03    -1.79438E-03    -4.26447E-03    -2.38046E-03     4.18330E-03    -1.80228E-03     7.65996E-03    -28.8561E+06    -121.247E+06    -138.307E+06    -106.331E+06    -50.6336E+06    -131.446E+06     2.48797E+06         21.0877
            2012     4.99104E-03     116.573E-03         1.49662    -552.794E-03    -586.501E-03    -552.066E-03         1.49589    -586.501E-03    -20.3929E-03     10.3753E-03    -2.11688E-03    -8.25677E-03    -3.93382E-03     6.05230E-03    -2.11688E-03     15.6156E-03    -14.6246E+06    -73.7935E+06    -110.247E+06    -65.3660E+06    -36.7269E+06    -96.5724E+06     8.65990E+06         21.8374
            2013     5.98602E-03     116.597E-03         1.45894    -539.602E-03    -576.697E-03    -539.180E-03         1.45852    -576.697E-03    -12.2531E-03     16.5171E-03    -2.72853E-03    -13.7868E-03    -6.15168E-03     8.88205E-03    -2.72853E-03     26.2704E-03    -6.58486E+06    -38.9374E+06    -72.2124E+06    -37.4669E+06    -28.7500E+06    -51.5177E+06     16.0105E+06         22.8213
            2014     6.97779E-03     116.634E-03         1.41383    -517.631E-03    -565.378E-03    -517.386E-03         1.41359    -565.378E-03     10.2613E-03     24.7803E-03    -3.51230E-03    -21.2685E-03    -9.00294E-03     12.5148E-03    -3.51230E-03     40.7007E-03     6.52204E+06    -17.0813E+06    -46.4504E+06    -27.1838E+06    -12.7446E+06    -17.0813E+06     16.9144E+06         24.0398
            2015     7.96756E-03     116.686E-03         1.36093    -488.607E-03    -551.375E-03    -488.426E-03         1.36075    -551.375E-03    -5.31186E-03     35.6015E-03    -4.42191E-03    -31.1808E-03    -12.9201E-03     17.3409E-03    -4.42191E-03     59.5279E-03     9.50553E+06    -6.47687E+06    -41.8377E+06    -33.4948E+06     1.16266E+06    -6.47687E+06     8.47722E+06         25.5053
            2016     8.95489E-03     116.760E-03         1.30620    -464.875E-03    -534.463E-03    -464.308E-03         1.30563    -534.463E-03    -6.40339E-03     50.7398E-03    -5.60235E-03    -45.1327E-03    -18.6743E-03     24.2813E-03    -5.60235E-03     85.7072E-03     10.0176E+06    -4.44283E+06    -45.0891E+06    -39.4544E+06    -234.510E+03     174.566E+03    -4.17960E+06         27.3946
            2017     9.93613E-03     116.867E-03         1.24420    -436.270E-03    -514.286E-03    -435.200E-03         1.24313    -514.286E-03    -7.18635E-03     71.2537E-03    -7.17454E-03    -64.0745E-03    -27.4724E-03     34.6515E-03    -7.17454E-03     120.202E-03     18.5563E+06    -1.57731E+06    -40.4353E+06    -29.8916E+06    -8.38017E+06     14.8154E+06    -11.8885E+06         30.1223
            2018     10.9089E-03     117.012E-03         1.15701    -388.274E-03    -489.190E-03    -386.971E-03         1.15571    -489.190E-03    -45.8069E-03     99.0946E-03    -9.27237E-03    -89.8033E-03    -41.8012E-03     51.0925E-03    -9.27237E-03     164.374E-03     30.1166E+06     2.63472E+06    -32.4871E+06    -18.1585E+06    -11.6939E+06     30.1166E+06    -13.1690E+06         33.9107
            2019     11.8682E-03     117.208E-03         1.05442    -335.183E-03    -457.550E-03    -334.349E-03         1.05359    -457.550E-03    -46.8773E-03     137.275E-03    -12.0983E-03    -125.154E-03    -63.5397E-03     75.6604E-03    -12.0983E-03     222.323E-03     34.4401E+06     871.179E+03    -41.9843E+06    -20.2039E+06    -20.9092E+06     34.4401E+06    -18.7923E+06         38.6188
            2020     12.8119E-03     117.475E-03     953.206E-03    -285.616E-03    -419.189E-03    -284.658E-03     952.248E-03    -419.189E-03    -48.9711E-03     180.511E-03    -15.8105E-03    -164.715E-03    -91.4164E-03     107.212E-03    -15.8105E-03     282.063E-03     34.4695E+06     8.07458E+06    -52.7901E+06    -22.4331E+06    -22.2824E+06     34.4695E+06    -29.8494E+06         44.4478
            2021     13.7336E-03     117.804E-03     838.101E-03    -235.997E-03    -375.273E-03    -235.221E-03     837.326E-03    -375.273E-03    -48.4605E-03     222.463E-03    -20.5866E-03    -201.907E-03    -123.938E-03     144.495E-03    -20.5866E-03     328.189E-03     40.4998E+06     20.4585E+06    -51.1480E+06    -12.3395E+06    -18.3499E+06     40.4998E+06    -34.0319E+06         51.5368
            2022     14.6301E-03     118.182E-03     719.708E-03    -195.357E-03    -326.978E-03    -194.927E-03     719.279E-03    -326.978E-03    -21.6945E-03     266.530E-03    -26.5503E-03    -239.984E-03    -160.417E-03     186.962E-03    -26.5503E-03     368.283E-03     62.2011E+06     44.4246E+06    -39.6803E+06    -8.59224E+06     19.6042E+06     55.9335E+06    -29.1462E+06         59.0634
            2023     15.4915E-03     118.634E-03     605.693E-03    -154.335E-03    -272.407E-03    -153.663E-03     605.020E-03    -272.407E-03    -32.5271E-03     325.709E-03    -33.8740E-03    -291.824E-03    -203.646E-03     237.532E-03    -33.8740E-03     432.034E-03     80.4756E+06     55.3919E+06    -41.0131E+06    -16.6581E+06     37.3045E+06     74.2080E+06    -30.9480E+06         65.7245
            2024     16.3159E-03     119.211E-03     488.246E-03    -124.365E-03    -218.081E-03    -123.851E-03     487.732E-03    -218.081E-03    -1.11541E-03     341.399E-03    -42.8194E-03    -298.581E-03    -236.391E-03     279.209E-03    -42.8194E-03     364.877E-03     138.539E+06     54.7216E+06    -45.7268E+06    -5.29562E+06     14.2904E+06     138.539E+06    -20.6867E+06         70.4471
            2025     996.555E-06     117.545E-03         1.35131    -472.590E-03    -519.890E-03    -470.987E-03         1.34970    -519.890E-03     64.6576E-03     6.57836E-03    -3.16350E-03    -3.41387E-03    -3.31996E-03     6.57680E-03    -3.25586E-03    -93.2961E-06    -75.9350E+06    -171.584E+06    -182.410E+06    -177.983E+06    -78.0632E+06    -173.883E+06    -11.2271E+06         20.4535
            2026     1.99230E-03     117.547E-03         1.28985    -443.770E-03    -493.308E-03    -450.499E-03         1.28942    -486.156E-03    -18.9103E-03     6.62706E-03    -3.15822E-03    -3.46796E-03    -3.29810E-03     6.60223E-03    -3.30324E-03     139.949E-06    -58.8828E+06    -170.918E+06    -184.058E+06    -177.514E+06    -64.2064E+06    -172.138E+06    -22.5537E+06         20.5408
            2027     2.98949E-03     117.552E-03         1.28120    -437.723E-03    -479.046E-03    -444.444E-03         1.28077    -471.894E-03    -15.5571E-03     6.89627E-03    -3.27286E-03    -3.62333E-03    -3.46364E-03     6.79715E-03    -3.33342E-03     854.585E-06    -53.0962E+06    -170.116E+06    -180.198E+06    -171.481E+06    -60.5934E+06    -171.336E+06    -28.5763E+06         20.7856
            2028     3.98511E-03     117.561E-03         1.25708    -428.639E-03    -461.591E-03    -427.837E-03         1.25628    -461.591E-03     65.4883E-03     7.90640E-03    -3.43131E-03    -4.47563E-03    -3.94835E-03     7.38703E-03    -3.43921E-03     3.49372E-03    -36.8701E+06    -152.310E+06    -179.397E+06    -159.431E+06    -46.6371E+06    -162.509E+06    -32.8149E+06         21.2555
            2029     4.98088E-03     117.578E-03         1.23132    -423.914E-03    -455.805E-03    -426.666E-03         1.23055    -452.276E-03     55.4995E-03     10.0733E-03    -3.64792E-03    -6.42582E-03    -4.64129E-03     8.28879E-03    -3.64792E-03     9.14649E-03    -30.9367E+06    -124.272E+06    -168.599E+06    -134.598E+06    -42.1588E+06    -147.051E+06    -31.9600E+06         21.9589
            2030     5.97675E-03     117.605E-03         1.21728    -428.314E-03    -449.081E-03    -432.244E-03         1.21698    -444.854E-03     18.7062E-03     14.4213E-03    -4.02255E-03    -10.4010E-03    -5.93615E-03     9.95649E-03    -4.02255E-03     18.4944E-03    -19.3349E+06    -99.7405E+06    -126.025E+06    -94.0874E+06    -38.6925E+06    -112.321E+06    -23.0452E+06         22.8867
            2031     6.97165E-03     117.645E-03         1.18027    -411.198E-03    -437.306E-03    -411.548E-03         1.17992    -436.608E-03     2.29543E-03     21.8158E-03    -4.58073E-03    -17.2375E-03    -8.44350E-03     13.0218E-03    -4.58073E-03     32.3552E-03     1.48956E+06    -59.4957E+06    -80.0546E+06    -48.3529E+06    -21.6848E+06    -68.0232E+06    -8.03168E+06         24.0313
            2032     7.96238E-03     117.702E-03         1.13727    -391.682E-03    -425.219E-03    -391.502E-03         1.13709    -425.219E-03     4.72535E-03     32.8190E-03    -5.44439E-03    -27.3753E-03    -12.4654E-03     17.9091E-03    -5.44439E-03     51.8411E-03     15.2626E+06    -6.99409E+06    -37.8918E+06    -14.9574E+06     855.713E+03    -15.5215E+06     6.35059E+06         25.3874
            2033     8.94675E-03     117.781E-03         1.09846    -377.248E-03    -410.823E-03    -376.961E-03         1.09817    -410.823E-03     36.8599E-03     48.2627E-03    -6.60902E-03    -41.6498E-03    -18.0589E-03     24.6718E-03    -6.60902E-03     79.0477E-03     31.5767E+06     23.5915E+06    -25.0590E+06    -7.24943E+06     12.4089E+06     24.9498E+06     6.29542E+06         27.1516
            2034     9.92786E-03     117.894E-03         1.03918    -348.775E-03    -392.321E-03    -348.231E-03         1.03863    -392.321E-03     50.7087E-03     69.0339E-03    -8.01864E-03    -61.0104E-03    -26.3434E-03     34.3668E-03    -8.01864E-03     114.969E-03     33.3145E+06     15.6212E+06    -39.5108E+06    -21.2971E+06     1.14846E+06     29.5736E+06    -4.99726E+06         29.7570
            2035     10.9032E-03     118.051E-03     973.943E-03    -321.330E-03    -368.410E-03    -320.764E-03     973.377E-03    -368.410E-03     3.96016E-03     96.7822E-03    -9.90579E-03    -86.8702E-03    -39.3114E-03     49.2234E-03    -9.90579E-03     160.871E-03     32.2333E+06     735.763E+03    -44.5343E+06    -33.6478E+06    -10.1508E+06     32.2333E+06    -11.6523E+06         33.3973
            2036     11.8678E-03     118.268E-03     888.869E-03    -280.660E-03    -337.911E-03    -280.282E-03     888.491E-03    -337.911E-03    -25.4932E-03     134.834E-03    -12.4571E-03    -122.366E-03    -59.1143E-03     71.5829E-03    -12.4571E-03     221.467E-03     47.3865E+06     9.39250E+06    -42.2080E+06    -25.9361E+06    -6.87941E+06     47.3865E+06    -18.6955E+06         37.9053
            2037     12.8146E-03     118.561E-03     781.878E-03    -231.605E-03    -299.584E-03    -231.093E-03     781.366E-03    -299.584E-03    -22.6892E-03     180.002E-03    -15.8529E-03    -164.142E-03    -87.7214E-03     103.581E-03    -15.8529E-03     285.766E-03     58.6723E+06     23.2198E+06    -41.8695E+06    -11.0518E+06    -7.59788E+06     58.6723E+06    -29.8389E+06         43.4530
            2038     13.7428E-03     118.924E-03     684.236E-03    -197.979E-03    -254.488E-03    -197.594E-03     683.850E-03    -254.488E-03    -25.5641E-03     225.179E-03    -20.3951E-03    -204.785E-03    -123.813E-03     144.207E-03    -20.3951E-03     335.623E-03     56.6321E+06     20.0270E+06    -50.7265E+06    -11.5422E+06    -19.1572E+06     56.6321E+06    -31.8693E+06         50.1689
            2039     14.6355E-03     119.356E-03     573.556E-03    -159.264E-03    -203.971E-03    -159.229E-03     573.522E-03    -203.971E-03    -1.41609E-03     272.112E-03    -26.2378E-03    -245.863E-03    -162.328E-03     188.578E-03    -26.2378E-03     380.723E-03     74.0320E+06     47.7559E+06    -41.4790E+06    -6.48373E+06     16.3753E+06     70.4173E+06    -30.3179E+06         57.2352
            2040     15.5021E-03     119.854E-03     449.100E-03    -109.366E-03    -149.152E-03    -112.859E-03     448.718E-03    -145.277E-03    -12.1040E-03     342.094E-03    -33.4624E-03    -308.615E-03    -210.805E-03     244.285E-03    -33.4624E-03     464.981E-03     109.963E+06     91.1551E+06    -38.7007E+06     16.0071E+06     40.0620E+06     106.348E+06    -13.2904E+06         63.3047
            2041     16.3277E-03     120.526E-03     337.048E-03    -69.5749E-03    -117.322E-03    -100.007E-03     336.175E-03    -86.0165E-03    -19.2233E-03     368.395E-03    -42.4422E-03    -325.954E-03    -253.230E-03     295.671E-03    -42.4422E-03     410.575E-03     160.416E+06     75.4424E+06    -48.0912E+06     12.6059E+06     14.7454E+06     160.416E+06     7.34018E+06         67.2532
            2042     993.485E-06     118.553E-03         1.09739    -355.128E-03    -392.373E-03    -364.149E-03         1.09614    -382.111E-03     5.68674E-03     11.6684E-03    -5.68597E-03    -5.98134E-03    -5.77723E-03     11.6571E-03    -5.87877E-03    -761.929E-06    -56.0318E+06    -121.117E+06    -129.280E+06    -124.116E+06    -58.2008E+06    -124.112E+06    -10.3418E+06         20.8712
            2043     1.98879E-03     118.556E-03         1.01432    -299.403E-03    -357.674E-03    -298.417E-03         1.01333    -357.674E-03     35.4994E-03     12.1815E-03    -5.83352E-03    -6.34667E-03    -6.21812E-03     12.1453E-03    -5.92588E-03    -1.50010E-03    -35.6932E+06    -117.288E+06    -129.829E+06    -123.420E+06    -41.4060E+06    -117.985E+06    -20.1537E+06         20.9698
            2044     2.98138E-03     118.562E-03     977.196E-03    -278.751E-03    -332.814E-03    -278.548E-03     976.994E-03    -332.814E-03     6.57410E-03     13.4446E-03    -6.23848E-03    -7.20573E-03    -7.15621E-03     13.3951E-03    -6.23848E-03    -1.73387E-03    -31.6132E+06    -110.057E+06    -134.738E+06    -122.780E+06    -43.5705E+06    -110.057E+06    -31.8518E+06         21.1853
            2045     3.97370E-03     118.572E-03     966.098E-03    -283.349E-03    -317.806E-03    -282.725E-03     965.474E-03    -317.806E-03     13.8988E-03     14.5872E-03    -6.62492E-03    -7.96161E-03    -7.88916E-03     14.5147E-03    -6.62492E-03    -102.160E-06    -19.3761E+06    -103.576E+06    -136.075E+06    -121.407E+06    -34.0443E+06    -103.576E+06    -37.5720E+06         21.6026
            2046     4.96523E-03     118.588E-03     955.317E-03    -293.464E-03    -313.044E-03    -296.112E-03     954.436E-03    -309.515E-03     35.4195E-03     15.7893E-03    -7.00611E-03    -8.78080E-03    -8.40149E-03     15.4100E-03    -7.00611E-03     3.42959E-03    -13.9160E+06    -101.689E+06    -144.064E+06    -125.557E+06    -32.4229E+06    -101.689E+06    -44.4896E+06         22.2464
            2047     5.95689E-03     118.616E-03     950.013E-03    -301.899E-03    -315.210E-03    -310.531E-03     948.025E-03    -304.590E-03     59.4958E-03     17.7478E-03    -7.32926E-03    -10.4208E-03    -8.99060E-03     16.3176E-03    -7.32926E-03     9.55922E-03    -14.9798E+06    -110.317E+06    -149.855E+06    -126.619E+06    -38.2150E+06    -110.317E+06    -50.5799E+06         23.1051
            2048     6.94758E-03     118.657E-03     946.545E-03    -293.513E-03    -319.324E-03    -310.498E-03     943.993E-03    -299.786E-03     51.4993E-03     21.7608E-03    -7.70772E-03    -14.0535E-03    -10.2231E-03     17.9304E-03    -7.70772E-03     20.0504E-03    -10.2957E+06    -98.5132E+06    -143.273E+06    -111.783E+06    -33.2586E+06    -107.041E+06    -47.8083E+06         24.1668
            2049     7.93740E-03     118.718E-03     916.312E-03    -279.557E-03    -306.401E-03    -292.501E-03     914.927E-03    -292.072E-03     43.9283E-03     29.8597E-03    -8.35786E-03    -21.4991E-03    -12.9176E-03     21.2783E-03    -8.35786E-03     37.0966E-03     4.67396E+06    -59.2681E+06    -105.827E+06    -75.8337E+06    -16.7921E+06    -67.7955E+06    -33.5856E+06         25.3961
            2050     8.92580E-03     118.804E-03     867.672E-03    -264.223E-03    -283.744E-03    -266.587E-03     865.976E-03    -279.683E-03     64.8911E-03     43.3776E-03    -9.32696E-03    -34.0511E-03    -17.8774E-03     27.2038E-03    -9.32696E-03     62.2699E-03     27.4914E+06    -16.2401E+06    -55.9411E+06    -33.2380E+06     3.43003E+06    -14.8818E+06    -10.6386E+06         26.9950
            2051     9.90668E-03     118.923E-03     826.612E-03    -245.863E-03    -272.739E-03    -254.159E-03     824.718E-03    -262.549E-03     70.5560E-03     63.8513E-03    -10.7246E-03    -53.1254E-03    -26.0439E-03     36.7698E-03    -10.7246E-03     98.2997E-03     49.9512E+06     15.0966E+06    -32.8927E+06    -7.59961E+06     4.56145E+06     35.1932E+06     6.69017E+06         29.4051
            2052     10.8769E-03     119.090E-03     774.498E-03    -228.383E-03    -251.014E-03    -237.909E-03     773.311E-03    -240.300E-03     35.0032E-03     91.9202E-03    -12.5627E-03    -79.3539E-03    -38.1217E-03     50.6881E-03    -12.5627E-03     146.314E-03     68.1193E+06     32.2158E+06    -29.9848E+06     576.995E+03     1.65395E+06     68.1193E+06     3.09295E+06         32.7593
            2053     11.8380E-03     119.317E-03     705.388E-03    -197.312E-03    -230.632E-03    -215.981E-03     704.432E-03    -211.006E-03     10.8438E-03     130.154E-03    -14.9156E-03    -115.237E-03    -57.4873E-03     72.4046E-03    -14.9156E-03     208.024E-03     77.4049E+06     36.2439E+06    -24.2864E+06     234.364E+03     11.7232E+06     77.4049E+06    -13.8966E+06         36.9109
            2054     12.7914E-03     119.631E-03     629.348E-03    -155.722E-03    -208.768E-03    -190.304E-03     628.431E-03    -173.268E-03     24.3932E-03     175.712E-03    -18.1898E-03    -157.521E-03    -86.5386E-03     104.730E-03    -18.1898E-03     272.446E-03     76.5018E+06     25.3024E+06    -26.9531E+06    -4.59541E+06     2.94475E+06     76.5018E+06    -23.3680E+06         42.0676
            2055     13.7131E-03     120.035E-03     531.913E-03    -117.550E-03    -170.955E-03    -160.254E-03     531.433E-03    -127.770E-03     18.4862E-03     220.437E-03    -22.5777E-03    -197.862E-03    -119.363E-03     141.939E-03    -22.5777E-03     326.365E-03     77.0344E+06     24.6957E+06    -38.2268E+06     2.28395E+06    -15.8150E+06     77.0344E+06    -23.2286E+06         48.2680
            2056     14.6134E-03     120.504E-03     416.317E-03    -72.4793E-03    -130.969E-03    -127.606E-03     416.191E-03    -75.7166E-03     7.10502E-03     269.515E-03    -28.0339E-03    -241.480E-03    -156.499E-03     184.533E-03    -28.0339E-03     380.259E-03     94.7506E+06     66.0826E+06    -33.3418E+06     7.03832E+06     26.8170E+06      93.636E+06    -28.1025E+06         54.6741
            2057     15.4892E-03     121.052E-03     303.480E-03    -13.2242E-03    -101.083E-03    -99.1376E-03     302.853E-03    -14.5430E-03     1.93292E-03     343.773E-03    -34.5975E-03    -309.170E-03    -207.899E-03     242.502E-03    -34.5975E-03     472.717E-03     80.1993E+06     66.5413E+06    -93.3171E+06    -16.0458E+06    -1.16278E+06     70.6321E+06    -29.6005E+06         59.9243
            2058     16.3340E-03     121.810E-03     215.982E-03     33.6347E-03    -97.0498E-03    -96.0478E-03     199.040E-03     49.5743E-03    -10.9517E-03     380.933E-03    -42.8884E-03    -338.031E-03    -251.806E-03     294.708E-03    -42.8884E-03     457.987E-03     112.772E+06     34.3170E+06    -96.5925E+06    -29.9775E+06    -23.8454E+06     104.319E+06    -8.91728E+06         62.7551
            2059     991.667E-06     119.568E-03     727.419E-03    -177.456E-03    -207.936E-03    -187.672E-03     724.627E-03    -194.928E-03    -22.3393E-03     19.1252E-03    -9.23512E-03    -9.89108E-03    -9.75709E-03     19.0917E-03    -9.33557E-03    -1.85497E-03    -32.1908E+06    -63.5278E+06    -74.5481E+06    -66.6176E+06    -39.4250E+06    -64.2241E+06    -9.27423E+06         21.4663
            2060     1.98083E-03     119.571E-03     712.472E-03    -162.302E-03    -197.066E-03    -171.647E-03     711.351E-03    -186.600E-03     52.4967E-03     20.4911E-03    -9.77913E-03    -10.7117E-03    -10.6244E-03     20.4038E-03    -9.77913E-03    -3.24761E-03    -16.5387E+06    -61.9223E+06    -74.9084E+06    -68.0586E+06    -22.6922E+06    -62.6186E+06    -16.5290E+06         21.5868
            2061     2.97001E-03     119.580E-03     705.666E-03    -157.321E-03    -186.775E-03    -164.336E-03     704.960E-03    -179.054E-03     34.5490E-03     22.3454E-03    -10.3365E-03    -12.0043E-03    -11.8663E-03     22.2075E-03    -10.3365E-03    -4.32675E-03    -11.1204E+06    -57.0151E+06    -82.4747E+06    -71.0420E+06    -22.5531E+06    -57.0151E+06    -24.9830E+06         21.7875
            2062     3.95757E-03     119.590E-03     695.211E-03    -152.987E-03    -171.944E-03    -150.274E-03     692.497E-03    -171.944E-03     35.2644E-03     24.4166E-03    -10.9623E-03    -13.4511E-03    -13.3028E-03     24.2683E-03    -10.9623E-03    -4.44047E-03    -6.72728E+06    -58.1625E+06    -91.7331E+06    -75.4605E+06    -22.9998E+06    -58.1625E+06    -30.9857E+06         22.1519
            2063     4.94397E-03     119.609E-03     671.954E-03    -151.404E-03    -164.979E-03    -149.042E-03     669.360E-03    -164.747E-03     43.9307E-03     26.5355E-03    -11.6835E-03    -14.8638E-03    -14.7502E-03     26.4219E-03    -11.6835E-03    -3.12063E-03     824.598E+03    -52.5110E+06    -94.5290E+06    -77.1002E+06    -16.6042E+06    -52.5110E+06    -33.9590E+06         22.7297
            2064     5.92776E-03     119.636E-03     660.126E-03    -156.288E-03    -165.672E-03    -160.647E-03     657.791E-03    -158.979E-03     78.3507E-03     28.6986E-03    -12.4797E-03    -16.2279E-03    -16.0409E-03     28.5117E-03    -12.4797E-03     166.769E-06    -221.511E+03    -44.9834E+06    -105.482E+06    -82.5170E+06    -23.1870E+06    -44.9834E+06    -41.9042E+06         23.5131
            2065     6.91139E-03     119.679E-03     675.873E-03    -154.456E-03    -181.976E-03    -178.555E-03     672.451E-03    -154.456E-03     106.253E-03     31.1802E-03    -13.2114E-03    -17.9582E-03    -17.1633E-03     30.3854E-03    -13.2114E-03     6.71017E-03     1.77204E+06    -50.8808E+06    -120.837E+06    -92.5055E+06    -26.5598E+06    -50.8808E+06    -50.8154E+06         24.4887
            2066     7.89432E-03     119.739E-03     670.067E-03    -149.167E-03    -186.866E-03    -184.632E-03     667.833E-03    -149.167E-03     86.7181E-03     35.6045E-03    -13.9805E-03    -21.6160E-03    -19.0027E-03     32.9913E-03    -13.9805E-03     17.8941E-03     4.82716E+06    -59.6447E+06    -130.447E+06    -101.264E+06    -24.3556E+06    -59.6447E+06    -54.0085E+06         25.6368
            2067     8.87363E-03     119.828E-03     640.677E-03    -140.111E-03    -174.646E-03    -169.226E-03     635.257E-03    -140.111E-03     117.113E-03     43.6535E-03    -14.9885E-03    -28.6663E-03    -22.3191E-03     37.3063E-03    -14.9885E-03     35.7005E-03     6.46151E+06    -49.0535E+06    -117.272E+06    -92.3702E+06    -18.4402E+06    -49.0535E+06    -46.5391E+06         27.0998
            2068     9.85025E-03     119.952E-03     606.803E-03    -125.473E-03    -163.536E-03    -154.745E-03     598.012E-03    -125.473E-03     147.958E-03     57.9101E-03    -16.4187E-03    -41.4935E-03    -27.8080E-03     44.2247E-03    -16.4187E-03     64.7445E-03     29.4583E+06    -11.0383E+06    -88.4847E+06    -55.0023E+06    -15.1226E+06     60.1358E+03    -29.8262E+06         29.2273
            2069     10.8233E-03     120.128E-03     560.748E-03    -104.630E-03    -152.645E-03    -146.047E-03     554.150E-03    -104.630E-03     118.405E-03     80.7470E-03    -18.2470E-03    -62.5070E-03    -37.4121E-03     55.6521E-03    -18.2470E-03     106.377E-03     61.2937E+06     31.9102E+06    -54.7033E+06    -13.2644E+06     338.221E+03     51.4268E+06    -13.9286E+06         32.1738
            2070     11.7868E-03     120.365E-03     516.513E-03    -76.6783E-03    -150.479E-03    -146.824E-03     512.858E-03    -76.6783E-03     88.6824E-03     116.858E-03    -20.7280E-03    -96.1315E-03    -56.2252E-03     76.9517E-03    -20.7280E-03     164.652E-03     88.2678E+06     36.3058E+06    -24.4436E+06    -1.80611E+06     17.9032E+06     84.0329E+06     7.04425E+03         35.8474
            2071     12.7189E-03     120.700E-03     458.881E-03    -40.4856E-03    -140.107E-03    -137.619E-03     456.392E-03    -40.4856E-03     73.6266E-03     161.067E-03    -24.1542E-03    -136.904E-03    -81.7439E-03     105.907E-03    -24.1542E-03     230.888E-03     107.215E+06     35.6018E+06    -20.0851E+06    -9.81597E+06     25.3327E+06     107.215E+06    -6.89008E+06         40.4240
            2072     13.6391E-03     121.120E-03     372.686E-03     3.76448E-03    -120.247E-03    -118.908E-03     371.346E-03     3.76448E-03     45.0611E-03     202.646E-03    -28.2826E-03    -174.395E-03    -108.097E-03     136.348E-03    -28.2826E-03     286.751E-03     82.7026E+06     32.0967E+06    -57.5871E+06    -22.3196E+06    -3.17085E+06     82.7026E+06    -29.6021E+06         45.8796
            2073     14.5519E-03     121.614E-03     281.121E-03     55.7192E-03    -100.214E-03    -99.4141E-03     280.321E-03     55.7192E-03     27.9262E-03     250.273E-03    -33.4659E-03    -216.843E-03    -144.808E-03     178.238E-03    -33.4659E-03     336.282E-03     80.5366E+06     50.1220E+06    -79.2135E+06    -46.0153E+06     18.0383E+06     79.4220E+06    -31.6541E+06         51.3091
            2074     15.4245E-03     122.222E-03     221.973E-03     83.2440E-03    -96.1177E-03    -95.0660E-03     186.567E-03     117.599E-03     31.2836E-03     312.736E-03    -40.2592E-03    -272.522E-03    -193.883E-03     234.096E-03    -40.2592E-03     396.966E-03     95.3711E+06     59.9293E+06    -118.187E+06    -52.1087E+06     3.41814E+06     85.8039E+06    -21.6426E+06         55.4532
            2075     16.2625E-03     122.986E-03     210.244E-03     63.7928E-03    -99.5795E-03    -97.2490E-03     88.6385E-03     183.067E-03     29.0040E-03     331.460E-03    -46.9826E-03    -284.451E-03    -187.952E-03     234.961E-03    -46.9826E-03     431.486E-03     87.5772E+06     22.7584E+06    -121.958E+06    -26.5683E+06    -49.0975E+06     64.0434E+06    -26.9982E+06         57.4319
            2076     985.749E-06     120.591E-03     360.541E-03    -1.56170E-03    -26.1740E-03    -11.1795E-03     352.148E-03    -8.16305E-03    -61.0607E-03     29.5239E-03    -14.1218E-03    -15.4048E-03    -14.7837E-03     29.4866E-03    -14.7056E-03    -2.25622E-03    -882.557E+03    -14.0714E+06    -34.2165E+06    -11.3164E+06    -23.9939E+06    -13.8601E+06    -7.34362E+06         22.2011
            2077     1.97094E-03     120.598E-03     390.381E-03    -12.5799E-03    -30.3473E-03    -28.7890E-03     388.822E-03    -12.5799E-03     27.0173E-03     31.4117E-03    -15.0519E-03    -16.3593E-03    -16.2493E-03     31.3017E-03    -15.0519E-03    -4.46620E-03     4.69353E+06    -14.3643E+06    -28.8937E+06    -15.9047E+06    -8.51692E+06    -14.1429E+06    -12.0950E+06         22.3457
            2078     2.95459E-03     120.605E-03     403.543E-03    -15.1598E-03    -30.0955E-03    -26.4940E-03     401.376E-03    -16.5945E-03     38.4882E-03     34.0768E-03    -15.8091E-03    -18.2594E-03    -18.0596E-03     33.8770E-03    -15.8091E-03    -6.41875E-03     6.00880E+06    -11.4200E+06    -33.3577E+06    -19.2974E+06    -8.27290E+06    -11.1986E+06    -15.9029E+06         22.5686
            2079     3.93559E-03     120.621E-03     395.033E-03    -11.2954E-03    -18.5131E-03    -10.6664E-03     391.088E-03    -15.1971E-03     61.4394E-03     37.6199E-03    -16.8007E-03    -20.8156E-03    -20.5256E-03     37.3299E-03    -16.8007E-03    -8.19733E-03     13.3148E+06    -9.35859E+06    -41.3248E+06    -23.3695E+06    -11.2314E+06    -2.76761E+06    -20.8921E+06         22.9204
            2080     4.91363E-03     120.641E-03     397.211E-03    -10.0695E-03    -33.1910E-03    -26.7292E-03     393.216E-03    -12.5365E-03     69.4643E-03     41.3909E-03    -17.9452E-03    -23.4488E-03    -23.1239E-03     41.0660E-03    -17.9452E-03    -9.08768E-03     18.1799E+06    -8.45498E+06    -47.6390E+06    -28.7016E+06    -9.35501E+06     142.499E+03    -23.7259E+06         23.4505
            2081     5.88995E-03     120.674E-03     391.975E-03    -10.7165E-03    -36.5845E-03    -29.9843E-03     385.374E-03    -10.7165E-03     66.6794E-03     45.7269E-03    -19.2652E-03    -26.4408E-03    -26.1328E-03     45.4189E-03    -19.2652E-03    -9.03464E-03     18.1168E+06     43.9922E+03    -52.4567E+06    -33.8733E+06    -7.00362E+06     6.58096E+06    -25.5566E+06         24.1572
            2082     6.86205E-03     120.716E-03     385.774E-03    -6.04054E-03    -31.2359E-03    -12.3533E-03     366.892E-03    -6.04054E-03     112.505E-03     50.7806E-03    -20.7737E-03    -29.9782E-03    -29.6624E-03     50.4648E-03    -20.7737E-03    -8.07552E-03     21.8270E+06    -4.27562E+06    -63.9892E+06    -41.4918E+06    -13.8041E+06     8.85799E+06    -30.6925E+06         25.0314
            2083     7.83002E-03     120.780E-03     389.977E-03     619.162E-06    -54.7696E-03    -38.6374E-03     373.844E-03     619.162E-06     106.615E-03     55.7566E-03    -22.4322E-03    -33.3139E-03    -32.8793E-03     55.3220E-03    -22.4322E-03    -4.57532E-03     21.3837E+06    -3.05476E+06    -74.9963E+06    -49.3278E+06    -13.3420E+06     6.00242E+06    -36.3859E+06         26.1134
            2084     8.79461E-03     120.868E-03     391.260E-03     8.15360E-03    -70.9964E-03    -54.6381E-03     374.901E-03     8.15360E-03     136.938E-03     61.2339E-03    -24.2588E-03    -36.9782E-03    -35.9013E-03     60.1569E-03    -24.2588E-03     3.56820E-03     17.3513E+06    -2.63494E+06    -87.0972E+06    -58.9228E+06    -16.9353E+06     3.47729E+06    -43.0326E+06         27.4964
            2085     9.75476E-03     120.994E-03     373.590E-03     20.5231E-03    -61.5322E-03    -34.8855E-03     346.943E-03     20.5231E-03     186.237E-03     69.4472E-03    -26.3162E-03    -43.1279E-03    -40.0841E-03     66.4034E-03    -26.3162E-03     18.3094E-03     16.0450E+06    -6.96909E+06    -101.650E+06    -71.2599E+06    -22.7186E+06     1.40483E+06    -47.7346E+06         29.3500
            2086     10.7083E-03     121.167E-03     356.092E-03     39.1363E-03    -70.2046E-03    -47.2351E-03     333.122E-03     39.1363E-03     171.633E-03     83.0289E-03    -28.8593E-03    -54.1686E-03    -47.3957E-03     76.2560E-03    -28.8593E-03     40.4804E-03     19.6445E+06    -454.424E+03    -101.832E+06    -73.3230E+06    -19.0965E+06     9.77758E+06    -43.3381E+06         31.8566
            2087     11.6487E-03     121.411E-03     326.950E-03     63.8946E-03    -78.6562E-03    -64.6133E-03     312.907E-03     63.8946E-03     129.265E-03     104.401E-03    -32.2007E-03    -72.2101E-03    -58.2375E-03     90.4288E-03    -32.2007E-03     77.9941E-03     51.7140E+06     8.29260E+06    -77.3761E+06    -51.9026E+06    -12.9461E+06     47.4791E+06    -23.5599E+06         34.9899
            2088     12.5829E-03     121.754E-03     271.704E-03     94.5119E-03    -72.8019E-03    -58.4864E-03     254.968E-03     96.9325E-03     108.804E-03     128.722E-03    -36.1884E-03    -92.5537E-03    -68.1601E-03     104.328E-03    -36.1884E-03     125.994E-03     105.136E+06     44.2574E+06    -33.2612E+06    -20.1864E+06     31.1826E+06     105.136E+06    -10.5477E+06         38.7608
            2089     13.5050E-03     122.180E-03     246.258E-03     114.821E-03    -81.6544E-03    -58.7014E-03     199.262E-03     138.865E-03     113.494E-03     156.691E-03    -40.5822E-03    -116.163E-03    -82.9278E-03     123.455E-03    -40.5822E-03     170.823E-03     101.123E+06     59.9591E+06    -55.7267E+06    -20.3103E+06     24.5428E+06     101.123E+06     4.39342E+06         43.1375
            2090     14.3890E-03     122.691E-03     240.892E-03     117.573E-03    -83.7270E-03    -62.8734E-03     147.559E-03     190.052E-03     98.0124E-03     200.729E-03    -46.4701E-03    -154.304E-03    -118.387E-03     164.812E-03    -46.4701E-03     205.253E-03     121.630E+06     80.1740E+06    -66.1361E+06    -11.6338E+06     25.6716E+06     121.630E+06     13.2134E+06         47.3630
            2091     15.2309E-03     123.318E-03     258.708E-03     79.5668E-03    -88.3221E-03    -78.6217E-03     78.0763E-03     250.498E-03     63.3140E-03     246.745E-03    -54.0874E-03    -192.714E-03    -151.718E-03     205.749E-03    -54.0874E-03     250.189E-03     164.431E+06     116.322E+06    -34.1925E+06     37.5181E+06     44.6114E+06     164.431E+06     11.8985E+06         50.4356
            2092     16.0049E-03     124.073E-03     309.503E-03     16.4754E-03    -107.862E-03    -73.7257E-03    -17.6613E-03     309.503E-03     16.5284E-03     214.220E-03    -42.7142E-03    -171.479E-03    -84.6958E-03     144.268E-03    -59.5457E-03     265.007E-03     125.132E+06     88.8365E+06    -77.9593E+06     35.8280E+06    -7.26594E+06     107.447E+06     13.3699E+06         52.1260
            2093     980.124E-06     121.628E-03     201.682E-03     139.181E-03    -15.3363E-03     130.338E-03     53.2109E-03     141.978E-03    -46.7885E-03     42.8363E-03    -20.6754E-03    -22.1567E-03    -21.3862E-03     42.7975E-03    -21.4071E-03    -2.96837E-03     34.5575E+06     28.3542E+06    -11.9750E+06     32.0530E+06    -9.92358E+06     28.8072E+06    -8.62889E+06         22.8947
            2094     1.95854E-03     121.634E-03     228.061E-03     134.725E-03    -15.9231E-03     137.942E-03     71.3987E-03     137.521E-03     3.45412E-03     44.6122E-03    -21.5377E-03    -23.0668E-03    -22.8308E-03     44.5241E-03    -21.6857E-03    -4.69429E-03     30.0908E+06     24.1000E+06    -4.21663E+06     26.7969E+06    -1.16336E+06     24.3406E+06    -7.65998E+06         23.0602
            2095     2.93450E-03     121.648E-03     239.707E-03     139.989E-03    -28.5916E-03     145.146E-03     65.5636E-03     140.394E-03    -6.68435E-03     48.5545E-03    -22.6254E-03    -25.9168E-03    -25.7507E-03     48.3885E-03    -22.6254E-03    -6.78277E-03     33.6996E+06     24.3237E+06    -6.03623E+06     21.1883E+06    -1.55710E+06     32.3559E+06    -8.19476E+06         23.3344
            2096     3.90780E-03     121.665E-03     225.982E-03     134.403E-03    -6.54304E-03     130.840E-03     80.3428E-03     142.659E-03     30.5682E-03     53.7098E-03    -24.0186E-03    -29.6815E-03    -29.4113E-03     53.4396E-03    -24.0186E-03    -9.26302E-03     44.8757E+06     22.8086E+06    -9.94574E+06      17.618E+06    -3.41144E+06     43.5320E+06    -9.13605E+06         23.7244
            2097     4.87687E-03     121.693E-03     236.691E-03     128.003E-03    -20.2227E-03     107.386E-03     95.1934E-03     141.892E-03     57.3024E-03     60.5554E-03    -25.7728E-03    -34.7644E-03    -34.3509E-03     60.1418E-03    -25.7728E-03    -12.3867E-03     48.8359E+06     22.7789E+06    -11.7275E+06     14.0749E+06    -3.02341E+06     48.8359E+06    -11.2296E+06         24.2441
            2098     5.84056E-03     121.727E-03     239.923E-03     129.234E-03    -34.5926E-03     109.112E-03     83.9328E-03     141.519E-03     65.7522E-03     69.0252E-03    -27.9448E-03    -41.0156E-03    -40.4031E-03     68.4127E-03    -27.9448E-03    -16.3215E-03     51.7307E+06     23.7086E+06    -14.7616E+06     10.5285E+06    -1.58149E+06     51.7307E+06    -11.7156E+06         24.8982
            2099     6.79702E-03     121.781E-03     235.895E-03     136.868E-03    -30.4317E-03     133.518E-03     63.0166E-03     145.796E-03     123.579E-03     78.7515E-03    -30.6008E-03    -48.0923E-03    -47.2111E-03     77.8703E-03    -30.6008E-03    -20.9899E-03     58.7119E+06     21.2573E+06    -18.4017E+06     6.52581E+06    -3.67021E+06     58.7119E+06    -12.9587E+06         25.6932
            2100     7.74470E-03     121.848E-03     241.506E-03     143.597E-03    -47.5031E-03     118.340E-03     66.0308E-03     153.229E-03     142.701E-03     89.1749E-03    -33.6716E-03    -55.4790E-03    -54.2054E-03     87.9013E-03    -33.6716E-03    -26.5580E-03     59.3613E+06     23.1098E+06    -27.6952E+06    -393.684E+03    -4.19171E+06     59.3613E+06    -15.7993E+06         26.6829
            2101     8.68570E-03     121.942E-03     250.458E-03     140.040E-03    -49.8501E-03     96.9771E-03     82.0398E-03     161.631E-03     136.713E-03     100.586E-03    -37.1573E-03    -63.4063E-03    -61.4270E-03     98.6066E-03    -37.1573E-03    -33.6917E-03     57.4002E+06     21.3696E+06    -33.8785E+06    -8.72274E+06    -3.78624E+06     57.4002E+06    -17.8354E+06         27.9698
            2102     9.61753E-03     122.068E-03     256.994E-03     147.114E-03    -47.6775E-03     94.9424E-03     88.1074E-03     173.380E-03     183.913E-03     113.779E-03    -41.2566E-03    -72.5632E-03    -69.2409E-03     110.457E-03    -41.2566E-03    -42.4007E-03     57.9040E+06     16.5403E+06    -45.3680E+06    -16.6003E+06    -12.2274E+06     57.9040E+06    -19.1897E+06         29.6527
            2103     10.5337E-03     122.247E-03     264.741E-03     161.122E-03    -74.2322E-03     75.5849E-03     85.8750E-03     190.171E-03     221.895E-03     127.286E-03    -46.1109E-03    -81.2265E-03    -75.8594E-03     121.919E-03    -46.1109E-03    -49.6338E-03     62.3632E+06     21.3271E+06    -55.5286E+06    -20.8991E+06    -13.3024E+06     62.3632E+06    -25.5327E+06         31.8196
            2104     11.4323E-03     122.487E-03     260.729E-03     174.970E-03    -87.3486E-03     56.2630E-03     79.1897E-03     212.897E-03     220.906E-03     136.461E-03    -51.5896E-03    -84.8765E-03    -76.8782E-03     128.463E-03    -51.5896E-03    -49.2318E-03     60.6092E+06     13.3293E+06    -65.9523E+06    -23.7582E+06    -28.8648E+06     60.6092E+06    -27.3830E+06         34.4580
            2105     12.3130E-03     122.801E-03     255.876E-03     175.330E-03    -81.5816E-03     41.6667E-03     64.8334E-03     243.124E-03     208.277E-03     137.630E-03    -57.3669E-03    -80.2855E-03    -69.1808E-03     126.525E-03    -57.3669E-03    -40.9714E-03     76.1741E+06     34.3213E+06    -53.4069E+06    -18.2431E+06     3.99665E+06     71.3349E+06    -25.0557E+06         37.4486
            2106     13.1889E-03     123.197E-03     281.770E-03     153.815E-03    -104.877E-03     20.3074E-03     28.6303E-03     281.770E-03     218.625E-03     143.008E-03    -62.9445E-03    -80.1216E-03    -62.8233E-03     126.461E-03    -63.6958E-03    -29.4473E-03     92.5041E+06     54.1531E+06    -64.5709E+06    -4.04352E+06    -1.53512E+06     87.6649E+06     12.7329E+06         40.6607
            2107     14.0538E-03     123.704E-03     330.579E-03     130.537E-03    -145.914E-03    -4.52777E-03    -10.8497E-03     330.579E-03     242.685E-03     156.516E-03    -57.2523E-03    -99.3210E-03    -70.3892E-03     141.734E-03    -71.4021E-03     1.78921E-03     142.153E+06     97.1633E+06    -58.5817E+06     29.4201E+06     13.8808E+06     137.433E+06     14.3786E+06         43.7494
            2108     14.8181E-03     124.354E-03     385.823E-03     62.3773E-03    -165.277E-03    -75.5655E-03    -27.3338E-03     385.823E-03     189.321E-03     152.405E-03    -33.3020E-03    -119.124E-03    -59.1091E-03     137.961E-03    -78.8724E-03     73.1196E-03     132.592E+06     72.5748E+06    -47.8235E+06     20.3754E+06     42.1583E+06     94.8097E+06    -11.2893E+06         46.1606
            2109     15.7108E-03     125.009E-03     433.319E-03    -10.4879E-03    -169.602E-03    -107.631E-03    -72.4596E-03     433.319E-03     10.7949E-03     101.957E-03     2.19137E-03    -104.134E-03     2.31356E-03     80.8359E-03    -83.1350E-03     79.2013E-03     78.4740E+06     24.1696E+06    -87.1046E+06     5.70852E+06    -530.449E+03     10.3610E+06     22.1255E+06         47.8590


