********************************************************************************
Field Output Report, written Mon May  5 23:25:10 2025

Source 1
---------

   ODB: D:/AISI_1020/Vel_20/1020_2a_16_rd_250_cal_50_v_20_f_0100.odb
   Step: Step-1
   Frame: Increment   4023816: Step Time =   0.5630

Loc 1 : Nodal values from source 1

Output sorted by column "Node Label".

Field Output reported at nodes for region: DIE_2A_16_D0_36-1.Region_1
   Computation algorithm: EXTRAPOLATE_COMPUTE_AVERAGE
   Averaged at nodes
   Averaging regions: ODB_REGIONS

      Node Label     COORD.COOR1     COORD.COOR2
                          @Loc 1          @Loc 1
-------------------------------------------------
               1     19.9925E-03     152.033E-03


Field Output reported at nodes for region: DIE_2A_16_D0_36-1.Region_2
   Computation algorithm: EXTRAPOLATE_COMPUTE_AVERAGE
   Averaged at nodes
   Averaging regions: ODB_REGIONS

      Node Label     COORD.COOR1     COORD.COOR2
                          @Loc 1          @Loc 1
-------------------------------------------------
               1     19.9925E-03     152.033E-03


Field Output reported at nodes for part: WIRE_1-1
   Computation algorithm: EXTRAPOLATE_COMPUTE_AVERAGE
   Averaged at nodes
   Averaging regions: ODB_REGIONS

      Node Label     COORD.COOR1     COORD.COOR2    ER.Max. Prin    ER.Mid. Prin    ER.Min. Prin         ER.ER11         ER.ER22         ER.ER33         ER.ER12    PE.Max. Prin    PE.Mid. Prin    PE.Min. Prin         PE.PE11         PE.PE22         PE.PE33         PE.PE12     S.Max. Prin     S.Mid. Prin     S.Min. Prin           S.S11           S.S22           S.S33           S.S12            TEMP
                          @Loc 1          @Loc 1          @Loc 1          @Loc 1          @Loc 1          @Loc 1          @Loc 1          @Loc 1          @Loc 1          @Loc 1          @Loc 1          @Loc 1          @Loc 1          @Loc 1          @Loc 1          @Loc 1          @Loc 1          @Loc 1          @Loc 1          @Loc 1          @Loc 1          @Loc 1          @Loc 1          @Loc 1
-----------------------------------------------------------------------------------------------------------------------------------------------------------------------------------------------------------------------------------------------------------------------------------------------------------------------------------------------------------------------------------------------------------------
               1     17.5097E-03     58.5050E-03         1.25296     791.186E-03        -3.11605     790.659E-03        -3.11552         1.25296     68.3160E-03     68.3502E-03    -28.5296E-03    -39.8130E-03    -27.1258E-03     55.6629E-03    -28.5296E-03     69.6079E-03     192.004E+06     162.177E+06    -4.73634E+06    -4.73436E+06     192.002E+06     162.177E+06     611.364E+03         48.5317
               2     685.318E-09     58.0835E-03         2.62864     576.641E-03        -4.26181         2.38740        -4.02057     576.641E-03        -2.53261     57.0199E-03    -28.2249E-03    -28.7940E-03    -28.7916E-03     57.0174E-03    -28.2249E-03     899.890E-06    -44.1444E+06    -44.6086E+06    -252.512E+06    -44.1456E+06    -252.511E+06    -44.6086E+06    -153.797E+03         24.1933
               3     1.23141E-06     122.935E-09         2.07636         1.98505        -5.44285         2.07573        -5.44221         1.98505    -138.447E-03     123.392E-03    -61.4399E-03    -61.9575E-03    -61.9564E-03     123.391E-03    -61.4399E-03     922.777E-06    -53.0878E+06    -54.0598E+06    -246.386E+06    -53.1036E+06    -246.370E+06    -54.0598E+06    -1.74864E+06         29.7045
               4     17.2727E-03     122.935E-09         1.65389         1.16255        -4.52988         1.16160        -4.52893         1.65389    -147.126E-03     129.968E-03    -38.5714E-03    -91.1220E-03    -76.3285E-03     115.174E-03    -38.5714E-03     110.487E-03     175.040E+06     145.738E+06    -984.823E+03    -746.173E+03     174.801E+06     145.738E+06     6.47694E+06         43.9912
               5     17.2588E-03     117.310E-03     27.0971E-03    -11.0996E-03    -24.8766E-03    -4.69688E-03     20.6944E-03    -24.8766E-03     28.5354E-03     18.1743E-03     15.3075E-03    -33.4781E-03     17.4723E-03     16.0095E-03    -33.4781E-03     2.46548E-03     29.9768E+06     2.81253E+06    -68.5623E+06     29.9760E+06     2.81329E+06    -68.5623E+06    -143.992E+03         53.3719
               6     1.19719E-06     115.615E-03     246.787E-03    -65.0324E-03    -321.544E-03    -61.7483E-03     243.503E-03    -321.544E-03     63.6636E-03     29.2735E-03    -14.2864E-03    -14.9870E-03    -14.9830E-03     29.2695E-03    -14.2864E-03    -843.534E-06     64.2039E+06     60.3812E+06     3.00097E+06     60.2266E+06     3.15552E+06     64.2039E+06    -2.97390E+06         21.8017
               7     16.5361E-03     58.4321E-03         1.26415     807.291E-03        -3.14287     806.988E-03        -3.14256         1.26415     17.5521E-03     76.5437E-03    -28.3784E-03    -48.1521E-03    -27.6258E-03     56.0174E-03    -28.3784E-03     91.3848E-03     185.783E+06     126.375E+06    -8.77263E+06    -8.77099E+06     185.781E+06     126.375E+06     550.423E+03         47.2296
               8     15.5618E-03     58.3119E-03         1.28620     867.266E-03        -3.22146     867.225E-03        -3.22141         1.28620    -14.9984E-03     75.1217E-03    -28.0706E-03    -47.0458E-03    -27.7726E-03     55.8484E-03    -28.0706E-03     87.3391E-03     163.971E+06     51.1337E+06    -14.6866E+06    -14.6854E+06     163.970E+06     51.1337E+06     255.044E+03         44.0496
               9     14.5885E-03     58.2471E-03         1.30769     951.867E-03        -3.32315     951.737E-03        -3.32302         1.30769    -31.0981E-03     61.6997E-03    -27.8190E-03    -33.8868E-03    -27.3065E-03     55.1194E-03    -27.8190E-03     46.6799E-03     134.930E+06    -2.68500E+06    -26.1468E+06    -16.8143E+06     134.929E+06    -12.0170E+06    -37.1590E+03         40.1551
              10     13.6148E-03     58.2133E-03         1.32885         1.01385        -3.40490         1.01370        -3.40475         1.32885    -47.3498E-03     57.4673E-03    -27.8172E-03    -29.6556E-03    -27.3295E-03     55.1412E-03    -27.8172E-03     27.8114E-03     76.5111E+06    -16.4407E+06    -32.1184E+06    -16.4382E+06     76.5086E+06    -32.1184E+06    -273.671E+03         36.4657
              11     12.6420E-03     58.1880E-03         1.35005         1.05763        -3.46554         1.05727        -3.46517         1.35005    -69.2740E-03     56.7934E-03    -27.9726E-03    -28.8343E-03    -27.5854E-03     55.5445E-03    -27.9726E-03     20.2262E-03     8.13886E+06    -18.5764E+06    -28.1820E+06    -15.5510E+06     1.85359E+06    -24.9221E+06    -443.133E+03         33.4907
              12     11.6692E-03     58.1706E-03         1.37140         1.10542        -3.53170         1.10501        -3.53128         1.37140    -29.3487E-03     56.5195E-03    -28.0949E-03    -28.4654E-03    -27.7567E-03     55.8107E-03    -28.0949E-03     15.4044E-03    -13.0007E+06    -18.1371E+06    -50.0026E+06    -15.1149E+06    -49.9886E+06    -16.0368E+06    -317.163E+03         31.1545
              13     10.6963E-03     58.1558E-03         1.39200         1.16462        -3.61228         1.16398        -3.61164         1.39200    -49.4196E-03     56.5663E-03    -28.1981E-03    -28.3785E-03    -27.8326E-03     56.0204E-03    -28.1981E-03     13.5631E-03    -7.88001E+06    -15.1851E+06    -87.0655E+06    -15.1860E+06    -87.0646E+06    -7.88001E+06    -21.7797E+03         29.2433
              14     9.72359E-03     58.1419E-03         1.41072         1.22868        -3.69402         1.22802        -3.69336         1.41072    -47.8553E-03     56.5739E-03    -28.1921E-03    -28.3435E-03    -27.8575E-03     56.1815E-03    -28.2856E-03     11.4034E-03    -1.63372E+06    -16.2845E+06    -113.247E+06    -16.2852E+06    -113.246E+06    -1.63372E+06     217.246E+03         27.6528
              15     8.75095E-03     58.1318E-03         1.42765         1.27492        -3.76078         1.27482        -3.76067         1.42765     18.2388E-03     56.5704E-03    -28.1914E-03    -28.3610E-03    -27.9221E-03     56.3010E-03    -28.3610E-03     9.53626E-03     1.69331E+06    -18.4469E+06    -135.040E+06    -18.4485E+06    -135.038E+06     1.69331E+06     397.162E+03         26.3998
              16     7.77833E-03     58.1222E-03         1.44353         1.31529        -3.81715         1.31527        -3.81713         1.44353    -15.5777E-03     56.6919E-03    -28.2814E-03    -28.4108E-03    -28.0507E-03     56.4613E-03    -28.4108E-03     8.83106E-03    -69.8302E+03    -20.9289E+06    -154.244E+06    -20.9302E+06    -154.243E+06    -69.8302E+03     354.669E+03         25.5077
              17     6.80593E-03     58.1134E-03         1.45775         1.36321        -3.87596         1.36307        -3.87582         1.45775    -43.7963E-03     56.7727E-03    -28.3246E-03    -28.4522E-03    -28.1477E-03     56.5958E-03    -28.4522E-03     7.72084E-03    -3.08548E+06    -23.6688E+06    -173.371E+06    -23.6691E+06    -173.371E+06    -3.08548E+06     195.563E+03         24.9721
              18     5.83341E-03     58.1061E-03         1.46972         1.40191        -3.92723         1.40158        -3.92690         1.46972     4.21749E-03     56.8377E-03    -28.3520E-03    -28.4914E-03    -28.2219E-03     56.7076E-03    -28.4914E-03     6.64103E-03    -7.39249E+06    -26.8014E+06    -192.799E+06    -26.8018E+06    -192.798E+06    -7.39249E+06     251.302E+03         24.6918
              19     4.86117E-03     58.0993E-03         1.47929         1.43717        -3.96920         1.43609        -3.96812         1.47929    -56.5943E-03     56.9091E-03    -28.3805E-03    -28.5304E-03    -28.2850E-03     56.8135E-03    -28.5304E-03     5.67771E-03    -12.8104E+06    -30.2314E+06    -215.630E+06    -30.2317E+06    -215.630E+06    -12.8104E+06     174.246E+03         24.5203
              20     3.88876E-03     58.0940E-03         1.48655         1.46297        -3.99817         1.46001        -3.99521         1.48655     52.9129E-03     56.9463E-03    -28.3950E-03    -28.5527E-03    -28.3323E-03     56.8836E-03    -28.5527E-03     4.59483E-03    -19.6192E+06    -33.9527E+06    -234.542E+06    -33.9531E+06    -234.542E+06    -19.6192E+06     51.8792E+03         24.3911
              21     2.91648E-03     58.0898E-03         1.49328         1.47887        -4.02133         1.47094        -4.01340         1.49328    -98.7119E-03     56.9984E-03    -28.4446E-03    -28.5556E-03    -28.4065E-03     56.9602E-03    -28.5556E-03     3.57345E-03    -28.5032E+06    -37.6139E+06    -242.979E+06    -37.6149E+06    -242.978E+06    -28.5032E+06     281.249E+03         24.2986
              22     1.94416E-03     58.0864E-03         1.53231         1.49208        -4.07479         1.49935        -4.04569         1.49593     262.606E-03     57.0616E-03    -28.5051E-03    -28.5572E-03    -28.4963E-03     57.0427E-03    -28.5471E-03     2.47116E-03    -36.0029E+06    -40.8056E+06    -248.269E+06    -40.8063E+06    -248.268E+06    -36.0029E+06     176.784E+03         24.2380
              23     972.159E-06     58.0846E-03         2.09819         1.03581        -4.18726         1.95432        -4.04339         1.03581    -754.439E-03     57.0513E-03    -28.3764E-03    -28.6751E-03    -28.6646E-03     57.0449E-03    -28.3805E-03     1.38799E-03    -41.5730E+06    -43.3998E+06    -251.346E+06    -43.1684E+06    -251.345E+06    -41.8051E+06    -151.699E+03         24.2042
              24    -32.8828E-09     57.0263E-03         2.50766     609.435E-03        -4.17181         2.26445        -3.92859     609.435E-03        -2.50229     57.0001E-03    -28.2825E-03    -28.7167E-03    -28.7150E-03     56.9985E-03    -28.2825E-03     570.316E-06    -42.3198E+06    -42.8056E+06    -251.567E+06    -42.3628E+06    -251.566E+06    -42.7639E+06     501.929E+03         24.1917
              25     225.631E-09     55.9693E-03         2.40532     652.829E-03        -4.10269         2.15119        -3.84856     652.829E-03        -2.51993     56.9092E-03    -28.3533E-03    -28.5573E-03    -28.5562E-03     56.9081E-03    -28.3533E-03     478.007E-06    -42.1604E+06    -42.3703E+06    -250.606E+06    -42.3715E+06    -250.605E+06    -42.1604E+06     454.263E+03         24.1885
              26    -13.5436E-09     54.9111E-03         2.22684     591.800E-03        -3.85361         1.93976        -3.56653     591.800E-03        -2.57382     56.8361E-03    -28.3294E-03    -28.5081E-03    -28.4341E-03     56.8339E-03    -28.4011E-03     874.884E-06    -42.8334E+06    -43.9748E+06    -248.652E+06    -43.9754E+06    -248.652E+06    -42.8334E+06     346.938E+03         24.1861
              27    -111.239E-09     53.8542E-03         2.05589     504.392E-03        -3.58625         1.72455        -3.25491     504.392E-03        -2.64978     56.7830E-03    -28.2236E-03    -28.5606E-03    -28.4875E-03     56.7817E-03    -28.2953E-03     646.282E-06    -44.8700E+06    -47.5718E+06    -247.882E+06    -45.8436E+06    -247.882E+06    -46.5987E+06     195.132E+03         24.1850
              28     609.477E-09     52.7972E-03         1.97036     527.868E-03        -3.52689         1.59639        -3.15292     527.868E-03        -2.76721     56.8355E-03    -28.2404E-03    -28.5967E-03    -28.5959E-03     56.8347E-03    -28.2404E-03     514.389E-06    -45.3649E+06    -49.3129E+06    -248.793E+06    -47.5843E+06    -248.793E+06    -47.0936E+06     48.6344E+03         24.1843
              29    -399.035E-09     51.7398E-03         1.88778     508.206E-03        -3.42506         1.45929        -2.99657     508.206E-03        -2.88771     56.8894E-03    -28.3290E-03    -28.5619E-03    -28.5609E-03     56.8884E-03    -28.3290E-03     587.222E-06    -42.9450E+06    -47.4411E+06    -248.075E+06    -45.1658E+06    -248.073E+06    -45.2217E+06    -298.276E+03         24.1844
              30     649.243E-09     50.6818E-03         1.76703     390.425E-03        -3.18055         1.26244        -2.67596     390.425E-03        -2.98798     56.8447E-03    -28.2195E-03    -28.6261E-03    -28.6238E-03     56.8424E-03    -28.2195E-03     845.765E-06    -41.7907E+06    -45.0253E+06    -247.095E+06    -42.7512E+06    -247.093E+06    -44.0674E+06    -17.3319E+03         24.1846
              31    -120.370E-09     49.6249E-03         1.65394     340.362E-03        -3.02151         1.08629        -2.45385     340.362E-03        -3.05245     56.8330E-03    -28.2051E-03    -28.6273E-03    -28.6249E-03     56.8306E-03    -28.2051E-03     878.098E-06    -42.5757E+06    -43.9410E+06    -248.553E+06    -43.9440E+06    -248.549E+06    -42.5757E+06    -63.6413E+03         24.1823
              32     438.075E-09     48.5677E-03         1.56842     278.082E-03        -2.86355     948.181E-03        -2.24331     278.082E-03        -3.07143     56.8914E-03    -28.3109E-03    -28.5807E-03    -28.5791E-03     56.8898E-03    -28.3109E-03     723.663E-06    -41.6907E+06    -42.6206E+06    -249.487E+06    -42.1018E+06    -249.483E+06    -42.2133E+06     25.1092E+03         24.1787
              33    -222.771E-09     47.5100E-03         1.48861     156.102E-03        -2.64328     781.533E-03        -1.93620     156.102E-03        -3.10490     56.7975E-03    -28.2907E-03    -28.5091E-03    -28.5074E-03     56.7959E-03    -28.2907E-03     748.289E-06    -40.6385E+06    -41.4697E+06    -248.688E+06    -40.6406E+06    -248.686E+06    -41.4697E+06     575.157E+03         24.1765
              34     426.685E-09     46.4531E-03         1.39586     88.1935E-03        -2.47228     660.235E-03        -1.73666     88.1935E-03        -3.03599     56.7117E-03    -28.2195E-03    -28.4940E-03    -28.4931E-03     56.7107E-03    -28.2195E-03     551.639E-06      -38.36E+06    -39.4946E+06    -246.352E+06    -39.1953E+06    -246.342E+06    -38.6687E+06     1.10521E+06         24.1763
              35    -81.9983E-09     45.3965E-03         1.30352     48.4700E-03        -2.33494     585.900E-03        -1.61733     48.4700E-03        -2.89447     56.9648E-03    -28.3829E-03    -28.5819E-03    -28.5503E-03     56.9638E-03    -28.4134E-03     579.163E-06    -32.9230E+06    -34.4449E+06    -241.076E+06    -33.7583E+06    -241.066E+06    -33.6191E+06     1.12570E+06         24.1779
              36     15.9925E-09     44.3378E-03         1.13610    -96.5036E-03        -2.01194     430.176E-03        -1.30601    -96.5036E-03        -2.62147     57.0163E-03    -28.3906E-03    -28.6243E-03    -28.5914E-03     57.0140E-03    -28.4211E-03     880.184E-06    -35.8180E+06    -36.9109E+06    -238.224E+06    -36.2187E+06    -238.220E+06    -36.5141E+06     745.593E+03         24.1824
              37     386.238E-09     43.2799E-03     971.613E-03    -230.232E-03        -1.71930     283.805E-03        -1.03149    -230.232E-03        -2.34696     56.4998E-03    -28.0334E-03    -28.4659E-03    -28.4632E-03     56.4971E-03    -28.0334E-03     954.095E-06    -47.9107E+06    -48.4501E+06    -237.969E+06    -48.4567E+06    -237.963E+06    -47.9107E+06     1.12013E+06         24.1884
              38     62.7534E-09     42.2248E-03     820.455E-03    -228.476E-03        -1.57014     247.935E-03    -997.622E-03    -228.476E-03        -2.03467     56.3949E-03    -28.0142E-03    -28.3786E-03    -28.3772E-03     56.3935E-03    -28.0142E-03     640.135E-06    -54.6512E+06    -54.8734E+06    -237.057E+06    -54.8841E+06    -237.046E+06    -54.6512E+06    -321.664E+03         24.1920
              39     205.424E-09     41.1670E-03     682.037E-03    -281.043E-03        -1.37531     193.686E-03    -886.958E-03    -281.043E-03        -1.74490     56.6894E-03    -28.2402E-03    -28.4463E-03    -28.4451E-03     56.6882E-03    -28.2402E-03     595.138E-06    -55.1559E+06    -55.9905E+06    -236.757E+06    -55.2435E+06    -236.749E+06    -55.9109E+06    -985.817E+03         24.1933
              40    -76.3668E-09     40.1091E-03     511.102E-03    -428.485E-03        -1.03301     108.590E-03    -630.494E-03    -428.485E-03        -1.35527     56.5972E-03    -28.2255E-03    -28.3719E-03    -28.3705E-03     56.5958E-03    -28.2255E-03     679.951E-06    -56.0780E+06    -56.9379E+06    -238.420E+06    -56.0798E+06    -238.418E+06    -56.9379E+06     228.660E+03         24.1948
              41     225.679E-09     39.0530E-03     294.279E-03    -445.630E-03    -798.311E-03     50.7338E-03    -554.766E-03    -445.630E-03    -906.941E-03     56.6241E-03    -28.2035E-03    -28.4215E-03    -28.4203E-03     56.6230E-03    -28.2035E-03     626.395E-06    -52.8394E+06    -54.3922E+06    -238.985E+06    -54.2907E+06    -238.982E+06    -52.9443E+06    -29.2023E+03         24.1963
              42     72.8214E-09     37.9951E-03     104.637E-03    -401.973E-03    -670.489E-03    -6.95473E-03    -558.898E-03    -401.973E-03    -509.923E-03     56.8524E-03    -28.2210E-03    -28.6321E-03    -28.6309E-03     56.8513E-03    -28.2210E-03     620.853E-06    -46.2084E+06    -48.6115E+06    -237.853E+06    -47.6587E+06    -237.850E+06    -47.1635E+06    -649.688E+03         24.1938
              43     441.096E-09     36.9378E-03    -49.8061E-03    -342.847E-03    -570.184E-03    -74.1760E-03    -370.177E-03    -518.484E-03    -163.446E-03     56.8777E-03    -28.2847E-03    -28.5914E-03    -28.5896E-03     56.8758E-03    -28.2847E-03     767.427E-06    -39.6946E+06    -41.1359E+06    -238.724E+06    -39.6952E+06    -238.723E+06    -41.1359E+06    -213.717E+03         24.1884
              44    -370.048E-09     35.8806E-03     10.2184E-03    -377.581E-03    -602.526E-03    -173.683E-03    -193.680E-03    -602.526E-03     227.008E-03     57.0176E-03    -28.4209E-03    -28.5945E-03    -28.5923E-03     57.0154E-03    -28.4209E-03     852.458E-06    -35.0847E+06    -36.9854E+06    -239.084E+06    -36.4992E+06    -239.084E+06    -35.5709E+06     61.1575E+03         24.1880
              45     654.376E-09     34.8225E-03     100.845E-03    -490.480E-03    -588.555E-03    -194.467E-03    -195.168E-03    -588.555E-03     585.538E-03     57.1223E-03    -28.4059E-03    -28.7184E-03    -28.7173E-03     57.1212E-03    -28.4059E-03     610.052E-06    -33.8026E+06    -36.8574E+06    -239.118E+06    -35.2171E+06    -239.118E+06    -35.4429E+06     33.6131E+03         24.1932
              46    -326.732E-09     33.7658E-03     114.904E-03    -474.723E-03    -635.158E-03    -127.158E-03    -344.329E-03    -523.490E-03     658.533E-03     57.1127E-03    -28.4517E-03    -28.6637E-03    -28.6629E-03     57.1119E-03    -28.4517E-03     523.518E-06    -35.3974E+06    -38.6620E+06    -239.959E+06    -37.0224E+06    -239.958E+06    -37.0377E+06    -259.760E+03         24.1979
              47     419.792E-09     32.7073E-03     131.856E-03    -473.103E-03    -682.704E-03    -67.3189E-03    -483.529E-03    -473.103E-03     696.109E-03     57.1340E-03    -28.4804E-03    -28.6535E-03    -28.6520E-03     57.1324E-03    -28.4804E-03     707.180E-06    -43.1168E+06    -46.7841E+06    -241.150E+06    -44.7535E+06    -241.138E+06    -45.1598E+06    -1.32707E+06         24.2008
              48    -172.803E-09     31.6497E-03     170.156E-03    -504.090E-03    -673.798E-03    -113.527E-03    -318.339E-03    -575.865E-03     691.769E-03     56.8771E-03    -28.2755E-03    -28.6000E-03    -28.5985E-03     56.8756E-03    -28.2755E-03     695.406E-06    -51.9189E+06    -54.7373E+06    -243.104E+06    -52.7077E+06    -243.090E+06    -53.9619E+06    -666.098E+03         24.2012
              49     549.965E-09     30.5930E-03     90.4637E-03    -494.543E-03    -597.141E-03    -168.629E-03    -235.450E-03    -597.141E-03     557.865E-03     56.7065E-03    -28.2364E-03    -28.4689E-03    -28.4683E-03     56.7059E-03    -28.2364E-03     438.502E-06    -51.9118E+06    -52.8525E+06    -244.334E+06    -52.8542E+06    -244.332E+06    -51.9118E+06     387.118E+03         24.1984
              50    -450.917E-09     29.5359E-03     61.7060E-03    -425.554E-03    -668.845E-03    -33.7753E-03    -542.541E-03    -456.376E-03     449.700E-03     56.9379E-03    -28.3576E-03    -28.5798E-03    -28.5791E-03     56.9372E-03    -28.3576E-03     473.911E-06    -46.5047E+06    -47.1006E+06    -244.639E+06    -47.1036E+06    -244.636E+06    -46.5047E+06    -557.675E+03         24.1931
              51     802.066E-09     28.4772E-03     81.5794E-03    -369.440E-03    -744.499E-03     31.8034E-03    -694.723E-03    -369.440E-03     387.120E-03     56.9700E-03    -28.2861E-03    -28.6823E-03    -28.6803E-03     56.9680E-03    -28.2861E-03     794.135E-06    -42.9589E+06    -44.1232E+06    -244.044E+06    -43.3965E+06    -244.037E+06    -43.6926E+06     86.2186E+03         24.1876
              52    -381.266E-09     27.4204E-03     15.4075E-03    -317.416E-03    -756.707E-03    -19.4317E-03    -721.868E-03    -317.416E-03     319.598E-03     56.6378E-03    -28.1870E-03    -28.4485E-03    -28.4463E-03     56.6355E-03    -28.1870E-03     867.897E-06    -45.4460E+06    -46.8204E+06    -244.828E+06    -46.0939E+06    -244.821E+06    -46.1797E+06     68.8155E+03         24.1832
              53     473.464E-09     26.3636E-03     40.6107E-03    -229.913E-03    -869.749E-03     14.8382E-03    -843.977E-03    -229.913E-03     98.7470E-03     56.6208E-03    -28.1735E-03    -28.4466E-03    -28.4452E-03     56.6193E-03    -28.1735E-03     708.115E-06    -45.4109E+06    -46.2174E+06    -245.380E+06    -46.2207E+06    -245.376E+06    -45.4109E+06    -616.574E+03         24.1783
              54    -16.6850E-09     25.3065E-03     56.8680E-03    -156.680E-03    -988.578E-03     51.7940E-03    -983.504E-03    -156.680E-03    -135.895E-03     56.6898E-03    -28.2108E-03    -28.4815E-03    -28.4418E-03     56.6889E-03    -28.2496E-03     529.868E-06    -42.4130E+06    -43.4688E+06    -247.118E+06    -42.5853E+06    -247.112E+06    -43.3029E+06    -865.487E+03         24.1740
              55    -64.6159E-09     24.2496E-03     140.008E-03    -83.6136E-03        -1.16555     129.769E-03        -1.15531    -83.6136E-03    -212.290E-03     56.6539E-03    -28.1890E-03    -28.4678E-03    -28.4281E-03     56.6530E-03    -28.2278E-03     545.768E-06    -43.4726E+06    -45.0483E+06    -250.435E+06    -44.1653E+06    -250.428E+06    -44.3625E+06    -1.05182E+06         24.1718
              56     545.074E-09     23.1915E-03     258.459E-03     42.6576E-03        -1.39914     236.920E-03        -1.37760     42.6576E-03    -375.361E-03     56.5388E-03    -28.0936E-03    -28.4474E-03    -28.4455E-03     56.5370E-03    -28.0936E-03     785.139E-06    -45.9758E+06    -47.1888E+06    -252.353E+06    -46.6634E+06    -252.351E+06    -46.5030E+06     130.516E+03         24.1669
              57    -329.057E-09     22.1356E-03     396.160E-03     151.682E-03        -1.67054     348.213E-03        -1.62259     151.682E-03    -609.832E-03     56.2771E-03    -28.0600E-03    -28.2197E-03    -28.2181E-03     56.2755E-03    -28.0600E-03     724.918E-06    -46.2073E+06    -46.9588E+06    -252.161E+06    -46.2093E+06    -252.159E+06    -46.9588E+06     632.890E+03         24.1557
              58     419.389E-09     21.0785E-03     604.273E-03     260.109E-03        -2.00539     547.789E-03        -1.94890     260.109E-03    -745.167E-03     56.1498E-03    -27.9907E-03    -28.1621E-03    -28.1608E-03     56.1484E-03    -27.9907E-03     667.211E-06    -45.6022E+06    -46.0833E+06    -252.144E+06    -45.6037E+06    -252.143E+06    -46.0833E+06     550.610E+03         24.1382
              59    -176.449E-09     20.0222E-03     708.436E-03     374.945E-03        -2.23688     668.985E-03        -2.19743     374.945E-03    -676.767E-03     55.9222E-03    -27.8316E-03    -28.0908E-03    -28.0900E-03     55.9213E-03    -27.8316E-03     443.642E-06    -45.4286E+06    -46.1613E+06    -252.059E+06    -45.9065E+06    -252.057E+06    -45.6854E+06    -75.8105E+03         24.1113
              60     450.932E-09     18.9662E-03     738.190E-03     446.538E-03        -2.35261     695.969E-03        -2.31039     446.538E-03    -716.898E-03     55.4287E-03    -27.5357E-03    -27.8914E-03    -27.8913E-03     55.4285E-03    -27.5357E-03     201.177E-06    -45.8025E+06    -46.3350E+06    -251.581E+06    -46.3370E+06    -251.579E+06    -45.8025E+06    -86.0083E+03         24.0649
              61    -13.0588E-09     17.9105E-03     834.237E-03     579.560E-03        -2.62295     778.398E-03        -2.56711     579.560E-03    -870.874E-03     54.6834E-03    -27.1947E-03    -27.4926E-03    -27.4924E-03     54.6833E-03    -27.1947E-03     216.700E-06    -46.3820E+06    -46.6255E+06    -249.753E+06    -46.6269E+06    -249.751E+06    -46.3820E+06     532.890E+03         23.9853
              62     164.746E-09     16.8561E-03     957.554E-03     703.246E-03        -2.88298     910.866E-03        -2.83629     703.246E-03    -822.446E-03     53.1876E-03    -26.5229E-03    -26.6688E-03    -26.6687E-03     53.1874E-03    -26.5229E-03     202.870E-06    -48.0195E+06    -48.4132E+06    -249.224E+06    -48.2175E+06    -249.213E+06    -48.2263E+06     1.27931E+06         23.8594
              63    -26.9181E-09     15.8027E-03         1.05743     839.865E-03        -3.14323         1.01841        -3.10420     839.865E-03    -801.611E-03     50.5803E-03    -25.1529E-03    -25.4281E-03    -25.4278E-03     50.5800E-03    -25.1529E-03    -50.1615E-06    -47.3746E+06    -47.6155E+06    -246.879E+06    -47.4300E+06    -246.858E+06    -47.5814E+06     2.05851E+06         23.6770
              64     433.036E-09     14.7552E-03         1.21625         1.02536        -3.48582         1.18056        -3.45013         1.02536    -795.903E-03     47.3998E-03    -23.5712E-03    -23.8292E-03    -23.7743E-03     47.3977E-03    -23.6241E-03    -684.432E-06    -40.2391E+06    -41.4214E+06    -241.926E+06    -40.2856E+06    -241.914E+06    -41.3873E+06     1.44146E+06         23.4334
              65    -550.911E-09     13.7089E-03         1.33757         1.09552        -3.66847         1.31756        -3.64846         1.09552    -630.550E-03     43.5667E-03    -21.6831E-03    -21.8847E-03    -21.8263E-03     43.5612E-03    -21.7360E-03    -1.18580E-03    -35.2625E+06    -36.5421E+06    -232.885E+06    -35.2970E+06    -232.850E+06    -36.5421E+06     2.17203E+06         23.1354
              66     840.209E-09     12.6671E-03         1.36399         1.23619        -3.86523         1.34667        -3.84791         1.23619    -600.557E-03     38.6318E-03    -19.1769E-03    -19.4552E-03    -19.4473E-03     38.6240E-03    -19.1769E-03    -1.34521E-03    -30.1910E+06     -31.826E+06    -225.021E+06    -31.7494E+06    -224.966E+06    -30.3223E+06     3.23506E+06         22.8018
              67    -568.662E-09     11.6333E-03         1.51285         1.40239        -4.21171         1.50071        -4.19956         1.40239    -513.308E-03     33.5004E-03    -16.6424E-03    -16.8576E-03    -16.8432E-03     33.4860E-03    -16.6424E-03    -1.65210E-03    -22.0720E+06    -23.9570E+06    -218.807E+06    -23.5977E+06    -218.785E+06    -22.4533E+06     1.48783E+06         22.4620
              68     717.877E-09     10.6021E-03         1.58190         1.45208        -4.36003         1.55207        -4.35003         1.47191    -481.616E-03     28.9851E-03    -14.4255E-03    -14.5591E-03    -14.5430E-03     28.9690E-03    -14.4255E-03    -1.66669E-03    -18.8019E+06    -19.5619E+06    -212.736E+06    -18.8067E+06    -212.731E+06    -19.5619E+06     704.378E+03         22.1655
              69    -634.907E-09     9.57653E-03         1.57502         1.53957        -4.45671         1.53301        -4.45015         1.57502    -328.310E-03     25.4719E-03    -12.6994E-03    -12.7719E-03    -12.7371E-03     25.4616E-03    -12.7238E-03    -1.25308E-03    -15.8349E+06    -16.4214E+06    -212.371E+06    -16.0490E+06    -212.365E+06    -16.2136E+06     297.177E+03         21.9765
              70     585.011E-09     8.55281E-03         1.71879         1.65797        -4.70991         1.65270        -4.70464         1.71879    -313.909E-03     24.0584E-03    -11.9343E-03    -12.1240E-03    -12.0946E-03     24.0534E-03    -11.9587E-03    -762.310E-06    -13.4243E+06    -14.4976E+06    -214.133E+06    -14.4992E+06    -214.131E+06    -13.4243E+06    -490.254E+03         21.9661
              71    -243.027E-09     7.53050E-03         1.81984         1.70119        -4.87520         1.69257        -4.86658         1.81984    -474.322E-03     25.9172E-03    -12.8572E-03    -13.0602E-03    -13.0219E-03     25.9166E-03    -12.8949E-03    -172.535E-06    -14.5781E+06    -15.7720E+06    -217.585E+06    -15.4462E+06    -217.583E+06    -14.9065E+06    -599.427E+03         22.2009
              72     170.047E-09     6.50395E-03         1.89754         1.73762        -5.00512         1.81304        -4.99406         1.81107    -542.140E-03     32.1888E-03    -16.0616E-03    -16.1300E-03    -16.0864E-03     32.1830E-03    -16.0993E-03     825.867E-06    -17.4130E+06    -18.6581E+06    -222.549E+06    -18.3352E+06    -222.543E+06    -17.7414E+06    -1.05080E+06         22.7294
              73    -104.506E-09     5.46751E-03         1.98291         1.83604        -5.21893         1.91055        -5.20698         1.89644    -578.961E-03     43.6467E-03    -21.6937E-03    -21.9552E-03    -21.9334E-03     43.6249E-03    -21.6937E-03     2.36122E-03    -22.7291E+06    -24.2680E+06    -228.764E+06    -24.2802E+06    -228.752E+06    -22.7291E+06    -1.52218E+06         23.5945
              74     550.895E-09     4.41716E-03         1.97588         1.86636        -5.23874         1.84914        -5.22152         1.97588    -675.922E-03     60.1381E-03    -29.9046E-03    -30.2337E-03    -30.0991E-03     60.1018E-03    -30.0029E-03     3.62196E-03    -27.2347E+06    -29.9492E+06    -234.016E+06    -27.8706E+06    -234.002E+06    -29.3270E+06    -1.65490E+06         24.8045
              75    -774.469E-09     3.34705E-03         2.00283         1.85772        -5.23305         1.93756        -5.21688         1.90682    -646.845E-03     81.1234E-03    -40.4592E-03    -40.6650E-03    -40.5295E-03     81.0862E-03    -40.5575E-03     4.22415E-03    -29.9077E+06    -32.6711E+06    -237.628E+06    -29.9154E+06    -237.620E+06    -32.6711E+06    -118.793E+03         26.2505
              76     969.953E-09     2.25111E-03         2.05577         1.92234        -5.39345         2.00943        -5.38454         1.95976    -510.714E-03     102.680E-03    -51.2339E-03    -51.4423E-03    -51.4183E-03     102.656E-03    -51.2339E-03     3.71871E-03    -36.4624E+06    -38.6589E+06    -240.189E+06    -38.0028E+06    -240.174E+06    -37.1335E+06    -514.721E+03         27.7117
              77    -770.904E-09     1.13138E-03         2.06582         1.98274        -5.45079         2.02264        -5.44503         2.02016    -353.615E-03     118.039E-03    -58.8393E-03    -59.1989E-03    -59.1912E-03     118.031E-03    -58.8393E-03     2.01684E-03    -47.5690E+06    -49.5803E+06    -244.111E+06    -49.1141E+06    -244.091E+06    -48.0550E+06    -1.95742E+06         29.0595
              78     938.823E-06     122.935E-09         2.04707         1.98950        -5.44072         2.03429        -5.43985         2.00141     21.1152E-03     122.195E-03    -60.6675E-03    -61.5294E-03    -60.9211E-03     122.190E-03    -61.2706E-03     1.74915E-03    -51.5687E+06    -53.4870E+06    -245.149E+06    -53.0090E+06    -245.141E+06    -52.0547E+06    -921.449E+03         29.6301
              79     1.88018E-03     122.935E-09         2.00728         1.96607        -5.38832         1.96551        -5.38776         2.00728     79.4137E-03     118.850E-03    -58.2948E-03    -60.5474E-03    -58.2768E-03     118.832E-03    -60.5474E-03     3.44342E-03    -48.6034E+06    -51.7386E+06    -244.426E+06    -51.7464E+06    -244.418E+06    -48.6034E+06    -919.728E+03         29.4373
              80     2.82370E-03     122.935E-09         2.00393         1.96431        -5.36735         1.97462        -5.36734         1.99361    -10.7741E-03     113.616E-03    -54.4094E-03    -59.1946E-03    -54.3739E-03     113.580E-03    -59.1946E-03     4.83269E-03    -46.7568E+06    -48.8253E+06    -246.070E+06    -48.8332E+06    -246.062E+06    -46.7568E+06    -989.521E+03         29.1949
              81     3.77279E-03     122.935E-09         2.00039         1.97703        -5.38234         1.98732        -5.38230         1.99007     24.0019E-03     107.163E-03    -49.7462E-03    -57.4112E-03    -49.6861E-03     107.103E-03    -57.4112E-03     6.07052E-03    -45.6847E+06    -49.2596E+06    -246.968E+06    -46.0857E+06    -246.933E+06    -48.8941E+06    -2.00441E+06         28.9969
              82     4.72633E-03     122.935E-09         1.98319         1.91887        -5.31768         1.91871        -5.31752         1.98319     65.2620E-03     100.569E-03    -45.1953E-03    -55.3747E-03    -45.1097E-03     100.483E-03    -55.3747E-03     7.04314E-03    -43.4422E+06    -54.1629E+06    -250.603E+06    -43.5164E+06    -250.529E+06    -54.1629E+06    -3.92025E+06         28.9244
              83     5.68447E-03     122.935E-09         1.96670         1.84892        -5.22870         1.84878        -5.22856         1.96670     57.8284E-03     94.4154E-03    -41.1374E-03    -53.2523E-03    -41.0227E-03     94.3007E-03    -53.2523E-03     7.84067E-03    -38.4893E+06    -62.4444E+06    -253.918E+06    -38.6858E+06    -253.722E+06    -62.4444E+06    -6.17645E+06         29.0066
              84     6.64632E-03     122.935E-09         1.94646         1.80458        -5.16685         1.80448        -5.16676         1.94646     49.6474E-03     89.1306E-03    -37.9625E-03    -51.1195E-03    -37.7892E-03     88.9574E-03    -51.1195E-03     9.30263E-03    -30.3262E+06    -78.1341E+06    -237.469E+06    -30.7345E+06    -237.061E+06    -78.1341E+06    -9.09451E+06         29.2510
              85     7.60981E-03     122.935E-09         1.92694         1.78165        -5.13400         1.78150        -5.13385         1.92694     65.7965E-03     84.5110E-03    -35.4426E-03    -49.0396E-03    -35.1866E-03     84.2549E-03    -49.0396E-03     11.0156E-03    -21.2474E+06    -101.726E+06    -203.455E+06    -21.8740E+06    -202.828E+06    -101.726E+06    -10.5638E+06         29.6611
              86     8.57613E-03     122.935E-09         1.90921         1.75893        -5.10069         1.75879        -5.10056         1.90921     61.5094E-03     78.8100E-03    -31.7432E-03    -47.0476E-03    -31.5044E-03     78.5713E-03    -47.0476E-03     10.2081E-03    -14.8493E+06    -121.687E+06    -166.741E+06    -15.5025E+06    -166.088E+06    -121.687E+06    -9.93674E+06         30.2289
              87     9.54978E-03     122.935E-09         1.88963         1.67261        -5.00587         1.67243        -5.00569         1.88963     67.7266E-03     71.4938E-03    -26.4657E-03    -45.0487E-03    -26.3177E-03     71.3458E-03    -45.0487E-03     7.59430E-03    -8.63117E+06    -117.464E+06    -139.313E+06    -9.60280E+06    -126.467E+06    -129.339E+06    -10.2403E+06         30.9206
              88     10.5279E-03     122.935E-09         1.86448         1.56155        -4.87630         1.56143        -4.87618         1.86448     45.7125E-03     65.8431E-03    -22.8820E-03    -43.0299E-03    -22.6878E-03     65.6488E-03    -43.0299E-03     8.10371E-03    -2.57013E+06    -77.9744E+06    -127.712E+06    -3.68948E+06    -76.8550E+06    -127.712E+06    -9.10163E+06         31.7387
              89     11.5058E-03     122.935E-09         1.83532         1.47978        -4.77427         1.47977        -4.77426         1.83532     17.0583E-03     65.2069E-03    -23.9982E-03    -41.2275E-03    -23.6055E-03     64.8142E-03    -41.2275E-03     11.6905E-03     12.0091E+06    -24.8478E+06    -119.971E+06    -290.147E+03    -12.5486E+06    -119.971E+06    -6.04317E+06         32.7722
              90     12.4804E-03     122.935E-09         1.80434         1.39728        -4.67505         1.39726        -4.67503         1.80434    -2.46429E-03     66.4614E-03    -26.5592E-03    -39.9074E-03    -26.0800E-03     65.9823E-03    -39.9074E-03     13.3055E-03     56.0147E+06     544.585E+03    -99.0709E+06     1.24609E+06     55.3132E+06    -99.0709E+06    -3.62158E+06         34.1165
              91     13.4515E-03     122.935E-09         1.77188         1.31366        -4.57192         1.31355        -4.57181         1.77188    -46.5945E-03     65.9609E-03    -27.0192E-03    -39.0251E-03    -26.2902E-03     65.2320E-03    -39.0251E-03     16.0479E-03     108.170E+06    -521.572E+03    -51.1101E+06    -504.693E+03     108.153E+06    -51.1101E+06    -298.318E+03         35.8362
              92     14.4244E-03     122.935E-09         1.73828         1.23475        -4.48344         1.23461        -4.48330         1.73828    -56.6701E-03     64.6278E-03    -26.2366E-03    -38.4003E-03    -24.9529E-03     63.3441E-03    -38.4003E-03     21.3074E-03     143.152E+06     17.7776E+06    -9.08679E+06    -819.365E+03     143.117E+06     9.54437E+06    -1.08977E+06         37.9485
              93     15.3952E-03     122.935E-09         1.70341         1.13925        -4.39930         1.13894        -4.39899         1.70341     30.4477E-03     64.4134E-03    -26.4032E-03    -37.8869E-03    -24.1456E-03     62.1557E-03    -37.8869E-03     27.9368E-03     167.505E+06     76.8923E+06     1.49738E+06     1.57293E+06     167.429E+06     76.8923E+06     423.674E+03         40.3985
              94     16.3714E-03     122.935E-09         1.66971         1.12299        -4.44300         1.12225        -4.44226         1.66971    -20.4462E-03     97.4417E-03    -32.8575E-03    -64.3750E-03    -50.2544E-03     88.5632E-03    -38.0997E-03     71.4922E-03     176.351E+06     130.678E+06     552.888E+03     716.835E+03     176.187E+06     130.678E+06     5.21712E+06         42.8440
              95     17.3542E-03     1.18184E-03         1.65380         1.12003        -4.39474         1.11586        -4.39057         1.65380    -272.245E-03     114.983E-03    -37.2222E-03    -77.6609E-03    -57.6458E-03     94.9679E-03    -37.2222E-03     114.463E-03     177.187E+06     141.534E+06    -7.74508E+06    -7.55531E+06     176.997E+06     141.534E+06     5.85040E+06         43.6169
              96     17.3985E-03     2.23697E-03         1.64817         1.07386        -4.20886         1.06900        -4.20401         1.64817    -308.304E-03     91.2052E-03    -34.7738E-03    -56.4517E-03    -37.1965E-03     71.9500E-03    -34.7738E-03     98.7691E-03     184.885E+06     147.777E+06    -3.08963E+06    -2.95351E+06     184.749E+06     147.777E+06     5.05660E+06         43.1256
              97     17.4328E-03     3.28213E-03         1.63211         1.06998        -4.12165         1.06788        -4.11955         1.63211    -208.568E-03     81.7711E-03    -32.5830E-03    -49.1806E-03    -41.2546E-03     73.8450E-03    -32.5830E-03     57.7321E-03     185.861E+06     154.150E+06    -890.615E+03    -674.953E+03     185.646E+06     154.150E+06     6.23009E+06         43.0702
              98     17.4605E-03     4.36305E-03         1.60584         1.02271        -4.00627         1.02143        -4.00499         1.60584    -155.834E-03     81.8151E-03    -30.7708E-03    -51.0542E-03    -48.9858E-03     79.7467E-03    -30.7708E-03     32.5992E-03     179.865E+06     152.601E+06    -5.94193E+06    -5.77827E+06     179.701E+06     152.601E+06     4.89567E+06         43.3114
              99     17.4801E-03     5.45413E-03         1.56954     970.147E-03        -3.89921     969.638E-03        -3.89870         1.56954    -98.5646E-03     82.6979E-03    -29.5663E-03    -53.1454E-03    -51.2856E-03     80.8381E-03    -29.5663E-03     31.4717E-03     178.032E+06     155.537E+06    -4.07442E+06    -4.03611E+06     177.994E+06     155.537E+06     2.61511E+06         43.7391
             100     17.4940E-03     6.54776E-03         1.52465     972.588E-03        -3.84847     972.408E-03        -3.84829         1.52465    -41.1944E-03     82.3435E-03    -28.7816E-03    -53.6686E-03    -51.0471E-03     79.7221E-03    -28.7816E-03     37.2390E-03     178.027E+06     156.650E+06    -5.76687E+06    -5.73951E+06     177.999E+06     156.650E+06     2.00579E+06         44.2515
             101     17.5025E-03     7.63619E-03         1.47379     984.495E-03        -3.79607     984.471E-03        -3.79605         1.47379     15.6431E-03     81.1588E-03    -28.3227E-03    -53.0085E-03    -49.2926E-03     77.4429E-03    -28.3227E-03     43.8455E-03     178.671E+06     158.384E+06    -5.15683E+06    -5.15115E+06     178.665E+06     158.384E+06     1.02115E+06         44.7654
             102     17.5074E-03     8.72273E-03         1.41693     968.978E-03        -3.70148     968.848E-03        -3.70135         1.41693    -16.0084E-03     79.6970E-03    -28.1126E-03    -51.7930E-03    -46.8121E-03     74.7160E-03    -28.1126E-03     50.0744E-03     178.951E+06     159.522E+06    -4.57277E+06    -4.56573E+06     178.944E+06     159.522E+06     1.13192E+06         45.2344
             103     17.5091E-03     9.80263E-03         1.35278     941.401E-03        -3.59829     941.200E-03        -3.59808         1.35278    -1.95125E-03     77.9958E-03    -28.0669E-03    -50.2042E-03    -43.9800E-03     71.7716E-03    -28.0669E-03     55.0116E-03     180.443E+06     159.419E+06    -4.20012E+06    -4.19567E+06     180.439E+06     159.419E+06     795.179E+03         45.6403
             104     17.5097E-03     10.8788E-03         1.28298     938.329E-03        -3.51666     938.048E-03        -3.51638         1.28298     69.7372E-03     76.6155E-03    -28.1012E-03    -48.7740E-03    -41.2916E-03     69.1331E-03    -28.1012E-03     59.3290E-03     181.767E+06     159.349E+06    -4.31127E+06    -4.31057E+06     181.767E+06     159.349E+06     357.989E+03         45.9889
             105     17.5096E-03     11.9520E-03         1.20851     922.658E-03        -3.41590     922.301E-03        -3.41554         1.20851     78.7017E-03     74.7534E-03    -28.1742E-03    -46.8260E-03    -38.4240E-03     66.3514E-03    -28.1742E-03     61.6470E-03     182.185E+06     159.034E+06    -4.16917E+06    -4.16612E+06     182.182E+06     159.034E+06    -329.266E+03         46.2922
             106     17.5098E-03     13.0177E-03         1.12964     883.742E-03        -3.28547     883.564E-03        -3.28530         1.12964     31.0081E-03     72.6107E-03    -28.2575E-03    -44.4754E-03    -35.3851E-03     63.5204E-03    -28.2575E-03     62.6308E-03     182.230E+06     158.089E+06    -4.50138E+06    -4.49741E+06     182.226E+06     158.089E+06    -844.778E+03         46.5594
             107     17.5097E-03     14.0840E-03         1.04936     865.726E-03        -3.16815     865.108E-03        -3.16754         1.04936     62.6965E-03     71.2626E-03    -28.3372E-03    -42.8888E-03    -32.8883E-03     61.2621E-03    -28.3372E-03     64.5116E-03     181.606E+06     157.314E+06    -4.46790E+06    -4.46646E+06     181.604E+06     157.314E+06    -474.615E+03         46.7967
             108     17.5092E-03     15.1480E-03     969.572E-03     869.324E-03        -3.07730     868.420E-03        -3.07639     969.572E-03     117.621E-03     70.2157E-03    -28.4078E-03    -41.7703E-03    -30.8559E-03     59.3013E-03    -28.4078E-03     66.4043E-03     181.622E+06     157.337E+06    -4.01450E+06    -4.01423E+06     181.622E+06     157.337E+06    -50.1498E+03         47.0053
             109     17.5095E-03     16.2060E-03     888.364E-03     857.249E-03        -2.96790     856.709E-03        -2.96736     888.364E-03     90.8783E-03     69.0982E-03    -28.4469E-03    -40.6341E-03    -29.3682E-03     57.8323E-03    -28.4469E-03     66.6125E-03     181.636E+06     157.281E+06    -3.84190E+06    -3.84027E+06     181.635E+06     157.281E+06     463.828E+03         47.1863
             110     17.5096E-03     17.2667E-03     829.411E-03     802.606E-03        -2.83931     826.509E-03        -2.83906     805.253E-03     50.4614E-03     68.2293E-03    -28.4788E-03    -39.7260E-03    -28.1931E-03     56.6963E-03    -28.4788E-03     66.6825E-03     182.150E+06     156.944E+06    -4.18486E+06    -4.18317E+06     182.148E+06     156.944E+06     492.197E+03         47.3398
             111     17.5093E-03     18.3245E-03     793.036E-03     722.571E-03        -2.69882     792.464E-03        -2.69825     722.571E-03     69.2763E-03     67.6118E-03    -28.5057E-03    -39.0630E-03    -27.2959E-03     55.8447E-03    -28.5057E-03     66.8366E-03     183.082E+06     157.331E+06    -4.50449E+06    -4.50340E+06     183.081E+06     157.331E+06     413.213E+03         47.4673
             112     17.5098E-03     19.3797E-03     778.464E-03     640.960E-03        -2.57347     777.879E-03        -2.57289     640.960E-03     50.2333E-03     67.5795E-03    -28.5013E-03    -39.0497E-03    -27.3614E-03     55.8912E-03    -28.5013E-03     66.6238E-03     184.160E+06     157.709E+06    -4.68900E+06    -4.68804E+06     184.159E+06     157.709E+06     321.663E+03         47.5725
             113     17.5093E-03     20.4409E-03     782.882E-03     560.772E-03        -2.48130     782.488E-03        -2.48090     560.772E-03     37.3880E-03     67.9568E-03    -28.4990E-03    -39.4382E-03    -27.5164E-03     56.0350E-03    -28.4990E-03     67.4715E-03     185.261E+06     157.957E+06    -4.77203E+06    -4.77202E+06     185.261E+06     157.957E+06     18.7035E+03         47.6569
             114     17.5097E-03     21.4974E-03     762.953E-03     484.194E-03        -2.37352     762.456E-03        -2.37302     484.194E-03     21.7481E-03     67.8180E-03    -28.5032E-03    -39.3003E-03    -27.2178E-03     55.7355E-03    -28.5032E-03     67.7722E-03     185.274E+06     157.509E+06    -4.52210E+06    -4.51868E+06     185.270E+06     157.509E+06    -570.972E+03         47.7249
             115     17.5097E-03     22.5536E-03     724.998E-03     411.284E-03        -2.22908     724.772E-03        -2.22885     411.284E-03    -3.05510E-03     67.6443E-03    -28.4958E-03    -39.1290E-03    -27.2268E-03     55.7420E-03    -28.4958E-03     67.2053E-03     184.991E+06     157.239E+06    -4.46263E+06    -4.45899E+06     184.988E+06     157.239E+06    -423.970E+03         47.7822
             116     17.5098E-03     23.6133E-03     720.604E-03     342.084E-03        -2.13292     720.346E-03        -2.13266     342.084E-03     54.0168E-03     68.1253E-03    -28.4962E-03    -39.6022E-03    -27.4446E-03     55.9677E-03    -28.4962E-03     68.1677E-03     185.561E+06     157.720E+06    -4.12009E+06    -4.11944E+06     185.561E+06     157.720E+06     347.788E+03         47.8319
             117     17.5094E-03     24.6708E-03     712.150E-03     278.278E-03        -2.05288     711.711E-03        -2.05244     278.278E-03     68.7464E-03     68.4649E-03    -28.5078E-03    -39.9243E-03    -27.3981E-03     55.9387E-03    -28.5078E-03     69.3052E-03     186.772E+06     157.979E+06    -4.13484E+06    -4.12587E+06     186.763E+06     157.979E+06     1.10760E+06         47.8766
             118     17.5097E-03     25.7298E-03     692.299E-03     219.710E-03        -1.95580     691.594E-03        -1.95510     219.710E-03    -7.87961E-03     68.0844E-03    -28.5220E-03    -39.5161E-03    -26.8059E-03     55.3742E-03    -28.5220E-03     69.4527E-03     187.512E+06     157.937E+06    -4.80047E+06    -4.79138E+06     187.503E+06     157.937E+06     1.13316E+06         47.9181
             119     17.5095E-03     26.7843E-03     679.301E-03     165.803E-03        -1.86351     678.466E-03        -1.86268     165.803E-03    -1.64065E-03     67.6944E-03    -28.5240E-03    -39.1405E-03    -26.7167E-03     55.2706E-03    -28.5240E-03     68.4822E-03     188.530E+06     158.316E+06    -5.24745E+06    -5.24638E+06     188.529E+06     158.316E+06     453.484E+03         47.9584
             120     17.5096E-03     27.8410E-03     644.370E-03     118.691E-03        -1.77386     643.831E-03        -1.77332     118.691E-03     69.4240E-03     67.6098E-03    -28.5133E-03    -39.0825E-03    -27.2036E-03     55.7310E-03    -28.5133E-03     67.1197E-03     189.571E+06     159.576E+06    -4.72017E+06    -4.71935E+06     189.570E+06     159.576E+06     395.406E+03         47.9979
             121     17.5097E-03     28.8996E-03     642.374E-03     79.8438E-03        -1.73789     642.052E-03        -1.73757     79.8438E-03     54.9694E-03     67.6945E-03    -28.5170E-03    -39.1787E-03    -27.1054E-03     55.6212E-03    -28.5170E-03     67.6578E-03     189.519E+06     160.120E+06    -4.95078E+06    -4.94969E+06     189.518E+06     160.120E+06    -108.286E+03         48.0356
             122     17.5096E-03     29.9574E-03     662.038E-03     48.5863E-03        -1.70151     661.839E-03        -1.70131     48.5863E-03     30.0663E-03     67.9038E-03    -28.5247E-03    -39.3918E-03    -27.0058E-03     55.5177E-03    -28.5247E-03     68.5728E-03     189.612E+06     160.288E+06    -4.72829E+06    -4.72699E+06     189.611E+06     160.288E+06    -499.215E+03         48.0716
             123     17.5097E-03     31.0139E-03     633.393E-03     23.9814E-03        -1.63408     633.391E-03        -1.63407     23.9814E-03    -3.11440E-03     67.7791E-03    -28.5220E-03    -39.2665E-03    -27.1447E-03     55.6573E-03    -28.5220E-03     67.8380E-03     189.872E+06     160.868E+06    -4.14663E+06    -4.14613E+06     189.872E+06     160.868E+06    -230.098E+03         48.1059
             124     17.5097E-03     32.0716E-03     612.466E-03     6.18151E-03        -1.58766     612.457E-03        -1.58765     6.18151E-03    -8.52524E-03     67.5997E-03    -28.5249E-03    -39.0834E-03    -27.0854E-03     55.6017E-03    -28.5249E-03     67.4080E-03     188.878E+06     160.396E+06    -4.45021E+06    -4.44950E+06     188.878E+06     160.396E+06    -270.642E+03         48.1376
             125     17.5096E-03     33.1291E-03     618.734E-03    -3.03391E-03        -1.56921     618.157E-03        -1.56864    -3.03391E-03     43.5786E-03     67.5482E-03    -28.5339E-03    -38.9965E-03    -26.9222E-03     55.4739E-03    -28.5339E-03     67.5471E-03     188.382E+06     160.212E+06    -4.67388E+06    -4.67067E+06     188.379E+06     160.212E+06     229.952E+03         48.1666
             126     17.5095E-03     34.1860E-03     610.514E-03    -3.39685E-03        -1.56605     609.944E-03        -1.56548    -3.39685E-03     46.6788E-03     67.5108E-03    -28.5368E-03    -38.9505E-03    -26.7680E-03     55.3284E-03    -28.5368E-03     67.7779E-03     189.310E+06     160.864E+06    -4.80917E+06    -4.80456E+06     189.305E+06     160.864E+06     944.874E+03         48.1934
             127     17.5099E-03     35.2434E-03     616.927E-03     3.98288E-03        -1.58055     616.879E-03        -1.58051     3.98288E-03    -17.3210E-03     67.7287E-03    -28.5297E-03    -39.1976E-03    -26.9189E-03     55.4501E-03    -28.5297E-03     68.1789E-03     190.245E+06     161.450E+06    -4.62900E+06    -4.62685E+06     190.243E+06     161.450E+06     391.958E+03         48.2187
             128     17.5096E-03     36.3008E-03     626.550E-03     19.5824E-03        -1.59452     626.504E-03        -1.59447     19.5824E-03    -15.5268E-03     67.7214E-03    -28.5282E-03    -39.1660E-03    -27.0092E-03     55.5646E-03    -28.5282E-03     67.8710E-03     190.562E+06     161.730E+06    -4.64411E+06    -4.64408E+06     190.562E+06     161.730E+06    -53.2710E+03         48.2420
             129     17.5097E-03     37.3579E-03     622.677E-03     42.7156E-03        -1.61324     622.658E-03        -1.61322     42.7156E-03     7.92088E-03     67.3983E-03    -28.5319E-03    -38.8371E-03    -26.7665E-03     55.3278E-03    -28.5319E-03     67.4276E-03     189.876E+06     161.328E+06    -4.59910E+06    -4.59848E+06     189.875E+06     161.328E+06    -237.509E+03         48.2638
             130     17.5100E-03     38.4139E-03     615.076E-03     72.8372E-03        -1.64569     614.977E-03        -1.64560     72.8372E-03     28.2219E-03     67.2757E-03    -28.5244E-03    -38.7304E-03    -26.8666E-03     55.4119E-03    -28.5244E-03     66.8382E-03     189.200E+06     160.984E+06    -4.40409E+06    -4.40140E+06     189.198E+06     160.984E+06    -692.151E+03         48.2851
             131     17.5097E-03     39.4719E-03     620.780E-03     110.862E-03        -1.68766     620.664E-03        -1.68755     110.862E-03     5.99805E-03     67.6825E-03    -28.5183E-03    -39.1528E-03    -27.2378E-03     55.7674E-03    -28.5183E-03     67.2593E-03     188.722E+06     161.029E+06    -4.76605E+06    -4.76393E+06     188.720E+06     161.029E+06    -380.920E+03         48.3056
             132     17.5097E-03     40.5309E-03     634.512E-03     154.538E-03        -1.73493     634.408E-03        -1.73482     154.538E-03    -30.9838E-03     67.9554E-03    -28.5281E-03    -39.4548E-03    -27.1799E-03     55.6805E-03    -28.5281E-03     68.3426E-03     189.285E+06     161.902E+06    -4.46540E+06    -4.46244E+06     189.282E+06     161.902E+06     597.614E+03         48.3250
             133     17.5098E-03     41.5876E-03     629.659E-03     203.634E-03        -1.79691     628.716E-03        -1.79597     203.634E-03     47.6691E-03     67.8336E-03    -28.5302E-03    -39.3051E-03    -26.8804E-03     55.4088E-03    -28.5302E-03     68.6088E-03     190.536E+06     161.807E+06    -4.65356E+06    -4.64925E+06     190.532E+06     161.807E+06     902.174E+03         48.3439
             134     17.5100E-03     42.6445E-03     645.311E-03     259.949E-03        -1.87755     644.358E-03        -1.87660     259.949E-03     85.4967E-03     67.9413E-03    -28.5194E-03    -39.3935E-03    -26.9186E-03     55.4664E-03    -28.5194E-03     68.8001E-03     192.215E+06     161.928E+06    -5.23264E+06    -5.23101E+06     192.213E+06     161.928E+06     216.931E+03         48.3625
             135     17.5101E-03     43.7028E-03     672.270E-03     320.688E-03        -1.95939     672.147E-03        -1.95927     320.688E-03     4.09940E-03     68.1903E-03    -28.5224E-03    -39.6569E-03    -27.0527E-03     55.5861E-03    -28.5224E-03     69.2954E-03     193.159E+06     163.153E+06    -4.45707E+06    -4.45674E+06     193.159E+06     163.153E+06    -246.164E+03         48.3796
             136     17.5095E-03     44.7607E-03     652.665E-03     383.704E-03        -2.01940     652.616E-03        -2.01935     383.704E-03    -19.5301E-03     68.1144E-03    -28.5296E-03    -39.5920E-03    -27.0040E-03     55.5264E-03    -28.5296E-03     69.2055E-03     192.125E+06     162.616E+06    -4.71915E+06    -4.71905E+06     192.125E+06     162.616E+06    -70.5972E+03         48.3953
             137     17.5101E-03     45.8153E-03     647.791E-03     450.847E-03        -2.08842     647.319E-03        -2.08795     450.847E-03     47.5850E-03     67.8236E-03    -28.5205E-03    -39.2929E-03    -27.0697E-03     55.6003E-03    -28.5205E-03     68.1092E-03     191.284E+06     161.810E+06    -4.95392E+06    -4.95258E+06     191.282E+06     161.810E+06    -339.963E+03         48.4104
             138     17.5097E-03     46.8749E-03     698.649E-03     521.300E-03        -2.21089     698.174E-03        -2.21041     521.300E-03     45.6100E-03     67.9274E-03    -28.5223E-03    -39.3605E-03    -27.0640E-03     55.6309E-03    -28.5223E-03     68.3462E-03     190.573E+06     162.119E+06    -3.97081E+06    -3.96932E+06     190.572E+06     162.119E+06    -243.307E+03         48.4240
             139     17.5097E-03     47.9323E-03     699.640E-03     591.847E-03        -2.30373     699.583E-03        -2.30367     591.847E-03    -23.2853E-03     67.8782E-03    -28.5324E-03    -39.3319E-03    -26.8629E-03     55.4092E-03    -28.5324E-03     68.7395E-03     189.961E+06     161.779E+06    -4.27812E+06    -4.27600E+06     189.959E+06     161.779E+06     558.558E+03         48.4365
             140     17.5100E-03     48.9868E-03     685.058E-03     645.568E-03        -2.36285     666.166E-03        -2.36262     664.228E-03     15.6682E-03     67.6207E-03    -28.5299E-03    -39.0974E-03    -26.9150E-03     55.4383E-03    -28.5299E-03     67.8721E-03     191.088E+06     161.914E+06    -4.96523E+06    -4.96296E+06     191.086E+06     161.914E+06     608.167E+03         48.4486
             141     17.5097E-03     50.0473E-03     739.570E-03     713.639E-03        -2.48596     713.403E-03        -2.48572     739.570E-03     52.7035E-03     67.9423E-03    -28.5320E-03    -39.4027E-03    -27.0173E-03     55.5570E-03    -28.5320E-03     68.5856E-03     192.324E+06     162.731E+06    -4.75409E+06    -4.75380E+06     192.324E+06     162.731E+06     176.113E+03         48.4594
             142     17.5097E-03     51.1032E-03     813.704E-03     755.726E-03        -2.60470     755.554E-03        -2.60453     813.704E-03    -8.43668E-03     67.6939E-03    -28.5363E-03    -39.1489E-03    -26.8311E-03     55.3761E-03    -28.5363E-03     68.2412E-03     192.227E+06     162.139E+06    -5.09643E+06    -5.09635E+06     192.227E+06     162.139E+06    -77.3505E+03         48.4695
             143     17.5098E-03     52.1589E-03     884.723E-03     712.091E-03        -2.63980     711.882E-03        -2.63959     884.723E-03    -52.9522E-03     67.6552E-03    -28.5253E-03    -39.1116E-03    -26.9771E-03     55.5207E-03    -28.5253E-03     67.7735E-03     192.202E+06     162.268E+06    -4.79198E+06    -4.79153E+06     192.202E+06     162.268E+06    -277.120E+03         48.4795
             144     17.5100E-03     53.2186E-03     954.372E-03     704.375E-03        -2.70427     704.081E-03        -2.70397     954.372E-03     12.3168E-03     68.4196E-03    -28.5150E-03    -39.8614E-03    -27.4341E-03     55.9923E-03    -28.5150E-03     69.0275E-03     192.489E+06     162.889E+06    -4.12279E+06    -4.12231E+06     192.488E+06     162.889E+06    -294.727E+03         48.4891
             145     17.5096E-03     54.2771E-03         1.02304     770.454E-03        -2.84586     770.177E-03        -2.84558         1.02304     61.5027E-03     68.1887E-03    -28.5295E-03    -39.6256E-03    -27.1831E-03     55.7461E-03    -28.5295E-03     68.8960E-03     192.003E+06     162.180E+06    -4.59210E+06    -4.59198E+06     192.003E+06     162.180E+06    -63.1544E+03         48.4974
             146     17.5098E-03     55.3317E-03         1.08799     787.405E-03        -2.93971     787.183E-03        -2.93949         1.08799    -8.67426E-03     67.6048E-03    -28.5360E-03    -39.0568E-03    -26.8173E-03     55.3653E-03    -28.5360E-03     67.9901E-03     191.037E+06     161.332E+06    -4.93788E+06    -4.93719E+06     191.037E+06     161.332E+06    -216.243E+03         48.5057
             147     17.5098E-03     56.3901E-03         1.14708     749.232E-03        -2.96453     749.078E-03        -2.96437         1.14708    -41.0655E-03     67.6754E-03    -28.5289E-03    -39.1445E-03    -26.9590E-03     55.4899E-03    -28.5289E-03     67.9166E-03     190.859E+06     161.270E+06    -4.50584E+06    -4.50498E+06     190.859E+06     161.270E+06    -120.583E+03         48.5146
             148     17.5097E-03     57.4477E-03         1.20183     753.338E-03        -3.02358     752.805E-03        -3.02305         1.20183     55.2120E-03     67.9423E-03    -28.5315E-03    -39.4275E-03    -27.0443E-03     55.5591E-03    -28.5315E-03     68.5913E-03     191.378E+06     161.789E+06    -4.56638E+06    -4.56559E+06     191.377E+06     161.789E+06     378.583E+03         48.5232
             149     17.5099E-03     59.5640E-03         1.29700     794.637E-03        -3.17203     794.330E-03        -3.17172         1.29700    -44.3207E-03     68.1328E-03    -28.5352E-03    -39.5673E-03    -26.8167E-03     55.3823E-03    -28.5352E-03     69.5890E-03     192.609E+06     162.524E+06    -4.87496E+06    -4.87347E+06     192.608E+06     162.524E+06     262.737E+03         48.5397
             150     17.5097E-03     60.6188E-03         1.33345     781.309E-03        -3.19582     780.921E-03        -3.19544         1.33345    -23.4895E-03     67.5129E-03    -28.5427E-03    -38.9860E-03    -26.5712E-03     55.0981E-03    -28.5427E-03     68.3492E-03     192.560E+06     162.441E+06    -5.11733E+06    -5.11672E+06     192.559E+06     162.441E+06    -327.365E+03         48.5476
             151     17.5098E-03     61.6745E-03         1.36452     800.580E-03        -3.22064     800.334E-03        -3.22039         1.36452     62.0089E-03     67.5844E-03    -28.5273E-03    -39.1017E-03    -27.0877E-03     55.5705E-03    -28.5273E-03     67.4478E-03     192.382E+06     162.524E+06    -4.45661E+06    -4.45433E+06     192.379E+06     162.524E+06    -640.327E+03         48.5564
             152     17.5100E-03     62.7344E-03         1.38736     797.770E-03        -3.23775     797.576E-03        -3.23755         1.38736     20.3095E-03     68.1918E-03    -28.5145E-03    -39.6824E-03    -27.3759E-03     55.8853E-03    -28.5145E-03     68.5803E-03     191.644E+06     162.299E+06    -4.00923E+06    -4.00670E+06     191.641E+06     162.299E+06    -687.497E+03         48.5650
             153     17.5099E-03     63.7927E-03         1.40064     747.948E-03        -3.21097     747.912E-03        -3.21093         1.40064    -21.9777E-03     68.4184E-03    -28.5208E-03    -39.8988E-03    -27.2421E-03     55.7617E-03    -28.5208E-03     69.5914E-03     190.785E+06     161.861E+06    -4.37123E+06    -4.37032E+06     190.785E+06     161.861E+06    -146.831E+03         48.5730
             154     17.5098E-03     64.8488E-03         1.40734     737.894E-03        -3.18602     737.889E-03        -3.18601         1.40734    -4.77176E-03     68.0082E-03    -28.5279E-03    -39.4989E-03    -27.1166E-03     55.6259E-03    -28.5279E-03     68.6387E-03     191.021E+06     161.624E+06    -4.59352E+06    -4.59150E+06     191.019E+06     161.624E+06     549.765E+03         48.5811
             155     17.5098E-03     65.9060E-03         1.40677     778.530E-03        -3.21112     778.520E-03        -3.21111         1.40677     10.0626E-03     67.7545E-03    -28.5271E-03    -39.2342E-03    -26.8554E-03     55.3756E-03    -28.5271E-03     68.4418E-03     191.712E+06     161.693E+06    -4.62774E+06    -4.62498E+06     191.709E+06     161.693E+06     725.091E+03         48.5894
             156     17.5102E-03     66.9642E-03         1.39696     779.610E-03        -3.20116     779.586E-03        -3.20114         1.39696    -1.81951E-03     67.7773E-03    -28.5293E-03    -39.2595E-03    -26.5573E-03     55.0751E-03    -28.5293E-03     69.2306E-03     192.740E+06     162.245E+06    -4.57554E+06    -4.57457E+06     192.739E+06     162.245E+06     217.143E+03         48.5975
             157     17.5099E-03     68.0203E-03         1.37818     724.397E-03        -3.12230     724.365E-03        -3.12227         1.37818    -22.2213E-03     67.9742E-03    -28.5316E-03    -39.4703E-03    -26.8362E-03     55.3401E-03    -28.5316E-03     69.2158E-03     194.473E+06     163.309E+06    -4.22722E+06    -4.22661E+06     194.473E+06     163.309E+06     152.424E+03         48.6056
             158     17.5098E-03     69.0773E-03         1.35112     699.584E-03        -3.05866     699.566E-03        -3.05864         1.35112    -12.7722E-03     68.2872E-03    -28.5244E-03    -39.8079E-03    -27.3668E-03     55.8461E-03    -28.5244E-03     68.9939E-03     194.573E+06     162.595E+06    -5.35962E+06    -5.35907E+06     194.572E+06     162.595E+06     267.963E+03         48.6136
             159     17.5099E-03     70.1367E-03         1.31742     716.801E-03        -3.02092     716.787E-03        -3.02091         1.31742    -11.5771E-03     68.1164E-03    -28.5296E-03    -39.6081E-03    -27.0933E-03     55.6016E-03    -28.5296E-03     69.0356E-03     193.927E+06     162.317E+06    -4.81400E+06    -4.81276E+06     193.926E+06     162.317E+06    -313.139E+03         48.6207
             160     17.5099E-03     71.1921E-03         1.27673     708.871E-03        -2.93046     708.575E-03        -2.93017         1.27673    -55.0670E-03     67.8120E-03    -28.5372E-03    -39.2821E-03    -26.9172E-03     55.4471E-03    -28.5372E-03     68.4454E-03     192.446E+06     161.911E+06    -4.58973E+06    -4.58586E+06     192.442E+06     161.911E+06    -857.835E+03         48.6279
             161     17.5094E-03     72.2491E-03         1.22639     665.680E-03        -2.80544     665.380E-03        -2.80514         1.22639    -33.8396E-03     67.6599E-03    -28.5335E-03    -39.1441E-03    -27.1591E-03     55.6749E-03    -28.5335E-03     67.4200E-03     191.826E+06     161.150E+06    -4.54610E+06    -4.53816E+06     191.818E+06     161.150E+06     210.145E+03         48.6357
             162     17.5099E-03     73.3072E-03         1.16878     641.809E-03        -2.71244     641.637E-03        -2.71226         1.16878     42.8410E-03     67.6031E-03    -28.5344E-03    -39.0633E-03    -26.9068E-03     55.4466E-03    -28.5344E-03     67.7842E-03     193.163E+06     161.468E+06    -3.92304E+06    -3.91698E+06     193.157E+06     161.468E+06     995.527E+03         48.6436
             163     17.5096E-03     74.3646E-03         1.10642     638.137E-03        -2.62131     637.696E-03        -2.62087         1.10642    -10.9325E-03     67.7172E-03    -28.5353E-03    -39.1829E-03    -26.7721E-03     55.3064E-03    -28.5353E-03     68.4886E-03     193.998E+06     161.477E+06    -4.97898E+06    -4.97772E+06     193.996E+06     161.477E+06     496.554E+03         48.6526
             164     17.5098E-03     75.4214E-03         1.03725     614.470E-03        -2.49859     613.986E-03        -2.49811         1.03725    -77.4141E-03     67.6924E-03    -28.5341E-03    -39.1665E-03    -26.9140E-03     55.4399E-03    -28.5341E-03     68.0926E-03     196.183E+06     162.261E+06    -4.46791E+06    -4.46668E+06     196.182E+06     162.261E+06     493.822E+03         48.6647
             165     17.5099E-03     76.4782E-03     962.583E-03     577.655E-03        -2.34990     577.231E-03        -2.34947     962.583E-03     1.24156E-03     67.7449E-03    -28.5259E-03    -39.2191E-03    -26.9953E-03     55.5211E-03    -28.5259E-03     68.0611E-03     198.136E+06     162.158E+06    -4.85749E+06    -4.85604E+06     198.134E+06     162.158E+06     542.238E+03         48.6824
             166     17.5099E-03     77.5370E-03     885.015E-03     539.598E-03        -2.19995     539.319E-03        -2.19967     885.015E-03     52.5126E-03     68.0307E-03    -28.5250E-03    -39.5021E-03    -26.9268E-03     55.4553E-03    -28.5250E-03     69.1076E-03     198.715E+06     162.278E+06    -4.78427E+06    -4.78350E+06     198.714E+06     162.278E+06     193.521E+03         48.7099
             167     17.5097E-03     78.5947E-03     803.013E-03     522.365E-03        -2.08698     521.985E-03        -2.08660     803.013E-03    -24.2463E-03     68.0231E-03    -28.5334E-03    -39.4916E-03    -26.7093E-03     55.2408E-03    -28.5334E-03     69.5958E-03     199.039E+06     162.566E+06    -4.49601E+06    -4.49587E+06     199.038E+06     162.566E+06     15.1724E+03         48.7564
             168     17.5100E-03     79.6496E-03     716.048E-03     518.600E-03        -1.96536     518.055E-03        -1.96482     716.048E-03    -73.3047E-03     68.0459E-03    -28.5244E-03    -39.5444E-03    -27.0295E-03     55.5309E-03    -28.5244E-03     68.9850E-03     199.518E+06     162.987E+06    -4.40381E+06    -4.40156E+06     199.516E+06     162.987E+06     560.707E+03         48.8267
             169     17.5096E-03     80.7088E-03     626.819E-03     480.099E-03        -1.78420     479.797E-03        -1.78390     626.819E-03    -13.3622E-03     67.9914E-03    -28.5196E-03    -39.4795E-03    -27.1532E-03     55.6650E-03    -28.5196E-03     68.4917E-03     201.462E+06     163.438E+06    -4.20382E+06    -4.19914E+06     201.457E+06     163.438E+06     981.342E+03         48.9098
             170     17.5101E-03     81.7656E-03     536.898E-03     424.666E-03        -1.60811     424.383E-03        -1.60782     536.898E-03     46.6404E-03     67.9928E-03    -28.5268E-03    -39.4574E-03    -26.8608E-03     55.3961E-03    -28.5268E-03     69.1295E-03     203.768E+06     163.534E+06    -4.78913E+06    -4.78419E+06     203.763E+06     163.534E+06     1.01592E+06         48.9949
             171     17.5096E-03     82.8232E-03     463.807E-03     401.626E-03        -1.49165     418.664E-03        -1.49139     446.514E-03     42.4328E-03     68.1284E-03    -28.5361E-03    -39.5974E-03    -26.7644E-03     55.2955E-03    -28.5361E-03     69.7927E-03     206.718E+06     164.551E+06    -4.77662E+06    -4.75139E+06     206.692E+06     164.551E+06     2.06519E+06         49.0790
             172     17.5098E-03     83.8816E-03     427.510E-03     355.643E-03        -1.35700     426.500E-03        -1.35599     355.643E-03    -41.8380E-03     67.6566E-03    -28.5495E-03    -39.1290E-03    -26.2773E-03     54.8049E-03    -28.5495E-03     69.4884E-03     210.195E+06     165.467E+06    -4.60380E+06    -4.58067E+06     210.172E+06     165.467E+06     1.74749E+06         49.1605
             173     17.5098E-03     84.9339E-03     359.990E-03     263.932E-03        -1.14868     358.894E-03        -1.14758     263.932E-03    -76.2513E-03     67.4179E-03    -28.5377E-03    -38.9061E-03    -26.4680E-03     54.9797E-03    -28.5377E-03     68.3275E-03     212.466E+06     165.660E+06    -5.56251E+06    -5.56201E+06     212.465E+06     165.660E+06     326.851E+03         49.2378
             174     17.5100E-03     85.9936E-03     303.134E-03     173.583E-03    -960.881E-03     301.264E-03    -959.011E-03     173.583E-03     44.4786E-03     67.8712E-03    -28.5198E-03    -39.3930E-03    -27.0956E-03     55.5739E-03    -28.5198E-03     68.3427E-03     214.714E+06     166.433E+06    -4.27259E+06    -4.26941E+06     214.711E+06     166.433E+06     711.562E+03         49.3111
             175     17.5100E-03     87.0526E-03     317.150E-03     86.6702E-03    -859.605E-03     315.361E-03    -857.816E-03     86.6702E-03     76.3625E-03     67.8001E-03    -28.5331E-03    -39.3222E-03    -26.5957E-03     55.0735E-03    -28.5331E-03     69.3178E-03     215.642E+06     166.160E+06    -4.61299E+06    -4.60889E+06     215.638E+06     166.160E+06     922.256E+03         49.3817
             176     17.5103E-03     88.1072E-03     293.884E-03     2.19281E-03    -737.524E-03     290.868E-03    -734.508E-03     2.19281E-03    -60.6329E-03     67.2032E-03    -28.5360E-03    -38.7216E-03    -26.0592E-03     54.5408E-03    -28.5360E-03     68.7283E-03     215.207E+06     165.631E+06    -5.57081E+06    -5.56889E+06     215.205E+06     165.631E+06     51.7453E+03         49.4518
             177     17.5107E-03     89.1629E-03     233.930E-03    -79.4977E-03    -552.980E-03     230.393E-03    -549.443E-03    -79.4977E-03    -100.812E-03     66.6490E-03    -28.5091E-03    -38.1951E-03    -25.9473E-03     54.4013E-03    -28.5091E-03     67.3506E-03     214.341E+06     165.094E+06    -4.53982E+06    -4.53851E+06     214.340E+06     165.094E+06    -531.918E+03         49.5220
             178     17.5113E-03     90.2193E-03     215.819E-03    -156.233E-03    -409.121E-03     213.871E-03    -407.173E-03    -156.233E-03     11.7502E-03     66.6481E-03    -28.4714E-03    -38.2061E-03    -25.8442E-03     54.2863E-03    -28.4714E-03     67.6221E-03     214.352E+06     164.270E+06    -4.53792E+06    -4.53738E+06     214.352E+06     164.270E+06    -156.417E+03         49.5913
             179     17.5119E-03     91.2762E-03     210.627E-03    -224.035E-03    -310.418E-03     208.989E-03    -305.106E-03    -227.710E-03     55.5062E-03     66.9228E-03    -28.4252E-03    -38.5212E-03    -25.8062E-03     54.2079E-03    -28.4252E-03     68.6746E-03     214.512E+06     163.941E+06    -4.81717E+06    -4.81709E+06     214.512E+06     163.941E+06     133.017E+03         49.6593
             180     17.5128E-03     92.3328E-03     175.053E-03    -182.001E-03    -294.522E-03     173.183E-03    -180.131E-03    -294.522E-03    -12.8462E-03     66.7902E-03    -28.3693E-03    -38.4564E-03    -25.4790E-03     53.8128E-03    -28.3693E-03     69.2019E-03     214.917E+06     163.126E+06    -4.25568E+06    -4.25288E+06     214.915E+06     163.126E+06     607.246E+03         49.7247
             181     17.5142E-03     93.3872E-03     134.431E-03    -30.9274E-03    -355.411E-03     128.665E-03    -25.1617E-03    -355.411E-03    -51.3525E-03     66.5379E-03    -28.2836E-03    -38.2545E-03    -25.1858E-03     53.4692E-03    -28.2836E-03     69.2434E-03     215.712E+06     160.803E+06    -5.02434E+06    -5.02140E+06     215.709E+06     160.803E+06     410.279E+03         49.7875
             182     17.5162E-03     94.4424E-03     119.609E-03     70.3644E-03    -408.955E-03     105.533E-03     84.4406E-03    -408.955E-03    -9.69145E-03     65.9871E-03    -28.1563E-03    -37.7730E-03    -24.8701E-03     53.0842E-03    -28.1563E-03     68.4777E-03     214.864E+06     156.960E+06    -5.52415E+06    -5.52137E+06     214.861E+06     156.960E+06    -672.962E+03         49.8488
             183     17.5187E-03     95.4962E-03     147.061E-03     102.513E-03    -455.292E-03     108.298E-03     141.276E-03    -455.292E-03     26.2189E-03     65.2694E-03    -27.9777E-03    -37.2413E-03    -24.2771E-03     52.3052E-03    -27.9777E-03     68.1430E-03     211.279E+06     151.009E+06    -3.88072E+06    -3.86599E+06     211.264E+06     151.009E+06    -1.66782E+06         49.9170
             184     17.5227E-03     96.5488E-03     232.266E-03     89.8832E-03    -494.015E-03     91.4927E-03     230.657E-03    -494.015E-03     19.8518E-03     64.9597E-03    -27.7169E-03    -37.2353E-03    -24.1549E-03     51.8793E-03    -27.7169E-03     68.2831E-03     205.227E+06     142.541E+06    -4.37778E+06    -4.35713E+06     205.206E+06     142.541E+06    -2.07379E+06         50.0164
             185     17.5280E-03     97.6024E-03     328.869E-03     48.6500E-03    -525.233E-03     49.7799E-03     327.739E-03    -525.233E-03    -19.6146E-03     64.8678E-03    -27.3673E-03    -37.4989E-03    -24.3480E-03     51.7170E-03    -27.3673E-03     68.5059E-03     199.659E+06     134.840E+06    -4.14948E+06    -4.12996E+06     199.639E+06     134.840E+06    -1.98964E+06         50.1915
             186     17.5350E-03     98.6556E-03     402.741E-03     29.0282E-03    -550.193E-03     30.0645E-03     401.705E-03    -550.193E-03    -24.2200E-03     64.9426E-03    -26.9506E-03    -38.0313E-03    -24.9403E-03     51.8516E-03    -26.9506E-03     68.6034E-03     193.752E+06     132.593E+06    -3.64899E+06    -3.63011E+06     193.733E+06     132.593E+06    -1.92544E+06         50.5109
             187     17.5429E-03     99.7078E-03     438.949E-03     34.3045E-03    -567.659E-03     34.3693E-03     438.884E-03    -567.659E-03     8.93972E-03     65.3496E-03    -26.4954E-03    -38.9251E-03    -26.7069E-03     53.1313E-03    -26.4954E-03     67.0188E-03     186.401E+06     135.094E+06    -4.67235E+06    -4.64080E+06     186.370E+06     135.094E+06    -2.36728E+06         51.0541
             188     17.5500E-03     100.765E-03     463.837E-03     29.0799E-03    -576.483E-03     30.0356E-03     462.881E-03    -576.483E-03    -22.1052E-03     67.1361E-03    -26.0967E-03    -41.0415E-03    -30.2878E-03     56.3824E-03    -26.0967E-03     64.6527E-03     176.093E+06     143.211E+06    -7.13161E+06    -6.85736E+06     175.819E+06     143.211E+06    -6.21025E+06         51.8610
             189     17.5533E-03     101.825E-03     515.441E-03    -7.46980E-03    -576.681E-03    -6.09884E-03     514.070E-03    -576.681E-03    -5.66174E-03     70.9982E-03    -25.8225E-03    -45.1401E-03    -36.2344E-03     62.0925E-03    -25.8225E-03     61.5275E-03     164.780E+06     151.701E+06    -2.91171E+06    -2.55670E+06     161.167E+06     154.959E+06    -7.52110E+06         52.8666
             190     17.5542E-03     102.893E-03     541.268E-03    -16.5143E-03    -569.034E-03    -15.9216E-03     540.675E-03    -569.034E-03     12.0585E-03     75.4196E-03    -25.6422E-03    -49.7957E-03    -42.6176E-03     68.2415E-03    -25.6422E-03     58.1198E-03     160.976E+06     150.208E+06    -3.10254E+06    -2.97790E+06     150.084E+06     160.976E+06    -4.05875E+06         53.9168
             191     17.5545E-03     103.968E-03     527.536E-03     8.38679E-03    -555.441E-03     8.55697E-03     527.366E-03    -555.441E-03    -18.5064E-03     79.3780E-03    -25.4975E-03    -53.8348E-03    -47.5593E-03     73.1026E-03    -25.4975E-03     56.3889E-03     162.151E+06     143.290E+06    -5.67511E+06    -5.59488E+06     143.210E+06     162.151E+06    -3.31887E+06         54.8799
             192     17.5553E-03     105.045E-03     542.711E-03    -19.4237E-03    -535.332E-03    -19.3712E-03     542.658E-03    -535.332E-03    -6.93718E-03     83.3528E-03    -25.3335E-03    -57.9863E-03    -52.6034E-03     77.9699E-03    -25.3335E-03     53.9856E-03     160.479E+06     134.743E+06    -6.47295E+06     -6.2294E+06     134.499E+06     160.479E+06    -5.64824E+06         55.7166
             193     17.5558E-03     106.126E-03     560.903E-03    -53.8349E-03    -507.270E-03    -52.9431E-03     560.011E-03    -507.270E-03     33.0175E-03     88.7465E-03    -25.1098E-03    -63.6716E-03    -59.3508E-03     84.4257E-03    -25.1098E-03     50.3984E-03     156.990E+06     121.895E+06    -5.47892E+06    -5.17375E+06     121.590E+06     156.990E+06    -6.21906E+06         56.4749
             194     17.5568E-03     107.218E-03     511.383E-03    -32.8088E-03    -472.144E-03    -31.3804E-03     509.954E-03    -472.144E-03     9.92009E-03     96.2576E-03    -24.8364E-03    -71.4263E-03    -68.0061E-03     92.8374E-03    -24.8364E-03     47.2570E-03     152.830E+06     107.203E+06    -6.67960E+06    -6.22093E+06     106.744E+06     152.830E+06    -6.99309E+06         57.2049
             195     17.5571E-03     108.319E-03     466.206E-03    -26.1039E-03    -432.166E-03    -25.2196E-03     465.322E-03    -432.166E-03    -41.4192E-03     105.879E-03    -24.5007E-03    -81.3884E-03    -78.7444E-03     103.235E-03    -24.5007E-03     43.9147E-03     145.761E+06     90.1413E+06    -5.96836E+06    -5.28713E+06     89.4601E+06     145.761E+06    -8.02531E+06         57.8766
             196     17.5583E-03     109.432E-03     444.872E-03    -37.4535E-03    -387.082E-03    -35.8967E-03     443.315E-03    -387.082E-03     14.8738E-03     116.955E-03    -24.1185E-03    -92.8420E-03    -90.7229E-03     114.836E-03    -24.1185E-03     41.9003E-03     140.224E+06      72.579E+06    -2.22243E+06    -1.87347E+06     72.2300E+06     140.224E+06    -4.07749E+06         58.4369
             197     17.5594E-03     110.563E-03     403.607E-03    -40.0482E-03    -336.855E-03    -38.7180E-03     402.277E-03    -336.855E-03     43.5750E-03     127.779E-03    -23.7617E-03    -104.070E-03    -102.031E-03     125.740E-03    -23.7617E-03     43.2873E-03     133.308E+06     58.6030E+06    -5.30447E+06    -5.28060E+06     58.5791E+06     133.308E+06    -1.14842E+06         58.8126
             198     17.5591E-03     111.709E-03     352.588E-03    -48.4049E-03    -283.242E-03    -48.2612E-03     352.444E-03    -283.242E-03     14.2605E-03     139.018E-03    -23.4077E-03    -115.686E-03    -112.775E-03     136.107E-03    -23.4077E-03     53.7167E-03     121.492E+06     47.5402E+06     141.184E+03     1.22379E+06     46.4576E+06     121.492E+06     3.61661E+06         58.8856
             199     17.5603E-03     112.873E-03     285.388E-03    -38.6647E-03    -226.262E-03    -37.6965E-03     284.420E-03    -226.262E-03    -18.2460E-03     151.650E-03    -23.0995E-03    -128.546E-03    -122.852E-03     145.956E-03    -23.0995E-03     78.1483E-03     112.234E+06     38.7822E+06    -4.02532E+06    -2.87420E+06     37.6311E+06     112.234E+06     2.90916E+06         58.4657
             200     17.5599E-03     114.066E-03     204.097E-03    -16.1801E-03    -166.270E-03    -14.0524E-03     201.969E-03    -166.270E-03    -2.32482E-03     157.995E-03    -23.0168E-03    -134.962E-03    -121.110E-03     144.143E-03    -23.0168E-03     120.654E-03     96.0843E+06     38.2681E+06    -5.87302E+06    -2.55644E+06     34.9515E+06     96.0843E+06    -8.85265E+06         57.4145
             201     17.5634E-03     115.252E-03     123.015E-03    -4.11348E-03    -107.105E-03    -505.035E-06     119.407E-03    -107.105E-03     834.286E-06     139.291E-03    -23.9579E-03    -115.384E-03    -80.9733E-03     104.880E-03    -23.9579E-03     164.439E-03     66.4894E+06     22.5159E+06    -14.7073E+06    -10.4986E+06     18.3073E+06     66.4894E+06    -11.3693E+06         55.8554
             202     17.5613E-03     116.326E-03     53.8197E-03    -5.90050E-03    -51.6873E-03    -272.969E-06     48.1922E-03    -51.6873E-03    -4.98536E-03     69.4242E-03    -4.77525E-03    -64.6804E-03    -14.8341E-03     43.9706E-03    -29.1681E-03     91.6743E-03     39.9082E+06     2.90662E+06    -49.7807E+06     468.111E+03     1.92733E+06    -9.36133E+06    -4.03364E+06         54.1771
             203     16.3069E-03     117.029E-03     47.0116E-03    -13.5773E-03    -33.3098E-03    -8.85589E-03     42.2902E-03    -33.3098E-03    -1.32179E-03     31.0515E-03     3.04300E-03    -34.0976E-03     4.34805E-03     29.7464E-03    -34.0976E-03     6.07749E-03     63.2004E+06     18.1672E+06    -35.2982E+06     14.3665E+06     17.7721E+06     13.9308E+06    -2.69401E+06         50.9550
             204     15.3430E-03     116.793E-03     67.0472E-03    -15.1837E-03    -50.5921E-03    -9.39973E-03     61.2632E-03    -50.5921E-03     9.35307E-03     59.7543E-03    -21.1125E-03    -38.6431E-03    -25.6545E-03     59.5135E-03    -33.8602E-03     6.91643E-03     62.2907E+06     22.4842E+06    -31.0844E+06     4.47085E+06    -13.0711E+06     62.2907E+06     2.08736E+06         45.2680
             205     14.4367E-03     116.533E-03     67.3319E-03    -13.2097E-03    -68.5363E-03    -4.67043E-03     58.7926E-03    -68.5363E-03     49.5909E-03     68.4210E-03    -31.5415E-03    -36.9019E-03    -36.2946E-03     68.3913E-03    -32.1190E-03     616.028E-06     58.5747E+06     25.0894E+06    -26.6607E+06     9.94479E+06    -11.5161E+06     58.5747E+06     9.29009E+06         38.8666
             206     13.5044E-03     116.334E-03     88.9720E-03    -21.3563E-03    -85.8309E-03    -15.5500E-03     83.1657E-03    -85.8309E-03     45.2036E-03     62.8384E-03    -30.0003E-03    -32.8587E-03    -32.1267E-03     62.6839E-03    -30.5777E-03    -6.76417E-03     75.6336E+06     15.6974E+06    -2.92367E+06     732.811E+03     12.0409E+06     75.6336E+06     3.58249E+06         33.2864
             207     12.5578E-03     116.186E-03     105.886E-03    -31.1232E-03    -101.264E-03    -29.5860E-03     104.348E-03    -101.264E-03     19.2618E-03     68.5889E-03    -29.1298E-03    -39.4898E-03    -39.0138E-03     68.1129E-03    -29.1298E-03    -14.1219E-03     79.5824E+06     2.49107E+06    -10.1313E+06    -6.62931E+06    -1.01089E+06     79.5824E+06    -4.34399E+06         29.2548
             208     11.6233E-03     116.055E-03     110.402E-03    -53.4254E-03    -114.441E-03    -53.3343E-03     110.310E-03    -114.441E-03    -7.04005E-03     70.9746E-03    -27.3231E-03    -43.6856E-03    -43.0556E-03     70.3446E-03    -27.3231E-03    -16.9492E-03     92.2820E+06     9.40030E+06    -12.0536E+06    -2.22301E+06    -430.251E+03     92.2820E+06    -8.36796E+06         26.7530
             209     10.6850E-03     115.951E-03     125.949E-03    -81.8540E-03    -125.103E-03    -81.4234E-03     125.518E-03    -125.103E-03    -18.0871E-03     66.1364E-03    -25.3579E-03    -40.7554E-03    -40.2770E-03     65.6580E-03    -25.3579E-03    -14.2020E-03     87.7179E+06     6.81954E+06    -9.48002E+06     2.65506E+06    -5.31554E+06     87.7179E+06    -7.10875E+06         25.2455
             210     9.73564E-03     115.870E-03     130.587E-03    -89.9065E-03    -134.619E-03    -86.2856E-03     126.966E-03    -134.619E-03     25.0579E-03     60.6639E-03    -23.5558E-03    -37.0848E-03    -36.7814E-03     60.3606E-03    -23.5558E-03    -10.8406E-03     83.9064E+06     7.80134E+06    -3.37564E+06     4.88761E+06    -461.908E+03     83.9064E+06    -4.90586E+06         24.2556
             211     8.77990E-03     115.805E-03     155.767E-03    -111.347E-03    -143.369E-03    -107.942E-03     152.362E-03    -143.369E-03     46.4258E-03     55.8412E-03    -21.9111E-03    -33.9269E-03    -33.7194E-03     55.6337E-03    -21.9111E-03    -8.60272E-03     79.3930E+06     8.68642E+06    -3.93625E+06     5.35137E+06    -601.196E+03     79.3930E+06    -5.56531E+06         23.6255
             212     7.81939E-03     115.754E-03     182.116E-03    -134.456E-03    -149.829E-03    -134.218E-03     181.877E-03    -149.829E-03     17.3485E-03     50.8278E-03    -20.3748E-03    -30.4611E-03    -30.3150E-03     50.6818E-03    -20.3748E-03    -6.87311E-03     74.1296E+06     11.9455E+06    -3.82211E+06     8.49258E+06    -369.231E+03     74.1296E+06    -6.48900E+06         23.2336
             213     6.85361E-03     115.714E-03     160.515E-03    -129.878E-03    -155.287E-03    -129.746E-03     160.383E-03    -155.287E-03     11.8715E-03     45.9282E-03    -18.9940E-03    -26.9572E-03    -26.8499E-03     45.8208E-03    -18.9940E-03    -5.58616E-03     68.4203E+06     15.5086E+06    -4.30760E+06     12.6254E+06    -1.42437E+06     68.4203E+06    -6.87596E+06         22.9229
             214     5.88291E-03     115.683E-03     158.609E-03    -132.756E-03    -161.699E-03    -130.876E-03     156.729E-03    -161.699E-03     37.8628E-03     41.5614E-03    -17.7688E-03    -23.8014E-03    -23.7230E-03     41.4830E-03    -17.7688E-03    -4.51301E-03     63.2754E+06     17.9505E+06    -1.98156E+06     15.8120E+06     156.964E+03     63.2754E+06    -6.16709E+06         22.6421
             215     4.90875E-03     115.659E-03     181.497E-03    -155.480E-03    -167.796E-03    -149.583E-03     175.600E-03    -167.796E-03     87.1150E-03     37.6250E-03    -16.6985E-03    -20.9102E-03    -20.8573E-03     37.5721E-03    -16.6985E-03    -3.50907E-03     56.6115E+06     23.2597E+06    -2.15469E+06     21.0523E+06     52.6724E+03     56.6115E+06    -7.10545E+06         22.3905
             216     3.93050E-03     115.641E-03     196.367E-03    -159.854E-03    -173.399E-03    -155.301E-03     191.814E-03    -173.399E-03     71.9514E-03     34.3797E-03    -15.8309E-03    -18.5437E-03    -18.5067E-03     34.3426E-03    -15.8309E-03    -2.79430E-03     50.7907E+06     30.3913E+06    -3.35092E+06     28.5207E+06    -1.48023E+06     50.7907E+06    -7.63953E+06         22.1775
             217     2.95007E-03     115.629E-03     217.270E-03    -161.082E-03    -180.205E-03    -159.804E-03     215.993E-03    -180.205E-03     43.7765E-03     31.8649E-03    -15.1317E-03    -16.7281E-03    -16.7036E-03     31.8404E-03    -15.1317E-03    -2.16814E-03     45.4823E+06     36.8247E+06    -1.79202E+06     37.6815E+06    -733.096E+03     43.5665E+06    -6.23485E+06         22.0097
             218     1.96763E-03     115.619E-03     218.895E-03    -179.568E-03    -186.697E-03    -176.918E-03     216.245E-03    -186.697E-03    -13.9834E-03     29.9590E-03    -14.6986E-03    -15.2482E-03    -15.2267E-03     29.9464E-03    -14.7074E-03    -1.48187E-03     47.1588E+06     45.1832E+06    -3.67480E+06     46.6383E+06    -3.15434E+06     45.1832E+06    -5.04105E+06         21.8912
             219     984.314E-06     115.614E-03     228.708E-03    -127.020E-03    -255.447E-03    -123.495E-03     225.183E-03    -255.447E-03    -6.77942E-03     29.2259E-03    -14.4329E-03    -14.7920E-03    -14.7774E-03     29.2201E-03    -14.4417E-03    -992.386E-06     57.5751E+06     55.6040E+06    -1.28662E+06     55.3855E+06    -1.00843E+06     57.5154E+06    -3.86133E+06         21.8234
             220    -495.876E-09     114.584E-03     322.126E-03    -132.649E-03    -331.471E-03    -131.007E-03     320.484E-03    -331.471E-03     31.8202E-03     25.5630E-03    -12.4445E-03    -13.1188E-03    -12.7897E-03     25.5579E-03    -12.7685E-03    -868.841E-06     36.6090E+06     33.5305E+06    -6.76639E+06     33.6690E+06    -5.73777E+06     35.4419E+06    -4.84065E+06         21.6497
             221    -160.783E-09     113.561E-03     448.100E-03    -206.617E-03    -370.253E-03    -205.349E-03     446.831E-03    -370.253E-03    -42.4324E-03     18.3449E-03    -8.97360E-03    -9.37145E-03    -9.04359E-03     18.3411E-03    -9.29764E-03    -628.529E-06    -4.00880E+06    -9.06806E+06    -23.9818E+06    -5.00641E+06    -22.9842E+06    -9.06806E+06    -3.92899E+06         21.2967
             222     254.179E-09     112.547E-03     598.769E-03    -255.550E-03    -459.173E-03    -253.678E-03     596.896E-03    -459.173E-03    -77.0962E-03     12.3747E-03    -6.14536E-03    -6.22896E-03    -6.21676E-03     12.3723E-03    -6.15515E-03    -404.303E-06    -27.2760E+06    -32.4352E+06    -40.5172E+06    -32.4418E+06    -35.3513E+06    -32.4352E+06    -2.74855E+06         20.9182
             223    -223.904E-09     111.537E-03     836.910E-03    -367.724E-03    -563.352E-03    -363.426E-03     832.611E-03    -563.352E-03     67.2148E-03     8.13592E-03    -4.04897E-03    -4.08675E-03    -4.04512E-03     8.13207E-03    -4.08675E-03    -426.157E-06    -44.9859E+06    -60.9952E+06    -65.8815E+06    -63.5677E+06    -47.1884E+06    -61.1065E+06    -6.32440E+06         20.5974
             224     145.976E-09     110.532E-03     985.177E-03    -472.971E-03    -585.462E-03    -468.695E-03     980.901E-03    -585.462E-03     60.1026E-03     5.24462E-03    -2.59760E-03    -2.64694E-03    -2.61583E-03     5.24150E-03    -2.62560E-03    -311.348E-06    -63.3474E+06    -105.460E+06    -106.552E+06    -104.769E+06    -65.0198E+06    -105.571E+06    -7.46324E+06         20.3481
             225    -94.4141E-09     109.527E-03     982.964E-03    -482.903E-03    -571.963E-03    -480.864E-03     980.925E-03    -571.963E-03    -106.243E-03     3.41341E-03    -1.67298E-03    -1.74035E-03    -1.69230E-03     3.41139E-03    -1.71901E-03    -15.0900E-06    -79.9212E+06    -146.028E+06    -147.187E+06    -146.581E+06    -80.3495E+06    -146.205E+06    -4.49218E+06         20.1807
             226     2.29283E-09     108.524E-03         1.12295    -510.521E-03    -667.197E-03    -508.736E-03         1.12117    -667.197E-03    -29.7876E-03     2.22302E-03    -1.08390E-03    -1.13910E-03    -1.07633E-03     2.21545E-03    -1.13910E-03     276.635E-06    -80.1891E+06    -171.200E+06    -176.385E+06    -169.922E+06    -81.4663E+06    -176.385E+06     6.77890E+06         20.1153
             227    -114.856E-09     107.522E-03         1.36097    -661.384E-03    -781.118E-03    -684.173E-03         1.35905    -756.415E-03    -49.8826E-03     2.43504E-03    -1.20729E-03    -1.22772E-03    -1.20258E-03     2.41907E-03    -1.21646E-03     481.374E-06    -36.4414E+06    -136.316E+06    -146.130E+06    -135.397E+06    -42.1659E+06    -141.325E+06     22.6167E+06         20.1793
             228     126.909E-09     106.519E-03         1.46071    -755.518E-03    -825.032E-03    -771.292E-03         1.45178    -800.329E-03    -264.781E-03     5.08817E-03    -2.50007E-03    -2.58796E-03    -2.55733E-03     5.05754E-03    -2.50007E-03     967.814E-06     32.7518E+06    -53.3838E+06    -65.1630E+06    -59.3579E+06     26.9467E+06    -53.3838E+06     22.3005E+06         20.3965
             229     64.5662E-09     105.512E-03         1.55219    -747.336E-03    -915.468E-03    -731.975E-03         1.53683    -915.468E-03    -374.616E-03     10.2496E-03    -5.05663E-03    -5.19275E-03    -5.14890E-03     10.2057E-03    -5.05663E-03     1.62726E-03     73.2963E+06     10.0618E+06     2.28586E+06     3.62934E+06     71.9528E+06     10.0618E+06     6.90199E+06         20.7620
             230     26.2606E-09     104.499E-03         1.59690    -794.621E-03    -936.900E-03    -764.051E-03         1.56633    -936.900E-03    -521.043E-03     17.3120E-03    -8.60207E-03    -8.70985E-03    -8.66589E-03     17.2680E-03    -8.60207E-03     2.11950E-03     83.3045E+06     48.4801E+06     45.9875E+06     47.7052E+06     83.2775E+06     46.7893E+06    -975.386E+03         21.2372
             231     11.4414E-09     103.476E-03         1.57821    -821.964E-03    -910.008E-03    -738.090E-03         1.49434    -910.008E-03    -853.927E-03     25.0118E-03    -12.4097E-03    -12.6019E-03    -12.5646E-03     24.9744E-03    -12.4097E-03     2.34520E-03     87.3991E+06     74.8567E+06     68.9439E+06     73.6448E+06     81.9710E+06     75.5839E+06    -2.14711E+06         21.7697
             232     296.919E-09     102.447E-03         1.75273    -855.968E-03        -1.02760    -682.230E-03         1.57899        -1.02760        -1.29229     32.3820E-03    -16.0858E-03    -16.2963E-03    -16.2655E-03     32.3512E-03    -16.0858E-03     2.44163E-03     90.0041E+06     84.1525E+06     66.1591E+06     84.4947E+06     69.2504E+06     86.5706E+06    -7.27258E+06         22.3075
             233    -208.835E-09     101.410E-03         1.92268    -881.137E-03        -1.18274    -628.845E-03         1.67039        -1.18274        -1.60130     39.0969E-03    -19.5037E-03    -19.5938E-03    -19.5699E-03     39.0730E-03    -19.5037E-03     2.33905E-03     91.2910E+06       86.58E+06     43.9156E+06     89.2952E+06     45.9113E+06       86.58E+06    -7.27270E+06         22.8086
             234     226.394E-09     100.367E-03         2.00989    -893.724E-03        -1.27737    -534.094E-03         1.65026        -1.27737        -1.90280     44.9082E-03    -22.2638E-03    -22.6443E-03    -22.6293E-03     44.8932E-03    -22.2638E-03     1.99129E-03     89.9982E+06     86.9620E+06     26.0346E+06     87.9734E+06     26.3007E+06     88.7207E+06    -4.05803E+06         23.2353
             235     490.408E-09     99.3182E-03         2.21934        -1.02022        -1.38798    -452.770E-03         1.65188        -1.38798        -2.45094     49.3884E-03    -24.4636E-03    -24.9245E-03    -24.9162E-03     49.3801E-03    -24.4636E-03     1.53658E-03     77.6809E+06     75.7491E+06     7.24660E+06     75.0782E+06     7.91753E+06     77.6809E+06    -6.49589E+06         23.5675
             236    -279.422E-09     98.2661E-03         2.45026        -1.10076        -1.54359    -226.892E-03         1.57639        -1.54359        -3.03794     52.4542E-03    -26.1657E-03    -26.2890E-03    -26.2856E-03     52.4508E-03    -26.1657E-03     1.00062E-03     66.1617E+06     63.7574E+06    -16.2579E+06     65.0596E+06    -15.3288E+06     63.9304E+06    -8.62401E+06         23.8093
             237     293.291E-09     97.2111E-03         2.57183        -1.13391        -1.64031     66.6100E-03         1.37131        -1.64031        -3.45725     54.6821E-03    -27.2290E-03    -27.4535E-03    -27.4510E-03     54.6796E-03    -27.2290E-03     888.471E-06     56.5961E+06     54.2673E+06    -40.8340E+06     55.8987E+06    -40.1367E+06     54.2673E+06    -8.16481E+06         23.9710
             238     108.537E-09     96.1541E-03         2.78023        -1.26108        -1.73301     257.301E-03         1.26185        -1.73301        -3.91220     55.9717E-03    -27.8191E-03    -28.1518E-03    -28.1486E-03     55.9684E-03    -27.8191E-03     1.03975E-03     36.9599E+06     36.2229E+06    -63.5857E+06     35.9089E+06    -63.1743E+06     36.8625E+06    -6.25974E+06         24.0668
             239     149.245E-09     95.0957E-03         3.09703        -1.43751        -1.89743     470.832E-03         1.18868        -1.89743        -4.46950     56.4141E-03    -28.0621E-03    -28.3503E-03    -28.3472E-03     56.4110E-03    -28.0621E-03     1.02599E-03     19.9298E+06     18.8170E+06    -85.0638E+06     18.9555E+06    -84.7290E+06     19.4566E+06    -5.86023E+06         24.1189
             240     160.912E-09     94.0397E-03         3.27222        -1.44869        -2.09460     710.298E-03         1.11323        -2.09460        -4.70291     56.7857E-03    -28.2294E-03    -28.5551E-03    -28.5531E-03     56.7838E-03    -28.2294E-03     796.547E-06     3.87267E+06     2.70310E+06    -104.539E+06     3.54387E+06    -104.210E+06     2.70310E+06    -5.89470E+06         24.1514
             241     158.034E-09     92.9803E-03         3.30131        -1.36360        -2.22965     918.064E-03         1.01964        -2.22965        -4.65892     57.0911E-03    -28.3688E-03    -28.7248E-03    -28.7230E-03     57.0893E-03    -28.3688E-03     767.328E-06    -9.20623E+06    -11.3876E+06    -119.385E+06    -9.38151E+06    -119.210E+06    -11.3876E+06    -4.33630E+06         24.1721
             242     194.426E-09     91.9226E-03         3.25401        -1.39899        -2.21560         1.17860     676.419E-03        -2.21560        -4.60934     57.1660E-03    -28.3874E-03    -28.7816E-03    -28.7798E-03     57.1642E-03    -28.3874E-03     774.216E-06    -19.6723E+06    -22.6382E+06    -135.067E+06    -21.3767E+06    -134.844E+06    -21.1573E+06    -4.91301E+06         24.1780
             243     226.285E-09     90.8642E-03         3.26135        -1.44919        -2.19794         1.38732     424.837E-03        -2.19794        -4.61073     57.0371E-03    -28.3531E-03    -28.6845E-03    -28.6827E-03     57.0354E-03    -28.3531E-03     760.183E-06    -39.9705E+06    -42.6649E+06    -153.124E+06    -41.7775E+06    -152.798E+06    -41.1840E+06    -6.02563E+06         24.1750
             244     8.60070E-09     89.8062E-03         3.30509        -1.39366        -2.29660         1.54713     364.306E-03        -2.29660        -4.54432     56.8617E-03    -28.3123E-03    -28.5478E-03    -28.5463E-03     56.8603E-03    -28.3123E-03     658.145E-06    -47.5506E+06    -49.4597E+06    -169.425E+06    -48.4692E+06    -169.202E+06    -48.7642E+06    -4.95707E+06         24.1737
             245     216.737E-09     88.7489E-03         3.23925        -1.34184        -2.29299         1.76306     134.347E-03        -2.29299        -4.26808     56.9060E-03    -28.3609E-03    -28.5421E-03    -28.5418E-03     56.9057E-03    -28.3609E-03     348.424E-06    -48.5213E+06    -50.0096E+06    -183.928E+06    -49.3830E+06    -183.761E+06    -49.3141E+06    -4.67240E+06         24.1753
             246    -80.2504E-09     87.6916E-03         3.12269        -1.39174        -2.14982         1.94963    -218.688E-03        -2.14982        -3.94983     57.1948E-03    -28.4637E-03    -28.7295E-03    -28.7285E-03     57.1938E-03    -28.4637E-03     532.329E-06    -54.6202E+06    -55.6852E+06    -197.436E+06    -54.7710E+06    -197.285E+06    -55.6852E+06    -4.48430E+06         24.1759
             247     452.910E-09     86.6314E-03         3.06870        -1.44030        -2.08911         2.08409    -455.698E-03        -2.08911        -3.72230     57.0870E-03    -28.3547E-03    -28.7328E-03    -28.7308E-03     57.0850E-03    -28.3547E-03     827.164E-06    -58.1655E+06    -58.6716E+06    -209.298E+06    -58.2301E+06    -209.233E+06    -58.6716E+06    -3.09204E+06         24.1745
             248    -91.1953E-09     85.5758E-03         3.01686        -1.52540        -1.99900         2.21372    -722.259E-03        -1.99900        -3.45107     56.8112E-03    -28.2971E-03    -28.5174E-03    -28.5161E-03     56.8099E-03    -28.2971E-03     625.397E-06    -57.5213E+06    -59.0126E+06    -219.067E+06    -58.8144E+06    -219.032E+06    -57.7552E+06    -2.34493E+06         24.1723
             249     180.606E-09     84.5178E-03         3.00724        -1.66233        -1.89737         2.37589        -1.11838        -1.80997        -3.21916     57.0151E-03    -28.4037E-03    -28.6141E-03    -28.6126E-03     57.0136E-03    -28.4037E-03     650.086E-06    -56.9290E+06    -59.9073E+06    -228.070E+06    -58.2549E+06    -228.002E+06    -58.6499E+06    -3.20115E+06         24.1707
             250     142.286E-09     83.4592E-03         3.01573        -1.71393        -1.89583         2.51224        -1.39235        -1.71393        -2.97082     57.0897E-03    -28.4110E-03    -28.6800E-03    -28.6777E-03     57.0874E-03    -28.4110E-03     896.622E-06    -58.7635E+06    -61.5708E+06    -237.158E+06    -59.9095E+06    -237.098E+06    -60.4843E+06    -1.73674E+06         24.1722
             251     57.4038E-09     82.4025E-03         2.95836        -1.67267        -1.91539         2.61177        -1.56880        -1.67267        -2.48324     56.9776E-03    -28.3903E-03    -28.5887E-03    -28.5864E-03     56.9753E-03    -28.3903E-03     886.843E-06    -56.1051E+06    -58.5459E+06    -239.777E+06    -57.1979E+06    -239.771E+06    -57.4595E+06    -92.5346E+03         24.1779
             252     130.639E-09     81.3443E-03         2.90641        -1.50864        -2.03794         2.67044        -1.80197        -1.50864        -2.10372     57.0170E-03    -28.3730E-03    -28.6443E-03    -28.6419E-03     57.0146E-03    -28.3730E-03     908.403E-06    -57.4641E+06    -60.3748E+06    -241.737E+06    -59.0242E+06    -241.733E+06    -58.8185E+06    -487.020E+03         24.1845
             253     214.570E-09     80.2870E-03         2.97907        -1.31227        -2.34539         2.78471        -2.15104        -1.31227        -1.99169     57.1644E-03    -28.3855E-03    -28.7787E-03    -28.7753E-03     57.1610E-03    -28.3855E-03     1.07239E-03    -57.5256E+06    -60.8543E+06    -244.246E+06    -59.0833E+06    -244.245E+06    -59.2980E+06    -255.856E+03         24.1886
             254     204.347E-09     79.2287E-03         3.16197        -1.18093        -2.68963         3.01495        -2.54261        -1.18093        -1.81662     57.0836E-03    -28.2978E-03    -28.7872E-03    -28.7848E-03     57.0812E-03    -28.2978E-03     814.540E-06    -49.1475E+06    -52.4328E+06    -245.858E+06    -50.6631E+06    -245.855E+06    -50.9199E+06    -733.175E+03         24.1860
             255     328.114E-09     78.1720E-03         3.20923        -1.03951        -2.88778         3.11493        -2.79348        -1.03951        -1.49371     56.6630E-03    -28.1666E-03    -28.4954E-03    -28.4950E-03     56.6627E-03    -28.1666E-03     332.254E-06    -49.3435E+06    -52.5543E+06    -250.012E+06    -50.8678E+06    -250.001E+06    -51.0414E+06    -1.37101E+06         24.1776
             256    -216.959E-09     77.1158E-03         3.19173    -908.785E-03        -3.04234         3.12813        -2.97875    -908.785E-03        -1.24898     56.8292E-03    -28.3451E-03    -28.4832E-03    -28.4115E-03     56.8287E-03    -28.4163E-03     394.329E-06    -45.2797E+06    -48.9255E+06    -250.399E+06    -47.2387E+06    -250.388E+06    -46.9775E+06    -632.670E+03         24.1739
             257     108.717E-09     76.0567E-03         3.22229    -795.673E-03        -3.22944         3.17087        -3.17802    -795.673E-03        -1.14636     57.1980E-03    -28.4413E-03    -28.7581E-03    -28.6859E-03     57.1970E-03    -28.5125E-03     593.193E-06    -38.9253E+06    -43.1075E+06    -248.109E+06    -40.8747E+06    -248.107E+06    -41.1595E+06     515.089E+03         24.1786
             258     341.309E-09     74.9995E-03         3.27509    -655.662E-03        -3.44492         3.23049        -3.40032    -655.662E-03        -1.08984     56.9504E-03    -28.2745E-03    -28.6752E-03    -28.6733E-03     56.9486E-03    -28.2745E-03     783.288E-06    -44.3073E+06    -47.5799E+06    -246.429E+06    -45.3599E+06    -246.415E+06    -46.5415E+06     1.33117E+06         24.1838
             259    -24.4006E-09     73.9421E-03         3.36125    -450.678E-03        -3.76109         3.31739        -3.71723    -450.678E-03        -1.11426     56.6930E-03    -28.2066E-03    -28.4853E-03    -28.4820E-03     56.6897E-03    -28.2066E-03     1.05323E-03    -48.8477E+06    -50.2464E+06    -245.690E+06    -49.9003E+06    -245.675E+06    -49.2080E+06     1.00718E+06         24.1860
             260     259.121E-09     72.8846E-03         3.39427    -260.133E-03        -4.01924         3.33961        -3.96459    -260.133E-03        -1.26508     56.6227E-03    -28.1473E-03    -28.4752E-03    -28.4717E-03     56.6192E-03    -28.1473E-03     1.07964E-03    -50.8410E+06    -52.3745E+06    -244.463E+06    -52.0174E+06    -244.460E+06    -51.2013E+06     368.570E+03         24.1875
             261     155.207E-09     71.8283E-03         3.40773    -190.634E-03        -4.11449         3.34154        -4.04831    -190.634E-03        -1.40462     56.6037E-03    -28.1128E-03    -28.4912E-03    -28.4892E-03     56.6017E-03    -28.1128E-03     811.943E-06    -51.7477E+06    -53.5325E+06    -242.164E+06    -52.9253E+06    -242.160E+06    -52.3593E+06     901.642E+03         24.1892
             262     178.827E-09     70.7707E-03         3.39252    -108.271E-03        -4.19983         3.32569        -4.13299    -108.271E-03        -1.41812     56.5746E-03    -28.1152E-03    -28.4597E-03    -28.4587E-03     56.5737E-03    -28.1152E-03     558.873E-06    -54.6080E+06    -55.4713E+06    -241.668E+06    -54.6109E+06    -241.665E+06    -55.4713E+06    -5.31081E+03         24.1917
             263     152.901E-09     69.7142E-03         3.36379     50.4776E-03        -4.35863         3.28457        -4.27941     50.4776E-03        -1.55006     56.5353E-03    -28.1386E-03    -28.3978E-03    -28.3965E-03     56.5340E-03    -28.1386E-03     624.024E-06    -53.2927E+06    -53.6284E+06    -241.090E+06    -53.2961E+06    -241.086E+06    -53.6284E+06    -797.813E+03         24.1925
             264     23.1206E-09     68.6564E-03         3.40738     153.088E-03        -4.52147         3.30036        -4.41445     153.088E-03        -1.82715     56.5272E-03    -28.1850E-03    -28.3436E-03    -28.3414E-03     56.5251E-03    -28.1850E-03     848.489E-06    -47.0150E+06    -47.5984E+06    -240.877E+06    -47.5346E+06    -240.856E+06    -47.0990E+06     915.181E+03         24.1861
             265     119.184E-09     67.5996E-03         3.43141     212.877E-03        -4.61677         3.30378        -4.48914     212.877E-03        -2.00995     56.4866E-03    -28.1119E-03    -28.3757E-03    -28.3744E-03     56.4853E-03    -28.1119E-03     608.817E-06    -41.0092E+06    -41.9200E+06    -242.333E+06    -41.5407E+06    -242.301E+06    -41.4206E+06     144.654E+03         24.1780
             266     256.827E-09     66.5435E-03         3.37157     303.713E-03        -4.66837         3.23132        -4.52812     303.713E-03        -2.10473     56.7289E-03    -28.2355E-03    -28.4952E-03    -28.4949E-03     56.7286E-03    -28.2355E-03     339.418E-06    -37.0277E+06    -38.1389E+06    -241.601E+06    -37.7427E+06    -241.586E+06    -37.4392E+06    -1.55216E+06         24.1766
             267    -115.714E-09     65.4856E-03         3.33155     349.292E-03        -4.69262         3.16439        -4.52546     349.292E-03        -2.28690     57.0692E-03    -28.4910E-03    -28.5799E-03    -28.5789E-03     57.0682E-03    -28.4910E-03     555.397E-06    -38.0601E+06    -40.1518E+06    -243.493E+06    -38.7640E+06    -243.489E+06    -39.4520E+06    -909.944E+03         24.1798
             268     142.732E-09     64.4268E-03         3.28884     362.982E-03        -4.66903         3.10271        -4.48290     362.982E-03        -2.40546     56.9896E-03    -28.3493E-03    -28.6400E-03    -28.6371E-03     56.9867E-03    -28.3493E-03     966.123E-06    -43.6571E+06    -46.5390E+06    -247.820E+06    -45.1521E+06    -247.815E+06    -45.0491E+06    -91.4767E+03         24.1820
             269     401.314E-09     63.3704E-03         3.20119     416.825E-03        -4.63798         3.02248        -4.45926     416.825E-03        -2.34002     56.6964E-03    -28.0772E-03    -28.6188E-03    -28.6162E-03     56.6938E-03    -28.0772E-03     905.528E-06    -46.5436E+06    -49.7709E+06    -249.648E+06    -48.0395E+06    -249.642E+06    -48.2810E+06    -169.255E+03         24.1821
             270     113.124E-09     62.3133E-03         3.14273     516.955E-03        -4.68142         2.96174        -4.50042     516.955E-03        -2.35200     56.6217E-03    -28.1286E-03    -28.4941E-03    -28.4928E-03     56.6203E-03    -28.1286E-03     678.769E-06    -44.4075E+06    -47.0396E+06    -249.656E+06    -45.3081E+06    -249.650E+06    -46.1450E+06    -169.470E+03         24.1830
             271     81.0452E-09     61.2566E-03         3.01863     587.545E-03        -4.63321         2.83539        -4.44998     587.545E-03        -2.33965     56.8751E-03    -28.3274E-03    -28.5457E-03    -28.5448E-03     56.8741E-03    -28.3274E-03     554.562E-06    -43.7882E+06    -45.3577E+06    -250.075E+06    -45.3630E+06    -250.069E+06    -43.7882E+06    -109.775E+03         24.1863
             272     178.299E-09     60.1986E-03         2.86367     581.702E-03        -4.47630         2.65443        -4.26706     581.702E-03        -2.43462     57.0233E-03    -28.4347E-03    -28.5858E-03    -28.5600E-03     57.0216E-03    -28.4588E-03     693.395E-06    -42.9432E+06    -44.3303E+06    -249.444E+06    -43.6216E+06    -249.441E+06    -43.6553E+06    -426.192E+03         24.1900
             273    -231.471E-09     59.1410E-03         2.76236     575.185E-03        -4.38305         2.52312        -4.14381     575.185E-03        -2.57076     56.9791E-03    -28.3618E-03    -28.6178E-03    -28.5914E-03     56.9768E-03    -28.3859E-03     864.547E-06    -43.2202E+06    -43.9523E+06    -250.060E+06    -43.2214E+06    -250.059E+06    -43.9523E+06    -175.944E+03         24.1923
             274     16.5353E-03     57.3747E-03         1.21184     787.743E-03        -3.06712     787.435E-03        -3.06681         1.21184     10.8236E-03     76.3754E-03    -28.3805E-03    -47.9982E-03    -27.6153E-03     55.9925E-03    -28.3805E-03     90.9268E-03     185.828E+06     126.715E+06    -8.29244E+06    -8.29183E+06     185.827E+06     126.715E+06     240.945E+03         47.2219
             275     15.5617E-03     57.2549E-03         1.23137     845.412E-03        -3.14349     845.367E-03        -3.14344         1.23137    -12.0732E-03     75.3359E-03    -28.0670E-03    -47.2638E-03    -27.8495E-03     55.9216E-03    -28.0670E-03     87.8623E-03     164.277E+06     50.9639E+06    -14.1386E+06    -14.1375E+06     164.276E+06     50.9639E+06     314.105E+03         44.0438
             276     14.5880E-03     57.1894E-03         1.25085     909.297E-03        -3.22423     909.228E-03        -3.22417         1.25085    -18.9288E-03     61.9211E-03    -27.8102E-03    -34.1138E-03    -27.4495E-03     55.2568E-03    -27.8102E-03     46.9159E-03     135.141E+06    -2.96571E+06    -25.8101E+06    -16.2375E+06     135.140E+06    -12.5373E+06     177.901E+03         40.1512
             277     13.6154E-03     57.1561E-03         1.27061     972.220E-03        -3.30470     972.115E-03        -3.30459         1.27061    -16.5378E-03     57.4387E-03    -27.8053E-03    -29.6388E-03    -27.3354E-03     55.1353E-03    -27.8053E-03     27.7311E-03     76.7819E+06    -15.5108E+06    -32.2298E+06    -15.5086E+06     76.7797E+06    -32.2298E+06    -259.954E+03         36.4628
             278     12.6420E-03     57.1308E-03         1.29011         1.02187        -3.37068         1.02141        -3.37022         1.29011    -54.0152E-03     56.6976E-03    -27.9639E-03    -28.7435E-03    -27.4676E-03     55.4217E-03    -27.9639E-03     20.3912E-03     8.63661E+06    -18.0752E+06    -28.6038E+06    -14.5430E+06     1.72326E+06    -25.2226E+06    -216.501E+03         33.4881
             279     11.6689E-03     57.1133E-03         1.30869         1.08378        -3.44633         1.08320        -3.44576         1.30869    -26.4069E-03     56.5299E-03    -28.0936E-03    -28.4746E-03    -27.7640E-03     55.8194E-03    -28.0936E-03     15.4246E-03    -12.4570E+06    -18.0307E+06    -50.0506E+06    -14.5029E+06    -50.0481E+06    -15.9874E+06     6.92730E+03         31.1521
             280     10.6965E-03     57.0984E-03         1.32564         1.13840        -3.51726         1.13771        -3.51657         1.32564    -36.7698E-03     56.5605E-03    -28.1947E-03    -28.3767E-03    -27.8323E-03     56.0162E-03    -28.1947E-03     13.5420E-03    -8.31289E+06    -15.3021E+06    -87.4810E+06    -15.3049E+06    -87.4782E+06    -8.31289E+06      191.24E+03         29.2413
             281     9.72370E-03     57.0849E-03         1.34133         1.18133        -3.57653         1.18076        -3.57596         1.34133    -56.0085E-03     56.5114E-03    -28.1670E-03    -28.3083E-03    -27.7985E-03     56.1192E-03    -28.2846E-03     11.3998E-03    -2.14076E+06    -16.5242E+06    -113.637E+06    -16.5259E+06    -113.636E+06    -2.14076E+06     389.138E+03         27.6513
             282     8.75080E-03     57.0746E-03         1.35602         1.22235        -3.63294         1.22229        -3.63288         1.35602    -3.04723E-03     56.5797E-03    -28.1987E-03    -28.3641E-03    -27.9273E-03     56.3083E-03    -28.3641E-03     9.57247E-03     1.70035E+06    -18.2438E+06    -134.926E+06    -18.2454E+06    -134.925E+06     1.70035E+06     408.821E+03         26.3991
             283     7.77835E-03     57.0647E-03         1.37087         1.24146        -3.66545         1.24140        -3.66539         1.37087    -16.9287E-03     56.7209E-03    -28.3096E-03    -28.4121E-03    -28.0825E-03     56.4938E-03    -28.4121E-03     8.76185E-03     39.5325E+03    -20.6036E+06    -154.086E+06    -20.6045E+06    -154.085E+06     39.5325E+03     343.090E+03         25.5078
             284     6.80579E-03     57.0561E-03         1.38602         1.27894        -3.71497         1.27850        -3.71454         1.38602    -56.9249E-03     56.7846E-03    -28.3370E-03    -28.4509E-03    -28.1629E-03     56.6105E-03    -28.4509E-03     7.66838E-03    -3.00533E+06    -23.5213E+06    -173.192E+06    -23.5221E+06    -173.191E+06    -3.00533E+06     320.363E+03         24.9731
             285     5.83359E-03     57.0485E-03         1.39770         1.34383        -3.79064         1.34294        -3.78976         1.39770     11.3344E-03     56.8487E-03    -28.3648E-03    -28.4868E-03    -28.2341E-03     56.7180E-03    -28.4868E-03     6.65535E-03    -7.51300E+06    -26.8459E+06    -192.580E+06    -26.8465E+06    -192.580E+06    -7.51300E+06     296.854E+03         24.6935
             286     4.86117E-03     57.0421E-03         1.40606         1.36579        -3.81890         1.36344        -3.81655         1.40606    -65.0171E-03     56.8945E-03    -28.3712E-03    -28.5254E-03    -28.2760E-03     56.7993E-03    -28.5254E-03     5.66711E-03    -12.7543E+06    -30.0685E+06    -215.329E+06    -30.0688E+06    -215.329E+06    -12.7543E+06     184.984E+03         24.5218
             287     3.88873E-03     57.0366E-03         1.41609         1.37054        -3.83048         1.36694        -3.82687         1.41609    -362.292E-06     56.9503E-03    -28.4035E-03    -28.5492E-03    -28.3411E-03     56.8879E-03    -28.5492E-03     4.58477E-03    -19.1962E+06    -33.5549E+06    -234.680E+06    -33.5556E+06    -234.679E+06    -19.1962E+06     263.456E+03         24.3919
             288     2.91651E-03     57.0322E-03         1.42779         1.40315        -3.87834         1.39282        -3.86801         1.42779    -167.616E-03     57.0028E-03    -28.4563E-03    -28.5498E-03    -28.4188E-03     56.9653E-03    -28.5498E-03     3.53981E-03    -27.4584E+06    -37.1071E+06    -242.867E+06    -37.1086E+06    -242.865E+06    -27.4584E+06     546.184E+03         24.2985
             289     1.94439E-03     57.0290E-03         1.46057         1.43173        -3.94558         1.42520        -3.91466         1.43618     189.971E-03     57.0347E-03    -28.4904E-03    -28.5468E-03    -28.4848E-03     57.0160E-03    -28.5336E-03     2.46802E-03    -35.4394E+06    -40.0407E+06    -248.023E+06    -40.0430E+06    -248.021E+06    -35.4394E+06     569.708E+03         24.2370
             290     972.111E-06     57.0269E-03         1.99765         1.02414        -4.07643         1.85372        -3.93251         1.02414    -759.055E-03     57.0256E-03    -28.3958E-03    -28.6302E-03    -28.6198E-03     57.0194E-03    -28.3999E-03     1.24497E-03    -40.8929E+06    -42.0865E+06    -250.991E+06    -41.8664E+06    -250.989E+06    -41.1150E+06     509.643E+03         24.2026
             291     16.5362E-03     56.3177E-03         1.15520     789.083E-03        -3.01199     788.966E-03        -3.01187         1.15520    -36.3707E-03     76.3390E-03    -28.3754E-03    -47.9577E-03    -27.7001E-03     56.0814E-03    -28.3754E-03     90.6487E-03     185.520E+06     126.249E+06    -8.17754E+06    -8.17652E+06     185.519E+06     126.249E+06     59.3035E+03         47.2143
             292     15.5613E-03     56.1982E-03         1.17060     849.386E-03        -3.08291     849.335E-03        -3.08286         1.17060    -7.19972E-03     75.3439E-03    -28.0600E-03    -47.2800E-03    -27.9888E-03     56.0527E-03    -28.0600E-03     87.6032E-03     164.550E+06     51.2281E+06    -13.7454E+06    -13.7436E+06     164.548E+06     51.2281E+06     114.609E+03         44.0384
             293     14.5883E-03     56.1309E-03         1.18659     878.454E-03        -3.12472     878.374E-03        -3.12464         1.18659    -14.8128E-03     61.6141E-03    -27.8042E-03    -33.8131E-03    -27.2627E-03     55.0637E-03    -27.8042E-03     46.4275E-03     135.493E+06    -2.29066E+06    -25.5119E+06    -15.7244E+06     135.492E+06    -12.0768E+06    -106.559E+03         40.1473
             294     13.6151E-03     56.0992E-03         1.20459     917.896E-03        -3.18221     917.765E-03        -3.18208         1.20459    -804.618E-06     57.3260E-03    -27.8037E-03    -29.5327E-03    -27.2286E-03     55.0219E-03    -27.8037E-03     27.7150E-03     76.9061E+06    -15.4599E+06    -32.4173E+06    -15.4582E+06     76.9044E+06    -32.4173E+06     16.5390E+03         36.4594
             295     12.6420E-03     56.0736E-03         1.22218     987.826E-03        -3.26629     987.382E-03        -3.26584         1.22218    -34.9867E-03     56.8061E-03    -27.9628E-03    -28.8581E-03    -27.5635E-03     55.5114E-03    -27.9628E-03     20.5544E-03     8.60734E+06    -18.2904E+06    -28.9327E+06    -14.8242E+06     1.67006E+06    -25.4617E+06     242.296E+03         33.4850
             296     11.6692E-03     56.0559E-03         1.23777         1.04950        -3.33954         1.04891        -3.33895         1.23777    -14.8994E-03     56.4770E-03    -28.0907E-03    -28.4240E-03    -27.7162E-03     55.7692E-03    -28.0907E-03     15.3810E-03    -12.6801E+06    -18.1365E+06    -50.4421E+06    -14.6757E+06    -50.4326E+06    -16.1503E+06     455.794E+03         31.1495
             297     10.6963E-03     56.0410E-03         1.25199         1.08946        -3.39269         1.08849        -3.39173         1.25199    -38.5137E-03     56.5057E-03    -28.1962E-03    -28.3201E-03    -27.7811E-03     55.9666E-03    -28.1962E-03     13.4673E-03    -8.24862E+06    -15.2227E+06    -87.6036E+06    -15.2279E+06    -87.5984E+06    -8.24862E+06     569.002E+03         29.2391
             298     9.72349E-03     56.0278E-03         1.26591         1.11788        -3.43371         1.11710        -3.43293         1.26591    -67.6528E-03     56.5710E-03    -28.2297E-03    -28.3053E-03    -27.8567E-03     56.1777E-03    -28.2850E-03     11.4308E-03    -2.14795E+06    -16.4022E+06    -113.376E+06    -16.4047E+06    -113.373E+06    -2.14795E+06     480.661E+03         27.6497
             299     8.75098E-03     56.0171E-03         1.27999         1.14606        -3.47393         1.14585        -3.47373         1.27999    -23.4400E-03     56.6253E-03    -28.2500E-03    -28.3587E-03    -27.9782E-03     56.3535E-03    -28.3587E-03     9.58154E-03     1.69001E+06    -18.4009E+06    -134.729E+06    -18.4034E+06    -134.727E+06     1.69001E+06     501.150E+03         26.3980
             300     7.77840E-03     56.0074E-03         1.29320         1.18972        -3.52893         1.18952        -3.52873         1.29320    -25.1229E-03     56.6950E-03    -28.2915E-03    -28.4041E-03    -28.0672E-03     56.4707E-03    -28.4041E-03     8.70682E-03    -116.331E+03    -21.0977E+06    -154.163E+06    -21.0998E+06    -154.161E+06    -116.331E+03     488.362E+03         25.5073
             301     6.80607E-03     55.9986E-03         1.30458         1.22726        -3.57687         1.22653        -3.57614         1.30458    -70.7101E-03     56.7554E-03    -28.3142E-03    -28.4437E-03    -28.1389E-03     56.5801E-03    -28.4437E-03     7.69593E-03    -3.29701E+06    -23.8004E+06    -173.287E+06    -23.8014E+06    -173.286E+06    -3.29701E+06     337.149E+03         24.9729
             302     5.83343E-03     55.9912E-03         1.31541         1.24661        -3.60705         1.24487        -3.60532         1.31541     14.7316E-03     56.8226E-03    -28.3410E-03    -28.4843E-03    -28.2104E-03     56.6920E-03    -28.4843E-03     6.64446E-03    -7.08456E+06    -26.4810E+06    -192.214E+06    -26.4814E+06    -192.214E+06    -7.08456E+06     204.929E+03         24.6933
             303     4.86109E-03     55.9846E-03         1.32681         1.26918        -3.63825         1.26635        -3.63542         1.32681    -31.6043E-03     56.9122E-03    -28.3919E-03    -28.5236E-03    -28.2986E-03     56.8188E-03    -28.5236E-03     5.61658E-03    -11.9331E+06    -29.8138E+06    -214.892E+06    -29.8140E+06    -214.892E+06    -11.9331E+06     141.454E+03         24.5219
             304     3.88893E-03     55.9793E-03         1.34211         1.30098        -3.68516         1.30152        -3.68040         1.33681     38.9364E-03     56.9697E-03    -28.4352E-03    -28.5384E-03    -28.3720E-03     56.9065E-03    -28.5384E-03     4.61882E-03    -18.4227E+06    -33.3855E+06    -234.760E+06    -33.3861E+06    -234.759E+06    -18.4227E+06     255.673E+03         24.3917
             305     2.91661E-03     55.9748E-03         1.35013         1.32475        -3.72062         1.32073        -3.71130         1.34483    -79.5500E-03     56.9972E-03    -28.4598E-03    -28.5409E-03    -28.4393E-03     56.9589E-03    -28.5231E-03     3.57228E-03    -27.2139E+06    -36.7413E+06    -243.184E+06    -36.7423E+06    -243.183E+06    -27.2139E+06     403.719E+03         24.2973
             306     1.94429E-03     55.9716E-03         1.36237         1.34235        -3.75501         1.31403        -3.72433         1.36000     248.992E-03     56.9835E-03    -28.4612E-03    -28.5249E-03    -28.4738E-03     56.9652E-03    -28.4940E-03     2.43509E-03    -34.3495E+06    -39.3450E+06    -247.557E+06    -39.3473E+06    -247.555E+06    -34.3495E+06     614.939E+03         24.2344
             307     972.292E-06     55.9693E-03         1.89070         1.00329        -3.94278         1.73051        -3.79139         1.01209    -763.529E-03     56.9262E-03    -28.3996E-03    -28.5287E-03    -28.5090E-03     56.9205E-03    -28.4136E-03     1.16820E-03    -39.6135E+06    -41.3185E+06    -249.912E+06    -41.3209E+06    -249.910E+06    -39.6135E+06     650.832E+03         24.1994
             308     16.5351E-03     55.2615E-03         1.09388     794.377E-03        -2.95205     794.229E-03        -2.95191         1.09388    -19.1896E-03     76.6910E-03    -28.3782E-03    -48.3003E-03    -27.9785E-03     56.3692E-03    -28.3782E-03     91.1273E-03     185.647E+06     126.216E+06    -8.89460E+06    -8.89156E+06     185.644E+06     126.216E+06    -268.769E+03         47.2067
             309     15.5630E-03     55.1390E-03         1.10556     826.214E-03        -2.98918     826.160E-03        -2.98912         1.10556    -13.8352E-03     75.4897E-03    -28.0498E-03    -47.4341E-03    -28.1917E-03     56.2473E-03    -28.0498E-03     87.6581E-03     164.683E+06     51.2617E+06    -14.0825E+06    -14.0791E+06     164.680E+06     51.2617E+06    -381.169E+03         44.0333
             310     14.5892E-03     55.0755E-03         1.11831     861.812E-03        -3.03492     861.649E-03        -3.03476         1.11831    -31.7790E-03     61.3235E-03    -27.7924E-03    -33.5334E-03    -26.9821E-03     54.7722E-03    -27.7924E-03     46.4717E-03     135.167E+06    -2.27549E+06    -25.4767E+06    -15.6413E+06     135.164E+06    -12.1084E+06    -17.1269E+03         40.1437
             311     13.6146E-03     55.0414E-03         1.13257     899.472E-03        -3.08744     899.297E-03        -3.08727         1.13257    -24.9392E-03     57.3187E-03    -27.8033E-03    -29.5250E-03    -27.1610E-03     54.9547E-03    -27.8033E-03     27.9727E-03     76.7461E+06    -15.8486E+06    -32.2212E+06    -15.8448E+06     76.7423E+06    -32.2212E+06     413.856E+03         36.4558
             312     12.6421E-03     55.0162E-03         1.14670     948.702E-03        -3.14680     948.372E-03        -3.14647         1.14670    -41.3782E-03     56.8321E-03    -27.9627E-03    -28.8841E-03    -27.6183E-03     55.5663E-03    -27.9627E-03     20.3602E-03     8.70572E+06    -18.7082E+06    -28.9899E+06    -15.3005E+06     1.55594E+06    -25.2478E+06     502.643E+03         33.4818
             313     11.6692E-03     54.9986E-03         1.16024     985.054E-03        -3.19360     984.590E-03        -3.19314         1.16024    -12.0355E-03     56.4262E-03    -28.0885E-03    -28.3743E-03    -27.6658E-03     55.7177E-03    -28.0885E-03     15.3844E-03    -12.8638E+06    -18.3496E+06    -50.9188E+06    -14.9483E+06    -50.9025E+06    -16.2815E+06     647.689E+03         31.1467
             314     10.6963E-03     54.9841E-03         1.17334         1.02202        -3.24213         1.02089        -3.24100         1.17334    -53.9099E-03     56.5118E-03    -28.1969E-03    -28.3257E-03    -27.7870E-03     55.9731E-03    -28.1969E-03     13.4604E-03    -7.89124E+06    -15.1609E+06    -87.2560E+06    -15.1676E+06    -87.2493E+06    -7.89124E+06     672.811E+03         29.2367
             315     9.72364E-03     54.9703E-03         1.18588         1.05472        -3.28631         1.05361        -3.28520         1.18588    -61.7081E-03     56.6284E-03    -28.2488E-03    -28.3433E-03    -27.9200E-03     56.2383E-03    -28.2820E-03     11.3968E-03    -1.72993E+06    -16.3273E+06    -113.075E+06    -16.3320E+06    -113.071E+06    -1.72993E+06     647.564E+03         27.6478
             316     8.75107E-03     54.9598E-03         1.19824         1.07924        -3.32044         1.07886        -3.32006         1.19824    -14.8745E-03     56.6305E-03    -28.2601E-03    -28.3509E-03    -27.9879E-03     56.3584E-03    -28.3509E-03     9.58966E-03     1.87882E+06    -18.3615E+06    -134.859E+06    -18.3661E+06    -134.854E+06     1.87882E+06     707.689E+03         26.3968
             317     7.77855E-03     54.9500E-03         1.20939         1.12470        -3.37583         1.12447        -3.37560         1.20939    -42.1794E-03     56.6728E-03    -28.2744E-03    -28.3974E-03    -28.0482E-03     56.4466E-03    -28.3974E-03     8.74364E-03     476.670E+03    -20.8924E+06    -154.032E+06    -20.8954E+06    -154.028E+06     476.670E+03     612.519E+03         25.5065
             318     6.80586E-03     54.9414E-03         1.21818         1.16027        -3.41962         1.15945        -3.41880         1.21818    -84.2507E-03     56.7327E-03    -28.2988E-03    -28.4377E-03    -28.1230E-03     56.5569E-03    -28.4377E-03     7.70182E-03    -2.77114E+06    -23.7833E+06    -172.783E+06    -23.7841E+06    -172.782E+06    -2.77114E+06     260.063E+03         24.9722
             319     5.83364E-03     54.9337E-03         1.22664         1.16946        -3.43761         1.16769        -3.43584         1.22664     3.86750E-03     56.8115E-03    -28.3409E-03    -28.4765E-03    -28.2108E-03     56.6815E-03    -28.4765E-03     6.63075E-03    -7.08900E+06    -26.9562E+06    -192.076E+06    -26.9563E+06    -192.076E+06    -7.08900E+06     2.69136E+03         24.6925
             320     4.86124E-03     54.9273E-03         1.23665         1.20027        -3.47921         1.20035        -3.47702         1.23438    -16.9278E-03     56.8973E-03    -28.3891E-03    -28.5141E-03    -28.2965E-03     56.8046E-03    -28.5141E-03     5.58936E-03    -11.8638E+06    -30.2919E+06    -214.940E+06     -30.292E+06     -214.94E+06    -11.8638E+06     14.3242E+03         24.5210
             321     3.88881E-03     54.9218E-03         1.24613         1.23196        -3.51967         1.23652        -3.51545         1.23735     57.8791E-03     56.9656E-03    -28.4436E-03    -28.5263E-03    -28.3805E-03     56.9025E-03    -28.5263E-03     4.62475E-03    -17.8699E+06    -33.7638E+06    -234.685E+06    -33.7642E+06    -234.685E+06    -17.8699E+06     51.0906E+03         24.3907
             322     2.91664E-03     54.9175E-03         1.24893         1.23135        -3.52446         1.23427        -3.51599         1.23754    -58.7987E-03     57.0000E-03    -28.4783E-03    -28.5243E-03    -28.4654E-03     56.9609E-03    -28.4980E-03     3.60497E-03    -26.6619E+06    -37.2806E+06    -243.265E+06    -37.2816E+06    -243.264E+06    -26.6619E+06     227.754E+03         24.2958
             323     1.94467E-03     54.9140E-03         1.26564         1.22861        -3.54095         1.22008        -3.51038         1.24360     265.494E-03     56.9045E-03    -28.4315E-03    -28.4751E-03    -28.4403E-03     56.8871E-03    -28.4488E-03     2.35437E-03    -34.9306E+06    -40.3832E+06    -247.437E+06    -40.3846E+06    -247.436E+06    -34.9306E+06     272.980E+03         24.2324
             324     972.153E-06     54.9124E-03         1.75523     911.763E-03        -3.70760         1.57782        -3.53899     920.558E-03    -797.594E-03     56.8191E-03    -28.3572E-03    -28.4639E-03    -28.4053E-03     56.8137E-03    -28.4104E-03     1.29259E-03    -40.6851E+06    -42.9353E+06    -248.859E+06    -42.9363E+06    -248.858E+06    -40.6851E+06     233.181E+03         24.1970
             325     16.5358E-03     54.2019E-03         1.02751     769.544E-03        -2.85226     769.374E-03        -2.85209         1.02751     19.8447E-03     76.6164E-03    -28.3721E-03    -48.2169E-03    -27.8449E-03     56.2443E-03    -28.3721E-03     91.1360E-03     186.104E+06     126.343E+06    -8.55667E+06    -8.55406E+06     186.101E+06     126.343E+06    -493.265E+03         47.1990
             326     15.5619E-03     54.0821E-03         1.03659     790.111E-03        -2.87867     790.065E-03        -2.87862         1.03659    -11.2993E-03     75.1954E-03    -28.0570E-03    -47.1298E-03    -27.8207E-03     55.8863E-03    -28.0570E-03     87.5764E-03     163.664E+06     50.3526E+06    -15.0353E+06    -15.0327E+06     163.662E+06     50.3526E+06    -498.507E+03         44.0268
             327     14.5880E-03     54.0185E-03         1.04631     841.344E-03        -2.93607     841.213E-03        -2.93594         1.04631    -27.6156E-03     61.7228E-03    -27.7989E-03    -33.9293E-03    -27.2517E-03     55.0452E-03    -27.7989E-03     47.0000E-03     134.732E+06    -3.40502E+06    -27.6025E+06    -17.2775E+06     134.730E+06    -13.7281E+06     133.672E+03         40.1384
             328     13.6156E-03     53.9843E-03         1.05636     887.541E-03        -2.99258     887.421E-03        -2.99246         1.05636    -31.8357E-03     57.5238E-03    -27.7952E-03    -29.7368E-03    -27.3457E-03     55.1328E-03    -27.7952E-03     28.2297E-03     76.9165E+06    -16.2045E+06    -33.3971E+06    -16.1983E+06     76.9104E+06    -33.3971E+06     454.348E+03         36.4520
             329     12.6421E-03     53.9586E-03         1.06675     903.962E-03        -3.01699     903.739E-03        -3.01677         1.06675    -46.0978E-03     56.7019E-03    -27.9590E-03    -28.7565E-03    -27.4763E-03     55.4217E-03    -27.9590E-03     20.4062E-03     8.03793E+06    -18.7379E+06    -29.2604E+06    -15.4431E+06     1.09023E+06    -25.6075E+06     767.383E+03         33.4785
             330     11.6692E-03     53.9417E-03         1.07826     917.631E-03        -3.03971     917.305E-03        -3.03938         1.07826    -13.4533E-03     56.4654E-03    -28.0888E-03    -28.4160E-03    -27.7101E-03     55.7595E-03    -28.0888E-03     15.3684E-03    -13.1518E+06    -18.6655E+06    -50.7687E+06    -15.3793E+06    -50.7249E+06    -16.4818E+06     836.069E+03         31.1437
             331     10.6963E-03     53.9264E-03         1.09017     950.320E-03        -3.08236     949.102E-03        -3.08114         1.09017    -66.6079E-03     56.5717E-03    -28.1920E-03    -28.3895E-03    -27.8444E-03     56.0265E-03    -28.1920E-03     13.5524E-03    -8.22707E+06    -15.7509E+06    -87.0450E+06    -15.7582E+06    -87.0378E+06    -8.22707E+06     702.455E+03         29.2342
             332     9.72375E-03     53.9131E-03         1.10123     988.083E-03        -3.13218     986.825E-03        -3.13092         1.10123    -65.9986E-03     56.6197E-03    -28.2260E-03    -28.3553E-03    -27.9123E-03     56.2255E-03    -28.2748E-03     11.4473E-03    -1.93908E+06    -16.8081E+06    -113.098E+06    -16.8136E+06    -113.092E+06    -1.93908E+06     721.827E+03         27.6458
             333     8.75108E-03     53.9024E-03         1.11075         1.02622        -3.17608         1.02573        -3.17559         1.11075    -22.3589E-03     56.6126E-03    -28.2478E-03    -28.3439E-03    -27.9742E-03     56.3390E-03    -28.3439E-03     9.61484E-03     1.78809E+06    -18.5241E+06    -134.724E+06    -18.5284E+06    -134.720E+06     1.78809E+06     684.108E+03         26.3952
             334     7.77849E-03     53.8929E-03         1.11945         1.04278        -3.19890         1.04243        -3.19855         1.11945    -53.3661E-03     56.6958E-03    -28.3048E-03    -28.3896E-03    -28.0783E-03     56.4694E-03    -28.3896E-03     8.74677E-03     762.408E+03    -20.7922E+06    -153.584E+06    -20.7944E+06    -153.582E+06     762.408E+03     520.229E+03         25.5056
             335     6.80621E-03     53.8839E-03         1.12826         1.06240        -3.22738         1.06162        -3.22660         1.12826    -84.5075E-03     56.7326E-03    -28.3098E-03    -28.4269E-03    -28.1365E-03     56.5593E-03    -28.4269E-03     7.64843E-03    -2.12980E+06    -23.5946E+06    -172.182E+06    -23.5956E+06    -172.181E+06    -2.12980E+06     330.060E+03         24.9716
             336     5.83355E-03     53.8765E-03         1.13647         1.10620        -3.27797         1.10678        -3.27675         1.13467    -19.7563E-03     56.7698E-03    -28.3122E-03    -28.4632E-03    -28.1822E-03     56.6398E-03    -28.4632E-03     6.63125E-03    -7.01971E+06    -26.9546E+06    -192.006E+06    -26.9550E+06    -192.005E+06    -7.01971E+06     116.240E+03         24.6912
             337     4.86124E-03     53.8697E-03         1.14110         1.12953        -3.30889         1.13088        -3.30617         1.13703    -77.9900E-03     56.8906E-03    -28.3923E-03    -28.5043E-03    -28.3050E-03     56.7973E-03    -28.4984E-03     5.60503E-03    -12.1898E+06    -30.5792E+06    -214.859E+06    -30.5796E+06    -214.858E+06    -12.1898E+06    -169.160E+03         24.5190
             338     3.88902E-03     53.8647E-03         1.14276         1.12334        -3.30646         1.12233        -3.30196         1.13928    -1.95391E-03     56.9710E-03    -28.4635E-03    -28.5108E-03    -28.4072E-03     56.9088E-03    -28.5049E-03     4.58704E-03    -17.8598E+06    -34.6471E+06    -234.662E+06    -34.6479E+06    -234.661E+06    -17.8598E+06    -108.479E+03         24.3885
             339     2.91680E-03     53.8597E-03         1.15490         1.13031        -3.32736         1.12964        -3.31511         1.14331    -159.270E-03     56.9030E-03    -28.4162E-03    -28.4887E-03    -28.3867E-03     56.8651E-03    -28.4802E-03     3.54750E-03    -26.4604E+06    -38.9722E+06    -243.562E+06    -38.9733E+06    -243.561E+06    -26.4604E+06     237.459E+03         24.2939
             340     1.94441E-03     53.8570E-03         1.19475         1.14017        -3.37760         1.16087        -3.34372         1.14017     169.229E-03     56.8448E-03    -28.3839E-03    -28.4623E-03    -28.3835E-03     56.8268E-03    -28.4447E-03     2.42402E-03    -36.1474E+06    -42.7353E+06    -247.168E+06    -42.7364E+06    -247.167E+06    -36.1474E+06     204.798E+03         24.2311
             341     972.369E-06     53.8549E-03         1.63960     819.643E-03        -3.49273         1.45009        -3.30322     819.643E-03    -857.968E-03     56.8200E-03    -28.3199E-03    -28.5009E-03    -28.4557E-03     56.8141E-03    -28.3591E-03     1.27172E-03    -42.8632E+06    -45.9294E+06    -248.165E+06    -45.0658E+06    -248.165E+06    -43.7275E+06     119.804E+03         24.1961
             342     16.5368E-03     53.1446E-03     957.807E-03     732.247E-03        -2.73868     732.091E-03        -2.73852     957.807E-03     335.366E-06     76.3501E-03    -28.3636E-03    -47.9490E-03    -27.5586E-03     55.9597E-03    -28.3636E-03     90.8568E-03     185.978E+06     126.391E+06    -8.21759E+06    -8.21670E+06     185.977E+06     126.391E+06    -177.628E+03         47.1913
             343     15.5614E-03     53.0265E-03     963.719E-03     780.333E-03        -2.79038     780.304E-03        -2.79035     963.719E-03    -7.65675E-03     75.0640E-03    -28.0648E-03    -46.9852E-03    -27.5942E-03     55.6730E-03    -28.0648E-03     87.5447E-03     163.335E+06     50.2659E+06    -14.8509E+06    -14.8496E+06     163.333E+06     50.2659E+06     161.783E+03         44.0199
             344     14.5881E-03     52.9596E-03     969.543E-03     814.051E-03        -2.82557     813.841E-03        -2.82536     969.543E-03    -34.0084E-03     61.8968E-03    -27.8097E-03    -34.0925E-03    -27.4709E-03     55.2752E-03    -27.8097E-03     46.7017E-03     134.828E+06    -3.86325E+06    -27.6231E+06    -17.8760E+06     134.827E+06    -13.6094E+06     83.1000E+03         40.1329
             345     13.6152E-03     52.9273E-03     976.671E-03     839.591E-03        -2.85839     839.399E-03        -2.85820     976.671E-03    -33.3030E-03     57.4601E-03    -27.7952E-03    -29.6739E-03    -27.3698E-03     55.1559E-03    -27.7952E-03     27.7946E-03     76.3939E+06    -17.7728E+06    -34.2274E+06    -17.7603E+06     76.3815E+06    -34.2274E+06     420.907E+03         36.4478
             346     12.6419E-03     52.9018E-03     984.457E-03     858.478E-03        -2.88390     858.241E-03        -2.88366     984.457E-03    -43.2190E-03     56.7358E-03    -27.9574E-03    -28.7947E-03    -27.4905E-03     55.4316E-03    -27.9574E-03     20.5754E-03     7.09281E+06    -19.5757E+06    -29.6652E+06    -16.6868E+06     822.825E+03    -26.2842E+06     930.909E+03         33.4749
             347     11.6691E-03     52.8840E-03     992.801E-03     873.150E-03        -2.90439     872.775E-03        -2.90402     992.801E-03    -11.6848E-03     56.5020E-03    -28.0853E-03    -28.4602E-03    -27.7633E-03     55.8051E-03    -28.0853E-03     15.2699E-03    -13.6132E+06    -18.9119E+06    -50.1747E+06    -16.0399E+06    -50.1354E+06    -16.5245E+06     762.214E+03         31.1405
             348     10.6965E-03     52.8695E-03         1.00161     890.683E-03        -2.92981     889.646E-03        -2.92878         1.00161    -50.4315E-03     56.5622E-03    -28.1852E-03    -28.3863E-03    -27.8449E-03     56.0209E-03    -28.1852E-03     13.5108E-03    -8.37895E+06    -16.0776E+06    -86.8374E+06    -16.0851E+06    -86.8299E+06    -8.37895E+06     706.028E+03         29.2315
             349     9.72369E-03     52.8555E-03         1.01036     915.159E-03        -2.96565     914.015E-03        -2.96451         1.01036    -46.4929E-03     56.6063E-03    -28.2373E-03    -28.3278E-03    -27.9015E-03     56.2112E-03    -28.2685E-03     11.4444E-03    -2.17124E+06    -17.1278E+06    -113.186E+06    -17.1319E+06    -113.182E+06    -2.17124E+06      598.61E+03         27.6435
             350     8.75116E-03     52.8454E-03         1.01817     946.845E-03        -3.00204     946.275E-03        -3.00147         1.01817    -12.3743E-03     56.6287E-03    -28.2738E-03    -28.3340E-03    -28.0028E-03     56.3576E-03    -28.3340E-03     9.57525E-03     1.45648E+06    -18.9597E+06    -134.211E+06    -18.9616E+06    -134.209E+06     1.45648E+06     444.316E+03         26.3934
             351     7.77869E-03     52.8351E-03         1.02464     971.234E-03        -3.02819     970.861E-03        -3.02782         1.02464    -33.9563E-03     56.6839E-03    -28.3072E-03    -28.3751E-03    -28.0805E-03     56.4571E-03    -28.3751E-03     8.74957E-03     94.5054E+03    -21.2252E+06    -153.227E+06    -21.2261E+06    -153.226E+06     94.5054E+03     274.244E+03         25.5044
             352     6.80611E-03     52.8268E-03         1.03046     985.227E-03        -3.04679     984.567E-03        -3.04613         1.03046    -57.4736E-03     56.7245E-03    -28.3157E-03    -28.4113E-03    -28.1419E-03     56.5508E-03    -28.4113E-03     7.66071E-03    -2.66167E+06    -23.7950E+06    -172.185E+06    -23.7956E+06    -172.184E+06    -2.66167E+06     251.350E+03         24.9707
             353     5.83383E-03     52.8190E-03         1.03761         1.00137        -3.06883         1.00195        -3.06762         1.03581    -862.718E-06     56.7621E-03    -28.3181E-03    -28.4467E-03    -28.1885E-03     56.6326E-03    -28.4467E-03     6.61426E-03    -6.95455E+06    -26.8235E+06    -191.762E+06    -26.8242E+06    -191.761E+06    -6.95455E+06     290.826E+03         24.6898
             354     4.86130E-03     52.8126E-03         1.04222         1.01725        -3.09126         1.01609        -3.08830         1.04042    -68.8231E-03     56.8594E-03    -28.3792E-03    -28.4837E-03    -28.2913E-03     56.7656E-03    -28.4778E-03     5.63420E-03    -12.4812E+06    -30.7971E+06    -214.651E+06    -30.7997E+06    -214.648E+06    -12.4812E+06     297.464E+03         24.5166
             355     3.88913E-03     52.8068E-03         1.04646         1.01923        -3.10019         1.01348        -3.09445         1.04646     27.7823E-03     56.9133E-03    -28.4264E-03    -28.4897E-03    -28.3689E-03     56.8499E-03    -28.4838E-03     4.61920E-03    -18.5903E+06    -35.3915E+06    -234.903E+06    -35.3942E+06    -234.900E+06    -18.5903E+06     221.984E+03         24.3858
             356     2.91687E-03     52.8029E-03         1.06337         1.03662        -3.13606         1.02943        -3.11983         1.05433    -163.036E-03     56.8387E-03    -28.3711E-03    -28.4696E-03    -28.3338E-03     56.8014E-03    -28.4696E-03     3.52574E-03    -26.8879E+06    -39.5658E+06    -243.734E+06    -39.5667E+06    -243.733E+06    -26.8879E+06     208.703E+03         24.2919
             357     1.94440E-03     52.7995E-03         1.10002         1.05949        -3.19550         1.05425        -3.14973         1.05949     195.411E-03     56.8216E-03    -28.3625E-03    -28.4598E-03    -28.3532E-03     56.8031E-03    -28.4506E-03     2.44938E-03    -36.1785E+06    -43.2329E+06    -246.405E+06    -43.2338E+06    -246.405E+06    -36.1785E+06     210.616E+03         24.2302
             358     972.134E-06     52.7976E-03         1.54701     794.271E-03        -3.37301         1.32709        -3.15308     794.271E-03    -859.180E-03     56.8444E-03    -28.3188E-03    -28.5263E-03    -28.5003E-03     56.8386E-03    -28.3390E-03     1.21637E-03    -43.0688E+06    -47.1891E+06    -248.072E+06    -46.3252E+06    -248.071E+06    -43.9331E+06     73.8970E+03         24.1955
             359     16.5355E-03     52.0891E-03     886.029E-03     729.953E-03        -2.65818     729.831E-03        -2.65805     886.029E-03    -37.1681E-03     76.2953E-03    -28.3749E-03    -47.9006E-03    -27.7628E-03     56.1576E-03    -28.3749E-03     90.3944E-03     185.577E+06     126.635E+06    -8.86519E+06    -8.86460E+06     185.576E+06     126.635E+06    -106.327E+03         47.1828
             360     15.5618E-03     51.9687E-03     887.819E-03     763.755E-03        -2.69203     763.725E-03        -2.69200     887.819E-03    -15.8603E-03     75.2891E-03    -28.0581E-03    -47.2203E-03    -27.9536E-03     56.0223E-03    -28.0581E-03     87.5965E-03     163.558E+06     51.0360E+06    -14.6684E+06    -14.6663E+06     163.556E+06     51.0360E+06     407.301E+03         44.0141
             361     14.5888E-03     51.9022E-03     890.128E-03     779.437E-03        -2.70792     779.188E-03        -2.70767     890.128E-03    -44.3681E-03     61.5985E-03    -27.8006E-03    -33.8007E-03    -27.1725E-03     54.9703E-03    -27.8006E-03     46.6417E-03     134.551E+06    -3.63825E+06    -26.4207E+06    -17.3623E+06     134.542E+06    -12.6868E+06     869.066E+03         40.1288
             362     13.6151E-03     51.8703E-03     894.748E-03     784.877E-03        -2.71529     784.634E-03        -2.71505     894.748E-03    -43.5563E-03     57.4052E-03    -27.8006E-03    -29.6141E-03    -27.3127E-03     55.1039E-03    -27.8006E-03     27.7026E-03     76.2178E+06    -17.8166E+06    -33.0301E+06    -17.8000E+06     76.2011E+06    -33.0301E+06     837.395E+03         36.4440
             363     12.6422E-03     51.8442E-03     900.131E-03     810.550E-03        -2.74564     810.139E-03        -2.74523     900.131E-03    -56.7437E-03     56.8440E-03    -27.9541E-03    -28.9100E-03    -27.6321E-03     55.5660E-03    -27.9541E-03     20.4361E-03     7.73049E+06    -19.4582E+06    -29.1226E+06    -16.6568E+06     1.42956E+06    -25.6231E+06     487.534E+03         33.4713
             364     11.6694E-03     51.8269E-03     904.778E-03     839.695E-03        -2.77876     839.082E-03        -2.77815     904.778E-03    -13.3567E-03     56.4436E-03    -28.0777E-03    -28.4123E-03    -27.7158E-03     55.7471E-03    -28.0777E-03     15.2541E-03    -13.3617E+06    -18.6507E+06    -50.0134E+06    -15.8607E+06    -50.0072E+06    -16.1579E+06     409.481E+03         31.1374
             365     10.6965E-03     51.8120E-03     909.050E-03     847.939E-03        -2.78952     846.514E-03        -2.78809     909.050E-03    -49.5028E-03     56.5468E-03    -28.1787E-03    -28.3796E-03    -27.8400E-03     56.0071E-03    -28.1787E-03     13.4887E-03    -8.18575E+06    -15.9931E+06    -86.6437E+06    -15.9976E+06    -86.6392E+06    -8.18575E+06     521.980E+03         29.2286
             366     9.72386E-03     51.7985E-03     914.122E-03     847.198E-03        -2.79649     845.732E-03        -2.79503     914.122E-03    -52.8649E-03     56.6169E-03    -28.2390E-03    -28.3384E-03    -27.9215E-03     56.2203E-03    -28.2593E-03     11.4732E-03    -2.13585E+06    -16.8055E+06    -112.957E+06    -16.8075E+06    -112.955E+06    -2.13585E+06     373.287E+03         27.6410
             367     8.75126E-03     51.7877E-03     919.731E-03     861.930E-03        -2.81835     861.468E-03        -2.81789     919.731E-03    -1.63455E-03     56.6194E-03    -28.2762E-03    -28.3217E-03    -28.0053E-03     56.3485E-03    -28.3217E-03     9.56898E-03     1.43086E+06    -18.3433E+06    -133.927E+06    -18.3439E+06    -133.926E+06     1.43086E+06     238.507E+03         26.3913
             368     7.77873E-03     51.7782E-03     923.879E-03     894.484E-03        -2.85128     894.200E-03        -2.85099     923.879E-03    -14.1631E-03     56.6552E-03    -28.2904E-03    -28.3616E-03    -28.0634E-03     56.4282E-03    -28.3616E-03     8.75777E-03    -200.483E+03    -20.7375E+06    -153.101E+06    -20.7382E+06    -153.100E+06    -200.483E+03     224.505E+03         25.5026
             369     6.80627E-03     51.7691E-03     926.070E-03     909.870E-03        -2.86448     909.225E-03        -2.86384     926.070E-03    -42.4958E-03     56.7014E-03    -28.3051E-03    -28.3982E-03    -28.1301E-03     56.5264E-03    -28.3982E-03     7.68142E-03    -3.34367E+06    -23.8728E+06    -172.356E+06    -23.8744E+06    -172.355E+06    -3.34367E+06     367.220E+03         24.9694
             370     5.83378E-03     51.7619E-03     929.204E-03     898.098E-03        -2.85544     896.759E-03        -2.85410     929.204E-03     10.0839E-03     56.7697E-03    -28.3425E-03    -28.4306E-03    -28.2117E-03     56.6390E-03    -28.4306E-03     6.65229E-03    -7.70110E+06    -27.5492E+06    -191.773E+06    -27.5533E+06    -191.769E+06    -7.70110E+06     696.083E+03         24.6887
             371     4.86155E-03     51.7551E-03     935.349E-03     896.421E-03        -2.86230     894.070E-03        -2.85995     935.349E-03    -33.6130E-03     56.8081E-03    -28.3521E-03    -28.4593E-03    -28.2558E-03     56.7118E-03    -28.4593E-03     5.70044E-03    -13.2536E+06    -31.3508E+06    -214.486E+06    -31.3561E+06    -214.481E+06    -13.2536E+06     885.339E+03         24.5149
             372     3.88904E-03     51.7497E-03     948.772E-03     919.148E-03        -2.89783     920.735E-03        -2.89213     941.484E-03     68.9261E-03     56.8176E-03    -28.3450E-03    -28.4759E-03    -28.2817E-03     56.7542E-03    -28.4759E-03     4.60979E-03    -19.6655E+06    -35.0953E+06    -234.663E+06    -35.0982E+06     -234.66E+06    -19.6655E+06     506.609E+03         24.3837
             373     2.91666E-03     51.7454E-03     962.128E-03     939.467E-03        -2.92980     940.733E-03        -2.91310     944.171E-03    -134.086E-03     56.8634E-03    -28.3949E-03    -28.4711E-03    -28.3572E-03     56.8256E-03    -28.4711E-03     3.55258E-03    -27.8542E+06    -39.0798E+06    -243.249E+06    -39.0808E+06    -243.248E+06    -27.8542E+06     154.250E+03         24.2905
             374     1.94463E-03     51.7424E-03     980.950E-03     951.303E-03        -2.96243     923.523E-03        -2.90500     951.303E-03     277.537E-03     56.8465E-03    -28.4010E-03    -28.4469E-03    -28.3815E-03     56.8270E-03    -28.4469E-03     2.51974E-03    -36.3218E+06    -42.3552E+06    -246.344E+06    -42.3563E+06    -246.343E+06    -36.3218E+06     172.726E+03         24.2294
             375     972.276E-06     51.7402E-03         1.44191     733.142E-03        -3.20580         1.18281        -2.94670     733.142E-03    -853.975E-03     56.8393E-03    -28.3448E-03    -28.4957E-03    -28.4550E-03     56.8330E-03    -28.3792E-03     1.28208E-03    -41.6343E+06    -45.4597E+06    -247.912E+06    -44.3225E+06    -247.911E+06    -42.7726E+06     -77.879E+03         24.1953
             376     16.5354E-03     51.0308E-03     812.311E-03     744.569E-03        -2.59208     744.442E-03        -2.59195     812.311E-03    -19.6133E-03     76.4755E-03    -28.3812E-03    -48.0809E-03    -27.9435E-03     56.3380E-03    -28.3812E-03     90.6518E-03     185.620E+06     126.594E+06    -9.11181E+06    -9.11130E+06     185.619E+06     126.594E+06     16.2992E+03         47.1739
             377     15.5631E-03     50.9108E-03     809.799E-03     735.201E-03        -2.57986     735.155E-03        -2.57982     809.799E-03    -17.5996E-03     75.3338E-03    -28.0507E-03    -47.2764E-03    -28.1175E-03     56.1750E-03    -28.0507E-03     87.5035E-03     162.659E+06     50.1163E+06    -15.5360E+06    -15.5330E+06     162.656E+06     50.1163E+06     510.765E+03         44.0081
             378     14.5883E-03     50.8466E-03     809.169E-03     736.954E-03        -2.57992     736.881E-03        -2.57984     809.169E-03    -21.8840E-03     61.5533E-03    -27.7869E-03    -33.7731E-03    -27.0974E-03     54.8776E-03    -27.7869E-03     46.8888E-03     134.210E+06    -4.13944E+06    -27.3840E+06    -17.6923E+06     134.199E+06    -13.8200E+06     1.11775E+06         40.1250
             379     13.6149E-03     50.8119E-03     810.887E-03     743.314E-03        -2.58556     743.226E-03        -2.58547     810.887E-03    -31.2478E-03     57.4412E-03    -27.7914E-03    -29.6632E-03    -27.3198E-03     55.0979E-03    -27.7914E-03     27.9096E-03     77.1946E+06    -16.6701E+06    -33.1125E+06    -16.6606E+06     77.1851E+06    -33.1125E+06     786.598E+03         36.4404
             380     12.6424E-03     50.7873E-03     813.210E-03     761.978E-03        -2.60540     761.547E-03        -2.60496     813.210E-03    -63.3792E-03     56.8105E-03    -27.9476E-03    -28.8870E-03    -27.6279E-03     55.5514E-03    -27.9476E-03     20.3071E-03     8.64463E+06    -18.5911E+06    -29.0432E+06    -15.4351E+06     1.79839E+06    -25.3530E+06     290.470E+03         33.4677
             381     11.6693E-03     50.7695E-03     815.041E-03     781.256E-03        -2.62720     780.679E-03        -2.62663     815.041E-03    -18.1524E-03     56.4237E-03    -28.0723E-03    -28.3976E-03    -27.6896E-03     55.7157E-03    -28.0723E-03     15.3828E-03    -12.9006E+06    -18.1097E+06    -50.0689E+06    -14.9552E+06    -50.0643E+06    -16.0598E+06     282.044E+03         31.1339
             382     10.6966E-03     50.7549E-03     817.626E-03     792.387E-03        -2.63855     792.069E-03        -2.63686     816.256E-03    -67.8045E-03     56.5537E-03    -28.1733E-03    -28.3933E-03    -27.8432E-03     56.0035E-03    -28.1733E-03     13.6164E-03    -8.20146E+06    -15.1691E+06    -86.5722E+06    -15.1701E+06    -86.5712E+06    -8.20146E+06     234.882E+03         29.2254
             383     9.72396E-03     50.7409E-03     818.754E-03     793.550E-03        -2.64086     793.320E-03        -2.63926     817.384E-03    -80.8657E-03     56.6318E-03    -28.2279E-03    -28.3685E-03    -27.9424E-03     56.2300E-03    -28.2522E-03     11.5587E-03    -2.08672E+06    -15.9295E+06    -112.657E+06    -15.9302E+06    -112.656E+06    -2.08672E+06     209.974E+03         27.6382
             384     8.75135E-03     50.7306E-03     818.798E-03     797.000E-03        -2.64746     796.439E-03        -2.64690     818.798E-03    -36.4303E-03     56.6039E-03    -28.2690E-03    -28.3145E-03    -27.9938E-03     56.3287E-03    -28.3145E-03     9.64143E-03     1.43815E+06    -17.6098E+06    -133.915E+06    -17.6105E+06    -133.915E+06     1.43815E+06     265.603E+03         26.3890
             385     7.77877E-03     50.7207E-03     820.119E-03     804.438E-03        -2.65565     803.919E-03        -2.65513     820.119E-03    -41.6427E-03     56.6544E-03    -28.2975E-03    -28.3547E-03    -28.0697E-03     56.4267E-03    -28.3547E-03     8.77081E-03    -169.442E+03    -20.1587E+06    -153.276E+06    -20.1620E+06    -153.273E+06    -169.442E+03     581.805E+03         25.5007
             386     6.80630E-03     50.7121E-03     821.254E-03     808.306E-03        -2.65907     807.567E-03        -2.65833     821.254E-03    -53.9484E-03     56.6827E-03    -28.2954E-03    -28.3904E-03    -28.1184E-03     56.5057E-03    -28.3904E-03     7.72636E-03    -3.41452E+06    -23.3174E+06    -172.564E+06    -23.3235E+06    -172.558E+06    -3.41452E+06     909.793E+03         24.9679
             387     5.83387E-03     50.7044E-03     823.055E-03     809.636E-03        -2.66259     808.836E-03        -2.66137     822.628E-03    -10.5039E-03     56.7400E-03    -28.3190E-03    -28.4245E-03    -28.1858E-03     56.6068E-03    -28.4245E-03     6.70912E-03    -7.79901E+06    -26.7429E+06    -191.889E+06    -26.7518E+06    -191.880E+06    -7.79901E+06     1.19877E+06         24.6879
             388     4.86141E-03     50.6980E-03     832.411E-03     805.756E-03        -2.66859     811.122E-03        -2.66599     824.447E-03    -59.7633E-03     56.7984E-03    -28.3448E-03    -28.4563E-03    -28.2488E-03     56.7025E-03    -28.4563E-03     5.68512E-03    -13.1206E+06    -30.4460E+06    -213.952E+06    -30.4557E+06    -213.943E+06    -13.1206E+06     1.26449E+06         24.5147
             389     3.88912E-03     50.6925E-03     840.508E-03     813.149E-03        -2.68352     821.764E-03        -2.67731     825.683E-03     51.9831E-03     56.8147E-03    -28.3453E-03    -28.4731E-03    -28.2824E-03     56.7517E-03    -28.4731E-03     4.59859E-03    -20.1349E+06    -34.5795E+06    -233.827E+06    -34.5856E+06    -233.821E+06    -20.1349E+06     985.778E+03         24.3833
             390     2.91676E-03     50.6882E-03     846.686E-03     823.800E-03        -2.69940     827.628E-03        -2.68184     825.294E-03    -136.575E-03     56.8441E-03    -28.3789E-03    -28.4692E-03    -28.3407E-03     56.8059E-03    -28.4692E-03     3.57120E-03    -29.2373E+06    -38.5475E+06    -242.681E+06    -38.5499E+06    -242.679E+06    -29.2373E+06      482.11E+03         24.2895
             391     1.94435E-03     50.6850E-03     881.927E-03     824.787E-03        -2.73820     823.774E-03        -2.68005     824.787E-03     259.567E-03     56.8780E-03    -28.4131E-03    -28.4674E-03    -28.4064E-03     56.8589E-03    -28.4551E-03     2.47614E-03    -36.6379E+06    -41.5799E+06    -246.449E+06    -41.5830E+06    -246.446E+06    -36.6379E+06    -133.522E+03         24.2286
             392     972.147E-06     50.6831E-03         1.33900     607.656E-03        -2.97563         1.04198        -2.67861     607.656E-03    -927.273E-03     56.8648E-03    -28.3181E-03    -28.5480E-03    -28.5273E-03     56.8584E-03    -28.3324E-03     1.36454E-03    -40.5953E+06     -43.871E+06    -247.687E+06    -42.7366E+06    -247.683E+06    -41.7336E+06    -206.535E+03         24.1951
             393     16.5358E-03     49.9721E-03     741.130E-03     713.764E-03        -2.48618     718.097E-03        -2.48603     736.643E-03     14.7671E-03     76.4310E-03    -28.3772E-03    -48.0359E-03    -27.6666E-03     56.0617E-03    -28.3772E-03     90.9536E-03     185.014E+06     125.854E+06    -9.29270E+06    -9.29040E+06     185.011E+06     125.854E+06     512.436E+03         47.1646
             394     15.5610E-03     49.8540E-03     740.389E-03     708.098E-03        -2.47572     717.780E-03        -2.47567     730.658E-03    -9.46411E-03     75.3725E-03    -28.0616E-03    -47.3001E-03    -28.0599E-03     56.1323E-03    -28.0616E-03     87.4492E-03     162.301E+06     49.9644E+06    -15.8278E+06    -15.8241E+06     162.298E+06     49.9644E+06     694.154E+03         44.0008
             395     14.5889E-03     49.7887E-03     733.432E-03     699.899E-03        -2.46016     707.004E-03        -2.46013     726.294E-03     1.36694E-03     61.7965E-03    -27.7934E-03    -34.0098E-03    -27.4546E-03     55.2412E-03    -27.7934E-03     46.7009E-03     134.899E+06    -2.86346E+06    -27.2056E+06    -17.2496E+06     134.897E+06    -12.8175E+06     410.682E+03         40.1201
             396     13.6157E-03     49.7553E-03     728.467E-03     702.639E-03        -2.45581     706.682E-03        -2.45578     724.391E-03    -5.75626E-03     57.3541E-03    -27.7839E-03    -29.5804E-03    -27.2073E-03     54.9810E-03    -27.7839E-03     28.0956E-03     77.3262E+06    -15.8591E+06    -32.8049E+06    -15.8571E+06     77.3242E+06    -32.8049E+06     326.062E+03         36.4366
             397     12.6420E-03     49.7294E-03     725.759E-03     703.262E-03        -2.45005     705.180E-03        -2.44978     723.576E-03    -44.6780E-03     56.7329E-03    -27.9495E-03    -28.8008E-03    -27.5174E-03     55.4495E-03    -27.9495E-03     20.4132E-03     8.84819E+06    -17.8928E+06    -28.6409E+06    -14.5493E+06     1.74840E+06    -24.8845E+06     286.759E+03         33.4634
             398     11.6694E-03     49.7126E-03     723.957E-03     704.373E-03        -2.45157     704.533E-03        -2.45121     723.441E-03    -14.3936E-03     56.5085E-03    -28.0742E-03    -28.4771E-03    -27.7722E-03     55.8036E-03    -28.0742E-03     15.3765E-03    -12.3469E+06    -17.3776E+06    -49.8124E+06    -14.0358E+06    -49.8097E+06    -15.6914E+06     178.732E+03         31.1298
             399     10.6965E-03     49.6973E-03     735.013E-03     715.917E-03        -2.47429     727.112E-03        -2.47315     722.673E-03    -56.7540E-03     56.5666E-03    -28.1712E-03    -28.4082E-03    -27.8531E-03     56.0114E-03    -28.1712E-03     13.6770E-03    -7.77834E+06    -14.1929E+06    -86.3412E+06    -14.1933E+06    -86.3408E+06    -7.77834E+06     152.770E+03         29.2218
             400     9.72389E-03     49.6837E-03     740.318E-03     720.311E-03        -2.48222     739.137E-03        -2.48104     720.316E-03    -52.6071E-03     56.6079E-03    -28.2311E-03    -28.3405E-03    -27.9208E-03     56.2073E-03    -28.2503E-03     11.5379E-03    -1.86872E+06    -15.2461E+06    -112.645E+06    -15.2467E+06    -112.644E+06    -1.86872E+06     237.732E+03         27.6351
             401     8.75130E-03     49.6731E-03     726.239E-03     715.284E-03        -2.46361     722.801E-03        -2.46295     718.061E-03    -28.0410E-03     56.6047E-03    -28.2718E-03    -28.3132E-03    -27.9947E-03     56.3276E-03    -28.3132E-03     9.67632E-03     1.30290E+06    -17.3212E+06    -134.299E+06    -17.3242E+06    -134.296E+06     1.30290E+06     528.502E+03         26.3864
             402     7.77882E-03     49.6635E-03     718.353E-03     711.227E-03        -2.45278     711.844E-03        -2.45224     717.200E-03    -52.3265E-03     56.6519E-03    -28.2981E-03    -28.3539E-03    -28.0685E-03     56.4223E-03    -28.3539E-03     8.80434E-03    -209.765E+03    -19.8762E+06    -153.605E+06    -19.8834E+06    -153.598E+06    -209.765E+03     945.671E+03         25.4988
             403     6.80630E-03     49.6548E-03     718.371E-03     709.152E-03        -2.45113     709.732E-03        -2.45055     717.217E-03    -52.5675E-03     56.6900E-03    -28.3060E-03    -28.3885E-03    -28.1277E-03     56.5116E-03    -28.3885E-03     7.76092E-03    -3.37774E+06    -22.5903E+06    -172.584E+06    -22.6027E+06    -172.572E+06    -3.37774E+06     1.34171E+06         24.9666
             404     5.83380E-03     49.6471E-03     718.087E-03     710.157E-03        -2.45274     709.667E-03        -2.45183     717.659E-03    -10.5981E-03     56.7285E-03    -28.3091E-03    -28.4227E-03    -28.1757E-03     56.5951E-03    -28.4227E-03     6.70900E-03    -7.85385E+06    -25.7952E+06    -191.794E+06    -25.8104E+06    -191.779E+06    -7.85385E+06     1.56554E+06         24.6872
             405     4.86145E-03     49.6406E-03     731.653E-03     714.188E-03        -2.47166     725.285E-03        -2.46793     716.826E-03    -99.2612E-03     56.7938E-03    -28.3384E-03    -28.4580E-03    -28.2443E-03     56.6997E-03    -28.4580E-03     5.63100E-03    -12.9609E+06    -29.4260E+06    -213.707E+06    -29.4433E+06    -213.690E+06    -12.9609E+06     1.77387E+06         24.5147
             406     3.88904E-03     49.6353E-03     733.039E-03     712.704E-03        -2.47136     724.099E-03        -2.46392     714.199E-03     14.1891E-03     56.8467E-03    -28.3782E-03    -28.4723E-03    -28.3159E-03     56.7844E-03    -28.4723E-03     4.57756E-03    -19.4686E+06    -33.3907E+06    -232.808E+06    -33.4056E+06    -232.793E+06    -19.4686E+06     1.67955E+06         24.3833
             407     2.91676E-03     49.6310E-03     732.083E-03     711.520E-03        -2.46813     710.038E-03        -2.44758     713.014E-03    -162.651E-03     56.8457E-03    -28.3867E-03    -28.4633E-03    -28.3484E-03     56.8074E-03    -28.4633E-03     3.57813E-03    -28.2590E+06    -37.1315E+06    -241.469E+06    -37.1372E+06    -241.463E+06    -28.2590E+06     960.926E+03         24.2886
             408     1.94450E-03     49.6277E-03     774.893E-03     713.536E-03        -2.51630     712.073E-03        -2.45348     713.536E-03     225.067E-03     56.8612E-03    -28.4039E-03    -28.4599E-03    -28.3970E-03     56.8420E-03    -28.4475E-03     2.47987E-03    -35.8515E+06    -40.0935E+06    -245.802E+06    -40.0967E+06    -245.799E+06    -35.8515E+06     56.4282E+03         24.2269
             409     972.372E-06     49.6257E-03         1.23058     527.060E-03        -2.78702     900.410E-03        -2.45685     527.060E-03    -977.942E-03     56.8579E-03    -28.3144E-03    -28.5443E-03    -28.5315E-03     56.8515E-03    -28.3208E-03     1.37070E-03    -40.7854E+06    -42.7146E+06    -248.213E+06    -42.7188E+06    -248.209E+06    -40.7854E+06    -227.558E+03         24.1930
             410     16.5359E-03     48.9178E-03     685.485E-03     650.989E-03        -2.36174     675.981E-03        -2.36157     660.319E-03    -6.23962E-03     76.3508E-03    -28.3814E-03    -47.9635E-03    -27.6298E-03     56.0170E-03    -28.3814E-03     90.7765E-03     184.554E+06     125.965E+06    -8.82977E+06    -8.82581E+06     184.550E+06     125.965E+06     817.762E+03         47.1548
             411     15.5618E-03     48.7950E-03     687.865E-03     651.838E-03        -2.35843     687.731E-03        -2.35830     651.838E-03    -22.1698E-03     75.3254E-03    -28.0746E-03    -47.2427E-03    -27.9268E-03     56.0095E-03    -28.0746E-03     87.5659E-03     163.314E+06     51.4415E+06    -14.3155E+06    -14.3125E+06     163.311E+06     51.4415E+06     476.512E+03         43.9929
             412     14.5886E-03     48.7313E-03     689.445E-03     643.878E-03        -2.35033     689.131E-03        -2.35002     643.878E-03    -29.3225E-03     61.7869E-03    -27.8051E-03    -33.9852E-03    -27.4237E-03     55.2255E-03    -27.8051E-03     46.6619E-03     135.279E+06    -1.62949E+06    -26.6534E+06    -16.0309E+06     135.278E+06    -12.2513E+06    -174.970E+03         40.1138
             413     13.6151E-03     48.6983E-03     676.568E-03     637.937E-03        -2.32882     676.283E-03        -2.32853     637.937E-03    -31.2656E-03     57.5252E-03    -27.7899E-03    -29.7425E-03    -27.3573E-03     55.1400E-03    -27.7899E-03     28.2423E-03     77.0309E+06    -15.2375E+06    -32.7821E+06    -15.2361E+06     77.0294E+06    -32.7821E+06    -7.65424E+03         36.4312
             414     12.6422E-03     48.6723E-03     662.371E-03     628.874E-03        -2.30409     657.350E-03        -2.30376     633.559E-03    -51.2135E-03     56.7413E-03    -27.9521E-03    -28.8032E-03    -27.5065E-03     55.4447E-03    -27.9521E-03     20.5026E-03     9.18292E+06    -17.6858E+06    -28.5070E+06    -14.0464E+06     1.64512E+06    -24.6087E+06     126.139E+03         33.4585
             415     11.6692E-03     48.6550E-03     657.496E-03     625.403E-03        -2.29782     652.413E-03        -2.29742     630.087E-03    -16.3152E-03     56.5195E-03    -28.0765E-03    -28.4867E-03    -27.7822E-03     55.8150E-03    -28.0765E-03     15.3766E-03    -11.8997E+06    -17.2757E+06    -49.7685E+06    -13.6380E+06    -49.7676E+06    -15.5384E+06     142.285E+03         31.1252
             416     10.6968E-03     48.6403E-03     655.831E-03     626.493E-03        -2.29872     654.800E-03        -2.29769     626.493E-03    -48.8853E-03     56.6202E-03    -28.1718E-03    -28.4629E-03    -27.9076E-03     56.0648E-03    -28.1718E-03     13.6862E-03    -7.43136E+06    -13.8817E+06    -86.0733E+06    -13.8832E+06    -86.0719E+06    -7.43136E+06     300.919E+03         29.2178
             417     9.72389E-03     48.6263E-03     655.956E-03     622.351E-03        -2.29185     654.933E-03        -2.29083     622.351E-03    -49.4917E-03     56.5890E-03    -28.2127E-03    -28.3383E-03    -27.9023E-03     56.1888E-03    -28.2486E-03     11.5357E-03    -1.76722E+06    -15.0946E+06    -112.894E+06    -15.0973E+06    -112.891E+06    -1.76722E+06     465.523E+03         27.6316
             418     8.75134E-03     48.6159E-03     643.994E-03     617.024E-03        -2.27293     642.169E-03        -2.27244     618.362E-03    -22.9224E-03     56.5859E-03    -28.2523E-03    -28.3127E-03    -27.9751E-03     56.3087E-03    -28.3127E-03     9.67523E-03     1.25038E+06    -17.0354E+06    -134.671E+06    -17.0406E+06    -134.666E+06     1.25038E+06     745.134E+03         26.3837
             419     7.77870E-03     48.6061E-03     627.434E-03     614.154E-03        -2.25475     625.616E-03        -2.25426     615.491E-03    -64.3085E-03     56.6610E-03    -28.3039E-03    -28.3559E-03    -28.0755E-03     56.4326E-03    -28.3559E-03     8.78258E-03     33.0914E+03    -19.2733E+06    -153.750E+06    -19.2832E+06    -153.740E+06     33.0914E+03     1.12638E+06         25.4970
             420     6.80626E-03     48.5974E-03     627.679E-03     612.413E-03        -2.25435     626.703E-03        -2.25400     613.039E-03    -55.5345E-03     56.7099E-03    -28.3235E-03    -28.3895E-03    -28.1470E-03     56.5334E-03    -28.3895E-03     7.71944E-03    -3.09767E+06    -22.2185E+06    -172.722E+06    -22.2384E+06    -172.702E+06    -3.09767E+06     1.70526E+06         24.9656
             421     5.83389E-03     48.5899E-03     623.678E-03     607.268E-03        -2.24662     619.740E-03        -2.24594     610.532E-03     10.4119E-03     56.7314E-03    -28.3150E-03    -28.4196E-03    -28.1842E-03     56.6006E-03    -28.4196E-03     6.64563E-03    -7.86594E+06    -25.5436E+06    -191.669E+06    -25.5674E+06    -191.645E+06    -7.86594E+06     1.97786E+06         24.6865
             422     4.86142E-03     48.5834E-03     618.372E-03     600.380E-03        -2.23690     605.497E-03        -2.23313     609.488E-03    -88.8297E-03     56.7765E-03    -28.3236E-03    -28.4555E-03    -28.2300E-03     56.6830E-03    -28.4555E-03     5.61592E-03    -12.8266E+06    -28.6349E+06    -213.457E+06    -28.6573E+06    -213.435E+06    -12.8266E+06     2.03125E+06         24.5140
             423     3.88910E-03     48.5780E-03     626.963E-03     602.412E-03        -2.24750     612.421E-03        -2.23943     608.883E-03     26.4683E-03     56.8459E-03    -28.3779E-03    -28.4713E-03    -28.3149E-03     56.7828E-03    -28.4713E-03     4.60474E-03    -18.6618E+06    -31.8620E+06    -231.925E+06    -31.8822E+06    -231.905E+06    -18.6618E+06     2.00105E+06         24.3830
             424     2.91680E-03     48.5736E-03     641.251E-03     606.027E-03        -2.26522     617.846E-03        -2.24181     606.027E-03    -164.196E-03     56.8735E-03    -28.4166E-03    -28.4603E-03    -28.3780E-03     56.8350E-03    -28.4603E-03     3.58797E-03    -26.5922E+06    -35.4483E+06    -239.699E+06    -35.4613E+06    -239.686E+06    -26.5922E+06     1.51207E+06         24.2883
             425     1.94449E-03     48.5704E-03     678.499E-03     604.449E-03        -2.30074     601.493E-03        -2.22374     604.449E-03     252.749E-03     56.8422E-03    -28.4028E-03    -28.4412E-03    -28.3831E-03     56.8225E-03    -28.4412E-03     2.53283E-03    -34.2704E+06    -38.6554E+06    -244.767E+06    -38.6601E+06    -244.762E+06    -34.2704E+06     774.139E+03         24.2253
             426     972.088E-06     48.5683E-03         1.13677     441.559E-03        -2.59545     768.326E-03        -2.22700     441.559E-03    -954.659E-03     56.8507E-03    -28.3474E-03    -28.5045E-03    -28.4756E-03     56.8440E-03    -28.3696E-03     1.35845E-03    -39.7070E+06    -41.2844E+06    -248.484E+06    -41.0255E+06    -248.481E+06    -39.9682E+06     209.181E+03         24.1899
             427     16.5353E-03     47.8580E-03     675.338E-03     585.897E-03        -2.27422     675.223E-03        -2.27411     585.897E-03    -33.7350E-03     76.4959E-03    -28.3868E-03    -48.0997E-03    -27.7693E-03     56.1655E-03    -28.3868E-03     91.0082E-03     185.199E+06     127.164E+06    -7.45586E+06    -7.45357E+06     185.197E+06     127.164E+06     597.856E+03         47.1440
             428     15.5624E-03     47.7395E-03     650.380E-03     574.185E-03        -2.23673     650.218E-03        -2.23657     574.185E-03    -41.1623E-03     75.2461E-03    -28.0746E-03    -47.1712E-03    -27.8951E-03     55.9700E-03    -28.0746E-03     87.5938E-03     163.933E+06     51.8689E+06    -13.0414E+06    -13.0401E+06     163.932E+06     51.8689E+06     237.818E+03         43.9844
             429     14.5874E-03     47.6733E-03     654.125E-03     563.551E-03        -2.22517     653.820E-03        -2.22486     563.551E-03    -44.5802E-03     61.6481E-03    -27.8096E-03    -33.8449E-03    -27.2349E-03     55.0381E-03    -27.8096E-03     46.5698E-03     135.066E+06    -2.35287E+06    -25.9381E+06    -15.6715E+06     135.065E+06    -12.6185E+06    -314.248E+03         40.1067
             430     13.6153E-03     47.6407E-03     648.080E-03     554.192E-03        -2.20960     647.803E-03        -2.20932     554.192E-03    -37.2863E-03     57.5615E-03    -27.8015E-03    -29.7702E-03    -27.4667E-03     55.2580E-03    -27.8015E-03     27.7863E-03     76.7903E+06    -15.3890E+06    -32.6034E+06    -15.3874E+06     76.7888E+06    -32.6034E+06    -266.320E+03         36.4248
             431     12.6423E-03     47.6152E-03     633.700E-03     545.445E-03        -2.18738     633.260E-03        -2.18694     545.445E-03    -58.4848E-03     56.8095E-03    -27.9559E-03    -28.8692E-03    -27.5815E-03     55.5218E-03    -27.9559E-03     20.5112E-03     8.63973E+06    -17.6746E+06    -28.4961E+06    -14.2500E+06     1.34239E+06    -24.6234E+06     136.755E+03         33.4529
             432     11.6693E-03     47.5978E-03     612.209E-03     537.380E-03        -2.15750     611.734E-03        -2.15703     537.380E-03    -28.3877E-03     56.5016E-03    -28.0778E-03    -28.4670E-03    -27.7475E-03     55.7821E-03    -28.0778E-03     15.5248E-03    -12.0452E+06    -17.2137E+06    -49.7607E+06    -13.7906E+06    -49.7499E+06    -15.4790E+06     298.427E+03         31.1201
             433     10.6964E-03     47.5826E-03     579.330E-03     530.791E-03        -2.11994     578.074E-03        -2.11869     530.791E-03    -59.7015E-03     56.6376E-03    -28.1733E-03    -28.4787E-03    -27.9291E-03     56.0880E-03    -28.1733E-03     13.6125E-03    -7.69160E+06    -14.3658E+06    -86.6227E+06    -14.3689E+06    -86.6196E+06    -7.69160E+06     425.483E+03         29.2133
             434     9.72407E-03     47.5693E-03     563.925E-03     525.600E-03        -2.09712     562.688E-03        -2.09588     525.600E-03    -59.6582E-03     56.6177E-03    -28.2180E-03    -28.3623E-03    -27.9336E-03     56.2208E-03    -28.2497E-03     11.5082E-03    -1.61560E+06    -15.5354E+06    -112.916E+06    -15.5416E+06    -112.909E+06    -1.61560E+06     759.347E+03         27.6279
             435     8.75124E-03     47.5585E-03     563.749E-03     520.324E-03        -2.08926     563.488E-03        -2.08900     520.324E-03    -11.3389E-03     56.5941E-03    -28.2599E-03    -28.3116E-03    -27.9824E-03     56.3165E-03    -28.3116E-03     9.67755E-03     1.46711E+06    -17.4098E+06    -134.583E+06    -17.4159E+06    -134.577E+06     1.46711E+06     824.965E+03         26.3807
             436     7.77885E-03     47.5488E-03     552.493E-03     514.667E-03        -2.07437     552.188E-03        -2.07407     514.667E-03    -51.2800E-03     56.6671E-03    -28.3096E-03    -28.3531E-03    -28.0842E-03     56.4417E-03    -28.3531E-03     8.72832E-03    -21.3055E+03    -19.8364E+06    -154.276E+06    -19.8475E+06    -154.265E+06    -21.3055E+03     1.16391E+06         25.4949
             437     6.80634E-03     47.5400E-03     542.217E-03     509.149E-03        -2.06161     541.791E-03        -2.06118     509.149E-03    -61.7733E-03     56.6998E-03    -28.3143E-03    -28.3874E-03    -28.1396E-03     56.5250E-03    -28.3874E-03     7.67861E-03    -2.54677E+06    -22.2013E+06    -172.799E+06    -22.2220E+06    -172.778E+06    -2.54677E+06     1.74823E+06         24.9643
             438     5.83387E-03     47.5326E-03     539.096E-03     503.157E-03        -2.05188     538.055E-03        -2.05084     503.157E-03     18.9809E-03     56.7142E-03    -28.2996E-03    -28.4182E-03    -28.1701E-03     56.5847E-03    -28.4182E-03     6.61186E-03    -7.02214E+06    -24.6842E+06    -191.290E+06    -24.7083E+06    -191.266E+06    -7.02214E+06     1.98755E+06         24.6856
             439     4.86148E-03     47.5261E-03     517.807E-03     492.173E-03        -2.01799     508.031E-03        -2.01468     498.643E-03    -53.9018E-03     56.7663E-03    -28.3129E-03    -28.4552E-03    -28.2189E-03     56.6723E-03    -28.4552E-03     5.63013E-03    -12.2226E+06    -27.4563E+06    -213.010E+06    -27.4810E+06    -212.986E+06    -12.2226E+06     2.13620E+06         24.5138
             440     3.88902E-03     47.5207E-03     507.292E-03     483.420E-03        -2.00013     484.317E-03        -1.99268     498.946E-03     42.6936E-03     56.8371E-03    -28.3669E-03    -28.4726E-03    -28.3021E-03     56.7723E-03    -28.4726E-03     4.67342E-03    -18.4788E+06    -30.8929E+06    -231.360E+06    -30.9201E+06    -231.333E+06    -18.4788E+06     2.31574E+06         24.3835
             441     2.91673E-03     47.5163E-03     540.728E-03     489.982E-03        -2.04098     506.601E-03        -2.01591     499.037E-03    -167.966E-03     56.8940E-03    -28.4229E-03    -28.4743E-03    -28.3969E-03     56.8548E-03    -28.4611E-03     3.60710E-03    -26.3893E+06    -34.3791E+06    -238.358E+06    -34.4046E+06    -238.333E+06    -26.3893E+06     2.24926E+06         24.2889
             442     1.94453E-03     47.5131E-03     607.339E-03     490.264E-03        -2.10495     518.928E-03        -2.01654     490.264E-03     276.489E-03     56.8677E-03    -28.4078E-03    -28.4611E-03    -28.4214E-03     56.8494E-03    -28.4292E-03     2.43643E-03    -33.4933E+06    -37.5362E+06    -243.118E+06    -37.5528E+06    -243.101E+06    -33.4933E+06     1.63849E+06         24.2252
             443     972.336E-06     47.5111E-03         1.06794     319.529E-03        -2.38924     646.201E-03        -1.96750     319.529E-03    -952.223E-03     56.8057E-03    -28.3315E-03    -28.4752E-03    -28.4534E-03     56.7997E-03    -28.3473E-03     1.31198E-03    -38.8127E+06    -40.3879E+06    -247.586E+06    -39.9793E+06    -247.579E+06    -39.2283E+06     897.317E+03         24.1885
             444     16.5359E-03     46.8010E-03     675.885E-03     513.218E-03        -2.18528     675.618E-03        -2.18502     513.218E-03     13.8531E-03     76.3807E-03    -28.3708E-03    -47.9756E-03    -27.7287E-03     56.1337E-03    -28.3708E-03     90.6767E-03     184.862E+06     126.756E+06    -7.78557E+06    -7.78433E+06     184.861E+06     126.756E+06    -143.511E+03         47.1325
             445     15.5613E-03     46.6816E-03     639.155E-03     497.359E-03        -2.13418     639.098E-03        -2.13412     497.359E-03    -21.1333E-03     75.1508E-03    -28.0631E-03    -47.0771E-03    -27.9489E-03     56.0225E-03    -28.0631E-03     87.0832E-03     164.195E+06     52.5778E+06    -13.2809E+06    -13.2802E+06     164.194E+06     52.5778E+06    -127.261E+03         43.9752
             446     14.5893E-03     46.6165E-03     613.512E-03     483.355E-03        -2.09546     613.476E-03        -2.09543     483.355E-03    -15.9362E-03     61.5220E-03    -27.8059E-03    -33.7212E-03    -27.2048E-03     55.0056E-03    -27.8059E-03     46.4212E-03     135.206E+06    -976.524E+03    -25.4245E+06    -15.3383E+06     135.205E+06    -11.0622E+06    -118.653E+03         40.0994
             447     13.6149E-03     46.5829E-03     602.969E-03     471.261E-03        -2.07635     602.947E-03        -2.07633     471.261E-03    -10.1143E-03     57.3422E-03    -27.8035E-03    -29.5478E-03    -27.2108E-03     55.0053E-03    -27.8035E-03     27.8351E-03     75.9920E+06    -15.3174E+06    -31.9108E+06    -15.3130E+06     75.9876E+06    -31.9108E+06     107.316E+03         36.4181
             448     12.6420E-03     46.5580E-03     590.096E-03     459.525E-03        -2.05097     589.655E-03        -2.05053     459.525E-03    -53.4896E-03     56.8665E-03    -27.9613E-03    -28.9178E-03    -27.6459E-03     55.5947E-03    -27.9613E-03     20.4316E-03     7.91942E+06    -17.8673E+06    -27.7953E+06    -14.9520E+06     1.58391E+06    -24.3751E+06     285.278E+03         33.4463
             449     11.6692E-03     46.5404E-03     555.859E-03     448.535E-03        -2.00495     555.416E-03        -2.00450     448.535E-03    -38.2566E-03     56.5830E-03    -28.0775E-03    -28.5432E-03    -27.8247E-03     55.8644E-03    -28.0775E-03     15.5148E-03    -12.5557E+06    -17.7804E+06    -49.8401E+06    -14.8741E+06    -49.8250E+06    -15.4771E+06     452.918E+03         31.1145
             450     10.6967E-03     46.5253E-03     522.604E-03     439.079E-03        -1.96376     521.197E-03        -1.96235     439.079E-03    -73.7644E-03     56.5926E-03    -28.1722E-03    -28.4302E-03    -27.8917E-03     56.0541E-03    -28.1722E-03     13.4709E-03    -7.52061E+06    -15.3330E+06    -87.1570E+06    -15.3409E+06    -87.1491E+06    -7.52061E+06     640.002E+03         29.2084
             451     9.72384E-03     46.5119E-03     500.264E-03     430.810E-03        -1.93402     498.803E-03        -1.93256     430.810E-03    -64.3740E-03     56.6285E-03    -28.2475E-03    -28.3426E-03    -27.9510E-03     56.2389E-03    -28.2495E-03     11.3943E-03    -1.12397E+06    -16.4513E+06    -112.711E+06    -16.4569E+06    -112.705E+06    -1.12397E+06     722.033E+03         27.6239
             452     8.75149E-03     46.5012E-03     493.224E-03     422.482E-03        -1.91648     493.025E-03        -1.91628     422.482E-03    -5.04531E-03     56.6062E-03    -28.2715E-03    -28.3125E-03    -27.9985E-03     56.3317E-03    -28.3109E-03     9.63060E-03     2.28354E+06    -18.1702E+06    -134.446E+06    -18.1764E+06    -134.440E+06     2.28354E+06     831.212E+03         26.3775
             453     7.77884E-03     46.4915E-03     479.013E-03     413.571E-03        -1.89424     478.742E-03        -1.89396     413.571E-03    -12.0222E-03     56.6388E-03    -28.2851E-03    -28.3500E-03    -28.0572E-03     56.4109E-03    -28.3500E-03     8.77228E-03     407.100E+03    -20.4213E+06    -154.511E+06    -20.4293E+06    -154.503E+06     407.100E+03     883.302E+03         25.4924
             454     6.80641E-03     46.4828E-03     447.948E-03     405.703E-03        -1.85583     447.044E-03        -1.85493     405.703E-03    -45.2268E-03     56.6680E-03    -28.2861E-03    -28.3854E-03    -28.1099E-03     56.4919E-03    -28.3854E-03     7.70667E-03    -2.40604E+06    -22.3725E+06    -173.005E+06    -22.3815E+06    -172.996E+06    -2.40604E+06     960.915E+03         24.9624
             455     5.83390E-03     46.4754E-03     440.264E-03     398.682E-03        -1.84182     438.617E-03        -1.84018     398.682E-03     7.07430E-03     56.6983E-03    -28.2816E-03    -28.4217E-03    -28.1504E-03     56.5671E-03    -28.4217E-03     6.65354E-03    -6.47333E+06    -24.2191E+06    -191.299E+06    -24.2331E+06    -191.285E+06    -6.47333E+06     1.43863E+06         24.6848
             456     4.86140E-03     46.4689E-03     432.073E-03     390.922E-03        -1.82546     428.876E-03        -1.82226     390.922E-03    -37.6507E-03     56.7992E-03    -28.3438E-03    -28.4590E-03    -28.2495E-03     56.7049E-03    -28.4590E-03     5.63806E-03    -11.5067E+06    -26.7683E+06    -212.928E+06    -26.7909E+06    -212.905E+06    -11.5067E+06     2.03619E+06         24.5143
             457     3.88908E-03     46.4635E-03     403.639E-03     377.411E-03        -1.78182     387.310E-03        -1.77455     386.466E-03     43.1896E-03     56.8586E-03    -28.3904E-03    -28.4714E-03    -28.3269E-03     56.7951E-03    -28.4714E-03     4.62727E-03    -17.6520E+06    -29.8457E+06    -230.775E+06    -29.8805E+06    -230.740E+06    -17.6520E+06     2.62320E+06         24.3843
             458     2.91672E-03     46.4589E-03     410.632E-03     379.790E-03        -1.78985     371.092E-03        -1.75936     388.846E-03    -187.488E-03     56.8664E-03    -28.3984E-03    -28.4714E-03    -28.3731E-03     56.8279E-03    -28.4582E-03     3.57353E-03    -25.9618E+06    -32.7911E+06    -237.252E+06    -32.8314E+06    -237.211E+06    -25.9618E+06     2.85162E+06         24.2891
             459     1.94454E-03     46.4558E-03     496.788E-03     389.589E-03        -1.88386     397.073E-03        -1.78414     389.589E-03     259.069E-03     56.8904E-03    -28.4035E-03    -28.4883E-03    -28.4439E-03     56.8718E-03    -28.4292E-03     2.45979E-03    -32.6280E+06    -35.6135E+06    -241.311E+06    -35.6509E+06    -241.274E+06    -32.6280E+06     2.73355E+06         24.2252
             460     972.317E-06     46.4539E-03     979.231E-03     237.891E-03        -2.20972     537.228E-03        -1.76772     237.891E-03    -927.010E-03     56.8084E-03    -28.3131E-03    -28.4962E-03    -28.4903E-03     56.8025E-03    -28.3131E-03     1.23993E-03    -36.6076E+06    -38.2355E+06    -245.007E+06    -38.1047E+06    -244.983E+06    -36.7620E+06     1.92158E+06         24.1884
             461     16.5362E-03     45.7457E-03     650.216E-03     441.489E-03        -2.07792     649.962E-03        -2.07767     441.489E-03     17.0891E-03     76.6261E-03    -28.3605E-03    -48.2428E-03    -27.8684E-03     56.2517E-03    -28.3605E-03     91.1041E-03     185.023E+06     126.317E+06    -9.00084E+06    -8.99585E+06     185.018E+06     126.317E+06    -730.449E+03         47.1200
             462     15.5628E-03     45.6230E-03     630.631E-03     422.405E-03        -2.03930     630.581E-03        -2.03925     422.405E-03    -19.7898E-03     75.2849E-03    -28.0469E-03    -47.2198E-03    -27.9703E-03     56.0354E-03    -28.0469E-03     87.4073E-03     163.601E+06     51.7871E+06    -14.6845E+06    -14.6795E+06     163.596E+06     51.7871E+06    -777.298E+03         43.9649
             463     14.5882E-03     45.5601E-03     587.856E-03     404.808E-03        -1.98235     587.641E-03        -1.98214     404.808E-03    -38.2055E-03     61.4393E-03    -27.7961E-03    -33.6459E-03    -27.1297E-03     54.9231E-03    -27.7961E-03     46.4538E-03     134.710E+06    -1.99383E+06    -26.0789E+06    -16.5255E+06     134.706E+06    -11.5437E+06     166.427E+03         40.0908
             464     13.6152E-03     45.5258E-03     552.731E-03     390.023E-03        -1.93686     552.458E-03        -1.93659     390.023E-03    -44.6771E-03     57.3676E-03    -27.7965E-03    -29.5794E-03    -27.2075E-03     54.9957E-03    -27.7965E-03     28.0212E-03     76.2360E+06    -16.6991E+06    -32.0454E+06    -16.6928E+06     76.2297E+06    -32.0454E+06     585.223E+03         36.4103
             465     12.6420E-03     45.5006E-03     524.540E-03     376.603E-03        -1.89921     524.151E-03        -1.89882     376.603E-03    -56.9907E-03     56.8148E-03    -27.9546E-03    -28.8720E-03    -27.6173E-03     55.5601E-03    -27.9546E-03     20.2706E-03     7.75679E+06    -18.8133E+06    -28.2004E+06    -16.3474E+06     1.70022E+06    -24.6097E+06     491.108E+03         33.4394
             466     11.6695E-03     45.4827E-03     498.466E-03     363.863E-03        -1.85921     498.146E-03        -1.85889     363.863E-03    -27.3513E-03     56.5641E-03    -28.0748E-03    -28.5276E-03    -27.8235E-03     55.8600E-03    -28.0748E-03     15.3595E-03    -12.8093E+06    -18.7944E+06    -50.1276E+06    -16.3373E+06    -50.0915E+06    -15.3025E+06     627.237E+03         31.1083
             467     10.6967E-03     45.4683E-03     475.400E-03     351.483E-03        -1.82199     473.925E-03        -1.82051     351.483E-03    -70.8095E-03     56.5795E-03    -28.1696E-03    -28.4206E-03    -27.8780E-03     56.0370E-03    -28.1696E-03     13.5278E-03    -7.23324E+06    -16.7377E+06    -86.7300E+06    -16.7445E+06    -86.7232E+06    -7.23324E+06     576.743E+03         29.2032
             468     9.72415E-03     45.4543E-03     447.305E-03     339.513E-03        -1.78153     445.809E-03        -1.78003     339.513E-03    -71.7952E-03     56.6158E-03    -28.2241E-03    -28.3521E-03    -27.9366E-03     56.2211E-03    -28.2450E-03     11.4457E-03    -1.19387E+06    -17.6324E+06    -112.729E+06    -17.6346E+06    -112.727E+06    -1.19387E+06     331.984E+03         27.6196
             469     8.75141E-03     45.4442E-03     419.035E-03     328.262E-03        -1.74137     418.118E-03        -1.74045     328.262E-03    -45.3904E-03     56.5860E-03    -28.2525E-03    -28.3105E-03    -27.9805E-03     56.3125E-03    -28.3090E-03     9.61599E-03     2.72160E+06    -18.9413E+06    -134.466E+06    -18.9446E+06    -134.463E+06     2.72160E+06     335.292E+03         26.3743
             470     7.77891E-03     45.4342E-03     397.942E-03     317.479E-03        -1.70812     396.803E-03        -1.70698     317.479E-03    -54.1182E-03     56.6077E-03    -28.2546E-03    -28.3503E-03    -28.0246E-03     56.3777E-03    -28.3503E-03     8.80659E-03     1.07737E+06    -20.4275E+06    -154.052E+06    -20.4307E+06    -154.049E+06     1.07737E+06     113.797E+03         25.4901
             471     6.80632E-03     45.4256E-03     374.100E-03     307.075E-03        -1.67550     372.700E-03        -1.67410     307.075E-03    -67.2773E-03     56.6363E-03    -28.2496E-03    -28.3898E-03    -28.0734E-03     56.4601E-03    -28.3898E-03     7.70746E-03    -2.13631E+06    -22.5144E+06    -173.414E+06    -22.5158E+06    -173.413E+06    -2.13631E+06    -71.1854E+03         24.9610
             472     5.83380E-03     45.4181E-03     341.114E-03     298.318E-03        -1.63668     338.890E-03        -1.63446     298.318E-03    -4.20991E-03     56.7218E-03    -28.2982E-03    -28.4290E-03    -28.1654E-03     56.5891E-03    -28.4290E-03     6.69721E-03    -6.20552E+06    -24.6961E+06    -192.016E+06    -24.7005E+06    -192.012E+06    -6.20552E+06     582.714E+03         24.6844
             473     4.86144E-03     45.4116E-03     329.840E-03     290.876E-03        -1.62044     325.421E-03        -1.61602     290.876E-03    -47.8741E-03     56.8466E-03    -28.3910E-03    -28.4608E-03    -28.2962E-03     56.7518E-03    -28.4608E-03     5.65046E-03    -11.0234E+06    -27.2851E+06    -213.224E+06    -27.2993E+06    -213.209E+06    -11.0234E+06     1.53299E+06         24.5147
             474     3.88916E-03     45.4061E-03     337.764E-03     281.024E-03        -1.61729     328.096E-03        -1.60762     281.024E-03     44.8415E-03     56.8745E-03    -28.4138E-03    -28.4636E-03    -28.3509E-03     56.8116E-03    -28.4636E-03     4.60777E-03    -16.8031E+06    -29.9867E+06    -230.553E+06    -30.0167E+06    -230.523E+06    -16.8031E+06     2.41178E+06         24.3847
             475     2.91689E-03     45.4017E-03     309.708E-03     273.996E-03        -1.57909     278.177E-03        -1.54756     273.996E-03    -143.134E-03     56.8276E-03    -28.3790E-03    -28.4511E-03    -28.3405E-03     56.7891E-03    -28.4511E-03     3.57610E-03    -24.4181E+06    -32.3783E+06    -236.421E+06    -32.4201E+06    -236.379E+06    -24.4181E+06     2.90981E+06         24.2888
             476     1.94436E-03     45.3984E-03     350.431E-03     283.834E-03        -1.62389     240.173E-03        -1.51363     283.834E-03     272.943E-03     56.8334E-03    -28.3561E-03    -28.4781E-03    -28.3643E-03     56.8144E-03    -28.4510E-03     2.48913E-03    -30.2977E+06    -33.6023E+06    -239.355E+06    -33.6407E+06    -239.317E+06    -30.2977E+06     2.73705E+06         24.2246
             477     972.290E-06     45.3963E-03     861.343E-03     171.526E-03        -2.01667     417.472E-03        -1.57280     171.526E-03    -875.007E-03     56.9078E-03    -28.3638E-03    -28.5439E-03    -28.4690E-03     56.9016E-03    -28.4325E-03     1.27240E-03    -32.6148E+06    -34.0224E+06    -241.043E+06    -33.6953E+06    -241.023E+06    -32.9628E+06     1.79461E+06         24.1890
             478     16.5352E-03     44.6855E-03     638.337E-03     372.861E-03        -1.99368     638.269E-03        -1.99362     372.861E-03    -24.5651E-03     76.6120E-03    -28.3719E-03    -48.2381E-03    -27.8623E-03     56.2363E-03    -28.3719E-03     91.2228E-03     185.467E+06     126.383E+06    -9.02740E+06    -9.02248E+06     185.462E+06     126.383E+06    -677.830E+03         47.1058
             479     15.5620E-03     44.5672E-03     605.816E-03     351.016E-03        -1.94054     605.752E-03        -1.94047     351.016E-03    -24.9376E-03     75.1633E-03    -28.0543E-03    -47.1073E-03    -27.9415E-03     55.9976E-03    -28.0543E-03     87.2683E-03     162.305E+06     50.2135E+06    -15.8537E+06    -15.8481E+06     162.299E+06     50.2135E+06    -654.179E+03         43.9525
             480     14.5887E-03     44.5021E-03     569.017E-03     330.372E-03        -1.88376     568.821E-03        -1.88356     330.372E-03    -31.0667E-03     61.6015E-03    -27.7996E-03    -33.8108E-03    -27.2154E-03     55.0061E-03    -27.7996E-03     46.7007E-03     133.909E+06    -4.41547E+06    -27.0051E+06    -18.7350E+06     133.904E+06    -12.6807E+06     522.349E+03         40.0802
             481     13.6154E-03     44.4690E-03     518.076E-03     312.320E-03        -1.81750     517.802E-03        -1.81722     312.320E-03    -27.1630E-03     57.5637E-03    -27.7940E-03    -29.7809E-03    -27.3967E-03     55.1795E-03    -27.7940E-03     28.2092E-03     77.1807E+06    -18.4913E+06    -31.9983E+06    -18.4829E+06     77.1723E+06    -31.9983E+06     767.265E+03         36.4014
             482     12.6425E-03     44.4429E-03     469.746E-03     296.439E-03        -1.75837     469.468E-03        -1.75809     296.439E-03    -34.1747E-03     56.7854E-03    -27.9457E-03    -28.8549E-03    -27.5706E-03     55.5011E-03    -27.9457E-03     20.4741E-03     7.61411E+06    -19.6043E+06    -28.5811E+06    -17.5212E+06     1.79609E+06    -24.8462E+06     521.242E+03         33.4316
             483     11.6694E-03     44.4258E-03     445.658E-03     281.516E-03        -1.71911     445.338E-03        -1.71879     281.516E-03    -6.92128E-03     56.4671E-03    -28.0717E-03    -28.4351E-03    -27.7245E-03     55.7566E-03    -28.0717E-03     15.4186E-03    -13.1514E+06    -19.0270E+06    -50.2080E+06    -16.9491E+06    -50.1763E+06    -15.2611E+06     445.972E+03         31.1014
             484     10.6967E-03     44.4107E-03     421.623E-03     266.496E-03        -1.67731     420.441E-03        -1.67612     266.496E-03    -42.0433E-03     56.5781E-03    -28.1708E-03    -28.4177E-03    -27.8682E-03     56.0287E-03    -28.1708E-03     13.6094E-03    -6.95127E+06    -17.1274E+06    -86.3064E+06    -17.1290E+06    -86.3048E+06    -6.95127E+06     160.340E+03         29.1973
             485     9.72403E-03     44.3972E-03     376.995E-03     252.265E-03        -1.61797     375.744E-03        -1.61672     252.265E-03    -44.4725E-03     56.6080E-03    -28.2219E-03    -28.3461E-03    -27.9210E-03     56.2081E-03    -28.2471E-03     11.5335E-03    -1.00011E+06    -18.0097E+06    -112.484E+06    -18.0111E+06    -112.482E+06    -1.00011E+06    -169.444E+03         27.6150
             486     8.75145E-03     44.3867E-03     328.855E-03     240.345E-03        -1.56102     327.567E-03        -1.55974     240.345E-03    -43.4284E-03     56.5988E-03    -28.2631E-03    -28.3116E-03    -27.9857E-03     56.3214E-03    -28.3116E-03     9.68060E-03     2.94228E+06    -19.3970E+06    -134.200E+06    -19.4009E+06    -134.196E+06     2.94228E+06    -520.037E+03         26.3710
             487     7.77891E-03     44.3770E-03     316.044E-03     229.377E-03        -1.53819     314.829E-03        -1.53697     229.377E-03    -79.2423E-03     56.6200E-03    -28.2639E-03    -28.3529E-03    -28.0353E-03     56.3914E-03    -28.3529E-03     8.78180E-03     1.49186E+06    -21.2789E+06    -153.587E+06    -21.2868E+06    -153.579E+06     1.49186E+06    -880.965E+03         25.4885
             488     6.80631E-03     44.3684E-03     307.290E-03     216.946E-03        -1.51486     306.323E-03        -1.51389     216.946E-03    -70.9705E-03     56.6507E-03    -28.2604E-03    -28.3929E-03    -28.0856E-03     56.4759E-03    -28.3929E-03     7.67331E-03    -1.37954E+06    -23.3925E+06    -173.543E+06    -23.4001E+06    -173.536E+06    -1.37954E+06    -945.886E+03         24.9609
             489     5.83385E-03     44.3608E-03     258.421E-03     205.683E-03        -1.45558     256.682E-03        -1.45384     205.683E-03    -1.27208E-03     56.7325E-03    -28.3077E-03    -28.4302E-03    -28.1769E-03     56.6016E-03    -28.4302E-03     6.65136E-03    -5.59298E+06    -25.9032E+06    -192.983E+06    -25.9071E+06    -192.979E+06    -5.59298E+06    -412.610E+03         24.6848
             490     4.86147E-03     44.3542E-03     229.498E-03     198.546E-03        -1.42389     221.917E-03        -1.41631     198.546E-03    -92.5847E-03     56.8188E-03    -28.3612E-03    -28.4625E-03    -28.2661E-03     56.7237E-03    -28.4625E-03     5.66190E-03    -10.2846E+06    -28.4770E+06    -214.215E+06    -28.4832E+06    -214.209E+06    -10.2846E+06     677.520E+03         24.5149
             491     3.88915E-03     44.3488E-03     249.022E-03     189.859E-03        -1.43647     237.046E-03        -1.42449     189.859E-03    -11.7696E-03     56.8633E-03    -28.3952E-03    -28.4696E-03    -28.3315E-03     56.7997E-03    -28.4696E-03     4.63223E-03    -15.1572E+06    -31.2995E+06    -230.535E+06    -31.3144E+06    -230.521E+06    -15.1572E+06     1.62045E+06         24.3852
             492     2.91676E-03     44.3444E-03     249.731E-03     176.350E-03        -1.42071     219.961E-03        -1.39094     176.350E-03    -144.077E-03     56.8487E-03    -28.3989E-03    -28.4519E-03    -28.3599E-03     56.8097E-03    -28.4519E-03     3.60425E-03    -22.3235E+06    -33.8925E+06    -235.738E+06    -33.9124E+06    -235.718E+06    -22.3235E+06     1.69738E+06         24.2899
             493     1.94468E-03     44.3411E-03     274.299E-03     167.086E-03        -1.43082     173.978E-03        -1.33050     167.086E-03     217.349E-03     56.7732E-03    -28.3345E-03    -28.4397E-03    -28.3158E-03     56.7545E-03    -28.4397E-03     2.44483E-03    -29.7276E+06    -35.5363E+06    -237.493E+06    -35.5499E+06    -237.479E+06    -29.7276E+06     1.21502E+06         24.2264
             494     971.916E-06     44.3392E-03     724.616E-03     34.3660E-03        -1.73824     295.799E-03        -1.30942     34.3660E-03    -816.020E-03     56.8625E-03    -28.3317E-03    -28.5294E-03    -28.4272E-03     56.8564E-03    -28.4279E-03     1.35572E-03    -34.4923E+06    -36.5566E+06    -237.998E+06    -36.2139E+06    -237.992E+06    -34.8404E+06     833.931E+03         24.1924
             495     16.5364E-03     43.6289E-03     638.578E-03     308.073E-03        -1.91701     638.492E-03        -1.91692     308.073E-03    -6.56162E-03     76.3749E-03    -28.3755E-03    -47.9949E-03    -27.5871E-03     55.9671E-03    -28.3755E-03     91.0269E-03     185.446E+06     126.377E+06    -8.93035E+06    -8.92780E+06     185.444E+06     126.377E+06    -53.6866E+03         47.0907
             496     15.5619E-03     43.5094E-03     587.283E-03     283.043E-03        -1.84720     587.235E-03        -1.84715     283.043E-03    -18.8148E-03     75.0654E-03    -28.0689E-03    -47.0007E-03    -27.8040E-03     55.8688E-03    -28.0689E-03     87.1606E-03     161.461E+06     50.0352E+06    -16.1301E+06    -16.1236E+06     161.454E+06     50.0352E+06     582.470E+03         43.9386
             497     14.5881E-03     43.4452E-03     545.219E-03     259.481E-03        -1.78437     545.195E-03        -1.78434     259.481E-03    -11.6599E-03     61.8241E-03    -27.8069E-03    -34.0248E-03    -27.4268E-03     55.2262E-03    -27.8069E-03     46.8277E-03     133.702E+06    -4.58980E+06    -27.4265E+06    -19.2475E+06     133.696E+06    -12.7632E+06     795.917E+03         40.0681
             498     13.6152E-03     43.4109E-03     485.968E-03     238.493E-03        -1.70327     485.899E-03        -1.70320     238.493E-03    -3.97585E-03     57.5849E-03    -27.7931E-03    -29.8023E-03    -27.4368E-03     55.2194E-03    -27.7931E-03     28.0973E-03     77.3566E+06    -18.8140E+06    -32.2041E+06    -18.8079E+06     77.3506E+06    -32.2041E+06     451.382E+03         36.3912
             499     12.6423E-03     43.3861E-03     431.372E-03     219.787E-03        -1.63156     430.682E-03        -1.63087     219.787E-03    -47.5632E-03     56.7668E-03    -27.9457E-03    -28.8367E-03    -27.5594E-03     55.4895E-03    -27.9457E-03     20.4417E-03     7.62097E+06    -19.4365E+06    -28.3289E+06    -17.6134E+06     2.12219E+06    -24.6532E+06     160.646E+03         33.4227
             500     11.6694E-03     43.3683E-03     401.362E-03     202.053E-03        -1.58531     400.531E-03        -1.58448     202.053E-03    -16.5943E-03     56.4544E-03    -28.0714E-03    -28.4233E-03    -27.7038E-03     55.7349E-03    -28.0714E-03     15.5092E-03    -13.5744E+06    -18.8592E+06    -49.8924E+06    -17.0434E+06    -49.8894E+06    -15.3931E+06    -104.517E+03         31.0938
             501     10.6967E-03     43.3534E-03     363.387E-03     184.556E-03        -1.52978     362.514E-03        -1.52891     184.556E-03    -19.9360E-03     56.5355E-03    -28.1736E-03    -28.3716E-03    -27.8202E-03     55.9841E-03    -28.1736E-03     13.6254E-03    -6.89914E+06    -16.9389E+06    -86.1784E+06    -16.9430E+06    -86.1744E+06    -6.89914E+06    -315.164E+03         29.1909
             502     9.72394E-03     43.3398E-03     306.880E-03     168.597E-03        -1.46207     305.792E-03        -1.46098     168.597E-03    -10.3536E-03     56.6101E-03    -28.2480E-03    -28.3220E-03    -27.9115E-03     56.2074E-03    -28.2558E-03     11.5775E-03    -390.190E+03    -17.8877E+06    -112.125E+06    -17.8910E+06    -112.121E+06    -390.190E+03    -541.340E+03         27.6100
             503     8.75135E-03     43.3294E-03     266.840E-03     154.673E-03        -1.41065     266.015E-03        -1.40982     154.673E-03     3.00279E-03     56.6366E-03    -28.2938E-03    -28.3200E-03    -28.0161E-03     56.3589E-03    -28.3200E-03     9.68544E-03     3.42709E+06    -19.8295E+06    -133.667E+06    -19.8391E+06    -133.657E+06     3.42709E+06    -1.00172E+06         26.3678
             504     7.77886E-03     43.3198E-03     236.952E-03     141.774E-03        -1.36509     236.403E-03        -1.36454     141.774E-03    -21.6057E-03     56.6688E-03    -28.3089E-03    -28.3583E-03    -28.0832E-03     56.4431E-03    -28.3583E-03     8.73208E-03     2.18153E+06    -22.4439E+06    -153.231E+06    -22.4612E+06    -153.213E+06     2.18153E+06    -1.49985E+06         25.4875
             505     6.80644E-03     43.3112E-03     200.763E-03     130.114E-03        -1.31430     200.351E-03        -1.31389     130.114E-03    -9.92458E-03     56.6928E-03    -28.3063E-03    -28.3910E-03    -28.1312E-03     56.5178E-03    -28.3910E-03     7.68615E-03    -925.459E+03    -25.3270E+06    -173.587E+06    -25.3449E+06    -173.569E+06    -925.459E+03    -1.61046E+06         24.9617
             506     5.83402E-03     43.3035E-03     179.914E-03     119.556E-03        -1.28467     178.525E-03        -1.28328     119.556E-03     29.4840E-03     56.7119E-03    -28.2919E-03    -28.4246E-03    -28.1605E-03     56.5805E-03    -28.4246E-03     6.66128E-03    -5.26717E+06    -28.3181E+06    -193.946E+06    -28.3296E+06    -193.934E+06    -5.26717E+06    -1.28996E+06         24.6859
             507     4.86152E-03     43.2970E-03     159.119E-03     109.799E-03        -1.25644     152.806E-03        -1.25013     109.799E-03    -59.3664E-03     56.7621E-03    -28.3059E-03    -28.4606E-03    -28.2113E-03     56.6675E-03    -28.4606E-03     5.64591E-03    -10.0441E+06    -31.8609E+06    -215.651E+06    -31.8654E+06    -215.646E+06    -10.0441E+06    -215.128E+03         24.5157
             508     3.88906E-03     43.2915E-03     132.802E-03     97.2605E-03        -1.22098     113.359E-03        -1.20811     103.838E-03     19.9046E-03     56.8108E-03    -28.3502E-03    -28.4636E-03    -28.2872E-03     56.7478E-03    -28.4636E-03     4.60215E-03    -16.6205E+06    -35.8226E+06    -230.721E+06    -35.8258E+06    -230.717E+06    -16.6205E+06     552.083E+03         24.3865
             509     2.91693E-03     43.2871E-03     150.009E-03     93.3186E-03        -1.23847     114.221E-03        -1.20926     99.8958E-03    -112.290E-03     56.8110E-03    -28.3768E-03    -28.4366E-03    -28.3383E-03     56.7725E-03    -28.4366E-03     3.58555E-03    -25.6498E+06    -39.7352E+06    -234.637E+06    -39.7374E+06    -234.635E+06    -25.6498E+06     384.630E+03         24.2928
             510     1.94445E-03     43.2839E-03     218.719E-03     82.5912E-03        -1.29335     141.357E-03        -1.21599     82.5912E-03     160.460E-03     56.7795E-03    -28.3291E-03    -28.4516E-03    -28.3836E-03     56.7611E-03    -28.3786E-03     2.42002E-03    -35.4521E+06    -43.7293E+06    -236.513E+06    -43.7303E+06    -236.512E+06    -35.4521E+06    -27.2930E+03         24.2317
             511     972.535E-06     43.2820E-03     616.536E-03    -81.2051E-03        -1.51870     216.801E-03        -1.11896    -81.2051E-03    -768.627E-03     56.6269E-03    -28.1550E-03    -28.4716E-03    -28.4383E-03     56.6210E-03    -28.1824E-03     1.36010E-03    -44.3582E+06    -47.1472E+06    -237.568E+06    -47.1513E+06    -237.564E+06    -44.3582E+06     414.927E+03         24.1986
             512     16.5358E-03     42.5724E-03     621.596E-03     246.161E-03        -1.83819     621.080E-03        -1.83767     246.161E-03     32.4745E-03     76.3570E-03    -28.3695E-03    -47.9685E-03    -27.5197E-03     55.9082E-03    -28.3695E-03     91.0446E-03     185.274E+06     125.908E+06    -9.23004E+06    -9.22270E+06     185.267E+06     125.908E+06     868.301E+03         47.0744
             513     15.5613E-03     42.4524E-03     565.916E-03     218.783E-03        -1.75768     565.861E-03        -1.75762     218.783E-03    -16.6912E-03     75.2241E-03    -28.0631E-03    -47.1617E-03    -27.8535E-03     55.9159E-03    -28.0631E-03     87.4776E-03     161.867E+06     50.2305E+06    -15.8841E+06    -15.8735E+06     161.856E+06     50.2305E+06     1.27328E+06         43.9242
             514     14.5886E-03     42.3871E-03     504.882E-03     193.320E-03        -1.67178     504.849E-03        -1.67175     193.320E-03    -13.3879E-03     61.8422E-03    -27.8041E-03    -34.0460E-03    -27.4867E-03     55.2829E-03    -27.8041E-03     46.6370E-03     134.084E+06    -3.67675E+06    -26.9652E+06    -18.2288E+06     134.080E+06    -12.4087E+06     492.892E+03         40.0556
             515     13.6156E-03     42.3539E-03     453.588E-03     170.431E-03        -1.59757     453.507E-03        -1.59749     170.431E-03    -10.5339E-03     57.4759E-03    -27.7926E-03    -29.6922E-03    -27.3728E-03     55.1566E-03    -27.7926E-03     27.8230E-03     77.5448E+06    -17.3918E+06    -31.6909E+06    -17.3910E+06     77.5441E+06    -31.6909E+06    -39.5894E+03         36.3801
             516     12.6423E-03     42.3286E-03     410.041E-03     148.701E-03        -1.53561     409.232E-03        -1.53480     148.701E-03    -55.2239E-03     56.7253E-03    -27.9514E-03    -28.7908E-03    -27.5072E-03     55.4417E-03    -27.9514E-03     20.4924E-03     8.30558E+06    -18.3038E+06    -28.0277E+06    -16.2848E+06     2.12983E+06    -23.8710E+06    -69.1283E+03         33.4129
             517     11.6695E-03     42.3110E-03     356.656E-03     127.945E-03        -1.46271     355.679E-03        -1.46173     127.945E-03    -23.7868E-03     56.4903E-03    -28.0791E-03    -28.4534E-03    -27.7259E-03     55.7628E-03    -28.0791E-03     15.5951E-03    -12.5335E+06    -17.9012E+06    -49.5505E+06    -15.8854E+06    -49.5466E+06    -14.5532E+06    -302.034E+03         31.0853
             518     10.6966E-03     42.2963E-03     298.593E-03     108.846E-03        -1.38565     297.489E-03        -1.38454     108.846E-03    -25.2705E-03     56.5584E-03    -28.1788E-03    -28.3898E-03    -27.8369E-03     56.0055E-03    -28.1788E-03     13.6476E-03    -6.49608E+06    -16.5230E+06    -85.9630E+06    -16.5281E+06    -85.9580E+06    -6.49608E+06    -562.124E+03         29.1840
             519     9.72384E-03     42.2826E-03     260.657E-03     90.9296E-03        -1.32920     259.567E-03        -1.32811     90.9296E-03    -32.5285E-03     56.6212E-03    -28.2395E-03    -28.3411E-03    -27.9201E-03     56.2203E-03    -28.2595E-03     11.5449E-03     -37.139E+03    -17.8142E+06    -111.795E+06    -17.8195E+06    -111.790E+06     -37.139E+03    -705.668E+03         27.6048
             520     8.75135E-03     42.2720E-03     223.708E-03     73.4003E-03        -1.27530     222.934E-03        -1.27453     73.4003E-03    -15.9883E-03     56.6335E-03    -28.2858E-03    -28.3234E-03    -28.0118E-03     56.3595E-03    -28.3234E-03     9.62222E-03     3.73156E+06    -20.1546E+06    -133.215E+06    -20.1644E+06    -133.205E+06     3.73156E+06    -1.03066E+06         26.3645
             521     7.77888E-03     42.2624E-03     159.545E-03     58.1005E-03        -1.19615     158.710E-03        -1.19532     58.1005E-03    -34.7116E-03     56.6890E-03    -28.3237E-03    -28.3621E-03    -28.0987E-03     56.4640E-03    -28.3621E-03     8.72080E-03     2.43408E+06    -23.4143E+06    -153.104E+06    -23.4300E+06    -153.088E+06     2.43408E+06    -1.40912E+06         25.4865
             522     6.80644E-03     42.2538E-03     109.735E-03     46.7321E-03        -1.13783     108.886E-03        -1.13699     46.7321E-03    -26.2847E-03     56.7063E-03    -28.3152E-03    -28.3948E-03    -28.1392E-03     56.5303E-03    -28.3948E-03     7.71150E-03    -545.326E+03    -27.2685E+06    -173.646E+06    -27.2889E+06    -173.626E+06    -545.326E+03    -1.72215E+06         24.9625
             523     5.83397E-03     42.2463E-03     109.586E-03     35.6910E-03        -1.12813     107.948E-03        -1.12649     35.6910E-03     19.7590E-03     56.7230E-03    -28.3003E-03    -28.4265E-03    -28.1679E-03     56.5906E-03    -28.4265E-03     6.68718E-03    -5.08982E+06    -31.8817E+06    -195.104E+06    -31.8962E+06    -195.090E+06    -5.08982E+06    -1.33364E+06         24.6869
             524     4.86159E-03     42.2398E-03     91.3578E-03     22.5276E-03        -1.10043     88.7411E-03        -1.09781     22.5276E-03    -11.1554E-03     56.7526E-03    -28.3099E-03    -28.4480E-03    -28.2153E-03     56.6579E-03    -28.4480E-03     5.64451E-03    -11.8317E+06    -37.2146E+06    -216.914E+06    -37.2176E+06    -216.910E+06    -11.8317E+06    -381.619E+03         24.5169
             525     3.88932E-03     42.2343E-03     45.4421E-03     6.86562E-03        -1.04377     29.4938E-03        -1.03440     13.4428E-03     63.7082E-03     56.7359E-03    -28.3103E-03    -28.4303E-03    -28.2470E-03     56.6727E-03    -28.4303E-03     4.61056E-03    -22.0180E+06    -42.4514E+06    -230.620E+06    -42.4517E+06    -230.619E+06    -22.0180E+06     40.7066E+03         24.3887
             526     2.91676E-03     42.2298E-03     35.5209E-03     6.33467E-03        -1.03426     1.67113E-03        -1.00699     12.9119E-03    -75.2588E-03     56.7211E-03    -28.3252E-03    -28.3986E-03    -28.2978E-03     56.6831E-03    -28.3881E-03     3.54629E-03    -33.9826E+06    -47.2447E+06    -233.921E+06    -47.2461E+06    -233.919E+06    -33.9826E+06    -97.6112E+03         24.2964
             527     1.94470E-03     42.2267E-03     106.237E-03     14.5999E-03        -1.11441     14.1271E-03        -1.02230     14.5999E-03     210.316E-03     56.6939E-03    -28.2860E-03    -28.4093E-03    -28.3508E-03     56.6752E-03    -28.3258E-03     2.47256E-03    -43.8080E+06    -51.2878E+06    -236.497E+06    -51.2903E+06    -236.495E+06    -43.8080E+06    -168.278E+03         24.2368
             528     972.503E-06     42.2245E-03     495.076E-03    -106.938E-03        -1.37442     136.157E-03        -1.01550    -106.938E-03    -608.963E-03     56.5251E-03    -28.1215E-03    -28.4030E-03    -28.3702E-03     56.5187E-03    -28.1478E-03     1.30572E-03    -51.3988E+06    -53.9071E+06    -237.509E+06    -53.9137E+06    -237.502E+06    -51.3988E+06    -194.605E+03         24.2033
             529     16.5356E-03     41.5151E-03     603.721E-03     189.002E-03        -1.75714     603.145E-03        -1.75657     189.002E-03     2.13253E-03     76.3528E-03    -28.3699E-03    -47.9737E-03    -27.7255E-03     56.1046E-03    -28.3699E-03     90.7358E-03     184.737E+06     126.145E+06    -8.65564E+06    -8.64412E+06     184.726E+06     126.145E+06     1.39773E+06         47.0571
             530     15.5623E-03     41.3954E-03     538.707E-03     160.089E-03        -1.66615     538.600E-03        -1.66605     160.089E-03    -23.7798E-03     75.2633E-03    -28.0433E-03    -47.2120E-03    -27.9942E-03     56.0455E-03    -28.0433E-03     87.4889E-03     163.102E+06     50.1404E+06    -14.2073E+06    -14.1976E+06     163.092E+06     50.1404E+06     1.02138E+06         43.9093
             531     14.5884E-03     41.3293E-03     475.041E-03     133.059E-03        -1.57846     475.022E-03        -1.57844     133.059E-03    -9.81243E-03     61.6986E-03    -27.7866E-03    -33.9163E-03    -27.2925E-03     55.0748E-03    -27.7866E-03     46.7046E-03     134.599E+06    -2.97057E+06    -25.9682E+06    -15.7476E+06     134.598E+06    -13.1905E+06    -53.4628E+03         40.0424
             532     13.6152E-03     41.2968E-03     433.926E-03     107.827E-03        -1.51163     433.887E-03        -1.51159     107.827E-03    -3.78235E-03     57.3669E-03    -27.7957E-03    -29.5789E-03    -27.2669E-03     55.0548E-03    -27.7957E-03     27.7645E-03     77.4261E+06    -15.1050E+06    -31.2908E+06    -15.1040E+06     77.4252E+06    -31.2908E+06    -6.56250E+03         36.3681
             533     12.6421E-03     41.2714E-03     381.730E-03     83.2341E-03        -1.43739     381.234E-03        -1.43689     83.2341E-03    -36.3857E-03     56.7558E-03    -27.9623E-03    -28.8108E-03    -27.5077E-03     55.4527E-03    -27.9623E-03     20.6526E-03     9.20037E+06    -16.8913E+06    -27.3408E+06    -14.4959E+06     2.32144E+06    -22.8572E+06     31.2635E+03         33.4022
             534     11.6691E-03     41.2537E-03     305.696E-03     60.4473E-03        -1.34226     304.718E-03        -1.34128     60.4473E-03    -1.72745E-03     56.5572E-03    -28.0881E-03    -28.5128E-03    -27.7851E-03     55.8295E-03    -28.0881E-03     15.5951E-03    -11.4201E+06    -16.9273E+06    -49.3510E+06    -14.5330E+06    -49.3492E+06    -13.8162E+06    -161.750E+03         31.0763
             535     10.6965E-03     41.2388E-03     248.160E-03     39.9206E-03        -1.26446     246.754E-03        -1.26305     39.9206E-03    -12.8036E-03     56.6381E-03    -28.1827E-03    -28.4666E-03    -27.9226E-03     56.0941E-03    -28.1827E-03     13.5522E-03    -5.61139E+06    -15.3082E+06    -85.5341E+06    -15.3101E+06    -85.5323E+06    -5.61139E+06    -272.782E+03         29.1768
             536     9.72401E-03     41.2251E-03     205.333E-03     20.4969E-03        -1.20316     204.178E-03        -1.20201     20.4969E-03    -32.1308E-03     56.6184E-03    -28.2191E-03    -28.3594E-03    -27.9237E-03     56.2214E-03    -28.2577E-03     11.4924E-03     328.475E+03    -17.1627E+06    -111.579E+06    -17.1661E+06    -111.575E+06     328.475E+03    -497.789E+03         27.5993
             537     8.75136E-03     41.2147E-03     146.163E-03     2.71373E-03        -1.12783     144.850E-03        -1.12651     2.71373E-03    -30.8421E-03     56.5934E-03    -28.2458E-03    -28.3223E-03    -27.9718E-03     56.3194E-03    -28.3223E-03     9.61901E-03     3.86947E+06    -19.8491E+06    -133.100E+06    -19.8535E+06    -133.096E+06     3.86947E+06    -611.277E+03         26.3609
             538     7.77883E-03     41.2050E-03     99.4268E-03    -12.7064E-03        -1.06517     98.2253E-03        -1.06397    -12.7064E-03    -65.8594E-03     56.6688E-03    -28.2973E-03    -28.3668E-03    -28.0721E-03     56.4437E-03    -28.3668E-03     8.72002E-03     2.79312E+06    -23.7000E+06    -153.137E+06    -23.7056E+06    -153.131E+06     2.79312E+06    -615.609E+03         25.4851
             539     6.80636E-03     41.1964E-03     74.5644E-03    -27.3825E-03        -1.02527     73.4775E-03        -1.02418    -27.3825E-03    -60.6134E-03     56.7174E-03    -28.3177E-03    -28.4030E-03    -28.1442E-03     56.5439E-03    -28.4030E-03     7.65320E-03    -5.27514E+03    -28.8400E+06    -173.587E+06    -28.8494E+06    -173.577E+06    -5.27514E+03    -776.563E+03         24.9626
             540     5.83400E-03     41.1890E-03     40.0205E-03    -41.7780E-03    -980.661E-03     38.5082E-03    -979.149E-03    -41.7780E-03    -13.9817E-03     56.7359E-03    -28.3065E-03    -28.4348E-03    -28.1758E-03     56.6052E-03    -28.4348E-03     6.64706E-03    -4.70022E+06    -34.8280E+06    -196.212E+06    -34.8342E+06    -196.206E+06    -4.70022E+06    -472.169E+03         24.6874
             541     4.86166E-03     41.1825E-03     70.3786E-06    -54.0455E-03    -933.467E-03    -2.63264E-03    -930.764E-03    -54.0455E-03    -29.4080E-03     56.7463E-03    -28.3104E-03    -28.4420E-03    -28.2147E-03     56.6507E-03    -28.4420E-03     5.67774E-03    -13.6886E+06    -40.8559E+06    -217.695E+06    -40.8570E+06    -217.694E+06    -13.6886E+06     159.793E+03         24.5178
             542     3.88922E-03     41.1772E-03    -17.4181E-03    -64.8525E-03    -910.453E-03    -22.3278E-03    -905.543E-03    -64.8525E-03     8.83228E-03     56.7271E-03    -28.3231E-03    -28.4078E-03    -28.2624E-03     56.6618E-03    -28.4032E-03     4.68505E-03    -26.4691E+06    -46.5476E+06    -230.137E+06    -46.5488E+06    -230.135E+06    -26.4691E+06     222.395E+03         24.3906
             543     2.91708E-03     41.1727E-03    -33.2598E-03    -73.2903E-03    -885.833E-03    -56.2829E-03    -862.810E-03    -73.2903E-03    -107.884E-03     56.6632E-03    -28.3042E-03    -28.3614E-03    -28.2799E-03     56.6238E-03    -28.3463E-03     3.60676E-03    -39.8073E+06    -50.9386E+06    -233.780E+06    -50.9398E+06    -233.778E+06    -39.8073E+06    -114.946E+03         24.2992
             544     1.94464E-03     41.1695E-03     19.6081E-06    -69.8033E-03    -918.788E-03    -96.0631E-03    -822.705E-03    -69.8033E-03     186.254E-03     56.5615E-03    -28.2400E-03    -28.3236E-03    -28.2318E-03     56.5426E-03    -28.3131E-03     2.46186E-03    -49.4881E+06    -54.0298E+06    -236.582E+06    -53.9681E+06    -236.578E+06    -49.5534E+06    -335.972E+03         24.2396
             545     972.046E-06     41.1676E-03     365.369E-03    -172.196E-03        -1.17454     45.3611E-03    -854.531E-03    -172.196E-03    -509.176E-03     56.5952E-03    -28.2187E-03    -28.3757E-03    -28.3157E-03     56.5891E-03    -28.2727E-03     1.25499E-03    -54.0307E+06    -55.7426E+06    -237.541E+06    -55.3064E+06    -237.534E+06    -54.4735E+06    -647.659E+03         24.2052
             546     16.5358E-03     40.4573E-03     597.364E-03     138.937E-03        -1.68942     597.247E-03        -1.68931     138.937E-03    -26.8531E-03     76.4311E-03    -28.3733E-03    -48.0632E-03    -27.8307E-03     56.1986E-03    -28.3733E-03     90.7076E-03     184.226E+06     127.025E+06    -7.96535E+06    -7.95943E+06     184.220E+06     127.025E+06     702.765E+03         47.0393
             547     15.5621E-03     40.3379E-03     526.449E-03     108.121E-03        -1.59825     526.309E-03        -1.59811     108.121E-03    -25.1653E-03     75.2882E-03    -28.0408E-03    -47.2394E-03    -27.9511E-03     56.0000E-03    -28.0408E-03     87.6304E-03     163.761E+06     51.2662E+06    -12.8806E+06    -12.8751E+06     163.756E+06     51.2662E+06     566.545E+03         43.8936
             548     14.5887E-03     40.2724E-03     468.275E-03     78.7195E-03        -1.51246     468.198E-03        -1.51239     78.7195E-03    -14.1073E-03     61.5808E-03    -27.7724E-03    -33.8114E-03    -27.1855E-03     54.9550E-03    -27.7724E-03     46.6487E-03     135.068E+06    -2.19364E+06    -26.4456E+06    -14.5321E+06     135.066E+06    -14.1053E+06     245.073E+03         40.0284
             549     13.6151E-03     40.2393E-03     406.782E-03     51.0901E-03        -1.42289     406.691E-03        -1.42279     51.0901E-03    -14.2834E-03     57.2699E-03    -27.7930E-03    -29.4842E-03    -27.1818E-03     54.9674E-03    -27.7930E-03     27.6760E-03     77.1872E+06    -14.6408E+06    -32.5612E+06    -14.6396E+06     77.1860E+06    -32.5612E+06     130.991E+03         36.3555
             550     12.6420E-03     40.2144E-03     333.648E-03     25.2562E-03        -1.32770     333.040E-03        -1.32709     25.2562E-03    -54.5117E-03     56.8457E-03    -27.9678E-03    -28.8947E-03    -27.5995E-03     55.5504E-03    -27.9678E-03     20.5964E-03     9.49362E+06    -16.7001E+06    -26.9144E+06    -14.0722E+06     2.66014E+06    -22.7088E+06     235.385E+03         33.3912
             551     11.6693E-03     40.1962E-03     270.925E-03     1.24111E-03        -1.24297     270.045E-03        -1.24209     1.24111E-03    -14.1828E-03     56.5866E-03    -28.0877E-03    -28.5403E-03    -27.8251E-03     55.8713E-03    -28.0877E-03     15.4691E-03    -11.0115E+06    -16.6307E+06    -49.0349E+06    -14.0037E+06    -49.0206E+06    -13.6529E+06     251.298E+03         31.0670
             552     10.6967E-03     40.1816E-03     217.805E-03    -21.5378E-03        -1.16994     215.452E-03        -1.16759    -21.5378E-03    -42.7608E-03     56.6044E-03    -28.1818E-03    -28.4317E-03    -27.8895E-03     56.0622E-03    -28.1818E-03     13.5279E-03    -5.57132E+06    -14.8031E+06    -85.5540E+06    -14.8036E+06    -85.5534E+06    -5.57132E+06     107.958E+03         29.1692
             553     9.72399E-03     40.1679E-03     151.326E-03    -42.5785E-03        -1.08764     148.338E-03        -1.08465    -42.5785E-03    -23.2566E-03     56.6371E-03    -28.2365E-03    -28.3600E-03    -27.9372E-03     56.2364E-03    -28.2585E-03     11.5438E-03     621.577E+03    -16.5774E+06    -111.464E+06    -16.5791E+06    -111.463E+06     621.577E+03     116.809E+03         27.5935
             554     8.75140E-03     40.1574E-03     86.0810E-03    -60.8322E-03        -1.00436     84.4491E-03        -1.00273    -60.8322E-03     26.9642E-03     56.5950E-03    -28.2470E-03    -28.3244E-03    -27.9754E-03     56.3219E-03    -28.3229E-03     9.60159E-03     4.13592E+06    -19.5969E+06    -133.210E+06    -19.6002E+06    -133.207E+06     4.13592E+06     259.644E+03         26.3571
             555     7.77881E-03     40.1477E-03     51.4921E-03    -77.5023E-03    -951.411E-03     50.7414E-03    -950.660E-03    -77.5023E-03    -12.9039E-03     56.6313E-03    -28.2601E-03    -28.3696E-03    -28.0359E-03     56.4071E-03    -28.3696E-03     8.69835E-03     3.01845E+06    -23.6501E+06    -153.324E+06    -23.6556E+06    -153.319E+06     3.01845E+06     567.766E+03         25.4831
             556     6.80639E-03     40.1392E-03     16.2925E-03    -93.8477E-03    -900.598E-03     15.3179E-03    -899.623E-03    -93.8477E-03    -32.0752E-03     56.6980E-03    -28.2944E-03    -28.4092E-03    -28.1205E-03     56.5241E-03    -28.4092E-03     7.66101E-03     213.383E+03    -28.9440E+06    -173.552E+06    -28.9557E+06    -173.540E+06     213.383E+03     948.249E+03         24.9623
             557     5.83401E-03     40.1317E-03    -41.4826E-03    -107.480E-03    -830.854E-03    -42.7949E-03    -829.541E-03    -107.480E-03    -16.3372E-03     56.7418E-03    -28.3031E-03    -28.4448E-03    -28.1725E-03     56.6112E-03    -28.4448E-03     6.64398E-03    -4.43562E+06    -35.0862E+06    -196.503E+06    -35.0966E+06    -196.492E+06    -4.43562E+06     918.636E+03         24.6880
             558     4.86152E-03     40.1253E-03    -79.1855E-03    -116.499E-03    -790.458E-03    -83.8027E-03    -785.841E-03    -116.499E-03    -52.3738E-03     56.7646E-03    -28.3193E-03    -28.4491E-03    -28.2234E-03     56.6687E-03    -28.4491E-03     5.69069E-03    -14.1222E+06    -41.4158E+06    -217.708E+06    -41.4204E+06    -217.703E+06    -14.1222E+06     797.691E+03         24.5185
             559     3.88929E-03     40.1198E-03    -83.9621E-03    -124.446E-03    -785.922E-03    -89.3338E-03    -780.551E-03    -124.446E-03    -33.4135E-03     56.7330E-03    -28.3296E-03    -28.4064E-03    -28.2680E-03     56.6669E-03    -28.4018E-03     4.71623E-03    -28.0154E+06    -46.7386E+06    -229.489E+06    -46.7410E+06    -229.487E+06    -28.0154E+06     345.390E+03         24.3912
             560     2.91690E-03     40.1156E-03    -94.1420E-03    -132.806E-03    -766.006E-03    -110.260E-03    -749.887E-03    -132.806E-03    -94.4253E-03     56.6500E-03    -28.2933E-03    -28.3593E-03    -28.2575E-03     56.6096E-03    -28.3547E-03     3.65879E-03    -40.6010E+06    -50.6789E+06    -233.729E+06    -50.6791E+06    -233.729E+06    -40.6010E+06    -119.015E+03         24.2999
             561     1.94458E-03     40.1125E-03    -69.4730E-03    -140.687E-03    -774.719E-03    -124.779E-03    -719.413E-03    -140.687E-03     95.2226E-03     56.6190E-03    -28.2623E-03    -28.3578E-03    -28.2747E-03     56.5999E-03    -28.3264E-03     2.47123E-03    -49.4060E+06    -53.5651E+06    -236.516E+06    -53.5022E+06    -236.514E+06    -49.4713E+06    -215.515E+03         24.2404
             562     972.388E-06     40.1106E-03     238.724E-03    -286.605E-03    -917.659E-03    -2.92435E-03    -676.011E-03    -286.605E-03    -447.302E-03     56.6136E-03    -28.2407E-03    -28.3730E-03    -28.3395E-03     56.6078E-03    -28.2684E-03     1.26779E-03    -54.5184E+06    -55.8333E+06    -238.138E+06    -55.3413E+06    -238.135E+06    -55.0136E+06    -82.6928E+03         24.2063
             563     16.5363E-03     39.4009E-03     583.951E-03     94.5391E-03        -1.63147     583.825E-03        -1.63134     94.5391E-03     15.5511E-03     76.4156E-03    -28.3689E-03    -48.0304E-03    -27.7808E-03     56.1660E-03    -28.3689E-03     90.5815E-03     183.853E+06     126.621E+06    -8.03752E+06    -8.03554E+06     183.851E+06     126.621E+06    -447.028E+03         47.0209
             564     15.5619E-03     39.2802E-03     515.264E-03     62.1322E-03        -1.53218     515.047E-03        -1.53196     62.1322E-03    -11.7176E-03     75.3250E-03    -28.0530E-03    -47.2720E-03    -27.8579E-03     55.9109E-03    -28.0530E-03     87.7998E-03     163.307E+06     52.7194E+06    -13.4377E+06    -13.4345E+06     163.304E+06     52.7194E+06     169.637E+03         43.8770
             565     14.5887E-03     39.2151E-03     450.424E-03     31.0324E-03        -1.44024     450.267E-03        -1.44009     31.0324E-03    -19.4134E-03     61.5328E-03    -27.7910E-03    -33.7550E-03    -27.1817E-03     54.9595E-03    -27.7910E-03     46.5123E-03     135.435E+06    -1.32874E+06    -26.1541E+06    -15.7218E+06     135.431E+06    -11.7577E+06     713.898E+03         40.0137
             566     13.6151E-03     39.1828E-03     372.592E-03     2.15659E-03        -1.33435     372.499E-03        -1.33426     2.15659E-03    -6.86079E-03     57.3815E-03    -27.7996E-03    -29.5920E-03    -27.2524E-03     55.0419E-03    -27.7996E-03     27.9337E-03     77.6656E+06    -15.3960E+06    -31.8269E+06    -15.3943E+06     77.6638E+06    -31.8269E+06     331.308E+03         36.3426
             567     12.6421E-03     39.1565E-03     296.400E-03    -24.5140E-03        -1.23344     296.001E-03        -1.23305    -24.5140E-03    -40.8100E-03     56.8995E-03    -27.9641E-03    -28.9546E-03    -27.6495E-03     55.5943E-03    -27.9641E-03     20.6560E-03     8.90882E+06    -17.0602E+06    -26.9644E+06    -14.6127E+06     2.55895E+06    -23.0621E+06     413.177E+03         33.3799
             568     11.6695E-03     39.1390E-03     239.718E-03    -49.7318E-03        -1.15388     239.148E-03        -1.15331    -49.7318E-03    -7.93900E-03     56.5293E-03    -28.0829E-03    -28.4857E-03    -27.7755E-03     55.8191E-03    -28.0829E-03     15.4176E-03    -11.3009E+06    -16.7587E+06    -48.8238E+06    -14.3132E+06    -48.8006E+06    -13.7696E+06     561.446E+03         31.0573
             569     10.6964E-03     39.1242E-03     181.729E-03    -73.9924E-03        -1.07604     179.583E-03        -1.07389    -73.9924E-03    -42.4657E-03     56.5552E-03    -28.1811E-03    -28.3811E-03    -27.8357E-03     56.0099E-03    -28.1811E-03     13.5575E-03    -5.80614E+06    -15.0714E+06    -85.5946E+06    -15.0755E+06    -85.5905E+06    -5.80614E+06     486.071E+03         29.1612
             570     9.72389E-03     39.1105E-03     120.074E-03    -96.8286E-03    -994.829E-03     117.082E-03    -991.837E-03    -96.8286E-03    -16.2061E-03     56.6339E-03    -28.2466E-03    -28.3473E-03    -27.9323E-03     56.2335E-03    -28.2612E-03     11.5385E-03     314.091E+03    -16.9341E+06    -111.652E+06    -16.9408E+06    -111.645E+06     314.091E+03     747.334E+03         27.5874
             571     8.75141E-03     39.1001E-03     65.6507E-03    -118.127E-03    -921.617E-03     63.0659E-03    -919.032E-03    -118.127E-03     18.3927E-03     56.6079E-03    -28.2582E-03    -28.3268E-03    -27.9865E-03     56.3347E-03    -28.3253E-03     9.60569E-03     3.83736E+06    -19.8020E+06    -133.467E+06    -19.8146E+06    -133.455E+06     3.83736E+06     1.13551E+06         26.3531
             572     7.77888E-03     39.0905E-03     5.85993E-03    -137.532E-03    -844.411E-03     4.07605E-03    -842.627E-03    -137.532E-03    -31.3024E-03     56.6139E-03    -28.2421E-03    -28.3710E-03    -28.0135E-03     56.3853E-03    -28.3710E-03     8.78741E-03     2.34439E+06    -23.2842E+06    -153.626E+06    -23.3058E+06    -153.604E+06     2.34439E+06     1.61191E+06         25.4812
             573     6.80626E-03     39.0818E-03    -64.5679E-03    -153.093E-03    -761.155E-03    -65.4206E-03    -760.303E-03    -153.093E-03    -14.7725E-03     56.6718E-03    -28.2612E-03    -28.4159E-03    -28.0829E-03     56.4936E-03    -28.4159E-03     7.74655E-03    -291.654E+03    -27.3387E+06    -173.805E+06    -27.3702E+06    -173.773E+06    -291.654E+03     2.11781E+06         24.9621
             574     5.83379E-03     39.0745E-03    -105.981E-03    -164.548E-03    -711.209E-03    -106.911E-03    -710.278E-03    -164.548E-03     4.61576E-03     56.7616E-03    -28.3082E-03    -28.4575E-03    -28.1774E-03     56.6307E-03    -28.4575E-03     6.65104E-03    -4.50492E+06    -32.5030E+06    -195.766E+06    -32.5355E+06    -195.734E+06    -4.50492E+06     2.21998E+06         24.6887
             575     4.86159E-03     39.0681E-03    -124.106E-03    -174.395E-03    -685.682E-03    -127.400E-03    -682.389E-03    -174.395E-03    -17.2157E-03     56.8209E-03    -28.3541E-03    -28.4695E-03    -28.2562E-03     56.7230E-03    -28.4695E-03     5.75580E-03    -12.7606E+06    -37.9259E+06    -216.605E+06    -37.9414E+06    -216.590E+06    -12.7606E+06     1.24513E+06         24.5190
             576     3.88916E-03     39.0626E-03    -154.423E-03    -181.990E-03    -649.915E-03    -161.293E-03    -643.046E-03    -181.990E-03     14.0166E-03     56.7811E-03    -28.3470E-03    -28.4370E-03    -28.2802E-03     56.7142E-03    -28.4370E-03     4.73290E-03    -24.4322E+06    -42.7238E+06    -228.667E+06    -42.7253E+06    -228.665E+06    -24.4322E+06     210.396E+03         24.3906
             577     2.91682E-03     39.0585E-03    -171.020E-03    -190.615E-03    -622.091E-03    -188.215E-03    -611.363E-03    -184.147E-03    -12.2480E-03     56.7272E-03    -28.3301E-03    -28.4007E-03    -28.2908E-03     56.6879E-03    -28.4007E-03     3.61311E-03    -36.0949E+06    -46.9427E+06    -233.606E+06    -46.9432E+06    -233.606E+06    -36.0949E+06    -135.259E+03         24.2985
             578     1.94449E-03     39.0553E-03    -149.033E-03    -195.713E-03    -633.889E-03    -179.989E-03    -613.799E-03    -184.847E-03     52.1038E-03     56.7235E-03    -28.3254E-03    -28.3997E-03    -28.3372E-03     56.7038E-03    -28.3683E-03     2.53224E-03    -44.5387E+06    -50.0875E+06    -236.750E+06    -50.0886E+06    -236.749E+06    -44.5387E+06     162.416E+03         24.2390
             579     972.342E-06     39.0531E-03     83.1388E-03    -320.273E-03    -725.910E-03    -56.3500E-03    -590.819E-03    -315.875E-03    -340.780E-03     56.6722E-03    -28.2571E-03    -28.4153E-03    -28.3912E-03     56.6658E-03    -28.2749E-03     1.30766E-03    -50.2846E+06    -52.8004E+06    -238.190E+06    -52.7506E+06    -238.188E+06    -50.3371E+06     280.060E+03         24.2066
             580     16.5356E-03     38.3440E-03     579.534E-03     55.8357E-03        -1.58797     579.392E-03        -1.58783     55.8357E-03     18.6272E-03     76.4531E-03    -28.3721E-03    -48.0543E-03    -27.7568E-03     56.1556E-03    -28.3721E-03     90.7193E-03     183.796E+06     125.952E+06    -8.70815E+06    -8.70567E+06     183.794E+06     125.952E+06    -663.973E+03         47.0014
             581     15.5622E-03     38.2227E-03     499.725E-03     22.3047E-03        -1.47469     499.532E-03        -1.47449     22.3047E-03    -13.9852E-03     75.4027E-03    -28.0561E-03    -47.3415E-03    -27.9227E-03     55.9839E-03    -28.0561E-03     87.8540E-03     162.342E+06     51.6381E+06    -15.0482E+06    -15.0431E+06     162.337E+06     51.6381E+06    -446.120E+03         43.8599
             582     14.5882E-03     38.1584E-03     416.669E-03    -9.28775E-03        -1.36336     416.562E-03        -1.36325    -9.28775E-03    -13.7489E-03     61.4897E-03    -27.8018E-03    -33.7025E-03    -27.1642E-03     54.9515E-03    -27.8018E-03     46.4366E-03     135.108E+06    -1.86064E+06    -26.0877E+06    -16.5758E+06     135.103E+06    -11.3675E+06     132.416E+03         39.9987
             583     13.6150E-03     38.1250E-03     347.933E-03    -38.6817E-03        -1.26415     347.888E-03        -1.26410    -38.6817E-03    -2.74539E-03     57.5355E-03    -27.8054E-03    -29.7413E-03    -27.3742E-03     55.1683E-03    -27.8054E-03     28.1198E-03     78.3616E+06    -15.5659E+06    -31.0320E+06    -15.5535E+06     78.3493E+06    -31.0320E+06     699.279E+03         36.3293
             584     12.6424E-03     38.0991E-03     282.806E-03    -66.8406E-03        -1.17458     282.307E-03        -1.17408    -66.8406E-03    -40.3948E-03     56.8738E-03    -27.9614E-03    -28.9326E-03    -27.6276E-03     55.5689E-03    -27.9614E-03     20.6710E-03     8.87388E+06    -17.4057E+06    -27.2991E+06    -15.0495E+06     2.58351E+06    -23.3649E+06     610.459E+03         33.3682
             585     11.6692E-03     38.0816E-03     212.281E-03    -93.6903E-03        -1.07965     211.337E-03        -1.07871    -93.6903E-03     1.28636E-03     56.5016E-03    -28.0827E-03    -28.4623E-03    -27.7487E-03     55.7880E-03    -28.0827E-03     15.4387E-03    -11.9720E+06    -17.4973E+06    -48.9718E+06    -15.1591E+06    -48.9572E+06    -14.3248E+06     569.469E+03         31.0471
             586     10.6967E-03     38.0670E-03     141.552E-03    -118.738E-03    -986.700E-03     139.668E-03    -984.816E-03    -118.738E-03    -17.6865E-03     56.5692E-03    -28.1817E-03    -28.3973E-03    -27.8528E-03     56.0246E-03    -28.1817E-03     13.5522E-03    -6.26711E+06    -15.8209E+06    -85.5837E+06    -15.8331E+06    -85.5715E+06    -6.26711E+06     884.214E+03         29.1527
             587     9.72395E-03     38.0533E-03     72.1563E-03    -141.587E-03    -901.077E-03     70.1882E-03    -899.109E-03    -141.587E-03    -20.0245E-03     56.5747E-03    -28.2064E-03    -28.3298E-03    -27.8673E-03     56.1699E-03    -28.2642E-03     11.5961E-03    -369.893E+03    -17.2727E+06    -112.049E+06    -17.2867E+06    -112.035E+06    -369.893E+03     1.14408E+06         27.5810
             588     8.75121E-03     38.0428E-03     22.6104E-03    -162.661E-03    -835.299E-03     18.6412E-03    -831.330E-03    -162.661E-03    -41.9076E-03     56.5783E-03    -28.2227E-03    -28.3347E-03    -27.9460E-03     56.3017E-03    -28.3347E-03     9.66077E-03     3.19426E+06    -19.4877E+06    -133.880E+06    -19.5072E+06    -133.860E+06     3.19426E+06     1.48224E+06         26.3490
             589     7.77865E-03     38.0333E-03    -22.4735E-03    -182.869E-03    -771.694E-03    -26.1006E-03    -768.067E-03    -182.869E-03    -81.1432E-03     56.6473E-03    -28.2631E-03    -28.3832E-03    -28.0323E-03     56.4165E-03    -28.3832E-03     8.83317E-03     1.90677E+06    -22.2779E+06    -153.698E+06    -22.3083E+06    -153.667E+06     1.90677E+06     1.98184E+06         25.4800
             590     6.80617E-03     38.0245E-03    -89.3505E-03    -200.919E-03    -686.516E-03    -89.8150E-03    -686.051E-03    -200.919E-03    -10.5122E-03     56.6872E-03    -28.2635E-03    -28.4277E-03    -28.0824E-03     56.5060E-03    -28.4277E-03     7.81102E-03    -1.11069E+06    -25.4072E+06    -174.004E+06    -25.4465E+06    -173.965E+06    -1.11069E+06     2.41320E+06         24.9629
             591     5.83376E-03     38.0171E-03    -138.820E-03    -215.369E-03    -624.616E-03    -140.918E-03    -622.519E-03    -215.369E-03    -12.0309E-03     56.7709E-03    -28.3015E-03    -28.4729E-03    -28.1669E-03     56.6364E-03    -28.4729E-03     6.74600E-03    -5.06213E+06    -28.6097E+06    -194.532E+06    -28.6417E+06    -194.500E+06    -5.06213E+06     2.04829E+06         24.6898
             592     4.86121E-03     38.0109E-03    -172.842E-03    -226.999E-03    -576.393E-03    -175.607E-03    -573.628E-03    -226.999E-03    -15.9195E-03     56.8935E-03    -28.3913E-03    -28.5055E-03    -28.2912E-03     56.7933E-03    -28.5055E-03     5.82004E-03    -9.97199E+06    -31.7484E+06    -214.691E+06    -31.7607E+06    -214.678E+06    -9.97199E+06     883.987E+03         24.5192
             593     3.88901E-03     38.0053E-03    -205.700E-03    -234.613E-03    -533.301E-03    -216.680E-03    -522.321E-03    -234.613E-03    -12.4148E-03     56.9162E-03    -28.4220E-03    -28.4966E-03    -28.3558E-03     56.8500E-03    -28.4966E-03     4.71074E-03    -17.4687E+06    -35.7157E+06    -228.313E+06    -35.7161E+06    -228.312E+06    -17.4687E+06     133.811E+03         24.3898
             594     2.91676E-03     38.0013E-03    -224.729E-03    -245.786E-03    -504.701E-03    -247.872E-03    -492.476E-03    -234.868E-03    -24.1236E-03     56.8599E-03    -28.3999E-03    -28.4631E-03    -28.3608E-03     56.8207E-03    -28.4631E-03     3.62214E-03    -27.8759E+06    -40.4972E+06    -233.389E+06    -40.4991E+06    -233.388E+06    -27.8759E+06     243.678E+03         24.2967
             595     1.94456E-03     37.9979E-03    -225.914E-03    -248.454E-03    -498.898E-03    -253.617E-03    -493.735E-03    -225.914E-03     19.6585E-03     56.7964E-03    -28.3693E-03    -28.4301E-03    -28.3491E-03     56.7762E-03    -28.4301E-03     2.55915E-03    -37.8854E+06    -44.4594E+06    -236.943E+06    -44.4630E+06    -236.940E+06    -37.8854E+06     146.952E+03         24.2363
             596     972.101E-06     37.9961E-03    -57.2069E-03    -322.133E-03    -590.640E-03    -127.636E-03    -531.833E-03    -310.512E-03    -216.584E-03     56.8046E-03    -28.2847E-03    -28.5212E-03    -28.4840E-03     56.7984E-03    -28.3157E-03     1.29406E-03    -44.3984E+06    -47.2985E+06    -238.072E+06    -46.8240E+06    -238.069E+06    -44.8760E+06    -379.544E+03         24.2038
             597     16.5354E-03     37.2860E-03     585.832E-03     24.9905E-03        -1.56649     585.790E-03        -1.56645     24.9905E-03     508.152E-06     76.4564E-03    -28.3792E-03    -48.0492E-03    -27.7383E-03     56.1455E-03    -28.3792E-03     90.8212E-03     183.875E+06     125.775E+06    -9.02502E+06    -9.02421E+06     183.874E+06     125.775E+06    -337.037E+03         46.9812
             598     15.5618E-03     37.1653E-03     494.023E-03    -9.70635E-03        -1.44802     493.944E-03        -1.44794    -9.70635E-03    -3.23416E-03     75.3169E-03    -28.0616E-03    -47.2499E-03    -27.9872E-03     56.0542E-03    -28.0616E-03     87.4626E-03     162.232E+06     50.4459E+06    -15.5845E+06    -15.5807E+06     162.228E+06     50.4459E+06    -694.505E+03         43.8422
             599     14.5885E-03     37.1014E-03     396.798E-03    -41.9867E-03        -1.31648     396.750E-03        -1.31643    -41.9867E-03     2.19312E-03     61.5232E-03    -27.7998E-03    -33.7349E-03    -27.2000E-03     54.9882E-03    -27.7998E-03     46.5813E-03     134.659E+06    -3.75086E+06    -27.9826E+06    -17.9410E+06     134.655E+06    -13.7883E+06    -238.286E+03         39.9835
             600     13.6151E-03     37.0672E-03     323.415E-03    -71.8349E-03        -1.21365     323.375E-03        -1.21361    -71.8349E-03    -4.83665E-03     57.5770E-03    -27.8018E-03    -29.7843E-03    -27.3639E-03     55.1566E-03    -27.8018E-03     28.3921E-03     78.0442E+06    -17.4771E+06    -33.1163E+06    -17.4653E+06     78.0323E+06    -33.1163E+06     562.073E+03         36.3155
             601     12.6420E-03     37.0421E-03     262.201E-03    -100.607E-03        -1.12625     261.471E-03        -1.12552    -100.607E-03    -49.3441E-03     56.8821E-03    -27.9628E-03    -28.9382E-03    -27.6424E-03     55.5863E-03    -27.9628E-03     20.6097E-03     8.79296E+06    -18.7779E+06    -27.9800E+06    -16.2933E+06     2.70798E+06    -24.3796E+06     615.132E+03         33.3556
             602     11.6694E-03     37.0242E-03     195.875E-03    -128.540E-03        -1.03145     194.761E-03        -1.03034    -128.540E-03    -11.4790E-03     56.5029E-03    -28.0863E-03    -28.4613E-03    -27.7418E-03     55.7834E-03    -28.0863E-03     15.5091E-03    -12.6509E+06    -18.4816E+06    -49.3636E+06    -16.0139E+06    -49.3308E+06    -15.1514E+06     644.655E+03         31.0361
             603     10.6964E-03     37.0096E-03     113.661E-03    -154.559E-03    -925.026E-03     111.862E-03    -923.227E-03    -154.559E-03    -18.0796E-03     56.5587E-03    -28.1882E-03    -28.3808E-03    -27.8289E-03     56.0067E-03    -28.1882E-03     13.6389E-03    -6.79373E+06    -16.4715E+06    -85.7673E+06    -16.4837E+06    -85.7551E+06    -6.79373E+06     870.573E+03         29.1435
             604     9.72380E-03     36.9960E-03     35.2521E-03    -177.571E-03    -829.441E-03     32.5989E-03    -826.787E-03    -177.571E-03    -7.26097E-03     56.5694E-03    -28.1829E-03    -28.3479E-03    -27.8503E-03     56.1622E-03    -28.2732E-03     11.6296E-03    -750.905E+03    -17.4549E+06    -112.159E+06    -17.4682E+06    -112.145E+06    -750.905E+03     1.09511E+06         27.5740
             605     8.75106E-03     36.9856E-03    -20.0755E-03    -198.141E-03    -758.010E-03    -23.3542E-03    -754.731E-03    -198.141E-03    -1.18307E-03     56.5638E-03    -28.1942E-03    -28.3473E-03    -27.9146E-03     56.2842E-03    -28.3473E-03     9.71108E-03     2.80436E+06    -19.1213E+06    -134.077E+06    -19.1354E+06    -134.063E+06     2.80436E+06     1.24093E+06         26.3447
             606     7.77855E-03     36.9759E-03    -61.5611E-03    -217.795E-03    -697.003E-03    -63.7442E-03    -694.820E-03    -217.795E-03    -30.0040E-03     56.6665E-03    -28.2653E-03    -28.4006E-03    -28.0347E-03     56.4359E-03    -28.4006E-03     8.82442E-03     1.62542E+06    -21.2816E+06    -153.944E+06    -21.3019E+06    -153.923E+06     1.62542E+06     1.59564E+06         25.4791
             607     6.80603E-03     36.9673E-03    -101.568E-03    -237.351E-03    -636.705E-03    -102.189E-03    -636.083E-03    -237.351E-03     15.0157E-03     56.7135E-03    -28.2726E-03    -28.4470E-03    -28.0909E-03     56.5319E-03    -28.4470E-03     7.83389E-03    -1.40081E+06    -23.3992E+06    -173.696E+06    -23.4228E+06    -173.673E+06    -1.40081E+06     1.72012E+06         24.9649
             608     5.83341E-03     36.9599E-03    -159.463E-03    -255.042E-03    -560.258E-03    -161.402E-03    -558.320E-03    -255.042E-03    -22.4331E-03     56.8177E-03    -28.3304E-03    -28.4921E-03    -28.1927E-03     56.6799E-03    -28.4921E-03     6.82409E-03    -5.42444E+06    -25.5377E+06    -193.033E+06    -25.5482E+06    -193.022E+06    -5.42444E+06     869.321E+03         24.6916
             609     4.86116E-03     36.9533E-03    -217.418E-03    -267.197E-03    -490.317E-03    -225.730E-03    -482.005E-03    -267.197E-03    -7.13421E-03     56.9394E-03    -28.4113E-03    -28.5324E-03    -28.3122E-03     56.8403E-03    -28.5324E-03     5.78737E-03    -9.53615E+06    -28.2426E+06    -213.405E+06    -28.2443E+06    -213.403E+06    -9.53615E+06    -52.7468E+03         24.5196
             610     3.88887E-03     36.9480E-03    -237.879E-03    -274.429E-03    -462.838E-03    -251.185E-03    -449.532E-03    -274.429E-03    -20.0783E-03     56.9735E-03    -28.4317E-03    -28.5446E-03    -28.3653E-03     56.9071E-03    -28.5446E-03     4.73064E-03    -15.1205E+06    -31.3711E+06    -228.551E+06    -31.3729E+06    -228.550E+06    -15.1205E+06    -279.693E+03         24.3897
             611     2.91665E-03     36.9438E-03    -231.173E-03    -284.370E-03    -460.870E-03    -265.371E-03    -431.123E-03    -279.920E-03     7.30987E-03     56.9928E-03    -28.4592E-03    -28.5364E-03    -28.4216E-03     56.9515E-03    -28.5326E-03     3.72312E-03    -22.7825E+06    -34.4507E+06    -233.586E+06    -34.4530E+06    -233.584E+06    -22.7825E+06     3.61841E+03         24.2961
             612     1.94431E-03     36.9407E-03    -235.688E-03    -296.574E-03    -444.917E-03    -275.316E-03    -416.962E-03    -284.900E-03     30.6246E-03     56.9800E-03    -28.4620E-03    -28.5208E-03    -28.4649E-03     56.9593E-03    -28.4972E-03     2.57231E-03    -30.6776E+06    -37.5527E+06    -236.394E+06    -37.5559E+06    -236.391E+06    -30.6776E+06    -64.5742E+03         24.2343
             613     972.269E-06     36.9384E-03    -147.847E-03    -322.336E-03    -499.138E-03    -171.956E-03    -394.434E-03    -402.931E-03    -95.7500E-03     56.9121E-03    -28.3631E-03    -28.5495E-03    -28.5301E-03     56.9059E-03    -28.3763E-03     1.33586E-03    -37.2510E+06    -40.1754E+06    -238.287E+06    -39.4562E+06    -238.285E+06    -37.9716E+06    -319.884E+03         24.1995
             614     16.5357E-03     36.2286E-03     576.815E-03     1.75698E-03        -1.53507     576.739E-03        -1.53500     1.75698E-03     5.55789E-03     76.3829E-03    -28.3758E-03    -47.9870E-03    -27.6450E-03     56.0409E-03    -28.3758E-03     90.7933E-03     184.089E+06     125.583E+06    -8.79513E+06    -8.79375E+06     184.087E+06     125.583E+06     103.362E+03         46.9604
             615     15.5618E-03     36.1080E-03     486.390E-03    -33.1709E-03        -1.41467     486.276E-03        -1.41456    -33.1709E-03     11.7197E-03     75.2247E-03    -28.0721E-03    -47.1524E-03    -27.8156E-03     55.8879E-03    -28.0721E-03     87.5343E-03     162.273E+06     50.4263E+06    -15.5083E+06    -15.5041E+06     162.269E+06     50.4263E+06     314.222E+03         43.8236
             616     14.5881E-03     36.0441E-03     405.989E-03    -66.4954E-03        -1.30096     405.917E-03        -1.30089    -66.4954E-03     3.15579E-03     61.7413E-03    -27.8170E-03    -33.9341E-03    -27.3465E-03     55.1537E-03    -27.8170E-03     46.7556E-03     134.781E+06    -4.04694E+06    -27.9191E+06    -18.7869E+06     134.777E+06    -13.1754E+06     196.051E+03         39.9673
             617     13.6147E-03     36.0101E-03     318.883E-03    -97.9221E-03        -1.18546     318.682E-03        -1.18526    -97.9221E-03     21.7156E-03     57.5975E-03    -27.8076E-03    -29.7975E-03    -27.4060E-03     55.2060E-03    -27.8076E-03     28.2598E-03     77.4112E+06    -18.6906E+06    -33.2465E+06    -18.6892E+06     77.4099E+06    -33.2465E+06    -88.2135E+03         36.3011
             618     12.6421E-03     35.9843E-03     232.790E-03    -127.205E-03        -1.07003     232.278E-03        -1.06952    -127.205E-03    -7.60160E-03     56.8100E-03    -27.9660E-03    -28.8600E-03    -27.5779E-03     55.5279E-03    -27.9660E-03     20.4395E-03     7.63879E+06    -19.5247E+06    -28.2341E+06    -17.4185E+06     2.25065E+06    -24.9522E+06     169.284E+03         33.3423
             619     11.6691E-03     35.9673E-03     159.635E-03    -154.498E-03    -972.182E-03     158.392E-03    -970.939E-03    -154.498E-03     16.7208E-03     56.4616E-03    -28.0927E-03    -28.4125E-03    -27.7009E-03     55.7499E-03    -28.0927E-03     15.4399E-03    -13.5891E+06    -18.8506E+06    -49.5634E+06    -16.7460E+06    -49.5353E+06    -15.7218E+06     454.630E+03         31.0242
             620     10.6963E-03     35.9522E-03     96.2198E-03    -180.332E-03    -886.633E-03     94.0214E-03    -884.435E-03    -180.332E-03    -5.61588E-03     56.5399E-03    -28.1990E-03    -28.3536E-03    -27.7957E-03     55.9820E-03    -28.1990E-03     13.7010E-03    -7.27101E+06    -16.7985E+06    -85.8797E+06    -16.8031E+06    -85.8751E+06    -7.27101E+06     509.473E+03         29.1335
             621     9.72366E-03     35.9388E-03     42.4675E-03    -205.350E-03    -810.640E-03     39.9483E-03    -808.121E-03    -205.350E-03    -6.23542E-03     56.6076E-03    -28.2153E-03    -28.3541E-03    -27.8812E-03     56.2055E-03    -28.2861E-03     11.5641E-03    -1.05733E+06    -17.6707E+06    -111.954E+06    -17.6761E+06    -111.949E+06    -1.05733E+06     644.759E+03         27.5664
             622     8.75099E-03     35.9284E-03    -32.7853E-03    -228.695E-03    -715.799E-03    -34.0705E-03    -714.514E-03    -228.695E-03     37.6136E-03     56.5786E-03    -28.1956E-03    -28.3592E-03    -27.9139E-03     56.2970E-03    -28.3592E-03     9.75078E-03     2.18015E+06    -19.1632E+06    -134.184E+06    -19.1682E+06    -134.179E+06     2.18015E+06     686.816E+03         26.3400
             623     7.77834E-03     35.9185E-03    -114.460E-03    -248.072E-03    -615.377E-03    -115.073E-03    -614.764E-03    -248.072E-03    -6.45120E-03     56.6553E-03    -28.2395E-03    -28.4152E-03    -28.0073E-03     56.4230E-03    -28.4152E-03     8.84889E-03     831.565E+03    -20.9435E+06    -154.230E+06    -20.9501E+06    -154.223E+06     831.565E+03     625.470E+03         25.4780
             624     6.80575E-03     35.9102E-03    -150.459E-03    -264.694E-03    -559.417E-03    -151.323E-03    -558.554E-03    -264.694E-03     10.4547E-03     56.7709E-03    -28.3151E-03    -28.4639E-03    -28.1347E-03     56.5906E-03    -28.4639E-03     7.81045E-03    -1.79624E+06    -22.6457E+06    -173.110E+06    -22.6502E+06    -173.105E+06    -1.79624E+06     419.566E+03         24.9667
             625     5.83346E-03     35.9023E-03    -178.455E-03    -281.372E-03    -517.846E-03    -180.346E-03    -515.954E-03    -281.372E-03    -9.19782E-03     56.8612E-03    -28.3615E-03    -28.5063E-03    -28.2245E-03     56.7242E-03    -28.5063E-03     6.80673E-03    -5.80341E+06    -24.6653E+06    -191.861E+06    -24.6671E+06    -191.859E+06    -5.80341E+06    -60.4970E+03         24.6939
             626     4.86104E-03     35.8959E-03    -224.158E-03    -296.357E-03    -460.908E-03    -232.067E-03    -452.999E-03    -296.357E-03     15.5923E-03     56.9155E-03    -28.3718E-03    -28.5495E-03    -28.2735E-03     56.8171E-03    -28.5495E-03     5.76754E-03    -10.6115E+06    -27.2239E+06    -212.858E+06    -27.2281E+06    -212.854E+06    -10.6115E+06    -766.223E+03         24.5210
             627     3.88866E-03     35.8905E-03    -232.868E-03    -308.939E-03    -435.346E-03    -260.847E-03    -407.367E-03    -308.939E-03    -21.2249E-03     56.9947E-03    -28.4209E-03    -28.5777E-03    -28.3538E-03     56.9276E-03    -28.5777E-03     4.76026E-03    -16.3799E+06    -30.0366E+06    -229.093E+06    -30.0434E+06    -229.087E+06    -16.3799E+06    -1.07719E+06         24.3908
             628     2.91627E-03     35.8862E-03    -215.759E-03    -323.589E-03    -434.740E-03    -272.640E-03    -377.859E-03    -323.589E-03     41.6023E-03     57.0970E-03    -28.5154E-03    -28.5838E-03    -28.4847E-03     57.0558E-03    -28.5733E-03     3.71311E-03    -23.9509E+06    -32.5030E+06    -234.087E+06    -32.5085E+06    -234.081E+06    -23.9509E+06    -928.062E+03         24.2972
             629     1.94436E-03     35.8829E-03    -206.619E-03    -345.620E-03    -427.458E-03    -292.008E-03    -342.069E-03    -345.620E-03     2.99521E-03     57.0980E-03    -28.5273E-03    -28.5732E-03    -28.5379E-03     57.0783E-03    -28.5428E-03     2.51807E-03    -29.7066E+06    -34.2919E+06    -236.346E+06    -33.9850E+06    -236.342E+06    -30.0179E+06    -740.432E+03         24.2350
             630     972.221E-06     35.8812E-03    -95.2952E-03    -368.333E-03    -513.935E-03    -237.421E-03    -259.337E-03    -480.805E-03     15.0231E-03     57.0339E-03    -28.4559E-03    -28.5781E-03    -28.5564E-03     57.0277E-03    -28.4714E-03     1.36235E-03    -33.3408E+06    -36.0272E+06    -238.600E+06    -35.4755E+06    -238.597E+06    -33.8951E+06    -313.576E+03         24.1995
             631     16.5359E-03     35.1711E-03     564.077E-03    -13.5091E-03        -1.50938     564.005E-03        -1.50930    -13.5091E-03     3.08073E-03     76.3204E-03    -28.3831E-03    -47.9370E-03    -27.5738E-03     55.9572E-03    -28.3831E-03     90.8217E-03     183.797E+06     125.795E+06    -9.01249E+06    -9.00967E+06     183.794E+06     125.795E+06     598.390E+03         46.9382
             632     15.5611E-03     35.0518E-03     481.452E-03    -48.0274E-03        -1.39332     481.337E-03        -1.39320    -48.0274E-03    -3.64722E-03     75.2747E-03    -28.0835E-03    -47.1948E-03    -27.8569E-03     55.9367E-03    -28.0835E-03     87.5935E-03     162.686E+06     51.7271E+06    -15.2715E+06    -15.2673E+06     162.682E+06     51.7271E+06     779.035E+03         43.8039
             633     14.5878E-03     34.9857E-03     414.846E-03    -81.8694E-03        -1.29447     414.767E-03        -1.29439    -81.8694E-03    -12.3567E-03     61.8102E-03    -27.8238E-03    -33.9934E-03    -27.4494E-03     55.2663E-03    -27.8238E-03     46.4887E-03     135.595E+06    -2.03563E+06    -26.4222E+06    -17.2635E+06     135.593E+06    -11.1915E+06     254.676E+03         39.9502
             634     13.6156E-03     34.9530E-03     330.492E-03    -114.735E-03        -1.17981     330.150E-03        -1.17947    -114.735E-03     4.95810E-03     57.5219E-03    -27.8077E-03    -29.7231E-03    -27.3980E-03     55.1969E-03    -27.8077E-03     27.9226E-03     76.9854E+06    -17.0921E+06    -32.4813E+06    -17.0892E+06     76.9825E+06    -32.4813E+06    -23.1690E+03         36.2857
             635     12.6419E-03     34.9269E-03     224.470E-03    -145.103E-03        -1.05135     223.803E-03        -1.05068    -145.103E-03    -22.0746E-03     56.7136E-03    -27.9677E-03    -28.7617E-03    -27.4696E-03     55.4215E-03    -27.9677E-03     20.4578E-03     7.20466E+06    -18.6837E+06    -28.5234E+06    -16.5953E+06     1.50988E+06    -24.9171E+06     32.8008E+03         33.3279
             636     11.6691E-03     34.9100E-03     130.599E-03    -172.088E-03    -934.827E-03     129.484E-03    -933.712E-03    -172.088E-03     9.44655E-03     56.4019E-03    -28.1006E-03    -28.3463E-03    -27.6429E-03     55.6984E-03    -28.1006E-03     15.3454E-03    -13.2534E+06    -18.3480E+06    -49.2532E+06    -16.2628E+06    -49.2511E+06    -15.3407E+06     56.6784E+03         31.0113
             637     10.6963E-03     34.8950E-03     81.1779E-03    -197.417E-03    -858.859E-03     79.0869E-03    -856.768E-03    -197.417E-03    -14.0200E-03     56.5336E-03    -28.2091E-03    -28.3368E-03    -27.7740E-03     55.9708E-03    -28.2091E-03     13.7629E-03    -7.45431E+06    -16.4188E+06    -85.9782E+06    -16.4202E+06    -85.9769E+06    -7.45431E+06     108.799E+03         29.1226
             638     9.72338E-03     34.8814E-03     30.6407E-03    -222.739E-03    -784.517E-03     29.0356E-03    -782.912E-03    -222.739E-03    -26.8316E-03     56.6249E-03    -28.2451E-03    -28.3383E-03    -27.8796E-03     56.2205E-03    -28.2994E-03     11.5839E-03    -1.16281E+06    -17.2961E+06    -112.073E+06    -17.2972E+06    -112.072E+06    -1.16281E+06     79.1956E+03         27.5580
             639     8.75089E-03     34.8711E-03    -50.0148E-03    -246.304E-03    -683.490E-03    -50.7848E-03    -682.720E-03    -246.304E-03     6.52363E-03     56.6264E-03    -28.2305E-03    -28.3731E-03    -27.9523E-03     56.3483E-03    -28.3731E-03     9.69560E-03     2.31173E+06    -18.7493E+06    -133.890E+06    -18.7505E+06    -133.888E+06     2.31173E+06     59.1466E+03         26.3346
             640     7.77818E-03     34.8614E-03    -125.861E-03    -265.810E-03    -591.554E-03    -128.819E-03    -588.596E-03    -265.810E-03    -55.8445E-03     56.6975E-03    -28.2696E-03    -28.4257E-03    -28.0385E-03     56.4665E-03    -28.4257E-03     8.83050E-03     789.595E+03    -20.5826E+06    -153.921E+06    -20.5843E+06    -153.919E+06     789.595E+03    -300.797E+03         25.4761
             641     6.80577E-03     34.8525E-03    -172.160E-03    -282.087E-03    -530.172E-03    -175.262E-03    -527.070E-03    -282.087E-03    -25.2300E-03     56.7931E-03    -28.3261E-03    -28.4717E-03    -28.1473E-03     56.6143E-03    -28.4717E-03     7.77800E-03    -2.08001E+06    -22.7263E+06    -172.818E+06    -22.7322E+06    -172.812E+06    -2.08001E+06    -710.278E+03         24.9681
             642     5.83337E-03     34.8450E-03    -199.503E-03    -297.761E-03    -485.103E-03    -202.320E-03    -482.286E-03    -297.761E-03     5.61827E-03     56.8429E-03    -28.3337E-03    -28.5156E-03    -28.1971E-03     56.7063E-03    -28.5156E-03     6.79959E-03    -6.33470E+06    -24.7937E+06    -191.470E+06    -24.8040E+06    -191.460E+06    -6.33470E+06    -1.09840E+06         24.6971
             643     4.86088E-03     34.8385E-03    -225.925E-03    -313.909E-03    -440.445E-03    -232.750E-03    -433.621E-03    -313.909E-03     22.5263E-03     56.9321E-03    -28.3743E-03    -28.5637E-03    -28.2767E-03     56.8346E-03    -28.5637E-03     5.73505E-03    -11.0592E+06    -26.8706E+06    -212.529E+06    -26.8847E+06    -212.515E+06    -11.0592E+06    -1.53473E+06         24.5242
             644     3.88852E-03     34.8331E-03    -225.886E-03    -330.156E-03    -424.177E-03    -265.560E-03    -384.503E-03    -330.156E-03    -68.6360E-03     57.0556E-03    -28.4695E-03    -28.5894E-03    -28.4041E-03     56.9901E-03    -28.5894E-03     4.70842E-03    -16.9829E+06    -29.4491E+06    -229.544E+06    -29.4625E+06    -229.531E+06    -16.9829E+06    -1.54363E+06         24.3930
             645     2.91651E-03     34.8286E-03    -217.132E-03    -346.485E-03    -419.398E-03    -297.170E-03    -339.360E-03    -346.485E-03    -11.3669E-03     57.1053E-03    -28.5170E-03    -28.5892E-03    -28.4832E-03     57.0647E-03    -28.5824E-03     3.67771E-03    -25.0790E+06    -31.8163E+06    -234.703E+06    -31.8266E+06    -234.692E+06    -25.0790E+06    -1.39036E+06         24.2993
             646     1.94420E-03     34.8255E-03    -185.229E-03    -364.406E-03    -438.763E-03    -325.611E-03    -298.381E-03    -364.406E-03    -67.0751E-03     57.1158E-03    -28.5224E-03    -28.5946E-03    -28.5295E-03     57.0969E-03    -28.5688E-03     2.46041E-03    -31.0068E+06    -33.9112E+06    -237.456E+06    -33.6082E+06    -237.448E+06    -31.3180E+06    -1.04825E+06         24.2382
             647     971.942E-06     34.8237E-03    -23.7482E-03    -432.289E-03    -529.063E-03    -266.794E-03    -236.981E-03    -481.326E-03     135.015E-03     57.1259E-03    -28.4683E-03    -28.6592E-03    -28.6382E-03     57.1204E-03    -28.4838E-03     1.22143E-03    -33.2943E+06    -35.9436E+06     -239.47E+06    -34.8149E+06    -239.467E+06    -34.4257E+06    -304.999E+03         24.2041
             648     16.5349E-03     34.1143E-03     568.806E-03    -20.9412E-03        -1.50330     568.358E-03        -1.50286    -20.9412E-03     43.4408E-03     76.3589E-03    -28.3895E-03    -47.9586E-03    -27.7328E-03     56.1332E-03    -28.3895E-03     90.6336E-03     183.918E+06     126.425E+06    -8.40489E+06    -8.40198E+06     183.915E+06     126.425E+06     662.711E+03         46.9143
             649     15.5621E-03     33.9939E-03     479.634E-03    -55.4075E-03        -1.38420     479.442E-03        -1.38401    -55.4075E-03     13.4113E-03     75.3641E-03    -28.0755E-03    -47.2921E-03    -28.0891E-03     56.1610E-03    -28.0755E-03     87.4490E-03     163.388E+06     52.2096E+06    -14.1185E+06    -14.1177E+06     163.387E+06     52.2096E+06     194.822E+03         43.7833
             650     14.5888E-03     33.9285E-03     393.638E-03    -88.4867E-03        -1.27285     393.596E-03        -1.27281    -88.4867E-03    -3.67520E-03     61.5816E-03    -27.8113E-03    -33.7771E-03    -27.2365E-03     55.0410E-03    -27.8113E-03     46.4866E-03     135.222E+06    -1.92465E+06    -25.8174E+06    -16.2558E+06     135.219E+06    -11.4832E+06     313.204E+03         39.9322
             651     13.6147E-03     33.8955E-03     318.423E-03    -120.326E-03        -1.16827     318.268E-03        -1.16811    -120.326E-03    -11.5451E-03     57.3801E-03    -27.8103E-03    -29.5801E-03    -27.2218E-03     55.0218E-03    -27.8103E-03     28.0242E-03     76.7378E+06    -16.0229E+06    -32.0023E+06    -16.0177E+06     76.7326E+06    -32.0023E+06     510.162E+03         36.2686
             652     12.6421E-03     33.8701E-03     230.971E-03    -150.671E-03        -1.05859     230.512E-03        -1.05814    -150.671E-03    -32.4619E-03     56.7395E-03    -27.9750E-03    -28.7818E-03    -27.4829E-03     55.4407E-03    -27.9750E-03     20.5608E-03     8.23525E+06    -18.0489E+06    -28.2793E+06    -15.2871E+06     1.66400E+06    -24.4698E+06     201.209E+03         33.3118
             653     11.6690E-03     33.8526E-03     145.863E-03    -178.860E-03    -948.560E-03     145.490E-03    -948.187E-03    -178.860E-03    -14.6678E-03     56.4243E-03    -28.1083E-03    -28.3616E-03    -27.6469E-03     55.7096E-03    -28.1083E-03     15.4536E-03    -12.1949E+06    -17.7308E+06    -49.1928E+06    -14.9714E+06    -49.1904E+06    -14.9567E+06        -295.410         30.9969
             654     10.6960E-03     33.8379E-03     74.4264E-03    -205.062E-03    -849.574E-03     73.3449E-03    -848.493E-03    -205.062E-03    -37.6475E-03     56.5596E-03    -28.2165E-03    -28.3540E-03    -27.7975E-03     56.0031E-03    -28.2165E-03     13.6903E-03    -7.18107E+06    -15.4817E+06    -85.8419E+06    -15.4821E+06    -85.8415E+06    -7.18107E+06    -113.690E+03         29.1105
             655     9.72336E-03     33.8239E-03    -5.42133E-03    -228.848E-03    -749.374E-03    -6.86164E-03    -747.934E-03    -228.848E-03    -18.2866E-03     56.6058E-03    -28.2248E-03    -28.3390E-03    -27.8576E-03     56.2060E-03    -28.3064E-03     11.5097E-03    -1.11515E+06    -16.5434E+06    -112.310E+06    -16.5448E+06    -112.309E+06    -1.11515E+06    -301.876E+03         27.5485
             656     8.75068E-03     33.8137E-03    -67.9432E-03    -250.003E-03    -669.468E-03    -69.1703E-03    -668.241E-03    -250.003E-03     20.5390E-03     56.6584E-03    -28.2555E-03    -28.3807E-03    -27.9819E-03     56.3848E-03    -28.3807E-03     9.61945E-03     2.51371E+06    -18.3227E+06    -133.590E+06    -18.3250E+06    -133.588E+06     2.51371E+06    -463.762E+03         26.3283
             657     7.77831E-03     33.8037E-03    -103.452E-03    -270.281E-03    -615.026E-03    -106.587E-03    -611.890E-03    -270.281E-03    -43.0295E-03     56.7412E-03    -28.3080E-03    -28.4288E-03    -28.0770E-03     56.5102E-03    -28.4288E-03     8.83858E-03     791.356E+03    -20.4514E+06    -153.252E+06    -20.4582E+06    -153.245E+06     791.356E+03    -851.614E+03         25.4734
             658     6.80581E-03     33.7952E-03    -154.870E-03    -289.862E-03    -546.070E-03    -159.231E-03    -541.709E-03    -289.862E-03    -6.45626E-03     56.7676E-03    -28.2967E-03    -28.4740E-03    -28.1162E-03     56.5872E-03    -28.4740E-03     7.80794E-03    -2.35949E+06    -22.7538E+06    -172.502E+06    -22.7699E+06    -172.486E+06    -2.35949E+06    -1.49101E+06         24.9690
             659     5.83322E-03     33.7876E-03    -219.664E-03    -305.953E-03    -465.019E-03    -225.199E-03    -459.484E-03    -305.953E-03     24.7676E-03     56.8496E-03    -28.3358E-03    -28.5209E-03    -28.2007E-03     56.7145E-03    -28.5209E-03     6.75852E-03    -6.60817E+06    -25.2811E+06    -191.235E+06    -25.3057E+06    -191.211E+06    -6.60817E+06    -1.99315E+06         24.7001
             660     4.86090E-03     33.7811E-03    -249.497E-03    -318.770E-03    -418.733E-03    -258.033E-03    -410.197E-03    -318.770E-03     6.71078E-03     56.9819E-03    -28.4242E-03    -28.5629E-03    -28.3282E-03     56.8859E-03    -28.5629E-03     5.69729E-03    -11.7428E+06    -27.9380E+06    -212.806E+06    -27.9673E+06    -212.777E+06    -11.7428E+06    -2.30255E+06         24.5275
             661     3.88874E-03     33.7756E-03    -239.915E-03    -331.477E-03    -412.663E-03    -278.292E-03    -374.286E-03    -331.477E-03    -72.1394E-03     57.0612E-03    -28.4825E-03    -28.5813E-03    -28.4169E-03     56.9957E-03    -28.5813E-03     4.71446E-03    -17.4800E+06    -30.4408E+06    -230.228E+06    -30.4686E+06    -230.200E+06    -17.4800E+06    -2.22659E+06         24.3958
             662     2.91635E-03     33.7710E-03    -229.257E-03    -340.104E-03    -414.663E-03    -327.989E-03    -315.931E-03    -340.104E-03    -10.4672E-03     57.0682E-03    -28.4904E-03    -28.5807E-03    -28.4503E-03     57.0280E-03    -28.5807E-03     3.65047E-03    -24.4910E+06    -32.7321E+06    -235.870E+06    -32.7502E+06    -235.852E+06    -24.4910E+06    -1.72703E+06         24.3020
             663     1.94416E-03     33.7679E-03    -182.163E-03    -337.828E-03    -472.181E-03    -354.726E-03    -299.618E-03    -337.828E-03    -117.800E-03     57.1007E-03    -28.5080E-03    -28.5951E-03    -28.5083E-03     57.0820E-03    -28.5760E-03     2.46840E-03    -30.1611E+06    -34.7985E+06    -238.804E+06    -34.8058E+06    -238.797E+06    -30.1611E+06    -979.842E+03         24.2417
             664     972.361E-06     33.7657E-03    -10.2575E-03    -404.142E-03    -582.634E-03    -238.460E-03    -330.048E-03    -428.525E-03     133.333E-03     57.1231E-03    -28.4882E-03    -28.6364E-03    -28.6076E-03     57.1173E-03    -28.5113E-03     1.22074E-03    -33.8010E+06    -37.1820E+06    -240.414E+06    -36.3640E+06    -240.412E+06    -34.6212E+06    -384.918E+03         24.2085
             665     16.5360E-03     33.0571E-03     580.489E-03    -20.4814E-03        -1.51456     579.990E-03        -1.51406    -20.4814E-03     29.5218E-03     76.5907E-03    -28.3821E-03    -48.1976E-03    -27.8225E-03     56.2155E-03    -28.3821E-03     91.0369E-03     184.002E+06     125.951E+06    -7.76888E+06    -7.76655E+06     184.000E+06     125.951E+06     320.790E+03         46.8887
             666     15.5621E-03     32.9357E-03     482.245E-03    -54.4428E-03        -1.39234     481.947E-03        -1.39205    -54.4428E-03    -4.12685E-03     75.4635E-03    -28.0593E-03    -47.4102E-03    -28.0537E-03     56.1070E-03    -28.0593E-03     87.7621E-03     163.608E+06     50.8357E+06    -13.1306E+06    -13.1298E+06     163.608E+06     50.8357E+06     181.302E+03         43.7602
             667     14.5882E-03     32.8722E-03     381.551E-03    -86.4078E-03        -1.26828     381.419E-03        -1.26815    -86.4078E-03    -14.6536E-03     61.5064E-03    -27.7960E-03    -33.7228E-03    -27.1799E-03     54.9636E-03    -27.7960E-03     46.5677E-03     134.357E+06    -2.92528E+06    -26.4693E+06    -15.6114E+06     134.354E+06    -13.7802E+06     328.714E+03         39.9113
             668     13.6151E-03     32.8381E-03     305.627E-03    -116.858E-03        -1.16283     305.578E-03        -1.16278    -116.858E-03    -991.246E-06     57.3252E-03    -27.8086E-03    -29.5232E-03    -27.1495E-03     54.9516E-03    -27.8086E-03     28.0317E-03     76.8227E+06    -14.9484E+06    -32.4453E+06    -14.9432E+06     76.8174E+06    -32.4453E+06     555.570E+03         36.2492
             669     12.6416E-03     32.8128E-03     239.199E-03    -146.631E-03        -1.07341     239.172E-03        -1.07338    -146.631E-03    -2.44282E-03     56.6902E-03    -27.9825E-03    -28.7205E-03    -27.4491E-03     55.4188E-03    -27.9825E-03     20.3851E-03     9.31205E+06    -17.2474E+06    -27.5290E+06    -13.9875E+06     2.41245E+06    -23.8893E+06     401.876E+03         33.2938
             670     11.6688E-03     32.7955E-03     167.511E-03    -175.639E-03    -979.227E-03     167.205E-03    -978.921E-03    -175.639E-03     9.30591E-03     56.5218E-03    -28.1136E-03    -28.4506E-03    -27.7289E-03     55.8001E-03    -28.1136E-03     15.5365E-03    -11.7178E+06    -17.3350E+06    -49.0541E+06    -14.0782E+06    -49.0467E+06    -14.9819E+06     272.633E+03         30.9810
             671     10.6962E-03     32.7804E-03     76.4680E-03    -202.462E-03    -863.880E-03     75.5033E-03    -862.915E-03    -202.462E-03    -14.2571E-03     56.6057E-03    -28.2169E-03    -28.4011E-03    -27.8535E-03     56.0581E-03    -28.2169E-03     13.5861E-03    -7.04942E+06    -14.6312E+06    -85.4495E+06    -14.6319E+06    -85.4488E+06    -7.04942E+06     34.0988E+03         29.0971
             672     9.72344E-03     32.7669E-03    -4.75324E-03    -225.984E-03    -760.862E-03    -6.60987E-03    -759.005E-03    -225.984E-03     11.1999E-03     56.5869E-03    -28.2146E-03    -28.3342E-03    -27.8473E-03     56.1889E-03    -28.3034E-03     11.5040E-03    -1.38355E+06    -15.9443E+06    -112.112E+06    -15.9455E+06    -112.111E+06    -1.38355E+06    -259.648E+03         27.5379
             673     8.75077E-03     32.7561E-03    -56.0244E-03    -247.451E-03    -690.793E-03    -57.5392E-03    -689.278E-03    -247.451E-03     53.6379E-03     56.6207E-03    -28.2192E-03    -28.3797E-03    -27.9415E-03     56.3430E-03    -28.3797E-03     9.68216E-03     2.01842E+06    -17.9815E+06    -133.603E+06    -17.9849E+06    -133.599E+06     2.01842E+06    -588.527E+03         26.3208
             674     7.77821E-03     32.7465E-03    -101.529E-03    -268.342E-03    -627.083E-03    -102.363E-03    -626.249E-03    -268.342E-03    -6.76783E-03     56.7206E-03    -28.2865E-03    -28.4331E-03    -28.0543E-03     56.4884E-03    -28.4331E-03     8.86245E-03     503.977E+03    -20.6048E+06    -152.820E+06    -20.6134E+06    -152.812E+06     503.977E+03    -1.02346E+06         25.4697
             675     6.80565E-03     32.7378E-03    -168.936E-03    -286.903E-03    -542.813E-03    -171.593E-03    -540.156E-03    -286.903E-03     12.9824E-03     56.8053E-03    -28.3343E-03    -28.4769E-03    -28.1517E-03     56.6227E-03    -28.4769E-03     7.85627E-03    -2.75621E+06    -23.6161E+06    -171.782E+06    -23.6338E+06    -171.765E+06    -2.75621E+06    -1.59375E+06         24.9686
             676     5.83335E-03     32.7301E-03    -225.438E-03    -300.731E-03    -474.892E-03    -232.678E-03    -467.652E-03    -300.731E-03    -10.3554E-03     56.8846E-03    -28.3727E-03    -28.5184E-03    -28.2374E-03     56.7493E-03    -28.5184E-03     6.76530E-03    -7.06606E+06    -26.8254E+06    -190.969E+06    -26.8580E+06    -190.937E+06    -7.06606E+06    -2.29088E+06         24.7008
             677     4.86102E-03     32.7236E-03    -242.518E-03    -312.004E-03    -441.444E-03    -255.150E-03    -428.812E-03    -312.004E-03    -18.3478E-03     56.9719E-03    -28.4175E-03    -28.5584E-03    -28.3195E-03     56.8738E-03    -28.5584E-03     5.76260E-03    -12.0332E+06    -30.1003E+06    -213.456E+06    -30.1414E+06    -213.415E+06    -12.0332E+06    -2.73768E+06         24.5285
             678     3.88867E-03     32.7180E-03    -252.903E-03    -322.798E-03    -416.264E-03    -281.444E-03    -387.723E-03    -322.798E-03    -32.0778E-03     57.0473E-03    -28.4771E-03    -28.5722E-03    -28.4100E-03     56.9802E-03    -28.5722E-03     4.75852E-03    -18.2802E+06    -33.9101E+06    -231.272E+06    -33.9459E+06    -231.236E+06    -18.2802E+06    -2.62139E+06         24.3980
             679     2.91655E-03     32.7136E-03    -222.598E-03    -327.488E-03    -442.200E-03    -330.103E-03    -334.694E-03    -327.488E-03     74.3359E-03     57.0444E-03    -28.4914E-03    -28.5564E-03    -28.4518E-03     57.0048E-03    -28.5564E-03     3.63068E-03    -26.8258E+06    -38.1567E+06    -237.311E+06    -38.1788E+06    -237.289E+06    -26.8258E+06    -1.98308E+06         24.3047
             680     1.94439E-03     32.7102E-03    -149.774E-03    -314.976E-03    -531.556E-03    -363.174E-03    -318.156E-03    -314.976E-03    -101.002E-03     56.9836E-03    -28.4469E-03    -28.5392E-03    -28.4280E-03     56.9648E-03    -28.5392E-03     2.47131E-03    -35.3452E+06    -41.9090E+06    -240.148E+06    -41.9173E+06    -240.139E+06    -35.3452E+06    -1.18129E+06         24.2437
             681     971.798E-06     32.7084E-03     8.64837E-03    -388.011E-03    -633.643E-03    -217.819E-03    -407.176E-03    -388.011E-03     114.252E-03     57.0393E-03    -28.4466E-03    -28.5927E-03    -28.5269E-03     57.0332E-03    -28.5061E-03     1.31159E-03    -41.2505E+06    -45.2201E+06    -241.494E+06    -44.2069E+06    -241.486E+06    -42.2720E+06    -1.09815E+06         24.2107
             682     16.5354E-03     31.9999E-03     578.298E-03    -10.4668E-03        -1.53832     578.235E-03        -1.53826    -10.4668E-03    -10.4680E-03     76.4850E-03    -28.3684E-03    -48.1159E-03    -27.7134E-03     56.0825E-03    -28.3684E-03     90.9375E-03     183.602E+06     124.667E+06    -8.59789E+06    -8.59452E+06     183.598E+06     124.667E+06    -282.395E+03         46.8605
             683     15.5614E-03     31.8783E-03     500.400E-03    -43.4191E-03        -1.43070     500.189E-03        -1.43049    -43.4191E-03    -7.46005E-03     75.2835E-03    -28.0567E-03    -47.2287E-03    -27.8326E-03     55.8874E-03    -28.0567E-03     87.6279E-03     162.925E+06     49.8288E+06    -13.9495E+06    -13.9463E+06     162.922E+06     49.8288E+06    -35.0782E+03         43.7337
             684     14.5884E-03     31.8147E-03     405.723E-03    -75.4074E-03        -1.30888     405.476E-03        -1.30863    -75.4074E-03     1.59360E-03     61.5599E-03    -27.8025E-03    -33.7676E-03    -27.2581E-03     55.0505E-03    -27.8025E-03     46.4632E-03     134.237E+06    -2.76356E+06    -27.0222E+06    -15.6996E+06     134.236E+06    -14.0858E+06     195.743E+03         39.8868
             685     13.6150E-03     31.7807E-03     314.735E-03    -105.916E-03        -1.19289     314.589E-03        -1.19274    -105.916E-03     13.3555E-03     57.4159E-03    -27.8069E-03    -29.6145E-03    -27.2377E-03     55.0391E-03    -27.8069E-03     28.1015E-03     76.6900E+06    -15.4213E+06    -33.5960E+06    -15.4181E+06     76.6868E+06    -33.5960E+06     345.319E+03         36.2269
             686     12.6419E-03     31.7560E-03     243.221E-03    -135.133E-03        -1.09807     242.967E-03        -1.09781    -135.133E-03    -9.94362E-03     56.7226E-03    -27.9793E-03    -28.7519E-03    -27.4736E-03     55.4443E-03    -27.9793E-03     20.4255E-03     9.35395E+06    -17.5798E+06    -27.6188E+06    -14.1840E+06     2.77154E+06    -24.4322E+06     660.141E+03         33.2739
             687     11.6688E-03     31.7377E-03     175.213E-03    -163.479E-03        -1.00604     174.377E-03        -1.00520    -163.479E-03     16.7079E-03     56.5219E-03    -28.1091E-03    -28.4488E-03    -27.7343E-03     55.8073E-03    -28.1091E-03     15.4602E-03    -11.7976E+06    -17.1996E+06    -48.6149E+06    -13.8082E+06    -48.5865E+06    -15.2174E+06     594.789E+03         30.9635
             688     10.6961E-03     31.7232E-03     94.7022E-03    -190.236E-03    -897.332E-03     93.8912E-03    -896.521E-03    -190.236E-03     20.5248E-03     56.5779E-03    -28.2128E-03    -28.3763E-03    -27.8348E-03     56.0364E-03    -28.2128E-03     13.5065E-03    -7.28548E+06    -14.3608E+06    -85.3903E+06    -14.3628E+06    -85.3883E+06    -7.28548E+06     301.133E+03         29.0822
             689     9.72340E-03     31.7095E-03     20.0167E-03    -214.627E-03    -796.805E-03     18.8835E-03    -795.672E-03    -214.627E-03     16.3416E-03     56.6003E-03    -28.2139E-03    -28.3503E-03    -27.8668E-03     56.2032E-03    -28.3002E-03     11.5020E-03    -1.32459E+06    -15.7338E+06    -111.598E+06    -15.7346E+06    -111.597E+06    -1.32459E+06     59.0865E+03         27.5260
             690     8.75076E-03     31.6989E-03    -42.1475E-03    -236.891E-03    -715.922E-03    -43.3022E-03    -714.768E-03    -236.891E-03     22.8244E-03     56.5952E-03    -28.1991E-03    -28.3761E-03    -27.9210E-03     56.3171E-03    -28.3761E-03     9.68580E-03     1.92024E+06    -17.9570E+06    -133.283E+06    -17.9587E+06    -133.281E+06     1.92024E+06    -346.186E+03         26.3120
             691     7.77804E-03     31.6892E-03    -112.528E-03    -256.437E-03    -630.933E-03    -113.211E-03    -630.250E-03    -256.437E-03    -30.6226E-03     56.7119E-03    -28.2814E-03    -28.4324E-03    -28.0538E-03     56.4843E-03    -28.4324E-03     8.77089E-03     575.249E+03    -20.9106E+06    -152.591E+06    -20.9146E+06    -152.587E+06     575.249E+03    -686.904E+03         25.4644
             692     6.80574E-03     31.6804E-03    -171.032E-03    -272.127E-03    -560.209E-03    -175.546E-03    -555.695E-03    -272.127E-03     30.2476E-03     56.8014E-03    -28.3332E-03    -28.4754E-03    -28.1547E-03     56.6229E-03    -28.4754E-03     7.77005E-03    -2.64220E+06    -24.3756E+06    -171.110E+06    -24.3852E+06    -171.101E+06    -2.64220E+06    -1.10614E+06         24.9660
             693     5.83332E-03     31.6727E-03    -195.868E-03    -285.860E-03    -519.579E-03    -202.290E-03    -513.157E-03    -285.860E-03     18.3091E-03     56.8655E-03    -28.3551E-03    -28.5154E-03    -28.2192E-03     56.7296E-03    -28.5154E-03     6.78531E-03    -7.39962E+06    -28.3588E+06    -190.613E+06    -28.3832E+06    -190.588E+06    -7.39962E+06    -1.90871E+06         24.6996
             694     4.86095E-03     31.6662E-03    -213.815E-03    -299.985E-03    -485.404E-03    -227.509E-03    -471.710E-03    -299.985E-03     36.7290E-03     56.9808E-03    -28.4283E-03    -28.5566E-03    -28.3291E-03     56.8816E-03    -28.5566E-03     5.79081E-03    -12.4358E+06    -33.2355E+06    -214.236E+06    -33.2672E+06    -214.205E+06    -12.4358E+06    -2.31617E+06         24.5288
             695     3.88872E-03     31.6605E-03    -247.964E-03    -312.548E-03    -440.959E-03    -269.552E-03    -419.371E-03    -312.548E-03     20.7607E-03     57.0343E-03    -28.4807E-03    -28.5574E-03    -28.4145E-03     56.9681E-03    -28.5574E-03     4.72675E-03    -20.2723E+06    -38.7197E+06    -232.536E+06    -38.7400E+06    -232.516E+06    -20.2723E+06    -1.83822E+06         24.3996
             696     2.91657E-03     31.6560E-03    -207.287E-03    -322.966E-03    -472.442E-03    -292.516E-03    -387.213E-03    -322.966E-03     134.434E-03     56.9761E-03    -28.4571E-03    -28.5223E-03    -28.4180E-03     56.9370E-03    -28.5223E-03     3.60426E-03    -31.6479E+06    -44.2087E+06    -238.335E+06    -44.2193E+06    -238.324E+06    -31.6479E+06    -1.22794E+06         24.3063
             697     1.94429E-03     31.6530E-03    -129.301E-03    -333.568E-03    -542.723E-03    -311.566E-03    -360.458E-03    -333.568E-03    -34.3406E-03     56.9191E-03    -28.4046E-03    -28.5156E-03    -28.4217E-03     56.9001E-03    -28.4796E-03     2.47950E-03    -42.9360E+06    -49.2449E+06    -241.092E+06    -49.2503E+06    -241.086E+06    -42.9360E+06    -752.662E+03         24.2447
             698     972.362E-06     31.6508E-03     28.3518E-03    -421.595E-03    -614.782E-03    -220.811E-03    -329.731E-03    -457.483E-03     128.731E-03     56.8919E-03    -28.3280E-03    -28.5628E-03    -28.5199E-03     56.8856E-03    -28.3645E-03     1.32212E-03    -50.1614E+06    -53.1169E+06    -242.773E+06    -52.1026E+06    -242.766E+06    -51.1829E+06    -568.943E+03         24.2112
             699     16.5364E-03     30.9425E-03     590.326E-03     7.79976E-03        -1.57864     590.317E-03        -1.57863     7.79976E-03     4.12484E-03     76.3923E-03    -28.3576E-03    -48.0387E-03    -27.7701E-03     56.1237E-03    -28.3576E-03     90.6843E-03     184.196E+06     124.495E+06    -8.32515E+06    -8.32237E+06     184.193E+06     124.495E+06    -344.481E+03         46.8299
             700     15.5621E-03     30.8219E-03     512.875E-03    -24.2035E-03        -1.47251     512.800E-03        -1.47243    -24.2035E-03     17.6097E-03     75.0771E-03    -28.0462E-03    -47.0338E-03    -27.7175E-03     55.7607E-03    -28.0462E-03     87.4549E-03     161.766E+06     48.4750E+06    -15.2129E+06    -15.2102E+06     161.764E+06     48.4750E+06    -142.991E+03         43.7049
             701     14.5878E-03     30.7567E-03     429.484E-03    -55.6431E-03        -1.36174     429.310E-03        -1.36157    -55.6431E-03     13.0060E-03     61.4793E-03    -27.8118E-03    -33.6740E-03    -27.1041E-03     54.9094E-03    -27.8118E-03     46.4467E-03     133.415E+06    -4.16757E+06    -27.2731E+06    -17.5430E+06     133.415E+06    -13.8974E+06     96.9579E+03         39.8593
             702     13.6147E-03     30.7242E-03     336.165E-03    -85.9888E-03        -1.24472     335.933E-03        -1.24449    -85.9888E-03    -1.33329E-03     57.4866E-03    -27.8179E-03    -29.6781E-03    -27.3447E-03     55.1533E-03    -27.8179E-03     27.9104E-03     76.8589E+06    -16.6354E+06    -32.7669E+06    -16.6341E+06     76.8576E+06    -32.7669E+06     175.089E+03         36.2018
             703     12.6417E-03     30.6982E-03     251.476E-03    -114.524E-03        -1.13486     251.131E-03        -1.13452    -114.524E-03    -24.8110E-03     56.8418E-03    -27.9738E-03    -28.8791E-03    -27.5982E-03     55.5609E-03    -27.9738E-03     20.4499E-03     8.48782E+06    -18.5510E+06    -27.6859E+06    -15.5358E+06     2.73952E+06    -24.9528E+06     413.129E+03         33.2519
             704     11.6691E-03     30.6808E-03     179.037E-03    -141.454E-03        -1.03690     178.313E-03        -1.03618    -141.454E-03     10.5476E-03     56.4676E-03    -28.0995E-03    -28.4034E-03    -27.6974E-03     55.7616E-03    -28.0995E-03     15.3681E-03    -12.4474E+06    -17.7326E+06    -48.4089E+06    -14.7224E+06    -48.3835E+06    -15.4830E+06     556.405E+03         30.9444
             705     10.6961E-03     30.6657E-03     117.113E-03    -167.278E-03    -949.989E-03     116.344E-03    -949.221E-03    -167.278E-03     10.1307E-03     56.5239E-03    -28.2059E-03    -28.3295E-03    -27.7908E-03     55.9852E-03    -28.2059E-03     13.4600E-03    -7.40586E+06    -14.9800E+06    -85.3969E+06    -14.9848E+06    -85.3921E+06    -7.40586E+06     510.435E+03         29.0659
             706     9.72353E-03     30.6522E-03     47.4402E-03    -191.753E-03    -857.013E-03     47.0129E-03    -856.586E-03    -191.753E-03    -6.53974E-03     56.6022E-03    -28.2252E-03    -28.3414E-03    -27.8851E-03     56.2139E-03    -28.2931E-03     11.3688E-03    -1.35900E+06    -16.3360E+06    -111.264E+06    -16.3375E+06    -111.262E+06    -1.35900E+06     333.116E+03         27.5127
             707     8.75079E-03     30.6418E-03    -33.4853E-03    -213.353E-03    -756.966E-03    -33.8601E-03    -756.591E-03    -213.353E-03     8.38684E-03     56.6160E-03    -28.2321E-03    -28.3651E-03    -27.9587E-03     56.3425E-03    -28.3651E-03     9.61099E-03     1.85513E+06    -18.6248E+06    -132.741E+06    -18.6258E+06    -132.740E+06     1.85513E+06     102.313E+03         26.3021
             708     7.77842E-03     30.6317E-03    -94.4495E-03    -231.573E-03    -682.089E-03    -95.1927E-03    -681.346E-03    -231.573E-03    -31.8240E-03     56.6885E-03    -28.2728E-03    -28.4160E-03    -28.0456E-03     56.4613E-03    -28.4160E-03     8.76040E-03     99.3619E+03    -21.5838E+06    -152.328E+06    -21.5848E+06    -152.327E+06     99.3619E+03    -209.021E+03         25.4579
             709     6.80584E-03     30.6230E-03    -114.576E-03    -249.147E-03    -647.037E-03    -119.154E-03    -642.459E-03    -249.147E-03     34.4784E-03     56.7341E-03    -28.2773E-03    -28.4626E-03    -28.1002E-03     56.5570E-03    -28.4626E-03     7.73434E-03    -2.89856E+06    -24.9327E+06    -170.871E+06    -24.9352E+06    -170.869E+06    -2.89856E+06    -504.838E+03         24.9623
             710     5.83330E-03     30.6153E-03    -159.393E-03    -266.855E-03    -585.962E-03    -163.650E-03    -581.705E-03    -266.855E-03     50.7813E-03     56.8385E-03    -28.3369E-03    -28.5065E-03    -28.2021E-03     56.7037E-03    -28.5065E-03     6.75708E-03    -7.51592E+06    -29.2226E+06    -190.213E+06    -29.2301E+06    -190.205E+06    -7.51592E+06    -791.587E+03         24.6983
             711     4.86101E-03     30.6086E-03    -225.467E-03    -283.998E-03    -504.576E-03    -234.321E-03    -499.866E-03    -279.854E-03     28.5929E-03     56.9898E-03    -28.4507E-03    -28.5445E-03    -28.3534E-03     56.8925E-03    -28.5445E-03     5.73427E-03    -12.8130E+06    -34.6094E+06    -214.601E+06    -34.6186E+06    -214.592E+06    -12.8130E+06    -995.326E+03         24.5292
             712     3.88891E-03     30.6032E-03    -229.303E-03    -292.507E-03    -489.507E-03    -255.372E-03    -467.582E-03    -288.363E-03    -56.2485E-03     56.9900E-03    -28.4532E-03    -28.5412E-03    -28.3892E-03     56.9260E-03    -28.5412E-03     4.64631E-03    -21.1653E+06    -40.4269E+06    -233.613E+06    -40.4315E+06    -233.609E+06    -21.1653E+06    -778.460E+03         24.3998
             713     2.91657E-03     30.5986E-03    -190.925E-03    -302.672E-03    -516.660E-03    -240.565E-03    -467.020E-03    -302.672E-03     39.1573E-03     56.9217E-03    -28.4203E-03    -28.5044E-03    -28.3819E-03     56.8832E-03    -28.5044E-03     3.57721E-03    -33.3007E+06    -45.2326E+06    -239.221E+06    -45.2338E+06    -239.219E+06    -33.3007E+06    -332.711E+03         24.3057
             714     1.94441E-03     30.5955E-03    -133.344E-03    -331.106E-03    -549.038E-03    -258.241E-03    -424.141E-03    -331.106E-03    -98.9038E-03     56.9336E-03    -28.4273E-03    -28.5090E-03    -28.4619E-03     56.9138E-03    -28.4546E-03     2.55539E-03    -43.1388E+06    -48.6498E+06    -241.487E+06    -48.6501E+06    -241.486E+06    -43.1388E+06    -167.805E+03         24.2437
             715     972.191E-06     30.5932E-03    -2.98886E-03    -421.904E-03    -582.878E-03    -225.218E-03    -309.350E-03    -473.203E-03     48.3982E-03     56.8280E-03    -28.3287E-03    -28.4993E-03    -28.4926E-03     56.8213E-03    -28.3287E-03     1.26182E-03    -49.4578E+06    -51.5006E+06    -243.418E+06    -51.5017E+06    -243.417E+06    -49.4578E+06     107.776E+03         24.2092
             716     16.5352E-03     29.8840E-03     609.809E-03     32.9056E-03        -1.63830     609.654E-03        -1.63815     32.9056E-03     27.6122E-03     76.4283E-03    -28.3624E-03    -48.0726E-03    -27.7641E-03     56.1197E-03    -28.3624E-03     90.8861E-03     183.712E+06     124.361E+06    -8.76961E+06    -8.76855E+06     183.711E+06     124.361E+06    -49.9852E+03         46.7964
             717     15.5622E-03     29.7654E-03     513.331E-03     2.59796E-03        -1.51613     513.273E-03        -1.51607     2.59796E-03     15.5980E-03     75.2045E-03    -28.0472E-03    -47.1596E-03    -27.8673E-03     55.9122E-03    -28.0472E-03     87.5744E-03     161.960E+06     48.4931E+06    -15.0694E+06    -15.0676E+06     161.958E+06     48.4931E+06     444.280E+03         43.6730
             718     14.5884E-03     29.6998E-03     435.938E-03    -26.6808E-03        -1.41186     435.847E-03        -1.41177    -26.6808E-03     2.74613E-03     61.6234E-03    -27.8094E-03    -33.8183E-03    -27.1865E-03     54.9916E-03    -27.8094E-03     46.6962E-03     133.652E+06    -4.72909E+06    -26.4283E+06    -17.6679E+06     133.650E+06    -13.4878E+06     113.307E+03         39.8296
             719     13.6149E-03     29.6665E-03     366.997E-03    -55.9538E-03        -1.31718     366.831E-03        -1.31702    -55.9538E-03    -8.97704E-03     57.4720E-03    -27.8128E-03    -29.6692E-03    -27.3618E-03     55.1647E-03    -27.8128E-03     27.7387E-03     76.7576E+06    -17.1570E+06    -32.2530E+06    -17.1563E+06     76.7569E+06    -32.2530E+06    -54.9543E+03         36.1749
             720     12.6422E-03     29.6409E-03     280.471E-03    -84.2444E-03        -1.20421     280.312E-03        -1.20405    -84.2444E-03    -8.41405E-03     56.7981E-03    -27.9640E-03    -28.8507E-03    -27.5914E-03     55.5388E-03    -27.9640E-03     20.2886E-03     8.40480E+06    -18.7328E+06    -27.9390E+06    -15.9057E+06     2.70886E+06    -25.0702E+06     95.3414E+03         33.2280
             721     11.6690E-03     29.6234E-03     184.911E-03    -109.916E-03        -1.08557     184.639E-03        -1.08530    -109.916E-03     20.7400E-03     56.4483E-03    -28.0901E-03    -28.4007E-03    -27.6981E-03     55.7457E-03    -28.0901E-03     15.3280E-03    -12.8596E+06    -18.3859E+06    -48.6465E+06    -15.5622E+06    -48.6429E+06    -15.6868E+06     255.755E+03         30.9235
             722     10.6964E-03     29.6085E-03     122.716E-03    -133.260E-03        -1.00129     121.924E-03        -1.00049    -133.260E-03    -13.6194E-03     56.5163E-03    -28.1949E-03    -28.3348E-03    -27.7929E-03     55.9744E-03    -28.1949E-03     13.5032E-03    -7.62900E+06    -15.8796E+06    -85.2747E+06    -15.8845E+06    -85.2697E+06    -7.62900E+06     495.365E+03         29.0481
             723     9.72352E-03     29.5949E-03     76.9733E-03    -155.976E-03    -935.240E-03     76.2775E-03    -934.544E-03    -155.976E-03    -22.3720E-03     56.5905E-03    -28.2399E-03    -28.3137E-03    -27.8804E-03     56.1983E-03    -28.2810E-03     11.4140E-03    -1.54729E+06    -17.0812E+06    -110.955E+06    -17.0843E+06    -110.952E+06    -1.54729E+06     529.407E+03         27.4982
             724     8.75110E-03     29.5843E-03     12.7899E-03    -177.731E-03    -852.058E-03     12.6290E-03    -851.897E-03    -177.731E-03     21.5969E-03     56.6108E-03    -28.2398E-03    -28.3520E-03    -27.9646E-03     56.3356E-03    -28.3520E-03     9.64451E-03     1.78552E+06    -19.0991E+06    -132.494E+06    -19.1011E+06    -132.492E+06     1.78552E+06     445.788E+03         26.2912
             725     7.77837E-03     29.5744E-03    -46.0819E-03    -197.322E-03    -773.212E-03    -47.2107E-03    -772.083E-03    -197.322E-03    -26.9271E-03     56.6523E-03    -28.2515E-03    -28.4007E-03    -28.0198E-03     56.4206E-03    -28.4007E-03     8.84379E-03     -182.67E+03    -21.8724E+06    -152.085E+06    -21.8731E+06    -152.084E+06     -182.67E+03     214.261E+03         25.4509
             726     6.80588E-03     29.5657E-03    -84.6518E-03    -215.601E-03    -719.330E-03    -86.4878E-03    -717.494E-03    -215.601E-03    -19.7044E-03     56.7424E-03    -28.3019E-03    -28.4452E-03    -28.1237E-03     56.5641E-03    -28.4452E-03     7.75757E-03    -3.26517E+06    -25.3335E+06    -170.809E+06    -25.3340E+06    -170.808E+06    -3.26517E+06     42.5608E+03         24.9590
             727     5.83352E-03     29.5579E-03    -138.820E-03    -232.224E-03    -652.355E-03    -139.613E-03    -651.563E-03    -232.224E-03     20.8725E-03     56.8367E-03    -28.3583E-03    -28.4835E-03    -28.2241E-03     56.7025E-03    -28.4835E-03     6.74117E-03    -7.75536E+06    -29.1933E+06    -190.205E+06    -29.1940E+06    -190.205E+06    -7.75536E+06     156.145E+03         24.6970
             728     4.86118E-03     29.5511E-03    -206.831E-03    -246.935E-03    -571.759E-03    -211.342E-03    -571.391E-03    -242.792E-03     17.8505E-03     56.9097E-03    -28.3947E-03    -28.5212E-03    -28.2981E-03     56.8131E-03    -28.5212E-03     5.70796E-03    -12.9113E+06    -33.4591E+06    -214.411E+06    -33.4601E+06    -214.410E+06    -12.9113E+06     105.046E+03         24.5281
             729     3.88885E-03     29.5456E-03    -217.081E-03    -251.112E-03    -560.625E-03    -236.808E-03    -545.042E-03    -246.968E-03    -89.9612E-03     56.9446E-03    -28.4170E-03    -28.5310E-03    -28.3538E-03     56.8815E-03    -28.5310E-03     4.61366E-03    -19.9790E+06    -37.9612E+06    -233.735E+06    -37.9648E+06    -233.732E+06    -19.9790E+06    -446.804E+03         24.3980
             730     2.91662E-03     29.5414E-03    -194.808E-03    -252.499E-03    -580.483E-03    -225.684E-03    -549.606E-03    -252.499E-03     477.884E-06     56.9510E-03    -28.4484E-03    -28.5046E-03    -28.4106E-03     56.9120E-03    -28.5034E-03     3.61449E-03    -30.0048E+06    -41.6884E+06    -239.856E+06    -41.6924E+06    -239.852E+06    -30.0048E+06    -684.033E+03         24.3024
             731     1.94435E-03     29.5379E-03    -161.883E-03    -262.401E-03    -604.910E-03    -253.927E-03    -517.586E-03    -257.682E-03    -108.625E-03     56.8991E-03    -28.4149E-03    -28.4877E-03    -28.4144E-03     56.8791E-03    -28.4682E-03     2.55385E-03    -38.6319E+06    -44.3603E+06    -241.966E+06    -44.3616E+06    -241.965E+06    -38.6319E+06    -194.875E+03         24.2387
             732     972.326E-06     29.5359E-03    -35.2150E-03    -346.746E-03    -651.113E-03    -159.357E-03    -516.279E-03    -357.438E-03     11.6855E-03     56.8889E-03    -28.3571E-03    -28.5324E-03    -28.4804E-03     56.8827E-03    -28.4030E-03     1.23228E-03    -44.4291E+06    -46.3634E+06    -243.618E+06     -46.365E+06    -243.616E+06    -44.4291E+06    -188.621E+03         24.2037
             733     16.5359E-03     28.8274E-03     605.315E-03     65.6281E-03        -1.68273     605.094E-03        -1.68251     65.6281E-03     34.3670E-03     76.1733E-03    -28.3654E-03    -47.8039E-03    -27.6403E-03     56.0097E-03    -28.3654E-03     90.2891E-03     182.730E+06     124.503E+06    -9.16534E+06    -9.16456E+06     182.729E+06     124.503E+06     79.5769E+03         46.7610
             734     15.5612E-03     28.7074E-03     530.426E-03     37.7234E-03        -1.57944     530.331E-03        -1.57934     37.7234E-03     17.3746E-03     75.1946E-03    -28.0610E-03    -47.1323E-03    -27.8767E-03     55.9390E-03    -28.0610E-03     87.3982E-03     162.065E+06     49.8917E+06    -14.8890E+06    -14.8872E+06     162.063E+06     49.8917E+06     474.386E+03         43.6388
             735     14.5883E-03     28.6428E-03     456.788E-03     10.0765E-03        -1.48278     456.711E-03        -1.48270     10.0765E-03     20.1754E-03     61.8528E-03    -27.8075E-03    -34.0505E-03    -27.4461E-03     55.2484E-03    -27.8075E-03     46.8025E-03     134.649E+06    -3.38590E+06    -26.3381E+06    -17.0296E+06     134.645E+06    -12.6901E+06     532.705E+03         39.7977
             736     13.6153E-03     28.6088E-03     386.482E-03    -17.7497E-03        -1.38663     386.433E-03        -1.38659    -17.7497E-03     14.3977E-03     57.4596E-03    -27.7968E-03    -29.6703E-03    -27.3494E-03     55.1387E-03    -27.7968E-03     27.8043E-03     76.8675E+06    -17.3375E+06    -32.6576E+06    -17.3326E+06     76.8626E+06    -32.6576E+06     45.0619E+03         36.1463
             737     12.6420E-03     28.5838E-03     306.379E-03    -44.6773E-03        -1.28139     306.325E-03        -1.28134    -44.6773E-03     15.7312E-03     56.7025E-03    -27.9528E-03    -28.7665E-03    -27.5027E-03     55.4386E-03    -27.9528E-03     20.3300E-03     8.42587E+06    -19.4362E+06    -28.2819E+06    -16.3893E+06     2.54931E+06    -25.4522E+06    -59.3815E+03         33.2024
             738     11.6693E-03     28.5661E-03     220.202E-03    -69.4450E-03        -1.17035     219.742E-03        -1.16989    -69.4450E-03     41.2419E-03     56.4594E-03    -28.0823E-03    -28.4224E-03    -27.7112E-03     55.7482E-03    -28.0823E-03     15.4118E-03    -13.0810E+06    -19.0403E+06    -49.1396E+06    -15.9968E+06    -49.1369E+06    -16.1273E+06     244.519E+03         30.9009
             739     10.6964E-03     28.5514E-03     149.634E-03    -91.7914E-03        -1.07620     148.691E-03        -1.07526    -91.7914E-03     14.3689E-03     56.5233E-03    -28.1856E-03    -28.3502E-03    -27.8061E-03     55.9792E-03    -28.1856E-03     13.5379E-03    -8.00575E+06    -16.5624E+06    -85.3008E+06    -16.5654E+06    -85.2979E+06    -8.00575E+06     405.733E+03         29.0288
             740     9.72378E-03     28.5375E-03     99.2866E-03    -112.681E-03        -1.00649     97.4334E-03        -1.00464    -112.681E-03     24.9698E-03     56.5708E-03    -28.2157E-03    -28.3157E-03    -27.8576E-03     56.1686E-03    -28.2715E-03     11.5613E-03    -1.96465E+06    -17.6378E+06    -111.047E+06    -17.6409E+06    -111.044E+06    -1.96465E+06     519.419E+03         27.4824
             741     8.75096E-03     28.5271E-03     59.5238E-03    -133.344E-03    -947.736E-03     58.1388E-03    -946.351E-03    -133.344E-03     50.8659E-03     56.6066E-03    -28.2432E-03    -28.3446E-03    -27.9656E-03     56.3290E-03    -28.3446E-03     9.67963E-03     1.76941E+06    -19.4618E+06    -132.408E+06    -19.4648E+06    -132.405E+06     1.76941E+06     567.895E+03         26.2793
             742     7.77854E-03     28.5172E-03     3.20684E-03    -153.253E-03    -873.158E-03     2.25013E-03    -872.201E-03    -153.253E-03    -23.4448E-03     56.6864E-03    -28.3007E-03    -28.3881E-03    -28.0705E-03     56.4562E-03    -28.3881E-03     8.82304E-03    -271.561E+03    -22.1897E+06    -151.589E+06    -22.1921E+06    -151.586E+06    -271.561E+03     532.828E+03         25.4436
             743     6.80603E-03     28.5082E-03    -72.3831E-03    -169.362E-03    -783.043E-03    -73.9773E-03    -781.449E-03    -169.362E-03    -16.5109E-03     56.7665E-03    -28.3510E-03    -28.4215E-03    -28.1725E-03     56.5879E-03    -28.4215E-03     7.76363E-03    -3.88186E+06    -25.4379E+06    -170.890E+06    -25.4389E+06    -170.889E+06    -3.88186E+06     325.798E+03         24.9556
             744     5.83372E-03     28.5005E-03    -111.286E-03    -181.570E-03    -734.292E-03    -112.168E-03    -733.411E-03    -181.570E-03     30.8282E-03     56.8005E-03    -28.3532E-03    -28.4536E-03    -28.2207E-03     56.6680E-03    -28.4536E-03     6.69683E-03    -8.20686E+06    -28.6715E+06    -190.423E+06    -28.6727E+06    -190.422E+06    -8.20686E+06     387.798E+03         24.6953
             745     4.86128E-03     28.4937E-03    -126.540E-03    -193.613E-03    -711.867E-03    -127.588E-03    -710.820E-03    -193.613E-03     44.6747E-03     56.8160E-03    -28.3300E-03    -28.4922E-03    -28.2346E-03     56.7206E-03    -28.4922E-03     5.66755E-03    -13.2302E+06    -31.9500E+06    -213.743E+06    -31.9524E+06    -213.741E+06    -13.2302E+06     162.283E+03         24.5263
             746     3.88889E-03     28.4883E-03    -169.727E-03    -206.759E-03    -656.493E-03    -185.975E-03    -645.058E-03    -201.947E-03    -58.1618E-03     56.9075E-03    -28.3980E-03    -28.5125E-03    -28.3349E-03     56.8443E-03    -28.5125E-03     4.61372E-03    -19.0945E+06    -35.3334E+06    -233.163E+06    -35.3404E+06    -233.156E+06    -19.0945E+06     -896.52E+03         24.3951
             747     2.91665E-03     28.4839E-03    -191.938E-03    -210.486E-03    -632.493E-03    -231.020E-03    -605.607E-03    -198.291E-03     26.7327E-03     56.9511E-03    -28.4579E-03    -28.4955E-03    -28.4208E-03     56.9127E-03    -28.4942E-03     3.57754E-03    -27.3559E+06    -39.1991E+06    -240.298E+06    -39.2085E+06    -240.289E+06    -27.3559E+06    -1.35967E+06         24.2972
             748     1.94456E-03     28.4807E-03    -163.673E-03    -197.447E-03    -679.520E-03    -214.684E-03    -640.609E-03    -185.346E-03    -24.2467E-03     56.8615E-03    -28.4017E-03    -28.4635E-03    -28.3846E-03     56.8432E-03    -28.4623E-03     2.42753E-03    -35.9512E+06    -42.0578E+06    -243.170E+06    -42.0664E+06    -243.161E+06    -35.9512E+06    -1.01904E+06         24.2317
             749     971.862E-06     28.4788E-03    -29.8848E-03    -278.411E-03    -729.334E-03    -82.0852E-03    -681.852E-03    -273.692E-03     53.5987E-03     56.8806E-03    -28.3176E-03    -28.5639E-03    -28.5098E-03     56.8746E-03    -28.3658E-03     1.31476E-03    -41.4576E+06    -43.4472E+06    -244.150E+06    -43.0887E+06    -244.142E+06    -41.8244E+06    -377.518E+03         24.1973
             750     16.5361E-03     27.7709E-03     613.269E-03     105.705E-03        -1.73068     612.947E-03        -1.73036     105.705E-03     41.2290E-03     76.2443E-03    -28.3630E-03    -47.8682E-03    -27.8258E-03     56.2018E-03    -28.3630E-03     90.0961E-03     182.778E+06     124.273E+06    -8.96060E+06    -8.96016E+06     182.777E+06     124.273E+06     242.720E+03         46.7245
             751     15.5620E-03     27.6507E-03     551.311E-03     79.9656E-03        -1.64743     551.109E-03        -1.64723     79.9656E-03     30.5298E-03     75.1788E-03    -28.0548E-03    -47.1232E-03    -27.9041E-03     55.9597E-03    -28.0548E-03     87.3569E-03     161.323E+06     49.9075E+06    -15.4220E+06    -15.4185E+06     161.319E+06     49.9075E+06     509.079E+03         43.6042
             752     14.5883E-03     27.5845E-03     480.059E-03     54.1308E-03        -1.55857     479.874E-03        -1.55838     54.1308E-03     16.5373E-03     61.6228E-03    -27.8021E-03    -33.8286E-03    -27.2520E-03     55.0462E-03    -27.8021E-03     46.5694E-03     135.029E+06    -3.24731E+06    -26.3781E+06    -17.4852E+06     135.023E+06    -12.1342E+06     771.804E+03         39.7647
             753     13.6153E-03     27.5520E-03     398.261E-03     28.5447E-03        -1.45607     398.184E-03        -1.45599     28.5447E-03     3.26224E-03     57.3914E-03    -27.7983E-03    -29.5995E-03    -27.2681E-03     55.0600E-03    -27.7983E-03     27.8733E-03     77.7053E+06    -16.9696E+06    -32.2278E+06    -16.9634E+06     77.6991E+06    -32.2278E+06     288.148E+03         36.1158
             754     12.6422E-03     27.5265E-03     328.638E-03     4.09662E-03        -1.36169     328.590E-03        -1.36164     4.09662E-03     13.6544E-03     56.7631E-03    -27.9541E-03    -28.8208E-03    -27.5248E-03     55.4671E-03    -27.9541E-03     20.5845E-03     7.67377E+06    -19.5355E+06    -28.7521E+06    -16.6327E+06     1.92556E+06    -25.9067E+06     112.850E+03         33.1751
             755     11.6691E-03     27.5089E-03     277.129E-03    -19.7862E-03        -1.28757     276.713E-03        -1.28715    -19.7862E-03     34.0352E-03     56.5044E-03    -28.0813E-03    -28.4631E-03    -27.7414E-03     55.7827E-03    -28.0813E-03     15.5311E-03    -13.5855E+06    -19.3665E+06    -49.4366E+06    -16.4686E+06    -49.4323E+06    -16.4876E+06     277.352E+03         30.8767
             756     10.6965E-03     27.4941E-03     213.963E-03    -43.0093E-03        -1.20340     213.148E-03        -1.20259    -43.0093E-03     15.4939E-03     56.5641E-03    -28.1820E-03    -28.3914E-03    -27.8456E-03     56.0183E-03    -28.1820E-03     13.5626E-03    -8.12359E+06    -16.6745E+06    -85.3690E+06    -16.6767E+06    -85.3668E+06    -8.12359E+06     342.221E+03         29.0079
             757     9.72364E-03     27.4805E-03     134.090E-03    -63.7882E-03        -1.10376     132.233E-03        -1.10191    -63.7882E-03     34.9738E-03     56.5995E-03    -28.2233E-03    -28.3363E-03    -27.8946E-03     56.1989E-03    -28.2644E-03     11.5462E-03    -2.15350E+06    -17.7087E+06    -111.305E+06    -17.7105E+06    -111.303E+06    -2.15350E+06     397.835E+03         27.4652
             758     8.75110E-03     27.4696E-03     77.9234E-03    -81.8043E-03        -1.03175     76.3597E-03        -1.03019    -81.8043E-03     42.9593E-03     56.6285E-03    -28.2794E-03    -28.3326E-03    -28.0049E-03     56.3540E-03    -28.3326E-03     9.62668E-03     1.47900E+06    -19.7369E+06    -132.506E+06    -19.7393E+06    -132.504E+06     1.47900E+06     511.908E+03         26.2664
             759     7.77863E-03     27.4599E-03     39.3084E-03    -98.6696E-03    -982.777E-03     39.0564E-03    -982.525E-03    -98.6696E-03    -12.7641E-03     56.7165E-03    -28.3473E-03    -28.3736E-03    -28.1262E-03     56.4903E-03    -28.3684E-03     8.75269E-03    -410.119E+03    -22.2877E+06    -151.326E+06    -22.2908E+06    -151.323E+06    -410.119E+03     618.006E+03         25.4357
             760     6.80626E-03     27.4508E-03    -18.4962E-03    -113.502E-03    -915.343E-03    -19.3256E-03    -914.513E-03    -113.502E-03     20.7018E-03     56.7386E-03    -28.3464E-03    -28.3991E-03    -28.1735E-03     56.5605E-03    -28.3939E-03     7.75203E-03    -4.12125E+06    -25.1093E+06    -170.746E+06    -25.1113E+06    -170.744E+06    -4.12125E+06     479.415E+03         24.9517
             761     5.83383E-03     27.4431E-03    -60.1003E-03    -125.114E-03    -863.215E-03    -61.2099E-03    -862.105E-03    -125.114E-03     21.7885E-03     56.7489E-03    -28.3321E-03    -28.4229E-03    -28.2018E-03     56.6185E-03    -28.4229E-03     6.63678E-03    -8.65842E+06    -28.2300E+06    -190.444E+06    -28.2315E+06    -190.443E+06    -8.65842E+06     235.888E+03         24.6928
             762     4.86144E-03     27.4365E-03    -61.1852E-03    -137.473E-03    -847.761E-03    -63.4394E-03    -845.507E-03    -137.473E-03     49.1178E-03     56.7954E-03    -28.3472E-03    -28.4532E-03    -28.2548E-03     56.7029E-03    -28.4532E-03     5.57992E-03    -13.8425E+06    -31.4040E+06    -212.801E+06    -31.4067E+06    -212.798E+06    -13.8425E+06    -353.366E+03         24.5239
             763     3.88903E-03     27.4310E-03    -89.3290E-03    -155.805E-03    -796.888E-03    -99.6144E-03    -791.416E-03    -150.993E-03     5.28921E-03     56.8253E-03    -28.3614E-03    -28.4675E-03    -28.2995E-03     56.7634E-03    -28.4675E-03     4.56660E-03    -19.9606E+06    -35.1012E+06    -232.578E+06    -35.1080E+06    -232.571E+06    -19.9606E+06    -1.12804E+06         24.3914
             764     2.91682E-03     27.4264E-03    -126.922E-03    -169.890E-03    -744.111E-03    -154.748E-03    -728.481E-03    -157.695E-03     56.8194E-03     56.8478E-03    -28.3884E-03    -28.4620E-03    -28.3506E-03     56.8099E-03    -28.4620E-03     3.54804E-03    -27.6624E+06    -38.6378E+06    -241.072E+06    -38.6512E+06    -241.058E+06    -27.6624E+06    -1.61729E+06         24.2917
             765     1.94438E-03     27.4235E-03    -127.095E-03    -166.896E-03    -751.697E-03    -155.855E-03    -730.991E-03    -158.842E-03     861.198E-06     56.8632E-03    -28.4010E-03    -28.4641E-03    -28.4228E-03     56.8453E-03    -28.4245E-03     2.39124E-03    -35.2370E+06    -41.7705E+06    -244.334E+06    -41.7841E+06    -244.321E+06    -35.2370E+06    -1.53843E+06         24.2267
             766     972.629E-06     27.4213E-03    -53.7850E-03    -239.166E-03    -761.386E-03    -80.5886E-03    -735.254E-03    -238.494E-03     55.9741E-03     56.7471E-03    -28.2872E-03    -28.4599E-03    -28.4517E-03     56.7413E-03    -28.2895E-03     1.32934E-03    -42.1241E+06    -45.0766E+06    -245.263E+06    -44.7186E+06    -245.254E+06    -42.4909E+06    -598.320E+03         24.1930
             767     16.5352E-03     26.7127E-03     648.021E-03     153.638E-03        -1.82943     647.441E-03        -1.82885     153.638E-03    -7.36210E-03     76.5294E-03    -28.3712E-03    -48.1339E-03    -27.9325E-03     56.3280E-03    -28.3712E-03     90.8444E-03     182.935E+06     123.365E+06    -9.12062E+06    -9.11347E+06     182.928E+06     123.365E+06     796.486E+03         46.6861
             768     15.5627E-03     26.5932E-03     573.442E-03     130.008E-03        -1.73935     573.153E-03        -1.73906     130.008E-03     4.12516E-03     75.4296E-03    -28.0462E-03    -47.3811E-03    -28.2144E-03     56.2629E-03    -28.0462E-03     87.5972E-03     162.024E+06     49.2061E+06    -14.9548E+06    -14.9448E+06     162.014E+06     49.2061E+06     850.358E+03         43.5686
             769     14.5888E-03     26.5279E-03     492.875E-03     107.018E-03        -1.63588     492.683E-03        -1.63569     107.018E-03    -5.50874E-03     61.5179E-03    -27.7927E-03    -33.7353E-03    -27.0609E-03     54.8435E-03    -27.7927E-03     46.8891E-03     134.761E+06    -3.32451E+06    -25.8828E+06    -16.7776E+06     134.757E+06    -12.4257E+06     445.296E+03         39.7316
             770     13.6147E-03     26.4945E-03     425.614E-03     84.1264E-03        -1.54832     425.514E-03        -1.54822     84.1264E-03    -8.29354E-03     57.3473E-03    -27.8046E-03    -29.5518E-03    -27.1907E-03     54.9862E-03    -27.8046E-03     27.9895E-03     77.3772E+06    -16.5493E+06    -32.3159E+06    -16.5407E+06     77.3685E+06    -32.3159E+06     585.108E+03         36.0848
             771     12.6418E-03     26.4694E-03     371.323E-03     61.4677E-03        -1.47390     371.269E-03        -1.47385     61.4677E-03     1.58776E-03     56.8536E-03    -27.9603E-03    -28.9067E-03    -27.6284E-03     55.5753E-03    -27.9603E-03     20.4514E-03     7.95985E+06    -19.1129E+06    -28.9026E+06    -16.2308E+06     1.95341E+06    -25.7782E+06     539.885E+03         33.1467
             772     11.6692E-03     26.4515E-03     320.849E-03     38.9146E-03        -1.40514     320.666E-03        -1.40496     38.9146E-03     16.6389E-03     56.5284E-03    -28.0798E-03    -28.4867E-03    -27.7784E-03     55.8201E-03    -28.0798E-03     15.3966E-03    -13.7122E+06    -18.9685E+06    -49.5434E+06    -16.0948E+06    -49.5405E+06    -16.5889E+06     205.537E+03         30.8511
             773     10.6963E-03     26.4368E-03     261.917E-03     16.9917E-03        -1.32706     261.373E-03        -1.32651     16.9917E-03    -4.81981E-03     56.6111E-03    -28.1753E-03    -28.4443E-03    -27.9054E-03     56.0722E-03    -28.1753E-03     13.4827E-03    -8.40827E+06    -16.4474E+06    -85.5291E+06    -16.4485E+06    -85.5279E+06    -8.40827E+06     248.983E+03         28.9854
             774     9.72395E-03     26.4230E-03     194.407E-03    -3.12489E-03        -1.24310     193.831E-03        -1.24252    -3.12489E-03    -5.28181E-03     56.6662E-03    -28.2442E-03    -28.3834E-03    -27.9836E-03     56.2735E-03    -28.2513E-03     11.4403E-03    -2.23728E+06    -17.5731E+06    -111.235E+06    -17.5754E+06    -111.233E+06    -2.23728E+06     419.730E+03         27.4465
             775     8.75133E-03     26.4125E-03     132.672E-03    -20.7606E-03        -1.16946     132.359E-03        -1.16915    -20.7606E-03     7.71902E-03     56.6435E-03    -28.2966E-03    -28.3307E-03    -28.0455E-03     56.3707E-03    -28.3091E-03     9.60419E-03     954.008E+03    -19.6084E+06    -132.713E+06    -19.6107E+06    -132.710E+06     954.008E+03     482.276E+03         26.2522
             776     7.77887E-03     26.4024E-03     79.1581E-03    -35.8227E-03        -1.10662     78.9807E-03        -1.10644    -35.8227E-03    -2.95635E-03     56.6933E-03    -28.3361E-03    -28.3631E-03    -28.1346E-03     56.4702E-03    -28.3415E-03     8.68464E-03    -424.495E+03    -22.0385E+06    -151.538E+06    -22.0411E+06    -151.536E+06    -424.495E+03     572.374E+03         25.4271
             777     6.80643E-03     26.3935E-03     41.5371E-03    -48.8658E-03        -1.05811     41.2030E-03        -1.05778    -48.8658E-03     33.5352E-03     56.6848E-03    -28.3212E-03    -28.3723E-03    -28.1579E-03     56.5130E-03    -28.3637E-03     7.61705E-03    -3.84772E+06    -24.7876E+06    -170.374E+06    -24.7901E+06    -170.371E+06    -3.84772E+06     552.618E+03         24.9474
             778     5.83398E-03     26.3859E-03     10.6293E-03    -60.6789E-03        -1.01217     10.0074E-03        -1.01154    -60.6789E-03    -3.26694E-03     56.6948E-03    -28.3122E-03    -28.3876E-03    -28.1840E-03     56.5665E-03    -28.3876E-03     6.57813E-03    -8.84760E+06    -27.9330E+06    -189.849E+06    -27.9340E+06    -189.848E+06    -8.84760E+06     27.9140E+03         24.6896
             779     4.86165E-03     26.3793E-03    -11.9700E-03    -71.9618E-03    -977.506E-03    -13.5773E-03    -975.899E-03    -71.9618E-03     9.26635E-03     56.7620E-03    -28.3542E-03    -28.4122E-03    -28.2623E-03     56.6700E-03    -28.4122E-03     5.56830E-03    -14.1749E+06    -31.2415E+06    -212.280E+06    -31.2427E+06    -212.279E+06    -14.1749E+06    -442.300E+03         24.5206
             780     3.88943E-03     26.3738E-03    -13.9445E-03    -86.2645E-03    -961.367E-03    -15.5261E-03    -959.785E-03    -86.2645E-03     9.71799E-03     56.7586E-03    -28.3464E-03    -28.4173E-03    -28.2844E-03     56.6967E-03    -28.4173E-03     4.56152E-03    -20.4833E+06    -34.5749E+06    -232.026E+06    -34.5811E+06    -232.020E+06    -20.4833E+06    -996.978E+03         24.3876
             781     2.91678E-03     26.3695E-03    -35.5102E-03    -106.178E-03    -916.655E-03    -37.9107E-03    -914.254E-03    -106.178E-03     18.7843E-03     56.7486E-03    -28.3413E-03    -28.4105E-03    -28.3036E-03     56.7108E-03    -28.4105E-03     3.54443E-03    -28.3058E+06    -38.2136E+06    -241.555E+06    -38.2256E+06    -241.543E+06    -28.3058E+06    -1.48384E+06         24.2875
             782     1.94468E-03     26.3659E-03    -90.5799E-03    -126.341E-03    -839.379E-03    -108.271E-03    -827.680E-03    -120.349E-03    -67.2045E-03     56.7604E-03    -28.3364E-03    -28.4252E-03    -28.3579E-03     56.7423E-03    -28.3855E-03     2.40140E-03    -35.9695E+06    -41.9749E+06    -245.918E+06    -41.9852E+06    -245.908E+06    -35.9695E+06    -1.30368E+06         24.2232
             783     972.174E-06     26.3642E-03    -41.3330E-03    -182.587E-03    -834.068E-03    -69.8342E-03    -811.559E-03    -176.595E-03    -61.1699E-03     56.6854E-03    -28.2418E-03    -28.4438E-03    -28.4126E-03     56.6800E-03    -28.2676E-03     1.24287E-03    -42.5865E+06    -44.9859E+06    -246.338E+06    -44.9912E+06    -246.332E+06    -42.5865E+06    -860.581E+03         24.1891
             784     16.5347E-03     25.6540E-03     658.950E-03     209.155E-03        -1.91426     658.446E-03        -1.91375     209.155E-03    -11.4176E-03     76.4257E-03    -28.3725E-03    -48.0136E-03    -27.7325E-03     56.1446E-03    -28.3725E-03     90.9319E-03     182.627E+06     123.113E+06    -8.42565E+06    -8.41448E+06     182.615E+06     123.113E+06     1.12148E+06         46.6469
             785     15.5614E-03     25.5354E-03     597.932E-03     188.509E-03        -1.83442     597.626E-03        -1.83411     188.509E-03     6.19200E-03     75.1358E-03    -28.0526E-03    -47.0730E-03    -28.0796E-03     56.1425E-03    -28.0526E-03     86.9044E-03     162.558E+06     48.4673E+06    -13.9399E+06    -13.9325E+06     162.551E+06     48.4673E+06     631.989E+03         43.5321
             786     14.5882E-03     25.4713E-03     531.806E-03     167.778E-03        -1.74898     531.589E-03        -1.74876     167.778E-03     14.7778E-03     61.6839E-03    -27.7942E-03    -33.8986E-03    -27.3166E-03     55.1020E-03    -27.7942E-03     46.7441E-03     134.446E+06    -4.17398E+06    -26.1181E+06    -16.4078E+06     134.442E+06    -13.8802E+06     530.097E+03         39.6986
             787     13.6151E-03     25.4373E-03     467.404E-03     146.592E-03        -1.66732     467.254E-03        -1.66717     146.592E-03     14.6903E-03     57.4798E-03    -27.7968E-03    -29.6919E-03    -27.3306E-03     55.1184E-03    -27.7968E-03     28.0162E-03     77.1770E+06    -16.4087E+06    -32.9266E+06    -16.3956E+06     77.1639E+06    -32.9266E+06      936.92E+03         36.0542
             788     12.6422E-03     25.4115E-03     415.915E-03     125.557E-03        -1.59972     415.795E-03        -1.59960     125.557E-03     13.1417E-03     56.8005E-03    -27.9501E-03    -28.8662E-03    -27.6181E-03     55.5524E-03    -27.9501E-03     20.1928E-03     8.86899E+06    -18.7941E+06    -28.8444E+06    -15.4565E+06     2.29279E+06    -25.6058E+06     657.098E+03         33.1177
             789     11.6692E-03     25.3944E-03     357.555E-03     105.096E-03        -1.52198     357.173E-03        -1.52160     105.096E-03     34.7564E-03     56.5245E-03    -28.0684E-03    -28.4966E-03    -27.8015E-03     55.8294E-03    -28.0684E-03     15.2644E-03    -13.1144E+06    -18.4484E+06    -49.4794E+06    -15.1228E+06    -49.4719E+06    -16.4476E+06     399.914E+03         30.8241
             790     10.6967E-03     25.3792E-03     298.072E-03     85.9867E-03        -1.44777     297.656E-03        -1.44736     85.9867E-03     20.7568E-03     56.6466E-03    -28.1586E-03    -28.4978E-03    -27.9633E-03     56.1120E-03    -28.1586E-03     13.4328E-03    -8.43220E+06    -15.6748E+06    -85.4862E+06    -15.6784E+06    -85.4826E+06    -8.43220E+06     446.024E+03         28.9611
             791     9.72404E-03     25.3656E-03     259.891E-03     67.6867E-03        -1.39542     259.446E-03        -1.39498     67.6867E-03     18.5999E-03     56.6882E-03    -28.2275E-03    -28.4219E-03    -28.0401E-03     56.3064E-03    -28.2275E-03     11.2753E-03    -2.29359E+06    -17.1401E+06    -111.340E+06    -17.1438E+06    -111.336E+06    -2.29359E+06     548.518E+03         27.4257
             792     8.75157E-03     25.3550E-03     208.237E-03     50.1223E-03        -1.32575     207.847E-03        -1.32536     50.1223E-03     29.1790E-03     56.6258E-03    -28.2780E-03    -28.3287E-03    -28.0626E-03     56.3598E-03    -28.2780E-03     9.48819E-03     962.278E+03    -19.2423E+06    -132.632E+06    -19.2464E+06    -132.628E+06     962.278E+03     658.632E+03         26.2361
             793     7.77914E-03     25.3451E-03     140.074E-03     35.5392E-03        -1.24679     139.914E-03        -1.24663     35.5392E-03    -9.64861E-03     56.6313E-03    -28.3070E-03    -28.3292E-03    -28.1084E-03     56.4105E-03    -28.3070E-03     8.63206E-03    -674.426E+03    -21.8430E+06    -151.866E+06    -21.8462E+06    -151.863E+06    -674.426E+03     585.270E+03         25.4170
             794     6.80670E-03     25.3364E-03     107.498E-03     23.6997E-03        -1.20276     107.021E-03        -1.20228     23.6997E-03     21.9025E-03     56.6240E-03    -28.2989E-03    -28.3350E-03    -28.1367E-03     56.4559E-03    -28.3291E-03     7.53197E-03    -3.84679E+06    -24.6230E+06    -170.142E+06    -24.6250E+06     -170.14E+06    -3.84679E+06     473.342E+03         24.9424
             795     5.83429E-03     25.3287E-03     82.3129E-03     12.5294E-03        -1.16254     81.7943E-03        -1.16202     12.5294E-03     28.5913E-03     56.6145E-03    -28.2699E-03    -28.3515E-03    -28.1419E-03     56.4865E-03    -28.3515E-03     6.57291E-03    -8.80867E+06    -27.7266E+06    -189.020E+06    -27.7275E+06    -189.019E+06    -8.80867E+06     167.656E+03         24.6858
             796     4.86179E-03     25.3219E-03     53.1893E-03     2.15791E-03        -1.11914     52.9466E-03        -1.11890     2.15791E-03     10.1493E-03     56.6732E-03    -28.3015E-03    -28.3781E-03    -28.2084E-03     56.5801E-03    -28.3781E-03     5.59437E-03    -14.4173E+06    -31.0499E+06    -211.822E+06    -31.0520E+06    -211.820E+06    -14.4173E+06    -425.334E+03         24.5167
             797     3.88925E-03     25.3166E-03     49.2317E-03    -9.85924E-03        -1.10038     48.8989E-03        -1.10004    -9.85924E-03     2.62906E-03     56.7383E-03    -28.3534E-03    -28.3898E-03    -28.3010E-03     56.6766E-03    -28.3805E-03     4.55123E-03    -20.6897E+06    -34.5682E+06    -231.813E+06    -34.5733E+06    -231.808E+06    -20.6897E+06    -827.489E+03         24.3846
             798     2.91726E-03     25.3122E-03     32.9839E-03    -26.5036E-03        -1.07520     31.3764E-03        -1.07359    -26.5036E-03     38.3584E-03     56.6879E-03    -28.3237E-03    -28.3674E-03    -28.2954E-03     56.6503E-03    -28.3581E-03     3.53975E-03    -29.0471E+06    -38.2870E+06    -241.984E+06    -38.2930E+06    -241.978E+06    -29.0471E+06    -968.478E+03         24.2847
             799     1.94462E-03     25.3089E-03    -3.02708E-03    -47.7844E-03        -1.02939    -16.0576E-03        -1.02168    -42.4638E-03    -23.1809E-03     56.6237E-03    -28.2825E-03    -28.3439E-03    -28.2641E-03     56.6053E-03    -28.3439E-03     2.42551E-03    -36.6707E+06    -41.1806E+06    -247.148E+06    -41.1881E+06    -247.140E+06    -36.6707E+06    -1.20863E+06         24.2195
             800     972.345E-06     25.3069E-03     19.3052E-03    -108.130E-03    -996.847E-03     5.06524E-03    -987.927E-03    -102.810E-03    -136.106E-03     56.6555E-03    -28.2468E-03    -28.4112E-03    -28.3574E-03     56.6501E-03    -28.2953E-03     1.17740E-03    -41.1272E+06    -42.8815E+06    -248.038E+06    -42.4446E+06    -248.030E+06    -41.5722E+06    -1.12488E+06         24.1849
             801     16.5368E-03     24.5979E-03     665.871E-03     269.430E-03        -1.99869     665.614E-03        -1.99843     269.430E-03     45.3830E-03     76.3502E-03    -28.3598E-03    -47.9619E-03    -27.7008E-03     56.0891E-03    -28.3598E-03     90.7081E-03     182.081E+06     122.746E+06    -7.96927E+06    -7.96129E+06     182.073E+06     122.746E+06     954.360E+03         46.6072
             802     15.5617E-03     24.4778E-03     609.043E-03     252.266E-03        -1.92712     608.862E-03        -1.92694     252.266E-03     29.4221E-03     74.8795E-03    -28.0492E-03    -46.8242E-03    -27.7657E-03     55.8210E-03    -28.0492E-03     86.7416E-03     162.018E+06     47.8450E+06    -13.8706E+06    -13.8652E+06     162.013E+06     47.8450E+06     781.733E+03         43.4962
             803     14.5883E-03     24.4136E-03     579.464E-03     234.036E-03        -1.88602     579.262E-03        -1.88582     234.036E-03     34.9994E-03     61.7970E-03    -27.7864E-03    -34.0190E-03    -27.5392E-03     55.3173E-03    -27.7864E-03     46.2691E-03     134.961E+06    -4.00671E+06    -26.4377E+06    -16.0587E+06     134.955E+06    -14.3799E+06     901.110E+03         39.6663
             804     13.6153E-03     24.3799E-03     519.868E-03     214.186E-03        -1.81018     519.657E-03        -1.80997     214.186E-03     42.7009E-03     57.4848E-03    -27.7745E-03    -29.7142E-03    -27.4328E-03     55.2034E-03    -27.7745E-03     27.6336E-03     77.6610E+06    -15.4901E+06    -33.2056E+06    -15.4810E+06     77.6519E+06    -33.2056E+06     861.134E+03         36.0238
             805     12.6423E-03     24.3545E-03     447.593E-03     195.296E-03        -1.71808     447.407E-03        -1.71789     195.296E-03     25.1643E-03     56.7334E-03    -27.9275E-03    -28.8203E-03    -27.5568E-03     55.4699E-03    -27.9275E-03     20.2795E-03      8.9856E+06    -18.2684E+06    -28.7657E+06    -14.4666E+06     2.02880E+06    -25.6107E+06     811.971E+03         33.0875
             806     11.6695E-03     24.3369E-03     395.513E-03     177.875E-03        -1.64961     395.009E-03        -1.64910     177.875E-03     42.3923E-03     56.5702E-03    -28.0446E-03    -28.5699E-03    -27.8878E-03     55.8881E-03    -28.0446E-03     15.1165E-03    -12.4870E+06    -18.2200E+06    -49.2875E+06    -14.4290E+06    -49.2429E+06    -16.3227E+06     861.639E+03         30.7950
             807     10.6968E-03     24.3219E-03     359.657E-03     160.943E-03        -1.59955     358.893E-03        -1.59879     160.943E-03     11.5093E-03     56.6135E-03    -28.1279E-03    -28.4945E-03    -27.9751E-03     56.0941E-03    -28.1279E-03     13.2427E-03    -8.53662E+06    -15.2778E+06    -85.4873E+06    -15.2887E+06    -85.4763E+06    -8.53662E+06     850.272E+03         28.9341
             808     9.72447E-03     24.3081E-03     320.428E-03     144.180E-03        -1.54677     319.270E-03        -1.54561     144.180E-03     23.7919E-03     56.6259E-03    -28.1940E-03    -28.3921E-03    -28.0155E-03     56.2493E-03    -28.1940E-03     11.1877E-03    -2.39998E+06    -16.6957E+06    -111.478E+06    -16.7045E+06    -111.469E+06    -2.39998E+06      872.59E+03         27.4020
             809     8.75201E-03     24.2977E-03     264.560E-03     128.788E-03        -1.47593     263.660E-03        -1.47503     128.788E-03     63.6417E-03     56.5787E-03    -28.2425E-03    -28.3169E-03    -28.0557E-03     56.3175E-03    -28.2425E-03     9.39980E-03     1.02098E+06    -18.6643E+06    -132.444E+06    -18.6719E+06    -132.436E+06     1.02098E+06     914.447E+03         26.2171
             810     7.77940E-03     24.2877E-03     220.548E-03     115.507E-03        -1.41942     220.396E-03        -1.41927     115.507E-03    -8.40376E-03     56.5410E-03    -28.2487E-03    -28.2941E-03    -28.0549E-03     56.3223E-03    -28.2693E-03     8.58455E-03    -955.421E+03    -21.1899E+06    -151.607E+06    -21.1952E+06    -151.602E+06    -955.421E+03     760.135E+03         25.4042
             811     6.80688E-03     24.2789E-03     194.823E-03     103.130E-03        -1.38100     194.284E-03        -1.38046     103.130E-03     18.0351E-03     56.5358E-03    -28.2461E-03    -28.2979E-03    -28.0804E-03     56.3675E-03    -28.2954E-03     7.52913E-03    -4.26513E+06    -24.3742E+06    -170.120E+06    -24.3768E+06    -170.117E+06    -4.26513E+06     591.881E+03         24.9353
             812     5.83440E-03     24.2717E-03     162.532E-03     91.3274E-03        -1.33413     161.951E-03        -1.33355     91.3274E-03     55.7557E-03     56.5637E-03    -28.2513E-03    -28.3196E-03    -28.1241E-03     56.4365E-03    -28.3196E-03     6.54569E-03    -8.95636E+06    -27.6633E+06    -188.727E+06    -27.6648E+06    -188.726E+06    -8.95636E+06     380.976E+03         24.6811
             813     4.86187E-03     24.2649E-03     130.679E-03     81.0060E-03        -1.29105     130.457E-03        -1.29083     81.0060E-03     25.2179E-03     56.6120E-03    -28.2742E-03    -28.3439E-03    -28.1825E-03     56.5203E-03    -28.3439E-03     5.54884E-03    -14.5451E+06    -31.2241E+06    -211.332E+06    -31.2263E+06    -211.330E+06    -14.5451E+06    -114.173E+03         24.5125
             814     3.88967E-03     24.2594E-03     104.841E-03     72.0095E-03        -1.25438     104.184E-03        -1.25425     72.5343E-03     9.49617E-03     56.6499E-03    -28.2976E-03    -28.3570E-03    -28.2459E-03     56.5888E-03    -28.3477E-03     4.52277E-03    -21.2271E+06    -35.2681E+06    -231.762E+06    -35.2714E+06    -231.759E+06    -21.2271E+06    -445.940E+03         24.3815
             815     2.91706E-03     24.2553E-03     95.1886E-03     63.5449E-03        -1.23924     93.2856E-03        -1.23786     64.0697E-03     50.1170E-03     56.6210E-03    -28.2866E-03    -28.3373E-03    -28.2591E-03     56.5842E-03    -28.3280E-03     3.49675E-03    -29.6099E+06    -38.5696E+06    -242.064E+06    -38.5736E+06    -242.060E+06    -29.6099E+06    -821.085E+03         24.2819
             816     1.94482E-03     24.2521E-03     88.8526E-03     50.3728E-03        -1.23480     86.8648E-03        -1.23281     50.3728E-03     12.8155E-03     56.5696E-03    -28.2588E-03    -28.3135E-03    -28.2396E-03     56.5504E-03    -28.3135E-03     2.51027E-03    -37.0549E+06    -41.3496E+06    -247.607E+06    -41.3543E+06    -247.602E+06    -37.0549E+06    -937.474E+03         24.2160
             817     972.359E-06     24.2498E-03     109.871E-03    -21.1169E-03        -1.19606     104.073E-03        -1.19027    -21.1169E-03    -137.869E-03     56.6025E-03    -28.2162E-03    -28.3888E-03    -28.3295E-03     56.5959E-03    -28.2688E-03     1.29413E-03    -41.8429E+06    -43.9268E+06    -250.210E+06    -43.4871E+06    -250.204E+06    -42.2879E+06    -926.100E+03         24.1818
             818     16.5355E-03     23.5397E-03     696.158E-03     334.518E-03        -2.11010     695.946E-03        -2.10989     334.518E-03     43.8899E-03     76.2386E-03    -28.3487E-03    -47.8717E-03    -27.8285E-03     56.1954E-03    -28.3487E-03     90.1527E-03     181.721E+06     122.975E+06    -7.81509E+06    -7.81122E+06     181.717E+06     122.975E+06     536.964E+03         46.5650
             819     15.5621E-03     23.4222E-03     642.199E-03     319.965E-03        -2.05287     642.080E-03        -2.05275     319.965E-03     26.4995E-03     75.0579E-03    -28.0316E-03    -47.0269E-03    -27.8860E-03     55.9171E-03    -28.0316E-03     87.1518E-03     162.154E+06     48.7597E+06    -13.6139E+06    -13.6041E+06     162.144E+06     48.7597E+06     1.03856E+06         43.4597
             820     14.5886E-03     23.3544E-03     598.643E-03     304.883E-03        -1.99541     598.520E-03        -1.99529     304.883E-03     30.0014E-03     61.7238E-03    -27.7581E-03    -33.9740E-03    -27.4339E-03     55.1837E-03    -27.7581E-03     46.3069E-03     134.608E+06    -3.04529E+06    -27.2102E+06    -15.5410E+06     134.600E+06    -14.7068E+06     925.289E+03         39.6343
             821     13.6161E-03     23.3234E-03     557.769E-03     288.234E-03        -1.93842     557.551E-03        -1.93820     288.234E-03     45.7482E-03     57.4062E-03    -27.7477E-03    -29.6650E-03    -27.4293E-03     55.1704E-03    -27.7477E-03     27.3766E-03     77.6832E+06    -14.8900E+06    -33.9039E+06    -14.8592E+06     77.6525E+06    -33.9039E+06     964.064E+03         35.9922
             822     12.6424E-03     23.2971E-03     495.100E-03     271.934E-03        -1.86253     494.947E-03        -1.86237     271.934E-03     21.4080E-03     56.8424E-03    -27.8984E-03    -28.9630E-03    -27.6970E-03     55.5764E-03    -27.8984E-03     20.3079E-03     9.22989E+06    -18.3234E+06    -28.6088E+06    -14.3052E+06     2.27875E+06    -25.6758E+06     1.43921E+06         33.0551
             823     11.6701E-03     23.2792E-03     446.143E-03     256.951E-03        -1.80093     445.787E-03        -1.80058     256.951E-03     33.3628E-03     56.5181E-03    -28.0062E-03    -28.5580E-03    -27.8923E-03     55.8524E-03    -28.0062E-03     14.9272E-03    -12.7000E+06    -18.4277E+06    -49.3357E+06    -14.4567E+06    -49.2418E+06    -16.7649E+06     1.39791E+06         30.7628
             824     10.6976E-03     23.2648E-03     415.148E-03     242.461E-03        -1.75463     414.472E-03        -1.75396     242.461E-03     280.663E-06     56.5118E-03    -28.0880E-03    -28.4318E-03    -27.9188E-03     55.9988E-03    -28.0880E-03     13.1563E-03    -8.94856E+06    -15.1216E+06      -85.46E+06    -15.1504E+06    -85.4312E+06    -8.94856E+06     1.34934E+06         28.9034
             825     9.72463E-03     23.2508E-03     374.300E-03     228.482E-03        -1.69672     373.329E-03        -1.69575     228.482E-03     8.51250E-03     56.5103E-03    -28.1562E-03    -28.3136E-03    -27.9336E-03     56.1303E-03    -28.1562E-03     11.2234E-03    -2.94071E+06    -16.3558E+06    -111.549E+06    -16.3730E+06    -111.532E+06    -2.94071E+06     1.24501E+06         27.3741
             826     8.75212E-03     23.2404E-03     344.604E-03     215.026E-03        -1.65400     343.938E-03        -1.65334     215.026E-03     52.3678E-03     56.4975E-03    -28.2090E-03    -28.2695E-03    -28.0087E-03     56.2366E-03    -28.2090E-03     9.38474E-03     690.805E+03    -18.2524E+06    -132.318E+06    -18.2647E+06    -132.306E+06     690.805E+03     1.17740E+06         26.1940
             827     7.77973E-03     23.2305E-03     317.828E-03     201.413E-03        -1.61594     317.780E-03        -1.61590     201.413E-03     5.90958E-03     56.4873E-03    -28.2159E-03    -28.2727E-03    -28.0357E-03     56.2709E-03    -28.2365E-03     8.53593E-03    -1.20981E+06    -20.9467E+06    -151.260E+06    -20.9574E+06    -151.250E+06    -1.20981E+06     1.15274E+06         25.3880
             828     6.80705E-03     23.2220E-03     277.604E-03     188.537E-03        -1.56447     277.145E-03        -1.56401     188.537E-03     37.1769E-03     56.4692E-03    -28.2132E-03    -28.2639E-03    -28.0501E-03     56.3028E-03    -28.2606E-03     7.48340E-03    -4.56330E+06    -23.9228E+06    -169.829E+06    -23.9296E+06    -169.822E+06    -4.56330E+06     944.107E+03         24.9258
             829     5.83454E-03     23.2141E-03     245.018E-03     177.248E-03        -1.52438     244.486E-03        -1.52385     177.248E-03     54.4397E-03     56.5110E-03    -28.2339E-03    -28.2848E-03    -28.1098E-03     56.3868E-03    -28.2848E-03     6.46004E-03    -8.99452E+06    -27.2915E+06    -188.484E+06    -27.2958E+06    -188.479E+06    -8.99452E+06     728.213E+03         24.6745
             830     4.86223E-03     23.2078E-03     210.716E-03     167.948E-03        -1.48238     210.568E-03        -1.48223     167.948E-03     21.7230E-03     56.5370E-03    -28.2328E-03    -28.3088E-03    -28.1429E-03     56.4471E-03    -28.3088E-03     5.50051E-03    -14.5104E+06    -31.0477E+06    -211.068E+06    -31.0510E+06    -211.065E+06    -14.5104E+06     636.851E+03         24.5064
             831     3.88952E-03     23.2024E-03     183.419E-03     160.982E-03        -1.44227     182.760E-03        -1.44213     161.507E-03     13.0074E-03     56.5411E-03    -28.2260E-03    -28.3188E-03    -28.1646E-03     56.4797E-03    -28.3188E-03     4.52946E-03    -21.2382E+06    -34.9547E+06    -231.152E+06    -34.9570E+06    -231.150E+06    -21.2382E+06     180.590E+03         24.3759
             832     2.91726E-03     23.1981E-03     187.630E-03     153.255E-03        -1.43834     186.469E-03        -1.43770     153.780E-03     44.4892E-03     56.5623E-03    -28.2552E-03    -28.3100E-03    -28.2193E-03     56.5264E-03    -28.3100E-03     3.44716E-03    -29.7088E+06    -39.0511E+06    -241.911E+06    -39.0537E+06    -241.909E+06    -29.7088E+06    -482.306E+03         24.2773
             833     1.94472E-03     23.1949E-03     171.332E-03     142.348E-03        -1.41600     165.074E-03        -1.41052     143.119E-03     89.8044E-03     56.5468E-03    -28.2444E-03    -28.3047E-03    -28.2428E-03     56.5288E-03    -28.2884E-03     2.41944E-03    -37.5402E+06    -42.5459E+06    -248.212E+06    -42.5477E+06    -248.211E+06    -37.5402E+06    -555.897E+03         24.2116
             834     972.243E-06     23.1930E-03     201.938E-03     89.4291E-03        -1.39171     185.474E-03        -1.37601     90.2009E-03    -134.725E-03     56.5279E-03    -28.1533E-03    -28.3766E-03    -28.3400E-03     56.5214E-03    -28.1833E-03     1.36071E-03    -43.5127E+06    -45.5978E+06    -251.528E+06    -45.3355E+06    -251.526E+06    -43.7763E+06    -136.518E+03         24.1770
             835     16.5368E-03     22.4843E-03     723.313E-03     405.221E-03        -2.22391     723.105E-03        -2.22370     405.221E-03     7.41735E-03     76.3693E-03    -28.3416E-03    -48.0060E-03    -28.0496E-03     56.4129E-03    -28.3416E-03     90.1028E-03     181.229E+06     123.171E+06    -7.88077E+06    -7.87599E+06     181.224E+06     123.171E+06     114.672E+03         46.5179
             836     15.5626E-03     22.3634E-03     688.712E-03     393.279E-03        -2.18321     688.578E-03        -2.18308     393.279E-03     20.9679E-03     75.3032E-03    -28.0110E-03    -47.2797E-03    -28.1651E-03     56.1886E-03    -28.0110E-03     87.3225E-03     162.108E+06     49.3386E+06    -13.5059E+06    -13.4975E+06     162.100E+06     49.3386E+06     903.819E+03         43.4199
             837     14.5895E-03     22.2985E-03     617.237E-03     381.406E-03        -2.10694     617.057E-03        -2.10676     381.406E-03     9.90394E-03     61.5656E-03    -27.7341E-03    -33.8331E-03    -27.2924E-03     55.0250E-03    -27.7341E-03     46.3969E-03     133.973E+06    -3.42175E+06    -27.5638E+06    -16.0499E+06     133.958E+06    -14.9200E+06     1.19980E+06         39.6003
             838     13.6152E-03     22.2651E-03     576.654E-03     369.170E-03        -2.05791     576.445E-03        -2.05770     369.170E-03     13.4289E-03     57.5025E-03    -27.7246E-03    -29.7871E-03    -27.5238E-03     55.2392E-03    -27.7246E-03     27.4841E-03     77.4260E+06    -15.9346E+06    -34.1850E+06    -15.8909E+06     77.3824E+06    -34.1850E+06     1.47025E+06         35.9580
             839     12.6436E-03     22.2397E-03     560.393E-03     355.965E-03        -2.02949     560.304E-03        -2.02940     355.965E-03     11.0079E-03     56.8864E-03    -27.8650E-03    -29.0435E-03    -27.8075E-03     55.6504E-03    -27.8650E-03     20.1501E-03     9.62054E+06    -19.1152E+06    -28.7893E+06    -15.0205E+06     2.60378E+06    -25.8674E+06     1.75593E+06         33.0189
             840     11.6704E-03     22.2218E-03     519.305E-03     342.314E-03        -1.97582     519.162E-03        -1.97567     342.314E-03     18.7840E-03     56.3888E-03    -27.9679E-03    -28.4662E-03    -27.7828E-03     55.7054E-03    -27.9679E-03     15.1023E-03    -13.0329E+06    -18.4800E+06    -49.4569E+06    -14.4467E+06    -49.3076E+06    -17.2154E+06     1.79211E+06         30.7258
             841     10.6976E-03     22.2074E-03     464.702E-03     330.124E-03        -1.90578     464.468E-03        -1.90555     330.124E-03     13.8910E-03     56.4645E-03    -28.0532E-03    -28.4191E-03    -27.9024E-03     55.9478E-03    -28.0532E-03     13.1928E-03    -9.06308E+06    -14.6189E+06    -85.2812E+06    -14.6672E+06    -85.2329E+06    -9.06308E+06     1.80636E+06         28.8670
             842     9.72517E-03     22.1937E-03     436.364E-03     319.318E-03        -1.86078     436.082E-03        -1.86049     319.318E-03     18.5546E-03     56.4645E-03    -28.1193E-03    -28.3061E-03    -27.9299E-03     56.0883E-03    -28.1193E-03     11.1705E-03    -3.14394E+06    -16.0493E+06    -111.359E+06    -16.0827E+06    -111.325E+06    -3.14394E+06     1.72514E+06         27.3403
             843     8.75244E-03     22.1830E-03     432.501E-03     307.537E-03        -1.84640     432.296E-03        -1.84620     307.537E-03     35.7928E-03     56.3984E-03    -28.1693E-03    -28.2104E-03    -27.9550E-03     56.1452E-03    -28.1714E-03     9.23069E-03     197.748E+03    -18.3973E+06    -132.348E+06    -18.4207E+06    -132.325E+06     197.748E+03     1.59498E+06         26.1647
             844     7.77978E-03     22.1735E-03     404.971E-03     294.590E-03        -1.80989     404.878E-03        -1.80980     294.590E-03    -525.698E-06     56.4257E-03    -28.1956E-03    -28.2300E-03    -28.0210E-03     56.2188E-03    -28.1977E-03     8.34598E-03    -1.67005E+06    -21.1527E+06    -151.037E+06    -21.1720E+06    -151.018E+06    -1.67005E+06     1.56246E+06         25.3665
             845     6.80741E-03     22.1649E-03     360.698E-03     282.972E-03        -1.75935     360.535E-03        -1.75919     282.972E-03     5.29926E-03     56.4230E-03    -28.1978E-03    -28.2332E-03    -28.0553E-03     56.2620E-03    -28.2148E-03     7.35450E-03    -5.33282E+06    -24.1059E+06    -169.328E+06    -24.1207E+06    -169.313E+06    -5.33282E+06     1.42150E+06         24.9121
             846     5.83488E-03     22.1572E-03     320.054E-03     274.373E-03        -1.71546     319.926E-03        -1.71533     274.373E-03     22.5422E-03     56.3945E-03    -28.1658E-03    -28.2377E-03    -28.0457E-03     56.2744E-03    -28.2377E-03     6.35386E-03    -9.75078E+06    -27.1655E+06    -188.257E+06    -27.1760E+06    -188.246E+06    -9.75078E+06     1.27298E+06         24.6633
             847     4.86218E-03     22.1507E-03     297.687E-03     268.326E-03        -1.68107     297.315E-03        -1.68069     268.326E-03    -6.89173E-03     56.4386E-03    -28.1769E-03    -28.2663E-03    -28.0904E-03     56.3522E-03    -28.2663E-03     5.37787E-03    -14.8269E+06    -30.7235E+06    -210.601E+06    -30.7325E+06    -210.592E+06    -14.8269E+06     1.22436E+06         24.4948
             848     3.88983E-03     22.1457E-03     295.777E-03     261.806E-03        -1.66815     295.190E-03        -1.66756     261.806E-03    -24.3479E-03     56.4685E-03    -28.1944E-03    -28.2777E-03    -28.1374E-03     56.4115E-03    -28.2777E-03     4.36401E-03    -21.2939E+06    -34.9188E+06    -230.493E+06    -34.9252E+06    -230.487E+06    -21.2939E+06     1.00360E+06         24.3650
             849     2.91717E-03     22.1410E-03     285.005E-03     251.675E-03        -1.65390     282.034E-03        -1.65254     253.291E-03    -11.7752E-03     56.4765E-03    -28.2087E-03    -28.2728E-03    -28.1799E-03     56.4428E-03    -28.2678E-03     3.33361E-03    -29.6938E+06    -39.3417E+06    -241.460E+06    -39.3450E+06    -241.457E+06    -29.6938E+06     501.819E+03         24.2673
             850     1.94489E-03     22.1384E-03     261.379E-03     244.899E-03        -1.62841     253.547E-03        -1.62296     247.286E-03     93.5726E-03     56.4876E-03    -28.2200E-03    -28.2710E-03    -28.2445E-03     56.4714E-03    -28.2303E-03     2.29179E-03    -37.7254E+06    -43.1544E+06    -248.544E+06    -43.1559E+06    -248.542E+06    -37.7254E+06     89.5626E+03         24.2019
             851     972.671E-06     22.1358E-03     322.260E-03     198.006E-03        -1.64259     293.186E-03        -1.61428     198.778E-03    -208.112E-03     56.3738E-03    -28.1300E-03    -28.2456E-03    -28.2400E-03     56.3683E-03    -28.1300E-03     1.26094E-03    -43.7946E+06    -45.8232E+06    -251.897E+06    -45.4486E+06    -251.896E+06    -44.1703E+06     304.960E+03         24.1665
             852     16.5349E-03     21.4254E-03     738.637E-03     480.041E-03        -2.34306     738.372E-03        -2.34280     480.041E-03     7.24384E-03     76.5327E-03    -28.3479E-03    -48.1671E-03    -28.1424E-03     56.5080E-03    -28.3479E-03     90.4282E-03     180.757E+06     122.979E+06    -8.71669E+06    -8.71156E+06     180.752E+06     122.979E+06    -67.4336E+03         46.4634
             853     15.5630E-03     21.3058E-03     696.740E-03     472.423E-03        -2.29208     696.609E-03        -2.29194     472.423E-03     16.8277E-03     75.3764E-03    -28.0107E-03    -47.3570E-03    -28.3131E-03     56.3325E-03    -28.0107E-03     87.2320E-03     161.071E+06     48.8125E+06    -14.8986E+06    -14.8916E+06     161.064E+06     48.8125E+06     704.975E+03         43.3733
             854     14.5889E-03     21.2418E-03     659.465E-03     464.480E-03        -2.24932     659.252E-03        -2.24910     464.480E-03    -1.75452E-03     61.7962E-03    -27.7197E-03    -34.0811E-03    -27.5465E-03     55.2616E-03    -27.7197E-03     46.5787E-03     134.057E+06    -3.79521E+06    -28.0451E+06    -16.8074E+06     134.038E+06    -15.0139E+06     1.50732E+06         39.5610
             855     13.6169E-03     21.2073E-03     629.795E-03     454.987E-03        -2.21269     629.598E-03        -2.21249     454.987E-03    -2.79206E-03     57.5686E-03    -27.6977E-03    -29.8770E-03    -27.5884E-03     55.2801E-03    -27.6977E-03     27.6306E-03     77.2531E+06    -16.1033E+06    -34.3157E+06    -16.0642E+06     77.2140E+06    -34.3157E+06     1.74081E+06         35.9189
             856     12.6433E-03     21.1826E-03     614.496E-03     444.339E-03        -2.18897     614.327E-03        -2.18880     444.339E-03     24.7804E-03     56.7585E-03    -27.8373E-03    -28.9399E-03    -27.7198E-03     55.5384E-03    -27.8373E-03     20.0101E-03     9.06064E+06    -19.0203E+06    -28.7642E+06    -14.9138E+06     2.20386E+06    -26.0140E+06     1.65986E+06         32.9765
             857     11.6707E-03     21.1649E-03     585.188E-03     433.098E-03        -2.15206     584.744E-03        -2.15161     433.098E-03     45.1092E-03     56.4418E-03    -27.9370E-03    -28.5486E-03    -27.8671E-03     55.7603E-03    -27.9370E-03     15.0875E-03    -13.1418E+06    -18.5067E+06    -49.3021E+06    -14.4630E+06    -49.1323E+06    -17.3552E+06     1.97547E+06         30.6820
             858     10.6981E-03     21.1501E-03     543.970E-03     422.625E-03        -2.09892     543.580E-03        -2.09853     422.625E-03     41.8892E-03     56.4851E-03    -28.0123E-03    -28.4780E-03    -27.9788E-03     55.9858E-03    -28.0123E-03     12.9689E-03    -9.35830E+06    -14.7973E+06    -85.3639E+06    -14.8636E+06    -85.2976E+06    -9.35830E+06     2.10854E+06         28.8235
             859     9.72538E-03     21.1366E-03     518.153E-03     413.051E-03        -2.06191     518.037E-03        -2.06179     413.051E-03     22.7381E-03     56.4522E-03    -28.0689E-03    -28.3462E-03    -27.9938E-03     56.0998E-03    -28.0689E-03     10.8037E-03    -3.29277E+06    -15.9562E+06    -111.124E+06    -16.0088E+06    -111.071E+06    -3.29277E+06     2.22140E+06         27.2987
             860     8.75292E-03     21.1260E-03     491.731E-03     403.944E-03        -2.02586     491.488E-03        -2.02562     403.944E-03     46.1809E-03     56.3249E-03    -28.1085E-03    -28.2021E-03    -27.9656E-03     56.0906E-03    -28.1106E-03     8.87249E-03    -90.1287E+03    -18.0179E+06    -132.087E+06    -18.0597E+06    -132.045E+06    -90.1287E+03     2.14459E+06         26.1271
             861     7.78037E-03     21.1166E-03     463.069E-03     395.806E-03        -1.98768     462.830E-03        -1.98744     395.806E-03     3.85357E-03     56.3020E-03    -28.1289E-03    -28.1753E-03    -27.9830E-03     56.1118E-03    -28.1311E-03     7.99141E-03    -1.98115E+06    -20.7876E+06    -150.811E+06    -20.8222E+06    -150.776E+06    -1.98115E+06     2.09050E+06         25.3362
             862     6.80771E-03     21.1075E-03     440.067E-03     388.838E-03        -1.95822     439.961E-03        -1.95811     388.838E-03    -17.9573E-03     56.2798E-03    -28.1257E-03    -28.1622E-03    -27.9958E-03     56.1334E-03    -28.1457E-03     6.99999E-03    -5.78892E+06    -23.8904E+06    -169.023E+06    -23.9200E+06    -168.994E+06    -5.78892E+06     2.01472E+06         24.8894
             863     5.83514E-03     21.1004E-03     415.079E-03     383.341E-03        -1.93130     415.067E-03        -1.93128     383.341E-03     5.65842E-03     56.2630E-03    -28.1069E-03    -28.1647E-03    -27.9984E-03     56.1546E-03    -28.1647E-03     6.02548E-03    -10.6277E+06    -27.4142E+06    -187.979E+06    -27.4382E+06    -187.955E+06    -10.6277E+06     1.89764E+06         24.6435
             864     4.86259E-03     21.0941E-03     410.444E-03     378.193E-03        -1.92701     410.141E-03        -1.92671     378.193E-03    -21.1657E-03     56.2998E-03    -28.1156E-03    -28.1890E-03    -28.0377E-03     56.2218E-03    -28.1890E-03     5.10042E-03    -15.7369E+06    -31.3773E+06    -210.255E+06    -31.4026E+06    -210.230E+06    -15.7369E+06     2.04145E+06         24.4751
             865     3.89003E-03     21.0884E-03     404.116E-03     362.941E-03        -1.90790     393.108E-03        -1.90703     373.073E-03    -11.5363E-03     56.3321E-03    -28.1309E-03    -28.2059E-03    -28.0916E-03     56.2813E-03    -28.1944E-03     4.11212E-03    -22.0253E+06    -35.5524E+06    -229.927E+06    -35.5744E+06    -229.905E+06    -22.0253E+06     1.98229E+06         24.3459
             866     2.91760E-03     21.0846E-03     384.726E-03     341.593E-03        -1.86958     349.682E-03        -1.86828     375.336E-03    -41.4701E-03     56.3205E-03    -28.1367E-03    -28.1900E-03    -28.1226E-03     56.2899E-03    -28.1735E-03     3.18233E-03    -30.3235E+06    -39.4778E+06    -240.360E+06    -39.4916E+06    -240.346E+06    -30.3235E+06     1.54361E+06         24.2487
             867     1.94504E-03     21.0811E-03     389.238E-03     356.748E-03        -1.88898     356.167E-03        -1.88716     387.995E-03     11.0122E-03     56.2826E-03    -28.1232E-03    -28.1640E-03    -28.1325E-03     56.2676E-03    -28.1396E-03     2.16955E-03    -37.8097E+06    -43.1768E+06    -247.903E+06    -43.1812E+06    -247.899E+06    -37.8097E+06     769.509E+03         24.1834
             868     972.436E-06     21.0795E-03     501.455E-03     320.493E-03        -1.96311     464.477E-03        -1.93377     328.130E-03    -308.585E-03     56.2051E-03    -28.0475E-03    -28.1602E-03    -28.1482E-03     56.2005E-03    -28.0551E-03     1.13098E-03    -43.2948E+06    -45.5742E+06    -251.978E+06    -45.3347E+06    -251.977E+06    -43.5353E+06     419.753E+03         24.1485
             869     16.5368E-03     20.3669E-03     751.556E-03     558.763E-03        -2.45081     751.324E-03        -2.45058     558.763E-03     11.3052E-03     76.3729E-03    -28.3488E-03    -48.0077E-03    -28.0493E-03     56.4145E-03    -28.3488E-03     90.0708E-03     179.873E+06     122.779E+06    -9.07923E+06    -9.07673E+06     179.871E+06     122.779E+06     161.557E+03         46.3983
             870     15.5618E-03     20.2490E-03     711.615E-03     555.578E-03        -2.41073     711.452E-03        -2.41057     555.578E-03     18.0118E-03     75.3530E-03    -28.0168E-03    -47.3342E-03    -28.3524E-03     56.3712E-03    -28.0168E-03     86.9513E-03     160.298E+06     49.2934E+06    -15.0160E+06    -15.0100E+06     160.292E+06     49.2934E+06     618.700E+03         43.3167
             871     14.5898E-03     20.1833E-03     710.412E-03     551.127E-03        -2.40283     710.264E-03        -2.40268     551.127E-03     16.0997E-03     61.9616E-03    -27.7107E-03    -34.2599E-03    -27.8402E-03     55.5418E-03    -27.7107E-03     46.2885E-03     134.137E+06    -2.82274E+06    -28.1567E+06    -16.6253E+06     134.124E+06    -14.3406E+06     1.30148E+06         39.5128
             872     13.6163E-03     20.1505E-03     702.013E-03     543.434E-03        -2.38993     701.892E-03        -2.38981     543.434E-03     11.1795E-03     57.5597E-03    -27.6687E-03    -29.9018E-03    -27.6503E-03     55.3082E-03    -27.6687E-03     27.4378E-03     76.8890E+06    -16.0173E+06    -35.0850E+06    -15.9749E+06     76.8466E+06    -35.0850E+06     1.70522E+06         35.8715
             873     12.6438E-03     20.1252E-03     663.131E-03     535.026E-03        -2.35054     662.977E-03        -2.35038     535.026E-03     32.4078E-03     56.8330E-03    -27.7972E-03    -29.0561E-03    -27.8769E-03     55.6538E-03    -27.7972E-03     19.5971E-03     8.72554E+06    -19.1050E+06    -28.9951E+06    -14.9237E+06     2.20399E+06    -26.6548E+06     1.90150E+06         32.9264
             874     11.6712E-03     20.1073E-03     636.582E-03     527.232E-03        -2.31829     636.117E-03        -2.31782     527.232E-03     57.4786E-03     56.5136E-03    -27.8780E-03    -28.6752E-03    -28.0555E-03     55.8939E-03    -27.8780E-03     14.4161E-03    -13.6900E+06    -18.7363E+06    -49.2166E+06    -14.6274E+06    -49.0036E+06    -18.0119E+06     2.08119E+06         30.6307
             875     10.6986E-03     20.0928E-03     630.939E-03     519.013E-03        -2.30283     630.522E-03        -2.30241     519.013E-03     43.3781E-03     56.4905E-03    -27.9335E-03    -28.5619E-03    -28.1084E-03     56.0370E-03    -27.9335E-03     12.3498E-03    -10.2493E+06    -14.9136E+06    -85.5661E+06    -14.9924E+06    -85.4873E+06    -10.2493E+06     2.32001E+06         28.7718
             876     9.72640E-03     20.0792E-03     597.912E-03     510.818E-03        -2.25915     597.769E-03        -2.25901     510.818E-03     22.9086E-03     56.3553E-03    -27.9743E-03    -28.3474E-03    -28.0420E-03     56.0500E-03    -27.9743E-03     10.0357E-03    -4.09450E+06    -15.9714E+06    -110.957E+06    -16.0429E+06    -110.886E+06    -4.09450E+06     2.57845E+06         27.2477
             877     8.75375E-03     20.0693E-03     553.088E-03     504.857E-03        -2.20635     552.840E-03        -2.20610     504.857E-03     43.5515E-03     56.1944E-03    -28.0018E-03    -28.1818E-03    -27.9797E-03     55.9923E-03    -28.0018E-03     8.23563E-03    -813.435E+03    -17.9334E+06    -131.711E+06    -18.0003E+06    -131.644E+06    -813.435E+03     2.71737E+06         26.0785
             878     7.78115E-03     20.0593E-03     534.950E-03     501.023E-03        -2.18312     534.791E-03        -2.18296     501.023E-03     12.0612E-03     56.1281E-03    -28.0105E-03    -28.1254E-03    -27.9633E-03     55.9660E-03    -28.0105E-03     7.34881E-03    -2.52495E+06    -20.5650E+06    -150.676E+06    -20.6270E+06    -150.614E+06    -2.52495E+06     2.78897E+06         25.2927
             879     6.80856E-03     20.0514E-03     527.770E-03     497.644E-03        -2.17417     527.362E-03        -2.17376     497.644E-03     29.7506E-03     56.0336E-03    -27.9973E-03    -28.0463E-03    -27.9067E-03     55.9135E-03    -28.0168E-03     6.32113E-03    -6.23746E+06    -23.9174E+06    -168.882E+06    -23.9835E+06    -168.816E+06    -6.23746E+06     2.97712E+06         24.8521
             880     5.83583E-03     20.0435E-03     532.676E-03     493.002E-03        -2.18100     532.195E-03        -2.18052     493.002E-03     54.0819E-03     56.0158E-03    -27.9964E-03    -28.0281E-03    -27.9074E-03     55.9268E-03    -28.0281E-03     5.43959E-03    -11.2918E+06    -28.0452E+06    -187.575E+06    -28.1145E+06    -187.505E+06    -11.2918E+06     3.18137E+06         24.6096
             881     4.86326E-03     20.0374E-03     522.859E-03     485.656E-03        -2.16851     521.438E-03        -2.16836     486.926E-03     28.8401E-03     56.0286E-03    -27.9915E-03    -28.0437E-03    -27.9278E-03     55.9649E-03    -28.0437E-03     4.59681E-03    -16.6966E+06    -32.1621E+06    -209.720E+06    -32.2153E+06    -209.667E+06    -16.6966E+06     3.02193E+06         24.4423
             882     3.89050E-03     20.0318E-03     497.139E-03     456.916E-03        -2.11699     467.032E-03        -2.11643     486.458E-03     60.5795E-03     56.0301E-03    -27.9790E-03    -28.0563E-03    -27.9478E-03     55.9873E-03    -28.0448E-03     3.75686E-03    -22.9532E+06    -36.0384E+06    -229.091E+06    -36.0787E+06    -229.051E+06    -22.9532E+06     2.76748E+06         24.3140
             883     2.91796E-03     20.0276E-03     498.266E-03     445.952E-03        -2.10566     444.762E-03        -2.10447     498.266E-03    -6.86318E-03     56.0220E-03    -27.9881E-03    -28.0380E-03    -27.9772E-03     55.9959E-03    -28.0227E-03     2.92835E-03    -31.0952E+06    -39.7862E+06    -238.926E+06    -39.8143E+06    -238.898E+06    -31.0952E+06     2.31804E+06         24.2178
             884     1.94530E-03     20.0246E-03     522.789E-03     482.315E-03        -2.15478     488.072E-03        -2.15174     513.995E-03     56.8646E-03     55.9755E-03    -27.9783E-03    -28.0000E-03    -27.9709E-03     55.9627E-03    -27.9947E-03     1.98241E-03    -38.1031E+06    -42.7616E+06    -246.462E+06    -42.7721E+06    -246.452E+06    -38.1031E+06     1.19178E+06         24.1538
             885     972.734E-06     20.0228E-03     623.313E-03     440.137E-03        -2.21139     593.568E-03        -2.18928     447.774E-03    -224.993E-03     55.9341E-03    -27.8987E-03    -28.0374E-03    -28.0264E-03     55.9306E-03    -27.9062E-03     938.055E-06    -43.1980E+06    -45.0820E+06    -251.457E+06    -44.9551E+06    -251.456E+06    -43.3264E+06     165.603E+03         24.1207
             886     16.5358E-03     19.3119E-03     771.471E-03     640.875E-03        -2.56827     771.098E-03        -2.56790     640.875E-03     27.6792E-03     76.6203E-03    -28.3490E-03    -48.2507E-03    -28.2395E-03     56.6091E-03    -28.3490E-03     90.3378E-03     179.671E+06     123.251E+06    -8.41306E+06    -8.41000E+06     179.668E+06     123.251E+06     628.582E+03         46.3174
             887     15.5628E-03     19.1897E-03     765.793E-03     640.649E-03        -2.56701     765.643E-03        -2.56686     640.649E-03     23.4184E-03     75.6891E-03    -28.0007E-03    -47.6844E-03    -28.6555E-03     56.6602E-03    -28.0007E-03     87.2443E-03     160.070E+06     49.0862E+06    -14.4040E+06    -14.4005E+06     160.067E+06     49.0862E+06     743.601E+03         43.2458
             888     14.5898E-03     19.1260E-03     759.704E-03     638.499E-03        -2.56191     759.622E-03        -2.56183     638.499E-03     24.9603E-03     61.9022E-03    -27.6797E-03    -34.2304E-03    -27.9952E-03     55.6670E-03    -27.6797E-03     45.5761E-03     133.117E+06    -3.72625E+06    -28.1009E+06    -16.7443E+06     133.109E+06    -15.0750E+06     949.723E+03         39.4524
             889     13.6172E-03     19.0928E-03     737.142E-03     634.080E-03        -2.53693     737.098E-03        -2.53689     634.080E-03     17.4613E-03     57.7261E-03    -27.6182E-03    -30.1208E-03    -27.9949E-03     55.6002E-03    -27.6182E-03     26.7022E-03     76.6941E+06    -16.1124E+06    -35.2727E+06    -16.0578E+06     76.6395E+06    -35.2727E+06     1.71417E+06         35.8145
             890     12.6448E-03     19.0671E-03     709.900E-03     629.561E-03        -2.50726     709.854E-03        -2.50722     629.561E-03     19.5651E-03     56.9887E-03    -27.7102E-03    -29.2978E-03    -28.2274E-03     55.9183E-03    -27.7102E-03     18.6869E-03     8.94082E+06    -19.3568E+06    -29.3503E+06    -14.9289E+06     2.33098E+06    -27.1683E+06     2.04444E+06         32.8682
             891     11.6725E-03     19.0505E-03     697.222E-03     625.216E-03        -2.49107     697.133E-03        -2.49098     625.216E-03     15.0799E-03     56.5523E-03    -27.7581E-03    -28.8338E-03    -28.2974E-03     56.0160E-03    -27.7581E-03     13.4211E-03    -13.8763E+06    -18.5404E+06    -49.0825E+06    -14.1955E+06    -48.8544E+06    -18.4493E+06     2.28260E+06         30.5713
             892     10.7003E-03     19.0351E-03     698.010E-03     620.134E-03        -2.48552     697.911E-03        -2.48542     620.134E-03     1.00948E-03     56.4071E-03    -27.7860E-03    -28.6310E-03    -28.2568E-03     56.0329E-03    -27.7860E-03     11.1986E-03    -10.6528E+06    -14.2747E+06    -85.7022E+06    -14.3571E+06    -85.5925E+06    -10.6801E+06     2.70182E+06         28.7113
             893     9.72777E-03     19.0224E-03     675.528E-03     614.857E-03        -2.45831     675.274E-03        -2.45806     614.857E-03     29.6851E-03     56.1738E-03    -27.8014E-03    -28.3426E-03    -28.1056E-03     55.9368E-03    -27.8014E-03     8.78646E-03    -4.66945E+06    -15.8037E+06    -110.980E+06    -15.9070E+06    -110.877E+06    -4.66945E+06     3.09443E+06         27.1862
             894     8.75521E-03     19.0120E-03     643.948E-03     611.119E-03        -2.42567     643.698E-03        -2.42542     611.119E-03     31.5664E-03     55.9315E-03    -27.8057E-03    -28.1181E-03    -27.9686E-03     55.7820E-03    -27.8057E-03     7.02659E-03    -1.56086E+06    -18.1636E+06    -131.562E+06    -18.2743E+06    -131.452E+06    -1.56086E+06     3.49786E+06         26.0166
             895     7.78271E-03     19.0028E-03     642.701E-03     608.104E-03        -2.42348     642.675E-03        -2.42346     608.104E-03    -926.852E-06     55.7816E-03    -27.7949E-03    -27.9984E-03    -27.8810E-03     55.6641E-03    -27.7949E-03     6.21156E-03    -3.51742E+06    -21.2283E+06    -150.665E+06    -21.3447E+06    -150.548E+06    -3.51742E+06     3.79616E+06         25.2321
             896     6.81002E-03     18.9943E-03     648.614E-03     603.597E-03        -2.42609     648.224E-03        -2.42570     603.597E-03     47.2181E-03     55.6577E-03    -27.7785E-03    -27.8907E-03    -27.7995E-03     55.5723E-03    -27.7842E-03     5.29046E-03    -7.06269E+06    -24.7692E+06    -168.773E+06    -24.9052E+06    -168.637E+06    -7.06269E+06     4.33444E+06         24.7941
             897     5.83723E-03     18.9873E-03     637.100E-03     593.886E-03        -2.40201     632.136E-03        -2.40148     598.315E-03     70.6982E-03     55.5526E-03    -27.7567E-03    -27.8045E-03    -27.7164E-03     55.4895E-03    -27.7816E-03     4.54072E-03    -11.7847E+06    -28.5705E+06    -186.864E+06    -28.7065E+06    -186.728E+06    -11.7847E+06     4.58551E+06         24.5534
             898     4.86429E-03     18.9810E-03     611.139E-03     582.607E-03        -2.35992     597.540E-03        -2.35970     595.984E-03     48.8310E-03     55.5317E-03    -27.7511E-03    -27.7875E-03    -27.7067E-03     55.4873E-03    -27.7875E-03     3.79514E-03    -17.2156E+06    -32.5562E+06    -208.436E+06    -32.6526E+06     -208.34E+06    -17.2156E+06     4.00829E+06         24.3875
             899     3.89160E-03     18.9757E-03     609.076E-03     571.456E-03        -2.34802     581.380E-03        -2.34741     598.543E-03     75.1417E-03     55.4988E-03    -27.7199E-03    -27.7845E-03    -27.6900E-03     55.4690E-03    -27.7845E-03     3.11440E-03    -23.6760E+06    -36.6269E+06    -228.112E+06    -36.6896E+06    -228.050E+06    -23.6760E+06     3.42983E+06         24.2615
             900     2.91853E-03     18.9714E-03     628.436E-03     579.722E-03        -2.37618     607.191E-03        -2.37512     599.909E-03     9.97010E-03     55.4598E-03    -27.6925E-03    -27.7707E-03    -27.6774E-03     55.4410E-03    -27.7670E-03     2.45953E-03    -32.0915E+06    -40.1629E+06    -237.152E+06    -40.2024E+06    -237.112E+06    -32.0915E+06     2.69637E+06         24.1675
             901     1.94576E-03     18.9684E-03     627.197E-03     589.684E-03        -2.37807     620.612E-03        -2.37353     591.732E-03     108.088E-03     55.4810E-03    -27.7239E-03    -27.7582E-03    -27.7219E-03     55.4718E-03    -27.7510E-03     1.69744E-03    -38.4949E+06    -42.5126E+06    -244.488E+06    -42.5250E+06    -244.475E+06    -38.4949E+06     1.37893E+06         24.1055
             902     972.815E-06     18.9665E-03     678.865E-03     515.567E-03        -2.35713     653.737E-03        -2.33200     515.567E-03    -205.486E-03     55.4603E-03    -27.6396E-03    -27.8210E-03    -27.8183E-03     55.4575E-03    -27.6396E-03     759.494E-06    -43.2212E+06    -44.8623E+06    -250.513E+06    -44.8644E+06    -250.511E+06    -43.2212E+06     281.541E+03         24.0738
             903     16.5353E-03     18.2524E-03     799.336E-03     724.141E-03        -2.70582     798.972E-03        -2.70545     724.141E-03     36.8991E-03     76.7527E-03    -28.3482E-03    -48.3821E-03    -28.4829E-03     56.8535E-03    -28.3482E-03     90.3340E-03     179.380E+06     123.277E+06    -8.26979E+06    -8.26750E+06     179.378E+06     123.277E+06     603.467E+03         46.2157
             904     15.5632E-03     18.1318E-03     807.842E-03     727.008E-03        -2.71657     807.690E-03        -2.71642     727.008E-03     7.83956E-03     75.9040E-03    -27.9746E-03    -47.9309E-03    -29.1199E-03     57.0930E-03    -27.9746E-03     87.0173E-03     159.995E+06     48.4982E+06    -14.0372E+06    -14.0328E+06     159.991E+06     48.4982E+06     844.920E+03         43.1553
             905     14.5904E-03     18.0679E-03     797.647E-03     728.098E-03        -2.70805     797.542E-03        -2.70795     728.098E-03     3.06499E-03     62.2438E-03    -27.6147E-03    -34.6380E-03    -28.5718E-03     56.1776E-03    -27.6147E-03     44.9763E-03     132.587E+06    -4.29906E+06    -27.9981E+06    -16.1972E+06     132.579E+06    -16.0920E+06     1.04609E+06         39.3760
             906     13.6187E-03     18.0345E-03     773.584E-03     727.558E-03        -2.68520     773.523E-03        -2.68514     727.558E-03     10.0073E-03     58.0239E-03    -27.5070E-03    -30.5283E-03    -28.5862E-03     56.0819E-03    -27.5070E-03     25.6166E-03     76.1986E+06    -15.2786E+06    -35.7102E+06    -15.2345E+06     76.1545E+06    -35.7102E+06     1.46965E+06         35.7462
             907     12.6466E-03     18.0098E-03     762.411E-03     726.835E-03        -2.67770     762.346E-03        -2.67764     726.835E-03     27.7674E-03     57.1258E-03    -27.5507E-03    -29.5938E-03    -28.6612E-03     56.1932E-03    -27.5507E-03     17.4091E-03     9.31092E+06    -18.6324E+06    -29.5969E+06    -13.7554E+06     2.10807E+06    -27.2710E+06     2.12377E+06         32.8016
             908     11.6748E-03     17.9922E-03     757.312E-03     724.064E-03        -2.67405     755.309E-03        -2.67395     725.972E-03     23.3038E-03     56.6040E-03    -27.5537E-03    -29.0955E-03    -28.6729E-03     56.1814E-03    -27.5537E-03     11.8731E-03    -13.1911E+06    -18.4693E+06    -49.3271E+06    -13.6870E+06    -48.9993E+06    -18.3012E+06     2.78562E+06         30.5039
             909     10.7028E-03     17.9782E-03     752.413E-03     722.761E-03        -2.66535     750.022E-03        -2.66524     725.046E-03    -9.67413E-03     56.2746E-03    -27.5337E-03    -28.7563E-03    -28.4874E-03     56.0057E-03    -27.5337E-03     9.43685E-03    -10.7940E+06    -14.1646E+06    -85.9473E+06    -14.2965E+06    -85.7880E+06    -10.8213E+06     3.30360E+06         28.6420
             910     9.73056E-03     17.9651E-03     763.426E-03     722.826E-03        -2.67524     762.713E-03        -2.67490     723.202E-03     26.8486E-03     55.9092E-03    -27.5053E-03    -28.3759E-03    -28.2231E-03     55.7564E-03    -27.5053E-03     6.93133E-03    -4.63715E+06    -15.3209E+06    -111.107E+06    -15.4848E+06    -110.944E+06    -4.63715E+06     3.91385E+06         27.1141
             911     8.75826E-03     17.9555E-03     765.248E-03     719.795E-03        -2.67571     764.855E-03        -2.67532     719.795E-03     54.1095E-03     55.5054E-03    -27.4712E-03    -28.0287E-03    -27.9466E-03     55.4234E-03    -27.4712E-03     5.12314E-03    -1.28844E+06    -17.6039E+06    -131.702E+06    -17.7934E+06    -131.513E+06    -1.28844E+06     4.58690E+06         25.9406
             912     7.78533E-03     17.9463E-03     750.142E-03     713.648E-03        -2.65272     747.409E-03        -2.65261     716.272E-03     5.56114E-03     55.1903E-03    -27.4303E-03    -27.7742E-03    -27.7106E-03     55.1267E-03    -27.4303E-03     4.46099E-03    -3.26819E+06    -20.9718E+06    -150.715E+06    -21.1861E+06    -150.501E+06    -3.26819E+06     5.20248E+06         25.1508
             913     6.81248E-03     17.9382E-03     743.533E-03     710.572E-03        -2.64087     740.860E-03        -2.64082     713.196E-03     823.975E-06     54.9888E-03    -27.3946E-03    -27.6061E-03    -27.5617E-03     54.9444E-03    -27.3946E-03     3.68195E-03    -6.95170E+06    -24.7074E+06    -168.446E+06    -24.9269E+06    -168.226E+06    -6.95170E+06     5.58449E+06         24.7081
             914     5.83949E-03     17.9313E-03     727.179E-03     704.665E-03        -2.61940     720.460E-03        -2.61924     711.228E-03     31.6408E-03     54.8142E-03    -27.3598E-03    -27.4626E-03    -27.4228E-03     54.7824E-03    -27.3679E-03     3.11328E-03    -11.8751E+06    -28.2908E+06    -185.737E+06    -28.4920E+06    -185.536E+06    -11.8751E+06     5.59507E+06         24.4661
             915     4.86639E-03     17.9253E-03     713.210E-03     698.296E-03        -2.60333     698.747E-03        -2.60310     712.537E-03     23.4372E-03     54.6983E-03    -27.3306E-03    -27.3734E-03    -27.3234E-03     54.6758E-03    -27.3580E-03     2.61358E-03    -17.2596E+06    -32.2631E+06    -206.922E+06    -32.4281E+06    -206.757E+06    -17.2596E+06     5.27434E+06         24.3018
             916     3.89302E-03     17.9202E-03     744.444E-03     703.712E-03        -2.63602     736.253E-03        -2.63551     711.390E-03     31.5269E-03     54.6508E-03    -27.3031E-03    -27.3517E-03    -27.2962E-03     54.6362E-03    -27.3440E-03     2.09705E-03    -23.7019E+06    -36.6799E+06    -226.411E+06    -36.7907E+06    -226.300E+06    -23.7019E+06     4.47061E+06         24.1780
             917     2.91991E-03     17.9161E-03     758.887E-03     698.912E-03        -2.64123     757.778E-03        -2.64012     698.912E-03    -21.2796E-03     54.5586E-03    -27.2398E-03    -27.3218E-03    -27.2382E-03     54.5493E-03    -27.3141E-03     1.64430E-03    -32.6174E+06    -40.4801E+06    -234.706E+06    -40.5339E+06    -234.652E+06    -32.6174E+06     3.10425E+06         24.0863
             918     1.94638E-03     17.9129E-03     719.414E-03     676.028E-03        -2.58591     708.307E-03        -2.58191     683.142E-03     80.5904E-03     54.5247E-03    -27.2137E-03    -27.3124E-03    -27.2109E-03     54.5200E-03    -27.3105E-03     1.16610E-03    -39.9055E+06    -43.2153E+06    -242.485E+06    -43.2329E+06    -242.468E+06    -39.9055E+06     1.72379E+06         24.0254
             919     973.306E-06     17.9111E-03     764.294E-03     621.164E-03        -2.58794     725.971E-03        -2.55673     628.279E-03    -298.629E-03     54.6207E-03    -27.2141E-03    -27.4091E-03    -27.3635E-03     54.6192E-03    -27.2582E-03     583.199E-06    -44.4023E+06    -45.5024E+06    -249.071E+06    -45.5069E+06    -249.067E+06    -44.4023E+06     852.121E+03         23.9940
             920     16.5367E-03     17.1944E-03     834.719E-03     805.295E-03        -2.84676     831.389E-03        -2.84658     808.442E-03     5.07984E-03     76.7620E-03    -28.2971E-03    -48.4441E-03    -28.8637E-03     57.1816E-03    -28.2971E-03     89.6657E-03     178.814E+06     121.884E+06    -8.14768E+06    -8.14557E+06     178.812E+06     121.884E+06     541.947E+03         46.0917
             921     15.5631E-03     17.0738E-03     840.158E-03     809.106E-03        -2.85413     834.113E-03        -2.85392     814.945E-03    -6.18798E-03     75.8631E-03    -27.8976E-03    -47.9607E-03    -29.4548E-03     57.3571E-03    -27.8976E-03     86.3073E-03     160.062E+06     47.8798E+06    -13.6230E+06    -13.6195E+06     160.059E+06     47.8798E+06     689.127E+03         43.0422
             922     14.5923E-03     17.0083E-03     839.526E-03     809.444E-03        -2.85170     828.670E-03        -2.85152     820.115E-03     13.1920E-03     62.7515E-03    -27.4987E-03    -35.2610E-03    -29.4495E-03     56.9400E-03    -27.4987E-03     44.0569E-03     132.546E+06    -3.18770E+06    -27.6095E+06    -15.2166E+06     132.540E+06    -15.5747E+06     841.316E+03         39.2788
             923     13.6210E-03     16.9763E-03     837.656E-03     815.409E-03        -2.85543     829.996E-03        -2.85538     823.017E-03     9.64719E-03     58.4750E-03    -27.3142E-03    -31.1692E-03    -29.5031E-03     56.8089E-03    -27.3142E-03     23.8182E-03     75.5643E+06    -14.7596E+06    -36.1125E+06    -14.6989E+06     75.5036E+06    -36.1125E+06     1.45722E+06         35.6621
             924     12.6499E-03     16.9509E-03     834.491E-03     817.943E-03        -2.85778     827.465E-03        -2.85774     824.931E-03     19.6741E-03     57.3472E-03    -27.2811E-03    -30.0862E-03    -29.3606E-03     56.6215E-03    -27.2811E-03     15.2508E-03     8.91494E+06    -18.8362E+06    -30.2253E+06    -13.8002E+06     1.45566E+06    -27.8021E+06     2.55065E+06         32.7242
             925     11.6786E-03     16.9349E-03     830.394E-03     810.563E-03        -2.85102     813.774E-03        -2.85092     827.076E-03     34.0446E-03     56.5798E-03    -27.2141E-03    -29.4120E-03    -29.1385E-03     56.3063E-03    -27.2141E-03     9.46015E-03    -12.8684E+06    -18.5113E+06    -49.8965E+06    -13.4824E+06    -49.4506E+06    -18.3433E+06     3.37042E+06         30.4283
             926     10.7070E-03     16.9207E-03     829.693E-03     814.354E-03        -2.85510     814.237E-03        -2.85498     829.693E-03     9.82714E-03     56.0793E-03    -27.1258E-03    -28.9696E-03    -28.8222E-03     55.9320E-03    -27.1258E-03     6.82979E-03    -10.5755E+06    -13.9929E+06    -86.1054E+06    -14.0573E+06    -85.8705E+06     -10.746E+06     4.04775E+06         28.5647
             927     9.73515E-03     16.9088E-03     849.811E-03     826.015E-03        -2.88574     844.705E-03        -2.88550     830.875E-03     21.4747E-03     55.4587E-03    -27.0319E-03    -28.3993E-03    -28.3309E-03     55.3902E-03    -27.0319E-03     4.30045E-03    -4.80074E+06    -15.2710E+06    -111.475E+06    -15.5163E+06    -111.229E+06    -4.80074E+06     4.82728E+06         27.0320
             928     8.76252E-03     16.8993E-03     863.607E-03     829.293E-03        -2.90475     863.289E-03        -2.90444     829.293E-03     62.7242E-03     54.8764E-03    -26.9409E-03    -27.9279E-03    -27.9009E-03     54.8493E-03    -26.9409E-03     2.60995E-03    -1.28312E+06    -17.6212E+06    -132.230E+06    -17.9075E+06    -131.944E+06    -1.28312E+06     5.69562E+06         25.8497
             929     7.78999E-03     16.8911E-03     843.387E-03     817.675E-03        -2.87373     832.789E-03        -2.87347     828.009E-03    -2.92416E-03     54.3910E-03    -26.8458E-03    -27.5567E-03    -27.5382E-03     54.3725E-03    -26.8458E-03     1.97263E-03    -2.80283E+06    -20.4104E+06    -150.413E+06    -20.7348E+06    -150.089E+06    -2.80283E+06     6.46095E+06         25.0461
             930     6.81663E-03     16.8830E-03     830.702E-03     807.533E-03        -2.84983     807.904E-03        -2.84964     830.149E-03    -41.4989E-03     53.9318E-03    -26.7643E-03    -27.1766E-03    -27.1654E-03     53.9206E-03    -26.7643E-03     1.36104E-03    -6.54510E+06    -23.6631E+06    -167.690E+06    -23.9707E+06    -167.382E+06    -6.54510E+06     6.60535E+06         24.5893
             931     5.84324E-03     16.8765E-03     834.584E-03     815.463E-03        -2.86565     815.868E-03        -2.86550     834.031E-03     17.7743E-03     53.6283E-03    -26.7057E-03    -26.9264E-03    -26.9186E-03     53.6205E-03    -26.7057E-03     1.04641E-03    -11.6716E+06    -27.3479E+06    -184.779E+06    -27.6271E+06    -184.500E+06    -11.6716E+06     6.59436E+06         24.3418
             932     4.86949E-03     16.8705E-03     845.622E-03     829.679E-03        -2.89544     838.742E-03        -2.89485     835.965E-03    -25.1505E-03     53.4413E-03    -26.6596E-03    -26.7848E-03    -26.7696E-03     53.4355E-03    -26.6690E-03     845.861E-06    -16.7486E+06    -31.1793E+06    -205.172E+06    -31.4332E+06    -204.918E+06    -16.7486E+06     6.58462E+06         24.1774
             933     3.89582E-03     16.8655E-03     864.427E-03     832.337E-03        -2.91395     863.941E-03        -2.91346     832.337E-03    -47.8747E-03     53.2982E-03    -26.6219E-03    -26.6796E-03    -26.6667E-03     53.2947E-03    -26.6313E-03     651.459E-06    -22.8378E+06    -35.4481E+06    -223.531E+06    -35.6283E+06    -223.351E+06    -22.8378E+06     5.71675E+06         24.0533
             934     2.92192E-03     16.8617E-03     860.051E-03     822.804E-03        -2.89530     859.298E-03        -2.89455     822.804E-03    -55.1855E-03     53.1565E-03    -26.5543E-03    -26.6041E-03    -26.5766E-03     53.1545E-03    -26.5799E-03     506.698E-06    -31.7257E+06    -39.7638E+06    -231.808E+06    -39.8645E+06    -231.707E+06    -31.7257E+06     4.24871E+06         23.9618
             935     1.94806E-03     16.8590E-03     839.879E-03     805.926E-03        -2.86716     829.425E-03        -2.86382     813.041E-03     72.3223E-03     53.0314E-03    -26.4688E-03    -26.5662E-03    -26.4782E-03     53.0303E-03    -26.5557E-03     392.491E-06    -39.8302E+06    -43.7007E+06    -239.881E+06    -43.7445E+06    -239.837E+06    -39.8302E+06     2.73204E+06         23.9008
             936     973.670E-06     16.8564E-03     895.367E-03     749.074E-03        -2.87129     862.303E-03        -2.84535     756.189E-03    -276.378E-03     53.0878E-03    -26.4789E-03    -26.6133E-03    -26.5513E-03     53.0873E-03    -26.5403E-03     264.942E-06    -45.5163E+06    -46.9445E+06    -247.426E+06    -46.8566E+06    -247.410E+06    -45.6197E+06     1.61793E+06         23.8686
             937     16.5381E-03     16.1370E-03     893.121E-03     860.505E-03        -2.97254     860.171E-03        -2.97220     893.121E-03     23.4198E-03     77.3468E-03    -28.2258E-03    -49.0834E-03    -30.0234E-03     58.2868E-03    -28.2258E-03     89.1763E-03     179.263E+06     122.598E+06    -7.59064E+06    -7.58816E+06     179.261E+06     122.598E+06     566.296E+03         45.9424
             938     15.5663E-03     16.0148E-03     902.968E-03     864.261E-03        -2.98546     863.973E-03        -2.98517     902.968E-03     19.3814E-03     76.1952E-03    -27.7477E-03    -48.4213E-03    -30.4093E-03     58.1832E-03    -27.7477E-03     85.6836E-03     159.931E+06     46.9694E+06    -13.7026E+06    -13.7003E+06     159.929E+06     46.9694E+06     354.726E+03         42.9047
             939     14.5944E-03     15.9488E-03     911.803E-03     863.287E-03        -2.99419     863.042E-03        -2.99394     911.803E-03     44.6863E-03     63.1868E-03    -27.2765E-03    -35.9212E-03    -30.4396E-03     57.7052E-03    -27.2765E-03     42.4897E-03     131.079E+06    -4.73234E+06    -27.7124E+06    -15.7701E+06     131.072E+06    -16.6680E+06     576.322E+03         39.1581
             940     13.6251E-03     15.9163E-03     918.569E-03     868.845E-03        -3.00672     868.796E-03        -3.00667     918.569E-03     3.77724E-03     58.9145E-03    -27.0023E-03    -31.9207E-03    -30.6264E-03     57.6202E-03    -27.0023E-03     21.0432E-03     75.1732E+06     -14.939E+06    -35.9654E+06    -14.8598E+06     75.0940E+06    -35.9654E+06     1.81350E+06         35.5587
             941     12.6553E-03     15.8930E-03     924.129E-03     882.170E-03        -3.02925     882.140E-03        -3.02922     924.129E-03     2.97943E-03     57.6095E-03    -26.8629E-03    -30.7627E-03    -30.2694E-03     57.1163E-03    -26.8629E-03     12.3511E-03     9.29682E+06    -18.9130E+06    -30.9786E+06    -13.7492E+06     1.15812E+06    -28.0037E+06     2.91474E+06         32.6334
             942     11.6845E-03     15.8768E-03     928.777E-03     894.902E-03        -3.04880     894.862E-03        -3.04876     928.777E-03     18.4891E-03     56.5658E-03    -26.6970E-03    -29.9134E-03    -29.7789E-03     56.4313E-03    -26.6970E-03     6.43916E-03    -12.7501E+06    -18.5031E+06    -50.6148E+06    -13.4205E+06    -50.0924E+06    -18.3550E+06     3.93792E+06         30.3432
             943     10.7136E-03     15.8638E-03     932.665E-03     906.445E-03        -3.06653     906.390E-03        -3.06647     932.665E-03     4.69810E-03     55.7616E-03    -26.5142E-03    -29.2573E-03    -29.2056E-03     55.7099E-03    -26.5142E-03     3.56420E-03    -10.4604E+06    -13.8223E+06    -86.5896E+06    -13.9924E+06    -86.2489E+06    -10.6309E+06     4.91280E+06         28.4791
             944     9.74180E-03     15.8524E-03     939.355E-03     906.564E-03        -3.07502     909.600E-03        -3.07495     936.253E-03     8.37508E-03     54.8729E-03    -26.3301E-03    -28.5106E-03    -28.4921E-03     54.8544E-03    -26.3301E-03     841.319E-06    -4.67788E+06    -15.1628E+06    -112.020E+06    -15.5019E+06    -111.681E+06    -4.67788E+06     5.69649E+06         26.9399
             945     8.76951E-03     15.8444E-03     944.526E-03     913.092E-03        -3.08835     917.709E-03        -3.08814     939.703E-03     52.5381E-03     54.0098E-03    -26.1540E-03    -27.8465E-03    -27.8346E-03     53.9978E-03    -26.1540E-03    -691.574E-06    -1.08235E+06    -17.3935E+06    -132.387E+06    -17.7672E+06    -132.013E+06    -1.08235E+06     6.53306E+06         25.7439
             946     7.79646E-03     15.8361E-03     946.183E-03     926.470E-03        -3.10851     929.696E-03        -3.10810     942.552E-03     28.6114E-03     53.2519E-03    -25.9788E-03    -27.2809E-03    -27.2657E-03     53.2367E-03    -25.9788E-03    -1.23711E-03    -2.64392E+06    -19.9727E+06    -150.105E+06    -20.3584E+06    -149.720E+06    -2.64392E+06     7.05506E+06         24.9181
             947     6.82317E-03     15.8295E-03     948.341E-03     912.569E-03        -3.09361     913.918E-03        -3.09305     946.432E-03     24.2233E-03     52.5110E-03    -25.8271E-03    -26.6902E-03    -26.6736E-03     52.4943E-03    -25.8271E-03    -1.59381E-03    -5.99146E+06    -22.7528E+06    -166.812E+06    -23.1514E+06    -166.413E+06    -5.99146E+06     7.51651E+06         24.4385
             948     5.84888E-03     15.8228E-03     952.404E-03     916.936E-03        -3.09634     916.572E-03        -3.09598     952.404E-03     47.4252E-03     51.9403E-03    -25.7131E-03    -26.2292E-03    -26.2141E-03     51.9252E-03    -25.7131E-03    -1.59938E-03    -10.6213E+06    -26.0086E+06    -183.672E+06    -26.3973E+06    -183.283E+06    -10.6213E+06     7.75906E+06         24.1779
             949     4.87461E-03     15.8177E-03     973.165E-03     945.843E-03        -3.14807     963.322E-03        -3.14754     955.156E-03    -3.31835E-03     51.5681E-03    -25.6283E-03    -25.9416E-03    -25.9291E-03     51.5555E-03    -25.6283E-03    -1.47771E-03    -16.0722E+06    -29.7534E+06    -203.220E+06    -30.0968E+06    -202.877E+06    -16.0722E+06     7.67410E+06         24.0072
             950     3.89992E-03     15.8128E-03     971.345E-03     951.899E-03        -3.15107     969.480E-03        -3.15006     952.752E-03     32.9999E-03     51.2580E-03    -25.5552E-03    -25.7064E-03    -25.6978E-03     51.2495E-03    -25.5552E-03    -1.21784E-03    -22.1956E+06    -33.9177E+06    -220.560E+06    -34.1866E+06    -220.291E+06    -22.1956E+06     6.99314E+06         23.8792
             951     2.92504E-03     15.8093E-03     956.565E-03     947.434E-03        -3.12864     952.613E-03        -3.12803     950.766E-03     29.3182E-03     51.0278E-03    -25.4843E-03    -25.5463E-03    -25.5412E-03     51.0227E-03    -25.4843E-03    -896.688E-06    -30.2508E+06    -38.2830E+06    -228.554E+06    -38.4710E+06    -228.366E+06    -30.2508E+06     5.89283E+06         23.7860
             952     1.95005E-03     15.8062E-03     968.270E-03     944.197E-03        -3.13848     963.127E-03        -3.13582     946.677E-03     113.613E-03     50.8998E-03    -25.3973E-03    -25.5064E-03    -25.4869E-03     50.8976E-03    -25.4145E-03    -579.606E-06    -37.5378E+06    -42.5283E+06    -235.984E+06    -42.6380E+06    -235.874E+06    -37.5378E+06     4.30907E+06         23.7233
             953     975.331E-06     15.8048E-03         1.01645     891.289E-03        -3.14478     994.360E-03        -3.12269     891.289E-03    -261.239E-03     50.7165E-03    -25.2483E-03    -25.4709E-03    -25.4529E-03     50.7157E-03    -25.2656E-03    -267.037E-06    -43.9732E+06    -46.1780E+06    -244.140E+06    -46.1117E+06    -244.103E+06    -44.0766E+06     2.59349E+06         23.6880
             954     16.5383E-03     15.0742E-03     976.163E-03     877.544E-03        -3.09142     877.051E-03        -3.09092     976.163E-03     49.4297E-03     78.0436E-03    -28.1392E-03    -49.8590E-03    -31.7177E-03     59.9024E-03    -28.1392E-03     88.0075E-03     178.715E+06     123.425E+06    -7.80442E+06    -7.79825E+06     178.709E+06     123.425E+06    -209.041E+03         45.7660
             955     15.5692E-03     14.9568E-03     989.868E-03     884.416E-03        -3.11489     884.214E-03        -3.11469     989.868E-03     26.4031E-03     76.9342E-03    -27.5452E-03    -49.3665E-03    -32.2335E-03     59.8011E-03    -27.5452E-03     84.6102E-03     160.243E+06     48.7303E+06    -13.0180E+06    -13.0010E+06     160.226E+06     48.7303E+06     371.416E+03         42.7415
             956     14.6005E-03     14.8869E-03         1.00275     893.546E-03        -3.13954     893.379E-03        -3.13937         1.00275     33.8364E-03     63.9613E-03    -26.9370E-03    -37.0416E-03    -31.8863E-03     58.8060E-03    -26.9370E-03     41.1866E-03     130.701E+06    -3.80532E+06    -28.1023E+06    -14.9804E+06     130.681E+06    -16.9080E+06     1.28275E+06         39.0147
             957     13.6316E-03     14.8565E-03         1.01334     911.209E-03        -3.16912     911.190E-03        -3.16910         1.01334    -9.91714E-03     59.2483E-03    -26.5431E-03    -32.7283E-03    -31.7579E-03     58.2780E-03    -26.5431E-03     18.2300E-03     73.7628E+06    -14.9218E+06    -36.9675E+06    -14.8323E+06     73.6734E+06    -36.9675E+06     2.03353E+06         35.4372
             958     12.6623E-03     14.8332E-03         1.02216     940.115E-03        -3.20887     940.058E-03        -3.20881         1.02216     7.65345E-03     57.8618E-03    -26.2906E-03    -31.5960E-03    -31.2965E-03     57.5623E-03    -26.2906E-03     9.21859E-03     9.08344E+06    -18.8589E+06    -31.3238E+06    -13.8548E+06     557.448E+03    -27.8019E+06     3.30686E+06         32.5294
             959     11.6931E-03     14.8193E-03         1.02894     976.824E-03        -3.25021     976.691E-03        -3.25008         1.02894     39.3879E-03     56.6261E-03    -25.9991E-03    -30.6646E-03    -30.6212E-03     56.5827E-03    -25.9991E-03     3.23986E-03    -12.5466E+06    -18.2613E+06    -51.1915E+06    -13.5489E+06    -50.5055E+06    -17.9450E+06     4.47613E+06         30.2490
             960     10.7224E-03     14.8064E-03         1.03437     987.560E-03        -3.26389     987.464E-03        -3.26379         1.03437     17.0863E-03     55.4887E-03    -25.6872E-03    -29.8024E-03    -29.7832E-03     55.4695E-03    -25.6872E-03    -21.7749E-06    -9.98925E+06    -13.5219E+06    -87.0055E+06    -13.9322E+06    -86.5952E+06    -9.98925E+06     5.43672E+06         28.3866
             961     9.75140E-03     14.7973E-03         1.04067     975.458E-03        -3.26015     975.391E-03        -3.26009         1.04067     15.6451E-03     54.2312E-03    -25.3748E-03    -28.8188E-03    -28.7762E-03     54.1886E-03    -25.3748E-03    -2.97520E-03    -4.05048E+06    -14.7476E+06    -112.333E+06    -15.1687E+06    -111.912E+06    -4.05048E+06     6.38551E+06         26.8400
             962     8.77904E-03     14.7899E-03         1.04805     987.449E-03        -3.28310     987.251E-03        -3.28290         1.04805     45.0137E-03     52.9459E-03    -25.0794E-03    -27.8543E-03    -27.7821E-03     52.8738E-03    -25.0794E-03    -4.41656E-03    -139.198E+03    -16.4692E+06    -132.069E+06    -16.9068E+06    -131.632E+06    -139.198E+03     7.08282E+06         25.6264
             963     7.80594E-03     14.7829E-03         1.05590         1.02188        -3.32336         1.02355        -3.32313         1.05399     43.1037E-03     51.7423E-03    -24.7980E-03    -26.9501E-03    -26.8615E-03     51.6537E-03    -24.7980E-03    -4.89592E-03    -1.38614E+06    -18.8073E+06    -149.673E+06    -19.2417E+06    -149.239E+06    -1.38614E+06     7.50157E+06         24.7715
             964     6.83167E-03     14.7769E-03         1.06408         1.03403        -3.33899         1.03992        -3.33858         1.05778     64.4006E-03     50.6954E-03    -24.5487E-03    -26.1493E-03    -26.0557E-03     50.6019E-03    -24.5487E-03    -5.01674E-03    -4.57876E+06    -21.6498E+06    -166.062E+06    -22.1148E+06    -165.597E+06    -4.57876E+06     8.15324E+06         24.2598
             965     5.85720E-03     14.7718E-03         1.07024         1.04136        -3.35173         1.05087        -3.35140         1.06039     45.0841E-03     49.7635E-03    -24.3429E-03    -25.4203E-03    -25.3383E-03     49.6814E-03    -24.3429E-03    -4.65119E-03    -9.32227E+06    -24.6895E+06    -182.241E+06    -25.1763E+06    -181.754E+06    -9.32227E+06     8.70141E+06         23.9763
             966     4.88158E-03     14.7666E-03         1.07630         1.04575        -3.36503         1.06014        -3.36494         1.06182     21.8193E-03     49.0143E-03    -24.1847E-03    -24.8296E-03    -24.7647E-03     48.9494E-03    -24.1847E-03    -4.10940E-03    -15.0245E+06    -28.1388E+06    -201.530E+06    -28.5786E+06    -201.090E+06    -15.0245E+06     8.66544E+06         23.7915
             967     3.90575E-03     14.7626E-03         1.07259         1.04579        -3.36608         1.05422        -3.36548         1.06357     73.2454E-03     48.4845E-03    -24.0596E-03    -24.4260E-03    -24.3797E-03     48.4383E-03    -24.0596E-03    -3.41662E-03    -20.7769E+06    -31.8912E+06    -217.753E+06    -32.2703E+06    -217.374E+06    -20.7769E+06     8.31919E+06         23.6548
             968     2.92954E-03     14.7591E-03         1.06834         1.04957        -3.36569         1.04891        -3.36503         1.06834     18.6998E-03     48.0949E-03    -23.9459E-03    -24.1499E-03    -24.1226E-03     48.0677E-03    -23.9459E-03    -2.59666E-03    -28.2269E+06    -35.9646E+06    -224.623E+06    -36.2526E+06    -224.335E+06    -28.2269E+06     7.24745E+06         23.5560
             969     1.95317E-03     14.7565E-03         1.08337         1.04774        -3.37413         1.05054        -3.37258         1.07902     78.2304E-03     47.8243E-03    -23.8355E-03    -23.9900E-03    -23.9772E-03     47.8115E-03    -23.8355E-03    -1.71765E-03    -35.3201E+06    -39.3418E+06    -231.071E+06    -39.2524E+06    -230.913E+06    -35.5669E+06     5.36567E+06         23.4874
             970     976.716E-06     14.7547E-03         1.15562         1.03645        -3.43472         1.11699        -3.41545         1.05582    -285.897E-03     47.5562E-03    -23.6750E-03    -23.8824E-03    -23.8518E-03     47.5521E-03    -23.7015E-03    -968.281E-06    -39.2459E+06    -40.9892E+06    -238.699E+06    -40.2228E+06    -238.644E+06    -40.0669E+06     2.88384E+06         23.4468
             971     16.5419E-03     14.0140E-03         1.05835     877.875E-03        -3.19115     877.472E-03        -3.19075         1.05835     14.8154E-03     79.1144E-03    -27.9958E-03    -51.1195E-03    -33.7387E-03     61.7336E-03    -27.9958E-03     87.1174E-03     178.423E+06     122.638E+06    -8.23482E+06    -8.22956E+06     178.418E+06     122.638E+06    -630.672E+03         45.5627
             972     15.5736E-03     13.8933E-03         1.07667     899.981E-03        -3.23949     899.803E-03        -3.23931         1.07667    -8.26320E-03     77.9780E-03    -27.2709E-03    -50.7296E-03    -34.3087E-03     61.5572E-03    -27.2709E-03     83.6877E-03     159.339E+06     48.7642E+06    -14.2196E+06    -14.2041E+06     159.323E+06     48.7642E+06     367.425E+03         42.5537
             973     14.6064E-03     13.8260E-03         1.09327     937.505E-03        -3.30074     937.388E-03        -3.30062         1.09327    -996.858E-06     64.7807E-03    -26.5228E-03    -38.2738E-03    -33.5861E-03     60.0930E-03    -26.5228E-03     39.8396E-03     130.525E+06    -3.04819E+06    -29.4863E+06    -16.0297E+06     130.504E+06    -16.4845E+06     1.52752E+06         38.8511
             974     13.6392E-03     13.7948E-03         1.10617     978.847E-03        -3.35150     978.784E-03        -3.35143         1.10617     1.70776E-03     59.8644E-03    -25.9837E-03    -33.9148E-03    -33.1076E-03     59.0572E-03    -25.9837E-03     16.3919E-03     73.1109E+06    -15.3301E+06    -37.6732E+06    -15.2130E+06     72.9938E+06    -37.6732E+06     2.29429E+06         35.3011
             975     12.6720E-03     13.7741E-03         1.11682         1.00552        -3.38202         1.00537        -3.38186         1.11682     5.19979E-03     58.2539E-03    -25.5963E-03    -32.6962E-03    -32.5283E-03     58.0860E-03    -25.5963E-03     6.46748E-03     7.82016E+06    -18.7652E+06    -31.7364E+06    -14.4465E+06    -562.972E+03    -27.6719E+06     3.69973E+06         32.4165
             976     11.7027E-03     13.7605E-03         1.12627         1.03245        -3.41746         1.03223        -3.41724         1.12627     20.6405E-03     56.7725E-03    -25.1536E-03    -31.6507E-03    -31.6371E-03     56.7589E-03    -25.1536E-03     440.129E-06    -12.4000E+06    -17.8201E+06    -51.2349E+06    -13.8317E+06    -50.4413E+06    -17.1821E+06     4.71652E+06         30.1507
             977     10.7339E-03     13.7499E-03         1.13511         1.04715        -3.44246         1.04704        -3.44236         1.13511     18.6773E-03     55.3507E-03    -24.6793E-03    -30.6624E-03    -30.6085E-03     55.2968E-03    -24.6793E-03    -3.39487E-03    -9.02350E+06    -13.4847E+06    -87.2082E+06    -13.9165E+06    -86.7764E+06    -9.02350E+06     5.58436E+06         28.2926
             978     9.76299E-03     13.7426E-03         1.14421         1.05622        -3.46101         1.05617        -3.46096         1.14421     11.9491E-03     53.5938E-03    -24.2035E-03    -29.3464E-03    -29.2052E-03     53.4526E-03    -24.2035E-03    -6.53488E-03    -2.77320E+06    -14.1742E+06    -112.389E+06    -14.6108E+06    -111.952E+06    -2.77320E+06     6.52409E+06         26.7389
             979     8.79107E-03     13.7368E-03         1.15380         1.07004        -3.48698         1.06998        -3.48692         1.15380     12.3471E-03     51.8221E-03    -23.7524E-03    -28.0533E-03    -27.8390E-03     51.6078E-03    -23.7524E-03    -8.04176E-03     1.53557E+06    -15.5578E+06    -131.711E+06    -16.0046E+06    -131.264E+06     1.53557E+06     7.17497E+06         25.5053
             980     7.81758E-03     13.7318E-03         1.16328         1.09376        -3.52298         1.09375        -3.52297         1.16328    -4.22731E-03     50.0965E-03    -23.3233E-03    -26.7782E-03    -26.5249E-03     49.8432E-03    -23.3233E-03    -8.59416E-03     900.434E+03    -17.5666E+06    -149.015E+06    -18.0244E+06    -148.557E+06     900.434E+03     7.73471E+06         24.6158
             981     6.84314E-03     13.7272E-03         1.18580         1.14097        -3.59259         1.15787        -3.59255         1.16886     1.56234E-03     48.4958E-03    -22.9398E-03    -25.5557E-03    -25.2995E-03     48.2396E-03    -22.9398E-03    -8.49346E-03    -2.22645E+06    -19.8259E+06    -165.422E+06    -20.3124E+06    -164.935E+06    -2.22645E+06     8.38887E+06         24.0628
             982     5.86730E-03     13.7231E-03         1.19066         1.16773        -3.62657         1.19005        -3.62648         1.16826     8.01849E-03     47.1096E-03    -22.6169E-03    -24.4887E-03    -24.2611E-03     46.8821E-03    -22.6169E-03    -7.84610E-03    -6.67136E+06    -22.6313E+06    -181.103E+06    -23.1551E+06    -180.579E+06    -6.67136E+06     9.08594E+06         23.7468
             983     4.89081E-03     13.7192E-03         1.17517         1.13572        -3.58083         1.14104        -3.58070         1.16971    -7.34486E-03     45.9308E-03    -22.3567E-03    -23.5705E-03    -23.3909E-03     45.7511E-03    -22.3567E-03    -6.85434E-03    -11.7962E+06    -25.7748E+06    -199.234E+06    -26.2793E+06    -198.730E+06    -11.7962E+06     9.30158E+06         23.5401
             984     3.91333E-03     13.7158E-03         1.17954         1.12690        -3.57271         1.12681        -3.57261         1.17954    -9.15104E-03     45.0321E-03    -22.1449E-03    -22.8829E-03    -22.7577E-03     44.9069E-03    -22.1449E-03    -5.64566E-03    -17.6247E+06    -28.8586E+06    -214.808E+06    -29.2958E+06    -214.371E+06    -17.6247E+06     8.97823E+06         23.3868
             985     2.93549E-03     13.7128E-03         1.19324         1.16226        -3.61672         1.16453        -3.61660         1.19085    -21.0552E-03     44.3600E-03    -21.9587E-03    -22.3961E-03    -22.3209E-03     44.2849E-03    -21.9587E-03    -4.30935E-03    -25.1882E+06    -31.5700E+06    -220.079E+06    -31.9061E+06    -219.743E+06    -25.1882E+06     7.86287E+06         23.2750
             986     1.95728E-03     13.7107E-03         1.21697         1.16971        -3.65287         1.18652        -3.65121         1.19851     93.7003E-03     43.8154E-03    -21.8187E-03    -21.9945E-03    -21.9483E-03     43.7786E-03    -21.8281E-03    -2.93543E-03    -31.1242E+06    -33.9933E+06    -226.061E+06    -33.9269E+06    -225.880E+06    -31.3711E+06     5.71359E+06         23.1967
             987     978.555E-06     13.7093E-03         1.28567         1.12920        -3.66940         1.25476        -3.65785         1.14856    -192.758E-03     43.5687E-03    -21.7241E-03    -21.8449E-03    -21.7960E-03     43.5556E-03    -21.7599E-03    -1.70430E-03    -34.1413E+06    -35.8356E+06    -232.067E+06    -35.0187E+06    -231.997E+06    -35.0280E+06     3.35426E+06         23.1505
             988     16.5433E-03     12.9510E-03         1.14055     891.316E-03        -3.30681     891.103E-03        -3.30659         1.14055    -15.7387E-03     80.5313E-03    -27.8382E-03    -52.7971E-03    -36.1923E-03     63.9264E-03    -27.8382E-03     86.3056E-03     177.982E+06     122.809E+06    -8.53346E+06    -8.52981E+06     177.978E+06     122.809E+06    -87.8325E+03         45.3315
             989     15.5784E-03     12.8279E-03         1.16234     931.541E-03        -3.37272     931.380E-03        -3.37256         1.16234    -29.9394E-03     79.0855E-03    -26.9600E-03    -52.1690E-03    -36.4228E-03     63.3392E-03    -26.9600E-03     82.8862E-03     158.065E+06     47.9844E+06    -15.1836E+06    -15.1790E+06     158.060E+06     47.9844E+06     769.324E+03         42.3401
             990     14.6137E-03     12.7638E-03         1.18131     995.505E-03        -3.45407     995.430E-03        -3.45399         1.18131    -16.3029E-03     65.7275E-03    -26.0676E-03    -39.6746E-03    -35.4403E-03     61.4933E-03    -26.0676E-03     38.1555E-03     130.410E+06    -4.30129E+06    -28.8736E+06    -17.4098E+06     130.397E+06    -15.7530E+06     1.20289E+06         38.6672
             991     13.6475E-03     12.7324E-03         1.19595         1.03994        -3.50952         1.03982        -3.50939         1.19595     10.1779E-03     60.6137E-03    -25.3796E-03    -35.2720E-03    -34.6349E-03     59.9766E-03    -25.3796E-03     14.2962E-03     72.7444E+06    -16.4845E+06     -36.025E+06    -16.3679E+06     72.6278E+06     -36.025E+06     2.28154E+06         35.1548
             992     12.6813E-03     12.7140E-03         1.20906         1.05434        -3.53668         1.05416        -3.53650         1.20906     467.837E-06     58.7341E-03    -24.8341E-03    -33.9382E-03    -33.8469E-03     58.6428E-03    -24.8341E-03     4.03865E-03     6.97576E+06    -18.2242E+06    -31.1346E+06    -14.9143E+06    -1.15574E+06    -26.3130E+06     3.50710E+06         32.3037
             993     11.7145E-03     12.7023E-03         1.22247         1.06792        -3.56858         1.06781        -3.56847         1.22247    -19.7215E-03     57.0767E-03    -24.2235E-03    -32.8837E-03    -32.8556E-03     57.0487E-03    -24.2235E-03    -2.04773E-03    -11.3410E+06    -16.9138E+06    -50.9023E+06    -13.9232E+06    -50.1895E+06    -15.0445E+06     4.47082E+06         30.0590
             994     10.7457E-03     12.6932E-03         1.23535         1.10884        -3.62661         1.10875        -3.62652         1.23535    -17.4523E-03     55.1977E-03    -23.5690E-03    -31.6185E-03    -31.4782E-03     55.0574E-03    -23.5690E-03    -6.38449E-03    -6.60586E+06    -13.0164E+06    -87.6382E+06    -13.3944E+06    -87.2602E+06    -6.60586E+06     5.17382E+06         28.2072
             995     9.77628E-03     12.6886E-03         1.24632         1.15074        -3.67976         1.15062        -3.67965         1.24632    -7.21997E-03     53.0726E-03    -22.9085E-03    -30.1194E-03    -29.8288E-03     52.7820E-03    -22.9085E-03    -9.63399E-03    -364.585E+03    -13.2922E+06    -112.572E+06    -13.6786E+06    -112.186E+06    -364.585E+03     6.12992E+06         26.6463
             996     8.80442E-03     12.6850E-03         1.25645         1.16544        -3.70351         1.16528        -3.70335         1.25645     36.2213E-03     50.7685E-03    -22.2672E-03    -28.4863E-03    -28.0784E-03     50.3606E-03    -22.2672E-03    -11.2090E-03     4.22803E+06    -14.6986E+06    -131.003E+06    -15.1106E+06    -130.591E+06     4.22803E+06     6.86831E+06         25.3924
             997     7.83139E-03     12.6821E-03         1.26665         1.18792        -3.73712         1.18778        -3.73698         1.26665     27.9015E-03     48.4264E-03    -21.6538E-03    -26.7780E-03    -26.2990E-03     47.9475E-03    -21.6538E-03    -11.8524E-03     4.51587E+06    -16.3804E+06    -148.170E+06    -16.7678E+06    -147.783E+06     4.51587E+06     7.11067E+06         24.4659
             998     6.85612E-03     12.6800E-03         1.28737         1.21958        -3.78835         1.23208        -3.78830         1.27481     9.39773E-03     46.1494E-03    -21.1023E-03    -25.0489E-03    -24.5688E-03     45.6694E-03    -21.1023E-03    -11.5416E-03     2.09540E+06    -18.0188E+06    -164.835E+06    -18.4329E+06    -164.421E+06     2.09540E+06     7.74740E+06         23.8656
             999     5.87955E-03     12.6775E-03         1.29323         1.23692        -3.80798         1.24938        -3.80789         1.28068     19.3080E-03     44.1492E-03    -20.6327E-03    -23.5135E-03    -23.0833E-03     43.7190E-03    -20.6327E-03    -10.6411E-03    -1.57655E+06    -19.6119E+06    -180.287E+06    -20.0646E+06    -179.834E+06    -1.57655E+06     8.47509E+06         23.5087
            1000     4.90145E-03     12.6752E-03         1.28790         1.24440        -3.81240         1.24421        -3.81222         1.28790    -17.7408E-03     42.4760E-03    -20.2418E-03    -22.2292E-03    -21.8838E-03     42.1306E-03    -20.2418E-03    -9.29932E-03    -5.95846E+06    -21.5309E+06    -196.854E+06    -21.9940E+06    -196.391E+06    -5.95846E+06     8.97802E+06         23.2706
            1001     3.92244E-03     12.6730E-03         1.29809         1.25349        -3.83428         1.25335        -3.83414         1.29809    -29.0399E-03     41.0694E-03    -19.9134E-03    -21.1502E-03    -20.9092E-03     40.8284E-03    -19.9134E-03    -7.58530E-03    -12.1921E+06    -24.1440E+06    -211.493E+06    -24.5481E+06    -211.089E+06    -12.1921E+06     8.65576E+06         23.0911
            1002     2.94253E-03     12.6711E-03         1.31051         1.28040        -3.87680         1.28268        -3.87670         1.30812    -20.0264E-03     39.9636E-03    -19.6493E-03    -20.3083E-03    -20.1640E-03     39.8193E-03    -19.6493E-03    -5.75266E-03    -19.9031E+06    -26.0660E+06    -215.651E+06    -26.3630E+06    -215.354E+06    -19.9031E+06     7.43326E+06         22.9594
            1003     1.96194E-03     12.6694E-03         1.32861         1.30296        -3.91250         1.32097        -3.91162         1.30973     49.3062E-03     39.2454E-03    -19.4663E-03    -19.7758E-03    -19.6943E-03     39.1733E-03    -19.4757E-03    -3.97445E-03    -24.3762E+06    -27.3815E+06    -220.777E+06    -27.5691E+06    -220.590E+06    -24.3762E+06     5.87696E+06         22.8701
            1004     980.994E-06     12.6687E-03         1.35200         1.27160        -3.89259         1.34255        -3.88314         1.27160    -222.827E-03     38.8120E-03    -19.2854E-03    -19.5257E-03    -19.4913E-03     38.7870E-03    -19.2948E-03    -2.22241E-03    -27.7288E+06    -30.0455E+06    -225.649E+06    -30.0730E+06    -225.556E+06    -27.7945E+06     4.14226E+06         22.8188
            1005     16.5473E-03     11.8825E-03         1.22017     935.150E-03        -3.44761     934.911E-03        -3.44737         1.22017     16.2648E-03     81.8559E-03    -27.6810E-03    -54.3363E-03    -38.7917E-03     66.3112E-03    -27.6810E-03     84.7299E-03     177.278E+06     124.082E+06    -8.66121E+06    -8.65747E+06     177.274E+06     124.082E+06     278.157E+03         45.0709
            1006     15.5838E-03     11.7641E-03         1.24351     976.672E-03        -3.51382     976.591E-03        -3.51373         1.24351    -13.1081E-03     79.9649E-03    -26.6508E-03    -53.3577E-03    -38.4257E-03     65.0330E-03    -26.6508E-03     81.8296E-03     157.812E+06     49.9344E+06    -14.7327E+06    -14.7244E+06     157.804E+06     49.9344E+06     1.13485E+06         42.0964
            1007     14.6200E-03     11.6968E-03         1.26490         1.02366        -3.57794         1.02356        -3.57784         1.26490    -14.3968E-03     66.8875E-03    -25.6103E-03    -41.2979E-03    -37.2872E-03     62.8768E-03    -25.6103E-03     37.0835E-03     130.344E+06    -3.74970E+06    -26.4633E+06    -17.2623E+06     130.331E+06    -12.9375E+06     1.38114E+06         38.4589
            1008     13.6574E-03     11.6706E-03         1.28329         1.06379        -3.64153         1.06362        -3.64136         1.28329    -21.6882E-03     61.4084E-03    -24.7767E-03    -36.6720E-03    -36.1888E-03     60.9252E-03    -24.7767E-03     12.5725E-03     72.2771E+06    -16.8916E+06    -31.8750E+06    -16.8165E+06     72.2021E+06    -31.8750E+06     1.78623E+06         35.0066
            1009     12.6916E-03     11.6526E-03         1.29987         1.10673        -3.70213         1.10658        -3.70198         1.29987    -19.7695E-03     59.2268E-03    -24.0711E-03    -35.1959E-03    -35.1327E-03     59.1636E-03    -24.0711E-03     2.77003E-03     6.55195E+06    -17.1086E+06    -29.0265E+06    -15.0465E+06    -1.63230E+06    -22.9043E+06     2.73748E+06         32.2106
            1010     11.7258E-03     11.6431E-03         1.31559         1.13486        -3.74895         1.13476        -3.74885         1.31559    -7.68486E-03     57.4216E-03    -23.2911E-03    -34.1630E-03    -34.1050E-03     57.3636E-03    -23.2911E-03    -3.78354E-03    -9.25152E+06    -15.6975E+06    -50.4601E+06    -13.8399E+06    -49.9895E+06    -11.5797E+06     3.53330E+06         29.9895
            1011     10.7588E-03     11.6373E-03         1.33073         1.17136        -3.80420         1.17124        -3.80408         1.33073    -116.423E-06     55.1398E-03    -22.4565E-03    -32.6726E-03    -32.4409E-03     54.9080E-03    -22.4565E-03    -8.61045E-03    -2.04961E+06    -12.8136E+06    -87.3146E+06    -13.0483E+06    -87.0799E+06    -2.04961E+06     4.00826E+06         28.1403
            1012     9.78922E-03     11.6350E-03         1.34373         1.23099        -3.87454         1.23087        -3.87442         1.34373     4.95340E-03     52.5653E-03    -21.6038E-03    -30.9182E-03    -30.4789E-03     52.1260E-03    -21.6038E-03    -11.9695E-03     3.99872E+06    -12.6192E+06    -113.235E+06    -12.8671E+06    -112.987E+06     3.99872E+06     4.81887E+06         26.5728
            1013     8.81865E-03     11.6344E-03         1.35362         1.27680        -3.93378         1.27663        -3.93361         1.35362     52.0525E-03     49.7634E-03    -20.7682E-03    -28.9847E-03    -28.3880E-03     49.1667E-03    -20.7682E-03    -13.5805E-03     9.85612E+06    -12.6320E+06    -129.971E+06    -12.9127E+06    -129.690E+06     9.85612E+06     5.55430E+06         25.3015
            1014     7.84509E-03     11.6349E-03         1.36186         1.29714        -3.96443         1.29693        -3.96423         1.36186     19.5186E-03     46.7903E-03    -19.9633E-03    -26.8333E-03    -26.1416E-03     46.0986E-03    -19.9633E-03    -14.1592E-03     11.7110E+06    -13.2776E+06    -146.834E+06    -13.5150E+06    -146.597E+06     11.7110E+06     5.38501E+06         24.3402
            1015     6.86991E-03     11.6356E-03         1.37204         1.28506        -3.96006         1.28479        -3.95979         1.37204     27.3761E-03     43.8793E-03    -19.2257E-03    -24.6540E-03    -23.9607E-03     43.1860E-03    -19.2257E-03    -13.6762E-03     9.45103E+06    -14.0797E+06    -164.662E+06    -14.3110E+06    -164.431E+06     9.45103E+06     5.64118E+06         23.6922
            1016     5.89219E-03     11.6356E-03         1.38651         1.28700        -3.97663         1.28671        -3.97634         1.38651     68.4417E-03     41.1935E-03    -18.5817E-03    -22.6084E-03    -21.9902E-03     40.5753E-03    -18.5817E-03    -12.4565E-03     5.06438E+06    -15.2034E+06    -179.498E+06    -15.4927E+06    -179.209E+06     5.06438E+06     6.78841E+06         23.2900
            1017     4.91288E-03     11.6351E-03         1.40160         1.35368        -4.05055         1.35596        -4.05034         1.39913     25.7887E-03     38.9042E-03    -18.0430E-03    -20.8578E-03    -20.3567E-03     38.4031E-03    -18.0430E-03    -10.8449E-03     818.301E+03    -16.9497E+06    -195.463E+06    -17.2852E+06    -195.128E+06     818.301E+03     7.66941E+06         23.0128
            1018     3.93208E-03     11.6348E-03         1.41188         1.39469        -4.09971         1.40286        -4.09956         1.40357     19.3778E-03     36.9483E-03    -17.5935E-03    -19.3515E-03    -18.9957E-03     36.5925E-03    -17.5935E-03    -8.83770E-03    -4.47845E+06    -19.0318E+06    -208.054E+06    -19.3368E+06    -207.749E+06    -4.47845E+06     7.51956E+06         22.7991
            1019     2.94993E-03     11.6341E-03         1.41197         1.38599        -4.09555         1.39167        -4.09539         1.40613     14.3648E-03     35.4153E-03    -17.2439E-03    -18.1686E-03    -17.9557E-03     35.2024E-03    -17.2439E-03    -6.64082E-03    -11.6906E+06    -20.8951E+06    -211.854E+06    -21.1033E+06    -211.645E+06    -11.6906E+06     6.18367E+06         22.6432
            1020     1.96697E-03     11.6334E-03         1.41824         1.38175        -4.10047         1.38101        -4.09932         1.41782     82.8942E-03     34.4358E-03    -16.9961E-03    -17.4386E-03    -17.3353E-03     34.3325E-03    -16.9961E-03    -4.48839E-03    -17.5220E+06    -22.3914E+06    -216.127E+06    -22.5279E+06    -215.991E+06    -17.5220E+06     5.08212E+06         22.5402
            1021     983.967E-06     11.6322E-03         1.47038         1.39099        -4.16207         1.43952        -4.15495         1.41473    -166.163E-03     33.7829E-03    -16.7657E-03    -17.0167E-03    -16.9811E-03     33.7473E-03    -16.7657E-03    -2.52588E-03    -20.8909E+06    -23.4929E+06    -218.889E+06    -23.3755E+06    -218.816E+06    -21.0816E+06     3.17404E+06         22.4817
            1022     16.5496E-03     10.8141E-03         1.29559     969.306E-03        -3.56724     968.987E-03        -3.56692         1.29559    -3.10671E-03     83.2895E-03    -27.5278E-03    -55.9285E-03    -41.3086E-03     68.6697E-03    -27.5278E-03     83.1028E-03     177.122E+06     124.999E+06    -8.39467E+06     -8.3926E+06     177.120E+06     124.999E+06     574.184E+03         44.7752
            1023     15.5884E-03     10.6962E-03         1.32061         1.02428        -3.64814         1.02410        -3.64796         1.32061    -40.8971E-03     80.9617E-03    -26.3505E-03    -54.6572E-03    -40.3704E-03     66.6749E-03    -26.3505E-03     80.9828E-03     157.039E+06     51.1296E+06    -15.0305E+06    -15.0186E+06     157.027E+06     51.1296E+06     1.28478E+06         41.8195
            1024     14.6274E-03     10.6310E-03         1.34424         1.05347        -3.70089         1.05338        -3.70081         1.34424    -15.5624E-03     67.5622E-03    -25.1933E-03    -42.3933E-03    -38.6057E-03     63.7746E-03    -25.1933E-03     36.2983E-03     129.867E+06    -2.53892E+06    -24.3443E+06    -17.1176E+06     129.849E+06    -9.74774E+06     1.60215E+06         38.2244
            1025     13.6639E-03     10.6057E-03         1.36604         1.08702        -3.76546         1.08684        -3.76529         1.36604    -9.16086E-03     62.0427E-03    -24.2478E-03    -37.8327E-03    -37.4025E-03     61.6125E-03    -24.2478E-03     11.8845E-03     73.2537E+06    -16.6468E+06    -26.4116E+06    -16.6276E+06     73.2345E+06    -26.4116E+06     1.20197E+06         34.8599
            1026     12.7010E-03     10.5919E-03         1.38563         1.15998        -3.85941         1.15981        -3.85924         1.38563     2.66467E-03     59.8547E-03    -23.4045E-03    -36.4910E-03    -36.4389E-03     59.8026E-03    -23.4045E-03     2.66508E-03     8.14363E+06    -15.8419E+06    -26.7112E+06    -15.0929E+06    -1.52724E+06    -17.7893E+06     1.20970E+06         32.1480
            1027     11.7360E-03     10.5834E-03         1.40226         1.22197        -3.93802         1.22183        -3.93788         1.40226     23.6802E-03     57.7388E-03    -22.4688E-03    -35.3066E-03    -35.2284E-03     57.6606E-03    -22.4688E-03    -4.20510E-03    -6.16873E+06    -14.2917E+06    -50.9341E+06    -13.6195E+06    -50.7196E+06    -7.05540E+06     2.07674E+06         29.9508
            1028     10.7699E-03     10.5813E-03         1.41764         1.24575        -3.98059         1.24568        -3.98053         1.41764     24.7170E-03     55.1921E-03    -21.4689E-03    -33.7147E-03    -33.4312E-03     54.9086E-03    -21.4689E-03    -9.70160E-03     3.59956E+06    -13.2600E+06    -86.3621E+06    -13.3688E+06    -86.2533E+06     3.59956E+06     2.45347E+06         28.0989
            1029     9.80196E-03     10.5823E-03         1.43285         1.28016        -4.03045         1.28014        -4.03043         1.43285     11.1374E-03     52.0253E-03    -20.4367E-03    -31.5471E-03    -31.0391E-03     51.5172E-03    -20.4367E-03    -12.9117E-03     9.42547E+06    -12.5656E+06    -112.974E+06    -12.6396E+06    -112.900E+06     9.42547E+06     1.89363E+06         26.5307
            1030     8.83088E-03     10.5853E-03         1.44598         1.34029        -4.10213         1.34027        -4.10211         1.44598     20.9744E-03     48.6870E-03    -19.4272E-03    -29.2527E-03    -28.5705E-03     48.0048E-03    -19.4272E-03    -14.4756E-03     15.1010E+06    -10.7881E+06    -129.376E+06    -10.8857E+06    -129.278E+06     15.1010E+06     1.50761E+06         25.2500
            1031     7.85804E-03     10.5894E-03         1.45622         1.37938        -4.15336         1.37928        -4.15326         1.45622    -17.8531E-03     45.2733E-03    -18.4629E-03    -26.8174E-03    -26.0286E-03     44.4845E-03    -18.4629E-03    -14.9876E-03     18.9990E+06    -9.24360E+06    -146.138E+06    -9.33083E+06    -146.051E+06     18.9990E+06     1.85705E+06         24.2627
            1032     6.88197E-03     10.5935E-03         1.46608         1.38975        -4.17365         1.38933        -4.17322         1.46608     33.8781E-03     41.8198E-03    -17.5631E-03    -24.2537E-03    -23.4637E-03     41.0297E-03    -17.5631E-03    -14.3622E-03     17.6112E+06    -9.48558E+06    -165.114E+06    -9.55495E+06    -165.045E+06     17.6112E+06     2.96678E+06         23.5732
            1033     5.90383E-03     10.5968E-03         1.47710         1.40684        -4.20270         1.40638        -4.20224         1.47710     94.8641E-03     38.5447E-03    -16.7626E-03    -21.7788E-03    -21.0807E-03     37.8467E-03    -16.7626E-03    -12.8975E-03     13.4494E+06    -10.7319E+06    -179.493E+06    -10.8619E+06    -179.363E+06     13.4494E+06     4.40043E+06         23.1279
            1034     4.92322E-03     10.5993E-03         1.48962         1.44108        -4.24998         1.44330        -4.24973         1.48714     71.2707E-03     35.6694E-03    -16.0869E-03    -19.5824E-03    -19.0227E-03     35.1097E-03    -16.0869E-03    -11.0533E-03     9.82045E+06    -12.4638E+06    -194.455E+06    -12.6401E+06    -194.278E+06     9.82045E+06     5.48797E+06         22.8119
            1035     3.94077E-03     10.6008E-03         1.50142         1.47117        -4.28370         1.47927        -4.28349         1.49311     68.2366E-03     33.2714E-03    -15.5189E-03    -17.7513E-03    -17.3485E-03     32.8686E-03    -15.5189E-03    -8.99364E-03     4.83033E+06    -14.4682E+06    -204.939E+06    -14.6253E+06    -204.782E+06     4.83033E+06     5.22460E+06         22.5637
            1036     2.95683E-03     10.6020E-03         1.50223         1.48088        -4.28901         1.48646        -4.28875         1.49640     13.3872E-03     31.3521E-03    -15.0581E-03    -16.2915E-03    -16.0489E-03     31.1094E-03    -15.0581E-03    -6.71115E-03    -3.35221E+06    -16.7748E+06    -208.929E+06    -16.8790E+06    -208.825E+06    -3.35221E+06     4.30001E+06         22.3801
            1037     1.97192E-03     10.6018E-03         1.52007         1.46955        -4.30689         1.48666        -4.30571         1.50178     58.2163E-03     29.9702E-03    -14.7327E-03    -15.2372E-03    -15.1210E-03     29.8540E-03    -14.7327E-03    -4.46538E-03    -11.3116E+06    -18.7665E+06    -212.757E+06    -18.8294E+06    -212.694E+06    -11.3116E+06     3.07177E+06         22.2572
            1038     985.744E-06     10.6022E-03         1.56201         1.45507        -4.34417         1.52235        -4.33817         1.48872    -165.939E-03     29.2015E-03    -14.5143E-03    -14.6870E-03    -14.6464E-03     29.1609E-03    -14.5143E-03    -2.52495E-03    -16.9133E+06    -19.5372E+06    -213.514E+06    -19.1798E+06    -213.491E+06    -17.2934E+06     1.44028E+06         22.1879
            1039     16.5518E-03     9.74320E-03         1.36693     976.026E-03        -3.65939     975.703E-03        -3.65907         1.36693    -46.0251E-03     84.5273E-03    -27.4262E-03    -57.2590E-03    -43.5521E-03     70.8204E-03    -27.4262E-03     80.8269E-03     176.367E+06     125.235E+06    -8.79558E+06    -8.78756E+06     176.359E+06     125.235E+06     1.09063E+06         44.4345
            1040     15.5930E-03     9.62589E-03         1.39464         1.05183        -3.76725         1.05160        -3.76701         1.39464    -54.8398E-03     81.8216E-03    -26.1261E-03    -55.7253E-03    -41.8646E-03     67.9609E-03    -26.1261E-03     80.5117E-03     157.169E+06     52.1530E+06    -15.4630E+06    -15.4481E+06     157.154E+06     52.1530E+06     1.51418E+06         41.5035
            1041     14.6321E-03     9.56507E-03         1.41974         1.11358        -3.85241         1.11351        -3.85233         1.41974    -21.0323E-03     68.1247E-03    -24.8786E-03    -43.2629E-03    -39.6121E-03     64.4740E-03    -24.8786E-03     36.0630E-03     130.452E+06    -2.25079E+06    -21.9166E+06    -17.6335E+06     130.439E+06    -6.52160E+06     1.21187E+06         37.9637
            1042     13.6705E-03     9.54128E-03         1.44204         1.15410        -3.92441         1.15391        -3.92422         1.44204    -12.6847E-03     62.4718E-03    -23.8578E-03    -38.6447E-03    -38.2079E-03     62.0351E-03    -23.8578E-03     12.0581E-03     74.6489E+06    -16.1588E+06    -21.7018E+06    -17.0820E+06     74.6364E+06    -20.7661E+06     301.632E+03         34.7011
            1043     12.7073E-03     9.52955E-03         1.46305         1.20039        -3.99341         1.20022        -3.99323         1.46305     2.34137E-03     60.2451E-03    -22.9232E-03    -37.3590E-03    -37.3069E-03     60.1931E-03    -22.9232E-03     3.11452E-03     10.9022E+06    -15.1580E+06    -24.8750E+06    -16.0988E+06    -1.09611E+06    -11.9359E+06    -387.178E+03         32.0888
            1044     11.7439E-03     9.52428E-03         1.48239         1.26349        -4.07487         1.26341        -4.07480         1.48239     9.48213E-03     57.8610E-03    -21.8758E-03    -36.0173E-03    -35.9547E-03     57.7984E-03    -21.8758E-03    -3.40503E-03    -2.28795E+06    -14.2021E+06    -51.5521E+06    -14.3281E+06    -51.4261E+06    -2.28795E+06    -643.971E+03         29.9303
            1045     10.7786E-03     9.52504E-03         1.49927         1.32268        -4.15060         1.32265        -4.15058         1.49927     3.72745E-03     54.9515E-03    -20.7727E-03    -34.1751E-03    -33.9278E-03     54.7042E-03    -20.7727E-03    -8.95912E-03     10.1245E+06    -11.6851E+06    -85.6416E+06    -11.8008E+06     -85.526E+06     10.1245E+06    -520.628E+03         28.0884
            1046     9.81061E-03     9.53093E-03         1.51506         1.34860        -4.19474         1.34860        -4.19474         1.51506     462.860E-06     51.4764E-03    -19.6332E-03    -31.8107E-03    -31.3770E-03     51.0427E-03    -19.6332E-03    -11.8880E-03     17.3145E+06    -9.77266E+06    -110.440E+06    -9.91897E+06    -110.294E+06     17.3145E+06    -2.27423E+06         26.5332
            1047     8.84028E-03     9.53737E-03         1.53114         1.37899        -4.24360         1.37890        -4.24351         1.53114     27.5933E-03     47.6977E-03    -18.5055E-03    -29.1901E-03    -28.6173E-03     47.1249E-03    -18.5055E-03    -13.1159E-03     20.9831E+06    -7.72777E+06    -129.426E+06    -7.97311E+06    -129.181E+06     20.9831E+06    -4.48026E+06         25.2575
            1048     7.86669E-03     9.54558E-03         1.54586         1.43382        -4.31100         1.43371        -4.31089         1.54586     19.6785E-03     43.9794E-03    -17.4443E-03    -26.5415E-03    -25.8722E-03     43.3102E-03    -17.4443E-03    -13.6105E-03     25.5270E+06    -6.45296E+06    -148.503E+06    -6.58349E+06    -148.372E+06     25.5270E+06    -2.95262E+06         24.2608
            1049     6.89091E-03     9.55348E-03         1.55655         1.49492        -4.37731         1.49473        -4.37712         1.55655     31.2478E-03     40.2418E-03    -16.4518E-03    -23.7901E-03    -23.1237E-03     39.5755E-03    -16.4518E-03    -12.9416E-03     27.0195E+06    -6.56881E+06    -166.093E+06    -6.60537E+06    -166.057E+06     27.0195E+06    -445.995E+03         23.5459
            1050     5.91192E-03     9.56061E-03         1.56230         1.53883        -4.42693         1.53860        -4.42669         1.56230     30.5058E-03     36.6164E-03    -15.5469E-03    -21.0719E-03    -20.4917E-03     36.0362E-03    -15.5469E-03    -11.4562E-03     24.2691E+06    -7.75811E+06    -180.696E+06    -7.79065E+06    -180.664E+06     24.2691E+06     1.08485E+06         23.0681
            1051     4.93057E-03     9.56614E-03         1.56720         1.53291        -4.43504         1.53274        -4.43487         1.56720     5.69002E-03     33.4037E-03    -14.7505E-03    -18.6538E-03    -18.1967E-03     32.9465E-03    -14.7505E-03    -9.65969E-03     19.4828E+06    -9.53469E+06    -193.906E+06    -9.58211E+06    -193.859E+06     19.4828E+06     2.10259E+06         22.7230
            1052     3.94708E-03     9.57046E-03         1.57675         1.52487        -4.44520         1.52472        -4.44505         1.57675     23.9983E-03     30.6944E-03    -14.0637E-03    -16.6301E-03    -16.3008E-03     30.3652E-03    -14.0637E-03    -7.80556E-03     12.0738E+06    -11.5800E+06    -202.809E+06    -11.6178E+06    -202.772E+06     12.0738E+06     1.90313E+06         22.4475
            1053     2.96200E-03     9.57334E-03         1.58788         1.55864        -4.49473         1.55843        -4.49452         1.58788    -5.05778E-03     28.4505E-03    -13.4928E-03    -14.9571E-03    -14.7571E-03     28.2505E-03    -13.4928E-03    -5.79913E-03     2.25852E+06    -13.5960E+06    -207.092E+06    -13.6231E+06    -207.065E+06     2.25852E+06     1.32327E+06         22.2352
            1054     1.97525E-03     9.57523E-03         1.61422         1.58254        -4.53457         1.60959        -4.53436         1.58697    -2.70579E-03     26.7835E-03    -13.0718E-03    -13.7120E-03    -13.6155E-03     26.6870E-03    -13.0718E-03    -3.84896E-03    -7.05921E+06    -15.0308E+06    -210.622E+06    -15.0451E+06    -210.608E+06    -7.05921E+06     487.578E+03         22.0873
            1055     988.115E-06     9.57578E-03         1.60539         1.56042        -4.49998         1.58435        -4.49666         1.57814    -149.718E-03     25.7961E-03    -12.8014E-03    -12.9946E-03    -12.9494E-03     25.7632E-03    -12.8136E-03    -2.09418E-03    -13.6296E+06    -16.0176E+06    -212.328E+06    -15.8323E+06    -212.324E+06    -13.8190E+06     72.4269E+03         22.0032
            1056     16.5531E-03     8.66922E-03         1.43201     991.526E-03        -3.75123     991.371E-03        -3.75108         1.43201    -36.0313E-03     85.8076E-03    -27.4182E-03    -58.5037E-03    -45.5237E-03     72.8276E-03    -27.4182E-03     78.4817E-03     175.835E+06     126.604E+06    -8.42189E+06    -8.40383E+06     175.817E+06     126.604E+06     1.70550E+06         44.0363
            1057     15.5940E-03     8.55600E-03         1.46205         1.05767        -3.85878         1.05757        -3.85868         1.46205    -28.7016E-03     82.3515E-03    -26.0354E-03    -56.3354E-03    -42.6840E-03     68.7001E-03    -26.0354E-03     80.2810E-03     157.524E+06     54.6782E+06    -14.6919E+06    -14.6722E+06     157.504E+06     54.6782E+06     1.78061E+06         41.1364
            1058     14.6347E-03     8.49705E-03         1.48966         1.14176        -3.97409         1.14169        -3.97402         1.48966    -20.7154E-03     68.4532E-03    -24.7481E-03    -43.7106E-03    -40.0893E-03     64.8319E-03    -24.7481E-03     36.5434E-03     131.686E+06    -819.269E+03    -18.8435E+06    -17.2044E+06     131.680E+06    -2.45209E+06     537.748E+03         37.6673
            1059     13.6734E-03     8.47727E-03         1.51347         1.21065        -4.07218         1.21051        -4.07204         1.51347    -49.7119E-03     62.8659E-03    -23.6990E-03    -39.1884E-03    -38.6351E-03     62.3127E-03    -23.6990E-03     13.9802E-03     75.8057E+06    -13.1497E+06    -18.8556E+06    -17.2125E+06     75.7954E+06    -14.7826E+06    -560.076E+03         34.5118
            1060     12.7110E-03     8.46690E-03         1.53545         1.25559        -4.13954         1.25549        -4.13943         1.53545    -38.3934E-03     60.2223E-03    -22.7306E-03    -37.5252E-03    -37.4221E-03     60.1192E-03    -22.7306E-03     5.25491E-03     14.6335E+06    -11.3658E+06    -23.9822E+06    -16.0854E+06     516.889E+03    -5.14596E+06    -2.32156E+06         32.0037
            1061     11.7473E-03     8.46462E-03         1.55660         1.30406        -4.20895         1.30402        -4.20891         1.55660    -22.0733E-03     57.3303E-03    -21.6670E-03    -35.6897E-03    -35.6579E-03     57.2985E-03    -21.6670E-03    -789.085E-06     3.43749E+06    -13.1888E+06    -51.6065E+06    -14.0769E+06    -50.7184E+06     3.43749E+06    -4.45382E+06         29.9125
            1062     10.7814E-03     8.46920E-03         1.57561         1.37721        -4.30054         1.37717        -4.30050         1.57561    -257.477E-06     54.1981E-03    -20.5779E-03    -33.6212E-03    -33.5022E-03     54.0791E-03    -20.5779E-03    -5.61654E-03     15.1156E+06    -10.9382E+06     -85.634E+06    -11.6142E+06    -84.9579E+06     15.1156E+06    -5.94843E+06         28.1119
            1063     9.81357E-03     8.47879E-03         1.59165         1.43507        -4.37260         1.43504        -4.37257         1.59165     18.8775E-03     50.7495E-03    -19.4679E-03    -31.2677E-03    -31.0500E-03     50.5317E-03    -19.4679E-03    -7.94902E-03      25.189E+06    -7.31995E+06    -107.764E+06    -8.20756E+06    -106.877E+06      25.189E+06    -8.22108E+06         26.5900
            1064     8.84282E-03     8.49047E-03         1.60697         1.45553        -4.41308         1.45541        -4.41297         1.60697     39.1306E-03     47.0527E-03    -18.3497E-03    -28.7131E-03    -28.4304E-03     46.7700E-03    -18.3497E-03    -8.66069E-03     29.1990E+06    -5.46012E+06    -130.515E+06    -6.26672E+06    -129.709E+06     29.1990E+06    -9.70298E+06         25.3393
            1065     7.86951E-03     8.50223E-03         1.62291         1.48728        -4.46568         1.48716        -4.46555         1.62291     46.0100E-03     43.3102E-03    -17.2787E-03    -26.0346E-03    -25.7026E-03     42.9782E-03    -17.2787E-03    -8.99920E-03     32.5353E+06    -5.16856E+06    -152.894E+06    -5.72607E+06    -152.337E+06     32.5353E+06    -8.40104E+06         24.3568
            1066     6.89307E-03     8.51487E-03         1.63671         1.54955        -4.54054         1.54935        -4.54034         1.63671     50.5603E-03     39.6779E-03    -16.2769E-03    -23.3982E-03    -23.0730E-03     39.3527E-03    -16.2769E-03    -8.46561E-03     36.0021E+06    -5.17542E+06    -169.239E+06    -5.45883E+06    -168.956E+06     36.0021E+06    -5.85257E+06         23.6413
            1067     5.91432E-03     8.52577E-03         1.64630         1.59631        -4.59968         1.59605        -4.59942         1.64630     37.0728E-03     36.1969E-03    -15.3312E-03    -20.8659E-03    -20.5866E-03     35.9176E-03    -15.3312E-03    -7.45248E-03     34.5905E+06    -6.42785E+06    -183.029E+06    -6.53935E+06    -182.918E+06     34.5905E+06    -3.36944E+06         23.1520
            1068     4.93285E-03     8.53486E-03         1.65341         1.61673        -4.63291         1.61663        -4.63281         1.65341    -12.8742E-03     32.9045E-03    -14.4377E-03    -18.4637E-03    -18.2447E-03     32.6855E-03    -14.4377E-03    -6.26352E-03     25.9185E+06    -8.64393E+06    -194.053E+06    -8.69377E+06    -194.003E+06     25.9185E+06    -2.12860E+06         22.7950
            1069     3.94934E-03     8.54176E-03         1.66404         1.62644        -4.65896         1.63021        -4.65893         1.66023    -5.27233E-03     29.9904E-03    -13.6484E-03    -16.3400E-03    -16.1829E-03     29.8333E-03    -13.6484E-03    -5.04194E-03     14.1116E+06    -10.5652E+06    -202.252E+06    -10.6377E+06    -202.179E+06     14.1116E+06    -2.58957E+06         22.5040
            1070     2.96368E-03     8.54688E-03         1.67005         1.64637        -4.68165         1.65013        -4.68160         1.66624     10.6535E-03     27.5952E-03    -12.9992E-03    -14.5970E-03    -14.5012E-03     27.4993E-03    -12.9992E-03    -3.72757E-03     4.21102E+06    -11.5218E+06    -207.276E+06    -11.5906E+06    -207.207E+06     4.21102E+06    -2.80718E+06         22.2699
            1071     1.97692E-03     8.55017E-03         1.68088         1.65018        -4.68674         1.65893        -4.68652         1.67192     49.3061E-03     25.7658E-03    -12.4926E-03    -13.2741E-03    -13.2280E-03     25.7197E-03    -12.4926E-03    -2.46937E-03    -4.71221E+06    -12.5795E+06    -211.101E+06    -12.6093E+06    -211.072E+06    -4.71221E+06    -1.99205E+06         22.1007
            1072     988.555E-06     8.55232E-03         1.70589         1.64688        -4.69568         1.65302        -4.69287         1.69693    -111.524E-03     24.5268E-03    -12.1053E-03    -12.4216E-03    -12.3938E-03     24.5112E-03    -12.1175E-03    -1.32992E-03    -11.3563E+06    -13.8889E+06    -213.584E+06    -13.8962E+06    -213.576E+06    -11.3563E+06    -967.547E+03         21.9998
            1073     16.5507E-03     7.59574E-03         1.48953         1.00989        -3.84291         1.00976        -3.84277         1.48953    -24.3896E-03     87.1787E-03    -27.5908E-03    -59.6963E-03    -47.2018E-03     74.6842E-03    -27.5908E-03     76.1649E-03     175.386E+06     128.184E+06    -8.85776E+06    -8.84214E+06     175.371E+06     128.184E+06     1.55132E+06         43.5658
            1074     15.5939E-03     7.48279E-03         1.52119         1.07286        -3.94514         1.07270        -3.94498         1.52119    -38.7488E-03     83.0275E-03    -26.1646E-03    -56.8887E-03    -43.0753E-03     69.2141E-03    -26.1646E-03     81.1390E-03     157.955E+06     58.5820E+06    -13.6847E+06    -13.6689E+06     157.940E+06     58.5820E+06     1.41000E+06         40.6931
            1075     14.6334E-03     7.43122E-03         1.55129         1.14893        -4.05646         1.14889        -4.05642         1.55129    -14.0836E-03     68.6609E-03    -24.8804E-03    -43.7840E-03    -39.9590E-03     64.8359E-03    -24.8804E-03     38.4244E-03     132.625E+06     1.05771E+06    -16.6171E+06    -15.9228E+06     132.610E+06     378.151E+03     806.287E+03         37.3185
            1076     13.6711E-03     7.41079E-03         1.57803         1.23145        -4.17080         1.23142        -4.17077         1.57803    -19.4006E-03     62.7819E-03    -23.8701E-03    -38.9373E-03    -38.1347E-03     61.9793E-03    -23.8701E-03     17.0097E-03     77.6505E+06    -10.5991E+06    -17.8604E+06    -17.0514E+06     77.5210E+06    -11.2787E+06    -978.666E+03         34.2939
            1077     12.7091E-03     7.40496E-03         1.60153         1.31520        -4.28227         1.31515        -4.28222         1.60153     477.463E-06     59.3468E-03    -22.9910E-03    -36.3949E-03    -36.1500E-03     59.1020E-03    -22.9910E-03     9.12995E-03     19.0658E+06    -8.44652E+06    -23.5985E+06    -16.6582E+06     3.61020E+06     68.8972E+03    -4.75995E+06         31.9037
            1078     11.7437E-03     7.40601E-03         1.62253         1.37530        -4.36532         1.37524        -4.36526         1.62253     14.8885E-03     56.0441E-03    -22.0758E-03    -33.9990E-03    -33.8748E-03     55.9199E-03    -22.0758E-03     4.90704E-03     8.64555E+06    -12.4294E+06    -51.3945E+06    -15.3237E+06    -48.5002E+06     8.64555E+06    -8.61853E+06         29.9057
            1079     10.7767E-03     7.41439E-03         1.64218         1.42214        -4.43083         1.42206        -4.43074         1.64218     26.7683E-03     52.9639E-03    -21.1766E-03    -31.8001E-03    -31.7192E-03     52.8829E-03    -21.1766E-03     1.48559E-03     19.3865E+06    -10.3263E+06    -85.4336E+06    -12.7123E+06    -83.0476E+06     19.3865E+06    -12.5423E+06         28.1763
            1080     9.80691E-03     7.42828E-03         1.66037         1.47827        -4.50593         1.47819        -4.50585         1.66037     41.3255E-03     50.0934E-03    -20.2769E-03    -29.8281E-03    -29.7278E-03     49.9931E-03    -20.2769E-03     514.325E-06     30.2689E+06    -7.54406E+06    -108.341E+06    -9.98164E+06    -105.903E+06     30.2689E+06    -15.1066E+06         26.7107
            1081     8.83551E-03     7.44291E-03         1.67684         1.52494        -4.56906         1.52489        -4.56901         1.67684     27.1040E-03     47.2396E-03    -19.3396E-03    -27.9237E-03    -27.8172E-03     47.1331E-03    -19.3396E-03     116.199E-06     35.5491E+06    -5.97922E+06    -133.515E+06    -8.04235E+06    -131.451E+06     35.5491E+06    -15.5226E+06         25.5069
            1082     7.86179E-03     7.45973E-03         1.69227         1.56215        -4.61984         1.56198        -4.61968         1.69227    -9.04586E-03     44.1956E-03    -18.3973E-03    -25.8070E-03    -25.6973E-03     44.0859E-03    -18.3973E-03    -201.947E-06     38.1551E+06    -5.35055E+06    -157.560E+06    -6.86913E+06    -156.041E+06     38.1551E+06    -14.7041E+06         24.5647
            1083     6.88585E-03     7.47543E-03         1.70689         1.60075        -4.67178         1.60043        -4.67145         1.70689     17.7950E-03     41.2510E-03    -17.4786E-03    -23.7745E-03    -23.6699E-03     41.1464E-03    -17.4786E-03    -122.907E-06     41.2133E+06    -5.73160E+06    -174.858E+06    -6.73111E+06    -173.859E+06     41.2133E+06    -12.3568E+06         23.8824
            1084     5.90779E-03     7.48963E-03         1.72073         1.63383        -4.71918         1.63361        -4.71896         1.72073     58.6238E-03     38.3273E-03    -16.5498E-03    -21.7785E-03    -21.6940E-03     38.2428E-03    -16.5498E-03    -248.841E-06     38.2914E+06    -7.06418E+06    -187.332E+06    -7.61449E+06    -186.782E+06     38.2914E+06    -9.24580E+06         23.4170
            1085     4.92786E-03     7.50219E-03         1.73213         1.68186        -4.78241         1.68181        -4.78236         1.73213     13.0722E-03     35.2454E-03    -15.6183E-03    -19.6262E-03    -19.5641E-03     35.1833E-03    -15.6183E-03    -356.807E-06     26.7487E+06    -8.43567E+06    -195.734E+06    -8.79111E+06    -195.379E+06     26.7487E+06     -7.4775E+06         23.0722
            1086     3.94531E-03     7.51254E-03         1.74125         1.72561        -4.83331         1.72936        -4.83325         1.73744     16.6861E-03     32.3078E-03    -14.7677E-03    -17.5434E-03    -17.5004E-03     32.2647E-03    -14.7677E-03    -376.416E-06     12.9306E+06    -9.71386E+06    -203.568E+06    -10.0024E+06    -203.280E+06     12.9306E+06    -7.19261E+06         22.7794
            1087     2.96111E-03     7.52021E-03         1.74205         1.73253        -4.84173         1.73602        -4.84142         1.73824    -24.1613E-03     29.8143E-03    -14.0569E-03    -15.7641E-03    -15.7393E-03     29.7895E-03    -14.0569E-03    -329.105E-06     2.28013E+06    -11.5549E+06    -210.137E+06    -11.7774E+06    -209.915E+06     2.28013E+06    -6.45325E+06         22.5336
            1088     1.97496E-03     7.52546E-03         1.75223         1.71775        -4.83536         1.72656        -4.83398         1.74205     62.0467E-03     27.8447E-03    -13.4953E-03    -14.3525E-03    -14.3412E-03     27.8333E-03    -13.4953E-03    -287.364E-06    -5.74151E+06    -13.3238E+06    -214.486E+06    -13.4366E+06    -214.374E+06    -5.74151E+06    -4.42969E+06         22.3510
            1089     988.127E-06     7.52891E-03         1.79298         1.70382        -4.85308         1.70859        -4.84766         1.78279    -125.547E-03     26.4598E-03    -13.0552E-03    -13.4050E-03    -13.3821E-03     26.4558E-03    -13.0741E-03    -220.127E-06    -12.0527E+06    -14.9044E+06    -216.846E+06    -14.7694E+06    -216.817E+06    -12.2168E+06    -1.90028E+06         22.2392
            1090     16.5443E-03     6.51798E-03         1.54133         1.01695        -3.91810         1.01653        -3.91768         1.54133    -77.8300E-03     88.4177E-03    -28.0494E-03    -60.4607E-03    -48.1335E-03     76.0905E-03    -28.0494E-03     74.0997E-03     175.852E+06     129.808E+06    -9.25197E+06     -9.2352E+06     175.835E+06     129.808E+06     1.45662E+06         43.0300
            1091     15.5862E-03     6.41109E-03         1.57422         1.10737        -4.05037         1.10694        -4.04994         1.57422    -88.3467E-03     84.1499E-03    -26.6354E-03    -57.6194E-03    -43.2808E-03     69.8114E-03    -26.6354E-03     83.1403E-03     158.077E+06     60.6769E+06    -15.7722E+06    -15.7640E+06     158.068E+06     60.6769E+06     938.348E+03         40.1695
            1092     14.6261E-03     6.36349E-03         1.60469         1.19421        -4.17344         1.19411        -4.17334         1.60469    -40.0070E-03     68.8610E-03    -25.3838E-03    -43.5457E-03    -39.3722E-03     64.6875E-03    -25.3838E-03     40.7694E-03     132.844E+06    -131.378E+03    -19.0283E+06    -18.7102E+06     132.825E+06    -430.940E+03     793.614E+03         36.9270
            1093     13.6647E-03     6.34560E-03         1.63181         1.27309        -4.28670         1.27307        -4.28668         1.63181    -543.922E-06     61.3325E-03    -24.5097E-03    -36.8289E-03    -35.5827E-03     60.0863E-03    -24.5097E-03     21.2714E-03     80.3882E+06    -11.1819E+06    -19.3860E+06    -18.9579E+06     80.2596E+06    -11.4815E+06    -977.533E+03         34.0763
            1094     12.6981E-03     6.34548E-03         1.65650         1.34604        -4.38666         1.34596        -4.38658         1.65650     35.7517E-03     57.2492E-03    -23.9261E-03    -33.3440E-03    -32.5259E-03     56.4310E-03    -23.9261E-03     16.2181E-03     22.3702E+06    -6.60267E+06    -25.1916E+06    -19.8932E+06     8.73840E+06     1.73075E+06    -6.34663E+06         31.8237
            1095     11.7299E-03     6.34896E-03         1.67919         1.41146        -4.47538         1.41135        -4.47527         1.67919     29.0921E-03     54.2403E-03    -23.3916E-03    -30.8823E-03    -30.1177E-03     53.4757E-03    -23.3916E-03     14.6282E-03     10.5960E+06    -10.4956E+06    -52.2281E+06    -19.0626E+06    -43.6611E+06     10.5960E+06    -14.1645E+06         29.9373
            1096     10.7588E-03     6.36200E-03         1.70055         1.46096        -4.54492         1.46088        -4.54485         1.70055     8.09674E-03     52.0559E-03    -22.9034E-03    -29.1729E-03    -28.4051E-03     51.2881E-03    -22.9034E-03     13.6541E-03     20.4146E+06    -9.53663E+06    -86.5612E+06    -15.4069E+06    -80.6910E+06     20.4146E+06    -19.8122E+06         28.2990
            1097     9.78665E-03     6.37734E-03         1.72126         1.50660        -4.60856         1.50654        -4.60851         1.72126     19.1664E-03     50.8691E-03    -22.4126E-03    -28.4722E-03    -27.6579E-03     50.0547E-03    -22.4126E-03     13.9375E-03     31.6809E+06    -7.10765E+06    -112.615E+06    -12.2001E+06    -107.523E+06     31.6809E+06    -22.1072E+06         26.9097
            1098     8.81393E-03     6.39518E-03         1.74040         1.57023        -4.69054         1.57016        -4.69047         1.74040     29.3046E-03     49.5362E-03    -21.8482E-03    -27.6986E-03    -26.9614E-03     48.7990E-03    -21.8482E-03     13.1828E-03     38.5462E+06    -6.22606E+06    -138.514E+06    -10.3827E+06    -134.358E+06     38.5462E+06    -22.6948E+06         25.7726
            1099     7.84022E-03     6.41451E-03         1.75704         1.62412        -4.75781         1.62394        -4.75763         1.75704    -4.15289E-03     48.0084E-03    -21.2090E-03    -26.8048E-03    -26.1157E-03     47.3193E-03    -21.2090E-03     12.6010E-03     41.5359E+06    -5.72193E+06    -163.694E+06    -9.00948E+06    -160.407E+06     41.5359E+06    -22.0870E+06         24.8944
            1100     6.86557E-03     6.43282E-03         1.77229         1.65957        -4.80258         1.65940        -4.80241         1.77229    -3.26226E-03     46.3053E-03    -20.4819E-03    -25.8341E-03    -25.2329E-03     45.7041E-03    -20.4819E-03     11.6983E-03     41.1397E+06    -6.17016E+06    -182.814E+06    -8.40153E+06    -180.583E+06     41.1397E+06    -19.2369E+06         24.2835
            1101     5.88989E-03     6.44982E-03         1.78589         1.70659        -4.86014         1.70654        -4.86009         1.78589     33.0042E-03     44.0823E-03    -19.6513E-03    -24.4357E-03    -23.9717E-03     43.6183E-03    -19.6513E-03     10.0318E-03     33.8791E+06    -7.55845E+06    -193.237E+06    -9.00030E+06    -191.795E+06     33.8791E+06    -15.9551E+06         23.8892
            1102     4.91244E-03     6.46543E-03         1.79612         1.75064        -4.91650         1.75060        -4.91646         1.79612    -846.379E-06     41.5615E-03    -18.7775E-03    -22.7862E-03    -22.4492E-03     41.2245E-03    -18.7775E-03     8.24604E-03     21.0203E+06    -8.90385E+06    -200.743E+06    -9.90991E+06    -199.737E+06     21.0203E+06    -13.4752E+06         23.5906
            1103     3.93341E-03     6.47865E-03         1.80408         1.77101        -4.94916         1.77063        -4.94878         1.80408     46.3653E-03     38.8666E-03    -17.9335E-03    -20.9390E-03    -20.7267E-03     38.6542E-03    -17.9335E-03     6.32391E-03     8.47591E+06    -10.6516E+06    -207.984E+06    -11.2358E+06    -207.400E+06     8.47591E+06    -10.5046E+06         23.3156
            1104     2.95209E-03     6.48911E-03         1.81245         1.78412        -4.97012         1.78326        -4.96926         1.81245    -20.0362E-03     36.2359E-03    -17.1838E-03    -19.0572E-03    -18.9392E-03     36.1179E-03    -17.1838E-03     4.50657E-03    -2.41283E+06    -13.6234E+06    -214.800E+06    -13.9456E+06    -214.478E+06    -2.41283E+06    -7.94309E+06         23.0715
            1105     1.96939E-03     6.49690E-03         1.82838         1.80365        -5.01115         1.81229        -5.00960         1.81820     21.1685E-03     34.0827E-03    -16.5956E-03    -17.4887E-03    -17.4341E-03     34.0281E-03    -16.5956E-03     2.89302E-03    -11.3831E+06    -16.5578E+06    -219.636E+06    -16.7283E+06    -219.465E+06    -11.3831E+06    -5.77251E+06         22.8849
            1106     984.874E-06     6.50150E-03         1.86866         1.77627        -5.02320         1.82313        -5.01663         1.81524    -167.086E-03     32.6754E-03    -16.2063E-03    -16.4708E-03    -16.4345E-03     32.6579E-03    -16.2252E-03     1.48453E-03    -16.2174E+06    -18.2162E+06    -221.805E+06    -18.1106E+06    -221.747E+06    -16.3816E+06    -2.89397E+06         22.7692
            1107     16.5309E-03     5.44097E-03         1.58675         1.02877        -3.98586         1.02807        -3.98516         1.58675    -116.687E-03     89.7108E-03    -28.8611E-03    -60.8803E-03    -48.6371E-03     77.4676E-03    -28.8611E-03     72.5602E-03     176.039E+06     131.294E+06    -9.19926E+06    -9.14029E+06     175.980E+06     131.294E+06     2.76476E+06         42.4892
            1108     15.5729E-03     5.33712E-03         1.61992         1.14739        -4.15354         1.14687        -4.15302         1.61992    -96.0644E-03     85.1989E-03    -27.5117E-03    -57.8318E-03    -43.1129E-03     70.4800E-03    -27.5117E-03     84.6741E-03     159.814E+06     65.6884E+06    -16.9314E+06    -16.8850E+06     159.768E+06     65.6884E+06     1.67398E+06         39.6429
            1109     14.6145E-03     5.29407E-03         1.64968         1.24543        -4.29195         1.24535        -4.29186         1.64968    -31.1272E-03     67.3479E-03    -26.3924E-03    -41.0855E-03    -36.4280E-03     62.6904E-03    -26.3924E-03     42.9775E-03     131.397E+06     747.931E+03    -24.4219E+06    -21.1327E+06     131.345E+06    -2.48963E+06     1.11218E+06         36.5577
            1110     13.6467E-03     5.28671E-03         1.67655         1.31135        -4.39017         1.31130        -4.39013         1.67655    -6.08113E-03     58.6589E-03    -25.8140E-03    -32.8504E-03    -30.4736E-03     56.2821E-03    -25.8140E-03     28.4486E-03     82.9654E+06    -19.2325E+06    -27.6468E+06    -23.6246E+06     82.8974E+06    -23.1867E+06     144.229E+03         33.9057
            1111     12.6752E-03     5.28802E-03         1.70258         1.36212        -4.46710         1.36202        -4.46700         1.70258     20.4680E-03     54.8128E-03    -25.1916E-03    -29.6294E-03    -26.7569E-03     52.4938E-03    -25.7451E-03     26.5814E-03     27.2479E+06    -9.00632E+06    -29.9647E+06    -23.6150E+06     18.5271E+06    -6.63518E+06    -8.64737E+06         31.8045
            1112     11.7009E-03     5.29651E-03         1.72815         1.42075        -4.55002         1.42068        -4.54995         1.72815     16.5035E-03     52.8958E-03    -24.7616E-03    -28.1729E-03    -24.3903E-03     50.2005E-03    -25.8488E-03     27.5607E-03     6.51592E+06    -5.41586E+06    -53.7244E+06    -21.3469E+06    -36.8043E+06     5.52689E+06    -20.1540E+06         30.0408
            1113     10.7248E-03     5.31109E-03         1.75205         1.49716        -4.65138         1.49699        -4.65122         1.75205     15.6138E-03     53.6007E-03    -25.4460E-03    -28.1870E-03    -24.5387E-03     50.4862E-03    -25.9797E-03     29.8770E-03     11.9820E+06    -8.07434E+06    -90.6745E+06    -18.8407E+06    -79.9082E+06     11.9820E+06    -27.2428E+06         28.5073
            1114     9.74992E-03     5.32582E-03         1.77327         1.56775        -4.74550         1.56755        -4.74530         1.77327     43.4269E-03     54.7517E-03    -26.0405E-03    -28.7126E-03    -25.9137E-03     51.9529E-03    -26.0405E-03     29.1968E-03     22.9854E+06    -7.23397E+06    -119.830E+06    -15.8890E+06    -111.175E+06     22.9854E+06    -29.5252E+06         27.2104
            1115     8.77623E-03     5.34475E-03         1.79198         1.62671        -4.82023         1.62646        -4.81999         1.79198     68.2392E-03     54.7843E-03    -25.9745E-03    -28.7933E-03    -26.4528E-03     52.4439E-03    -25.9745E-03     27.0529E-03      31.838E+06    -6.31627E+06    -144.319E+06    -13.2698E+06    -137.366E+06      31.838E+06    -29.9083E+06         26.1544
            1116     7.80304E-03     5.36489E-03         1.80907         1.67006        -4.87697         1.66973        -4.87665         1.80907     85.2239E-03     55.0395E-03    -25.7881E-03    -29.2384E-03    -27.0364E-03     52.8375E-03    -25.7881E-03     26.4036E-03     34.8482E+06    -6.05163E+06    -172.644E+06    -11.7266E+06    -166.969E+06     34.8482E+06    -29.8034E+06         25.3529
            1117     6.83083E-03     5.38353E-03         1.82544         1.70730        -4.92766         1.70706        -4.92742         1.82544     73.9451E-03     54.8610E-03    -25.4269E-03    -29.4341E-03    -27.5618E-03     52.9887E-03    -25.4269E-03     24.4342E-03     31.7101E+06    -6.76639E+06    -193.332E+06    -10.6831E+06    -189.416E+06     31.7101E+06    -26.3809E+06         24.8340
            1118     5.85841E-03     5.40274E-03         1.83934         1.76456        -4.99329         1.76443        -4.99316         1.83934     55.6352E-03     53.7626E-03    -24.8780E-03    -28.8876E-03    -27.4194E-03     52.2944E-03    -24.8780E-03     21.4953E-03     22.7367E+06    -7.95701E+06    -201.420E+06    -10.4703E+06    -198.907E+06     22.7367E+06    -21.6254E+06         24.5460
            1119     4.88523E-03     5.42028E-03         1.84973         1.80032        -5.03799         1.80029        -5.03795         1.84973     12.4668E-03     52.1324E-03    -24.2132E-03    -27.9222E-03    -26.8487E-03     51.0588E-03    -24.2132E-03     18.1088E-03     10.3487E+06    -10.7705E+06    -209.043E+06    -12.3118E+06    -207.502E+06     10.3487E+06    -17.2395E+06         24.3343
            1120     3.91124E-03     5.43592E-03         1.86089         1.80534        -5.05477         1.80495        -5.05438         1.86089     60.9237E-03     50.0077E-03    -23.5013E-03    -26.5068E-03    -25.8131E-03     49.3141E-03    -23.5013E-03     14.2318E-03    -184.673E+03    -14.5505E+06    -215.723E+06    -15.3609E+06    -214.912E+06    -184.673E+03    -12.4284E+06         24.1156
            1121     2.93579E-03     5.44938E-03         1.87431         1.83241        -5.08748         1.83157        -5.08665         1.87431    -12.2546E-03     47.6078E-03    -22.8203E-03    -24.7858E-03    -24.3883E-03     47.2103E-03    -22.8203E-03     10.4428E-03    -8.40133E+06    -17.6849E+06    -220.579E+06    -18.0228E+06    -220.242E+06    -8.40133E+06    -8.09987E+06         23.9073
            1122     1.95810E-03     5.45904E-03         1.88694         1.86448        -5.13210         1.86280        -5.13042         1.88694     33.6918E-03     45.4430E-03    -22.2637E-03    -23.1785E-03    -22.9949E-03     45.2594E-03    -22.2637E-03     6.82560E-03    -16.9663E+06    -20.7181E+06    -224.973E+06    -20.8712E+06    -224.819E+06    -16.9663E+06    -5.47250E+06         23.7396
            1123     979.459E-06     5.46566E-03         1.93784         1.85456        -5.18580         1.89060        -5.17860         1.89461    -176.168E-03     44.0728E-03    -21.8629E-03    -22.2118E-03    -22.1516E-03     44.0126E-03    -21.8629E-03     3.71828E-03    -21.7947E+06    -23.2598E+06    -227.776E+06    -23.3166E+06    -227.720E+06    -21.7947E+06    -3.00237E+06         23.6321
            1124     16.5097E-03     4.36043E-03         1.62236         1.07467        -4.09195         1.07375        -4.09103         1.62236    -130.508E-03     91.3105E-03    -30.1447E-03    -61.1934E-03    -47.6701E-03     77.7872E-03    -30.1447E-03     76.8858E-03     176.761E+06     129.282E+06    -10.1417E+06    -10.0178E+06     176.637E+06     129.282E+06     3.48344E+06         42.0389
            1125     15.5553E-03     4.25944E-03         1.65461         1.17287        -4.24552         1.17256        -4.24520         1.65461    -71.7660E-03     86.1787E-03    -29.0025E-03    -57.2323E-03    -40.9673E-03     69.9136E-03    -29.0025E-03     88.9747E-03     158.948E+06     68.8444E+06    -17.7467E+06    -17.5353E+06     158.737E+06     68.8444E+06     3.41938E+06         39.2232
            1126     14.5892E-03     4.23226E-03         1.68498         1.25045        -4.36335         1.25039        -4.36329         1.68498    -5.03194E-03     64.7737E-03    -27.7829E-03    -37.0342E-03    -30.1968E-03     58.4189E-03    -28.2655E-03     48.4869E-03     129.460E+06     4.69372E+06    -28.2031E+06    -24.9291E+06     129.127E+06     1.75237E+06     5.72574E+06         36.3019
            1127     13.6154E-03     4.23097E-03         1.71391         1.31577        -4.46140         1.31572        -4.46134         1.71391    -445.090E-06     57.5713E-03    -27.4744E-03    -30.1302E-03    -23.6347E-03     51.7784E-03    -28.1771E-03     41.9465E-03     90.3553E+06    -25.7492E+06    -38.8310E+06    -28.8590E+06     89.9482E+06    -35.3141E+06     250.286E+03         33.8405
            1128     12.6379E-03     4.23531E-03         1.74146         1.39573        -4.56306         1.39543        -4.56277         1.74146     32.8590E-03     55.5806E-03    -26.4562E-03    -29.1605E-03    -21.5094E-03     50.1266E-03    -28.6533E-03     40.0086E-03     36.7266E+06    -24.4352E+06    -40.1419E+06    -26.4052E+06     29.8795E+06    -31.3248E+06    -13.2946E+06         31.8862
            1129     11.6560E-03     4.24916E-03         1.76724         1.46569        -4.65077         1.46539        -4.65047         1.76724     63.2186E-03     55.1530E-03    -25.8100E-03    -29.3800E-03    -20.6716E-03     50.0146E-03    -29.3800E-03     39.2484E-03     2.31915E+06    -17.7427E+06    -55.2472E+06    -23.1287E+06    -31.2291E+06    -16.3129E+06    -24.3733E+06         30.2543
            1130     10.6745E-03     4.25911E-03         1.79145         1.53234        -4.73900         1.53215        -4.73880         1.79145     58.2016E-03     57.7116E-03    -27.2995E-03    -30.4399E-03    -22.4402E-03     52.5078E-03    -30.0955E-03     40.6670E-03    -642.889E+03    -15.3440E+06     -93.832E+06    -20.9191E+06    -79.2074E+06    -9.69242E+06    -31.9553E+06         28.8427
            1131     9.69964E-03     4.26971E-03         1.81337         1.60583        -4.83340         1.60558        -4.83316         1.81337     74.3154E-03     59.4869E-03    -28.1685E-03    -31.3125E-03    -24.6132E-03     55.3433E-03    -30.7242E-03     37.2382E-03     5.75062E+06    -12.4149E+06    -127.049E+06    -17.9881E+06    -114.852E+06    -873.231E+03    -36.1926E+06         27.6498
            1132     8.72645E-03     4.28999E-03         1.83284         1.66148        -4.90612         1.66124        -4.90588         1.83284     53.9971E-03     61.2583E-03    -29.3291E-03    -31.9113E-03    -26.2140E-03     57.5088E-03    -31.2768E-03     36.1894E-03     12.0172E+06    -7.56339E+06    -152.315E+06    -14.9740E+06    -142.531E+06     9.64382E+06    -36.3511E+06         26.6800
            1133     7.75407E-03     4.30717E-03         1.85055         1.71106        -4.97134         1.71077        -4.97106         1.85055     50.4849E-03     63.5783E-03    -30.7409E-03    -32.8172E-03    -28.3303E-03     60.0508E-03    -31.7003E-03     35.9443E-03     14.3855E+06    -6.48163E+06    -182.628E+06    -13.8824E+06    -175.227E+06     14.3855E+06    -35.0599E+06         25.9526
            1134     6.78384E-03     4.32566E-03         1.86651         1.75693        -5.02542         1.75671        -5.02520         1.86651     42.7396E-03     65.0343E-03    -31.5376E-03    -33.4686E-03    -30.1456E-03     62.0838E-03    -31.9101E-03     33.4587E-03     11.8269E+06    -8.93542E+06    -205.427E+06    -14.2566E+06    -200.106E+06     11.8269E+06    -31.6889E+06         25.5067
            1135     5.81511E-03     4.34458E-03         1.88123         1.79095        -5.07104         1.79085        -5.07094         1.88123     25.5797E-03     65.7607E-03    -31.8798E-03    -33.8620E-03    -31.5069E-03     63.4137E-03    -31.8880E-03     30.1344E-03     5.05536E+06    -11.7823E+06    -213.424E+06    -15.0321E+06    -210.174E+06     5.05536E+06    -25.0094E+06         25.3123
            1136     4.84744E-03     4.36275E-03         1.89614         1.81563        -5.11332         1.81562        -5.11331         1.89614     13.1773E-03     65.5549E-03    -31.6739E-03    -33.8747E-03    -32.1558E-03     63.8360E-03    -31.6739E-03     25.8182E-03    -3.23328E+06    -15.2626E+06    -218.959E+06    -16.8893E+06    -217.332E+06    -3.23328E+06    -17.7996E+06         25.2168
            1137     3.87945E-03     4.37976E-03         1.91013         1.85713        -5.16361         1.85701        -5.16350         1.91013     42.6941E-03     64.6321E-03    -31.3391E-03    -33.2881E-03    -32.1387E-03     63.4827E-03    -31.3391E-03     20.9593E-03    -10.5373E+06    -18.9685E+06    -224.357E+06    -19.7601E+06    -223.566E+06    -10.5373E+06    -12.4688E+06         25.1128
            1138     2.91093E-03     4.39467E-03         1.92713         1.89873        -5.22087         1.90753        -5.22042         1.91789    -27.2175E-03     63.3593E-03    -30.9400E-03    -32.4187E-03    -31.7457E-03     62.6863E-03    -30.9400E-03     15.8061E-03    -16.0646E+06    -22.4525E+06    -227.556E+06    -22.7995E+06    -227.209E+06    -16.0646E+06    -8.17959E+06         24.9988
            1139     1.94178E-03     4.40693E-03         1.93951         1.90542        -5.23024         1.92490        -5.22760         1.91740     113.649E-03     61.9293E-03    -30.5347E-03    -31.3955E-03    -31.0814E-03     61.6152E-03    -30.5347E-03     10.5125E-03    -21.3228E+06    -25.5643E+06    -230.710E+06    -25.6821E+06    -230.592E+06    -21.3228E+06    -4.66000E+06         24.8976
            1140     971.093E-06     4.41440E-03         1.95852         1.88329        -5.22674         1.88524        -5.21582         1.94565    -156.365E-03     60.6836E-03    -30.1238E-03    -30.5605E-03    -30.4089E-03     60.5812E-03    -30.1730E-03     5.74815E-03    -25.5821E+06    -28.5159E+06    -233.396E+06    -27.5019E+06    -233.364E+06    -26.6282E+06    -2.41393E+06         24.8289
            1141     16.4768E-03     3.27454E-03         1.64795         1.12068        -4.19788         1.11922        -4.19642         1.64795    -167.302E-03     92.4014E-03    -32.0908E-03    -60.3002E-03    -43.7496E-03     75.8508E-03    -32.0908E-03     90.1193E-03     175.580E+06     123.392E+06    -9.18113E+06    -8.88012E+06     175.279E+06     123.392E+06     5.69992E+06         41.7908
            1142     15.5160E-03     3.18333E-03         1.67954         1.18742        -4.31708         1.18699        -4.31665         1.67954    -75.0209E-03     84.7128E-03    -30.6315E-03    -54.0264E-03    -37.0060E-03     68.3849E-03    -31.3240E-03     87.7940E-03     153.714E+06     65.0007E+06    -22.3895E+06    -21.8710E+06     153.196E+06     65.0007E+06     7.82231E+06         39.0329
            1143     14.5468E-03     3.17713E-03         1.71100         1.24391        -4.41146         1.24383        -4.41137         1.71100     16.5506E-03     62.0735E-03    -28.0683E-03    -33.9788E-03    -22.7943E-03     54.0076E-03    -31.1869E-03     51.9908E-03     132.442E+06     13.5416E+06    -27.1264E+06    -26.6781E+06     131.993E+06     13.5416E+06     7.64813E+06         36.2713
            1144     13.5625E-03     3.18132E-03         1.74161         1.32992        -4.52170         1.32982        -4.52160         1.74161     39.0129E-03     58.8277E-03    -27.1809E-03    -31.6794E-03    -17.6301E-03     49.2769E-03    -31.6794E-03     53.8451E-03     101.700E+06    -16.8655E+06    -44.8958E+06    -24.7033E+06     101.207E+06     -36.565E+06    -1.94271E+06         33.9578
            1145     12.5804E-03     3.18054E-03         1.76989         1.42455        -4.63692         1.42416        -4.63654         1.76989     75.4143E-03     59.7530E-03    -27.1772E-03    -32.6063E-03    -18.5961E-03     51.1719E-03    -32.6063E-03     51.4271E-03     46.3664E+06    -29.4811E+06    -60.8185E+06    -22.6212E+06     39.5066E+06    -60.8185E+06    -14.9484E+06         32.1191
            1146     11.6032E-03     3.19961E-03         1.79541         1.50625        -4.73319         1.50585        -4.73279         1.79541     87.3730E-03     62.9444E-03    -29.2514E-03    -33.7245E-03    -21.5363E-03     55.2292E-03    -33.7245E-03     50.9362E-03     4.37920E+06    -40.3347E+06    -66.5127E+06    -21.9909E+06    -28.5047E+06    -51.9725E+06    -26.0581E+06         30.6292
            1147     10.6273E-03     3.19955E-03         1.81962         1.55463        -4.80175         1.55454        -4.80166         1.81962     46.5805E-03     65.3916E-03    -30.6626E-03    -34.7558E-03    -23.9629E-03     58.6918E-03    -34.7558E-03     48.3263E-03    -3.66406E+06    -44.6666E+06    -93.6936E+06    -19.6589E+06    -77.6987E+06    -44.6666E+06    -33.6332E+06         29.3578
            1148     9.65006E-03     3.21341E-03         1.84392         1.59881        -4.86704         1.59867        -4.86691         1.84392     57.7795E-03     64.9774E-03    -29.2153E-03    -35.7946E-03    -24.7787E-03     60.5408E-03    -35.7946E-03     39.8902E-03    -4.85907E+06    -40.0463E+06    -130.551E+06    -17.9009E+06    -117.509E+06    -40.0463E+06    -38.0772E+06         28.2732
            1149     8.67273E-03     3.22755E-03         1.86763         1.65922        -4.94519         1.65912        -4.94508         1.86763     20.6217E-03     67.5439E-03    -30.6491E-03    -36.9327E-03    -26.6314E-03     63.5262E-03    -36.9327E-03     38.8063E-03    -4.95176E+06    -31.2825E+06    -161.587E+06    -17.1639E+06    -151.084E+06    -29.5730E+06    -38.5901E+06         27.3875
            1150     7.70179E-03     3.24165E-03         1.88876         1.73172        -5.03323         1.73170        -5.03321         1.88876    -5.87104E-03     71.2699E-03    -33.2729E-03    -38.0272E-03    -29.7348E-03     67.7318E-03    -38.0272E-03     37.6381E-03    -5.17366E+06    -23.2924E+06    -191.592E+06    -16.7970E+06    -184.010E+06    -19.2505E+06    -36.0958E+06         26.7217
            1151     6.73308E-03     3.25768E-03         1.90519         1.80710        -5.11330         1.80706        -5.11326         1.90519    -14.3411E-03     74.5386E-03    -35.6005E-03    -38.9335E-03    -32.6351E-03     71.5732E-03    -38.9335E-03     35.4872E-03    -8.09576E+06    -20.7243E+06    -217.455E+06    -18.2624E+06    -212.188E+06    -15.8246E+06    -32.0723E+06         26.3060
            1152     5.76743E-03     3.27300E-03         1.91794         1.84350        -5.15654         1.84333        -5.15637         1.91794     10.7188E-03     77.3186E-03    -37.4382E-03    -39.8543E-03    -35.3180E-03     74.9597E-03    -39.6157E-03     32.3717E-03    -12.6674E+06    -21.9819E+06    -227.505E+06    -20.5879E+06    -224.420E+06    -17.1466E+06    -24.8001E+06         26.1372
            1153     4.80412E-03     3.29022E-03         1.93157         1.85316        -5.18500         1.85301        -5.18485         1.93157     40.2318E-03     79.2203E-03    -38.6059E-03    -40.6012E-03    -37.3787E-03     77.4917E-03    -40.0997E-03     28.1515E-03    -17.3084E+06    -22.7274E+06    -229.866E+06    -22.6063E+06    -228.430E+06    -18.8654E+06    -16.8532E+06         26.1304
            1154     3.84224E-03     3.30677E-03         1.94454         1.90081        -5.24622         1.90071        -5.24612         1.94454     44.9240E-03     80.4169E-03    -39.4751E-03    -40.9429E-03    -38.8234E-03     79.2375E-03    -40.4152E-03     23.4454E-03    -21.2744E+06    -24.6526E+06    -232.794E+06    -24.4578E+06    -232.186E+06    -22.0772E+06    -10.8165E+06         26.1752
            1155     2.88132E-03     3.32198E-03         1.95902         1.94065        -5.30141         1.94926        -5.30078         1.94977    -48.0106E-03     81.1142E-03    -40.0347E-03    -41.0832E-03    -39.8297E-03     80.4073E-03    -40.5812E-03     18.1779E-03    -24.6794E+06    -27.7547E+06    -234.495E+06    -26.9444E+06    -234.247E+06    -25.7374E+06    -6.82728E+06         26.2124
            1156     1.92092E-03     3.33438E-03         1.97190         1.93994        -5.32715         1.96504        -5.32466         1.94431     82.9391E-03     81.4111E-03    -40.3811E-03    -41.0291E-03    -40.4292E-03     81.0671E-03    -40.6371E-03     12.5759E-03    -26.9880E+06    -29.7312E+06    -236.452E+06    -29.3056E+06    -236.370E+06    -27.4964E+06    -3.71454E+06         26.2339
            1157     961.120E-06     3.34306E-03         1.98923         1.89833        -5.28659         1.95465        -5.27656         1.92288    -155.597E-03     81.2895E-03    -40.4785E-03    -40.8097E-03    -40.5707E-03     81.1731E-03    -40.6011E-03     6.98842E-03    -28.8808E+06    -31.4616E+06    -237.729E+06    -30.0943E+06    -237.714E+06    -30.2625E+06    -1.05048E+06         26.2462
            1158     16.4239E-03     2.17057E-03         1.66412         1.13175        -4.28957         1.12896        -4.28677         1.66412    -184.359E-03     91.8162E-03    -34.4842E-03    -57.3423E-03    -39.7483E-03     74.2222E-03    -34.4842E-03     94.9513E-03     173.353E+06     120.208E+06    -9.91024E+06    -9.30846E+06     172.751E+06     120.208E+06     9.33349E+06         41.8778
            1159     15.4734E-03     2.11549E-03         1.69562         1.20512        -4.40013         1.20453        -4.39954         1.69562     1.76057E-03     76.3585E-03    -30.1074E-03    -46.2045E-03    -31.1570E-03     65.3889E-03    -34.1853E-03     67.5176E-03     155.346E+06     70.5178E+06    -17.5885E+06    -16.8774E+06     154.635E+06     70.5178E+06     10.3092E+06         39.2235
            1160     14.4900E-03     2.12744E-03         1.72700         1.25848        -4.47721         1.25817        -4.47690         1.72700     65.2906E-03     60.3449E-03    -25.7972E-03    -34.5164E-03    -18.8723E-03     53.4200E-03    -34.5164E-03     46.3302E-03     138.042E+06     21.5514E+06    -20.0448E+06    -16.4645E+06     137.823E+06     18.1902E+06     2.60805E+06         36.6005
            1161     13.5067E-03     2.12811E-03         1.75823         1.33505        -4.56928         1.33490        -4.56913         1.75823     59.2387E-03     60.3353E-03    -24.9961E-03    -35.3570E-03    -17.4079E-03     52.7471E-03    -35.3570E-03     47.1589E-03     108.114E+06    -9.17893E+06    -47.0119E+06    -13.7827E+06     107.904E+06    -42.1980E+06    -3.54990E+06         34.3844
            1162     12.5208E-03     2.12863E-03         1.78831         1.41224        -4.66038         1.41207        -4.66021         1.78831     59.1761E-03     61.6585E-03    -25.1182E-03    -36.5559E-03    -18.9671E-03     55.5074E-03    -36.5559E-03     42.1835E-03     52.4479E+06    -17.5179E+06    -79.5272E+06    -12.7480E+06     47.6780E+06    -79.5272E+06    -10.7590E+06         32.6188
            1163     11.5396E-03     2.13511E-03         1.81646         1.49813        -4.76156         1.49799        -4.76142         1.81646     33.3229E-03     66.6819E-03    -28.8169E-03    -37.9011E-03    -23.0887E-03     60.9537E-03    -37.9011E-03     42.9870E-03     9.31463E+06    -42.6277E+06    -88.3611E+06    -12.3451E+06    -23.6630E+06    -85.6661E+06    -22.3511E+06         31.2471
            1164     10.5680E-03     2.13268E-03         1.84253         1.56727        -4.84900         1.56722        -4.84896         1.84253     12.0289E-03     69.8295E-03    -30.6720E-03    -39.2058E-03    -25.7928E-03     64.9503E-03    -39.2058E-03     40.5448E-03    -581.770E+03    -73.7749E+06    -100.317E+06    -13.0716E+06    -77.1402E+06    -84.4620E+06    -29.8456E+06         30.1096
            1165     9.59756E-03     2.14981E-03         1.86817         1.60909        -4.91309         1.60900        -4.91300         1.86817     36.4113E-03     70.8407E-03    -30.3134E-03    -40.5653E-03    -27.0525E-03     67.5798E-03    -40.5653E-03     34.6463E-03    -5.81376E+06    -81.2500E+06    -130.708E+06    -15.3452E+06    -121.176E+06    -81.2500E+06    -32.5283E+06         29.1286
            1166     8.62666E-03     2.15809E-03         1.89367         1.67039        -4.99206         1.67031        -4.99198         1.89367     13.6023E-03     73.7687E-03    -31.7520E-03    -42.0440E-03    -28.8124E-03     70.8290E-03    -42.0440E-03     34.0902E-03    -10.5416E+06    -73.7856E+06    -166.530E+06    -18.2449E+06    -158.827E+06    -73.7856E+06    -33.1491E+06         28.3226
            1167     7.65520E-03     2.16852E-03         1.91637         1.75333        -5.09155         1.75328        -5.09150         1.91637     12.3537E-03     77.4743E-03    -33.8718E-03    -43.6314E-03    -31.4408E-03     75.0433E-03    -43.6314E-03     32.0288E-03    -15.4392E+06    -62.0133E+06    -198.775E+06    -21.0935E+06    -193.121E+06    -62.0133E+06    -31.0814E+06         27.7064
            1168     6.68796E-03     2.17847E-03         1.93421         1.82726        -5.18374         1.82719        -5.18367         1.93421     17.2971E-03     82.0874E-03    -36.9148E-03    -45.1923E-03    -34.9194E-03     80.0920E-03    -45.1923E-03     29.9086E-03    -19.6875E+06    -49.9821E+06    -227.982E+06     -23.427E+06    -224.243E+06    -49.9821E+06    -27.0599E+06         27.2928
            1169     5.72433E-03     2.19056E-03         1.94687         1.88557        -5.24820         1.88537        -5.24800         1.94687     39.6611E-03     86.4975E-03    -39.8918E-03    -46.6161E-03    -38.3569E-03     84.9626E-03    -46.6161E-03     26.9694E-03    -24.1054E+06    -41.6730E+06    -240.717E+06    -26.1717E+06    -238.650E+06    -41.6730E+06    -20.4245E+06         27.0906
            1170     4.76392E-03     2.20300E-03         1.95629         1.91181        -5.27491         1.91157        -5.27467         1.95629     31.8422E-03     90.6214E-03    -42.7307E-03    -47.8953E-03    -41.6117E-03     89.5023E-03    -47.8953E-03     23.6369E-03    -28.6286E+06    -35.4578E+06    -240.222E+06    -29.5495E+06    -239.301E+06    -35.4578E+06    -13.1988E+06         27.0828
            1171     3.80706E-03     2.21665E-03         1.96624         1.92117        -5.29494         1.92103        -5.29479         1.96624    -10.6997E-03     94.3981E-03    -45.4074E-03    -48.9928E-03    -44.6403E-03     93.6310E-03    -48.9928E-03     20.0170E-03    -32.4133E+06    -34.3644E+06    -240.328E+06    -32.7731E+06    -239.968E+06    -34.3644E+06    -8.06761E+06         27.2092
            1172     2.85255E-03     2.22905E-03         1.97729         1.94437        -5.33385         1.94377        -5.33324         1.97729    -81.4864E-03     97.5202E-03    -47.6268E-03    -49.8979E-03    -47.1562E-03     97.0496E-03    -49.8979E-03     15.8952E-03    -34.2661E+06    -36.4771E+06    -240.606E+06    -34.3905E+06    -240.482E+06    -36.4771E+06    -4.60375E+06         27.3875
            1173     1.90020E-03     2.23983E-03         1.99062         1.97186        -5.36896         1.97501        -5.36664         1.98514     77.6817E-03     100.082E-03    -49.4413E-03    -50.6398E-03    -49.2064E-03     99.8470E-03    -50.6398E-03     11.2141E-03    -34.9139E+06    -36.3788E+06    -240.748E+06    -34.9715E+06    -240.710E+06    -36.3590E+06    -2.31260E+06         27.5526
            1174     948.940E-06     2.24714E-03         2.02712         1.95384        -5.38814         2.00107        -5.38190         1.97364    -93.1704E-03     101.964E-03    -50.7541E-03    -51.2052E-03    -50.7779E-03     101.883E-03    -51.1011E-03     6.24230E-03    -35.8375E+06    -37.1735E+06    -240.736E+06    -36.6339E+06    -240.722E+06    -36.3911E+06    -1.06066E+06         27.6687
            1175     16.4007E-03     1.06769E-03         1.66971         1.12806        -4.39758         1.12581        -4.39533         1.66971    -96.5761E-03     94.2006E-03    -34.2858E-03    -59.8559E-03    -44.3258E-03     81.2916E-03    -36.9069E-03     81.4411E-03     174.936E+06     125.599E+06    -5.70203E+06    -5.24184E+06     174.475E+06     125.599E+06     7.79653E+06         42.4334
            1176     15.4253E-03     1.06275E-03         1.70223         1.17628        -4.42991         1.17589        -4.42951         1.70223     62.9819E-03     67.2167E-03    -27.6528E-03    -39.5098E-03    -25.7830E-03     62.6172E-03    -36.7801E-03     39.9746E-03     163.273E+06     77.4666E+06    -4.22363E+06    -3.82301E+06     162.873E+06     77.4666E+06     4.98693E+06         39.9157
            1177     14.4443E-03     1.06822E-03         1.73525         1.25099        -4.50068         1.25066        -4.50035         1.73525     23.4577E-03     62.4064E-03    -25.1100E-03    -37.2751E-03    -21.7661E-03     59.0624E-03    -37.2751E-03     31.2845E-03     141.671E+06     20.2615E+06    -12.2453E+06    -4.69074E+06     141.594E+06     12.7837E+06    -817.657E+03         37.4104
            1178     13.4684E-03     1.06755E-03         1.76792         1.31914        -4.58179         1.31900        -4.58165         1.76792     6.98748E-03     63.4660E-03    -25.4712E-03    -38.0393E-03    -22.8826E-03     60.8774E-03    -38.0393E-03     26.8156E-03     108.855E+06    -4.87519E+06    -49.3959E+06    -4.80778E+06     108.788E+06    -49.3959E+06    -2.00992E+06         35.2657
            1179     12.4918E-03     1.07149E-03         1.79998         1.39613        -4.67022         1.39608        -4.67017         1.79998     20.0253E-03     63.8796E-03    -24.7825E-03    -39.1090E-03    -23.1937E-03     62.2908E-03    -39.1090E-03     21.3538E-03     55.3398E+06    -5.26281E+06    -91.9153E+06    -3.21916E+06     53.2961E+06    -91.9153E+06    -5.68266E+06         33.5363
            1180     11.5161E-03     1.06609E-03         1.83055         1.48217        -4.77040         1.48214        -4.77037         1.83055     7.57906E-03     65.2224E-03    -24.7706E-03    -40.4792E-03    -23.4667E-03     63.9185E-03    -40.4792E-03     19.8509E-03     12.2283E+06    -30.8055E+06    -110.034E+06    -2.51397E+06    -16.0632E+06    -110.034E+06    -12.2599E+06         32.2009
            1181     10.5365E-03     1.06647E-03         1.85883         1.56679        -4.87387         1.56672        -4.87380         1.85883     14.5329E-03     67.4110E-03    -25.3485E-03    -42.1254E-03    -24.2750E-03     66.3375E-03    -42.1254E-03     17.5657E-03    -1.34159E+06    -80.2839E+06    -117.666E+06    -6.33481E+06    -77.1175E+06    -115.839E+06    -17.3548E+06         31.1454
            1182     9.56017E-03     1.07313E-03         1.88423         1.64949        -4.97207         1.64940        -4.97198         1.88423     38.0879E-03     72.2747E-03    -28.3840E-03    -43.9038E-03    -27.3864E-03     71.2771E-03    -43.9038E-03     17.4643E-03    -7.24063E+06    -108.530E+06    -134.791E+06    -11.1554E+06    -124.939E+06    -114.467E+06    -19.1918E+06         30.2706
            1183     8.59045E-03     1.08239E-03         1.90647         1.72269        -5.05594         1.72262        -5.05587         1.90647     27.7424E-03     77.8154E-03    -32.0910E-03    -45.6993E-03    -30.9586E-03     76.6830E-03    -45.6993E-03     19.8336E-03    -13.4567E+06    -107.872E+06    -167.036E+06    -16.4813E+06    -164.012E+06    -107.872E+06    -19.0891E+06         29.5410
            1184     7.62255E-03     1.08736E-03         1.92635         1.77577        -5.12608         1.77565        -5.12597         1.92635     41.5462E-03     82.4147E-03    -34.8129E-03    -47.5761E-03    -33.8275E-03     81.4293E-03    -47.5761E-03     19.3779E-03    -20.3061E+06    -93.0428E+06    -202.605E+06    -22.6296E+06    -200.282E+06    -93.0428E+06    -18.5842E+06         28.9603
            1185     6.65687E-03     1.09173E-03         1.94529         1.81536        -5.18645         1.81527        -5.18636         1.94529     47.0080E-03     87.2104E-03    -37.6454E-03    -49.5408E-03    -36.8977E-03     86.4628E-03    -49.5408E-03     17.2560E-03    -26.9488E+06    -73.4185E+06    -235.113E+06    -28.5185E+06    -233.543E+06    -73.4185E+06    -16.2555E+06         28.5475
            1186     5.69477E-03     1.09747E-03         1.96261         1.86842        -5.25391         1.86831        -5.25380         1.96261     50.3295E-03     92.3851E-03    -40.8873E-03    -51.4997E-03    -40.3470E-03     91.8448E-03    -51.4997E-03     15.0767E-03    -33.2776E+06    -58.3436E+06    -250.331E+06    -34.0932E+06    -249.515E+06    -58.3436E+06    -11.7491E+06         28.3124
            1187     4.73628E-03     1.10500E-03         1.97532         1.92736        -5.32183         1.92719        -5.32166         1.97532     25.4950E-03     98.0282E-03    -44.6384E-03    -53.3988E-03    -44.2463E-03     97.6361E-03    -53.3988E-03     13.3214E-03    -38.2958E+06    -48.9284E+06    -247.771E+06    -38.6035E+06    -247.463E+06    -48.9284E+06    -7.01105E+06         28.2539
            1188     3.78172E-03     1.11184E-03         1.98839         1.95284        -5.35814         1.95788        -5.35803         1.98323    -23.9594E-03     103.861E-03    -48.6883E-03    -55.1660E-03    -48.4172E-03     103.590E-03    -55.1660E-03     11.4136E-03    -41.8159E+06    -44.7518E+06    -245.206E+06    -42.1174E+06    -245.087E+06    -44.5690E+06    -4.22145E+06         28.3565
            1189     2.83177E-03     1.11992E-03         1.99714         1.95307        -5.36419         1.95808        -5.36404         1.99198    -49.5129E-03     109.287E-03    -52.5825E-03    -56.6997E-03    -52.4155E-03     109.120E-03    -56.6997E-03     9.14774E-03    -43.2758E+06    -45.4630E+06    -244.885E+06    -44.3674E+06    -244.828E+06    -44.4287E+06    -2.38519E+06         28.5715
            1190     1.88497E-03     1.12589E-03         2.00535         1.97584        -5.38426         1.97443        -5.38285         2.00535     96.1533E-03     113.771E-03    -55.8496E-03    -57.9183E-03    -55.7676E-03     113.689E-03    -57.9183E-03     6.42646E-03    -43.9855E+06    -46.4899E+06    -243.364E+06    -45.5627E+06    -243.354E+06    -44.9223E+06    -1.18848E+06         28.8100
            1191     942.068E-06     1.12981E-03         2.03946         1.99088        -5.42856         2.00954        -5.42440         2.01663    -45.3961E-03     116.884E-03    -58.0632E-03    -58.8181E-03    -58.2176E-03     116.858E-03    -58.6383E-03     3.43585E-03    -46.0875E+06    -48.0273E+06    -243.543E+06    -47.5806E+06    -243.529E+06    -46.5485E+06    -1.47203E+06         28.9908
            1192     972.189E-06     59.1420E-03         2.18169         1.06441        -4.29190         2.04288        -4.15309         1.06441    -818.453E-03     57.0012E-03    -28.4280E-03    -28.5740E-03    -28.5473E-03     56.9944E-03    -28.4480E-03     1.41019E-03    -41.4346E+06    -43.4832E+06    -250.762E+06    -43.1180E+06    -250.761E+06    -41.8007E+06     -256.67E+03         24.2030
            1193     1.94439E-03     59.1441E-03         1.59723         1.55523        -4.19723         1.57161        -4.17368         1.55729     242.861E-03     57.0134E-03    -28.4795E-03    -28.5343E-03    -28.4702E-03     56.9940E-03    -28.5243E-03     2.51043E-03    -35.8848E+06    -41.1875E+06    -248.725E+06    -41.1884E+06    -248.724E+06    -35.8848E+06    -204.818E+03         24.2365
            1194     2.91647E-03     59.1471E-03         1.57747         1.55222        -4.17524         1.56214        -4.16891         1.56122    -75.3198E-03     56.9780E-03    -28.4438E-03    -28.5357E-03    -28.4045E-03     56.9387E-03    -28.5357E-03     3.61792E-03    -28.4395E+06    -37.7556E+06    -242.969E+06    -37.7569E+06    -242.968E+06    -28.4395E+06    -279.923E+03         24.2964
            1195     3.88886E-03     59.1513E-03         1.55725         1.52476        -4.13036         1.52201        -4.12761         1.55725     55.1430E-03     56.9870E-03    -28.4461E-03    -28.5423E-03    -28.3814E-03     56.9222E-03    -28.5423E-03     4.67582E-03    -19.8333E+06    -34.1372E+06    -234.505E+06    -34.1379E+06    -234.504E+06    -19.8333E+06    -258.157E+03         24.3883
            1196     4.86098E-03     59.1568E-03         1.54596         1.47479        -4.07227         1.47383        -4.07131         1.54596    -53.7219E-03     56.9208E-03    -28.3922E-03    -28.5308E-03    -28.2947E-03     56.8232E-03    -28.5308E-03     5.73719E-03    -12.7123E+06    -30.3177E+06    -215.848E+06    -30.3180E+06    -215.847E+06    -12.7123E+06    -19.4751E+03         24.5172
            1197     5.83350E-03     59.1634E-03         1.53232         1.45119        -4.03684         1.45080        -4.03645         1.53232    -7.79954E-03     56.7916E-03    -28.3084E-03    -28.4879E-03    -28.1742E-03     56.6574E-03    -28.4879E-03     6.73781E-03    -7.43285E+06    -26.7292E+06    -193.006E+06    -26.7298E+06    -193.006E+06    -7.43285E+06     152.274E+03         24.6888
            1198     6.80592E-03     59.1708E-03         1.52034         1.44216        -4.01645         1.44195        -4.01623         1.52034    -41.1459E-03     56.7420E-03    -28.2999E-03    -28.4446E-03    -28.1212E-03     56.5633E-03    -28.4446E-03     7.76448E-03    -2.98650E+06    -23.8059E+06    -173.386E+06    -23.8070E+06    -173.384E+06    -2.98650E+06     345.885E+03         24.9702
            1199     7.77842E-03     59.1796E-03         1.50771         1.38768        -3.95203         1.38756        -3.95191         1.50771    -17.8569E-03     56.6393E-03    -28.2371E-03    -28.4006E-03    -28.0080E-03     56.4102E-03    -28.4006E-03     8.79464E-03    -89.6061E+03    -21.1946E+06    -154.662E+06    -21.1961E+06    -154.661E+06    -89.6061E+03     358.405E+03         25.5073
            1200     8.75106E-03     59.1890E-03         1.49135         1.32287        -3.86876         1.32268        -3.86856         1.49135    -3.65195E-03     56.6010E-03    -28.2239E-03    -28.3561E-03    -27.9558E-03     56.3263E-03    -28.3494E-03     9.63196E-03     1.38633E+06    -18.7137E+06    -134.923E+06    -18.7146E+06    -134.922E+06     1.38633E+06     241.662E+03         26.4005
            1201     9.72367E-03     59.1994E-03         1.47225         1.26613        -3.79049         1.26572        -3.79007         1.47225    -33.1147E-03     56.6616E-03    -28.2570E-03    -28.3645E-03    -27.9438E-03     56.2655E-03    -28.2817E-03     11.4834E-03    -1.86073E+06    -16.7599E+06    -112.924E+06    -16.7600E+06    -112.923E+06    -1.86073E+06     96.2939E+03         27.6540
            1202     10.6963E-03     59.2130E-03         1.45107         1.19736        -3.70281         1.19678        -3.70223         1.45107    -8.29392E-03     56.5758E-03    -28.1990E-03    -28.3877E-03    -27.8387E-03     56.0269E-03    -28.1990E-03     13.5966E-03    -8.04192E+06    -15.6810E+06    -86.8473E+06    -15.6811E+06    -86.8473E+06    -8.04192E+06     13.8470E+03         29.2450
            1203     11.6690E-03     59.2279E-03         1.42832         1.14107        -3.62402         1.14071        -3.62366         1.42832     14.6302E-03     56.4997E-03    -28.0949E-03    -28.4458E-03    -27.7266E-03     55.7805E-03    -28.0949E-03     15.5130E-03    -13.3592E+06    -18.4292E+06    -49.7928E+06    -15.6309E+06    -49.7766E+06    -16.1736E+06    -100.522E+03         31.1568
            1204     12.6418E-03     59.2456E-03         1.40498         1.08508        -3.54566         1.08487        -3.54545         1.40498    -23.6132E-03     56.8558E-03    -27.9733E-03    -28.9000E-03    -27.6235E-03     55.5793E-03    -27.9733E-03     20.4514E-03     7.84712E+06    -19.2160E+06    -28.4756E+06    -16.4170E+06     1.79452E+06    -25.2220E+06    -220.483E+03         33.4934
            1205     13.6148E-03     59.2706E-03         1.38107         1.02206        -3.46357         1.02186        -3.46338         1.38107    -22.4177E-03     57.5947E-03    -27.8218E-03    -29.7836E-03    -27.4194E-03     55.2306E-03    -27.8218E-03     28.0869E-03     76.7954E+06    -17.3978E+06    -32.4375E+06    -17.3970E+06     76.7946E+06    -32.4375E+06    -184.728E+03         36.4684
            1206     14.5878E-03     59.3043E-03         1.35708     969.801E-03        -3.39018     969.652E-03        -3.39003         1.35708    -18.0025E-03     61.6929E-03    -27.8286E-03    -33.8735E-03    -27.2698E-03     55.0892E-03    -27.8286E-03     46.7596E-03     134.881E+06    -2.59428E+06    -26.4864E+06    -17.4524E+06     134.881E+06    -11.6280E+06    -174.605E+03         40.1584
            1207     15.5615E-03     59.3694E-03         1.33355     899.824E-03        -3.30243     899.718E-03        -3.30233         1.33355    -12.1945E-03     75.0112E-03    -28.0804E-03    -46.9288E-03    -27.8200E-03     55.9023E-03    -28.0804E-03     87.0070E-03     163.156E+06     51.3419E+06    -15.1404E+06    -15.1396E+06     163.156E+06     51.3419E+06     30.6113E+03         44.0545
            1208     16.5359E-03     59.4880E-03         1.30943     824.149E-03        -3.21125     823.926E-03        -3.21103         1.30943    -46.0852E-03     76.3870E-03    -28.3851E-03    -47.9781E-03    -27.5919E-03     56.0008E-03    -28.3851E-03     91.0664E-03     185.686E+06     126.360E+06    -8.96354E+06    -8.96233E+06     185.685E+06     126.360E+06     282.518E+03         47.2365
            1209     972.159E-06     60.1995E-03         2.25276         1.09801        -4.38169         2.13054        -4.25946         1.09801    -762.980E-03     56.9476E-03    -28.4123E-03    -28.5342E-03    -28.4693E-03     56.9410E-03    -28.4707E-03     1.33573E-03    -40.9902E+06    -43.3628E+06    -250.110E+06    -43.0086E+06    -250.109E+06    -41.3462E+06    -324.541E+03         24.2002
            1210     1.94436E-03     60.2014E-03         1.64627         1.61603        -4.29328         1.62370        -4.27094         1.61626     217.265E-03     56.9008E-03    -28.4146E-03    -28.4872E-03    -28.3957E-03     56.8819E-03    -28.4872E-03     2.48766E-03    -35.7195E+06    -40.9384E+06    -248.432E+06    -40.9419E+06    -248.429E+06    -35.7195E+06    -636.998E+03         24.2329
            1211     2.91677E-03     60.2044E-03         1.63437         1.60751        -4.27518         1.61725        -4.26868         1.61813    -93.4023E-03     56.9710E-03    -28.4665E-03    -28.5059E-03    -28.4301E-03     56.9315E-03    -28.5027E-03     3.62156E-03    -27.9575E+06    -37.7441E+06    -243.023E+06    -37.7481E+06    -243.019E+06    -27.9575E+06    -778.153E+03         24.2923
            1212     3.88883E-03     60.2088E-03         1.61321         1.57632        -4.22717         1.57347        -4.22432         1.61321     32.7283E-03     56.9745E-03    -28.4492E-03    -28.5272E-03    -28.3863E-03     56.9084E-03    -28.5240E-03     4.72421E-03    -19.2378E+06    -34.0975E+06    -234.653E+06    -34.0987E+06    -234.652E+06    -19.2378E+06    -396.005E+03         24.3845
            1213     4.86121E-03     60.2142E-03         1.60243         1.54333        -4.18814         1.54177        -4.18659         1.60243    -38.3429E-03     56.8809E-03    -28.3697E-03    -28.5138E-03    -28.2714E-03     56.7826E-03    -28.5138E-03     5.75859E-03    -12.5299E+06    -30.2348E+06    -215.945E+06    -30.2355E+06    -215.944E+06    -12.5299E+06    -193.103E+03         24.5141
            1214     5.83360E-03     60.2205E-03         1.59009         1.51148        -4.14634         1.51071        -4.14557         1.59009     15.0690E-03     56.7917E-03    -28.3203E-03    -28.4737E-03    -28.1840E-03     56.6554E-03    -28.4737E-03     6.78884E-03    -7.20309E+06    -26.7880E+06    -193.355E+06    -26.7885E+06    -193.355E+06    -7.20309E+06     73.5366E+03         24.6865
            1215     6.80604E-03     60.2283E-03         1.57631         1.47089        -4.09380         1.47055        -4.09346         1.57631    -36.3001E-03     56.7034E-03    -28.2732E-03    -28.4321E-03    -28.0944E-03     56.5247E-03    -28.4321E-03     7.76969E-03    -2.46614E+06    -23.5111E+06    -173.590E+06    -23.5126E+06    -173.589E+06    -2.46614E+06     423.037E+03         24.9687
            1216     7.77859E-03     60.2366E-03         1.56075         1.42645        -4.03697         1.42628        -4.03680         1.56075    -10.5287E-03     56.6375E-03    -28.2476E-03    -28.3891E-03    -28.0209E-03     56.4108E-03    -28.3891E-03     8.74796E-03     701.352E+03    -20.5365E+06    -154.451E+06    -20.5378E+06    -154.450E+06     701.352E+03     341.510E+03         25.5068
            1217     8.75125E-03     60.2463E-03         1.54344         1.37581        -3.96848         1.37567        -3.96834         1.54344    -21.9652E-03     56.6130E-03    -28.2456E-03    -28.3469E-03    -27.9744E-03     56.3351E-03    -28.3402E-03     9.68489E-03     1.80035E+06    -18.2597E+06    -135.026E+06    -18.2600E+06    -135.026E+06     1.80035E+06     157.011E+03         26.4010
            1218     9.72366E-03     60.2570E-03         1.52417         1.31579        -3.88833         1.31552        -3.88806         1.52417    -39.2215E-03     56.6470E-03    -28.2348E-03    -28.3735E-03    -27.9360E-03     56.2473E-03    -28.2726E-03     11.5454E-03    -1.77321E+06    -16.6498E+06    -113.155E+06    -16.6501E+06    -113.155E+06    -1.77321E+06     138.131E+03         27.6553
            1219     10.6963E-03     60.2701E-03         1.50270         1.24764        -3.80179         1.24715        -3.80130         1.50270    -3.55636E-03     56.6116E-03    -28.1916E-03    -28.4301E-03    -27.8759E-03     56.0573E-03    -28.1916E-03     13.6646E-03    -7.92456E+06    -15.5816E+06    -86.5613E+06    -15.5820E+06    -86.5609E+06    -7.92456E+06     82.3628E+03         29.2469
            1220     11.6692E-03     60.2854E-03         1.47928         1.18057        -3.71265         1.18012        -3.71220         1.47928     5.88151E-03     56.4925E-03    -28.0892E-03    -28.4404E-03    -27.7130E-03     55.7651E-03    -28.0892E-03     15.6027E-03    -13.1879E+06    -18.2432E+06    -49.7666E+06    -15.3467E+06    -49.7626E+06    -16.0885E+06     200.484E+03         31.1591
            1221     12.6422E-03     60.3027E-03         1.45434         1.10909        -3.61912         1.10881        -3.61884         1.45434    -19.5073E-03     56.8125E-03    -27.9623E-03    -28.8639E-03    -27.5667E-03     55.5153E-03    -27.9623E-03     20.5943E-03     8.34861E+06    -18.8990E+06    -28.9132E+06    -16.0013E+06     1.89500E+06    -25.3573E+06     156.913E+03         33.4963
            1222     13.6151E-03     60.3284E-03         1.42796         1.03207        -3.52040         1.03190        -3.52022         1.42796    -9.36412E-03     57.6159E-03    -27.8078E-03    -29.8191E-03    -27.4255E-03     55.2223E-03    -27.8078E-03     28.2809E-03     77.4264E+06    -17.2339E+06    -32.8288E+06    -17.2330E+06     77.4256E+06    -32.8288E+06    -51.1507E+03         36.4717
            1223     14.5882E-03     60.3618E-03         1.40079     964.346E-03        -3.42851     964.176E-03        -3.42834         1.40079    -6.17795E-03     61.6805E-03    -27.8097E-03    -33.8782E-03    -27.2620E-03     55.0642E-03    -27.8097E-03     46.8091E-03     134.430E+06    -3.96990E+06    -27.2394E+06    -18.1024E+06     134.430E+06    -13.1065E+06    -198.676E+03         40.1624
            1224     15.5620E-03     60.4261E-03         1.37407     902.879E-03        -3.34836     902.774E-03        -3.34825         1.37407     6.30385E-03     75.3999E-03    -28.0688E-03    -47.3274E-03    -28.0320E-03     56.1044E-03    -28.0688E-03     87.6946E-03     162.764E+06     50.4851E+06    -15.5755E+06    -15.5751E+06     162.764E+06     50.4851E+06    -197.804E+03         44.0599
            1225     16.5345E-03     60.5466E-03         1.34721     826.463E-03        -3.25286     826.228E-03        -3.25262         1.34721    -28.6903E-03     76.5073E-03    -28.3900E-03    -48.1184E-03    -27.7148E-03     56.1037E-03    -28.3900E-03     91.1550E-03     185.868E+06     126.616E+06    -9.09081E+06    -9.09041E+06     185.867E+06     126.616E+06    -229.926E+03         47.2435
            1226     972.105E-06     61.2567E-03         2.35954         1.13380        -4.51808         2.24367        -4.40800         1.13958    -697.771E-03     56.8496E-03    -28.3414E-03    -28.5074E-03    -28.4628E-03     56.8434E-03    -28.3799E-03     1.26252E-03    -41.4052E+06    -43.5549E+06    -249.930E+06    -43.5587E+06    -249.926E+06    -41.4052E+06    -308.510E+03         24.1967
            1227     1.94459E-03     61.2587E-03         1.68508         1.65581        -4.36425         1.63652        -4.34054         1.68066     222.947E-03     56.8737E-03    -28.4037E-03    -28.4705E-03    -28.4058E-03     56.8544E-03    -28.4491E-03     2.51056E-03    -35.9324E+06    -40.9884E+06    -247.426E+06    -40.9925E+06    -247.422E+06    -35.9324E+06    -610.907E+03         24.2293
            1228     2.91666E-03     61.2618E-03         1.66400         1.63685        -4.32580         1.62938        -4.31833         1.66400    -86.3354E-03     56.9268E-03    -28.4392E-03    -28.4880E-03    -28.4060E-03     56.8874E-03    -28.4817E-03     3.62197E-03    -27.8260E+06    -38.4289E+06    -242.919E+06    -38.4346E+06    -242.913E+06    -27.8260E+06    -810.261E+03         24.2886
            1229     3.88898E-03     61.2663E-03         1.65593         1.63952        -4.32363         1.63609        -4.32021         1.65593     43.4190E-03     56.9108E-03    -28.4045E-03    -28.5081E-03    -28.3435E-03     56.8465E-03    -28.5049E-03     4.65869E-03    -18.5923E+06    -34.4757E+06    -234.993E+06    -34.4793E+06    -234.990E+06    -18.5923E+06    -727.357E+03         24.3812
            1230     4.86137E-03     61.2713E-03         1.64995         1.61453        -4.29849         1.61285        -4.29680         1.64995    -45.1747E-03     56.8674E-03    -28.3760E-03    -28.4950E-03    -28.2792E-03     56.7706E-03    -28.4950E-03     5.71168E-03    -12.0085E+06    -30.4893E+06    -216.033E+06    -30.4905E+06    -216.032E+06    -12.0085E+06    -356.096E+03         24.5118
            1231     5.83366E-03     61.2782E-03         1.63924         1.55298        -4.22910         1.55214        -4.22826         1.63924     10.1618E-03     56.7781E-03    -28.3220E-03    -28.4599E-03    -28.1886E-03     56.6447E-03    -28.4599E-03     6.71974E-03    -6.65293E+06    -26.7832E+06    -193.548E+06    -26.7836E+06    -193.547E+06    -6.65293E+06    -128.849E+03         24.6850
            1232     6.80615E-03     61.2853E-03         1.62297         1.49320        -4.15175         1.49280        -4.15135         1.62297    -53.0341E-03     56.6851E-03    -28.2691E-03    -28.4192E-03    -28.0940E-03     56.5100E-03    -28.4192E-03     7.68557E-03    -2.21851E+06    -23.1538E+06    -173.887E+06    -23.1549E+06    -173.886E+06    -2.21851E+06    -36.5107E+03         24.9680
            1233     7.77875E-03     61.2941E-03         1.60463         1.45489        -4.09821         1.45481        -4.09813         1.60463    -7.51494E-03     56.6618E-03    -28.2801E-03    -28.3800E-03    -28.0538E-03     56.4356E-03    -28.3800E-03     8.74062E-03     1.22203E+06    -19.9529E+06    -154.424E+06    -19.9547E+06    -154.422E+06     1.22203E+06     204.141E+03         25.5067
            1234     8.75104E-03     61.3036E-03         1.58566         1.40641        -4.03363         1.40635        -4.03357         1.58566    -718.255E-06     56.5910E-03    -28.2360E-03    -28.3349E-03    -27.9603E-03     56.3153E-03    -28.3349E-03     9.64586E-03     2.68296E+06    -17.4530E+06    -135.023E+06    -17.4542E+06    -135.022E+06     2.68296E+06     333.500E+03         26.4015
            1235     9.72403E-03     61.3141E-03         1.56535         1.35140        -3.96066         1.35087        -3.96012         1.56535    -54.6888E-03     56.5946E-03    -28.1982E-03    -28.3577E-03    -27.8892E-03     56.1915E-03    -28.2637E-03     11.5716E-03    -1.19909E+06    -15.7639E+06    -113.285E+06    -15.7646E+06    -113.284E+06    -1.19909E+06     233.527E+03         27.6565
            1236     10.6966E-03     61.3278E-03         1.54369         1.29416        -3.88720         1.29347        -3.88651         1.54369    -30.6821E-03     56.6064E-03    -28.1819E-03    -28.4348E-03    -27.8841E-03     56.0557E-03    -28.1819E-03     13.6310E-03    -7.36162E+06    -14.9302E+06    -86.6058E+06    -14.9309E+06    -86.6051E+06    -7.36162E+06     185.689E+03         29.2487
            1237     11.6692E-03     61.3423E-03         1.52021         1.21807        -3.78860         1.21762        -3.78815         1.52021    -7.86633E-03     56.5266E-03    -28.0840E-03    -28.4840E-03    -27.7651E-03     55.8077E-03    -28.0840E-03     15.5071E-03    -12.3155E+06    -17.6677E+06    -49.9258E+06    -14.5982E+06    -49.9224E+06    -15.3885E+06     230.571E+03         31.1614
            1238     12.6420E-03     61.3601E-03         1.49447         1.13730        -3.68655         1.13701        -3.68627         1.49447    -37.9150E-03     56.8157E-03    -27.9585E-03    -28.8702E-03    -27.5780E-03     55.5235E-03    -27.9585E-03     20.5628E-03     8.98038E+06    -18.0092E+06    -28.6085E+06    -14.9378E+06     1.96738E+06    -24.6669E+06     326.328E+03         33.4990
            1239     13.6152E-03     61.3856E-03         1.46686         1.05583        -3.58200         1.05573        -3.58189         1.46686    -9.42803E-03     57.4363E-03    -27.7991E-03    -29.6445E-03    -27.2652E-03     55.0570E-03    -27.7991E-03     28.1326E-03     77.4758E+06    -16.4003E+06    -32.1744E+06    -16.3975E+06     77.4731E+06    -32.1744E+06     352.774E+03         36.4751
            1240     14.5886E-03     61.4192E-03         1.43779     969.794E-03        -3.46841     969.681E-03        -3.46830         1.43779    -10.1197E-03     61.5678E-03    -27.7932E-03    -33.7819E-03    -27.2119E-03     54.9978E-03    -27.7932E-03     46.6397E-03     134.601E+06    -4.15554E+06    -26.6999E+06    -17.5818E+06     134.599E+06    -13.2719E+06    -23.1206E+03         40.1669
            1241     15.5619E-03     61.4831E-03         1.40839     900.181E-03        -3.37714     900.104E-03        -3.37706         1.40839    -7.50180E-03     75.4927E-03    -28.0427E-03    -47.4489E-03    -27.9340E-03     55.9777E-03    -28.0427E-03     88.0709E-03     162.959E+06     49.5834E+06    -15.5618E+06    -15.5608E+06     162.958E+06     49.5834E+06    -418.993E+03         44.0661
            1242     16.5364E-03     61.6052E-03         1.37918     836.700E-03        -3.28060     836.527E-03        -3.28042         1.37918     12.4545E-03     76.5945E-03    -28.3664E-03    -48.2460E-03    -27.7851E-03     56.1337E-03    -28.3664E-03     91.1520E-03     185.817E+06     126.310E+06    -8.89813E+06    -8.89634E+06     185.815E+06     126.310E+06    -551.163E+03         47.2516
            1243     972.515E-06     62.3141E-03         2.44734         1.11681        -4.58742         2.33414        -4.48000         1.12259    -717.921E-03     56.7414E-03    -28.2531E-03    -28.4894E-03    -28.4830E-03     56.7350E-03    -28.2531E-03     1.32457E-03    -42.6837E+06    -45.8421E+06    -249.733E+06    -44.9783E+06    -249.729E+06    -43.5525E+06    -130.637E+03         24.1940
            1244     1.94442E-03     62.3159E-03         1.73134         1.69442        -4.45130         1.68435        -4.42936         1.71948     212.827E-03     56.8802E-03    -28.4072E-03    -28.4746E-03    -28.4442E-03     56.8607E-03    -28.4181E-03     2.51961E-03    -36.8646E+06    -42.9883E+06    -246.824E+06    -42.9921E+06    -246.820E+06    -36.8646E+06    -319.340E+03         24.2275
            1245     2.91676E-03     62.3193E-03         1.70442         1.67306        -4.40203         1.66615        -4.39512         1.70442    -95.6650E-03     56.8687E-03    -28.3982E-03    -28.4720E-03    -28.3628E-03     56.8303E-03    -28.4690E-03     3.58206E-03    -27.8937E+06    -39.3319E+06    -242.073E+06    -39.3373E+06    -242.067E+06    -27.8937E+06    -862.061E+03         24.2868
            1246     3.88913E-03     62.3233E-03         1.69503         1.67274        -4.39146         1.66973        -4.38845         1.69503     33.3202E-03     56.8741E-03    -28.3865E-03    -28.4897E-03    -28.3226E-03     56.8102E-03    -28.4897E-03     4.63366E-03    -18.5631E+06    -35.2749E+06    -235.120E+06    -35.2804E+06    -235.115E+06    -18.5631E+06    -979.756E+03         24.3790
            1247     4.86130E-03     62.3290E-03         1.68673         1.63524        -4.35018         1.63359        -4.34853         1.68673    -38.4449E-03     56.8453E-03    -28.3664E-03    -28.4822E-03    -28.2701E-03     56.7489E-03    -28.4822E-03     5.70237E-03    -11.7640E+06    -30.9161E+06    -216.336E+06    -30.9195E+06    -216.332E+06    -11.7640E+06    -741.728E+03         24.5096
            1248     5.83379E-03     62.3352E-03         1.67360         1.57866        -4.28103         1.57780        -4.28017         1.67360     16.0321E-03     56.7451E-03    -28.3037E-03    -28.4457E-03    -28.1710E-03     56.6124E-03    -28.4457E-03     6.69812E-03    -6.66430E+06    -26.8269E+06    -193.565E+06    -26.8295E+06    -193.562E+06    -6.66430E+06    -612.235E+03         24.6837
            1249     6.80625E-03     62.3428E-03         1.65733         1.53881        -4.22284         1.53848        -4.22250         1.65733    -66.5878E-03     56.7034E-03    -28.2997E-03    -28.4074E-03    -28.1238E-03     56.5276E-03    -28.4074E-03     7.70495E-03    -2.39221E+06    -23.3850E+06    -173.982E+06    -23.3866E+06    -173.980E+06    -2.39221E+06    -429.807E+03         24.9676
            1250     7.77861E-03     62.3512E-03         1.63966         1.48904        -4.15799         1.48902        -4.15796         1.63966    -15.1581E-03     56.6507E-03    -28.2767E-03    -28.3699E-03    -28.0496E-03     56.4236E-03    -28.3699E-03     8.75639E-03     792.686E+03    -20.3035E+06    -154.853E+06    -20.3054E+06    -154.851E+06     792.686E+03    -137.895E+03         25.5069
            1251     8.75144E-03     62.3610E-03         1.62008         1.43234        -4.08433         1.43221        -4.08420         1.62008     20.8883E-03     56.5903E-03    -28.2415E-03    -28.3272E-03    -27.9688E-03     56.3176E-03    -28.3272E-03     9.59688E-03     2.70670E+06    -17.3815E+06    -135.109E+06    -17.3833E+06    -135.108E+06     2.70670E+06     156.382E+03         26.4020
            1252     9.72377E-03     62.3712E-03         1.59876         1.37535        -4.01159         1.37489        -4.01113         1.59876    -24.6941E-03     56.5961E-03    -28.2288E-03    -28.3285E-03    -27.9000E-03     56.1984E-03    -28.2595E-03     11.4882E-03    -781.025E+03    -15.2502E+06    -113.120E+06    -15.2508E+06    -113.119E+06    -781.025E+03     237.563E+03         27.6575
            1253     10.6966E-03     62.3852E-03         1.57585         1.31068        -3.93176         1.30998        -3.93106         1.57585     3.38763E-03     56.5775E-03    -28.1777E-03    -28.4095E-03    -27.8647E-03     56.0327E-03    -28.1777E-03     13.5557E-03    -7.10339E+06    -14.1726E+06    -86.9518E+06    -14.1733E+06    -86.9511E+06    -7.10339E+06     203.244E+03         29.2502
            1254     11.6693E-03     62.3997E-03         1.55134         1.24422        -3.84434         1.24365        -3.84377         1.55134     12.0188E-03     56.5375E-03    -28.0808E-03    -28.4992E-03    -27.7894E-03     55.8277E-03    -28.0808E-03     15.4115E-03    -11.9002E+06    -17.1530E+06    -50.1743E+06    -13.9241E+06    -50.1697E+06    -15.1336E+06     264.918E+03         31.1635
            1255     12.6422E-03     62.4174E-03         1.52514         1.16531        -3.74136         1.16504        -3.74109         1.52514    -28.3182E-03     56.7913E-03    -27.9563E-03    -28.8504E-03    -27.5504E-03     55.4913E-03    -27.9563E-03     20.5920E-03      8.8945E+06    -17.7884E+06    -28.5886E+06    -14.5551E+06     1.64998E+06    -24.5775E+06     472.185E+03         33.5017
            1256     13.6151E-03     62.4428E-03         1.49683         1.07508        -3.62384         1.07503        -3.62379         1.49683     10.7076E-03     57.3161E-03    -27.7944E-03    -29.5294E-03    -27.1634E-03     54.9501E-03    -27.7944E-03     28.0434E-03     76.9258E+06    -15.5325E+06    -31.6371E+06    -15.5268E+06     76.9201E+06    -31.6371E+06     624.569E+03         36.4786
            1257     14.5888E-03     62.4760E-03         1.46661     984.775E-03        -3.50710     984.751E-03        -3.50708         1.46661    -377.372E-06     61.5986E-03    -27.7891E-03    -33.8161E-03    -27.1796E-03     54.9621E-03    -27.7891E-03     46.7992E-03     135.259E+06    -2.43111E+06    -25.2526E+06    -15.9345E+06     135.256E+06    -11.7466E+06     421.648E+03         40.1715
            1258     15.5623E-03     62.5412E-03         1.43529     898.156E-03        -3.39288     898.008E-03        -3.39273         1.43529    -25.2855E-03     75.2401E-03    -28.0361E-03    -47.2080E-03    -27.8439E-03     55.8760E-03    -28.0361E-03     87.6677E-03     164.166E+06     50.9347E+06    -14.0504E+06    -14.0484E+06     164.164E+06     50.9347E+06    -231.887E+03         44.0724
            1259     16.5363E-03     62.6608E-03         1.40341     828.005E-03        -3.28700     827.773E-03        -3.28676         1.40341    -23.0388E-03     76.5301E-03    -28.3537E-03    -48.1791E-03    -27.8153E-03     56.1663E-03    -28.3537E-03     90.9904E-03     185.706E+06     126.484E+06    -8.14938E+06    -8.14700E+06     185.704E+06     126.484E+06    -671.773E+03         47.2595
            1260     972.221E-06     63.3710E-03         2.49260         1.07290        -4.58373         2.38546        -4.47659         1.07290    -697.483E-03     56.7650E-03    -28.2257E-03    -28.5398E-03    -28.5248E-03     56.7580E-03    -28.2338E-03     1.43778E-03    -44.3210E+06    -47.9398E+06    -249.159E+06    -47.0779E+06    -249.152E+06    -45.1897E+06    -275.324E+03         24.1934
            1261     1.94459E-03     63.3736E-03         1.76764         1.73170        -4.51781         1.74473        -4.49534         1.73214     231.171E-03     56.8314E-03    -28.3789E-03    -28.4536E-03    -28.3958E-03     56.8130E-03    -28.4184E-03     2.45450E-03    -38.0451E+06    -44.0399E+06    -246.011E+06    -44.0468E+06    -246.004E+06    -38.0451E+06    -746.988E+03         24.2273
            1262     2.91677E-03     63.3763E-03         1.74109         1.71784        -4.47985         1.71976        -4.47379         1.73312    -111.303E-03     56.8401E-03    -28.3854E-03    -28.4556E-03    -28.3477E-03     56.8024E-03    -28.4556E-03     3.53415E-03    -29.1901E+06    -40.0132E+06    -241.367E+06    -40.0211E+06    -241.359E+06    -29.1901E+06    -1.21138E+06         24.2864
            1263     3.88903E-03     63.3809E-03         1.72501         1.67979        -4.42339         1.67725        -4.42085         1.72501     11.3245E-03     56.8484E-03    -28.3724E-03    -28.4770E-03    -28.3080E-03     56.7840E-03    -28.4770E-03     4.65315E-03    -19.3764E+06    -35.7152E+06    -234.698E+06    -35.7248E+06    -234.689E+06    -19.3764E+06    -1.33494E+06         24.3778
            1264     4.86148E-03     63.3861E-03         1.71172         1.63939        -4.37020         1.63749        -4.36831         1.71172    -25.2039E-03     56.7946E-03    -28.3283E-03    -28.4683E-03    -28.2328E-03     56.6991E-03    -28.4683E-03     5.67605E-03    -12.2349E+06    -31.3028E+06    -216.503E+06    -31.3129E+06    -216.493E+06    -12.2349E+06    -1.32626E+06         24.5081
            1265     5.83389E-03     63.3926E-03         1.69713         1.61077        -4.32982         1.60970        -4.32875         1.69713     30.4448E-03     56.7220E-03    -28.2946E-03    -28.4311E-03    -28.1623E-03     56.5897E-03    -28.4311E-03     6.68362E-03    -6.84175E+06    -27.2141E+06    -193.538E+06    -27.2216E+06    -193.531E+06    -6.84175E+06    -1.06575E+06         24.6827
            1266     6.80631E-03     63.4000E-03         1.68241         1.57673        -4.27820         1.57632        -4.27779         1.68241    -43.6546E-03     56.6935E-03    -28.3022E-03    -28.3957E-03    -28.1249E-03     56.5162E-03    -28.3957E-03     7.73522E-03    -2.40101E+06    -23.6996E+06    -174.134E+06    -23.7042E+06    -174.130E+06    -2.40101E+06    -747.023E+03         24.9672
            1267     7.77889E-03     63.4087E-03         1.66572         1.51716        -4.20316         1.51708        -4.20308         1.66572     13.3514E-03     56.6645E-03    -28.3006E-03    -28.3616E-03    -28.0761E-03     56.4387E-03    -28.3602E-03     8.73716E-03     656.235E+03    -20.5297E+06    -155.051E+06    -20.5330E+06    -155.048E+06     656.235E+03    -575.887E+03         25.5070
            1268     8.75118E-03     63.4181E-03         1.64613         1.45724        -4.12898         1.45713        -4.12887         1.64613     21.8895E-03     56.6032E-03    -28.2591E-03    -28.3213E-03    -27.9868E-03     56.3296E-03    -28.3199E-03     9.61202E-03     2.39737E+06    -17.7217E+06    -135.497E+06    -17.7233E+06    -135.495E+06     2.39737E+06    -300.436E+03         26.4024
            1269     9.72400E-03     63.4289E-03         1.62413         1.39055        -4.04474         1.39006        -4.04425         1.62413    -30.7074E-03     56.6133E-03    -28.2229E-03    -28.3486E-03    -27.9161E-03     56.2133E-03    -28.2554E-03     11.5329E-03    -943.444E+03    -15.4929E+06    -113.309E+06    -15.4936E+06    -113.308E+06    -943.444E+03     20.7765E+03         27.6582
            1270     10.6965E-03     63.4421E-03         1.59967         1.31453        -3.95292         1.31391        -3.95231         1.59967    -15.8923E-03     56.5875E-03    -28.1770E-03    -28.4201E-03    -27.8677E-03     56.0351E-03    -28.1770E-03     13.6460E-03    -6.83375E+06    -14.2018E+06    -86.8299E+06    -14.2026E+06    -86.8291E+06    -6.83375E+06     213.494E+03         29.2515
            1271     11.6693E-03     63.4575E-03         1.57358         1.25363        -3.86987         1.25321        -3.86945         1.57358     287.430E-06     56.4972E-03    -28.0785E-03    -28.4603E-03    -27.7489E-03     55.7857E-03    -28.0785E-03     15.4366E-03    -11.6535E+06    -17.2013E+06    -50.3225E+06    -13.8970E+06    -50.3195E+06    -14.9608E+06     268.054E+03         31.1654
            1272     12.6421E-03     63.4744E-03         1.54624         1.17548        -3.76369         1.17523        -3.76344         1.54624    -20.2575E-03     56.7575E-03    -27.9516E-03    -28.8215E-03    -27.5371E-03     55.4731E-03    -27.9516E-03     20.4579E-03     8.65440E+06    -17.5285E+06    -28.7142E+06    -14.2202E+06     1.28118E+06    -24.6493E+06     362.153E+03         33.5044
            1273     13.6156E-03     63.5002E-03         1.51692         1.08624        -3.64718         1.08602        -3.64695         1.51692    -12.1315E-03     57.3044E-03    -27.7918E-03    -29.5221E-03    -27.2180E-03     55.0003E-03    -27.7918E-03     27.7028E-03     76.7291E+06    -14.8868E+06    -31.5912E+06    -14.8830E+06     76.7252E+06    -31.5912E+06     408.477E+03         36.4820
            1274     14.5888E-03     63.5328E-03         1.48593         1.00307        -3.53740         1.00288        -3.53721         1.48593    -22.0432E-03     61.5528E-03    -27.7886E-03    -33.7706E-03    -27.1284E-03     54.9106E-03    -27.7886E-03     46.6507E-03     135.466E+06    -1.66842E+06    -24.6474E+06    -15.0615E+06     135.464E+06    -11.2520E+06     559.577E+03         40.1761
            1275     15.5623E-03     63.5989E-03         1.45332     897.311E-03        -3.40104     897.173E-03        -3.40090         1.45332    -18.2637E-03     75.1937E-03    -28.0383E-03    -47.1573E-03    -27.9105E-03     55.9469E-03    -28.0383E-03     87.5263E-03     164.954E+06     51.8650E+06    -13.0042E+06    -13.0018E+06     164.952E+06     51.8650E+06     209.457E+03         44.0784
            1276     16.5361E-03     63.7176E-03         1.41857     792.361E-03        -3.26651     792.222E-03        -3.26637         1.41857    -41.5744E-03     76.6382E-03    -28.3592E-03    -48.2776E-03    -27.9145E-03     56.2751E-03    -28.3592E-03     91.2257E-03     186.063E+06     126.906E+06    -7.68398E+06    -7.68296E+06     186.062E+06     126.906E+06    -249.641E+03         47.2669
            1277     972.226E-06     64.4288E-03         2.54343         1.05275        -4.60942         2.43244        -4.49843         1.05275    -727.067E-03     56.8938E-03    -28.3469E-03    -28.5474E-03    -28.4859E-03     56.8874E-03    -28.4021E-03     1.40277E-03    -41.8794E+06    -44.4022E+06    -247.486E+06     -43.716E+06    -247.476E+06    -42.5754E+06    -905.272E+03         24.1936
            1278     1.94438E-03     64.4305E-03         1.78779         1.74704        -4.54406         1.76504        -4.52131         1.74704     229.317E-03     56.7969E-03    -28.3481E-03    -28.4500E-03    -28.3301E-03     56.7789E-03    -28.4500E-03     2.40545E-03    -37.0376E+06    -41.0567E+06    -245.127E+06    -41.0712E+06    -245.113E+06    -37.0376E+06    -1.66770E+06         24.2275
            1279     2.91682E-03     64.4339E-03         1.76270         1.73249        -4.50453         1.73837        -4.49742         1.74970    -81.1585E-03     56.8173E-03    -28.3665E-03    -28.4514E-03    -28.3282E-03     56.7791E-03    -28.4514E-03     3.56064E-03    -29.1745E+06    -38.1743E+06    -240.715E+06    -38.1884E+06    -240.701E+06    -29.1745E+06    -1.63973E+06         24.2860
            1280     3.88914E-03     64.4379E-03         1.74061         1.68635        -4.43378         1.68271        -4.43014         1.74061     37.9090E-03     56.8281E-03    -28.3607E-03    -28.4677E-03    -28.2966E-03     56.7640E-03    -28.4677E-03     4.64607E-03    -19.4231E+06    -34.4586E+06    -234.188E+06    -34.4757E+06    -234.170E+06    -19.4231E+06    -1.82216E+06         24.3771
            1281     4.86146E-03     64.4435E-03         1.72639         1.65802        -4.39389         1.65601        -4.39188         1.72639    -38.2330E-03     56.7799E-03    -28.3231E-03    -28.4589E-03    -28.2276E-03     56.6843E-03    -28.4589E-03     5.67367E-03    -11.8610E+06    -30.4676E+06    -216.416E+06    -30.4838E+06    -216.400E+06    -11.8610E+06    -1.70293E+06         24.5075
            1282     5.83390E-03     64.4497E-03         1.71332         1.64109        -4.36711         1.64015        -4.36617         1.71332     32.7201E-03     56.7178E-03    -28.2986E-03    -28.4237E-03    -28.1672E-03     56.5864E-03    -28.4237E-03     6.66406E-03    -6.33494E+06    -26.8100E+06    -193.545E+06    -26.8203E+06    -193.535E+06    -6.33494E+06    -1.28912E+06         24.6823
            1283     6.80642E-03     64.4574E-03         1.69946         1.58993        -4.29894         1.58954        -4.29855         1.69946    -21.5273E-03     56.6766E-03    -28.2914E-03    -28.3886E-03    -28.1158E-03     56.5010E-03    -28.3886E-03     7.69481E-03    -2.02763E+06    -23.4596E+06    -174.233E+06    -23.4670E+06    -174.226E+06    -2.02763E+06    -1.03238E+06         24.9670
            1284     7.77880E-03     64.4659E-03         1.68187         1.52478        -4.21689         1.52461        -4.21672         1.68187     10.1936E-03     56.6454E-03    -28.2892E-03    -28.3535E-03    -28.0637E-03     56.4186E-03    -28.3522E-03     8.75252E-03     745.426E+03    -20.7017E+06    -155.302E+06    -20.7063E+06    -155.297E+06     745.426E+03    -750.680E+03         25.5068
            1285     8.75145E-03     64.4757E-03         1.66097         1.46052        -4.13630         1.46043        -4.13621         1.66097    -6.98552E-03     56.6045E-03    -28.2582E-03    -28.3227E-03    -27.9940E-03     56.3290E-03    -28.3115E-03     9.64600E-03     2.32889E+06    -18.2326E+06    -135.614E+06    -18.2352E+06    -135.612E+06     2.32889E+06    -540.858E+03         26.4025
            1286     9.72399E-03     64.4858E-03         1.63769         1.39373        -4.05261         1.39327        -4.05216         1.63769    -45.3045E-03     56.6162E-03    -28.2197E-03    -28.3542E-03    -27.9230E-03     56.2144E-03    -28.2491E-03     11.5590E-03    -1.14317E+06    -16.1771E+06    -113.604E+06    -16.1791E+06    -113.602E+06    -1.14317E+06    -335.266E+03         27.6587
            1287     10.6966E-03     64.4999E-03         1.61272         1.33082        -3.97121         1.33031        -3.97070         1.61272    -33.2665E-03     56.5648E-03    -28.1720E-03    -28.4021E-03    -27.8481E-03     56.0108E-03    -28.1720E-03     13.6628E-03    -6.83717E+06    -14.6252E+06    -87.0470E+06    -14.6264E+06    -87.0457E+06    -6.83717E+06    -57.0268E+03         29.2524
            1288     11.6695E-03     64.5143E-03         1.58605         1.25192        -3.86825         1.25176        -3.86809         1.58605     3.59184E-03     56.5132E-03    -28.0726E-03    -28.4807E-03    -27.7632E-03     55.7958E-03    -28.0726E-03     15.5016E-03    -11.5583E+06    -17.3469E+06    -50.2066E+06    -14.0185E+06    -50.2054E+06    -14.8880E+06     67.0771E+03         31.1671
            1289     12.6423E-03     64.5321E-03         1.55699         1.16105        -3.74825         1.16095        -3.74815         1.55699    -11.7763E-03     56.8376E-03    -27.9514E-03    -28.9009E-03    -27.6327E-03     55.5694E-03    -27.9514E-03     20.3853E-03     8.76275E+06    -17.7393E+06    -28.2486E+06    -14.4100E+06     1.52218E+06    -24.3374E+06     142.002E+03         33.5068
            1290     13.6149E-03     64.5571E-03         1.52613         1.08633        -3.64558         1.08597        -3.64522         1.52613    -41.0570E-03     57.4083E-03    -27.7991E-03    -29.6179E-03    -27.3413E-03     55.1317E-03    -27.7991E-03     27.5585E-03     76.9229E+06    -15.3492E+06    -31.4807E+06    -15.3483E+06     76.9219E+06    -31.4807E+06     270.876E+03         36.4851
            1291     14.5884E-03     64.5903E-03         1.49444         1.01289        -3.54248         1.01255        -3.54214         1.49444    -48.4031E-03     61.4807E-03    -27.7992E-03    -33.6876E-03    -27.1253E-03     54.9184E-03    -27.7992E-03     46.3539E-03     135.247E+06    -2.09247E+06    -25.2572E+06    -15.7220E+06     135.245E+06    -11.6258E+06     274.236E+03         40.1802
            1292     15.5625E-03     64.6554E-03         1.46134     910.864E-03        -3.41114     910.827E-03        -3.41110         1.46134    -5.39231E-03     75.2773E-03    -28.0487E-03    -47.2270E-03    -27.8878E-03     55.9380E-03    -28.0487E-03     87.6999E-03     164.838E+06     51.8750E+06    -13.5535E+06    -13.5506E+06     164.835E+06     51.8750E+06     373.124E+03         44.0840
            1293     16.5358E-03     64.7764E-03         1.42579     794.071E-03        -3.26190     794.038E-03        -3.26186         1.42579    -14.7209E-03     76.6469E-03    -28.3666E-03    -48.2845E-03    -27.8921E-03     56.2545E-03    -28.3666E-03     91.2096E-03     186.132E+06     126.710E+06    -8.19548E+06    -8.19290E+06     186.129E+06     126.710E+06     537.246E+03         47.2741
            1294     971.949E-06     65.4859E-03         2.56367         1.05482        -4.62419         2.46579        -4.52631         1.05482    -720.942E-03     56.9326E-03    -28.4067E-03    -28.5272E-03    -28.4451E-03     56.9266E-03    -28.4828E-03     1.24374E-03    -37.3557E+06    -39.3436E+06    -244.638E+06    -38.6590E+06    -244.626E+06    -38.0517E+06    -1.43454E+06         24.1924
            1295     1.94452E-03     65.4879E-03         1.78322         1.75651        -4.54029         1.76095        -4.52198         1.76047     198.459E-03     56.8074E-03    -28.3454E-03    -28.4628E-03    -28.3264E-03     56.7884E-03    -28.4628E-03     2.48072E-03    -34.0369E+06    -37.5604E+06    -244.020E+06    -37.5824E+06    -243.998E+06    -34.0369E+06    -2.12183E+06         24.2276
            1296     2.91677E-03     65.4909E-03         1.76063         1.72729        -4.48664         1.72566        -4.47999         1.75560    -44.3433E-03     56.8069E-03    -28.3562E-03    -28.4507E-03    -28.3173E-03     56.7681E-03    -28.4507E-03     3.59209E-03    -27.2830E+06    -35.0953E+06    -240.217E+06    -35.1164E+06    -240.196E+06    -27.2830E+06    -2.05935E+06         24.2862
            1297     3.88914E-03     65.4953E-03         1.74459         1.70047        -4.43881         1.69648        -4.43481         1.74459     51.8635E-03     56.8136E-03    -28.3557E-03    -28.4579E-03    -28.2914E-03     56.7493E-03    -28.4579E-03     4.65243E-03    -18.5768E+06    -32.2976E+06    -233.700E+06    -32.3137E+06    -233.683E+06    -18.5768E+06    -1.69970E+06         24.3769
            1298     4.86156E-03     65.5005E-03         1.73319         1.68102        -4.41162         1.67915        -4.40975         1.73319    -47.9256E-03     56.7894E-03    -28.3412E-03    -28.4496E-03    -28.2454E-03     56.6936E-03    -28.4496E-03     5.68302E-03    -11.6486E+06    -29.4112E+06    -216.292E+06    -29.4237E+06    -216.279E+06    -11.6486E+06    -1.43098E+06         24.5074
            1299     5.83398E-03     65.5072E-03         1.72048         1.63334        -4.35707         1.63265        -4.35637         1.72048     35.4349E-03     56.7204E-03    -28.3066E-03    -28.4181E-03    -28.1744E-03     56.5882E-03    -28.4181E-03     6.68235E-03    -6.20287E+06    -26.2783E+06    -193.723E+06    -26.2865E+06    -193.715E+06    -6.20287E+06    -1.11310E+06         24.6823
            1300     6.80634E-03     65.5145E-03         1.70396         1.57554        -4.28186         1.57534        -4.28166         1.70396    -32.2198E-03     56.6668E-03    -28.2862E-03    -28.3843E-03    -28.1106E-03     56.4911E-03    -28.3843E-03     7.69701E-03    -1.84345E+06    -23.5585E+06    -174.472E+06    -23.5629E+06    -174.467E+06    -1.84345E+06    -727.704E+03         24.9668
            1301     7.77897E-03     65.5233E-03         1.68457         1.52210        -4.20911         1.52197        -4.20898         1.68457    -19.9727E-03     56.6126E-03    -28.2636E-03    -28.3467E-03    -28.0379E-03     56.3868E-03    -28.3467E-03     8.72907E-03     776.013E+03    -21.1479E+06    -155.441E+06    -21.1504E+06    -155.439E+06     776.013E+03    -553.470E+03         25.5064
            1302     8.75147E-03     65.5327E-03         1.66345         1.46709        -4.13715         1.46696        -4.13702         1.66345    -12.0045E-03     56.5893E-03    -28.2528E-03    -28.3141E-03    -27.9886E-03     56.3152E-03    -28.3042E-03     9.62020E-03     2.15599E+06    -18.8256E+06    -135.506E+06    -18.8297E+06    -135.502E+06     2.15599E+06    -653.001E+03         26.4021
            1303     9.72401E-03     65.5435E-03         1.64085         1.40774        -4.05737         1.40747        -4.05710         1.64085    -28.8997E-03     56.6192E-03    -28.2298E-03    -28.3516E-03    -27.9373E-03     56.2192E-03    -28.2441E-03     11.5336E-03    -1.17256E+06    -16.7475E+06    -113.530E+06    -16.7514E+06    -113.527E+06    -1.17256E+06    -602.398E+03         27.6584
            1304     10.6967E-03     65.5567E-03         1.61595         1.32568        -3.95463         1.32535        -3.95430         1.61595    -17.9522E-03     56.5656E-03    -28.1681E-03    -28.4093E-03    -27.8647E-03     56.0210E-03    -28.1681E-03     13.5516E-03    -7.24060E+06    -15.5034E+06    -87.3773E+06    -15.5066E+06    -87.3742E+06    -7.24060E+06    -430.731E+03         29.2527
            1305     11.6695E-03     65.5720E-03         1.58797         1.23476        -3.84011         1.23460        -3.83995         1.58797     6.03184E-03     56.5452E-03    -28.0712E-03    -28.5108E-03    -27.7968E-03     55.8311E-03    -28.0712E-03     15.4581E-03    -12.3304E+06    -17.7909E+06    -50.4255E+06    -14.9903E+06    -50.4234E+06    -15.1331E+06    -232.544E+03         31.1680
            1306     12.6421E-03     65.5894E-03         1.55796         1.16262        -3.73708         1.16249        -3.73695         1.55796    -5.41719E-03     56.8462E-03    -27.9536E-03    -28.9039E-03    -27.6365E-03     55.5788E-03    -27.9536E-03     20.3942E-03     8.34412E+06    -17.9123E+06    -27.8661E+06    -15.1095E+06     1.61795E+06    -23.9428E+06    -12.2726E+03         33.5086
            1307     13.6154E-03     65.6148E-03         1.52689         1.08559        -3.63100         1.08535        -3.63077         1.52689    -11.6386E-03     57.4510E-03    -27.7989E-03    -29.6602E-03    -27.3487E-03     55.1394E-03    -27.7989E-03     27.7494E-03     76.7471E+06    -15.9032E+06    -31.6453E+06    -15.9024E+06     76.7463E+06    -31.6453E+06     157.814E+03         36.4882
            1308     14.5883E-03     65.6473E-03         1.49436     996.021E-03        -3.51177     995.735E-03        -3.51149         1.49436    -6.73893E-03     61.7071E-03    -27.8079E-03    -33.9069E-03    -27.3751E-03     55.1753E-03    -27.8079E-03     46.5067E-03     135.543E+06    -1.68443E+06    -25.8995E+06    -16.1867E+06     135.542E+06    -11.3960E+06     186.254E+03         40.1841
            1309     15.5617E-03     65.7123E-03         1.46017     909.359E-03        -3.39438     909.229E-03        -3.39425         1.46017     16.3086E-03     75.3609E-03    -28.0690E-03    -47.2989E-03    -27.9507E-03     56.0127E-03    -28.0690E-03     87.6530E-03     164.605E+06     52.1069E+06    -14.4315E+06    -14.4275E+06     164.601E+06     52.1069E+06     611.037E+03         44.0889
            1310     16.5359E-03     65.8341E-03         1.42473     823.703E-03        -3.27506     823.685E-03        -3.27504         1.42473    -3.28766E-03     76.4381E-03    -28.3766E-03    -48.0681E-03    -27.5972E-03     55.9672E-03    -28.3766E-03     91.1486E-03     185.962E+06     126.486E+06    -8.70935E+06    -8.70479E+06     185.958E+06     126.486E+06     915.711E+03         47.2811
            1311     972.388E-06     66.5432E-03         2.57201         1.03058        -4.59205         2.49016        -4.51207         1.03244    -701.281E-03     56.7711E-03    -28.2880E-03    -28.4840E-03    -28.4489E-03     56.7649E-03    -28.3170E-03     1.18244E-03    -35.3471E+06    -37.6432E+06    -242.504E+06    -37.4501E+06    -242.491E+06    -35.5529E+06    -1.28677E+06         24.1905
            1312     1.94447E-03     66.5451E-03         1.76086         1.73857        -4.48573         1.73152        -4.47304         1.75522     166.594E-03     56.8195E-03    -28.3650E-03    -28.4537E-03    -28.3823E-03     56.7996E-03    -28.4165E-03     2.54917E-03    -31.2403E+06    -36.2503E+06    -242.203E+06    -36.2649E+06    -242.188E+06    -31.2403E+06    -1.47772E+06         24.2279
            1313     2.91684E-03     66.5482E-03         1.74648         1.71652        -4.44782         1.71433        -4.44339         1.74424    -46.1500E-03     56.8209E-03    -28.3838E-03    -28.4367E-03    -28.3444E-03     56.7816E-03    -28.4367E-03     3.61942E-03    -25.5326E+06    -34.3645E+06    -239.956E+06    -34.3796E+06    -239.941E+06    -25.5326E+06    -1.63439E+06         24.2873
            1314     3.88924E-03     66.5524E-03         1.73908         1.71877        -4.43965         1.71808        -4.43672         1.73684     10.9919E-03     56.8209E-03    -28.3725E-03    -28.4481E-03    -28.3080E-03     56.7564E-03    -28.4481E-03     4.66127E-03    -18.1272E+06    -31.9683E+06    -233.649E+06    -31.9751E+06    -233.643E+06    -18.1272E+06    -994.865E+03         24.3775
            1315     4.86154E-03     66.5580E-03         1.72937         1.68056        -4.39495         1.67876        -4.39315         1.72937    -51.5631E-03     56.7893E-03    -28.3453E-03    -28.4441E-03    -28.2503E-03     56.6943E-03    -28.4441E-03     5.66322E-03    -11.6896E+06    -29.2706E+06    -216.167E+06    -29.2746E+06    -216.163E+06    -11.6896E+06    -759.818E+03         24.5071
            1316     5.83394E-03     66.5642E-03         1.71505         1.60545        -4.31262         1.60484        -4.31201         1.71505     37.3097E-03     56.7069E-03    -28.2970E-03    -28.4138E-03    -28.1651E-03     56.5749E-03    -28.4138E-03     6.67261E-03    -6.42374E+06    -26.6785E+06    -194.203E+06    -26.6817E+06    -194.200E+06    -6.42374E+06    -512.314E+03         24.6818
            1317     6.80651E-03     66.5720E-03         1.69613         1.56135        -4.24939         1.56115        -4.24918         1.69613    -20.4638E-03     56.6565E-03    -28.2814E-03    -28.3805E-03    -28.1059E-03     56.4811E-03    -28.3805E-03     7.69451E-03    -1.72321E+06    -23.9461E+06    -174.652E+06    -23.9467E+06    -174.652E+06    -1.72321E+06    -170.362E+03         24.9661
            1318     7.77889E-03     66.5803E-03         1.67685         1.52417        -4.19254         1.52406        -4.19242         1.67685     7.63829E-03     56.6334E-03    -28.2890E-03    -28.3449E-03    -28.0630E-03     56.4074E-03    -28.3449E-03     8.73428E-03     1.05341E+06    -21.2555E+06    -155.309E+06    -21.2563E+06    -155.309E+06     1.05341E+06    -262.279E+03         25.5053
            1319     8.75147E-03     66.5902E-03         1.65679         1.46956        -4.12147         1.46946        -4.12138         1.65679     12.7049E-03     56.5706E-03    -28.2466E-03    -28.3026E-03    -27.9726E-03     56.2966E-03    -28.3026E-03     9.61837E-03     2.14491E+06    -18.9775E+06    -135.199E+06    -18.9802E+06    -135.196E+06     2.14491E+06    -478.456E+03         26.4008
            1320     9.72419E-03     66.6004E-03         1.63437         1.39681        -4.02774         1.39651        -4.02744         1.63437    -27.8922E-03     56.6133E-03    -28.2052E-03    -28.3698E-03    -27.9324E-03     56.2118E-03    -28.2411E-03     11.5476E-03    -1.34106E+06    -17.4045E+06    -113.472E+06    -17.4081E+06    -113.468E+06    -1.34106E+06    -550.651E+03         27.6572
            1321     10.6966E-03     66.6145E-03         1.60857         1.30685        -3.91623         1.30644        -3.91582         1.60857    -12.2028E-03     56.6219E-03    -28.1673E-03    -28.4675E-03    -27.9222E-03     56.0766E-03    -28.1673E-03     13.5710E-03    -7.44161E+06    -16.4692E+06    -87.3849E+06    -16.4726E+06    -87.3815E+06    -7.44161E+06    -469.236E+03         29.2517
            1322     11.6693E-03     66.6288E-03         1.58017         1.23294        -3.81736         1.23274        -3.81715         1.58017     20.5592E-03     56.4983E-03    -28.0708E-03    -28.4665E-03    -27.7418E-03     55.7736E-03    -28.0708E-03     15.5482E-03    -13.0482E+06    -18.6162E+06    -50.8233E+06    -16.0987E+06    -50.8207E+06    -15.5682E+06    -280.623E+03         31.1679
            1323     12.6424E-03     66.6471E-03         1.55085         1.17050        -3.72581         1.17031        -3.72562         1.55085     18.6047E-03     56.7741E-03    -27.9455E-03    -28.8402E-03    -27.5481E-03     55.4820E-03    -27.9455E-03     20.5875E-03     7.66365E+06    -18.7666E+06    -28.6546E+06    -16.2452E+06     1.11559E+06    -24.6279E+06    -232.230E+03         33.5098
            1324     13.6152E-03     66.6716E-03         1.52015         1.07823        -3.60505         1.07801        -3.60483         1.52015     14.7530E-03     57.4734E-03    -27.7883E-03    -29.6934E-03    -27.3843E-03     55.1642E-03    -27.7883E-03     27.7657E-03     76.8587E+06    -16.4679E+06    -32.1853E+06    -16.4651E+06     76.8559E+06    -32.1853E+06    -349.868E+03         36.4909
            1325     14.5888E-03     66.7052E-03         1.48679     973.785E-03        -3.47082     973.579E-03        -3.47062         1.48679     7.61601E-03     61.9229E-03    -27.8031E-03    -34.1268E-03    -27.5042E-03     55.3003E-03    -27.8031E-03     46.8493E-03     135.291E+06    -1.72314E+06    -26.3338E+06    -16.4741E+06     135.287E+06    -11.5791E+06     275.784E+03         40.1882
            1326     15.5612E-03     66.7705E-03         1.45134     892.345E-03        -3.35450     892.204E-03        -3.35436         1.45134     21.1388E-03     75.4505E-03    -28.0725E-03    -47.3855E-03    -28.0801E-03     56.1451E-03    -28.0725E-03     87.7334E-03     164.205E+06     52.1625E+06    -14.5193E+06    -14.5115E+06     164.197E+06     52.1625E+06     1.13884E+06         44.0943
            1327     16.5354E-03     66.8898E-03         1.41513     819.265E-03        -3.25142     819.240E-03        -3.25139         1.41513    -9.44759E-03     76.3420E-03    -28.3816E-03    -47.9707E-03    -27.4864E-03     55.8577E-03    -28.3816E-03     91.2114E-03     186.427E+06     126.735E+06    -8.60237E+06    -8.59677E+06     186.422E+06     126.735E+06     798.492E+03         47.2882
            1328     972.465E-06     67.6006E-03         2.58715     973.487E-03        -4.53334         2.50825        -4.45884     977.889E-03    -643.666E-03     56.5895E-03    -28.2089E-03    -28.3808E-03    -28.3755E-03     56.5841E-03    -28.2089E-03     1.19136E-03    -38.4765E+06    -40.5266E+06    -241.761E+06    -40.3411E+06    -241.741E+06    -38.6822E+06    -385.638E+03         24.1918
            1329     1.94473E-03     67.6024E-03         1.73452         1.71356        -4.41771         1.70109        -4.40524         1.73452     214.276E-03     56.7486E-03    -28.3448E-03    -28.4032E-03    -28.3766E-03     56.7294E-03    -28.3521E-03     2.46117E-03    -32.0757E+06    -38.3385E+06    -240.836E+06    -38.3456E+06    -240.828E+06    -32.0757E+06    -736.104E+03         24.2291
            1330     2.91699E-03     67.6055E-03         1.72473         1.70127        -4.39211         1.70087        -4.38946         1.72249    -44.8907E-03     56.8392E-03    -28.4092E-03    -28.4304E-03    -28.3826E-03     56.7999E-03    -28.4177E-03     3.62824E-03    -24.0447E+06    -36.2993E+06    -239.902E+06    -36.3028E+06    -239.898E+06    -24.0447E+06    -391.136E+03         24.2884
            1331     3.88915E-03     67.6098E-03         1.71909         1.70135        -4.38614         1.70140        -4.38396         1.71685    -24.4465E-03     56.8442E-03    -28.3962E-03    -28.4489E-03    -28.3337E-03     56.7803E-03    -28.4473E-03     4.63829E-03    -16.5884E+06    -33.2422E+06    -233.881E+06    -33.2430E+06    -233.880E+06    -16.5884E+06    -185.416E+03         24.3778
            1332     4.86159E-03     67.6151E-03         1.70940         1.65748        -4.33760         1.65562        -4.33574         1.70940    -47.2327E-03     56.7738E-03    -28.3308E-03    -28.4434E-03    -28.2349E-03     56.6779E-03    -28.4434E-03     5.68527E-03    -10.9770E+06    -29.8838E+06    -216.248E+06    -29.8850E+06    -216.247E+06    -10.9770E+06     13.9462E+03         24.5068
            1333     5.83401E-03     67.6217E-03         1.69646         1.60838        -4.28073         1.60769        -4.28004         1.69646     38.5164E-03     56.6989E-03    -28.2911E-03    -28.4110E-03    -28.1590E-03     56.5668E-03    -28.4110E-03     6.67797E-03    -6.00455E+06    -26.9642E+06    -194.466E+06    -26.9658E+06    -194.465E+06    -6.00455E+06     290.629E+03         24.6811
            1334     6.80644E-03     67.6290E-03         1.68073         1.56652        -4.22552         1.56618        -4.22517         1.68073     5.63383E-03     56.6511E-03    -28.2810E-03    -28.3750E-03    -28.1042E-03     56.4743E-03    -28.3750E-03     7.72079E-03    -1.74075E+06    -24.2195E+06    -174.772E+06    -24.2207E+06    -174.771E+06    -1.74075E+06     335.164E+03         24.9649
            1335     7.77902E-03     67.6378E-03         1.66250         1.50443        -4.14491         1.50420        -4.14468         1.66250     36.9766E-03     56.6164E-03    -28.2764E-03    -28.3378E-03    -28.0467E-03     56.3868E-03    -28.3378E-03     8.80367E-03     1.10429E+06    -21.5723E+06    -155.011E+06    -21.5729E+06    -155.011E+06     1.10429E+06     78.0329E+03         25.5035
            1336     8.75149E-03     67.6473E-03         1.64090         1.43350        -4.05148         1.43342        -4.05139         1.64090     9.94641E-03     56.5895E-03    -28.2504E-03    -28.3166E-03    -27.9923E-03     56.3116E-03    -28.2969E-03     9.68920E-03     2.25952E+06    -19.2386E+06    -134.814E+06    -19.2390E+06    -134.814E+06     2.25952E+06    -113.676E+03         26.3983
            1337     9.72408E-03     67.6579E-03         1.61642         1.36268        -3.96115         1.36239        -3.96086         1.61642    -30.5202E-03     56.6097E-03    -28.2153E-03    -28.3527E-03    -27.9251E-03     56.2038E-03    -28.2369E-03     11.6110E-03    -1.25735E+06    -17.5803E+06    -113.514E+06    -17.5813E+06    -113.513E+06    -1.25735E+06    -193.989E+03         27.6545
            1338     10.6968E-03     67.6717E-03         1.59046         1.30573        -3.88238         1.30529        -3.88194         1.59046    -6.02150E-03     56.5733E-03    -28.1600E-03    -28.4212E-03    -27.8644E-03     56.0165E-03    -28.1600E-03     13.7026E-03    -7.50997E+06    -16.6260E+06    -87.5367E+06    -16.6274E+06    -87.5353E+06    -7.50997E+06    -260.636E+03         29.2493
            1339     11.6695E-03     67.6864E-03         1.56362         1.23868        -3.79308         1.23841        -3.79280         1.56362     20.1614E-03     56.4692E-03    -28.0616E-03    -28.4485E-03    -27.7285E-03     55.7492E-03    -28.0616E-03     15.5151E-03    -13.5032E+06    -18.7488E+06    -50.8374E+06    -16.4784E+06    -50.8354E+06    -15.7756E+06    -218.780E+03         31.1664
            1340     12.6426E-03     67.7036E-03         1.53486         1.14976        -3.67886         1.14958        -3.67868         1.53486     7.10838E-03     56.7511E-03    -27.9357E-03    -28.8309E-03    -27.5296E-03     55.4498E-03    -27.9357E-03     20.6039E-03     7.67214E+06    -19.1907E+06    -28.9945E+06    -16.9173E+06     1.33284E+06    -24.9286E+06    -330.844E+03         33.5098
            1341     13.6156E-03     67.7298E-03         1.50354         1.05700        -3.55524         1.05682        -3.55506         1.50354     16.2065E-03     57.5558E-03    -27.7826E-03    -29.7832E-03    -27.4531E-03     55.2256E-03    -27.7826E-03     27.9459E-03     76.9790E+06    -17.9349E+06    -32.4617E+06    -17.9309E+06     76.9750E+06    -32.4617E+06    -563.782E+03         36.4924
            1342     14.5881E-03     67.7619E-03         1.46997     966.609E-03        -3.43639     966.498E-03        -3.43628         1.46997     1.82332E-03     61.8832E-03    -27.7944E-03    -34.0918E-03    -27.4466E-03     55.2381E-03    -27.7944E-03     46.8540E-03     134.158E+06    -4.09848E+06     -27.012E+06    -18.2192E+06     134.154E+06    -12.8873E+06     93.8788E+03         40.1917
            1343     15.5626E-03     67.8285E-03         1.43449     883.244E-03        -3.32215     883.209E-03        -3.32211         1.43449     12.2036E-03     75.2925E-03    -28.0518E-03    -47.2370E-03    -27.9600E-03     56.0155E-03    -28.0518E-03     87.6115E-03     163.205E+06     50.3576E+06    -15.5296E+06    -15.5231E+06     163.199E+06     50.3576E+06     675.279E+03         44.1001
            1344     16.5355E-03     67.9472E-03         1.39725     783.599E-03        -3.19297     783.580E-03        -3.19296         1.39725    -15.4116E-03     76.4149E-03    -28.3709E-03    -48.0552E-03    -27.6579E-03     56.0177E-03    -28.3709E-03     91.1015E-03     187.250E+06     126.754E+06    -8.77670E+06    -8.77239E+06     187.246E+06     126.754E+06     333.349E+03         47.2956
            1345     972.294E-06     68.6577E-03         2.55924     927.358E-03        -4.44499         2.49025        -4.38073     932.095E-03    -554.266E-03     56.5517E-03    -28.2339E-03    -28.3184E-03    -28.3127E-03     56.5460E-03    -28.2339E-03     1.30467E-03    -45.2649E+06    -46.9710E+06    -240.823E+06    -46.9438E+06    -240.808E+06    -45.3069E+06     167.879E+03         24.1981
            1346     1.94472E-03     68.6594E-03         1.71513         1.69685        -4.36452         1.69232        -4.35217         1.70731     220.242E-03     56.6686E-03    -28.3225E-03    -28.3461E-03    -28.3206E-03     56.6504E-03    -28.3298E-03     2.39933E-03    -37.8919E+06    -44.8227E+06    -241.050E+06    -44.8281E+06    -241.044E+06    -37.8919E+06    -54.5979E+03         24.2321
            1347     2.91697E-03     68.6628E-03         1.70891         1.68159        -4.33945         1.68672        -4.33676         1.70110    -26.9471E-03     56.7772E-03    -28.3632E-03    -28.4146E-03    -28.3372E-03     56.7386E-03    -28.4019E-03     3.58471E-03    -26.3913E+06    -40.9728E+06    -240.057E+06    -40.9734E+06    -240.056E+06    -26.3913E+06     296.038E+03         24.2891
            1348     3.88931E-03     68.6670E-03         1.69330         1.65254        -4.29321         1.65078        -4.29145         1.69330     30.3108E-03     56.8065E-03    -28.3662E-03    -28.4412E-03    -28.3036E-03     56.7423E-03    -28.4397E-03     4.64606E-03    -16.4948E+06    -36.2638E+06    -233.955E+06    -36.2644E+06    -233.955E+06    -16.4948E+06     259.957E+03         24.3778
            1349     4.86160E-03     68.6724E-03         1.68190         1.62385        -4.25494         1.62231        -4.25341         1.68190     17.2024E-03     56.7614E-03    -28.3255E-03    -28.4364E-03    -28.2291E-03     56.6650E-03    -28.4364E-03     5.69679E-03    -10.6106E+06    -31.8852E+06    -216.656E+06    -31.8874E+06    -216.654E+06    -10.6106E+06     583.159E+03         24.5066
            1350     5.83407E-03     68.6788E-03         1.66946         1.59491        -4.22075         1.59385        -4.21969         1.66946     51.1423E-03     56.6830E-03    -28.2834E-03    -28.4030E-03    -28.1497E-03     56.5493E-03    -28.4030E-03     6.71688E-03    -5.99508E+06    -28.1243E+06    -194.616E+06    -28.1283E+06    -194.612E+06    -5.99508E+06     798.719E+03         24.6806
            1351     6.80657E-03     68.6864E-03         1.65461         1.53858        -4.15307         1.53823        -4.15272         1.65461    -9.86772E-03     56.6359E-03    -28.2749E-03    -28.3671E-03    -28.0968E-03     56.4578E-03    -28.3671E-03     7.74830E-03    -1.71962E+06    -24.8741E+06    -174.752E+06    -24.8775E+06    -174.748E+06    -1.71962E+06     699.008E+03         24.9637
            1352     7.77904E-03     68.6949E-03         1.63561         1.46955        -4.06543         1.46927        -4.06515         1.63561     1.31291E-03     56.5930E-03    -28.2603E-03    -28.3304E-03    -28.0302E-03     56.3629E-03    -28.3304E-03     8.81065E-03     1.36359E+06    -21.8756E+06    -154.526E+06    -21.8768E+06    -154.525E+06     1.36359E+06     330.193E+03         25.5010
            1353     8.75173E-03     68.7047E-03         1.61361         1.41086        -3.98599         1.41037        -3.98550         1.61361     11.2730E-03     56.5868E-03    -28.2544E-03    -28.3095E-03    -27.9929E-03     56.3055E-03    -28.2898E-03     9.74666E-03     2.54491E+06    -19.3315E+06    -134.565E+06    -19.3316E+06    -134.565E+06     2.54491E+06     45.9681E+03         26.3944
            1354     9.72414E-03     68.7152E-03         1.58992         1.34891        -3.90186         1.34840        -3.90134         1.58992     18.2701E-03     56.5952E-03    -28.2227E-03    -28.3303E-03    -27.9197E-03     56.1913E-03    -28.2295E-03     11.5957E-03    -1.04699E+06    -17.4118E+06    -113.571E+06    -17.4118E+06    -113.571E+06    -1.04699E+06     22.8175E+03         27.6497
            1355     10.6969E-03     68.7288E-03         1.56439         1.27691        -3.81073         1.27656        -3.81039         1.56439     12.9630E-03     56.5271E-03    -28.1524E-03    -28.3824E-03    -27.8279E-03     55.9726E-03    -28.1524E-03     13.6624E-03    -7.09748E+06    -16.2668E+06    -87.5394E+06    -16.2672E+06    -87.5389E+06    -7.09748E+06     18.3725E+03         29.2445
            1356     11.6698E-03     68.7437E-03         1.53678         1.19967        -3.71190         1.19937        -3.71159         1.53678     9.13502E-03     56.5239E-03    -28.0562E-03    -28.5067E-03    -27.7988E-03     55.8159E-03    -28.0562E-03     15.4134E-03    -13.0087E+06    -18.1649E+06    -50.4542E+06    -16.0482E+06    -50.4523E+06    -15.1273E+06    -98.3344E+03         31.1624
            1357     12.6423E-03     68.7611E-03         1.50734         1.12327        -3.60829         1.12312        -3.60814         1.50734    -18.9599E-03     56.8213E-03    -27.9376E-03    -28.8978E-03    -27.6273E-03     55.5508E-03    -27.9376E-03     20.3600E-03     7.87848E+06    -18.9368E+06    -28.5061E+06    -16.8183E+06     1.70311E+06    -24.4492E+06    -94.3951E+03         33.5073
            1358     13.6156E-03     68.7867E-03         1.47657         1.05111        -3.50509         1.05107        -3.50505         1.47657     17.0747E-03     57.5049E-03    -27.7880E-03    -29.7278E-03    -27.3893E-03     55.1665E-03    -27.7880E-03     27.9445E-03     76.9012E+06    -18.5836E+06    -32.0632E+06    -18.5803E+06     76.8979E+06    -32.0632E+06     81.0747E+03         36.4923
            1359     14.5889E-03     68.8205E-03         1.44411     961.161E-03        -3.38861     961.137E-03        -3.38859         1.44411     14.0142E-03     61.7124E-03    -27.7910E-03    -33.9261E-03    -27.3630E-03     55.1493E-03    -27.7910E-03     46.5977E-03     133.628E+06    -5.48211E+06    -27.3693E+06    -19.3934E+06     133.620E+06    -13.4492E+06    -307.380E+03         40.1943
            1360     15.5614E-03     68.8846E-03         1.40874     858.869E-03        -3.25876     858.843E-03        -3.25873         1.40874     5.16523E-03     75.1135E-03    -28.0359E-03    -47.0831E-03    -27.7769E-03     55.8073E-03    -28.0359E-03     87.4068E-03     162.898E+06     49.4991E+06    -16.0278E+06    -16.0200E+06     162.891E+06     49.4991E+06    -694.803E+03         44.1054
            1361     16.5366E-03     69.0053E-03         1.37065     755.180E-03        -3.12551     755.166E-03        -3.12550         1.37065    -12.7184E-03     76.5221E-03    -28.3572E-03    -48.1923E-03    -27.7560E-03     56.0858E-03    -28.3572E-03     91.1533E-03     187.537E+06     126.471E+06    -9.11333E+06    -9.11209E+06     187.536E+06     126.471E+06    -172.052E+03         47.3030
            1362     972.398E-06     69.7144E-03         2.51918     854.673E-03        -4.31424         2.46994        -4.26719     856.864E-03    -479.368E-03     56.5649E-03    -28.2152E-03    -28.3498E-03    -28.3405E-03     56.5583E-03    -28.2178E-03     1.32254E-03    -50.5335E+06    -52.7970E+06    -241.152E+06    -52.6333E+06    -241.148E+06    -50.7014E+06     66.8588E+03         24.2027
            1363     1.94458E-03     69.7168E-03         1.69036         1.66414        -4.28768         1.67889        -4.27840         1.66633     147.291E-03     56.6372E-03    -28.3058E-03    -28.3321E-03    -28.2888E-03     56.6179E-03    -28.3298E-03     2.51475E-03    -43.0413E+06    -50.4063E+06    -241.331E+06    -50.4093E+06    -241.328E+06    -43.0413E+06     695.189E+03         24.2339
            1364     2.91693E-03     69.7198E-03         1.68802         1.65624        -4.27312         1.67154        -4.27005         1.66964    -29.0605E-03     56.6828E-03    -28.3064E-03    -28.3782E-03    -28.2676E-03     56.6439E-03    -28.3782E-03     3.58660E-03    -32.5218E+06    -46.1342E+06    -239.686E+06    -46.1348E+06    -239.686E+06    -32.5218E+06     219.888E+03         24.2900
            1365     3.88937E-03     69.7243E-03         1.66381         1.61787        -4.20903         1.61591        -4.20707         1.66381     35.9238E-03     56.7153E-03    -28.3016E-03    -28.4149E-03    -28.2377E-03     56.6515E-03    -28.4149E-03     4.63502E-03    -20.4918E+06    -40.6951E+06    -234.091E+06    -40.6960E+06    -234.090E+06    -20.4918E+06    -16.9098E+03         24.3787
            1366     4.86174E-03     69.7295E-03         1.64997         1.57480        -4.15595         1.57337        -4.15452         1.64997     1.02595E-03     56.7316E-03    -28.3100E-03    -28.4238E-03    -28.2139E-03     56.6354E-03    -28.4238E-03     5.68541E-03    -11.5150E+06    -35.1836E+06    -217.407E+06     -35.186E+06    -217.405E+06    -11.5150E+06     352.539E+03         24.5074
            1367     5.83413E-03     69.7360E-03         1.63290         1.52395        -4.09323         1.52305        -4.09232         1.63290     36.6747E-03     56.6716E-03    -28.2821E-03    -28.3948E-03    -28.1489E-03     56.5384E-03    -28.3948E-03     6.70767E-03    -6.16258E+06    -30.4297E+06    -194.789E+06    -30.4330E+06    -194.786E+06    -6.16258E+06     695.167E+03         24.6810
            1368     6.80660E-03     69.7435E-03         1.61371         1.47814        -4.03108         1.47789        -4.03083         1.61371    -27.2821E-03     56.6183E-03    -28.2655E-03    -28.3597E-03    -28.0887E-03     56.4415E-03    -28.3597E-03     7.71891E-03    -1.80873E+06    -26.2107E+06    -174.287E+06    -26.2132E+06    -174.285E+06    -1.80873E+06     415.338E+03         24.9630
            1369     7.77916E-03     69.7521E-03         1.59484         1.45444        -3.99231         1.45430        -3.99217         1.59484    -7.13056E-03     56.6182E-03    -28.2833E-03    -28.3346E-03    -28.0622E-03     56.3886E-03    -28.3262E-03     8.80295E-03     1.45177E+06    -22.2557E+06    -154.005E+06    -22.2568E+06    -154.004E+06     1.45177E+06     30.4284E+03         25.4979
            1370     8.75157E-03     69.7619E-03         1.57632         1.40886        -3.92836         1.40837        -3.92786         1.57632     30.0678E-03     56.5671E-03    -28.2485E-03    -28.2964E-03    -27.9804E-03     56.2905E-03    -28.2880E-03     9.66429E-03     2.69925E+06    -19.2094E+06    -134.568E+06    -19.2098E+06    -134.568E+06     2.69925E+06    -124.320E+03         26.3885
            1371     9.72438E-03     69.7726E-03         1.55483         1.32112        -3.82197         1.32048        -3.82133         1.55483     21.2910E-03     56.5821E-03    -28.1972E-03    -28.3443E-03    -27.9199E-03     56.1865E-03    -28.2260E-03     11.4720E-03    -875.235E+03    -16.8608E+06    -113.512E+06    -16.8612E+06    -113.512E+06    -875.235E+03    -122.234E+03         27.6416
            1372     10.6969E-03     69.7860E-03         1.52878         1.22531        -3.70658         1.22493        -3.70619         1.52878    -5.23192E-03     56.6030E-03    -28.1523E-03    -28.4634E-03    -27.9213E-03     56.0609E-03    -28.1523E-03     13.5246E-03    -6.87311E+06    -15.5760E+06    -87.3097E+06    -15.5765E+06    -87.3092E+06    -6.87311E+06     24.2923E+03         29.2356
            1373     11.6696E-03     69.8011E-03         1.50003         1.15633        -3.61240         1.15615        -3.61221         1.50003     14.9913E-03     56.5526E-03    -28.0614E-03    -28.5322E-03    -27.8315E-03     55.8520E-03    -28.0614E-03     15.3291E-03    -12.3770E+06    -17.8120E+06    -50.4601E+06    -15.2427E+06    -50.4559E+06    -14.9505E+06     154.004E+03         31.1542
            1374     12.6425E-03     69.8187E-03         1.47063         1.09796        -3.52567         1.09779        -3.52549         1.47063     10.8982E-03     56.8339E-03    -27.9444E-03    -28.9001E-03    -27.6383E-03     55.5722E-03    -27.9444E-03     20.3089E-03     8.25505E+06    -18.2307E+06    -28.4023E+06    -15.6599E+06     1.52354E+06    -24.2415E+06     258.685E+03         33.5016
            1375     13.6150E-03     69.8439E-03         1.44062         1.02946        -3.42616         1.02932        -3.42603         1.44062     20.3521E-03     57.4831E-03    -27.7917E-03    -29.6979E-03    -27.3161E-03     55.1012E-03    -27.7917E-03     28.1370E-03     76.6610E+06    -16.7498E+06    -31.6386E+06    -16.7467E+06     76.6579E+06    -31.6386E+06     513.833E+03         36.4904
            1376     14.5883E-03     69.8777E-03         1.40877     940.477E-03        -3.31147     940.464E-03        -3.31145         1.40877     246.339E-06     61.5830E-03    -27.7934E-03    -33.7935E-03    -27.2113E-03     55.0008E-03    -27.7934E-03     46.7057E-03     134.958E+06    -2.30043E+06    -25.9542E+06    -17.0679E+06     134.950E+06    -11.1784E+06    -96.1161E+03         40.1966
            1377     15.5627E-03     69.9422E-03         1.37371     838.273E-03        -3.17682     838.251E-03        -3.17680         1.37371     10.6030E-03     75.1111E-03    -28.0402E-03    -47.0776E-03    -27.9397E-03     55.9731E-03    -28.0402E-03     87.1338E-03     163.590E+06     51.2866E+06    -15.2287E+06    -15.2172E+06     163.579E+06     51.2866E+06    -1.04140E+06         44.1102
            1378     16.5360E-03     70.0614E-03         1.33632     752.744E-03        -3.06293     752.721E-03        -3.06290         1.33632    -2.11942E-03     76.5124E-03    -28.3616E-03    -48.1667E-03    -27.8277E-03     56.1734E-03    -28.3616E-03     91.0451E-03     186.412E+06     126.064E+06    -9.24150E+06    -9.23607E+06     186.406E+06     126.064E+06    -764.566E+03         47.3093
            1379     972.255E-06     70.7717E-03         2.51833     753.956E-03        -4.19027         2.47880        -4.15073     753.956E-03    -442.426E-03     56.5811E-03    -28.2000E-03    -28.3810E-03    -28.3656E-03     56.5743E-03    -28.2087E-03     1.30970E-03    -52.0835E+06    -54.6431E+06    -242.106E+06    -54.2148E+06    -242.103E+06    -52.5152E+06     351.906E+03         24.2017
            1380     1.94469E-03     70.7737E-03         1.64234         1.60791        -4.16460         1.62458        -4.15673         1.61781     125.270E-03     56.6107E-03    -28.2873E-03    -28.3236E-03    -28.2679E-03     56.5913E-03    -28.3236E-03     2.52148E-03    -45.5324E+06    -51.7571E+06    -241.597E+06    -51.7592E+06    -241.595E+06    -45.5324E+06     448.252E+03         24.2335
            1381     2.91701E-03     70.7770E-03         1.62804         1.59858        -4.13290         1.60654        -4.13030         1.61749    -42.8140E-03     56.6426E-03    -28.2877E-03    -28.3562E-03    -28.2487E-03     56.6035E-03    -28.3562E-03     3.58977E-03    -36.2864E+06    -47.9335E+06    -238.811E+06    -47.9338E+06    -238.810E+06    -36.2864E+06     8.65051E+03         24.2911
            1382     3.88928E-03     70.7813E-03         1.61075         1.57584        -4.09455         1.57371        -4.09242         1.61075    -21.3856E-03     56.6798E-03    -28.2884E-03    -28.3937E-03    -28.2245E-03     56.6159E-03    -28.3937E-03     4.63774E-03    -24.3648E+06    -43.4605E+06    -233.753E+06    -43.4624E+06    -233.751E+06    -24.3648E+06    -481.865E+03         24.3809
            1383     4.86180E-03     70.7867E-03         1.59816         1.52364        -4.03601         1.52210        -4.03447         1.59816    -66.2619E-03     56.6966E-03    -28.2861E-03    -28.4144E-03    -28.1908E-03     56.6013E-03    -28.4144E-03     5.65867E-03    -13.6946E+06    -38.2242E+06    -218.155E+06    -38.2270E+06    -218.152E+06    -13.6946E+06    -406.988E+03         24.5097
            1384     5.83416E-03     70.7933E-03         1.58147         1.47745        -3.97508         1.47707        -3.97470         1.58147     26.2815E-03     56.6658E-03    -28.2797E-03    -28.3931E-03    -28.1485E-03     56.5345E-03    -28.3931E-03     6.65947E-03    -6.45419E+06    -32.6121E+06    -194.673E+06    -32.6153E+06    -194.670E+06    -6.45419E+06    -189.389E+03         24.6832
            1385     6.80663E-03     70.8007E-03         1.56416         1.44925        -3.93381         1.44908        -3.93363         1.56416    -4.78457E-03     56.6465E-03    -28.2942E-03    -28.3600E-03    -28.1195E-03     56.4718E-03    -28.3600E-03     7.67417E-03    -1.91986E+06    -27.1825E+06    -173.379E+06    -27.1905E+06    -173.371E+06    -1.91986E+06    -698.236E+03         24.9637
            1386     7.77908E-03     70.8095E-03         1.54698         1.41030        -3.88262         1.41024        -3.88257         1.54698     14.0959E-03     56.6399E-03    -28.3014E-03    -28.3372E-03    -28.0823E-03     56.4124E-03    -28.3288E-03     8.76547E-03     996.278E+03    -22.8001E+06    -153.960E+06    -22.8090E+06    -153.951E+06     996.278E+03    -897.959E+03         25.4943
            1387     8.75160E-03     70.8193E-03         1.52795         1.34817        -3.80013         1.34810        -3.80006         1.52795     16.7641E-03     56.6049E-03    -28.2614E-03    -28.3201E-03    -28.0172E-03     56.3351E-03    -28.2945E-03     9.55167E-03     2.66845E+06    -19.0582E+06    -134.530E+06    -19.0653E+06    -134.522E+06     2.66845E+06    -763.404E+03         26.3799
            1388     9.72415E-03     70.8295E-03         1.50597         1.27840        -3.71135         1.27809        -3.71103         1.50597    -12.6155E-03     56.6323E-03    -28.2143E-03    -28.3787E-03    -27.9673E-03     56.2430E-03    -28.2364E-03     11.3748E-03    -872.333E+03    -16.3724E+06    -113.405E+06    -16.3779E+06    -113.399E+06    -872.333E+03    -615.276E+03         27.6290
            1389     10.6968E-03     70.8437E-03         1.48149         1.20917        -3.62123         1.20871        -3.62077         1.48149    -1.39036E-03     56.6461E-03    -28.1648E-03    -28.4924E-03    -27.9545E-03     56.1082E-03    -28.1648E-03     13.4797E-03    -6.77030E+06    -14.8792E+06    -87.2627E+06    -14.8825E+06    -87.2594E+06    -6.77030E+06    -374.712E+03         29.2204
            1390     11.6693E-03     70.8584E-03         1.45507         1.13652        -3.52457         1.13628        -3.52432         1.45507     21.3316E-03     56.5440E-03    -28.0748E-03    -28.5089E-03    -27.8119E-03     55.8470E-03    -28.0748E-03     15.2829E-03    -11.4248E+06    -17.2842E+06    -50.7800E+06    -14.0595E+06    -50.7733E+06    -14.6562E+06    -97.2399E+03         31.1394
            1391     12.6421E-03     70.8760E-03         1.42668         1.05707        -3.41812         1.05683        -3.41789         1.42668     24.8349E-03     56.7146E-03    -27.9516E-03    -28.7721E-03    -27.5131E-03     55.4556E-03    -27.9516E-03     20.2556E-03     8.75316E+06    -17.1852E+06    -28.7516E+06    -13.9565E+06     867.881E+03    -24.0950E+06     257.544E+03         33.4909
            1392     13.6156E-03     70.9012E-03         1.39626     976.390E-03        -3.30826     976.140E-03        -3.30801         1.39626     19.7982E-03     57.3575E-03    -27.7908E-03    -29.5704E-03    -27.1854E-03     54.9725E-03    -27.7908E-03     28.1099E-03     76.5602E+06    -14.5773E+06    -30.8430E+06    -14.5747E+06     76.5577E+06    -30.8430E+06     281.068E+03         36.4865
            1393     14.5890E-03     70.9349E-03         1.36406     903.928E-03        -3.21027     903.787E-03        -3.21013         1.36406     1.80845E-03     61.5559E-03    -27.7786E-03    -33.7818E-03    -27.1619E-03     54.9361E-03    -27.7786E-03     46.8190E-03     135.529E+06    -1.77928E+06    -24.1686E+06    -14.8115E+06     135.528E+06    -11.1352E+06     298.524E+03         40.1987
            1394     15.5620E-03     70.9993E-03         1.33007     837.386E-03        -3.10925     837.290E-03        -3.10915         1.33007     26.4552E-03     75.4528E-03    -28.0325E-03    -47.4100E-03    -28.1610E-03     56.2038E-03    -28.0325E-03     87.6693E-03     164.826E+06     51.4984E+06    -13.3584E+06    -13.3516E+06     164.819E+06     51.4984E+06     69.8784E+03         44.1152
            1395     16.5350E-03     71.1200E-03         1.29465     756.738E-03        -2.99268     756.575E-03        -2.99252         1.29465    -23.0920E-03     76.6878E-03    -28.3710E-03    -48.3083E-03    -27.9655E-03     56.3450E-03    -28.3710E-03     91.1848E-03     186.457E+06     126.740E+06    -8.33412E+06    -8.32601E+06     186.449E+06     126.740E+06    -587.388E+03         47.3157
            1396     972.349E-06     71.8286E-03         2.49931     688.515E-03        -4.08540         2.45716        -4.04654     691.811E-03    -447.572E-03     56.6170E-03    -28.2036E-03    -28.4131E-03    -28.4005E-03     56.6104E-03    -28.2097E-03     1.37800E-03    -50.7937E+06    -52.7567E+06    -242.480E+06    -52.3499E+06    -242.478E+06    -51.2031E+06     633.117E+03         24.1999
            1397     1.94456E-03     71.8310E-03         1.57630         1.54145        -4.01263         1.54317        -4.00603         1.56798     165.307E-03     56.6248E-03    -28.2835E-03    -28.3405E-03    -28.2791E-03     56.6062E-03    -28.3262E-03     2.46116E-03    -46.3373E+06    -50.9407E+06    -241.564E+06    -50.8375E+06    -241.564E+06    -46.4409E+06     206.478E+03         24.2331
            1398     2.91695E-03     71.8341E-03         1.55413         1.51089        -3.95214         1.50944        -3.95069         1.55413    -7.61795E-03     56.6370E-03    -28.2805E-03    -28.3567E-03    -28.2423E-03     56.5987E-03    -28.3567E-03     3.55703E-03    -37.3176E+06    -47.9560E+06    -238.180E+06    -47.9567E+06    -238.179E+06    -37.3176E+06    -188.848E+03         24.2921
            1399     3.88943E-03     71.8385E-03         1.54143         1.50313        -3.93189         1.50176        -3.93052         1.54143    -1.78413E-03     56.7096E-03    -28.3149E-03    -28.3971E-03    -28.2511E-03     56.6458E-03    -28.3971E-03     4.63015E-03    -24.9707E+06    -43.6938E+06    -233.148E+06    -43.6965E+06    -233.145E+06    -24.9707E+06    -652.995E+03         24.3832
            1400     4.86161E-03     71.8438E-03         1.53152         1.48675        -3.91183         1.48555        -3.91063         1.53152    -15.7890E-03     56.7342E-03    -28.3141E-03    -28.4232E-03    -28.2200E-03     56.6402E-03    -28.4232E-03     5.63061E-03    -13.9912E+06    -38.4169E+06    -217.559E+06    -38.4295E+06    -217.546E+06    -13.9912E+06    -1.24525E+06         24.5133
            1401     5.83418E-03     71.8504E-03         1.52153         1.46199        -3.88140         1.46152        -3.88094         1.52153     57.8016E-03     56.6926E-03    -28.2948E-03    -28.4035E-03    -28.1655E-03     56.5633E-03    -28.4035E-03     6.60840E-03    -6.72778E+06    -32.4715E+06    -194.003E+06    -32.5017E+06    -193.973E+06    -6.72778E+06    -1.90442E+06         24.6870
            1402     6.80650E-03     71.8580E-03         1.50874         1.40591        -3.81600         1.40585        -3.81595         1.50874     8.67444E-03     56.6950E-03    -28.3278E-03    -28.3736E-03    -28.1555E-03     56.5227E-03    -28.3736E-03     7.62755E-03    -2.07342E+06    -27.0248E+06    -172.825E+06    -27.0610E+06    -172.789E+06    -2.07342E+06    -2.15289E+06         24.9650
            1403     7.77891E-03     71.8667E-03         1.49039         1.32270        -3.71639         1.32264        -3.71633         1.49039     5.86978E-03     56.6746E-03    -28.3280E-03    -28.3452E-03    -28.1047E-03     56.4513E-03    -28.3452E-03     8.68544E-03     758.495E+03    -22.6860E+06    -153.883E+06    -22.7214E+06    -153.847E+06     758.495E+03    -2.05701E+06         25.4895
            1404     8.75150E-03     71.8766E-03         1.46864         1.27665        -3.64605         1.27647        -3.64586         1.46864     24.5701E-03     56.6531E-03    -28.2969E-03    -28.3332E-03    -28.0516E-03     56.3853E-03    -28.3107E-03     9.52115E-03     2.14252E+06    -19.1060E+06    -134.751E+06    -19.1362E+06    -134.721E+06     2.14252E+06    -1.77062E+06         26.3682
            1405     9.72389E-03     71.8872E-03         1.44729         1.24705        -3.59526         1.24687        -3.59508         1.44729     25.4667E-03     56.6892E-03    -28.2551E-03    -28.3944E-03    -28.0060E-03     56.3007E-03    -28.2551E-03     11.3696E-03    -1.18264E+06    -16.3423E+06    -113.452E+06    -16.3641E+06    -113.431E+06    -1.18264E+06    -1.38113E+06         27.6113
            1406     10.6965E-03     71.9008E-03         1.42556         1.18485        -3.51494         1.18454        -3.51463         1.42556     39.3004E-03     56.5863E-03    -28.1798E-03    -28.4135E-03    -27.8706E-03     56.0434E-03    -28.1798E-03     13.5260E-03    -7.13063E+06    -14.4027E+06    -87.7839E+06    -14.4195E+06    -87.7671E+06    -7.13063E+06    -1.03472E+06         29.1969
            1407     11.6693E-03     71.9159E-03         1.40095         1.09452        -3.40155         1.09413        -3.40116         1.40095     21.8304E-03     56.4935E-03    -28.0812E-03    -28.4480E-03    -27.7402E-03     55.7857E-03    -28.0812E-03     15.3927E-03    -11.5029E+06    -16.8962E+06    -51.1098E+06    -13.4480E+06    -51.0971E+06    -14.9639E+06    -635.072E+03         31.1146
            1408     12.6422E-03     71.9331E-03         1.37320         1.01190        -3.29472         1.01165        -3.29447         1.37320     6.05230E-03     56.7716E-03    -27.9581E-03    -28.8274E-03    -27.5868E-03     55.5310E-03    -27.9581E-03     20.1579E-03     8.77962E+06    -17.1133E+06    -28.8246E+06    -13.6563E+06     792.538E+03    -24.2945E+06    -194.447E+03         33.4732
            1409     13.6152E-03     71.9583E-03         1.34352     941.464E-03        -3.19845     941.260E-03        -3.19825         1.34352     21.4549E-03     57.2840E-03    -27.8020E-03    -29.4902E-03    -27.2023E-03     54.9962E-03    -27.8020E-03     27.5371E-03     76.5711E+06    -14.2661E+06    -30.8147E+06    -14.2633E+06     76.5683E+06    -30.8147E+06     56.1928E+03         36.4792
            1410     14.5888E-03     71.9918E-03         1.31224     868.152E-03        -3.09996     867.991E-03        -3.09980         1.31224     14.4671E-03     61.4291E-03    -27.7827E-03    -33.6548E-03    -27.1309E-03     54.9052E-03    -27.7827E-03     46.3295E-03     135.034E+06    -2.77495E+06    -24.2280E+06    -14.8597E+06     135.033E+06    -12.1424E+06     232.327E+03         40.1993
            1411     15.5628E-03     72.0570E-03         1.27902     809.588E-03        -3.01004     809.465E-03        -3.00992         1.27902     18.9798E-03     75.3531E-03    -28.0340E-03    -47.3135E-03    -28.0003E-03     56.0400E-03    -28.0340E-03     87.6482E-03     165.249E+06     50.6810E+06    -12.9226E+06    -12.9202E+06     165.246E+06     50.6810E+06     529.242E+03         44.1200
            1412     16.5366E-03     72.1781E-03         1.24415     725.793E-03        -2.88652     725.628E-03        -2.88636         1.24415    -26.3893E-03     76.5298E-03    -28.3730E-03    -48.1545E-03    -27.9153E-03     56.2906E-03    -28.3730E-03     90.7209E-03     187.247E+06     126.745E+06    -7.62145E+06    -7.61561E+06     187.241E+06     126.745E+06     438.505E+03         47.3226
            1413     972.295E-06     72.8862E-03         2.45449     607.915E-03        -3.94292         2.40262        -3.91042     627.289E-03    -397.781E-03     56.6397E-03    -28.2259E-03    -28.4132E-03    -28.3974E-03     56.6331E-03    -28.2350E-03     1.45143E-03    -48.6075E+06    -51.0238E+06    -243.441E+06     -50.744E+06    -243.437E+06    -48.8912E+06     615.598E+03         24.1986
            1414     1.94460E-03     72.8880E-03         1.50423         1.46813        -3.84544         1.46270        -3.84002         1.50423     182.409E-03     56.6889E-03    -28.3174E-03    -28.3714E-03    -28.3205E-03     56.6703E-03    -28.3497E-03     2.43804E-03    -42.6021E+06    -48.3146E+06    -240.929E+06    -48.2134E+06    -240.927E+06    -42.7057E+06     532.313E+03         24.2328
            1415     2.91695E-03     72.8912E-03         1.48728         1.45007        -3.80769         1.44925        -3.80686         1.48728     24.3231E-03     56.7385E-03    -28.3385E-03    -28.4006E-03    -28.3084E-03     56.7010E-03    -28.3932E-03     3.53783E-03    -33.6885E+06    -45.1065E+06    -237.543E+06    -45.1074E+06    -237.542E+06    -33.6885E+06    -179.395E+03         24.2930
            1416     3.88918E-03     72.8956E-03         1.47615         1.44066        -3.78738         1.43996        -3.78668         1.47615     40.6041E-03     56.7696E-03    -28.3399E-03    -28.4323E-03    -28.2777E-03     56.7074E-03    -28.4323E-03     4.56908E-03    -22.3711E+06    -40.8392E+06    -232.131E+06    -40.8446E+06    -232.125E+06    -22.3711E+06    -895.101E+03         24.3856
            1417     4.86169E-03     72.9012E-03         1.46709         1.42568        -3.76710         1.42494        -3.76636         1.46709     42.7241E-03     56.7910E-03    -28.3487E-03    -28.4450E-03    -28.2549E-03     56.6971E-03    -28.4450E-03     5.62671E-03    -13.2174E+06    -35.7443E+06    -215.751E+06    -35.7765E+06    -215.719E+06    -13.2174E+06    -2.13093E+06         24.5168
            1418     5.83380E-03     72.9077E-03         1.45605         1.37997        -3.71262         1.37929        -3.71194         1.45605     53.0929E-03     56.7642E-03    -28.3470E-03    -28.4210E-03    -28.2172E-03     56.6343E-03    -28.4210E-03     6.62487E-03    -7.48256E+06    -30.7585E+06    -192.875E+06    -30.8281E+06    -192.806E+06    -7.48256E+06    -3.31055E+06         24.6906
            1419     6.80634E-03     72.9154E-03         1.44030         1.31709        -3.63627         1.31697        -3.63616         1.44030    -7.25841E-03     56.7266E-03    -28.3388E-03    -28.3928E-03    -28.1654E-03     56.5532E-03    -28.3928E-03     7.65396E-03    -3.04658E+06    -26.3432E+06    -172.662E+06    -26.4246E+06    -172.580E+06    -3.04658E+06    -3.39976E+06         24.9653
            1420     7.77875E-03     72.9241E-03         1.42147         1.27121        -3.57201         1.27114        -3.57194         1.42147     4.53638E-03     56.7151E-03    -28.3465E-03    -28.3679E-03    -28.1259E-03     56.4916E-03    -28.3650E-03     8.69489E-03     162.854E+03    -22.3615E+06    -153.712E+06    -22.4351E+06    -153.638E+06     162.854E+03    -3.06150E+06         25.4829
            1421     8.75116E-03     72.9339E-03         1.40238         1.24007        -3.51836         1.23981        -3.51810         1.40238     32.5874E-03     56.6605E-03    -28.3026E-03    -28.3362E-03    -28.0383E-03     56.3879E-03    -28.3280E-03     9.60006E-03     1.37480E+06    -19.1157E+06    -134.910E+06    -19.1819E+06    -134.844E+06     1.37480E+06    -2.71244E+06         26.3535
            1422     9.72375E-03     72.9446E-03         1.38276         1.18596        -3.44742         1.18569        -3.44715         1.38276     28.1359E-03     56.6449E-03    -28.2429E-03    -28.3623E-03    -27.9430E-03     56.2483E-03    -28.2655E-03     11.4890E-03    -2.12593E+06    -16.4076E+06    -113.871E+06    -16.4613E+06    -113.818E+06    -2.12593E+06    -2.22724E+06         27.5889
            1423     10.6963E-03     72.9582E-03         1.36090         1.11633        -3.35754         1.11598        -3.35719         1.36090     32.9309E-03     56.5703E-03    -28.1854E-03    -28.3932E-03    -27.8498E-03     56.0269E-03    -28.1854E-03     13.5321E-03    -8.02980E+06    -14.5749E+06    -88.1172E+06     -14.621E+06    -88.0711E+06    -8.02980E+06    -1.77157E+06         29.1659
            1424     11.6693E-03     72.9728E-03         1.33659         1.04501        -3.26308         1.04462        -3.26270         1.33659     27.9821E-03     56.4489E-03    -28.0828E-03    -28.4056E-03    -27.6988E-03     55.7421E-03    -28.0828E-03     15.3691E-03    -12.1349E+06    -17.6687E+06    -51.6229E+06    -13.8564E+06    -51.5654E+06    -16.0046E+06    -1.28759E+06         31.0808
            1425     12.6421E-03     72.9908E-03         1.31046     979.432E-03        -3.17575     979.249E-03        -3.17557         1.31046     5.24604E-03     56.8347E-03    -27.9585E-03    -28.8950E-03    -27.6247E-03     55.5644E-03    -27.9585E-03     20.3889E-03     8.70057E+06    -17.6575E+06    -29.4215E+06    -13.8190E+06     543.197E+03    -25.1027E+06    -682.384E+03         33.4495
            1426     13.6147E-03     73.0156E-03         1.28306     916.680E-03        -3.08990     916.567E-03        -3.08979         1.28306     31.5244E-03     57.5199E-03    -27.8092E-03    -29.7211E-03    -27.4193E-03     55.2181E-03    -27.8092E-03     27.7322E-03     76.3130E+06    -14.6877E+06    -31.8717E+06    -14.6857E+06     76.3110E+06    -31.8717E+06    -49.3989E+03         36.4695
            1427     14.5880E-03     73.0487E-03         1.25389     842.070E-03        -2.98972     842.010E-03        -2.98966         1.25389     23.8723E-03     61.6931E-03    -27.8149E-03    -33.8870E-03    -27.3034E-03     55.1095E-03    -27.8149E-03     46.5827E-03     134.956E+06    -1.16002E+06    -24.9813E+06    -15.2372E+06     134.950E+06    -10.8989E+06     639.654E+03         40.1987
            1428     15.5612E-03     73.1144E-03         1.22147     756.976E-03        -2.87487     756.845E-03        -2.87474         1.22147     28.2267E-03     75.2342E-03    -28.0662E-03    -47.1709E-03    -27.8786E-03     55.9419E-03    -28.0662E-03     87.5298E-03     164.829E+06     51.8593E+06    -13.7337E+06    -13.7265E+06     164.821E+06     51.8593E+06     858.649E+03         44.1241
            1429     16.5351E-03     73.2349E-03         1.18651     676.770E-03        -2.76323     676.612E-03        -2.76307         1.18651     28.7499E-03     76.2445E-03    -28.3797E-03    -47.8587E-03    -27.6281E-03     56.0139E-03    -28.3797E-03     90.5052E-03     187.308E+06     126.094E+06    -8.11191E+06    -8.10661E+06     187.302E+06     126.094E+06     862.857E+03         47.3293
            1430     972.305E-06     73.9431E-03         2.39414     467.127E-03        -3.71373         2.35143        -3.68709     483.205E-03    -339.123E-03     56.7070E-03    -28.2749E-03    -28.4315E-03    -28.4157E-03     56.7003E-03    -28.2841E-03     1.45112E-03    -46.1075E+06    -49.1690E+06    -244.343E+06    -48.9978E+06    -244.334E+06    -46.2877E+06     827.562E+03         24.1970
            1431     1.94462E-03     73.9452E-03         1.42030         1.39320        -3.66577         1.39553        -3.66047         1.41267     144.407E-03     56.7872E-03    -28.3765E-03    -28.4114E-03    -28.3741E-03     56.7693E-03    -28.3959E-03     2.40629E-03    -38.5200E+06    -45.7917E+06    -240.828E+06    -45.7940E+06    -240.826E+06    -38.5200E+06     508.279E+03         24.2315
            1432     2.91675E-03     73.9485E-03         1.41490         1.39911        -3.66439         1.40533        -3.66340         1.40769    -14.8058E-03     56.8538E-03    -28.4018E-03    -28.4536E-03    -28.3721E-03     56.8167E-03    -28.4462E-03     3.51012E-03    -28.9172E+06    -41.3624E+06    -236.656E+06    -41.3632E+06    -236.655E+06    -28.9172E+06    -23.9521E+03         24.2933
            1433     3.88908E-03     73.9528E-03         1.40820         1.37404        -3.63344         1.37743        -3.63228         1.40365    -12.7187E-03     56.8527E-03    -28.3853E-03    -28.4704E-03    -28.3231E-03     56.7905E-03    -28.4704E-03     4.57491E-03    -20.5832E+06    -37.1934E+06    -230.348E+06    -37.2031E+06    -230.338E+06    -20.5832E+06    -1.13975E+06         24.3875
            1434     4.86132E-03     73.9584E-03         1.39272         1.32196        -3.56727         1.32086        -3.56618         1.39272    -20.4219E-03     56.8184E-03    -28.3569E-03    -28.4639E-03    -28.2615E-03     56.7230E-03    -28.4639E-03     5.66860E-03    -14.5119E+06    -33.1456E+06    -213.625E+06    -33.1880E+06    -213.583E+06    -14.5119E+06    -2.61070E+06         24.5189
            1435     5.83389E-03     73.9653E-03         1.37626         1.27209        -3.50089         1.27168        -3.50048         1.37626     23.7385E-03     56.7803E-03    -28.3493E-03    -28.4350E-03    -28.2165E-03     56.6475E-03    -28.4350E-03     6.70379E-03    -9.01438E+06    -29.3728E+06    -191.492E+06    -29.4665E+06    -191.398E+06    -9.01438E+06    -3.82635E+06         24.6918
            1436     6.80608E-03     73.9726E-03         1.35913         1.25037        -3.46254         1.25024        -3.46241         1.35913    -6.78629E-03     56.7581E-03    -28.3580E-03    -28.4064E-03    -28.1801E-03     56.5802E-03    -28.4064E-03     7.75206E-03    -4.44697E+06    -25.9691E+06    -172.265E+06    -26.0876E+06    -172.147E+06    -4.44697E+06    -4.15013E+06         24.9637
            1437     7.77861E-03     73.9815E-03         1.34382         1.23428        -3.42922         1.23422        -3.42916         1.34382     12.7091E-03     56.7175E-03    -28.3369E-03    -28.3806E-03    -28.1104E-03     56.4879E-03    -28.3777E-03     8.81164E-03    -967.909E+03    -22.5323E+06    -153.657E+06    -22.6457E+06    -153.543E+06    -967.909E+03    -3.82308E+06         25.4743
            1438     8.75108E-03     73.9914E-03         1.32777         1.17586        -3.35400         1.17574        -3.35389         1.32777     21.6773E-03     56.6397E-03    -28.2765E-03    -28.3412E-03    -28.0037E-03     56.3640E-03    -28.3382E-03     9.65357E-03     795.738E+03    -19.2317E+06    -134.654E+06    -19.3417E+06    -134.544E+06     795.738E+03    -3.52769E+06         26.3363
            1439     9.72374E-03     74.0018E-03         1.30813         1.10154        -3.26345         1.10134        -3.26325         1.30813     2.76829E-03     56.6094E-03    -28.2307E-03    -28.3386E-03    -27.9016E-03     56.2124E-03    -28.2705E-03     11.4918E-03    -2.90339E+06    -16.7908E+06    -114.186E+06    -16.8986E+06    -114.078E+06    -2.90339E+06    -3.17244E+06         27.5631
            1440     10.6965E-03     74.0155E-03         1.28614         1.05234        -3.19278         1.05194        -3.19238         1.28614     22.7426E-03     56.5795E-03    -28.1887E-03    -28.4005E-03    -27.8577E-03     56.0367E-03    -28.1887E-03     13.5271E-03    -8.66317E+06    -14.9467E+06    -88.4737E+06    -15.0426E+06    -88.3778E+06    -8.66317E+06    -2.58914E+06         29.1310
            1441     11.6689E-03     74.0304E-03         1.26367         1.00710        -3.12769         1.00677        -3.12737         1.26367     37.1776E-03     56.4499E-03    -28.0860E-03    -28.4051E-03    -27.6995E-03     55.7443E-03    -28.0860E-03     15.3557E-03    -12.4721E+06    -18.1402E+06    -52.1278E+06    -14.1809E+06    -52.0008E+06    -16.5584E+06    -1.94808E+06         31.0433
            1442     12.6422E-03     74.0475E-03         1.24020     943.538E-03        -3.04499     943.464E-03        -3.04492         1.24020     8.25261E-03     56.7284E-03    -27.9551E-03    -28.7905E-03    -27.4883E-03     55.4262E-03    -27.9551E-03     20.5797E-03     7.86980E+06    -18.3001E+06    -30.2434E+06    -14.2909E+06    -485.687E+03    -25.8970E+06    -1.17844E+06         33.4229
            1443     13.6155E-03     74.0737E-03         1.21492     876.307E-03        -2.95727     876.234E-03        -2.95720         1.21492     14.9243E-03     57.6063E-03    -27.8013E-03    -29.8142E-03    -27.4777E-03     55.2698E-03    -27.8013E-03     28.0080E-03     75.7023E+06    -15.1251E+06    -32.7494E+06    -15.1179E+06     75.6951E+06    -32.7494E+06    -269.272E+03         36.4590
            1444     14.5881E-03     74.1059E-03         1.18756     810.299E-03        -2.86534     810.249E-03        -2.86529         1.18756     8.47876E-03     61.9736E-03    -27.8093E-03    -34.1734E-03    -27.5410E-03     55.3412E-03    -27.8093E-03     46.8581E-03     134.532E+06    -2.91608E+06    -26.0821E+06    -16.0454E+06     134.523E+06    -12.9434E+06     957.229E+03         40.1994
            1445     15.5616E-03     74.1724E-03         1.15670     722.795E-03        -2.75018     722.704E-03        -2.75009         1.15670     28.5436E-03     75.3779E-03    -28.0686E-03    -47.3049E-03    -27.9123E-03     55.9854E-03    -28.0686E-03     87.8353E-03     164.730E+06     50.5470E+06    -14.0499E+06    -14.0301E+06     164.710E+06     50.5470E+06     1.83236E+06         44.1298
            1446     16.5357E-03     74.2916E-03         1.12325     654.474E-03        -2.65408     654.194E-03        -2.65380         1.12325     8.93833E-03     76.3279E-03    -28.3844E-03    -47.9332E-03    -27.5221E-03     55.9168E-03    -28.3844E-03     90.9581E-03     187.995E+06     126.257E+06    -8.42957E+06    -8.41851E+06     187.984E+06     126.257E+06     1.20878E+06         47.3373
            1447     972.248E-06     75.0003E-03         2.30636     322.136E-03        -3.45462         2.27836        -3.42662     322.136E-03    -313.152E-03     56.9104E-03    -28.3339E-03    -28.5762E-03    -28.5366E-03     56.9047E-03    -28.3678E-03     1.29631E-03    -42.2087E+06    -45.5473E+06    -244.875E+06    -44.4379E+06    -244.867E+06    -43.3258E+06     852.900E+03         24.1947
            1448     1.94436E-03     75.0026E-03         1.34030         1.30655        -3.47425         1.33356        -3.46751         1.30655     131.731E-03     56.8552E-03    -28.3806E-03    -28.4748E-03    -28.3711E-03     56.8375E-03    -28.4667E-03     2.38438E-03    -36.8386E+06    -42.3281E+06    -240.756E+06    -42.3290E+06    -240.755E+06    -36.8386E+06     248.413E+03         24.2297
            1449     2.91669E-03     75.0057E-03         1.33432         1.30853        -3.46726         1.32608        -3.46534         1.31486    -21.5663E-03     56.8692E-03    -28.3952E-03    -28.4748E-03    -28.3565E-03     56.8305E-03    -28.4748E-03     3.58062E-03    -29.5836E+06    -39.5554E+06    -236.042E+06    -39.5559E+06    -236.042E+06    -29.5836E+06    -70.7855E+03         24.2927
            1450     3.88893E-03     75.0103E-03         1.31671         1.27601        -3.41541         1.27890        -3.41374         1.31215     4.34143E-03     56.9121E-03    -28.4285E-03    -28.4849E-03    -28.3637E-03     56.8473E-03    -28.4849E-03     4.67556E-03    -21.9561E+06    -36.0291E+06    -228.363E+06    -36.0395E+06    -228.352E+06    -21.9561E+06    -1.11241E+06         24.3881
            1451     4.86126E-03     75.0157E-03         1.30075         1.23500        -3.36386         1.23346        -3.36231         1.30075    -4.32062E-03     56.8582E-03    -28.3828E-03    -28.4773E-03    -28.2859E-03     56.7612E-03    -28.4773E-03     5.71651E-03    -16.0481E+06    -32.2442E+06    -211.147E+06    -32.2959E+06    -211.095E+06    -16.0481E+06    -2.83559E+06         24.5194
            1452     5.83357E-03     75.0224E-03         1.28716         1.21269        -3.33139         1.21186        -3.33056         1.28716     76.3066E-03     56.7713E-03    -28.3295E-03    -28.4463E-03    -28.1941E-03     56.6358E-03    -28.4463E-03     6.76803E-03    -10.4343E+06    -28.8152E+06    -189.886E+06    -28.9192E+06    -189.782E+06    -10.4343E+06    -4.03520E+06         24.6916
            1453     6.80615E-03     75.0301E-03         1.27412         1.18848        -3.29185         1.18834        -3.29171         1.27412     26.9232E-03     56.7521E-03    -28.3415E-03    -28.4157E-03    -28.1621E-03     56.5727E-03    -28.4157E-03     7.78612E-03    -5.22481E+06    -25.6093E+06    -171.447E+06    -25.7513E+06    -171.305E+06    -5.22481E+06    -4.50443E+06         24.9608
            1454     7.77847E-03     75.0389E-03         1.26033         1.14918        -3.23462         1.14908        -3.23453         1.26033     30.2946E-03     56.7007E-03    -28.3167E-03    -28.3822E-03    -28.0854E-03     56.4695E-03    -28.3822E-03     8.83916E-03    -1.91673E+06    -22.5020E+06    -153.349E+06    -22.6598E+06    -153.192E+06    -1.91673E+06    -4.51744E+06         25.4643
            1455     8.75107E-03     75.0488E-03         1.24413         1.09271        -3.16032         1.09219        -3.15980         1.24413     62.4224E-03     56.6262E-03    -28.2635E-03    -28.3397E-03    -27.9870E-03     56.3497E-03    -28.3397E-03     9.66851E-03    -204.014E+03    -19.6301E+06    -134.503E+06    -19.7944E+06    -134.338E+06    -204.014E+03    -4.30751E+06         26.3172
            1456     9.72363E-03     75.0591E-03         1.22516         1.03329        -3.08496         1.03272        -3.08438         1.22516     44.0061E-03     56.6276E-03    -28.2393E-03    -28.3474E-03    -27.9153E-03     56.2292E-03    -28.2730E-03     11.5048E-03    -3.66769E+06    -17.1245E+06    -114.232E+06    -17.2935E+06    -114.063E+06    -3.66769E+06    -4.01923E+06         27.5352
            1457     10.6962E-03     75.0729E-03         1.20467     989.241E-03        -3.02347     988.846E-03        -3.02307         1.20467     39.0708E-03     56.5443E-03    -28.1891E-03    -28.3657E-03    -27.8193E-03     55.9980E-03    -28.1891E-03     13.5654E-03     -9.6881E+06    -15.4849E+06    -88.8641E+06    -15.6527E+06    -88.6963E+06     -9.6881E+06    -3.43739E+06         29.0946
            1458     11.6694E-03     75.0876E-03         1.18395     951.252E-03        -2.96380     950.926E-03        -2.96347         1.18395     34.3961E-03     56.4603E-03    -28.0858E-03    -28.4147E-03    -27.7139E-03     55.7595E-03    -28.0858E-03     15.3119E-03    -13.0499E+06    -18.7412E+06    -52.6606E+06    -14.7415E+06    -52.4610E+06    -17.2492E+06    -2.51520E+06         31.0051
            1459     12.6420E-03     75.1049E-03         1.16254     896.844E-03        -2.88891     896.715E-03        -2.88878         1.16254     14.1545E-03     56.7651E-03    -27.9570E-03    -28.8210E-03    -27.5427E-03     55.4868E-03    -27.9570E-03     20.4035E-03     7.22885E+06    -19.0779E+06    -30.9513E+06    -14.9782E+06    -1.19659E+06    -26.6256E+06    -1.56050E+06         33.3953
            1460     13.6151E-03     75.1306E-03         1.13910     824.208E-03        -2.79878     824.079E-03        -2.79865         1.13910     14.2528E-03     57.5372E-03    -27.8026E-03    -29.7428E-03    -27.3878E-03     55.1822E-03    -27.8026E-03     28.0487E-03     74.3561E+06    -16.1001E+06    -33.5936E+06    -16.0843E+06     74.3403E+06    -33.5936E+06    -416.473E+03         36.4475
            1461     14.5882E-03     75.1646E-03         1.11291     753.926E-03        -2.70557     753.874E-03        -2.70552         1.11291    -405.475E-06     61.7279E-03    -27.7929E-03    -33.9423E-03    -27.3607E-03     55.1463E-03    -27.7929E-03     46.6703E-03     133.097E+06    -5.64880E+06    -26.6204E+06    -16.6664E+06     133.089E+06    -15.5946E+06     941.697E+03         40.2008
            1462     15.5614E-03     75.2285E-03         1.08362     697.680E-03        -2.62299     697.637E-03        -2.62294         1.08362     5.69394E-03     75.3603E-03    -28.0390E-03    -47.3116E-03    -27.8868E-03     55.9355E-03    -28.0390E-03     87.8384E-03     164.055E+06     46.9459E+06    -14.9715E+06    -14.9507E+06     164.034E+06     46.9459E+06     1.90842E+06         44.1382
            1463     16.5354E-03     75.3493E-03         1.05270     643.392E-03        -2.54211     643.133E-03        -2.54185         1.05270    -45.7314E-03     76.4925E-03    -28.3703E-03    -48.1126E-03    -27.6609E-03     56.0408E-03    -28.3703E-03     91.1216E-03     189.117E+06     125.444E+06    -8.81207E+06    -8.79822E+06     189.103E+06     125.444E+06     1.37498E+06         47.3485
            1464     971.899E-06     76.0581E-03         2.22993     202.382E-03        -3.23643         2.19869        -3.20518     202.382E-03    -352.263E-03     57.0309E-03    -28.3999E-03    -28.6314E-03    -28.5173E-03     57.0254E-03    -28.5085E-03     1.21266E-03    -39.1712E+06    -42.7305E+06    -245.888E+06    -41.0345E+06    -245.885E+06    -40.8703E+06     719.986E+03         24.1910
            1465     1.94429E-03     76.0597E-03         1.24358         1.20757        -3.25165         1.23661        -3.24468         1.20757     107.894E-03     56.8680E-03    -28.3744E-03    -28.4930E-03    -28.3585E-03     56.8485E-03    -28.4894E-03     2.48827E-03    -38.0922E+06    -41.5556E+06    -240.592E+06    -40.9770E+06    -240.588E+06    -38.6741E+06     641.097E+03         24.2288
            1466     2.91668E-03     76.0632E-03         1.23404         1.20965        -3.23972         1.22483        -3.23684         1.21598    -503.581E-06     56.8963E-03    -28.4164E-03    -28.4806E-03    -28.3798E-03     56.8560E-03    -28.4770E-03     3.66975E-03    -32.6128E+06    -39.5259E+06    -234.851E+06    -39.5295E+06    -234.847E+06    -32.6128E+06    -209.906E+03         24.2931
            1467     3.88895E-03     76.0675E-03         1.21432         1.18826        -3.19953         1.18717        -3.19782         1.21371     67.4268E-03     56.9199E-03    -28.4324E-03    -28.4895E-03    -28.3671E-03     56.8546E-03    -28.4895E-03     4.69150E-03    -24.0278E+06    -36.3852E+06    -226.388E+06    -36.4025E+06    -226.370E+06    -24.0278E+06    -1.54246E+06         24.3881
            1468     4.86115E-03     76.0732E-03         1.20533         1.16088        -3.16640         1.15974        -3.16525         1.20533     37.6703E-03     56.8868E-03    -28.4035E-03    -28.4852E-03    -28.3065E-03     56.7898E-03    -28.4852E-03     5.72282E-03    -17.2887E+06    -32.7886E+06    -208.574E+06    -32.8522E+06    -208.510E+06    -17.2887E+06    -3.16009E+06         24.5192
            1469     5.83357E-03     76.0797E-03         1.19516         1.13625        -3.13402         1.13516        -3.13292         1.19516     73.7018E-03     56.8053E-03    -28.3542E-03    -28.4551E-03    -28.2179E-03     56.6690E-03    -28.4551E-03     6.78742E-03    -11.9032E+06    -29.3078E+06    -187.879E+06    -29.4318E+06    -187.755E+06    -11.9032E+06    -4.36449E+06         24.6914
            1470     6.80590E-03     76.0876E-03         1.18331         1.09756        -3.08258         1.09730        -3.08231         1.18331     7.97930E-03     56.7194E-03    -28.3022E-03    -28.4213E-03    -28.1233E-03     56.5405E-03    -28.4213E-03     7.77805E-03    -6.77962E+06    -25.7164E+06    -170.363E+06    -25.8976E+06    -170.182E+06    -6.77962E+06    -5.05457E+06         24.9576
            1471     7.77849E-03     76.0962E-03         1.16902         1.05157        -3.01920         1.05149        -3.01911         1.16902     26.9441E-03     56.6662E-03    -28.2810E-03    -28.3818E-03    -28.0508E-03     56.4359E-03    -28.3818E-03     8.81332E-03    -3.42683E+06    -22.5773E+06    -152.882E+06    -22.7931E+06    -152.666E+06    -3.42683E+06    -5.27258E+06         25.4535
            1472     8.75098E-03     76.1060E-03         1.15302         1.01366        -2.96276         1.01311        -2.96221         1.15302     66.6341E-03     56.6084E-03    -28.2491E-03    -28.3361E-03    -27.9714E-03     56.3307E-03    -28.3361E-03     9.68690E-03    -1.63142E+06    -19.6534E+06    -134.422E+06    -19.8777E+06    -134.198E+06    -1.63142E+06    -5.04202E+06         26.2970
            1473     9.72363E-03     76.1165E-03         1.13593     970.307E-03        -2.90629     969.552E-03        -2.90554         1.13593     36.7227E-03     56.5945E-03    -28.2205E-03    -28.3327E-03    -27.8846E-03     56.1940E-03    -28.2681E-03     11.5299E-03    -4.81196E+06    -17.2318E+06    -114.121E+06    -17.4651E+06    -113.888E+06    -4.81196E+06    -4.71498E+06         27.5063
            1474     10.6964E-03     76.1300E-03         1.11753     921.525E-03        -2.84299     920.940E-03        -2.84240         1.11753     29.8129E-03     56.5620E-03    -28.1843E-03    -28.3887E-03    -27.8418E-03     56.0150E-03    -28.1843E-03     13.5791E-03    -10.9306E+06    -15.8477E+06    -89.0942E+06    -16.0846E+06    -88.8573E+06    -10.9306E+06    -4.11422E+06         29.0574
            1475     11.6689E-03     76.1447E-03         1.09827     881.901E-03        -2.78257     881.541E-03        -2.78221         1.09827     38.4475E-03     56.5291E-03    -28.0854E-03    -28.4850E-03    -27.7840E-03     55.8281E-03    -28.0854E-03     15.3250E-03    -14.1508E+06    -19.5566E+06    -53.4263E+06    -15.4523E+06    -53.0861E+06    -18.5954E+06    -3.19035E+06         30.9662
            1476     12.6420E-03     76.1624E-03         1.07842     838.211E-03        -2.71785     837.936E-03        -2.71758         1.07842     29.3800E-03     56.8657E-03    -27.9636E-03    -28.9131E-03    -27.6376E-03     55.5903E-03    -27.9636E-03     20.4131E-03     6.41375E+06    -19.6638E+06    -31.9336E+06    -15.4307E+06    -2.06337E+06    -27.6895E+06    -1.77895E+06         33.3671
            1477     13.6147E-03     76.1878E-03         1.05678     769.119E-03        -2.62924     768.845E-03        -2.62896         1.05678     41.6501E-03     57.4563E-03    -27.8079E-03    -29.6551E-03    -27.2609E-03     55.0622E-03    -27.8079E-03     28.2084E-03     72.5500E+06    -16.5274E+06    -34.8497E+06    -16.5161E+06     72.5386E+06    -34.8497E+06    -266.962E+03         36.4354
            1478     14.5884E-03     76.2216E-03         1.03232     701.252E-03        -2.54010     701.146E-03        -2.54000         1.03232     23.3393E-03     61.4859E-03    -27.7919E-03    -33.7053E-03    -27.1337E-03     54.9143E-03    -27.7919E-03     46.6345E-03     130.989E+06    -6.76601E+06    -27.4612E+06    -17.1604E+06     130.985E+06    -17.0626E+06     693.391E+03         40.2025
            1479     15.5626E-03     76.2859E-03         1.00515     663.571E-03        -2.47706     663.448E-03        -2.47694         1.00515     23.2167E-03     75.2332E-03    -28.0263E-03    -47.1990E-03    -27.8519E-03     55.8861E-03    -28.0263E-03     87.5698E-03     163.735E+06     45.9059E+06    -14.8103E+06    -14.7981E+06     163.723E+06     45.9059E+06     1.41767E+06         44.1489
            1480     16.5362E-03     76.4071E-03     976.768E-03     614.420E-03        -2.40041     614.170E-03        -2.40016     976.768E-03     1.39552E-03     76.4885E-03    -28.3549E-03    -48.1181E-03    -27.7050E-03     56.0754E-03    -28.3549E-03     91.0439E-03     190.489E+06     124.982E+06    -8.84357E+06    -8.83429E+06     190.480E+06     124.982E+06     1.18199E+06         47.3643
            1481     972.247E-06     77.1151E-03         2.16343     102.701E-03        -3.02582         2.12573        -2.98812     102.701E-03    -407.107E-03     56.8524E-03    -28.3425E-03    -28.5096E-03    -28.4284E-03     56.8459E-03    -28.4172E-03     1.22694E-03    -44.5340E+06    -47.8401E+06    -248.016E+06    -46.4192E+06    -248.006E+06    -45.9648E+06     339.002E+03         24.1886
            1482     1.94453E-03     77.1173E-03         1.12944         1.10433        -2.99233         1.11262        -2.98495         1.11377     107.781E-03     56.9449E-03    -28.4061E-03    -28.5388E-03    -28.4793E-03     56.9245E-03    -28.4453E-03     2.58293E-03    -41.3326E+06    -44.9344E+06    -239.942E+06    -44.3605E+06    -239.934E+06    -41.9146E+06     535.672E+03         24.2295
            1483     2.91653E-03     77.1206E-03         1.11770         1.10158        -2.97777         1.10439        -2.97478         1.11189     1.09529E-03     56.9764E-03    -28.4549E-03    -28.5230E-03    -28.4502E-03     56.9371E-03    -28.4884E-03     3.62583E-03    -34.4676E+06    -41.3380E+06    -232.621E+06    -41.3512E+06    -232.608E+06    -34.4676E+06    -1.04736E+06         24.2937
            1484     3.88876E-03     77.1250E-03         1.10869         1.09286        -2.96521         1.09141        -2.96314         1.10808     44.9379E-03     56.9118E-03    -28.4105E-03    -28.5044E-03    -28.3461E-03     56.8474E-03    -28.5044E-03     4.65821E-03    -26.0787E+06    -37.6564E+06    -224.424E+06    -37.6953E+06    -224.385E+06    -26.0787E+06    -2.53770E+06         24.3872
            1485     4.86116E-03     77.1305E-03         1.10118         1.05984        -2.92777         1.05900        -2.92693         1.10118    -17.3769E-03     56.8796E-03    -28.3904E-03    -28.4907E-03    -28.2924E-03     56.7816E-03    -28.4907E-03     5.74799E-03    -19.2797E+06    -33.8515E+06    -206.026E+06    -33.9457E+06    -205.932E+06    -19.2797E+06    -3.87574E+06         24.5176
            1486     5.83338E-03     77.1373E-03         1.09129         1.03238        -2.89169         1.03189        -2.89120         1.09129     11.9678E-03     56.8134E-03    -28.3568E-03    -28.4594E-03    -28.2208E-03     56.6774E-03    -28.4594E-03     6.78452E-03    -13.5597E+06    -29.9079E+06    -185.951E+06    -30.0804E+06    -185.778E+06    -13.5597E+06    -5.10072E+06         24.6899
            1487     6.80585E-03     77.1448E-03         1.08021         1.00596        -2.85701         1.00570        -2.85675         1.08021    -16.9838E-03     56.7145E-03    -28.2967E-03    -28.4225E-03    -28.1168E-03     56.5346E-03    -28.4225E-03     7.79160E-03    -8.74992E+06    -26.1960E+06    -168.950E+06    -26.4468E+06    -168.700E+06    -8.74992E+06    -5.92758E+06         24.9538
            1488     7.77837E-03     77.1535E-03         1.06737     961.466E-03        -2.80012     961.391E-03        -2.80005         1.06737     18.8209E-03     56.6392E-03    -28.2541E-03    -28.3816E-03    -28.0235E-03     56.4085E-03    -28.3816E-03     8.82375E-03    -4.97487E+06    -22.7607E+06    -152.100E+06    -23.0669E+06    -151.794E+06    -4.97487E+06    -6.24484E+06         25.4422
            1489     8.75097E-03     77.1633E-03         1.05255     922.871E-03        -2.74248     922.756E-03        -2.74237         1.05255     27.6694E-03     56.5758E-03    -28.2172E-03    -28.3332E-03    -27.9399E-03     56.2986E-03    -28.3332E-03     9.67359E-03    -2.90537E+06    -19.4755E+06    -134.153E+06    -19.7985E+06    -133.830E+06    -2.90537E+06    -6.03708E+06         26.2763
            1490     9.72363E-03     77.1736E-03         1.03752     903.386E-03        -2.70833     903.016E-03        -2.70796         1.03752    -11.2546E-03     56.5854E-03    -28.2130E-03    -28.3308E-03    -27.8846E-03     56.1908E-03    -28.2645E-03     11.4584E-03    -5.84647E+06    -16.9261E+06    -113.971E+06    -17.2512E+06    -113.645E+06    -5.84647E+06    -5.57023E+06         27.4769
            1491     10.6963E-03     77.1873E-03         1.02268     872.490E-03        -2.66774     871.881E-03        -2.66713         1.02268     9.32626E-03     56.5773E-03    -28.1824E-03    -28.4042E-03    -27.8592E-03     56.0323E-03    -28.1824E-03     13.5492E-03    -11.8211E+06    -15.3769E+06    -89.6275E+06    -15.7031E+06    -89.3013E+06    -11.8211E+06    -4.86605E+06         29.0197
            1492     11.6692E-03     77.2021E-03         1.00650     816.794E-03        -2.59803     816.406E-03        -2.59764         1.00650     35.3919E-03     56.5812E-03    -28.0854E-03    -28.5347E-03    -27.8236E-03     55.8701E-03    -28.0854E-03     15.4461E-03    -14.4987E+06    -19.8082E+06    -54.4838E+06    -15.0355E+06    -54.0513E+06    -19.7039E+06    -3.74420E+06         30.9270
            1493     12.6417E-03     77.2196E-03     988.157E-03     761.435E-03        -2.52511     761.199E-03        -2.52488     988.157E-03     18.2617E-03     56.8477E-03    -27.9648E-03    -28.8959E-03    -27.6181E-03     55.5699E-03    -27.9648E-03     20.4360E-03     5.49506E+06    -20.4062E+06    -33.4293E+06    -15.4488E+06    -3.76044E+06    -29.1313E+06    -2.17410E+06         33.3389
            1494     13.6150E-03     77.2453E-03     968.433E-03     723.566E-03        -2.46647     723.344E-03        -2.46625     968.433E-03     43.5764E-03     57.3399E-03    -27.8063E-03    -29.5429E-03    -27.1827E-03     54.9796E-03    -27.8063E-03     27.9923E-03     70.7859E+06    -16.3316E+06    -36.1729E+06    -16.3075E+06     70.7618E+06    -36.1729E+06    -472.895E+03         36.4237
            1495     14.5885E-03     77.2782E-03     947.609E-03     684.868E-03        -2.40823     684.745E-03        -2.40810     947.609E-03     36.3591E-03     61.6053E-03    -27.7937E-03    -33.8276E-03    -27.2354E-03     55.0131E-03    -27.7937E-03     46.7093E-03     130.226E+06    -6.66214E+06    -28.1630E+06    -17.0384E+06     130.218E+06    -17.7784E+06     839.107E+03         40.2050
            1496     15.5613E-03     77.3437E-03     924.139E-03     634.255E-03        -2.33391     634.052E-03        -2.33371     924.139E-03     47.5526E-03     75.0320E-03    -28.0352E-03    -47.0037E-03    -27.8864E-03     55.9147E-03    -28.0352E-03     87.0278E-03     164.015E+06     44.8483E+06    -15.2719E+06    -15.2604E+06     164.004E+06     44.8483E+06     1.13948E+06         44.1633
            1497     16.5358E-03     77.4631E-03     898.237E-03     572.696E-03        -2.24529     572.454E-03        -2.24505     898.237E-03     49.2956E-03     76.2487E-03    -28.3600E-03    -47.8823E-03    -27.5756E-03     55.9419E-03    -28.3600E-03     90.7645E-03     191.264E+06     124.346E+06    -8.92117E+06    -8.91726E+06     191.260E+06     124.346E+06     534.813E+03         47.3880
            1498     972.537E-06     78.1724E-03         2.12607    -4.18390E-03        -2.84468         2.06749        -2.78621    -4.06983E-03    -457.489E-03     56.8424E-03    -28.2982E-03    -28.5448E-03    -28.5388E-03     56.8365E-03    -28.2982E-03     1.16078E-03    -46.9553E+06    -50.0383E+06    -248.169E+06    -49.2044E+06    -248.154E+06    -47.8042E+06    -903.253E+03         24.1916
            1499     1.94432E-03     78.1749E-03         1.02825     994.615E-03        -2.74982     987.433E-03        -2.73686         1.02248     181.450E-03     57.0181E-03    -28.4454E-03    -28.5742E-03    -28.5394E-03     56.9988E-03    -28.4610E-03     2.50939E-03    -42.5625E+06    -46.2030E+06    -238.847E+06    -46.2168E+06    -238.834E+06    -42.5625E+06    -859.401E+03         24.2302
            1500     2.91645E-03     78.1781E-03         1.00542     960.884E-03        -2.69367     957.647E-03        -2.69044         1.00542     142.131E-06     56.9790E-03    -28.4430E-03    -28.5367E-03    -28.4351E-03     56.9401E-03    -28.5057E-03     3.59699E-03    -35.9679E+06    -43.2059E+06    -230.122E+06    -43.2358E+06    -230.092E+06    -35.9679E+06    -2.14327E+06         24.2920
            1501     3.88870E-03     78.1824E-03     992.935E-03     962.853E-03        -2.68923     960.623E-03        -2.68700     992.935E-03     40.2359E-03     56.9293E-03    -28.4164E-03    -28.5143E-03    -28.3498E-03     56.8627E-03    -28.5143E-03     4.73350E-03    -27.9174E+06    -39.3450E+06    -222.036E+06    -39.4319E+06    -221.949E+06    -27.9174E+06    -3.79465E+06         24.3840
            1502     4.86097E-03     78.1879E-03     985.447E-03     958.485E-03        -2.68433     957.186E-03        -2.68303     985.447E-03    -2.31593E-03     56.8723E-03    -28.3806E-03    -28.4939E-03    -28.2801E-03     56.7718E-03    -28.4939E-03     5.82588E-03    -21.4665E+06    -34.9568E+06    -203.630E+06    -35.1265E+06    -203.461E+06    -21.4665E+06    -5.20807E+06         24.5140
            1503     5.83341E-03     78.1947E-03     978.657E-03     940.477E-03        -2.65897     939.759E-03        -2.65826     978.657E-03     47.0491E-03     56.7796E-03    -28.3240E-03    -28.4596E-03    -28.1888E-03     56.6443E-03    -28.4596E-03     6.76626E-03    -15.3188E+06    -30.7072E+06    -183.859E+06    -30.9890E+06    -183.578E+06    -15.3188E+06    -6.42947E+06         24.6870
            1504     6.80583E-03     78.2021E-03     969.848E-03     903.502E-03        -2.61183     903.244E-03        -2.61157     969.848E-03     18.8351E-03     56.7136E-03    -28.2958E-03    -28.4217E-03    -28.1159E-03     56.5336E-03    -28.4217E-03     7.79077E-03    -10.1210E+06    -26.6068E+06    -167.223E+06    -26.9853E+06    -166.844E+06    -10.1210E+06    -7.20803E+06         24.9496
            1505     7.77827E-03     78.2109E-03     958.487E-03     867.717E-03        -2.56442     867.468E-03        -2.56417     958.487E-03     50.9394E-03     56.6415E-03    -28.2572E-03    -28.3812E-03    -28.0273E-03     56.4116E-03    -28.3812E-03     8.81327E-03    -6.27762E+06    -22.7292E+06    -150.994E+06    -23.1947E+06    -150.528E+06    -6.27762E+06    -7.63446E+06         25.4309
            1506     8.75093E-03     78.2204E-03     946.488E-03     851.200E-03        -2.53449     850.838E-03        -2.53413     946.488E-03     57.5978E-03     56.5716E-03    -28.2150E-03    -28.3323E-03    -27.9375E-03     56.2940E-03    -28.3323E-03     9.67607E-03    -4.29555E+06    -19.2284E+06    -133.859E+06    -19.7485E+06    -133.339E+06    -4.29555E+06    -7.63770E+06         26.2554
            1507     9.72350E-03     78.2313E-03     934.956E-03     832.845E-03        -2.50721     832.490E-03        -2.50685     934.956E-03     35.5714E-03     56.6141E-03    -28.2187E-03    -28.3554E-03    -27.9141E-03     56.2189E-03    -28.2648E-03     11.4817E-03    -7.20608E+06    -16.3615E+06    -114.205E+06    -16.8694E+06    -113.697E+06    -7.20608E+06    -6.97100E+06         27.4473
            1508     10.6962E-03     78.2444E-03     922.786E-03     796.029E-03        -2.46195     795.509E-03        -2.46143     922.786E-03     47.3476E-03     56.5955E-03    -28.1870E-03    -28.4175E-03    -27.8759E-03     56.0539E-03    -28.1870E-03     13.5095E-03    -11.9416E+06    -14.9738E+06    -90.1428E+06    -14.8631E+06    -89.6625E+06    -12.5327E+06    -5.96249E+06         28.9820
            1509     11.6689E-03     78.2596E-03     908.753E-03     746.328E-03        -2.39740     745.734E-03        -2.39681     908.753E-03     60.1208E-03     56.5258E-03    -28.0872E-03    -28.4772E-03    -27.7633E-03     55.8119E-03    -28.0872E-03     15.4598E-03    -13.4278E+06    -20.6439E+06    -56.1998E+06    -13.9545E+06    -55.6753E+06    -20.6418E+06    -4.47957E+06         30.8882
            1510     12.6418E-03     78.2771E-03     892.650E-03     696.765E-03        -2.33263     696.445E-03        -2.33231     892.650E-03     34.9778E-03     56.7642E-03    -27.9597E-03    -28.8182E-03    -27.5503E-03     55.4963E-03    -27.9597E-03     20.3627E-03     5.66948E+06    -20.2825E+06    -34.9168E+06    -13.8956E+06    -5.46158E+06    -30.1727E+06    -2.82386E+06         33.3113
            1511     13.6148E-03     78.3020E-03     875.631E-03     675.175E-03        -2.29376     674.929E-03        -2.29352     875.631E-03     44.4114E-03     57.4122E-03    -27.8018E-03    -29.6175E-03    -27.2793E-03     55.0740E-03    -27.8018E-03     27.8855E-03     68.9683E+06    -15.0425E+06    -37.2433E+06    -14.9839E+06     68.9097E+06    -37.2433E+06    -689.154E+03         36.4121
            1512     14.5882E-03     78.3356E-03     858.200E-03     655.298E-03        -2.25748     655.189E-03        -2.25737     858.200E-03     14.0483E-03     61.7335E-03    -27.7851E-03    -33.9569E-03    -27.2661E-03     55.0427E-03    -27.7851E-03     47.0097E-03     129.216E+06    -7.30325E+06    -28.5049E+06    -16.1770E+06     129.199E+06    -19.6139E+06     1.43987E+06         40.2093
            1513     15.5619E-03     78.4018E-03     837.975E-03     603.840E-03        -2.18611     603.684E-03        -2.18596     837.975E-03     15.8168E-03     75.1344E-03    -28.0374E-03    -47.1045E-03    -27.9453E-03     55.9752E-03    -28.0374E-03     87.3093E-03     164.865E+06     43.6798E+06    -14.5103E+06    -14.4953E+06     164.850E+06     43.6798E+06     1.06235E+06         44.1846
            1514     16.5353E-03     78.5194E-03     814.855E-03     547.300E-03        -2.11323     547.028E-03        -2.11296     814.855E-03     3.47480E-03     76.3259E-03    -28.3737E-03    -47.9555E-03    -27.6097E-03     55.9801E-03    -28.3737E-03     90.9905E-03     191.833E+06     124.249E+06    -8.58115E+06    -8.58100E+06     191.833E+06     124.249E+06    -26.4625E+03         47.4263
            1515     971.869E-06     79.2302E-03         2.04225    -137.056E-03        -2.61784         1.95190        -2.52760    -136.941E-03    -570.705E-03     57.0584E-03    -28.3766E-03    -28.6825E-03    -28.6378E-03     57.0517E-03    -28.4146E-03     1.37680E-03    -48.6636E+06    -51.5724E+06    -245.663E+06    -50.6964E+06    -245.653E+06    -49.5498E+06    -1.25886E+06         24.1970
            1516     1.94420E-03     79.2323E-03     907.556E-03     880.537E-03        -2.49295     867.427E-03        -2.47125     898.960E-03     166.936E-03     56.9602E-03    -28.4151E-03    -28.5451E-03    -28.4191E-03     56.9411E-03    -28.5218E-03     2.49635E-03    -45.5597E+06    -49.3200E+06    -237.525E+06    -49.3454E+06    -237.500E+06    -45.5597E+06     -1.9997E+06         24.2304
            1517     2.91649E-03     79.2356E-03     889.088E-03     850.322E-03        -2.43386     848.056E-03        -2.42705     884.546E-03    -62.1704E-03     56.9113E-03    -28.4035E-03    -28.5076E-03    -28.3642E-03     56.8721E-03    -28.5076E-03     3.61666E-03    -38.4817E+06    -45.9348E+06    -227.210E+06    -46.0122E+06    -227.133E+06    -38.4817E+06    -3.39919E+06         24.2889
            1518     3.88874E-03     79.2397E-03     879.431E-03     854.883E-03        -2.43360     856.176E-03        -2.43099     875.525E-03     37.1240E-03     56.9477E-03    -28.4396E-03    -28.5084E-03    -28.3721E-03     56.8802E-03    -28.5084E-03     4.76270E-03    -29.8643E+06    -41.4164E+06    -218.630E+06    -41.5978E+06    -218.449E+06    -29.8643E+06    -5.48125E+06         24.3797
            1519     4.86096E-03     79.2455E-03     871.140E-03     857.187E-03        -2.43603     855.067E-03        -2.43369     870.920E-03     27.8122E-03     56.8749E-03    -28.3804E-03    -28.4958E-03    -28.2812E-03     56.7757E-03    -28.4958E-03     5.79431E-03    -23.2556E+06    -36.4992E+06    -201.016E+06    -36.8256E+06    -200.690E+06    -23.2556E+06    -7.11402E+06         24.5100
            1520     5.83330E-03     79.2519E-03     865.160E-03     825.158E-03        -2.40323     823.574E-03        -2.40164     865.160E-03     85.2527E-03     56.7590E-03    -28.3040E-03    -28.4592E-03    -28.1693E-03     56.6242E-03    -28.4592E-03     6.74734E-03    -17.2841E+06    -31.8728E+06    -181.518E+06    -32.3435E+06    -181.048E+06    -17.2841E+06    -8.26928E+06         24.6846
            1521     6.80572E-03     79.2596E-03     855.956E-03     787.694E-03        -2.35647     787.316E-03        -2.35609     855.956E-03     32.2694E-03     56.6856E-03    -28.2716E-03    -28.4186E-03    -28.0931E-03     56.5071E-03    -28.4186E-03     7.76181E-03    -11.9923E+06    -27.3733E+06    -165.348E+06    -28.0048E+06    -164.716E+06    -11.9923E+06    -9.16566E+06         24.9457
            1522     7.77831E-03     79.2680E-03     846.325E-03     786.175E-03        -2.34397     785.750E-03        -2.34355     846.325E-03     46.5928E-03     56.6377E-03    -28.2594E-03    -28.3776E-03    -28.0288E-03     56.4071E-03    -28.3776E-03     8.81904E-03    -8.01011E+06    -22.9103E+06    -149.698E+06    -23.6682E+06    -148.940E+06    -8.01011E+06    -9.66480E+06         25.4196
            1523     8.75078E-03     79.2779E-03     838.763E-03     789.670E-03        -2.33626     789.116E-03        -2.33571     838.763E-03     54.8261E-03     56.5993E-03    -28.2465E-03    -28.3318E-03    -27.9674E-03     56.3203E-03    -28.3318E-03     9.70815E-03    -5.84416E+06    -19.0172E+06    -133.458E+06    -19.8365E+06    -132.639E+06    -5.84416E+06    -9.57776E+06         26.2344
            1524     9.72347E-03     79.2883E-03     830.556E-03     744.955E-03        -2.28370     744.417E-03        -2.28316     830.556E-03     43.8327E-03     56.6242E-03    -28.2238E-03    -28.3598E-03    -27.9175E-03     56.2229E-03    -28.2647E-03     11.5531E-03    -8.91968E+06    -15.7932E+06    -114.692E+06    -16.6332E+06    -113.852E+06    -8.91968E+06    -9.00324E+06         27.4175
            1525     10.6960E-03     79.3021E-03     819.111E-03     691.957E-03        -2.22213     691.458E-03        -2.22163     819.111E-03     39.4376E-03     56.6279E-03    -28.1890E-03    -28.4497E-03    -27.9036E-03     56.0818E-03    -28.1890E-03     13.5768E-03    -12.3985E+06    -15.1621E+06    -91.3320E+06    -14.3253E+06    -90.5632E+06    -14.0042E+06    -7.62883E+06         28.9446
            1526     11.6688E-03     79.3167E-03     806.315E-03     675.480E-03        -2.19255     674.956E-03        -2.19202     806.315E-03     58.7838E-03     56.4673E-03    -28.0885E-03    -28.4226E-03    -27.7119E-03     55.7567E-03    -28.0885E-03     15.4086E-03    -12.0094E+06    -21.7925E+06    -57.7630E+06    -12.8769E+06    -56.8955E+06    -21.7925E+06    -5.88310E+06         30.8498
            1527     12.6419E-03     79.3344E-03     793.721E-03     656.271E-03        -2.16225     655.892E-03        -2.16187     793.721E-03     48.4537E-03     56.6801E-03    -27.9551E-03    -28.7371E-03    -27.4728E-03     55.4158E-03    -27.9551E-03     20.3234E-03     5.07260E+06    -20.3495E+06    -36.3701E+06    -12.6000E+06    -7.64250E+06    -31.4045E+06    -3.70565E+06         33.2840
            1528     13.6150E-03     79.3593E-03     780.158E-03     615.647E-03        -2.10991     615.329E-03        -2.10959     780.158E-03     50.3705E-03     57.5399E-03    -27.7986E-03    -29.7444E-03    -27.3861E-03     55.1816E-03    -27.7986E-03     28.0294E-03     65.9691E+06    -13.5600E+06    -38.4605E+06    -13.4748E+06     65.8839E+06    -38.4605E+06    -797.893E+03         36.4009
            1529     14.5880E-03     79.3933E-03     764.418E-03     577.411E-03        -2.05701     577.320E-03        -2.05692     764.418E-03     8.40324E-03     61.6472E-03    -27.7786E-03    -33.8711E-03    -27.2490E-03     55.0251E-03    -27.7786E-03     46.7920E-03     128.121E+06    -7.43516E+06    -28.0342E+06    -14.1780E+06     128.110E+06    -21.2806E+06     1.10219E+06         40.2157
            1530     15.5620E-03     79.4578E-03     745.807E-03     554.919E-03        -2.01646     554.814E-03        -2.01636     745.807E-03     8.31982E-03     75.0710E-03    -28.0187E-03    -47.0457E-03    -27.7286E-03     55.7538E-03    -28.0187E-03     87.4444E-03     165.849E+06     42.7877E+06    -12.5677E+06    -12.5536E+06     165.835E+06     42.7877E+06     1.19713E+06         44.2135
            1531     16.5355E-03     79.5786E-03     725.870E-03     533.132E-03        -1.98203     532.818E-03        -1.98171     725.870E-03    -26.0746E-03     76.4871E-03    -28.3575E-03    -48.1344E-03    -27.6713E-03     56.0240E-03    -28.3575E-03     91.2107E-03     192.798E+06     124.743E+06    -7.55398E+06    -7.54694E+06     192.791E+06     124.743E+06     759.405E+03         47.4822
            1532     972.078E-06     80.2877E-03         1.88493    -289.030E-03        -2.26966         1.75815        -2.14288    -289.030E-03    -591.323E-03     57.0746E-03    -28.4126E-03    -28.6620E-03    -28.6020E-03     57.0673E-03    -28.4653E-03     1.50750E-03    -55.1304E+06    -58.5689E+06    -242.882E+06    -57.7024E+06    -242.862E+06    -56.0166E+06    -1.31559E+06         24.1985
            1533     1.94411E-03     80.2898E-03     792.483E-03     738.169E-03        -2.19761     754.825E-03        -2.15995     738.169E-03     185.487E-03     56.9333E-03    -28.4045E-03    -28.5288E-03    -28.3853E-03     56.9141E-03    -28.5288E-03     2.49691E-03    -49.7460E+06    -54.1333E+06    -234.283E+06    -54.2164E+06    -234.200E+06    -49.7460E+06    -3.45389E+06         24.2300
            1534     2.91646E-03     80.2928E-03     795.676E-03     747.955E-03        -2.20708     784.436E-03        -2.19584     747.955E-03    -82.9245E-03     56.9174E-03    -28.4081E-03    -28.5092E-03    -28.3678E-03     56.8771E-03    -28.5092E-03     3.65848E-03    -41.4771E+06    -49.2661E+06    -223.483E+06    -49.4617E+06    -223.288E+06    -41.4771E+06    -5.57656E+06         24.2867
            1535     3.88859E-03     80.2976E-03     776.999E-03     751.352E-03        -2.19218     767.814E-03        -2.18673     755.083E-03     27.7375E-03     56.9295E-03    -28.4187E-03    -28.5113E-03    -28.3525E-03     56.8632E-03    -28.5113E-03     4.73083E-03    -31.9482E+06    -43.8483E+06    -214.621E+06    -44.2193E+06    -214.250E+06    -31.9482E+06    -7.71737E+06         24.3763
            1536     4.86085E-03     80.3029E-03     753.155E-03     725.893E-03        -2.14979     722.027E-03        -2.14570     752.936E-03    -7.19748E-03     56.8469E-03    -28.3515E-03    -28.4963E-03    -28.2531E-03     56.7485E-03    -28.4963E-03     5.75687E-03    -25.1742E+06    -38.4663E+06    -197.850E+06    -39.0428E+06    -197.273E+06    -25.1742E+06    -9.40869E+06         24.5069
            1537     5.83325E-03     80.3094E-03     744.941E-03     697.711E-03        -2.12062     695.401E-03        -2.11831     744.941E-03     58.9073E-03     56.7410E-03    -28.2902E-03    -28.4544E-03    -28.1537E-03     56.6045E-03    -28.4544E-03     6.79199E-03    -19.5381E+06    -33.3359E+06    -178.889E+06    -34.1365E+06    -178.088E+06    -19.5381E+06    -10.5913E+06         24.6831
            1538     6.80569E-03     80.3169E-03     737.557E-03     699.251E-03        -2.11798     698.513E-03        -2.11685     737.166E-03     16.2443E-03     56.6796E-03    -28.2734E-03    -28.4124E-03    -28.0947E-03     56.5010E-03    -28.4124E-03     7.76702E-03    -14.3305E+06    -28.3795E+06    -163.202E+06    -29.4179E+06    -162.163E+06    -14.3305E+06    -11.6374E+06         24.9427
            1539     7.77818E-03     80.3255E-03     731.915E-03     701.325E-03        -2.11396     700.922E-03        -2.11317     731.524E-03     29.7613E-03     56.6425E-03    -28.2681E-03    -28.3728E-03    -28.0384E-03     56.4129E-03    -28.3728E-03     8.80203E-03    -10.3050E+06    -23.7337E+06    -148.381E+06    -24.9582E+06    -147.156E+06    -10.3050E+06    -12.1817E+06         25.4087
            1540     8.75084E-03     80.3352E-03     726.111E-03     682.967E-03        -2.08497     682.208E-03        -2.08421     726.111E-03     27.4706E-03     56.5984E-03    -28.2471E-03    -28.3288E-03    -27.9691E-03     56.3203E-03    -28.3288E-03     9.69091E-03    -7.89706E+06    -19.3098E+06    -132.696E+06    -20.6663E+06    -131.339E+06    -7.89706E+06    -12.1835E+06         26.2134
            1541     9.72331E-03     80.3456E-03     718.886E-03     648.435E-03        -2.04217     647.662E-03        -2.04139     718.886E-03     26.1770E-03     56.6295E-03    -28.2297E-03    -28.3610E-03    -27.9240E-03     56.2260E-03    -28.2633E-03     11.5812E-03    -10.6789E+06    -15.8857E+06    -115.150E+06    -17.0232E+06    -113.775E+06    -10.9162E+06    -11.5248E+06         27.3876
            1542     10.6961E-03     80.3593E-03     709.744E-03     618.931E-03        -2.00592     618.252E-03        -2.00524     709.744E-03     20.2777E-03     56.5866E-03    -28.1851E-03    -28.4118E-03    -27.8627E-03     56.0375E-03    -28.1851E-03     13.6090E-03    -12.6891E+06    -16.1755E+06    -93.0196E+06    -14.1659E+06    -91.7092E+06    -16.0093E+06    -10.0602E+06         28.9069
            1543     11.6688E-03     80.3741E-03     700.154E-03     608.080E-03        -1.98756     607.518E-03        -1.98700     700.154E-03     33.5593E-03     56.4522E-03    -28.0840E-03    -28.4111E-03    -27.7093E-03     55.7505E-03    -28.0840E-03     15.3197E-03    -11.1326E+06    -23.5406E+06    -59.8825E+06    -12.5550E+06    -58.4601E+06    -23.5406E+06    -7.88421E+06         30.8112
            1544     12.6417E-03     80.3911E-03     690.892E-03     599.957E-03        -1.97210     599.568E-03        -1.97171     690.892E-03     23.0132E-03     56.7522E-03    -27.9551E-03    -28.8097E-03    -27.5421E-03     55.4846E-03    -27.9551E-03     20.3343E-03     3.61895E+06    -20.9856E+06    -38.7557E+06    -12.2314E+06    -10.5931E+06    -33.2979E+06    -4.99004E+06         33.2562
            1545     13.6149E-03     80.4168E-03     680.657E-03     563.042E-03        -1.92810     562.710E-03        -1.92777     680.657E-03     43.3559E-03     57.5208E-03    -27.8022E-03    -29.7239E-03    -27.3615E-03     55.1584E-03    -27.8022E-03     28.0612E-03     62.6912E+06    -12.8177E+06    -39.9727E+06    -12.6080E+06     62.4816E+06    -39.9727E+06    -1.54585E+06         36.3894
            1546     14.5880E-03     80.4507E-03     667.778E-03     519.316E-03        -1.87300     519.275E-03        -1.87296     667.778E-03     16.6862E-03     61.5428E-03    -27.7814E-03    -33.7676E-03    -27.1886E-03     54.9637E-03    -27.7814E-03     46.6055E-03     126.601E+06    -7.13527E+06    -28.3690E+06    -13.5118E+06     126.587E+06    -21.9780E+06     1.03957E+06         40.2234
            1547     15.5613E-03     80.5148E-03     651.946E-03     507.961E-03        -1.84479     507.854E-03        -1.84469     651.946E-03     31.0456E-03     75.0295E-03    -28.0083E-03    -47.0212E-03    -27.6591E-03     55.6674E-03    -28.0083E-03     87.4533E-03     166.031E+06     41.6326E+06    -12.8229E+06    -12.7981E+06     166.006E+06     41.6326E+06     1.93773E+06         44.2476
            1548     16.5369E-03     80.6351E-03     635.080E-03     494.746E-03        -1.81128     494.527E-03        -1.81106     635.080E-03     11.2578E-03     76.4578E-03    -28.3438E-03    -48.1158E-03    -27.6678E-03     56.0099E-03    -28.3438E-03     91.0897E-03     193.820E+06     123.916E+06    -7.96907E+06    -7.95572E+06     193.807E+06     123.916E+06     1.53365E+06         47.5484
            1549     972.047E-06     81.3456E-03         1.80791    -456.431E-03        -1.99582         1.64843        -1.83634    -456.431E-03    -589.330E-03     57.0058E-03    -28.4255E-03    -28.5817E-03    -28.5609E-03     56.9996E-03    -28.4402E-03     1.37269E-03    -55.4494E+06    -58.7599E+06    -238.855E+06    -58.1148E+06    -238.823E+06    -56.1266E+06    -1.88305E+06         24.1952
            1550     1.94425E-03     81.3472E-03     706.001E-03     607.550E-03        -1.95782     655.133E-03        -1.90696     607.550E-03     240.815E-03     57.0043E-03    -28.4804E-03    -28.5256E-03    -28.4740E-03     56.9858E-03    -28.5136E-03     2.43999E-03    -50.8979E+06    -55.1781E+06    -228.873E+06    -55.3557E+06    -228.696E+06    -50.8979E+06    -5.10579E+06         24.2277
            1551     2.91627E-03     81.3505E-03     687.788E-03     626.345E-03        -1.95623     669.705E-03        -1.93815     626.345E-03    -19.9736E-03     56.9496E-03    -28.4247E-03    -28.5255E-03    -28.3901E-03     56.9089E-03    -28.5193E-03     3.67527E-03    -43.4908E+06    -50.7574E+06    -218.715E+06    -51.1515E+06    -218.321E+06    -43.4908E+06    -7.95356E+06         24.2845
            1552     3.88850E-03     81.3550E-03     651.703E-03     614.225E-03        -1.90858     622.518E-03        -1.89707     631.899E-03     84.7314E-03     56.8726E-03    -28.3578E-03    -28.5159E-03    -28.2899E-03     56.8048E-03    -28.5159E-03     4.78404E-03    -34.2063E+06    -45.8406E+06    -210.406E+06    -46.4620E+06    -209.784E+06    -34.2063E+06    -9.96093E+06         24.3742
            1553     4.86090E-03     81.3602E-03     626.217E-03     592.573E-03        -1.86172     586.930E-03        -1.85601     626.145E-03    -2.04352E-03     56.8192E-03    -28.3300E-03    -28.4909E-03    -28.2308E-03     56.7200E-03    -28.4909E-03     5.78399E-03    -27.2335E+06    -40.5306E+06    -193.972E+06    -41.4914E+06    -193.011E+06    -27.2335E+06    -11.8683E+06         24.5055
            1554     5.83323E-03     81.3667E-03     625.525E-03     599.342E-03        -1.87178     601.412E-03        -1.86823     619.909E-03     59.8535E-03     56.7257E-03    -28.2835E-03    -28.4466E-03    -28.1481E-03     56.5903E-03    -28.4466E-03     6.76348E-03    -21.6926E+06    -34.7948E+06    -175.673E+06    -36.1598E+06    -174.308E+06    -21.6926E+06    -13.6063E+06         24.6829
            1555     6.80569E-03     81.3741E-03     627.719E-03     613.061E-03        -1.88638     620.863E-03        -1.88419     617.730E-03     29.7593E-03     56.6974E-03    -28.2963E-03    -28.4066E-03    -28.1156E-03     56.5167E-03    -28.4066E-03     7.80802E-03    -16.6128E+06    -29.3703E+06    -160.972E+06    -31.0397E+06    -159.303E+06    -16.6128E+06    -14.5908E+06         24.9406
            1556     7.77808E-03     81.3829E-03     620.056E-03     590.674E-03        -1.85177     593.432E-03        -1.85009     615.611E-03     73.0742E-03     56.6847E-03    -28.3085E-03    -28.3708E-03    -28.0798E-03     56.4560E-03    -28.3708E-03     8.79647E-03    -12.4686E+06    -24.1906E+06    -146.694E+06    -26.1354E+06    -144.749E+06    -12.4686E+06    -15.1689E+06         25.3982
            1557     8.75056E-03     81.3924E-03     610.162E-03     557.423E-03        -1.80824     556.017E-03        -1.80684     610.162E-03     62.9163E-03     56.6058E-03    -28.2510E-03    -28.3288E-03    -27.9750E-03     56.3298E-03    -28.3288E-03     9.65059E-03    -10.2549E+06    -19.5995E+06    -131.933E+06    -21.7531E+06    -129.779E+06    -10.2549E+06    -15.3101E+06         26.1921
            1558     9.72332E-03     81.4031E-03     603.629E-03     558.665E-03        -1.80439     557.284E-03        -1.80301     603.629E-03     57.5658E-03     56.5990E-03    -28.2215E-03    -28.3386E-03    -27.8953E-03     56.1972E-03    -28.2630E-03     11.5613E-03    -12.1078E+06    -17.0078E+06    -115.678E+06    -18.0640E+06    -113.504E+06    -13.2255E+06    -14.4742E+06         27.3572
            1559     10.6958E-03     81.4165E-03     598.162E-03     560.866E-03        -1.80141     559.622E-03        -1.80017     598.162E-03     53.3957E-03     56.5103E-03    -28.1794E-03    -28.3407E-03    -27.7951E-03     55.9648E-03    -28.1794E-03     13.5519E-03    -13.2158E+06    -18.8015E+06    -94.9699E+06    -15.3156E+06    -92.8702E+06    -18.8015E+06    -12.8335E+06         28.8685
            1560     11.6689E-03     81.4313E-03     592.487E-03     536.962E-03        -1.77403     535.782E-03        -1.77285     592.487E-03     56.4011E-03     56.4737E-03    -28.0777E-03    -28.4372E-03    -27.7326E-03     55.7691E-03    -28.0777E-03     15.3542E-03    -11.3724E+06    -26.3034E+06    -63.0646E+06    -13.6157E+06    -60.8213E+06    -26.3034E+06    -10.1874E+06         30.7716
            1561     12.6417E-03     81.4485E-03     585.456E-03     513.918E-03        -1.74772     513.394E-03        -1.74720     585.456E-03     31.8526E-03     56.8841E-03    -27.9577E-03    -28.9417E-03    -27.6714E-03     55.6139E-03    -27.9577E-03     20.3925E-03     2.54910E+06    -22.7175E+06    -41.6091E+06    -13.0629E+06    -13.2628E+06    -35.4518E+06    -6.72299E+06         33.2274
            1562     13.6145E-03     81.4742E-03     577.741E-03     510.586E-03        -1.73755     510.059E-03        -1.73702     577.741E-03     57.9994E-03     57.3838E-03    -27.8047E-03    -29.5873E-03    -27.2278E-03     55.0244E-03    -27.8047E-03     27.9892E-03     58.6483E+06    -14.1897E+06    -42.5474E+06    -13.7774E+06     58.2359E+06    -42.5474E+06    -2.66574E+06         36.3770
            1563     14.5881E-03     81.5077E-03     569.251E-03     499.841E-03        -1.72108     499.718E-03        -1.72096     569.251E-03     27.9729E-03     61.4063E-03    -27.7727E-03    -33.6421E-03    -27.0418E-03     54.8060E-03    -27.7727E-03     46.6247E-03     123.473E+06    -8.44936E+06    -29.9122E+06    -14.2652E+06     123.450E+06    -24.0727E+06     1.03838E+06         40.2315
            1564     15.5626E-03     81.5718E-03     557.890E-03     475.494E-03        -1.68479     475.383E-03        -1.68468     557.890E-03     29.6711E-03     75.1771E-03    -28.0103E-03    -47.1706E-03    -27.8906E-03     55.8971E-03    -28.0103E-03     87.4883E-03     166.134E+06     40.7866E+06    -12.9247E+06    -12.8715E+06     166.081E+06     40.7866E+06     2.95000E+06         44.2839
            1565     16.5345E-03     81.6927E-03     544.027E-03     443.916E-03        -1.63513     443.730E-03        -1.63494     544.027E-03     37.0204E-03     76.5472E-03    -28.3570E-03    -48.1856E-03    -27.7088E-03     56.0704E-03    -28.3570E-03     91.3363E-03     195.423E+06     123.847E+06    -8.18598E+06    -8.15148E+06     195.389E+06     123.847E+06     2.16910E+06         47.6170
            1566     972.179E-06     82.4029E-03         1.81621    -586.307E-03        -1.85787         1.58681        -1.62847    -586.307E-03    -732.797E-03     57.0012E-03    -28.4388E-03    -28.5643E-03    -28.5579E-03     56.9948E-03    -28.4388E-03     1.39434E-03    -55.3475E+06    -57.5419E+06    -233.729E+06    -56.7117E+06    -233.678E+06    -56.2278E+06    -1.99447E+06         24.1896
            1567     1.94410E-03     82.4050E-03     614.412E-03     507.273E-03        -1.74080     536.706E-03        -1.66309     507.273E-03     217.300E-03     56.9990E-03    -28.4680E-03    -28.5316E-03    -28.4813E-03     56.9799E-03    -28.4992E-03     2.48500E-03    -52.1761E+06    -55.1292E+06    -221.807E+06    -55.1940E+06    -221.539E+06    -52.3792E+06    -6.16662E+06         24.2239
            1568     2.91619E-03     82.4081E-03     535.901E-03     512.429E-03        -1.66198     501.397E-03        -1.62747     512.429E-03    -56.9720E-03     56.9215E-03    -28.4071E-03    -28.5145E-03    -28.3724E-03     56.8806E-03    -28.5083E-03     3.68461E-03    -45.3488E+06    -51.9147E+06    -213.068E+06    -52.4858E+06    -212.497E+06    -45.3488E+06    -9.48960E+06         24.2820
            1569     3.88861E-03     82.4122E-03     510.011E-03     491.532E-03        -1.61353     479.514E-03        -1.59818     506.671E-03     135.048E-03     56.8615E-03    -28.3593E-03    -28.5047E-03    -28.2905E-03     56.7927E-03    -28.5047E-03     4.81360E-03    -36.3519E+06    -47.3691E+06    -205.098E+06    -48.3216E+06    -204.145E+06    -36.3519E+06    -12.0031E+06         24.3733
            1570     4.86081E-03     82.4180E-03     511.157E-03     486.348E-03        -1.60743     489.964E-03        -1.60137     501.488E-03     24.6295E-03     56.8085E-03    -28.3285E-03    -28.4821E-03    -28.2297E-03     56.7097E-03    -28.4821E-03     5.77793E-03    -29.0323E+06    -41.5888E+06    -189.072E+06    -43.1008E+06    -187.560E+06    -29.0323E+06    -14.6185E+06         24.5060
            1571     5.83314E-03     82.4241E-03     515.487E-03     496.813E-03        -1.62507     508.093E-03        -1.62113     500.273E-03     86.7646E-03     56.7410E-03    -28.3034E-03    -28.4413E-03    -28.1688E-03     56.6064E-03    -28.4413E-03     6.74299E-03    -23.5647E+06    -35.8187E+06    -171.884E+06    -37.9207E+06    -169.782E+06    -23.5647E+06    -16.6326E+06         24.6842
            1572     6.80558E-03     82.4317E-03     509.447E-03     488.609E-03        -1.60927     496.471E-03        -1.60753     499.849E-03     36.6682E-03     56.7016E-03    -28.3019E-03    -28.4018E-03    -28.1202E-03     56.5199E-03    -28.4018E-03     7.83024E-03    -19.2050E+06    -30.2076E+06    -158.646E+06    -32.8308E+06    -156.023E+06    -19.2050E+06    -18.0076E+06         24.9389
            1573     7.77801E-03     82.4403E-03     503.566E-03     475.658E-03        -1.58915     480.251E-03        -1.58772     497.549E-03     82.0737E-03     56.6869E-03    -28.3134E-03    -28.3656E-03    -28.0815E-03     56.4551E-03    -28.3656E-03     8.85520E-03    -15.2376E+06    -24.8205E+06    -144.857E+06    -27.8219E+06    -141.856E+06    -15.2376E+06    -18.6070E+06         25.3873
            1574     8.75049E-03     82.4499E-03     496.072E-03     468.089E-03        -1.57312     468.950E-03        -1.57191     494.005E-03     75.7721E-03     56.6495E-03    -28.2935E-03    -28.3289E-03    -28.0158E-03     56.3715E-03    -28.3286E-03     9.69500E-03    -12.6330E+06    -20.0924E+06    -131.167E+06    -23.2841E+06    -127.975E+06    -12.6330E+06    -18.4489E+06         26.1703
            1575     9.72294E-03     82.4602E-03     490.542E-03     471.775E-03        -1.57032     470.680E-03        -1.56912     490.439E-03     63.1807E-03     56.5672E-03    -28.2379E-03    -28.2871E-03    -27.8627E-03     56.1682E-03    -28.2633E-03     11.5165E-03    -13.5311E+06    -18.5338E+06    -116.537E+06    -19.4857E+06    -113.334E+06    -15.7826E+06    -17.5551E+06         27.3259
            1576     10.6960E-03     82.4739E-03     487.537E-03     476.928E-03        -1.57415     475.621E-03        -1.57284     487.537E-03     68.1071E-03     56.4782E-03    -28.1749E-03    -28.3125E-03    -27.7693E-03     55.9372E-03    -28.1771E-03     13.4917E-03    -13.6971E+06    -21.5899E+06    -96.9314E+06    -16.7959E+06    -93.8326E+06    -21.5899E+06    -15.6747E+06         28.8291
            1577     11.6687E-03     82.4882E-03     484.341E-03     459.674E-03        -1.55586     458.330E-03        -1.55452     484.341E-03     78.0495E-03     56.5101E-03    -28.0759E-03    -28.4761E-03    -27.7623E-03     55.7962E-03    -28.0759E-03     15.4482E-03    -11.8020E+06    -29.2890E+06    -66.4942E+06    -15.1132E+06    -63.1830E+06    -29.2890E+06    -12.6897E+06         30.7310
            1578     12.6415E-03     82.5064E-03     479.703E-03     437.395E-03        -1.53011     436.970E-03        -1.52968     479.703E-03     43.5871E-03     56.8479E-03    -27.9543E-03    -28.9104E-03    -27.6293E-03     55.5669E-03    -27.9543E-03     20.4918E-03     335.023E+03    -25.5467E+06    -45.4854E+06    -14.7324E+06    -17.1339E+06    -38.8309E+06    -8.57079E+06         33.1975
            1579     13.6145E-03     82.5310E-03     474.611E-03     448.194E-03        -1.53853     447.762E-03        -1.53810     474.611E-03     49.5076E-03     57.3218E-03    -27.7973E-03    -29.5332E-03    -27.2347E-03     55.0233E-03    -27.7973E-03     27.6486E-03     54.4668E+06    -16.2774E+06    -46.3772E+06    -15.5012E+06     53.6906E+06    -46.3772E+06    -3.91407E+06         36.3632
            1580     14.5886E-03     82.5638E-03     473.423E-03     455.253E-03        -1.54750     459.021E-03        -1.54738     469.531E-03     26.9978E-03     61.5792E-03    -27.7705E-03    -33.8151E-03    -27.2687E-03     55.0329E-03    -27.7705E-03     46.4427E-03     120.150E+06    -11.2331E+06    -33.1037E+06    -16.2618E+06     120.123E+06    -28.0488E+06     213.876E+03         40.2374
            1581     15.5612E-03     82.6301E-03     465.730E-03     435.524E-03        -1.51688     439.330E-03        -1.51679     461.838E-03     22.9587E-03     74.9642E-03    -28.0188E-03    -46.9603E-03    -27.9053E-03     55.9093E-03    -28.0188E-03     86.8836E-03     165.077E+06     37.2632E+06    -14.3372E+06    -14.2946E+06     165.035E+06     37.2632E+06     2.52737E+06         44.3182
            1582     16.5367E-03     82.7495E-03     460.330E-03     412.179E-03        -1.49223     420.680E-03        -1.49208     451.683E-03     28.4882E-03     76.2169E-03    -28.3677E-03    -47.8632E-03    -27.4992E-03     55.8529E-03    -28.3677E-03     90.9251E-03     196.966E+06     122.743E+06    -8.46621E+06    -8.42429E+06     196.924E+06     122.743E+06     2.53620E+06         47.6845
            1583     972.037E-06     83.4607E-03         1.79994    -657.825E-03        -1.73111         1.45486        -1.38603    -657.825E-03    -891.219E-03     56.9736E-03    -28.3837E-03    -28.5910E-03    -28.5320E-03     56.9669E-03    -28.4360E-03     1.41272E-03    -58.2338E+06    -60.1479E+06    -228.092E+06    -58.8900E+06    -227.979E+06    -59.6046E+06    -3.44119E+06         24.1849
            1584     1.94415E-03     83.4627E-03     497.044E-03     392.048E-03        -1.47417     367.795E-03        -1.34492     392.048E-03     244.851E-03     56.8710E-03    -28.3795E-03    -28.4906E-03    -28.3872E-03     56.8511E-03    -28.4630E-03     2.53154E-03    -54.6239E+06    -57.1341E+06    -213.638E+06    -56.9854E+06    -213.277E+06    -55.1344E+06    -7.16133E+06         24.2217
            1585     2.91651E-03     83.4655E-03     408.989E-03     381.181E-03        -1.37543     354.882E-03        -1.32132     381.181E-03    -103.083E-03     56.9135E-03    -28.4303E-03    -28.4823E-03    -28.3973E-03     56.8726E-03    -28.4744E-03     3.69405E-03    -46.7296E+06    -53.0638E+06    -206.009E+06    -53.9068E+06    -205.166E+06    -46.7296E+06    -11.0467E+06         24.2824
            1586     3.88841E-03     83.4699E-03     409.876E-03     376.193E-03        -1.36810     386.528E-03        -1.34595     377.389E-03     129.844E-03     56.8914E-03    -28.4061E-03    -28.4878E-03    -28.3388E-03     56.8233E-03    -28.4870E-03     4.78783E-03    -37.8032E+06    -47.6257E+06    -198.568E+06    -49.0607E+06    -197.133E+06    -37.8032E+06    -14.4364E+06         24.3745
            1587     4.86079E-03     83.4753E-03     408.687E-03     378.754E-03        -1.36413     400.617E-03        -1.35726     379.950E-03    -15.0897E-03     56.8027E-03    -28.3333E-03    -28.4719E-03    -28.2338E-03     56.7032E-03    -28.4719E-03     5.79804E-03    -30.8925E+06    -41.7864E+06    -183.574E+06    -43.9808E+06    -181.379E+06    -30.8925E+06    -17.2726E+06         24.5072
            1588     5.83315E-03     83.4818E-03     393.171E-03     371.410E-03        -1.34071     380.008E-03        -1.33730     381.170E-03     61.9892E-03     56.7562E-03    -28.3228E-03    -28.4365E-03    -28.1863E-03     56.6197E-03    -28.4365E-03     6.78970E-03    -25.1001E+06    -35.9188E+06    -167.497E+06    -38.9428E+06    -164.473E+06    -25.1001E+06    -19.5606E+06         24.6854
            1589     6.80543E-03     83.4890E-03     378.664E-03     358.667E-03        -1.31526     357.255E-03        -1.31385     378.664E-03     14.6112E-03     56.7139E-03    -28.3161E-03    -28.4004E-03    -28.1344E-03     56.5321E-03    -28.4004E-03     7.83622E-03    -20.7213E+06    -30.2371E+06    -155.137E+06    -34.0321E+06    -151.342E+06    -20.7213E+06    -21.3010E+06         24.9365
            1590     7.77797E-03     83.4978E-03     385.881E-03     365.808E-03        -1.32653     374.702E-03        -1.32559     376.046E-03     52.7570E-03     56.6613E-03    -28.2931E-03    -28.3628E-03    -28.0592E-03     56.4275E-03    -28.3628E-03     8.88664E-03    -17.4121E+06    -24.9891E+06    -143.106E+06    -29.3180E+06    -138.777E+06    -17.4121E+06    -22.0973E+06         25.3756
            1591     8.75043E-03     83.5073E-03     400.969E-03     376.205E-03        -1.35224     400.148E-03        -1.35142     376.205E-03     51.6353E-03     56.6128E-03    -28.2634E-03    -28.3228E-03    -27.9835E-03     56.3325E-03    -28.3225E-03     9.73343E-03    -15.1177E+06    -20.3801E+06    -130.811E+06    -24.9163E+06    -126.275E+06    -15.1177E+06    -21.8319E+06         26.1476
            1592     9.72302E-03     83.5175E-03     394.332E-03     374.338E-03        -1.34611     390.820E-03        -1.34529     377.024E-03     46.3993E-03     56.6041E-03    -28.2270E-03    -28.3360E-03    -27.9059E-03     56.2066E-03    -28.2597E-03     11.5009E-03    -14.9738E+06    -20.0680E+06    -117.178E+06    -21.2709E+06    -112.669E+06    -18.2796E+06    -20.7118E+06         27.2935
            1593     10.6957E-03     83.5307E-03     380.389E-03     373.345E-03        -1.33019     376.523E-03        -1.32931     376.330E-03     47.9871E-03     56.5622E-03    -28.1791E-03    -28.3932E-03    -27.8513E-03     56.0225E-03    -28.1813E-03     13.4880E-03    -13.9392E+06    -23.9398E+06    -98.8310E+06    -18.3030E+06    -94.4673E+06    -23.9398E+06    -18.6531E+06         28.7882
            1594     11.6685E-03     83.5459E-03     385.553E-03     369.181E-03        -1.33447     378.875E-03        -1.33352     374.909E-03     71.2159E-03     56.4837E-03    -28.0812E-03    -28.4432E-03    -27.7319E-03     55.7724E-03    -28.0812E-03     15.4149E-03    -11.9663E+06    -32.1719E+06    -70.6489E+06    -16.5393E+06    -66.0759E+06    -32.1719E+06    -15.4307E+06         30.6887
            1595     12.6415E-03     83.5632E-03     393.432E-03     364.113E-03        -1.33807     383.740E-03        -1.33781     373.542E-03     40.8782E-03     56.7075E-03    -27.9514E-03    -28.7694E-03    -27.4991E-03     55.4372E-03    -27.9514E-03     20.3761E-03    -1.35720E+06    -28.3801E+06    -49.7250E+06    -15.6435E+06    -21.7159E+06    -42.1028E+06    -11.0465E+06         33.1657
            1596     13.6148E-03     83.5887E-03     389.264E-03     367.855E-03        -1.33476     385.025E-03        -1.33457     371.908E-03     27.3159E-03     57.4894E-03    -27.7947E-03    -29.7006E-03    -27.4103E-03     55.1991E-03    -27.7947E-03     27.6620E-03     50.1679E+06    -17.4449E+06    -49.5558E+06    -15.7805E+06     48.5035E+06    -49.5558E+06    -5.43589E+06         36.3472
            1597     14.5871E-03     83.6211E-03     389.629E-03     369.218E-03        -1.33537     389.484E-03        -1.33528     369.271E-03     18.9335E-03     61.8919E-03    -27.7740E-03    -34.1264E-03    -27.4610E-03     55.2266E-03    -27.7740E-03     46.8965E-03     116.825E+06    -13.5308E+06    -34.9957E+06    -16.5731E+06     116.790E+06    -31.9190E+06    -153.319E+03         40.2409
            1598     15.5610E-03     83.6878E-03     397.234E-03     363.415E-03        -1.33609     396.130E-03        -1.33587     364.295E-03     32.0785E-03     75.1045E-03    -28.0233E-03    -47.0897E-03    -27.9503E-03     55.9651E-03    -28.0233E-03     87.2606E-03     163.471E+06     32.9067E+06    -15.5439E+06    -15.5203E+06     163.448E+06     32.9067E+06     1.99678E+06         44.3497
            1599     16.5339E-03     83.8051E-03     413.269E-03     357.446E-03        -1.34555     411.748E-03        -1.34491     358.326E-03    -4.53129E-03     76.0565E-03    -28.3765E-03    -47.6942E-03    -27.3551E-03     55.7173E-03    -28.3765E-03     90.7916E-03     197.642E+06     120.968E+06    -9.44103E+06    -9.41739E+06     197.618E+06     120.968E+06     1.91447E+06         47.7491
            1600     971.917E-06     84.5182E-03         1.75904    -698.302E-03        -1.61342         1.30386        -1.08442    -772.125E-03    -954.902E-03     56.9034E-03    -28.3665E-03    -28.5381E-03    -28.4792E-03     56.8969E-03    -28.4188E-03     1.31312E-03    -56.9288E+06    -59.3342E+06    -220.113E+06    -58.3408E+06    -219.939E+06    -58.0965E+06    -4.84184E+06         24.1840
            1601     1.94441E-03     84.5198E-03     417.943E-03     258.770E-03        -1.22568     231.661E-03        -1.03940     258.770E-03     302.102E-03     56.8491E-03    -28.3832E-03    -28.4660E-03    -28.3935E-03     56.8290E-03    -28.4355E-03     2.55776E-03    -54.5379E+06    -56.7630E+06    -205.355E+06    -56.9518E+06    -204.813E+06    -54.8915E+06    -8.56430E+06         24.2224
            1602     2.91625E-03     84.5234E-03     318.884E-03     250.682E-03        -1.11911     245.157E-03        -1.04539     250.682E-03    -82.5154E-03     56.9024E-03    -28.4356E-03    -28.4674E-03    -28.4128E-03     56.8624E-03    -28.4502E-03     3.65722E-03    -47.8560E+06    -52.5501E+06    -197.169E+06    -53.7268E+06    -195.946E+06    -47.9023E+06    -12.9872E+06         24.2845
            1603     3.88859E-03     84.5274E-03     306.592E-03     251.889E-03        -1.10895     272.851E-03        -1.07521     251.889E-03     136.084E-03     56.8721E-03    -28.4039E-03    -28.4703E-03    -28.3381E-03     56.8055E-03    -28.4695E-03     4.72919E-03    -39.3663E+06    -47.5790E+06    -191.159E+06    -49.6462E+06    -189.091E+06    -39.3663E+06    -16.9057E+06         24.3762
            1604     4.86073E-03     84.5329E-03     287.153E-03     255.739E-03        -1.08785     274.334E-03        -1.07503     255.739E-03    -14.8022E-03     56.8191E-03    -28.3594E-03    -28.4618E-03    -28.2591E-03     56.7188E-03    -28.4618E-03     5.81525E-03    -32.4579E+06    -41.7975E+06    -177.513E+06    -44.8546E+06    -174.456E+06    -32.4579E+06    -19.8974E+06         24.5076
            1605     5.83301E-03     84.5390E-03     270.559E-03     250.578E-03        -1.06405     257.393E-03        -1.05719     256.878E-03     73.2872E-03     56.7565E-03    -28.3282E-03    -28.4314E-03    -28.1913E-03     56.6196E-03    -28.4314E-03     6.80620E-03    -26.6567E+06    -35.8129E+06    -162.467E+06    -39.9976E+06    -158.282E+06    -26.6567E+06    -22.4694E+06         24.6853
            1606     6.80549E-03     84.5467E-03     273.394E-03     247.608E-03        -1.06323     260.702E-03        -1.05929     256.365E-03     39.2786E-03     56.7106E-03    -28.3175E-03    -28.3984E-03    -28.1360E-03     56.5291E-03    -28.3984E-03     7.82772E-03    -21.9267E+06    -29.9140E+06    -151.061E+06    -35.0876E+06    -145.888E+06    -21.9267E+06    -24.3651E+06         24.9330
            1607     7.77775E-03     84.5550E-03     280.791E-03     254.412E-03        -1.07815     275.183E-03        -1.07500     256.869E-03     74.5014E-03     56.6591E-03    -28.2950E-03    -28.3615E-03    -28.0606E-03     56.4248E-03    -28.3615E-03     8.89687E-03    -19.1355E+06    -24.7678E+06    -140.910E+06    -30.5939E+06    -135.084E+06    -19.1355E+06    -25.2607E+06         25.3629
            1608     8.75037E-03     84.5648E-03     298.576E-03     259.095E-03        -1.10264     297.199E-03        -1.10126     259.095E-03     49.8591E-03     56.5754E-03    -28.2310E-03    -28.3185E-03    -27.9549E-03     56.2993E-03    -28.3185E-03     9.65789E-03    -17.4515E+06    -20.5887E+06    -130.502E+06    -26.5545E+06    -124.355E+06    -17.6319E+06    -25.1894E+06         26.1238
            1609     9.72308E-03     84.5748E-03     304.778E-03     262.095E-03        -1.11404     303.443E-03        -1.11271     262.095E-03     62.5219E-03     56.6358E-03    -28.2069E-03    -28.3889E-03    -27.9441E-03     56.2410E-03    -28.2570E-03     11.4557E-03    -16.0996E+06    -21.4565E+06    -117.905E+06    -22.9277E+06    -111.745E+06    -20.7887E+06    -24.1157E+06         27.2596
            1610     10.6955E-03     84.5885E-03     293.886E-03     264.086E-03        -1.10302     292.995E-03        -1.10213     264.086E-03     51.0361E-03     56.6380E-03    -28.1854E-03    -28.4650E-03    -27.9255E-03     56.0985E-03    -28.1854E-03     13.4986E-03    -14.0833E+06    -26.5532E+06    -101.116E+06    -20.0606E+06    -95.1383E+06    -26.5532E+06    -21.9334E+06         28.7450
            1611     11.6682E-03     84.6027E-03     306.836E-03     265.514E-03        -1.11675     305.916E-03        -1.11583     265.514E-03     58.6554E-03     56.4788E-03    -28.0881E-03    -28.4328E-03    -27.7269E-03     55.7729E-03    -28.0881E-03     15.3565E-03    -11.2711E+06    -34.9735E+06    -75.0298E+06    -17.5782E+06    -68.7227E+06    -34.9735E+06    -18.7315E+06         30.6431
            1612     12.6413E-03     84.6206E-03     329.906E-03     267.682E-03        -1.14352     329.343E-03        -1.14296     267.682E-03     43.3314E-03     56.6974E-03    -27.9573E-03    -28.7521E-03    -27.5005E-03     55.4458E-03    -27.9573E-03     20.2354E-03    -1.86743E+06    -31.6344E+06    -53.9254E+06    -16.2185E+06    -26.1018E+06    -45.1070E+06    -14.1395E+06         33.1307
            1613     13.6144E-03     84.6452E-03     331.073E-03     269.746E-03        -1.14130     330.391E-03        -1.14062     269.746E-03     50.9951E-03     57.4862E-03    -27.7999E-03    -29.6919E-03    -27.3479E-03     55.1422E-03    -27.7999E-03     27.9157E-03     44.2291E+06    -19.2173E+06    -52.7842E+06    -16.0932E+06     41.1050E+06    -52.7842E+06    -7.52308E+06         36.3284
            1614     14.5880E-03     84.6797E-03     327.679E-03     270.120E-03        -1.13586     327.435E-03        -1.13562     270.120E-03     31.8306E-03     61.6792E-03    -27.7533E-03    -33.9359E-03    -27.2488E-03     54.9920E-03    -27.7533E-03     47.0024E-03     111.523E+06    -15.5141E+06    -37.9115E+06    -16.0243E+06     111.437E+06    -37.3152E+06    -1.12616E+06         40.2408
            1615     15.5617E-03     84.7435E-03     350.100E-03     268.130E-03        -1.15664     349.714E-03        -1.15625     268.130E-03     44.8833E-03     75.3196E-03    -27.9841E-03    -47.3342E-03    -27.8247E-03     55.8101E-03    -27.9841E-03     88.0505E-03     163.044E+06     29.7632E+06    -16.2571E+06    -14.5271E+06     163.020E+06     28.0566E+06     1.94775E+06         44.3755
            1616     16.5355E-03     84.8653E-03     363.765E-03     265.228E-03        -1.15995     362.915E-03        -1.15910     265.228E-03    -7.79122E-03     76.3484E-03    -28.3540E-03    -48.0000E-03    -27.4504E-03     55.7989E-03    -28.3540E-03     91.2496E-03     199.022E+06     119.956E+06     -9.3728E+06    -9.35648E+06     199.006E+06     119.956E+06     1.42036E+06         47.8083
            1617     972.404E-06     85.5754E-03         1.79200    -701.458E-03        -1.59895         1.18386    -754.001E-03    -938.259E-03    -984.507E-03     56.8852E-03    -28.3616E-03    -28.5256E-03    -28.5195E-03     56.8792E-03    -28.3616E-03     1.26756E-03    -56.5355E+06    -58.3304E+06    -210.185E+06    -57.9941E+06    -209.964E+06    -57.0926E+06    -4.98505E+06         24.1857
            1618     1.94405E-03     85.5778E-03     421.576E-03     125.654E-03        -1.05829     138.993E-03    -775.706E-03     125.654E-03     353.084E-03     56.8960E-03    -28.3979E-03    -28.4996E-03    -28.4415E-03     56.8766E-03    -28.4365E-03     2.50301E-03    -54.1591E+06    -55.9234E+06    -195.441E+06    -56.2123E+06    -194.666E+06    -54.6456E+06    -9.98754E+06         24.2235
            1619     2.91641E-03     85.5808E-03     243.988E-03     128.918E-03    -886.655E-03     130.812E-03    -773.479E-03     128.918E-03    -121.304E-03     56.8403E-03    -28.3849E-03    -28.4582E-03    -28.3539E-03     56.8000E-03    -28.4490E-03     3.66068E-03    -48.3800E+06    -52.0461E+06    -187.721E+06    -53.6312E+06    -186.089E+06    -48.4263E+06    -14.5590E+06         24.2847
            1620     3.88842E-03     85.5852E-03     183.495E-03     128.934E-03    -827.940E-03     130.627E-03    -775.071E-03     128.934E-03     106.843E-03     56.8631E-03    -28.4057E-03    -28.4608E-03    -28.3399E-03     56.7973E-03    -28.4608E-03     4.71096E-03    -39.9221E+06    -47.1254E+06    -182.648E+06    -49.9069E+06    -179.867E+06    -39.9221E+06    -19.0028E+06         24.3763
            1621     4.86072E-03     85.5902E-03     163.900E-03     129.438E-03    -807.194E-03     138.782E-03    -782.075E-03     129.438E-03    -25.4668E-03     56.8277E-03    -28.3725E-03    -28.4577E-03    -28.2733E-03     56.7286E-03    -28.4577E-03     5.77961E-03    -33.3678E+06    -41.2781E+06    -170.763E+06    -45.4527E+06    -166.588E+06    -33.3678E+06    -22.6343E+06         24.5075
            1622     5.83299E-03     85.5969E-03     177.899E-03     132.486E-03    -818.330E-03     166.911E-03    -807.341E-03     132.486E-03     79.7043E-03     56.7499E-03    -28.3259E-03    -28.4281E-03    -28.1887E-03     56.6127E-03    -28.4281E-03     6.81216E-03    -27.9401E+06    -35.0726E+06    -156.822E+06    -40.6250E+06    -151.270E+06    -27.9401E+06    -25.2518E+06         24.6844
            1623     6.80525E-03     85.6040E-03     187.231E-03     137.634E-03    -832.822E-03     181.325E-03    -826.916E-03     137.634E-03     39.6498E-03     56.7108E-03    -28.3203E-03    -28.3962E-03    -28.1397E-03     56.5302E-03    -28.3962E-03     7.80865E-03    -23.5474E+06    -29.5176E+06    -146.895E+06    -36.2058E+06    -140.207E+06    -23.5474E+06    -27.1127E+06         24.9285
            1624     7.77786E-03     85.6128E-03     180.836E-03     141.976E-03    -835.804E-03     176.355E-03    -831.323E-03     141.976E-03     77.7099E-03     56.6588E-03    -28.2936E-03    -28.3613E-03    -28.0639E-03     56.4291E-03    -28.3613E-03     8.80940E-03    -21.0135E+06    -24.6176E+06    -138.380E+06    -32.1477E+06    -130.850E+06    -21.0135E+06    -28.2007E+06         25.3493
            1625     8.75019E-03     85.6220E-03     175.307E-03     144.717E-03    -833.184E-03     173.668E-03    -831.544E-03     144.717E-03     38.3680E-03     56.6221E-03    -28.2625E-03    -28.3342E-03    -28.0019E-03     56.3478E-03    -28.3205E-03     9.62767E-03    -18.8945E+06    -21.0187E+06    -129.412E+06    -28.0592E+06    -121.355E+06    -19.9104E+06    -28.4950E+06         26.0988
            1626     9.72269E-03     85.6323E-03     199.208E-03     147.659E-03    -858.793E-03     197.669E-03    -857.254E-03     147.659E-03     53.0071E-03     56.6303E-03    -28.2409E-03    -28.3503E-03    -27.9370E-03     56.2366E-03    -28.2605E-03     11.4461E-03    -15.9443E+06    -23.2618E+06    -118.562E+06    -24.1392E+06    -110.367E+06    -23.2618E+06    -27.7415E+06         27.2243
            1627     10.6955E-03     85.6457E-03     228.645E-03     152.215E-03    -894.734E-03     227.565E-03    -893.654E-03     152.215E-03     46.6754E-03     56.5889E-03    -28.1849E-03    -28.4153E-03    -27.8754E-03     56.0489E-03    -28.1849E-03     13.4928E-03    -12.6552E+06    -29.3728E+06    -103.858E+06    -20.7560E+06    -95.7574E+06    -29.3728E+06    -25.8647E+06         28.6997
            1628     11.6682E-03     85.6602E-03     249.468E-03     157.880E-03    -919.121E-03     248.425E-03    -918.078E-03     157.880E-03     47.4423E-03     56.5353E-03    -28.0877E-03    -28.4886E-03    -27.7872E-03     55.8340E-03    -28.0877E-03     15.3269E-03    -9.78134E+06    -38.2464E+06    -79.4892E+06    -18.4025E+06    -70.8680E+06    -38.2464E+06    -22.6374E+06         30.5949
            1629     12.6411E-03     85.6774E-03     269.044E-03     163.825E-03    -937.840E-03     267.849E-03    -936.646E-03     163.825E-03     52.0326E-03     56.7759E-03    -27.9627E-03    -28.8254E-03    -27.5673E-03     55.5178E-03    -27.9627E-03     20.2709E-03    -2.33396E+06    -35.6869E+06    -58.6795E+06    -16.7869E+06    -31.0877E+06    -48.8258E+06    -17.5632E+06         33.0924
            1630     13.6141E-03     85.7027E-03     277.305E-03     169.222E-03    -949.694E-03     275.817E-03    -948.206E-03     169.222E-03     80.4497E-03     57.3666E-03    -27.8041E-03    -29.5680E-03    -27.2216E-03     55.0202E-03    -27.8041E-03     27.9068E-03     38.5002E+06    -21.7328E+06    -56.8615E+06    -16.0546E+06     32.8220E+06    -56.8615E+06    -10.3090E+06         36.3061
            1631     14.5877E-03     85.7359E-03     281.705E-03     173.013E-03    -954.771E-03     281.362E-03    -954.427E-03     173.013E-03     36.8150E-03     61.4347E-03    -27.7316E-03    -33.7074E-03    -27.0987E-03     54.8260E-03    -27.7316E-03     46.6489E-03     105.345E+06    -16.4516E+06    -43.8385E+06    -16.2243E+06     105.117E+06    -43.8385E+06    -2.97972E+06         40.2326
            1632     15.5615E-03     85.8014E-03     299.065E-03     174.181E-03    -968.172E-03     298.844E-03    -967.951E-03     174.181E-03     20.8711E-03     74.8174E-03    -27.9300E-03    -46.8922E-03    -27.4643E-03     55.3895E-03    -27.9300E-03     87.4106E-03     161.642E+06     25.8017E+06    -19.8085E+06    -14.4039E+06     161.635E+06     20.4046E+06     686.281E+03         44.3891
            1633     16.5365E-03     85.9208E-03     307.027E-03     173.784E-03    -969.939E-03     305.911E-03    -968.823E-03     173.784E-03     33.5510E-03     76.1731E-03    -28.3134E-03    -47.8841E-03    -27.4204E-03     55.7094E-03    -28.3134E-03     90.8532E-03     200.348E+06     117.234E+06    -8.33172E+06    -8.32372E+06     200.340E+06     117.234E+06     932.529E+03         47.8594
            1634     971.888E-06     86.6339E-03         1.85194    -717.604E-03        -1.59776         1.05274    -474.157E-03        -1.04201        -1.04004     56.9723E-03    -28.3378E-03    -28.6357E-03    -28.5609E-03     56.9666E-03    -28.4069E-03     1.30356E-03    -57.6273E+06     -58.347E+06    -199.194E+06    -57.9184E+06    -198.903E+06     -58.347E+06    -5.65576E+06         24.1874
            1635     1.94412E-03     86.6353E-03     445.547E-03     6.05686E-03    -920.438E-03     10.5134E-03    -485.404E-03     6.05686E-03     397.515E-03     56.8463E-03    -28.3490E-03    -28.4991E-03    -28.3695E-03     56.8271E-03    -28.4594E-03     2.46198E-03    -53.9510E+06    -56.0618E+06    -183.875E+06    -56.6341E+06    -182.837E+06    -54.4177E+06    -10.9981E+06         24.2244
            1636     2.91622E-03     86.6386E-03     201.534E-03     6.55936E-03    -683.210E-03     5.12074E-03    -486.797E-03     6.55936E-03    -140.995E-03     56.8422E-03    -28.3866E-03    -28.4587E-03    -28.3458E-03     56.8013E-03    -28.4587E-03     3.68896E-03    -46.9940E+06    -51.5726E+06    -177.471E+06    -53.7713E+06    -175.272E+06    -46.9940E+06    -16.2415E+06         24.2851
            1637     3.88853E-03     86.6427E-03     95.3256E-03     6.05496E-03    -581.617E-03     7.87390E-03    -494.165E-03     6.05496E-03     139.505E-03     56.8624E-03    -28.4011E-03    -28.4650E-03    -28.3351E-03     56.7964E-03    -28.4650E-03     4.71699E-03    -39.4063E+06    -46.0319E+06    -173.420E+06    -49.6443E+06    -169.807E+06    -39.4063E+06    -20.9392E+06         24.3766
            1638     4.86053E-03     86.6481E-03     62.2761E-03     7.70532E-03    -550.269E-03     27.8435E-03    -515.837E-03     7.70532E-03    -13.0777E-03     56.8286E-03    -28.3714E-03    -28.4593E-03    -28.2732E-03     56.7304E-03    -28.4593E-03     5.75449E-03    -33.3276E+06    -39.7264E+06    -162.995E+06    -45.1298E+06    -157.591E+06    -33.3276E+06    -24.9985E+06         24.5080
            1639     5.83288E-03     86.6542E-03     77.9044E-03     13.0118E-03    -572.751E-03     60.9055E-03    -555.752E-03     13.0118E-03     82.6870E-03     56.7564E-03    -28.3310E-03    -28.4300E-03    -28.1941E-03     56.6195E-03    -28.4300E-03     6.80203E-03    -28.5323E+06    -33.7331E+06    -151.048E+06    -40.8476E+06    -143.934E+06    -28.5323E+06    -27.8753E+06         24.6841
            1640     6.80530E-03     86.6618E-03     76.4375E-03     19.8485E-03    -578.790E-03     71.2230E-03    -573.575E-03     19.8485E-03     19.5825E-03     56.7218E-03    -28.3275E-03    -28.3998E-03    -28.1480E-03     56.5423E-03    -28.3998E-03     7.79028E-03    -24.3851E+06    -28.2360E+06    -142.446E+06    -36.6339E+06    -134.048E+06    -24.3851E+06    -29.7093E+06         24.9242
            1641     7.77744E-03     86.6700E-03     81.1658E-03     25.7778E-03    -584.961E-03     77.0477E-03    -580.843E-03     25.7778E-03     41.0596E-03     56.6773E-03    -28.3053E-03    -28.3667E-03    -28.0779E-03     56.4499E-03    -28.3667E-03     8.76645E-03    -21.5222E+06    -23.2575E+06    -135.143E+06    -32.4609E+06    -125.650E+06    -21.8115E+06    -31.1395E+06         25.3353
            1642     8.75012E-03     86.6796E-03     88.5183E-03     31.0062E-03    -596.727E-03     85.9141E-03    -594.123E-03     31.0062E-03     24.9190E-03     56.6144E-03    -28.2509E-03    -28.3379E-03    -27.9860E-03     56.3358E-03    -28.3242E-03     9.69853E-03    -18.0481E+06    -21.3104E+06    -127.720E+06    -28.4071E+06    -117.450E+06    -21.2223E+06    -31.8650E+06         26.0731
            1643     9.72260E-03     86.6898E-03     112.465E-03     36.6196E-03    -626.434E-03     110.373E-03    -624.341E-03     36.6196E-03     52.8005E-03     56.6182E-03    -28.2210E-03    -28.3582E-03    -27.9191E-03     56.2191E-03    -28.2610E-03     11.5342E-03    -13.9570E+06    -25.2053E+06    -118.830E+06    -24.6082E+06    -108.179E+06    -25.2053E+06    -31.6124E+06         27.1878
            1644     10.6953E-03     86.7027E-03     153.381E-03     43.8885E-03    -676.957E-03     150.977E-03    -674.552E-03     43.8885E-03     60.7449E-03     56.5843E-03    -28.1830E-03    -28.4120E-03    -27.8675E-03     56.0398E-03    -28.1830E-03     13.5469E-03    -10.3796E+06    -31.8348E+06    -106.328E+06    -21.2520E+06    -95.4558E+06    -31.8348E+06    -30.3174E+06         28.6532
            1645     11.6681E-03     86.7176E-03     182.890E-03     52.6224E-03    -714.317E-03     180.567E-03    -711.995E-03     52.6224E-03     50.2637E-03     56.5292E-03    -28.0854E-03    -28.4852E-03    -27.7807E-03     55.8248E-03    -28.0854E-03     15.3652E-03    -7.02735E+06    -41.0216E+06    -84.2562E+06    -18.3718E+06    -72.9117E+06    -41.0216E+06    -27.1287E+06         30.5452
            1646     12.6407E-03     86.7344E-03     199.397E-03     61.4304E-03    -734.036E-03     198.509E-03    -733.148E-03     61.4304E-03     29.6014E-03     56.7804E-03    -27.9616E-03    -28.8312E-03    -27.5688E-03     55.5180E-03    -27.9616E-03     20.2985E-03    -1.01898E+06    -40.3596E+06    -63.5699E+06    -16.3874E+06    -36.4388E+06    -52.1222E+06    -21.6207E+06         33.0523
            1647     13.6142E-03     86.7595E-03     223.077E-03     69.7520E-03    -763.997E-03     222.091E-03    -763.011E-03     69.7520E-03     50.7245E-03     57.4040E-03    -27.8018E-03    -29.6067E-03    -27.2549E-03     55.0523E-03    -27.8018E-03     27.9571E-03     32.9180E+06    -25.2260E+06    -61.4614E+06    -15.8591E+06     23.5511E+06    -61.4614E+06    -13.2801E+06         36.2802
            1648     14.5875E-03     86.7929E-03     244.463E-03     77.1634E-03    -788.121E-03     244.148E-03    -787.807E-03     77.1634E-03     29.9602E-03     61.4530E-03    -27.7157E-03    -33.7398E-03    -27.0849E-03     54.7981E-03    -27.7157E-03     46.7786E-03     99.0222E+06    -16.6151E+06    -50.2613E+06    -16.1524E+06     98.5595E+06    -50.2613E+06    -5.00966E+06         40.2179
            1649     15.5615E-03     86.8580E-03     250.313E-03     81.7619E-03    -794.154E-03     250.125E-03    -793.966E-03     81.7619E-03     15.6539E-03     74.7301E-03    -27.9124E-03    -46.8326E-03    -27.5847E-03     55.4823E-03    -27.9124E-03     87.1277E-03     160.228E+06     23.1502E+06    -23.4741E+06    -14.2807E+06     160.208E+06     13.9767E+06    -1.22285E+06         44.3938
            1650     16.5357E-03     86.9769E-03     283.663E-03     84.8438E-03    -827.155E-03     282.747E-03    -826.239E-03     84.8438E-03     36.5455E-03     76.0706E-03    -28.3164E-03    -47.7965E-03    -27.3442E-03     55.6183E-03    -28.3164E-03     90.9444E-03     200.247E+06     114.359E+06    -8.47823E+06    -8.47387E+06     200.243E+06     114.359E+06     136.772E+03         47.9044
            1651     971.844E-06     87.6910E-03         1.90138    -748.922E-03        -1.58006     915.992E-03    -215.637E-03        -1.12796        -1.13436     57.0031E-03    -28.4003E-03    -28.6028E-03    -28.5277E-03     56.9971E-03    -28.4694E-03     1.23725E-03    -54.3093E+06    -55.0573E+06    -187.255E+06    -54.7185E+06    -186.845E+06    -55.0573E+06    -6.74844E+06         24.1889
            1652     1.94417E-03     87.6932E-03     478.666E-03    -107.360E-03    -812.210E-03    -111.819E-03    -221.726E-03    -107.360E-03     405.677E-03     56.8590E-03    -28.3914E-03    -28.4699E-03    -28.3718E-03     56.8389E-03    -28.4693E-03     2.54387E-03    -51.3398E+06    -53.0372E+06    -171.906E+06    -54.0217E+06    -170.706E+06    -51.5553E+06    -11.5128E+06         24.2263
            1653     2.91623E-03     87.6963E-03     222.702E-03    -107.825E-03    -560.703E-03    -101.916E-03    -236.085E-03    -107.825E-03    -114.864E-03     56.8881E-03    -28.4199E-03    -28.4706E-03    -28.3795E-03     56.8478E-03    -28.4706E-03     3.67153E-03    -44.6247E+06    -49.5648E+06    -165.788E+06    -52.2007E+06    -163.152E+06    -44.6247E+06    -17.0205E+06         24.2873
            1654     3.88824E-03     87.7006E-03     85.0144E-03    -105.968E-03    -422.521E-03    -95.5786E-03    -241.928E-03    -105.968E-03     196.314E-03     56.8496E-03    -28.3734E-03    -28.4786E-03    -28.3071E-03     56.7834E-03    -28.4786E-03     4.72035E-03    -37.3326E+06    -44.3036E+06    -163.013E+06    -48.8849E+06    -158.432E+06    -37.3326E+06    -22.6560E+06         24.3787
            1655     4.86062E-03     87.7057E-03    -1.74804E-03    -103.403E-03    -339.614E-03    -85.4565E-03    -255.905E-03    -103.403E-03    -9.37754E-03     56.8318E-03    -28.3678E-03    -28.4655E-03    -28.2690E-03     56.7329E-03    -28.4655E-03     5.77566E-03    -32.0163E+06    -37.4963E+06    -154.640E+06    -44.3255E+06    -147.811E+06    -32.0163E+06    -27.2062E+06         24.5097
            1656     5.83277E-03     87.7120E-03    -28.3570E-03    -99.6816E-03    -321.608E-03    -68.7931E-03    -281.172E-03    -99.6816E-03     82.9680E-03     56.7868E-03    -28.3524E-03    -28.4367E-03    -28.2160E-03     56.6504E-03    -28.4367E-03     6.79281E-03    -27.7013E+06    -31.1509E+06    -144.767E+06    -39.8964E+06    -136.021E+06    -27.7013E+06    -30.1988E+06         24.6850
            1657     6.80499E-03     87.7193E-03    -21.6658E-03    -94.2857E-03    -331.589E-03    -44.0724E-03    -309.183E-03    -94.2857E-03     54.8870E-03     56.7099E-03    -28.3071E-03    -28.4042E-03    -28.1271E-03     56.5299E-03    -28.4042E-03     7.79780E-03    -24.0471E+06    -25.9523E+06    -137.744E+06    -35.9413E+06    -127.458E+06    -24.3433E+06    -32.2693E+06         24.9205
            1658     7.77763E-03     87.7279E-03     6.05642E-03    -87.0404E-03    -365.686E-03    -14.7450E-03    -344.884E-03    -87.0404E-03     91.1000E-03     56.6709E-03    -28.2953E-03    -28.3678E-03    -28.0647E-03     56.4403E-03    -28.3678E-03     8.82598E-03    -20.0917E+06    -22.1079E+06    -131.192E+06    -31.9899E+06    -119.420E+06    -21.9813E+06    -34.0911E+06         25.3211
            1659     8.74983E-03     87.7370E-03     23.5735E-03    -78.2201E-03    -394.912E-03     15.9113E-03    -387.250E-03    -78.2201E-03     66.4310E-03     56.5878E-03    -28.2377E-03    -28.3240E-03    -27.9599E-03     56.3100E-03    -28.3240E-03     9.68617E-03    -15.2091E+06    -21.6044E+06    -125.467E+06    -28.0919E+06    -112.584E+06    -21.6044E+06    -35.3435E+06         26.0467
            1660     9.72269E-03     87.7471E-03     49.7422E-03    -68.3744E-03    -430.665E-03     44.7057E-03    -425.628E-03    -68.3744E-03     68.1199E-03     56.5883E-03    -28.1968E-03    -28.3500E-03    -27.8872E-03     56.1864E-03    -28.2577E-03     11.5546E-03    -10.7578E+06    -26.2367E+06    -118.748E+06    -24.2970E+06    -105.208E+06    -26.2367E+06    -35.6934E+06         27.1507
            1661     10.6952E-03     87.7604E-03     68.1963E-03    -58.4139E-03    -455.585E-03     62.8471E-03    -450.236E-03    -58.4139E-03     77.6117E-03     56.5890E-03    -28.1786E-03    -28.4205E-03    -27.8704E-03     56.0388E-03    -28.1786E-03     13.6210E-03    -6.72207E+06    -33.1258E+06    -107.857E+06    -20.8325E+06    -93.7465E+06    -33.1258E+06    -34.9590E+06         28.6064
            1662     11.6679E-03     87.7745E-03     87.5289E-03    -48.8234E-03    -481.464E-03     82.1901E-03    -476.126E-03    -48.8234E-03     69.8826E-03     56.4730E-03    -28.0795E-03    -28.4373E-03    -27.7212E-03     55.7568E-03    -28.0795E-03     15.4724E-03    -2.91356E+06    -42.8950E+06    -89.2019E+06    -17.6015E+06    -74.5140E+06    -42.8950E+06    -32.2992E+06         30.4954
            1663     12.6412E-03     87.7918E-03     117.841E-03    -39.0738E-03    -520.240E-03     117.023E-03    -519.422E-03    -39.0738E-03     27.3645E-03     56.7609E-03    -27.9514E-03    -28.8256E-03    -27.5542E-03     55.4895E-03    -27.9514E-03     20.3999E-03     1.83068E+06    -45.4284E+06    -69.1803E+06    -15.2770E+06    -42.3428E+06    -55.1582E+06    -26.4489E+06         33.0113
            1664     13.6140E-03     87.8163E-03     167.326E-03    -28.4186E-03    -577.213E-03     166.569E-03    -576.456E-03    -28.4186E-03     24.0904E-03     57.5041E-03    -27.7943E-03    -29.7171E-03    -27.3682E-03     55.1553E-03    -27.7943E-03     27.9733E-03     28.3233E+06    -28.7735E+06    -65.3075E+06    -14.3786E+06     13.9285E+06    -65.3075E+06    -16.9557E+06         36.2523
            1665     14.5876E-03     87.8500E-03     209.428E-03    -17.4103E-03    -626.819E-03     209.072E-03    -626.462E-03    -17.4103E-03     19.2556E-03     61.3877E-03    -27.6874E-03    -33.7108E-03    -27.1214E-03     54.7983E-03    -27.6874E-03     46.5528E-03     92.0863E+06    -15.3045E+06    -58.0485E+06    -14.2019E+06     90.9837E+06    -58.0485E+06    -7.58032E+06         40.2012
            1666     15.5615E-03     87.9145E-03     224.109E-03    -8.66487E-03    -648.465E-03     223.677E-03    -648.034E-03    -8.66487E-03     34.9645E-03     74.9617E-03    -27.8746E-03    -47.1105E-03    -27.7061E-03     55.5573E-03    -27.8746E-03     87.5767E-03     157.941E+06     21.0266E+06    -29.6893E+06    -13.6945E+06     157.886E+06     5.08675E+06    -2.31952E+06         44.3978
            1667     16.5348E-03     88.0352E-03     258.666E-03    -1.55248E-03    -693.982E-03     257.056E-03    -692.372E-03    -1.55248E-03    -19.0659E-03     76.1340E-03    -28.3073E-03    -47.8693E-03    -27.2272E-03     55.4919E-03    -28.3073E-03     91.3482E-03     199.433E+06     111.028E+06    -9.34852E+06    -9.34518E+06     199.429E+06     111.028E+06    -366.601E+03         47.9492
            1668     972.223E-06     88.7491E-03         2.01161    -791.800E-03        -1.62423     784.383E-03     78.5756E-03        -1.26738        -1.27473     56.9461E-03    -28.4021E-03    -28.5428E-03    -28.5368E-03     56.9401E-03    -28.4021E-03     1.17050E-03    -49.0185E+06    -50.2544E+06    -174.448E+06    -49.8158E+06    -173.999E+06    -49.9066E+06    -6.92031E+06         24.1892
            1669     1.94400E-03     88.7509E-03     603.682E-03    -233.884E-03    -785.908E-03    -201.698E-03     19.4719E-03    -233.884E-03     358.769E-03     56.9473E-03    -28.4378E-03    -28.5111E-03    -28.4676E-03     56.9272E-03    -28.4610E-03     2.56098E-03    -47.2946E+06    -48.6599E+06    -159.965E+06    -49.5127E+06    -158.621E+06    -47.7863E+06    -11.7591E+06         24.2277
            1670     2.91609E-03     88.7542E-03     337.712E-03    -223.199E-03    -532.183E-03    -205.047E-03     10.5760E-03    -223.199E-03    -180.996E-03     56.8917E-03    -28.4075E-03    -28.4856E-03    -28.3672E-03     56.8514E-03    -28.4856E-03     3.66770E-03    -40.2681E+06    -45.0057E+06    -153.824E+06    -47.7239E+06    -151.106E+06    -40.2681E+06    -16.7714E+06         24.2891
            1671     3.88835E-03     88.7582E-03     186.289E-03    -218.446E-03    -381.163E-03    -200.688E-03     5.81471E-03    -218.446E-03     137.598E-03     56.8792E-03    -28.3863E-03    -28.4938E-03    -28.3198E-03     56.8126E-03    -28.4938E-03     4.73234E-03    -32.2259E+06    -40.2865E+06    -150.489E+06    -45.3675E+06    -145.407E+06    -32.2259E+06    -22.7721E+06         24.3812
            1672     4.86043E-03     88.7636E-03     81.6371E-03    -211.676E-03    -282.137E-03    -193.582E-03    -3.88754E-03    -214.706E-03    -83.0980E-03     56.8481E-03    -28.3711E-03    -28.4794E-03    -28.2718E-03     56.7488E-03    -28.4794E-03     5.78981E-03    -28.4031E+06    -34.1969E+06    -144.877E+06    -42.4533E+06    -136.621E+06    -28.4031E+06    -28.8776E+06         24.5122
            1673     5.83268E-03     88.7697E-03     14.0372E-03    -195.983E-03    -232.968E-03    -169.912E-03    -35.0765E-03    -209.926E-03     41.9437E-03     56.7670E-03    -28.3250E-03    -28.4450E-03    -28.1891E-03     56.6311E-03    -28.4450E-03     6.77969E-03    -25.7679E+06    -27.8606E+06    -138.514E+06    -38.4792E+06    -127.895E+06    -25.7679E+06    -32.4968E+06         24.6863
            1674     6.80511E-03     88.7768E-03    -6.37081E-03    -168.390E-03    -240.569E-03    -126.825E-03    -86.5436E-03    -201.962E-03     31.5812E-03     56.6987E-03    -28.2918E-03    -28.4076E-03    -28.1106E-03     56.5174E-03    -28.4076E-03     7.81825E-03    -21.2573E+06    -23.1657E+06    -132.239E+06    -34.1449E+06    -119.847E+06    -22.6702E+06    -34.7660E+06         24.9166
            1675     7.77731E-03     88.7853E-03    -14.6501E-03    -142.975E-03    -256.959E-03    -94.0873E-03    -129.171E-03    -191.325E-03     100.178E-03     56.6525E-03    -28.2766E-03    -28.3682E-03    -28.0446E-03     56.4205E-03    -28.3682E-03     8.85250E-03    -16.0966E+06    -20.6354E+06    -126.759E+06    -30.3288E+06    -112.527E+06    -20.6354E+06    -36.9824E+06         25.3063
            1676     8.75006E-03     88.7946E-03    -25.8129E-03    -128.056E-03    -261.657E-03    -71.5638E-03    -163.876E-03    -180.087E-03     59.3927E-03     56.5982E-03    -28.2466E-03    -28.3243E-03    -27.9716E-03     56.3232E-03    -28.3243E-03     9.63832E-03    -10.6774E+06    -20.2844E+06    -122.337E+06    -26.4102E+06    -106.605E+06    -20.2844E+06    -38.7944E+06         26.0195
            1677     9.72232E-03     88.8044E-03    -18.7296E-03    -117.651E-03    -275.735E-03    -37.9445E-03    -205.655E-03    -168.516E-03     55.2681E-03     56.5704E-03    -28.2196E-03    -28.3072E-03    -27.8667E-03     56.1675E-03    -28.2572E-03     11.5557E-03    -6.09830E+06    -25.5925E+06    -117.585E+06    -22.8269E+06    -100.857E+06    -25.5925E+06    -39.7644E+06         27.1128
            1678     10.6953E-03     88.8177E-03    -4.98197E-03    -126.715E-03    -276.101E-03    -17.7328E-03    -233.230E-03    -156.835E-03     75.0440E-03     56.5073E-03    -28.1734E-03    -28.3424E-03    -27.7897E-03     55.9547E-03    -28.1734E-03     13.6414E-03    -2.07887E+06    -33.2999E+06    -108.991E+06    -19.6455E+06    -91.4248E+06    -33.2999E+06    -39.5463E+06         28.5595
            1679     11.6681E-03     88.8319E-03     13.5919E-03    -140.071E-03    -281.556E-03     2.43628E-03    -264.806E-03    -145.665E-03     72.3522E-03     56.4483E-03    -28.0723E-03    -28.4190E-03    -27.7101E-03     55.7395E-03    -28.0723E-03     15.3955E-03     1.56286E+06    -43.5866E+06    -93.6473E+06    -16.9711E+06    -75.1133E+06    -43.5866E+06    -37.5878E+06         30.4458
            1680     12.6410E-03     88.8486E-03     50.0350E-03    -134.101E-03    -323.685E-03     47.5442E-03    -321.194E-03    -134.101E-03     47.3192E-03     56.7956E-03    -27.9443E-03    -28.8677E-03    -27.5971E-03     55.5250E-03    -27.9443E-03     20.3837E-03     5.39721E+06    -51.3750E+06    -74.1441E+06    -14.6456E+06    -48.1185E+06    -57.3578E+06    -32.2641E+06         32.9695
            1681     13.6143E-03     88.8737E-03     102.425E-03    -121.348E-03    -389.617E-03     99.5196E-03    -386.711E-03    -121.348E-03     51.5625E-03     57.4934E-03    -27.7907E-03    -29.7095E-03    -27.3634E-03     55.1473E-03    -27.7907E-03     27.9632E-03     25.0123E+06    -34.3931E+06    -67.9040E+06    -12.6170E+06     3.23619E+06    -67.9040E+06    -22.1890E+06         36.2230
            1682     14.5872E-03     88.9069E-03     152.574E-03    -108.070E-03    -447.643E-03     151.117E-03    -446.187E-03    -108.070E-03     41.9207E-03     61.4354E-03    -27.6553E-03    -33.7905E-03    -27.1616E-03     54.8065E-03    -27.6553E-03     46.6892E-03     83.4168E+06    -14.9766E+06    -65.7898E+06    -12.4169E+06     80.8571E+06    -65.7898E+06    -10.2582E+06         40.1842
            1683     15.5612E-03     88.9709E-03     201.249E-03    -95.9489E-03    -501.086E-03     200.120E-03    -499.957E-03    -95.9489E-03     46.8348E-03     75.0759E-03    -27.8139E-03    -47.2715E-03    -27.6338E-03     55.4383E-03    -27.8139E-03     88.0858E-03     154.224E+06     17.9723E+06    -35.6629E+06    -12.2990E+06     154.145E+06    -5.31294E+06    -2.55123E+06         44.4028
            1684     16.5364E-03     89.0926E-03     228.084E-03    -84.9676E-03    -539.776E-03     226.180E-03    -537.872E-03    -84.9676E-03    -36.3719E-03     75.8903E-03    -28.2652E-03    -47.6535E-03    -27.0334E-03     55.2701E-03    -28.2652E-03     90.9764E-03     199.115E+06     107.058E+06    -8.10846E+06    -8.10704E+06     199.113E+06     107.058E+06    -506.458E+03         47.9948
            1685     972.077E-06     89.8072E-03         2.14183    -876.716E-03        -1.65289     609.032E-03     331.385E-03        -1.32819        -1.33425     56.9062E-03    -28.3622E-03    -28.5430E-03    -28.5226E-03     56.8994E-03    -28.3758E-03     1.34401E-03    -46.0899E+06    -47.7733E+06    -161.090E+06    -47.4083E+06    -160.545E+06    -46.9993E+06    -7.24973E+06         24.1877
            1686     1.94406E-03     89.8091E-03     790.541E-03    -353.747E-03    -825.755E-03    -329.088E-03     293.874E-03    -353.747E-03     407.326E-03     56.9424E-03    -28.4288E-03    -28.5141E-03    -28.4630E-03     56.9220E-03    -28.4596E-03     2.57905E-03    -41.7416E+06    -43.7409E+06    -147.791E+06    -45.0839E+06    -146.146E+06    -42.0442E+06    -12.5080E+06         24.2266
            1687     2.91618E-03     89.8118E-03     510.685E-03    -343.196E-03    -553.973E-03    -314.852E-03     271.564E-03    -343.196E-03    -187.538E-03     56.9298E-03    -28.4345E-03    -28.4958E-03    -28.3988E-03     56.8891E-03    -28.4909E-03     3.68548E-03    -34.0773E+06    -38.3208E+06    -142.593E+06    -41.5030E+06    -139.411E+06    -34.0773E+06    -17.7604E+06         24.2888
            1688     3.88825E-03     89.8162E-03     352.206E-03    -318.206E-03    -415.691E-03    -286.375E-03     237.763E-03    -333.080E-03     168.864E-03     56.9275E-03    -28.4215E-03    -28.5073E-03    -28.3543E-03     56.8604E-03    -28.5073E-03     4.75808E-03    -24.8028E+06    -31.8682E+06    -137.750E+06    -37.1801E+06    -132.438E+06    -24.8028E+06    -22.8154E+06         24.3817
            1689     4.86037E-03     89.8215E-03     261.932E-03    -299.650E-03    -341.147E-03    -264.557E-03     207.696E-03    -322.003E-03    -25.5636E-03     56.8768E-03    -28.3725E-03    -28.5080E-03    -28.2743E-03     56.7786E-03    -28.5080E-03     5.76097E-03    -18.8172E+06    -26.3776E+06    -132.686E+06    -34.5182E+06    -124.546E+06    -18.8172E+06    -28.1292E+06         24.5136
            1690     5.83269E-03     89.8275E-03     211.243E-03    -282.330E-03    -311.904E-03    -253.008E-03     181.921E-03    -311.904E-03     103.194E-03     56.7655E-03    -28.3040E-03    -28.4656E-03    -28.1683E-03     56.6298E-03    -28.4656E-03     6.76917E-03    -18.0642E+06    -22.2113E+06    -129.676E+06    -33.1779E+06    -118.196E+06    -18.5776E+06    -33.1079E+06         24.6871
            1691     6.80498E-03     89.8347E-03     164.065E-03    -247.263E-03    -302.480E-03    -230.277E-03     147.079E-03    -302.480E-03     30.8088E-03     56.6967E-03    -28.2888E-03    -28.4088E-03    -28.1074E-03     56.5153E-03    -28.4088E-03     7.82461E-03    -15.7839E+06    -19.4430E+06    -125.534E+06    -30.6607E+06    -110.823E+06    -19.2772E+06    -37.2814E+06         24.9121
            1692     7.77755E-03     89.8428E-03     107.218E-03    -198.859E-03    -291.601E-03    -187.929E-03     96.2881E-03    -291.601E-03     67.1353E-03     56.6471E-03    -28.2721E-03    -28.3675E-03    -28.0391E-03     56.4140E-03    -28.3675E-03     8.86982E-03    -9.86103E+06    -17.8278E+06    -121.783E+06    -26.6888E+06    -104.956E+06    -17.8278E+06    -39.9534E+06         25.2905
            1693     8.74978E-03     89.8520E-03     55.3056E-03    -155.148E-03    -278.816E-03    -150.042E-03     50.1999E-03    -278.816E-03     20.3673E-03     56.5617E-03    -28.2150E-03    -28.3201E-03    -27.9364E-03     56.2831E-03    -28.3201E-03     9.69853E-03    -4.79321E+06    -17.8904E+06    -118.357E+06    -23.1597E+06    -99.9900E+06    -17.8904E+06    -41.7801E+06         25.9910
            1694     9.72264E-03     89.8619E-03     32.6149E-03    -143.740E-03    -265.724E-03    -127.829E-03     16.7033E-03    -265.724E-03     40.8474E-03     56.5517E-03    -28.1932E-03    -28.3164E-03    -27.8515E-03     56.1438E-03    -28.2502E-03     11.6244E-03    -673.880E+03    -23.6785E+06    -115.013E+06    -20.4032E+06    -95.2838E+06    -23.6785E+06    -43.1664E+06         27.0736
            1695     10.6951E-03     89.8747E-03     17.0984E-03    -140.035E-03    -252.676E-03    -92.5660E-03    -30.3705E-03    -252.676E-03     61.0861E-03     56.5019E-03    -28.1658E-03    -28.3456E-03    -27.7887E-03     55.9449E-03    -28.1658E-03     13.6947E-03     2.85007E+06    -32.4057E+06    -108.883E+06    -18.2115E+06    -87.8215E+06    -32.4057E+06    -43.6385E+06         28.5117
            1696     11.6681E-03     89.8891E-03    -7.31472E-06    -132.595E-03    -241.729E-03    -37.1725E-03    -98.8767E-03    -238.282E-03     51.0851E-03     56.4544E-03    -28.0680E-03    -28.4300E-03    -27.7199E-03     55.7443E-03    -28.0680E-03     15.4109E-03     6.16721E+06    -43.3263E+06    -97.0930E+06    -16.1537E+06    -74.7721E+06    -43.3263E+06    -42.4242E+06         30.3955
            1697     12.6411E-03     89.9058E-03     11.4430E-03    -135.165E-03    -252.427E-03     4.04896E-03    -157.519E-03    -222.679E-03     49.3781E-03     56.7891E-03    -27.9403E-03    -28.8661E-03    -27.5770E-03     55.5000E-03    -27.9403E-03     20.5080E-03     9.32196E+06    -56.5675E+06    -77.8822E+06    -14.2773E+06    -52.5862E+06    -58.2641E+06    -37.9555E+06         32.9264
            1698     13.6139E-03     89.9308E-03     41.7646E-03    -141.173E-03    -276.653E-03     33.9126E-03    -202.664E-03    -207.309E-03     63.8096E-03     57.4102E-03    -27.7810E-03    -29.6362E-03    -27.2815E-03     55.0555E-03    -27.7810E-03     28.0103E-03     20.4464E+06    -43.1361E+06    -71.6817E+06    -13.2526E+06    -9.55203E+06    -71.5668E+06    -27.7072E+06         36.1923
            1699     14.5883E-03     89.9633E-03     86.0861E-03    -162.571E-03    -295.439E-03     84.0803E-03    -263.525E-03    -192.479E-03     51.5595E-03     61.4560E-03    -27.6177E-03    -33.8416E-03    -27.2232E-03     54.8375E-03    -27.6177E-03     46.6769E-03     73.7061E+06    -18.4906E+06    -74.4964E+06    -12.9726E+06     68.1880E+06    -74.4964E+06    -13.8869E+06         40.1664
            1700     15.5619E-03     90.0284E-03     158.521E-03    -177.822E-03    -347.416E-03     156.818E-03    -345.410E-03    -178.126E-03     48.9719E-03     74.9094E-03    -27.7489E-03    -47.1641E-03    -27.5653E-03     55.3107E-03    -27.7489E-03     87.8568E-03     149.439E+06     11.6928E+06    -41.6077E+06    -12.1174E+06     149.221E+06    -17.5789E+06    -4.16867E+06         44.4074
            1701     16.5354E-03     90.1486E-03     206.109E-03    -163.675E-03    -399.491E-03     204.963E-03    -398.344E-03    -163.675E-03     19.0972E-03     75.6450E-03    -28.2126E-03    -47.4488E-03    -26.8097E-03     55.0059E-03    -28.2126E-03     90.8255E-03     197.994E+06     100.578E+06    -7.85511E+06    -7.84966E+06     197.988E+06     100.578E+06    -726.035E+03         48.0397
            1702     971.986E-06     90.8648E-03         2.20733    -941.033E-03        -1.64622     450.010E-03     485.467E-03        -1.31541        -1.30989     56.9556E-03    -28.3798E-03    -28.5761E-03    -28.5384E-03     56.9486E-03    -28.4104E-03     1.40199E-03    -38.3861E+06    -40.5834E+06    -146.356E+06    -40.3385E+06    -145.570E+06    -39.4168E+06    -8.58459E+06         24.1881
            1703     1.94421E-03     90.8670E-03     965.941E-03    -441.143E-03    -891.697E-03    -473.820E-03     548.064E-03    -441.143E-03     465.559E-03     56.8973E-03    -28.4237E-03    -28.4749E-03    -28.4089E-03     56.8774E-03    -28.4700E-03     2.55031E-03    -33.6362E+06    -35.7301E+06    -134.853E+06    -37.1842E+06    -132.635E+06    -34.4005E+06    -14.2214E+06         24.2254
            1704     2.91615E-03     90.8701E-03     686.516E-03    -445.176E-03    -598.556E-03    -418.821E-03     506.781E-03    -445.176E-03    -180.623E-03     56.9406E-03    -28.4519E-03    -28.4899E-03    -28.4156E-03     56.8993E-03    -28.4849E-03     3.69980E-03    -26.4751E+06    -29.5637E+06    -130.923E+06    -33.3777E+06    -126.768E+06    -26.8155E+06    -19.9724E+06         24.2865
            1705     3.88822E-03     90.8741E-03     521.262E-03    -408.442E-03    -465.834E-03    -360.638E-03     439.815E-03    -432.192E-03     190.157E-03     56.9167E-03    -28.4144E-03    -28.5036E-03    -28.3451E-03     56.8473E-03    -28.5036E-03     4.83782E-03    -18.3206E+06    -22.9788E+06    -127.197E+06    -29.1096E+06    -121.066E+06    -18.3206E+06    -24.3705E+06         24.3793
            1706     4.86050E-03     90.8793E-03     434.580E-03    -368.109E-03    -415.657E-03    -335.388E-03     401.860E-03    -415.657E-03    -19.4858E-03     56.8736E-03    -28.3629E-03    -28.5137E-03    -28.2637E-03     56.7744E-03    -28.5137E-03     5.79254E-03    -9.63021E+06    -16.3854E+06    -121.594E+06    -24.4953E+06    -113.484E+06    -9.63021E+06    -27.9871E+06         24.5118
            1707     5.83271E-03     90.8852E-03     405.462E-03    -351.426E-03    -402.452E-03    -334.212E-03     388.248E-03    -402.452E-03     117.007E-03     56.8163E-03    -28.3355E-03    -28.4828E-03    -28.1995E-03     56.6803E-03    -28.4828E-03     6.77856E-03    -5.96100E+06    -10.8239E+06    -117.881E+06    -21.1855E+06    -107.006E+06    -6.47439E+06    -32.2480E+06         24.6858
            1708     6.80512E-03     90.8923E-03     387.312E-03    -345.724E-03    -393.528E-03    -340.085E-03     381.672E-03    -393.528E-03     57.8241E-03     56.7097E-03    -28.2866E-03    -28.4166E-03    -28.1025E-03     56.5256E-03    -28.4166E-03     7.87890E-03    -5.13412E+06    -10.5668E+06    -114.864E+06    -20.3249E+06    -100.081E+06    -10.1590E+06    -37.2426E+06         24.9065
            1709     7.77737E-03     90.9003E-03     334.035E-03    -300.447E-03    -384.777E-03    -295.247E-03     328.835E-03    -384.777E-03     76.0891E-03     56.6018E-03    -28.2278E-03    -28.3587E-03    -27.9890E-03     56.3630E-03    -28.3587E-03     8.97183E-03    -1.78115E+06    -12.6556E+06    -114.755E+06    -19.9379E+06    -96.5987E+06    -12.6556E+06    -41.4618E+06         25.2735
            1710     8.75020E-03     90.9095E-03     262.564E-03    -237.607E-03    -372.259E-03    -234.247E-03     259.204E-03    -372.259E-03     50.6408E-03     56.5222E-03    -28.1895E-03    -28.3052E-03    -27.9020E-03     56.2347E-03    -28.3052E-03     9.84686E-03     1.82213E+06    -14.0109E+06    -113.181E+06    -18.5009E+06    -92.8575E+06    -14.0109E+06    -43.8416E+06         25.9605
            1711     9.72268E-03     90.9190E-03     217.794E-03    -206.417E-03    -357.707E-03    -202.715E-03     214.093E-03    -357.707E-03     70.7888E-03     56.5327E-03    -28.1889E-03    -28.3062E-03    -27.8468E-03     56.1198E-03    -28.2353E-03     11.7091E-03     5.45433E+06    -20.1385E+06    -110.775E+06    -16.7941E+06    -88.5261E+06    -20.1385E+06    -45.6980E+06         27.0318
            1712     10.6956E-03     90.9323E-03     154.263E-03    -157.584E-03    -342.264E-03    -150.745E-03     147.424E-03    -342.264E-03     69.0997E-03     56.5123E-03    -28.1515E-03    -28.3719E-03    -27.8021E-03     55.9425E-03    -28.1515E-03     13.8467E-03     8.72318E+06    -29.8452E+06    -107.217E+06    -15.2046E+06    -83.2889E+06    -29.8452E+06    -46.8943E+06         28.4613
            1713     11.6682E-03     90.9461E-03     86.4738E-03    -106.333E-03    -324.754E-03    -86.2040E-03     66.3444E-03    -324.754E-03     58.5490E-03     56.4523E-03    -28.0570E-03    -28.4392E-03    -27.7061E-03     55.7193E-03    -28.0570E-03     15.6617E-03     11.0251E+06    -41.3837E+06    -98.2357E+06    -14.3525E+06    -72.8581E+06    -41.3837E+06    -46.0640E+06         30.3430
            1714     12.6413E-03     90.9629E-03     54.0034E-03    -90.0850E-03    -306.231E-03    -47.0786E-03     10.9970E-03    -306.231E-03     53.5102E-03     56.7367E-03    -27.9298E-03    -28.8301E-03    -27.5304E-03     55.4370E-03    -27.9298E-03     20.5990E-03     12.0807E+06    -57.5537E+06    -82.2270E+06    -14.3486E+06    -55.7977E+06    -57.5537E+06    -42.2065E+06         32.8808
            1715     13.6149E-03     90.9872E-03     29.3332E-03    -80.4462E-03    -288.309E-03    -13.6267E-03    -37.4864E-03    -288.309E-03     53.5379E-03     57.4646E-03    -27.7668E-03    -29.7083E-03    -27.3576E-03     55.1139E-03    -27.7668E-03     28.0169E-03     17.4606E+06    -50.6715E+06    -76.9976E+06    -14.0193E+06    -21.8274E+06    -74.3618E+06    -33.1349E+06         36.1586
            1716     14.5876E-03     91.0202E-03     45.9126E-03    -111.459E-03    -270.842E-03     42.8491E-03    -108.396E-03    -270.842E-03     35.3212E-03     61.5287E-03    -27.5617E-03    -33.9684E-03    -27.2786E-03     54.8389E-03    -27.5617E-03     46.8917E-03     64.3135E+06    -23.9361E+06    -85.8300E+06    -13.0044E+06     53.3818E+06    -85.8300E+06    -19.2738E+06         40.1460
            1717     15.5613E-03     91.0851E-03     112.517E-03    -166.151E-03    -278.349E-03     110.165E-03    -188.253E-03    -253.895E-03     40.1025E-03     74.6305E-03    -27.6504E-03    -46.9792E-03    -27.3618E-03     55.0131E-03    -27.6504E-03     87.7319E-03     141.865E+06     4.02663E+06    -50.5227E+06    -11.6964E+06     141.242E+06    -34.1769E+06    -6.96350E+06         44.4105
            1718     16.5375E-03     91.2040E-03     176.332E-03    -200.644E-03    -302.498E-03     175.364E-03    -265.484E-03    -236.690E-03     37.7843E-03     75.5129E-03    -28.1401E-03    -47.3840E-03    -26.6259E-03     54.7549E-03    -28.1401E-03     91.0180E-03     196.063E+06     92.7279E+06    -7.99713E+06    -7.98180E+06     196.048E+06     92.7279E+06    -1.10549E+06         48.0834
            1719     971.973E-06     91.9229E-03         2.26636    -962.957E-03        -1.65680     317.993E-03     699.863E-03        -1.37126        -1.29920     57.0925E-03    -28.4388E-03    -28.6560E-03    -28.6299E-03     57.0864E-03    -28.4589E-03     1.32837E-03    -20.9592E+06    -22.9055E+06    -129.766E+06    -22.4567E+06    -129.009E+06    -22.1650E+06    -8.14537E+06         24.1903
            1720     1.94393E-03     91.9251E-03         1.10766    -528.151E-03    -916.082E-03    -532.623E-03     724.196E-03    -528.151E-03     450.247E-03     56.9398E-03    -28.4340E-03    -28.5079E-03    -28.4144E-03     56.9202E-03    -28.5079E-03     2.50938E-03    -20.9346E+06    -22.5170E+06    -119.980E+06    -23.4779E+06    -117.437E+06    -22.5170E+06    -15.0359E+06         24.2256
            1721     2.91625E-03     91.9280E-03     851.965E-03    -525.953E-03    -656.978E-03    -504.654E-03     699.640E-03    -525.953E-03    -214.165E-03     56.8602E-03    -28.3745E-03    -28.4874E-03    -28.3332E-03     56.8189E-03    -28.4874E-03     3.70795E-03    -16.5159E+06    -19.2428E+06    -118.499E+06    -22.6889E+06    -113.934E+06    -17.6350E+06    -20.8660E+06         24.2840
            1722     3.88840E-03     91.9321E-03     720.908E-03    -507.121E-03    -546.125E-03    -475.706E-03     660.856E-03    -517.489E-03     174.299E-03     56.8377E-03    -28.3604E-03    -28.4788E-03    -28.2900E-03     56.7673E-03    -28.4788E-03     4.86120E-03    -10.7982E+06    -13.9666E+06    -116.499E+06    -20.4118E+06    -109.544E+06    -11.3083E+06    -25.5980E+06         24.3744
            1723     4.86061E-03     91.9371E-03     647.667E-03    -464.350E-03    -506.695E-03    -446.674E-03     629.991E-03    -506.695E-03    -73.6875E-03     56.8108E-03    -28.3448E-03    -28.4690E-03    -28.2415E-03     56.7076E-03    -28.4690E-03     5.90831E-03    -4.30485E+06    -7.32441E+06    -112.031E+06    -16.3555E+06    -102.292E+06    -5.01291E+06    -30.4559E+06         24.5062
            1724     5.83294E-03     91.9433E-03     594.006E-03    -417.527E-03    -494.383E-03    -412.218E-03     588.697E-03    -494.383E-03     46.5998E-03     56.7662E-03    -28.3108E-03    -28.4578E-03    -28.1709E-03     56.6263E-03    -28.4578E-03     6.87398E-03     2.21577E+06     88.6606E+03    -108.986E+06    -11.1002E+06    -97.3392E+06     1.75747E+06    -33.7016E+06         24.6806
            1725     6.80525E-03     91.9499E-03     550.079E-03    -389.301E-03    -481.325E-03    -386.010E-03     546.788E-03    -481.325E-03     15.9794E-03     56.6525E-03    -28.2356E-03    -28.4090E-03    -28.0466E-03     56.4635E-03    -28.4090E-03     7.97770E-03     6.45124E+06     1.64979E+06    -103.674E+06    -7.71332E+06    -89.9174E+06     2.05756E+06    -36.2503E+06         24.8984
            1726     7.77800E-03     91.9581E-03     516.943E-03    -367.256E-03    -468.669E-03    -365.047E-03     514.734E-03    -468.669E-03     57.8314E-03     56.5514E-03    -28.1876E-03    -28.3456E-03    -27.9423E-03     56.3061E-03    -28.3456E-03     9.09150E-03     8.87752E+06    -1.27272E+06    -103.665E+06    -7.83164E+06    -86.9560E+06    -1.27272E+06    -39.9322E+06         25.2550
            1727     8.75043E-03     91.9667E-03     475.533E-03    -337.089E-03    -456.036E-03    -333.201E-03     471.645E-03    -456.036E-03     69.9003E-03     56.4860E-03    -28.1864E-03    -28.2861E-03    -27.8857E-03     56.1853E-03    -28.2861E-03     10.0616E-03     11.3266E+06    -5.22136E+06    -104.686E+06    -8.94059E+06    -84.4188E+06    -5.22136E+06    -43.9509E+06         25.9267
            1728     9.72313E-03     91.9769E-03     397.300E-03    -272.927E-03    -441.335E-03    -268.464E-03     392.837E-03    -441.335E-03     74.7863E-03     56.4839E-03    -28.1797E-03    -28.2947E-03    -27.8301E-03     56.0523E-03    -28.2127E-03     11.9743E-03     13.9821E+06    -13.0242E+06    -104.183E+06    -9.14111E+06    -81.0594E+06    -13.0242E+06    -46.8658E+06         26.9845
            1729     10.6958E-03     91.9891E-03     312.605E-03    -203.885E-03    -423.393E-03    -198.910E-03     307.629E-03    -423.393E-03     55.0515E-03     56.4685E-03    -28.1288E-03    -28.3623E-03    -27.7682E-03     55.8744E-03    -28.1288E-03     14.1278E-03     14.9844E+06    -24.0425E+06    -102.901E+06    -9.90576E+06    -78.0110E+06    -24.0425E+06    -48.0789E+06         28.4054
            1730     11.6689E-03     92.0037E-03     254.932E-03    -163.781E-03    -404.024E-03    -159.326E-03     250.477E-03    -404.024E-03     61.9277E-03     56.4294E-03    -28.0309E-03    -28.4405E-03    -27.6824E-03     55.6712E-03    -28.0309E-03     15.9323E-03     15.5053E+06    -36.7987E+06    -96.8041E+06    -11.2528E+06    -70.0461E+06    -36.7987E+06    -47.7827E+06         30.2851
            1731     12.6418E-03     92.0195E-03     190.757E-03    -114.435E-03    -384.492E-03    -108.666E-03     184.988E-03    -384.492E-03     53.1846E-03     56.8237E-03    -27.9082E-03    -28.9374E-03    -27.6125E-03     55.4988E-03    -27.9082E-03     20.8256E-03     15.7168E+06    -53.7408E+06    -85.3196E+06    -12.2838E+06    -57.3190E+06    -53.7408E+06    -45.1465E+06         32.8292
            1732     13.6146E-03     92.0446E-03     105.968E-03    -49.5976E-03    -364.036E-03    -40.9363E-03     97.3068E-03    -364.036E-03     56.8430E-03     57.5293E-03    -27.7435E-03    -29.7956E-03    -27.4020E-03     55.1358E-03    -27.7435E-03     28.2828E-03     18.5098E+06    -55.0819E+06     -81.561E+06    -12.9098E+06    -30.8701E+06    -74.3531E+06    -38.3736E+06         36.1189
            1733     14.5886E-03     92.0768E-03     63.5098E-03    -29.1372E-03    -343.161E-03     13.1998E-03     21.1727E-03    -343.161E-03     36.1555E-03     61.4682E-03    -27.5071E-03    -33.9630E-03    -27.1501E-03     54.6553E-03    -27.5071E-03     47.2699E-03     55.8702E+06    -30.8097E+06    -93.6713E+06    -12.5883E+06     37.6487E+06    -93.6713E+06    -25.6248E+06         40.1218
            1734     15.5630E-03     92.1414E-03     80.2116E-03    -58.6102E-03    -323.639E-03     64.1338E-03    -42.5324E-03    -323.639E-03     32.9778E-03     74.5066E-03    -27.5503E-03    -46.9444E-03    -27.3267E-03     54.8888E-03    -27.5503E-03     87.7729E-03     130.325E+06    -5.02492E+06    -56.4340E+06    -11.1715E+06     128.653E+06    -48.6153E+06    -10.7130E+06         44.4116
            1735     16.5367E-03     92.2596E-03     133.984E-03    -128.358E-03    -304.470E-03     132.626E-03    -127.000E-03    -304.470E-03     1.19546E-03     75.3600E-03    -28.0514E-03    -47.3142E-03    -26.5204E-03     54.5662E-03    -28.0514E-03     91.0793E-03     192.736E+06     84.2840E+06    -7.22567E+06    -7.17886E+06     192.689E+06     84.2840E+06    -1.63709E+06         48.1250
            1736     972.011E-06     92.9815E-03         2.35937    -994.237E-03        -1.66758     177.839E-03     946.969E-03        -1.42726        -1.29293     57.0440E-03    -28.4262E-03    -28.6202E-03    -28.5972E-03     57.0370E-03    -28.4422E-03     1.39299E-03    -8.27033E+06    -10.0272E+06    -113.307E+06    -9.12086E+06    -112.456E+06    -10.0272E+06    -8.21574E+06         24.1849
            1737     1.94407E-03     92.9829E-03         1.22759    -611.609E-03    -926.051E-03    -558.249E-03     859.790E-03    -611.609E-03     483.815E-03     56.9385E-03    -28.4407E-03    -28.4991E-03    -28.4193E-03     56.9171E-03    -28.4991E-03     2.62898E-03    -5.90940E+06    -7.62679E+06    -104.456E+06    -8.59139E+06    -102.047E+06    -7.35434E+06    -14.7744E+06         24.2209
            1738     2.91619E-03     92.9861E-03     994.925E-03    -594.480E-03    -707.513E-03    -570.660E-03     858.072E-03    -594.480E-03    -201.664E-03     56.8292E-03    -28.3551E-03    -28.4757E-03    -28.3122E-03     56.7862E-03    -28.4757E-03     3.78252E-03    -1.97106E+06    -4.42977E+06    -104.982E+06    -7.43936E+06    -100.541E+06    -3.40288E+06    -20.6427E+06         24.2791
            1739     3.88860E-03     92.9898E-03     912.795E-03    -588.306E-03    -630.156E-03    -582.133E-03     866.263E-03    -589.797E-03     222.087E-03     56.7323E-03    -28.2947E-03    -28.4395E-03    -28.2214E-03     56.6590E-03    -28.4395E-03     4.94838E-03     2.92892E+06    -567.477E+03    -103.656E+06    -5.25006E+06    -96.2314E+06     186.964E+03    -26.7500E+06         24.3672
            1740     4.86091E-03     92.9953E-03     860.126E-03    -572.629E-03    -589.738E-03    -562.676E-03     847.184E-03    -586.749E-03     9.01395E-03     56.6748E-03    -28.2696E-03    -28.4076E-03    -28.1602E-03     56.5653E-03    -28.4076E-03     6.07218E-03     7.10127E+06     4.28667E+06    -100.915E+06    -3.26250E+06    -90.5513E+06     4.28667E+06    -31.7735E+06         24.4957
            1741     5.83329E-03     93.0008E-03     799.909E-03    -517.819E-03    -580.647E-03    -511.497E-03     792.044E-03    -579.103E-03     95.4917E-03     56.5872E-03    -28.2027E-03    -28.3873E-03    -28.0543E-03     56.4388E-03    -28.3873E-03     7.06725E-03     11.5799E+06     9.42385E+06    -100.891E+06    -1.27168E+06    -88.0392E+06     9.42385E+06    -35.7084E+06         24.6682
            1742     6.80593E-03     93.0077E-03     711.040E-03    -441.837E-03    -564.992E-03    -439.492E-03     708.694E-03    -564.992E-03     13.6625E-03     56.4628E-03    -28.1236E-03    -28.3378E-03    -27.9228E-03     56.2619E-03    -28.3378E-03     8.20378E-03     15.7948E+06     10.8832E+06    -96.6378E+06     1.54792E+06    -82.3909E+06     10.8832E+06    -37.3973E+06         24.8843
            1743     7.77841E-03     93.0153E-03     664.602E-03    -409.291E-03    -547.846E-03    -407.771E-03     663.082E-03    -547.846E-03     60.5925E-03     56.4139E-03    -28.1337E-03    -28.2778E-03    -27.8678E-03     56.1480E-03    -28.2778E-03     9.44224E-03     19.1038E+06     9.44678E+06    -93.2897E+06     3.63671E+06    -77.8226E+06     9.44678E+06    -38.6833E+06         25.2319
            1744     8.75120E-03     93.0245E-03     636.483E-03    -393.772E-03    -531.929E-03    -391.862E-03     634.573E-03    -531.929E-03     63.1409E-03     56.3528E-03    -28.1409E-03    -28.2162E-03    -27.8137E-03     56.0256E-03    -28.2162E-03     10.4802E-03     22.3948E+06     5.53731E+06    -93.2040E+06     3.61337E+06    -74.4226E+06     5.53731E+06    -42.5538E+06         25.8859
            1745     9.72401E-03     93.0337E-03     565.481E-03    -335.355E-03    -515.697E-03    -333.097E-03     563.222E-03    -515.697E-03     56.0138E-03     56.3873E-03    -28.1086E-03    -28.2792E-03    -27.7780E-03     55.9182E-03    -28.1407E-03     12.4704E-03     22.8366E+06    -3.57178E+06    -95.5839E+06     1.50706E+06    -74.2543E+06    -3.57178E+06    -45.4680E+06         26.9273
            1746     10.6969E-03     93.0468E-03     488.602E-03    -273.259E-03    -497.085E-03    -270.800E-03     486.143E-03    -497.085E-03     51.5391E-03     56.4557E-03    -28.0573E-03    -28.4100E-03    -27.7786E-03     55.8243E-03    -28.0573E-03     14.5727E-03     21.3948E+06    -15.7958E+06    -95.3249E+06    -1.85967E+06    -72.0705E+06    -15.7958E+06    -46.5323E+06         28.3393
            1747     11.6696E-03     93.0601E-03     418.545E-03    -223.441E-03    -477.077E-03    -221.273E-03     416.377E-03    -477.077E-03     63.0226E-03     56.4761E-03    -27.9652E-03    -28.5302E-03    -27.7336E-03     55.6796E-03    -27.9652E-03     16.3333E-03     20.7964E+06    -29.7783E+06    -92.0220E+06    -5.35471E+06    -65.8709E+06    -29.7783E+06    -47.5443E+06         30.2171
            1748     12.6427E-03     93.0771E-03     329.937E-03    -153.435E-03    -455.858E-03    -151.586E-03     328.089E-03    -455.858E-03     41.5407E-03     56.8293E-03    -27.8524E-03    -28.9851E-03    -27.6074E-03     55.4516E-03    -27.8524E-03     21.2561E-03     20.6857E+06    -47.6281E+06    -85.3051E+06    -7.63378E+06    -56.9856E+06    -47.6281E+06    -46.8342E+06         32.7670
            1749     13.6159E-03     93.1011E-03     237.270E-03    -80.6911E-03    -433.003E-03    -78.3978E-03     234.977E-03    -433.003E-03     44.9327E-03     57.5141E-03    -27.6902E-03    -29.8289E-03    -27.3616E-03     55.0468E-03    -27.6902E-03     28.7096E-03     22.0783E+06    -56.4695E+06    -82.1946E+06    -9.25259E+06    -36.4168E+06    -70.9165E+06    -42.2647E+06         36.0693
            1750     14.5893E-03     93.1330E-03     158.269E-03    -24.8128E-03    -409.743E-03    -22.3352E-03     155.791E-03    -409.743E-03     24.3005E-03     61.4417E-03    -27.4503E-03    -33.9911E-03    -27.1409E-03     54.5914E-03    -27.4503E-03     47.4728E-03     48.5901E+06    -36.8455E+06    -95.4230E+06    -10.9042E+06     22.6488E+06    -95.4230E+06    -31.1910E+06         40.0902
            1751     15.5631E-03     93.1975E-03     110.035E-03     7.71059E-03    -387.802E-03     31.7699E-03     85.9761E-03    -387.802E-03     32.6229E-03     74.5416E-03    -27.4412E-03    -47.0858E-03    -27.2954E-03     54.7512E-03    -27.4412E-03     88.1142E-03     115.816E+06    -13.3065E+06    -63.0108E+06    -11.3814E+06     112.316E+06    -61.4358E+06    -14.7551E+06         44.4082
            1752     16.5388E-03     93.3160E-03     115.350E-03    -7.60265E-03    -366.367E-03     94.2915E-03     13.4557E-03    -366.367E-03    -5.16319E-03     75.3154E-03    -27.9279E-03    -47.3737E-03    -26.3529E-03     54.2945E-03    -27.9279E-03     91.4866E-03     186.763E+06     76.2772E+06    -12.2100E+06    -8.10038E+06     186.652E+06     72.2785E+06    -2.77081E+06         48.1637
            1753     972.154E-06     94.0391E-03         2.38994        -1.06280        -1.59989     32.2053E-03         1.08080        -1.38576        -1.36225     56.7718E-03    -28.2835E-03    -28.4882E-03    -28.4671E-03     56.7637E-03    -28.2964E-03     1.50506E-03     3.91928E+06     2.05768E+06    -96.6935E+06     2.85349E+06    -95.6278E+06     2.05768E+06    -9.35046E+06         24.1648
            1754     1.94445E-03     94.0414E-03         1.34307    -669.683E-03    -947.435E-03    -640.494E-03         1.03613    -669.683E-03     464.128E-03     56.7444E-03    -28.3453E-03    -28.3997E-03    -28.3514E-03     56.7216E-03    -28.3708E-03     2.73702E-03     6.50247E+06     3.89474E+06    -89.5474E+06     3.46685E+06    -86.7842E+06     4.16719E+06    -15.7195E+06         24.2022
            1755     2.91665E-03     94.0437E-03         1.13511    -659.523E-03    -750.456E-03    -641.308E-03         1.02596    -659.523E-03    -192.665E-03     56.6868E-03    -28.3153E-03    -28.3731E-03    -28.2679E-03     56.6394E-03    -28.3731E-03     3.94957E-03     12.3268E+06     9.09531E+06    -90.7011E+06     6.75897E+06    -85.4057E+06     9.36776E+06    -22.3755E+06         24.2621
            1756     3.88888E-03     94.0479E-03         1.05370    -650.831E-03    -683.831E-03    -641.705E-03         1.01581    -655.067E-03     192.240E-03     56.5568E-03    -28.2109E-03    -28.3456E-03    -28.1293E-03     56.4752E-03    -28.3456E-03     5.22275E-03     18.0357E+06     13.2679E+06    -90.6761E+06     9.95476E+06    -82.5952E+06     13.2679E+06    -28.4045E+06         24.3495
            1757     4.86150E-03     94.0527E-03         1.00747    -635.310E-03    -654.042E-03    -624.668E-03     993.845E-03    -651.052E-03     13.6485E-03     56.4155E-03    -28.1060E-03    -28.3086E-03    -27.9835E-03     56.2930E-03    -28.3086E-03     6.39842E-03     22.5701E+06     17.4999E+06    -89.8442E+06     12.3391E+06    -79.6132E+06     17.4999E+06    -32.3028E+06         24.4734
            1758     5.83411E-03     94.0587E-03     967.935E-03    -598.038E-03    -645.878E-03    -591.602E-03     959.956E-03    -644.335E-03     119.983E-03     56.3134E-03    -28.0455E-03    -28.2690E-03    -27.8793E-03     56.1472E-03    -28.2690E-03     7.46062E-03     26.4616E+06     22.0135E+06    -89.8297E+06     14.0277E+06    -77.3959E+06     22.0135E+06    -35.8527E+06         24.6416
            1759     6.80680E-03     94.0647E-03     905.788E-03    -544.271E-03    -633.694E-03    -541.164E-03     902.682E-03    -633.694E-03     50.8874E-03     56.2228E-03    -28.0090E-03    -28.2129E-03    -27.7841E-03     55.9979E-03    -28.2129E-03     8.65663E-03     29.3553E+06     22.6213E+06    -89.7028E+06     15.2984E+06    -75.6460E+06     22.6213E+06    -38.3664E+06         24.8563
            1760     7.77981E-03     94.0729E-03     831.099E-03    -479.802E-03    -618.668E-03    -476.783E-03     828.080E-03    -618.668E-03     107.741E-03     56.1460E-03    -27.9993E-03    -28.1439E-03    -27.6967E-03     55.8435E-03    -28.1439E-03     10.0463E-03     32.2786E+06     20.4294E+06    -85.6830E+06     16.8831E+06    -70.2875E+06     20.4294E+06    -39.6719E+06         25.1958
            1761     8.75260E-03     94.0814E-03     756.752E-03    -421.101E-03    -600.289E-03    -419.682E-03     755.333E-03    -600.289E-03     73.3246E-03     56.1458E-03    -28.0255E-03    -28.1141E-03    -27.6875E-03     55.7753E-03    -28.0815E-03     11.1318E-03     33.5990E+06     17.8541E+06    -82.9395E+06     16.9242E+06    -66.2647E+06     17.8541E+06    -40.7285E+06         25.8303
            1762     9.72549E-03     94.0911E-03     708.017E-03    -386.274E-03    -581.046E-03    -385.032E-03     706.775E-03    -581.046E-03     63.7026E-03     56.2651E-03    -28.0081E-03    -28.2545E-03    -27.7268E-03     55.7426E-03    -28.0133E-03     13.1477E-03     32.2343E+06     8.86026E+06    -85.5299E+06     14.2809E+06    -67.5765E+06     8.86026E+06    -42.2303E+06         26.8537
            1763     10.6983E-03     94.1035E-03     654.460E-03    -346.830E-03    -562.043E-03    -344.354E-03     651.984E-03    -562.043E-03     79.0358E-03     56.3850E-03    -27.9302E-03    -28.4668E-03    -27.7674E-03     55.6857E-03    -27.9302E-03     15.3229E-03     30.7856E+06    -4.89053E+06    -86.2255E+06     10.6409E+06    -66.0807E+06    -4.89053E+06    -44.0598E+06         28.2567
            1764     11.6712E-03     94.1178E-03     561.875E-03    -274.860E-03    -541.724E-03    -272.425E-03     559.440E-03    -541.724E-03     75.7002E-03     56.4874E-03    -27.8543E-03    -28.6483E-03    -27.7599E-03     55.5989E-03    -27.8543E-03     17.2402E-03     28.9402E+06    -18.7297E+06    -83.4353E+06     6.21444E+06    -60.7096E+06    -18.7297E+06    -44.9519E+06         30.1318
            1765     12.6439E-03     94.1336E-03     461.037E-03    -194.743E-03    -518.977E-03    -193.882E-03     460.176E-03    -518.977E-03     40.0950E-03     56.8090E-03    -27.7494E-03    -29.0658E-03    -27.6006E-03     55.3439E-03    -27.7494E-03     21.9781E-03     26.5856E+06    -38.4044E+06    -79.9853E+06     623.873E+03    -54.0235E+06    -38.4044E+06    -45.5674E+06         32.6851
            1766     13.6175E-03     94.1576E-03     378.039E-03    -133.368E-03    -494.845E-03    -132.266E-03     376.938E-03    -494.845E-03     46.2380E-03     57.6057E-03    -27.5898E-03    -30.0169E-03    -27.4468E-03     55.0356E-03    -27.5898E-03     29.3256E-03     25.7579E+06    -55.1399E+06    -78.8900E+06    -4.15072E+06    -39.0980E+06    -65.0233E+06    -43.6933E+06         36.0016
            1767     14.5910E-03     94.1898E-03     291.006E-03    -62.9304E-03    -470.353E-03    -62.5275E-03     290.603E-03    -470.353E-03     22.7971E-03     61.5346E-03    -27.3611E-03    -34.1702E-03    -27.2948E-03     54.6591E-03    -27.3611E-03     47.7539E-03     41.5014E+06    -40.7067E+06    -94.4599E+06    -8.21768E+06     9.01235E+06    -94.4599E+06    -34.2515E+06         40.0462
            1768     15.5654E-03     94.2528E-03     199.067E-03     12.5261E-03    -445.947E-03     16.1423E-03     195.451E-03    -445.947E-03     28.6558E-03     74.4816E-03    -27.3062E-03    -47.1719E-03    -27.2799E-03     54.5896E-03    -27.3062E-03     88.2264E-03     99.9562E+06    -16.7276E+06    -74.6804E+06    -10.8388E+06     94.0673E+06    -74.6804E+06    -18.1109E+06         44.3980
            1769     16.5402E-03     94.3718E-03     137.141E-03     58.0185E-03    -421.402E-03     79.1324E-03     116.027E-03    -421.402E-03     17.2145E-03     75.0156E-03    -27.7725E-03    -47.2142E-03    -26.1287E-03     53.9302E-03    -27.7725E-03     91.3473E-03     178.892E+06     72.5734E+06    -22.7517E+06    -8.37179E+06     178.595E+06     58.4903E+06    -4.91635E+06         48.1994
            1770     972.568E-06     95.0976E-03         2.33379        -1.07911        -1.48890    -132.080E-03         1.20693        -1.30907        -1.34449     56.4155E-03    -28.1163E-03    -28.2991E-03    -28.2807E-03     56.4070E-03    -28.1261E-03     1.59901E-03     21.1362E+06     19.2625E+06    -78.1148E+06     19.6847E+06    -76.9831E+06     19.5822E+06    -9.56749E+06         24.1316
            1771     1.94470E-03     95.0988E-03         1.43631    -721.423E-03    -952.216E-03    -724.030E-03         1.20812    -721.423E-03     418.984E-03     56.3691E-03    -28.1531E-03    -28.2165E-03    -28.1571E-03     56.3442E-03    -28.1876E-03     2.81989E-03     24.5245E+06     20.6894E+06    -73.1736E+06     21.0996E+06    -69.7488E+06     20.6894E+06    -17.5593E+06         24.1667
            1772     2.91723E-03     95.1017E-03         1.27767    -722.448E-03    -804.146E-03    -723.777E-03         1.19730    -722.448E-03    -160.231E-03     56.2754E-03    -28.1019E-03    -28.1736E-03    -28.0475E-03     56.2209E-03    -28.1736E-03     4.21372E-03     29.4682E+06     24.0169E+06    -75.4951E+06     22.8698E+06    -68.8967E+06     24.0169E+06    -25.2853E+06         24.2233
            1773     3.88988E-03     95.1052E-03         1.20563    -705.965E-03    -751.605E-03    -704.703E-03         1.17364    -720.874E-03     149.844E-03     56.1550E-03    -28.0049E-03    -28.1490E-03    -27.9106E-03     56.0606E-03    -28.1490E-03     5.59147E-03     34.4995E+06     28.7392E+06    -78.9616E+06     25.6562E+06    -70.1183E+06     28.7392E+06    -30.4093E+06         24.3073
            1774     4.86250E-03     95.1101E-03         1.12677    -664.014E-03    -713.052E-03    -652.232E-03         1.11498    -713.052E-03    -34.6747E-03     55.9607E-03    -27.8621E-03    -28.0977E-03    -27.7174E-03     55.8161E-03    -28.0977E-03     6.91317E-03     38.8101E+06     31.1955E+06    -79.6143E+06     28.3043E+06    -69.1085E+06     31.1955E+06    -33.6090E+06         24.4267
            1775     5.83560E-03     95.1154E-03         1.08642    -633.084E-03    -701.178E-03    -627.969E-03         1.08131    -701.178E-03     87.1240E-03     55.8360E-03    -27.7987E-03    -28.0381E-03    -27.5960E-03     55.6333E-03    -28.0381E-03     8.18934E-03     41.9706E+06     34.1408E+06    -79.3089E+06     30.0133E+06    -67.3516E+06     34.1408E+06    -36.1514E+06         24.5900
            1776     6.80856E-03     95.1222E-03         1.06406    -618.676E-03    -690.111E-03    -615.914E-03         1.06130    -690.111E-03     36.2280E-03     55.8082E-03    -27.8226E-03    -27.9816E-03    -27.5484E-03     55.5340E-03    -27.9816E-03     9.51145E-03     44.7905E+06     35.4549E+06    -80.6474E+06     31.3839E+06    -67.2408E+06     35.4549E+06    -38.7177E+06         24.8015
            1777     7.78150E-03     95.1294E-03     993.519E-03    -555.974E-03    -677.431E-03    -553.241E-03     990.786E-03    -677.431E-03     79.6727E-03     55.7566E-03    -27.8176E-03    -27.9292E-03    -27.4725E-03     55.3878E-03    -27.9055E-03     11.0259E-03     46.2919E+06     31.8341E+06    -78.5828E+06     31.7292E+06    -64.0200E+06     31.8341E+06    -40.0428E+06         25.1332
            1778     8.75488E-03     95.1386E-03     900.197E-03    -473.825E-03    -659.669E-03    -471.721E-03     898.092E-03    -659.669E-03     69.9801E-03     55.7915E-03    -27.8164E-03    -27.9746E-03    -27.4847E-03     55.3314E-03    -27.8463E-03     12.3360E-03     45.4888E+06     29.0858E+06    -76.1573E+06     31.0184E+06    -61.6868E+06     29.0858E+06    -39.3355E+06         25.7494
            1779     9.72782E-03     95.1476E-03     837.361E-03    -429.777E-03    -639.196E-03    -428.092E-03     835.676E-03    -639.196E-03     69.7275E-03     56.0071E-03    -27.7876E-03    -28.2318E-03    -27.5952E-03     55.3705E-03    -27.7876E-03     14.4739E-03     44.8154E+06     21.6643E+06    -75.8051E+06     29.7486E+06    -60.7384E+06     21.6643E+06    -39.8053E+06         26.7557
            1780     10.7009E-03     95.1606E-03     769.143E-03    -382.984E-03    -618.491E-03    -381.493E-03     767.651E-03    -618.491E-03     59.6588E-03     56.2242E-03    -27.7124E-03    -28.5280E-03    -27.6869E-03     55.3831E-03    -27.7124E-03     16.7625E-03     42.0129E+06     7.64532E+06    -77.1137E+06     25.9840E+06    -61.0848E+06     7.64532E+06    -40.4586E+06         28.1505
            1781     11.6739E-03     95.1743E-03     679.153E-03    -314.648E-03    -596.601E-03    -313.144E-03     677.649E-03    -596.601E-03     60.9660E-03     56.3664E-03    -27.6486E-03    -28.7399E-03    -27.7039E-03     55.3304E-03    -27.6486E-03     18.6130E-03     37.2086E+06    -6.58617E+06    -74.1806E+06     19.6158E+06    -56.5878E+06    -6.58617E+06    -40.3529E+06         30.0156
            1782     12.6472E-03     95.1909E-03     590.852E-03    -245.813E-03    -572.961E-03    -243.920E-03     588.959E-03    -572.961E-03     57.6523E-03     56.9344E-03    -27.5695E-03    -29.3747E-03    -27.7476E-03     55.3073E-03    -27.5695E-03     23.2344E-03     33.8158E+06    -25.0871E+06    -69.8225E+06     12.6386E+06    -48.6452E+06    -25.0871E+06    -41.5708E+06         32.5650
            1783     13.6199E-03     95.2140E-03     507.863E-03    -180.522E-03    -548.193E-03    -178.112E-03     505.453E-03    -548.193E-03     78.1494E-03     57.8642E-03    -27.4273E-03    -30.4323E-03    -27.6735E-03     55.1053E-03    -27.4273E-03     30.4946E-03     30.7492E+06    -48.0459E+06    -70.9826E+06     5.49194E+06    -38.8928E+06    -54.8785E+06    -41.5663E+06         35.9069
            1784     14.5932E-03     95.2464E-03     411.762E-03    -103.156E-03    -522.661E-03    -102.298E-03     410.904E-03    -522.661E-03     41.6155E-03     61.7552E-03    -27.2115E-03    -34.5397E-03    -27.4643E-03     54.6798E-03    -27.2115E-03     48.6574E-03     36.3233E+06    -40.5026E+06    -90.1482E+06    -1.28850E+06    -2.89081E+06    -90.1482E+06    -34.2753E+06         39.9912
            1785     15.5667E-03     95.3084E-03     303.791E-03    -12.2920E-03    -496.514E-03    -11.1772E-03     302.676E-03    -496.514E-03     34.1205E-03     74.8013E-03    -27.1246E-03    -47.7110E-03    -27.6140E-03     54.7043E-03    -27.1246E-03     89.0179E-03     85.7114E+06    -16.0113E+06    -84.2759E+06    -6.96829E+06     76.6684E+06    -84.2759E+06    -19.8745E+06         44.3848
            1786     16.5421E-03     95.4273E-03     197.858E-03     68.8437E-03    -469.306E-03     72.5310E-03     194.170E-03    -469.306E-03     31.2043E-03     74.8324E-03    -27.5696E-03    -47.2746E-03    -26.0573E-03     53.6151E-03    -27.5696E-03     91.5828E-03     169.530E+06     70.2660E+06    -32.6302E+06    -6.66407E+06     169.015E+06     44.8145E+06    -6.70615E+06         48.2388
            1787     972.436E-06     96.1544E-03         2.21362        -1.01277        -1.40927    -280.052E-03         1.32036        -1.24873        -1.14681     55.8089E-03    -27.7918E-03    -28.0172E-03    -27.9473E-03     55.7981E-03    -27.8509E-03     1.74630E-03     38.8076E+06     36.1714E+06    -58.0577E+06     37.0488E+06    -56.6186E+06     36.4912E+06    -10.5850E+06         24.0777
            1788     1.94546E-03     96.1566E-03         1.54800    -773.738E-03    -987.471E-03    -810.630E-03         1.37116    -773.738E-03     372.524E-03     55.6202E-03    -27.7624E-03    -27.8579E-03    -27.7300E-03     55.5878E-03    -27.8579E-03     3.18593E-03     42.2886E+06     37.2204E+06    -54.9641E+06     38.2077E+06    -50.8831E+06     37.2204E+06    -19.0927E+06         24.1084
            1789     2.91829E-03     96.1586E-03         1.41101    -778.131E-03    -855.401E-03    -789.828E-03         1.35138    -784.072E-03    -168.489E-03     55.5024E-03    -27.6965E-03    -27.8053E-03    -27.6268E-03     55.4327E-03    -27.8053E-03     4.72907E-03     45.5638E+06     38.7533E+06    -59.3517E+06     38.3465E+06    -52.1344E+06     38.7533E+06    -26.4015E+06         24.1585
            1790     3.89124E-03     96.1624E-03         1.32366    -747.347E-03    -798.630E-03    -742.702E-03         1.30088    -780.495E-03     115.252E-03     55.3310E-03    -27.5753E-03    -27.7558E-03    -27.4545E-03     55.2102E-03    -27.7558E-03     6.25801E-03     49.0533E+06     40.7865E+06    -66.5138E+06     39.2285E+06    -56.6890E+06     40.7865E+06    -32.1666E+06         24.2341
            1791     4.86459E-03     96.1665E-03         1.24588    -702.080E-03    -768.348E-03    -692.060E-03         1.23586    -768.348E-03    -28.6866E-03     55.1548E-03    -27.4684E-03    -27.6866E-03    -27.2805E-03     54.9669E-03    -27.6866E-03     7.79896E-03     52.6675E+06     41.5835E+06    -70.2917E+06     41.2062E+06    -58.8304E+06     41.5835E+06    -35.6836E+06         24.3451
            1792     5.83785E-03     96.1721E-03         1.20405    -673.338E-03    -753.881E-03    -668.929E-03         1.19964    -753.881E-03     112.521E-03     55.0173E-03    -27.4070E-03    -27.6115E-03    -27.1339E-03     54.7442E-03    -27.6115E-03     9.40067E-03     56.2824E+06     43.3289E+06    -70.6295E+06     43.7325E+06    -58.0796E+06     43.3289E+06    -37.8767E+06         24.5012
            1793     6.81147E-03     96.1781E-03         1.17292    -648.966E-03    -740.458E-03    -647.682E-03         1.17163    -740.458E-03     44.0514E-03     55.0203E-03    -27.4479E-03    -27.5711E-03    -27.0933E-03     54.6460E-03    -27.5513E-03     11.0109E-03     58.7261E+06     45.6180E+06    -72.3876E+06     45.4790E+06    -59.1404E+06     45.6180E+06    -39.4609E+06         24.7078
            1794     7.78507E-03     96.1858E-03         1.11535    -600.222E-03    -726.205E-03    -599.091E-03         1.11422    -726.205E-03     45.2889E-03     55.1060E-03    -27.4724E-03    -27.6281E-03    -27.1203E-03     54.6073E-03    -27.4815E-03     12.7302E-03     58.4820E+06     42.5899E+06    -72.2094E+06     45.3744E+06    -59.1017E+06     42.5899E+06    -39.1947E+06         25.0314
            1795     8.75838E-03     96.1943E-03         1.03714    -534.769E-03    -708.790E-03    -531.921E-03         1.03429    -708.790E-03     78.7838E-03     55.2163E-03    -27.4281E-03    -27.7901E-03    -27.1573E-03     54.5835E-03    -27.4281E-03     14.3640E-03     58.2322E+06     39.2613E+06    -70.2967E+06     44.8914E+06    -56.9559E+06     39.2613E+06    -39.1661E+06         25.6326
            1796     9.73206E-03     96.2046E-03     957.654E-03    -473.479E-03    -688.489E-03    -470.593E-03     954.768E-03    -688.489E-03     106.802E-03     55.5442E-03    -27.3838E-03    -28.1599E-03    -27.3092E-03     54.6936E-03    -27.3838E-03     16.6679E-03     56.3336E+06     33.2635E+06    -69.8840E+06     43.3604E+06    -56.9107E+06     33.2635E+06    -38.2094E+06         26.6262
            1797     10.7052E-03     96.2167E-03     871.275E-03    -411.624E-03    -666.466E-03    -410.521E-03     870.172E-03    -666.466E-03     63.5996E-03     55.9647E-03    -27.3336E-03    -28.6324E-03    -27.5453E-03     54.8775E-03    -27.3336E-03     18.9941E-03     51.4384E+06     20.9318E+06    -70.3014E+06     39.4512E+06    -58.3142E+06     20.9318E+06    -36.1424E+06         28.0151
            1798     11.6784E-03     96.2314E-03     782.594E-03    -345.602E-03    -642.990E-03    -344.693E-03     781.685E-03    -642.990E-03     49.1419E-03     56.3193E-03    -27.2954E-03    -29.0423E-03    -27.7466E-03     55.0236E-03    -27.2954E-03     20.8028E-03     47.2136E+06     7.14957E+06    -65.5906E+06     34.2485E+06    -52.6255E+06     7.14957E+06    -35.6512E+06         29.8630
            1799     12.6511E-03     96.2471E-03     700.793E-03    -281.806E-03    -618.258E-03    -279.874E-03     698.861E-03    -618.258E-03     60.4199E-03     57.0770E-03    -27.2533E-03    -29.8331E-03    -27.8915E-03     55.1354E-03    -27.2533E-03     25.4207E-03     42.3238E+06    -10.0882E+06    -59.1944E+06     27.0247E+06    -43.8953E+06    -10.0882E+06    -35.8899E+06         32.4071
            1800     13.6242E-03     96.2716E-03     609.015E-03    -211.629E-03    -592.483E-03    -209.270E-03     606.655E-03    -592.483E-03     82.1760E-03     58.1308E-03    -27.1550E-03    -30.9706E-03    -27.8825E-03     55.0427E-03    -27.1550E-03     32.4102E-03     34.6146E+06    -37.0854E+06    -58.9340E+06     16.9048E+06    -37.4536E+06    -40.8561E+06    -35.3835E+06         35.7965
            1801     14.5974E-03     96.3018E-03     503.712E-03    -126.989E-03    -565.524E-03    -125.943E-03     502.666E-03    -565.524E-03     50.2585E-03     62.3124E-03    -26.9823E-03    -35.3265E-03    -27.8750E-03     54.8609E-03    -26.9823E-03     50.3322E-03     31.6373E+06    -37.5580E+06    -79.4971E+06     5.43282E+06    -11.3535E+06    -79.4971E+06    -30.6527E+06         39.9386
            1802     15.5717E-03     96.3651E-03     404.152E-03    -42.5002E-03    -537.712E-03    -40.2803E-03     401.932E-03    -537.712E-03     58.9034E-03     75.2569E-03    -26.8620E-03    -48.4271E-03    -27.9603E-03     54.7901E-03    -26.8620E-03     90.2663E-03     73.4361E+06    -14.3882E+06    -88.0826E+06    -3.21436E+06     62.2623E+06    -88.0826E+06    -19.3199E+06         44.3821
            1803     16.5454E-03     96.4822E-03     294.368E-03     43.6792E-03    -508.858E-03     46.0908E-03     291.956E-03    -508.858E-03     43.3069E-03     74.7346E-03    -27.2794E-03    -47.4842E-03    -26.0721E-03     53.3224E-03    -27.2794E-03     91.9873E-03     159.401E+06     67.5742E+06    -41.4113E+06    -5.26221E+06     158.778E+06     32.0483E+06    -7.07949E+06         48.3019
            1804     973.255E-06     97.2114E-03         2.13525    -973.897E-03        -1.36397    -400.521E-03         1.42500        -1.22709    -977.406E-03     54.5517E-03    -27.1885E-03    -27.3632E-03    -27.2992E-03     54.5369E-03    -27.2377E-03     1.92635E-03     56.4677E+06     52.8025E+06    -36.8251E+06     54.7155E+06    -35.0730E+06     52.8025E+06    -11.8663E+06         23.9804
            1805     1.94662E-03     97.2124E-03         1.62873    -824.301E-03        -1.00400    -865.798E-03         1.49053    -824.301E-03     386.370E-03     54.3562E-03    -27.1223E-03    -27.2334E-03    -27.0886E-03     54.3094E-03    -27.2202E-03     3.79374E-03     58.0643E+06     52.3084E+06    -35.8559E+06     53.5712E+06    -31.3628E+06     52.3084E+06    -19.7369E+06         24.0075
            1806     2.92015E-03     97.2152E-03         1.50174    -820.662E-03    -875.937E-03    -823.219E-03         1.46148    -833.115E-03    -134.464E-03     54.1945E-03    -27.0328E-03    -27.1610E-03    -26.9363E-03     54.0980E-03    -27.1610E-03     5.50014E-03     61.6113E+06     53.7156E+06    -42.8904E+06     54.1048E+06    -35.3838E+06     53.7156E+06    -26.9232E+06         24.0515
            1807     3.89397E-03     97.2181E-03         1.40532    -777.427E-03    -823.808E-03    -761.766E-03         1.38966    -823.808E-03     111.447E-03     53.9989E-03    -26.9068E-03    -27.0915E-03    -26.7371E-03     53.8292E-03    -27.0915E-03     7.30683E-03     64.5157E+06     54.4173E+06    -51.9562E+06     54.4621E+06    -41.9026E+06     54.4173E+06    -32.6552E+06         24.1175
            1808     4.86775E-03     97.2223E-03         1.36382    -749.770E-03    -809.486E-03    -742.558E-03         1.35660    -809.486E-03     3.98625E-03     53.8135E-03    -26.8148E-03    -26.9989E-03    -26.5428E-03     53.5415E-03    -26.9989E-03     9.23847E-03     66.9084E+06     52.5921E+06    -59.7694E+06     54.6132E+06    -47.4742E+06     52.5921E+06    -37.4514E+06         24.2164
            1809     5.84195E-03     97.2271E-03         1.32059    -716.308E-03    -796.011E-03    -712.647E-03         1.31693    -796.011E-03     130.456E-03     53.7036E-03    -26.7822E-03    -26.9235E-03    -26.4014E-03     53.2982E-03    -26.8988E-03     11.2764E-03     69.1344E+06     50.2091E+06    -62.4729E+06     55.4321E+06    -48.7706E+06     50.2091E+06    -40.1858E+06         24.3607
            1810     6.81619E-03     97.2337E-03         1.25404    -662.631E-03    -780.717E-03    -661.090E-03         1.25250    -780.717E-03     82.0733E-03     53.7564E-03    -26.7942E-03    -26.9660E-03    -26.3632E-03     53.1913E-03    -26.8319E-03     13.3242E-03     69.0202E+06     51.2542E+06    -66.6704E+06     55.7992E+06    -53.4494E+06     51.2542E+06    -40.1889E+06         24.5581
            1811     7.79033E-03     97.2410E-03         1.20984    -633.605E-03    -764.144E-03    -632.077E-03         1.20832    -764.144E-03     71.9643E-03     53.9770E-03    -26.7666E-03    -27.2104E-03    -26.4537E-03     53.2203E-03    -26.7666E-03     15.4428E-03     67.9140E+06     49.2192E+06    -67.3875E+06     55.5798E+06    -55.0533E+06     49.2192E+06    -38.9400E+06         24.8743
            1812     8.76454E-03     97.2497E-03         1.14273    -586.122E-03    -747.115E-03    -584.306E-03         1.14092    -747.115E-03     63.7449E-03     54.3040E-03    -26.7197E-03    -27.5791E-03    -26.6230E-03     53.3479E-03    -26.7197E-03     17.4471E-03     65.8807E+06     45.6872E+06    -64.1327E+06     53.6871E+06    -51.9391E+06     45.6872E+06    -37.8617E+06         25.4699
            1813     9.73836E-03     97.2596E-03         1.04497    -508.059E-03    -727.344E-03    -506.016E-03         1.04293    -727.344E-03     93.2043E-03     54.8666E-03    -26.7041E-03    -28.1525E-03    -26.8958E-03     53.6099E-03    -26.7041E-03     20.0805E-03     61.3492E+06     39.9589E+06    -67.1372E+06     50.2978E+06    -56.0858E+06     39.9589E+06    -35.9368E+06         26.4610
            1814     10.7121E-03     97.2728E-03     962.404E-03    -442.048E-03    -704.714E-03    -441.094E-03     961.449E-03    -704.714E-03     69.9010E-03     55.5640E-03    -26.6901E-03    -28.8761E-03    -27.3169E-03     54.0048E-03    -26.6901E-03     22.5997E-03     56.9324E+06     28.3930E+06    -66.6458E+06     47.0987E+06    -56.8120E+06     28.3930E+06    -33.4155E+06         27.8487
            1815     11.6853E-03     97.2871E-03     885.759E-03    -382.314E-03    -680.752E-03    -381.551E-03     884.996E-03    -680.752E-03     54.4321E-03     56.2927E-03    -26.7084E-03    -29.6048E-03    -27.7987E-03     54.4866E-03    -26.7084E-03     24.5225E-03     53.1260E+06     17.4464E+06    -59.4680E+06     42.9932E+06    -49.3351E+06     17.4464E+06    -32.1451E+06         29.6909
            1816     12.6582E-03     97.3042E-03     790.308E-03    -308.097E-03    -655.480E-03    -307.023E-03     789.235E-03    -655.480E-03     56.0808E-03     57.3577E-03    -26.7380E-03    -30.6302E-03    -28.1690E-03     54.8964E-03    -26.7380E-03     28.8157E-03     47.0641E+06     2.99420E+06    -53.0711E+06     36.8664E+06    -42.8734E+06     2.99420E+06    -30.0221E+06         32.2529
            1817     13.6311E-03     97.3273E-03     684.330E-03    -224.653E-03    -628.379E-03    -223.222E-03     682.899E-03    -628.379E-03     70.9347E-03     58.6630E-03    -26.7199E-03    -31.9382E-03    -28.3926E-03     55.1174E-03    -26.7199E-03     35.0146E-03     35.6320E+06    -24.3235E+06    -48.8552E+06     26.1463E+06    -38.3044E+06    -25.3886E+06    -25.6372E+06         35.7080
            1818     14.6037E-03     97.3591E-03     579.669E-03    -139.693E-03    -599.672E-03    -138.834E-03     578.810E-03    -599.672E-03     47.2645E-03     63.1137E-03    -26.6303E-03    -36.4787E-03    -28.5897E-03     55.2247E-03    -26.6303E-03     52.4024E-03     27.2791E+06    -28.8545E+06    -65.1005E+06     11.3650E+06    -14.3509E+06    -63.6900E+06    -21.9685E+06         39.9158
            1819     15.5757E-03     97.4213E-03     479.408E-03    -61.0563E-03    -570.260E-03    -59.3351E-03     477.686E-03    -570.260E-03     50.3859E-03     75.5676E-03    -26.5079E-03    -49.0595E-03    -28.3787E-03     54.8868E-03    -26.5079E-03     91.1310E-03     62.2799E+06    -11.0514E+06    -86.5968E+06    -819.911E+03     52.0483E+06    -86.5968E+06    -16.0817E+06         44.4210
            1820     16.5519E-03     97.5369E-03     379.336E-03     12.5683E-03    -540.376E-03     14.4264E-03     377.478E-03    -540.376E-03     19.5785E-03     74.5450E-03    -26.9079E-03    -47.6368E-03    -26.2063E-03     53.1145E-03    -26.9079E-03     92.0114E-03     148.979E+06     64.1535E+06    -47.1161E+06    -4.70308E+06     148.341E+06     22.3786E+06    -6.69837E+06         48.4285
            1821     974.398E-06     98.2662E-03         2.09581    -990.468E-03        -1.29628    -548.399E-03         1.56934        -1.21188    -838.562E-03     52.4181E-03    -26.1616E-03    -26.2563E-03    -26.2163E-03     52.3980E-03    -26.1814E-03     2.19377E-03     67.4030E+06     64.4644E+06    -14.7220E+06     65.1743E+06    -12.5798E+06     64.5509E+06    -12.3630E+06         23.8171
            1822     1.94863E-03     98.2676E-03         1.64524    -859.742E-03    -969.826E-03    -845.489E-03         1.53442    -873.259E-03     363.298E-03     52.2654E-03    -26.0888E-03    -26.1760E-03    -26.0337E-03     52.1970E-03    -26.1628E-03     4.46870E-03     70.3983E+06     64.4155E+06    -16.8254E+06     65.2265E+06    -11.6535E+06     64.4155E+06    -20.2042E+06         23.8394
            1823     2.92322E-03     98.2692E-03         1.53118    -838.102E-03    -872.097E-03    -821.334E-03         1.50224    -859.927E-03    -130.292E-03     52.0548E-03    -25.9687E-03    -26.0861E-03    -25.8201E-03     51.9061E-03    -26.0861E-03     6.64870E-03     73.2756E+06     62.9069E+06    -26.7931E+06     64.8752E+06    -18.3926E+06     62.9069E+06    -27.5850E+06         23.8763
            1824     3.89789E-03     98.2724E-03         1.49504    -819.315E-03    -848.731E-03    -810.261E-03         1.48599    -848.731E-03     108.451E-03     51.8614E-03    -25.8694E-03    -25.9913E-03    -25.6052E-03     51.5973E-03    -25.9913E-03     8.88593E-03     75.4015E+06     60.8658E+06    -38.4205E+06     64.6843E+06    -27.7033E+06     60.8658E+06    -33.1219E+06         23.9336
            1825     4.87309E-03     98.2760E-03         1.46309    -792.371E-03    -838.916E-03    -788.102E-03         1.45882    -838.916E-03     34.2957E-03     51.6982E-03    -25.7864E-03    -25.9113E-03    -25.3946E-03     51.2725E-03    -25.8775E-03     11.2860E-03     77.2424E+06     57.2864E+06    -47.1706E+06     64.2289E+06    -34.1571E+06     57.2864E+06    -37.9681E+06         24.0216
            1826     5.84830E-03     98.2808E-03         1.40406    -743.970E-03    -826.796E-03    -741.009E-03         1.40110    -826.796E-03     96.2622E-03     51.6438E-03    -25.7277E-03    -25.9166E-03    -25.2444E-03     51.0039E-03    -25.7600E-03     13.8474E-03     75.9373E+06     51.1225E+06    -54.6573E+06     61.8740E+06    -40.5940E+06     51.1225E+06    -40.4570E+06         24.1525
            1827     6.82359E-03     98.2867E-03         1.32519    -683.712E-03    -810.617E-03    -682.155E-03         1.32363    -810.617E-03     59.0985E-03     51.8140E-03    -25.6791E-03    -26.1337E-03    -25.2224E-03     50.9028E-03    -25.6791E-03     16.5500E-03     72.7786E+06     48.7673E+06    -61.5588E+06     59.3587E+06    -48.1388E+06     48.7673E+06    -40.2458E+06         24.3362
            1828     7.79905E-03     98.2944E-03         1.27276    -651.934E-03    -792.725E-03    -650.370E-03         1.27120    -792.725E-03     80.3251E-03     52.2468E-03    -25.6225E-03    -26.6218E-03    -25.3979E-03     51.0228E-03    -25.6225E-03     19.2926E-03     69.4565E+06     46.7548E+06    -64.2402E+06     57.2160E+06    -51.9997E+06     46.7548E+06    -38.4901E+06         24.6500
            1829     8.77401E-03     98.3034E-03         1.22309    -617.323E-03    -775.195E-03    -616.127E-03         1.22190    -775.195E-03     62.5066E-03     52.8600E-03    -25.5924E-03    -27.2677E-03    -25.7319E-03     51.3241E-03    -25.5924E-03     21.7688E-03     64.5253E+06     43.0996E+06    -60.6600E+06     53.8696E+06    -50.0043E+06     43.0996E+06    -34.9049E+06         25.2587
            1830     9.74874E-03     98.3138E-03         1.13914    -547.628E-03    -756.116E-03    -546.316E-03         1.13783    -756.116E-03     83.7040E-03     53.8528E-03    -25.6197E-03    -28.2325E-03    -26.2493E-03     51.8696E-03    -25.6197E-03     24.9590E-03     59.2522E+06     39.2252E+06    -63.8267E+06     49.7311E+06    -54.3056E+06     39.2252E+06    -32.8400E+06         26.2633
            1831     10.7228E-03     98.3274E-03         1.04297    -466.706E-03    -733.765E-03    -465.608E-03         1.04187    -733.765E-03     75.8572E-03     55.0575E-03    -25.6581E-03    -29.3968E-03    -26.9974E-03     52.6581E-03    -25.6581E-03     27.8817E-03     52.9326E+06     26.4743E+06    -65.5926E+06     44.6068E+06    -57.2668E+06     26.4743E+06    -30.2674E+06         27.6554
            1832     11.6963E-03     98.3427E-03     960.797E-03    -403.994E-03    -709.215E-03    -402.993E-03     959.797E-03    -709.215E-03     67.5180E-03     56.2250E-03    -25.7564E-03    -30.4786E-03    -27.8039E-03     53.5504E-03    -25.7564E-03     29.8212E-03     46.0565E+06     17.3799E+06    -55.1117E+06     37.7960E+06    -46.8513E+06     17.3799E+06    -27.5685E+06         29.5133
            1833     12.6688E-03     98.3601E-03     866.943E-03    -330.425E-03    -683.320E-03    -329.427E-03     865.945E-03    -683.320E-03     61.4924E-03     57.9361E-03    -25.9049E-03    -32.0405E-03    -28.6857E-03     54.5813E-03    -25.9049E-03     33.8869E-03     37.5865E+06     5.57704E+06    -52.7165E+06     30.1167E+06    -45.2467E+06     5.57704E+06    -24.7508E+06         32.1328
            1834     13.6405E-03     98.3848E-03     759.051E-03    -242.706E-03    -655.536E-03    -241.445E-03     757.790E-03    -655.536E-03     69.4061E-03     59.8975E-03    -26.0305E-03    -33.8622E-03    -29.4692E-03     55.5044E-03    -26.0305E-03     39.4922E-03     27.4614E+06    -17.7747E+06    -48.1549E+06     22.8811E+06    -43.5746E+06    -17.7747E+06    -17.9566E+06         35.6779
            1835     14.6120E-03     98.4162E-03     654.607E-03    -162.709E-03    -626.197E-03    -162.242E-03     654.140E-03    -626.197E-03     28.1243E-03     64.3307E-03    -26.0968E-03    -38.2287E-03    -29.6210E-03     55.7230E-03    -26.0968E-03     55.6737E-03     20.9092E+06    -16.2498E+06    -51.1078E+06     14.2920E+06    -15.0767E+06    -45.6638E+06    -12.3815E+06         39.9691
            1836     15.5851E-03     98.4789E-03     547.451E-03    -83.5302E-03    -596.262E-03    -83.3231E-03     547.244E-03    -596.262E-03     13.1526E-03     76.3463E-03    -26.0727E-03    -50.2742E-03    -29.2478E-03     55.3199E-03    -26.0727E-03     92.8018E-03     54.0251E+06    -3.27478E+06    -69.5595E+06     3.21256E+06     47.5378E+06    -69.5595E+06    -9.35693E+06         44.5626
            1837     16.5578E-03     98.5908E-03     447.164E-03    -6.86782E-03    -565.711E-03    -6.22529E-03     446.522E-03    -565.711E-03    -1.48350E-03     74.8679E-03    -26.4979E-03    -48.3922E-03    -26.9749E-03     53.4505E-03    -26.4979E-03     92.4813E-03     141.293E+06     64.5635E+06    -40.4283E+06    -3.18583E+06     140.921E+06     27.6927E+06    -4.80356E+06         48.6855
            1838     975.596E-06     99.3185E-03         1.99824    -968.554E-03        -1.20857    -681.249E-03         1.65480        -1.15243    -663.045E-03     49.2928E-03    -24.5167E-03    -24.7756E-03    -24.7159E-03     49.2616E-03    -24.5451E-03     2.74962E-03     78.5354E+06     75.1227E+06     7.53452E+06     75.2968E+06     9.80725E+06     76.0886E+06    -11.3431E+06         23.5733
            1839     1.95171E-03     99.3194E-03         1.66528    -877.126E-03    -960.754E-03    -855.506E-03         1.58752    -904.620E-03     274.492E-03     49.0689E-03    -24.4969E-03    -24.5717E-03    -24.3929E-03     48.9648E-03    -24.5717E-03     5.30855E-03     80.3675E+06     72.2713E+06     2.49226E+06     74.6093E+06     8.25046E+06     72.2713E+06    -20.1868E+06         23.5912
            1840     2.92783E-03     99.3212E-03         1.54968    -836.269E-03    -881.037E-03    -813.034E-03         1.52644    -881.037E-03    -131.040E-03     48.8483E-03    -24.3880E-03    -24.4594E-03    -24.1581E-03     48.6175E-03    -24.4586E-03     8.02822E-03     81.6362E+06     67.0642E+06    -10.4966E+06     72.5761E+06    -1.43642E+06     67.0642E+06    -27.4124E+06         23.6221
            1841     3.90439E-03     99.3233E-03         1.54233    -835.621E-03    -865.306E-03    -829.844E-03         1.53655    -865.306E-03     106.750E-03     48.6906E-03    -24.2999E-03    -24.3892E-03    -23.9389E-03     48.2728E-03    -24.3324E-03     10.8309E-03     82.1737E+06     60.4829E+06    -24.9790E+06     70.1952E+06    -13.0006E+06     60.4829E+06    -33.7385E+06         23.6717
            1842     4.88086E-03     99.3268E-03         1.51825    -815.078E-03    -856.432E-03    -811.664E-03         1.51484    -856.432E-03     63.4648E-03     48.6136E-03    -24.1960E-03    -24.4126E-03    -23.7228E-03     47.9321E-03    -24.2043E-03     13.8238E-03     81.1658E+06     54.3892E+06    -35.8135E+06     67.3810E+06    -22.0287E+06     54.3892E+06    -37.7091E+06         23.7518
            1843     5.85770E-03     99.3312E-03         1.46990    -775.037E-03    -845.855E-03    -772.102E-03         1.46697    -845.855E-03     94.4352E-03     48.7045E-03    -24.0923E-03    -24.6066E-03    -23.5802E-03     47.6780E-03    -24.0923E-03     16.9967E-03     76.5665E+06     48.4612E+06    -47.1511E+06     63.2597E+06    -33.8443E+06     48.4612E+06    -38.2796E+06         23.8730
            1844     6.83479E-03     99.3371E-03         1.40107    -722.192E-03    -831.876E-03    -721.080E-03         1.39996    -831.876E-03     42.6159E-03     49.0948E-03    -24.0007E-03    -25.0945E-03    -23.6268E-03     47.6271E-03    -24.0007E-03     20.4112E-03     69.7883E+06     42.0207E+06    -55.1639E+06     57.2593E+06    -42.6349E+06     42.0207E+06    -37.5252E+06         24.0472
            1845     7.81146E-03     99.3449E-03         1.31470    -654.043E-03    -814.018E-03    -652.951E-03         1.31360    -814.018E-03     69.9658E-03     49.8429E-03    -23.9636E-03    -25.8783E-03    -23.9117E-03     47.8764E-03    -23.9636E-03     23.8376E-03     62.1665E+06     38.0010E+06    -61.6577E+06     50.9023E+06    -50.3936E+06     38.0010E+06    -35.5186E+06         24.3697
            1846     8.78795E-03     99.3543E-03         1.25339    -612.927E-03    -793.959E-03    -611.441E-03         1.25191    -793.959E-03     78.9137E-03     50.8684E-03    -23.9633E-03    -26.9056E-03    -24.4455E-03     48.4083E-03    -23.9633E-03     26.9774E-03     54.2672E+06     32.9505E+06    -60.2804E+06     45.0585E+06    -51.0717E+06     32.9505E+06    -31.1401E+06         25.0106
            1847     9.76378E-03     99.3653E-03         1.20571    -575.988E-03    -774.010E-03    -574.423E-03         1.20415    -774.010E-03     91.1274E-03     52.4461E-03    -24.0560E-03    -28.3938E-03    -25.3052E-03     49.3575E-03    -24.0560E-03     30.7452E-03     46.2095E+06     30.6237E+06    -60.2138E+06      37.962E+06    -52.7239E+06     31.3813E+06    -27.0125E+06         26.0444
            1848     10.7387E-03     99.3803E-03         1.11783    -499.249E-03    -752.675E-03    -497.955E-03         1.11654    -752.675E-03     78.8820E-03     54.3834E-03    -24.1934E-03    -30.1871E-03    -26.5396E-03     50.7359E-03    -24.1934E-03     34.1697E-03     36.8377E+06     19.8860E+06    -64.6793E+06     29.8036E+06    -58.4029E+06     20.6435E+06    -24.3307E+06         27.4469
            1849     11.7121E-03     99.3968E-03         1.01321    -411.244E-03    -728.137E-03    -409.975E-03         1.01194    -728.137E-03     77.5129E-03     56.2131E-03    -24.4031E-03    -31.8114E-03    -27.8789E-03     52.2806E-03    -24.4031E-03     36.2140E-03     28.9949E+06     11.2267E+06    -52.4843E+06     22.0153E+06    -46.5960E+06     12.3180E+06    -20.8644E+06         29.3338
            1850     12.6846E-03     99.4159E-03     922.856E-03    -341.062E-03    -701.367E-03    -340.137E-03     921.930E-03    -701.367E-03     62.2049E-03     58.7020E-03    -24.7034E-03    -34.0110E-03    -29.3631E-03     54.0540E-03    -24.7034E-03     40.3050E-03     20.6450E+06     2.14178E+06    -51.8638E+06     14.3760E+06    -46.6861E+06     3.23304E+06    -18.4107E+06         32.0458
            1851     13.6555E-03     99.4423E-03     830.242E-03    -274.786E-03    -673.678E-03    -273.719E-03     829.174E-03    -673.678E-03     66.9683E-03     61.4620E-03    -24.9952E-03    -36.4756E-03    -30.8375E-03     55.8239E-03    -24.9952E-03     45.5534E-03     11.0279E+06    -20.9316E+06    -54.1010E+06     7.76186E+06    -50.8350E+06    -20.9316E+06    -14.0685E+06         35.7223
            1852     14.6250E-03     99.4749E-03     721.950E-03    -191.927E-03    -644.976E-03    -191.621E-03     721.643E-03    -644.976E-03     22.0375E-03     66.1933E-03    -25.2974E-03    -40.8956E-03    -31.5006E-03     56.7983E-03    -25.2974E-03     59.7493E-03     10.0735E+06    -18.6262E+06    -44.1440E+06     1.37222E+06    -18.0679E+06    -36.0011E+06    -6.49802E+06         40.1435
            1853     15.5953E-03     99.5352E-03     610.873E-03    -107.006E-03    -615.065E-03    -106.736E-03     610.603E-03    -615.065E-03     13.9857E-03     77.5356E-03    -25.5076E-03    -52.0282E-03    -31.0706E-03     56.5780E-03    -25.5076E-03     94.0818E-03     50.5580E+06    -7.15314E+06    -45.4726E+06    -5.04834E+06     48.4532E+06    -45.4726E+06    -4.25406E+06         44.8801
            1854     16.5691E-03     99.6480E-03     498.122E-03    -16.5515E-03    -583.754E-03    -16.2749E-03     497.845E-03    -583.754E-03     20.2030E-03     75.3361E-03    -26.0352E-03    -49.3382E-03    -28.6551E-03     54.6529E-03    -26.0352E-03     91.6316E-03     137.156E+06     63.4548E+06    -27.3730E+06    -6.24741E+06     136.975E+06     42.5102E+06    -3.98528E+06         49.1559
            1855     978.047E-06     100.367E-03         1.87663    -902.191E-03        -1.13349    -727.239E-03         1.66220        -1.09401    -527.630E-03     44.8576E-03    -22.3106E-03    -22.5469E-03    -22.4897E-03     44.8090E-03    -22.3192E-03     3.32473E-03     89.4119E+06     83.3076E+06     28.2439E+06     86.1554E+06     30.6210E+06     84.1869E+06    -9.69369E+06         23.2398
            1856     1.95590E-03     100.368E-03         1.69135    -893.464E-03    -954.029E-03    -894.593E-03         1.64589    -907.441E-03     192.102E-03     44.7067E-03    -22.3017E-03    -22.4059E-03    -22.2154E-03     44.5457E-03    -22.3312E-03     6.29195E-03     88.3280E+06     76.0760E+06     21.9960E+06     82.1694E+06     28.1546E+06     76.0760E+06    -19.0134E+06         23.2545
            1857     2.93433E-03     100.369E-03         1.60936    -857.877E-03    -903.678E-03    -850.610E-03         1.59498    -896.571E-03    -103.938E-03     44.5198E-03    -22.1991E-03    -22.3212E-03    -21.9436E-03     44.1631E-03    -22.2199E-03     9.50606E-03     87.4659E+06     67.6276E+06     5.50292E+06     77.6556E+06     15.3132E+06     67.6276E+06    -26.3603E+06         23.2811
            1858     3.91281E-03     100.371E-03         1.55882    -822.870E-03    -881.134E-03    -818.771E-03         1.55472    -881.134E-03     78.5816E-03     44.4077E-03    -22.0769E-03    -22.3301E-03    -21.6775E-03     43.7551E-03    -22.0769E-03     12.8753E-03     84.6824E+06     57.0878E+06    -10.9942E+06     72.0127E+06     1.67545E+06     57.0878E+06    -32.2745E+06         23.3254
            1859     4.89176E-03     100.374E-03         1.53028    -802.486E-03    -866.697E-03    -800.041E-03         1.52783    -866.697E-03     37.3716E-03     44.4669E-03    -21.9298E-03    -22.5336E-03    -21.4687E-03     43.4021E-03    -21.9298E-03     16.5046E-03     77.1512E+06     45.0107E+06    -26.4222E+06     64.0133E+06    -13.2842E+06     45.0107E+06    -34.4339E+06         23.4016
            1860     5.87084E-03     100.378E-03         1.50220    -782.723E-03    -853.950E-03    -780.773E-03         1.50025    -853.950E-03     93.0004E-03     44.8491E-03    -21.8149E-03    -23.0318E-03    -21.4292E-03     43.2465E-03    -21.8149E-03     20.3454E-03     66.0652E+06     34.5384E+06    -40.6115E+06     54.3652E+06    -28.9115E+06     34.5384E+06    -33.2775E+06         23.5214
            1861     6.84967E-03     100.384E-03         1.44821    -741.025E-03    -840.686E-03    -740.230E-03         1.44741    -840.686E-03     61.3581E-03     45.5994E-03    -21.7384E-03    -23.8692E-03    -21.5930E-03     43.3231E-03    -21.7384E-03     24.4597E-03     53.1805E+06     24.5863E+06    -49.6516E+06     43.3202E+06    -39.7913E+06     24.5863E+06    -30.2534E+06         23.7026
            1862     7.82849E-03     100.392E-03         1.37097    -683.042E-03    -824.629E-03    -682.137E-03         1.37007    -824.629E-03     70.0068E-03     46.7873E-03    -21.7370E-03    -25.0567E-03    -22.0380E-03     43.7686E-03    -21.7370E-03     28.5806E-03     39.4493E+06     18.3946E+06    -57.7263E+06     31.0355E+06    -49.3124E+06     18.3946E+06    -27.2902E+06         24.0567
            1863     8.80664E-03     100.402E-03         1.28840    -621.488E-03    -805.528E-03    -620.551E-03         1.28746    -805.528E-03     67.5739E-03     48.4346E-03    -21.8107E-03    -26.6241E-03    -22.9066E-03     44.7171E-03    -21.8107E-03     32.3581E-03     26.6849E+06     13.2996E+06    -60.4757E+06     19.2454E+06    -53.5635E+06     13.8270E+06    -23.4730E+06         24.7472
            1864     9.78370E-03     100.414E-03         1.21774    -565.531E-03    -784.411E-03    -564.743E-03         1.21696    -784.411E-03     62.7887E-03     50.7634E-03    -22.0082E-03    -28.7525E-03    -24.2257E-03     46.2366E-03    -22.0082E-03     36.6475E-03     20.5540E+06     9.75645E+06    -58.7501E+06     10.0200E+06    -53.4244E+06     14.9648E+06    -19.0496E+06         25.8216
            1865     10.7593E-03     100.431E-03         1.15024    -509.263E-03    -762.075E-03    -508.436E-03         1.14942    -762.075E-03     58.9800E-03     53.5362E-03    -22.3006E-03    -31.2308E-03    -26.0533E-03     48.3587E-03    -22.3006E-03     40.4614E-03     15.8804E+06     2.54265E+06    -62.9243E+06     2.86180E+06    -58.6701E+06     11.3070E+06    -16.6343E+06         27.2429
            1866     11.7331E-03     100.450E-03         1.05773    -428.750E-03    -737.850E-03    -427.868E-03         1.05685    -737.850E-03     58.7397E-03     56.2019E-03    -22.6760E-03    -33.5255E-03    -28.1481E-03     50.8246E-03    -22.6760E-03     42.4979E-03     10.0707E+06    -2.87572E+06    -52.8345E+06    -3.14970E+06    -47.9871E+06     5.49740E+06    -14.5543E+06         29.1668
            1867     12.7046E-03     100.471E-03     952.866E-03    -345.933E-03    -711.164E-03    -345.184E-03     952.116E-03    -711.164E-03     50.2785E-03     59.5648E-03    -23.1765E-03    -36.3952E-03    -30.4047E-03     53.5742E-03    -23.1765E-03     46.3541E-03     4.97081E+06    -6.41324E+06    -50.4008E+06    -6.78233E+06    -45.4506E+06     389.669E+03    -13.8800E+06         31.9811
            1868     13.6743E-03     100.501E-03     859.444E-03    -281.327E-03    -683.081E-03    -280.128E-03     858.246E-03    -683.081E-03     73.2553E-03     62.9967E-03    -23.6961E-03    -39.3111E-03    -32.5919E-03     56.2776E-03    -23.6961E-03     50.6671E-03    -5.31217E+06    -24.9207E+06    -61.2392E+06    -10.2990E+06    -58.7655E+06    -22.4076E+06    -10.0665E+06         35.8170
            1869     14.6423E-03     100.535E-03     765.037E-03    -208.857E-03    -654.260E-03    -208.150E-03     764.330E-03    -654.260E-03     47.6836E-03     68.3667E-03    -24.2469E-03    -44.1227E-03    -34.1157E-03     58.3597E-03    -24.2469E-03     63.4425E-03     1.91657E+06    -26.9645E+06    -46.1442E+06    -14.8567E+06    -22.7825E+06    -33.5529E+06    -3.16413E+06         40.4459
            1870     15.6090E-03     100.596E-03     660.399E-03    -127.784E-03    -624.393E-03    -127.045E-03     659.660E-03    -624.393E-03     42.4958E-03     79.2987E-03    -24.7508E-03    -54.5466E-03    -34.2715E-03     59.0235E-03    -24.7508E-03     94.8506E-03     55.1295E+06    -16.7184E+06    -30.8330E+06    -16.3873E+06     54.7985E+06    -30.8330E+06    -4.48064E+06         45.4266
            1871     16.5777E-03     100.704E-03     534.499E-03    -28.6917E-03    -592.822E-03    -27.6460E-03     533.453E-03    -592.822E-03     16.8392E-03     76.6877E-03    -25.5293E-03    -51.1592E-03    -32.0805E-03     57.6090E-03    -25.5293E-03     89.6670E-03     135.350E+06     63.4282E+06    -19.2692E+06    -11.2879E+06     134.895E+06     55.9021E+06    -7.24794E+06         49.8960
            1872     980.798E-06     101.410E-03         1.80013    -888.823E-03        -1.05253    -753.390E-03         1.65179        -1.03962    -463.861E-03     39.0790E-03    -19.4841E-03    -19.5955E-03    -19.5210E-03     39.0046E-03    -19.4841E-03     3.84619E-03     90.2231E+06     82.0842E+06     46.4255E+06     86.8895E+06     49.7591E+06     82.0842E+06    -10.0686E+06         22.8124
            1873     1.96175E-03     101.410E-03         1.67034    -895.732E-03    -920.704E-03    -892.628E-03         1.64226    -895.732E-03     168.350E-03     39.0545E-03    -19.4337E-03    -19.6225E-03    -19.3884E-03     38.8204E-03    -19.4337E-03     7.12141E-03     88.2595E+06     72.9313E+06     39.3478E+06     81.2394E+06     46.3679E+06     72.9313E+06    -16.9459E+06         22.8255
            1874     2.94261E-03     101.411E-03         1.65257    -885.885E-03    -913.386E-03    -896.155E-03         1.64458    -895.124E-03    -65.2525E-03     38.9829E-03    -19.3318E-03    -19.6525E-03    -19.1258E-03     38.4562E-03    -19.3318E-03     10.8011E-03     84.4487E+06     60.0518E+06     20.3945E+06     73.7886E+06     31.0546E+06     60.0518E+06    -23.7390E+06         22.8507
            1875     3.92408E-03     101.413E-03         1.60200    -843.360E-03    -896.122E-03    -846.980E-03         1.59942    -889.926E-03     63.4579E-03     38.9984E-03    -19.1835E-03    -19.8145E-03    -18.8442E-03     38.0280E-03    -19.1835E-03     14.7243E-03     74.8742E+06     43.0094E+06     979.053E+03     63.2431E+06     12.6102E+06     43.0094E+06    -26.8837E+06         22.8959
            1876     4.90565E-03     101.415E-03         1.53100    -784.589E-03    -875.390E-03    -783.606E-03         1.53001    -875.390E-03     8.47461E-03     39.3661E-03    -19.0436E-03    -20.3251E-03    -18.7500E-03     37.7911E-03    -19.0436E-03     18.8728E-03     59.5021E+06     25.1258E+06    -18.4814E+06     49.3412E+06    -8.32056E+06     25.1258E+06    -26.1572E+06         22.9770
            1877     5.88720E-03     101.419E-03         1.47322    -738.317E-03    -856.335E-03    -737.741E-03         1.47264    -856.335E-03     61.0711E-03     40.1700E-03    -18.9557E-03    -21.2177E-03    -18.8708E-03     37.8232E-03    -18.9557E-03     23.2863E-03     41.3390E+06     9.79725E+06    -35.1544E+06     33.4961E+06    -27.3114E+06     9.79725E+06    -23.0723E+06         23.1076
            1878     6.86867E-03     101.425E-03         1.44213    -723.290E-03    -838.159E-03    -722.388E-03         1.44123    -838.159E-03     73.1309E-03     41.4553E-03    -18.9488E-03    -22.5093E-03    -19.2448E-03     38.1908E-03    -18.9488E-03     27.9281E-03     22.9648E+06     568.273E+03    -46.3119E+06     17.4693E+06    -40.8163E+06     568.273E+03    -18.4878E+06         23.3206
            1879     7.84951E-03     101.434E-03         1.41292    -712.941E-03    -822.902E-03    -711.909E-03         1.41189    -822.902E-03     85.1356E-03     43.3457E-03    -19.0530E-03    -24.2950E-03    -20.0441E-03     39.0948E-03    -19.0530E-03     32.6440E-03     9.46809E+06    -4.88710E+06    -53.6387E+06     2.09624E+06    -49.9133E+06    -1.24068E+06    -13.8371E+06         23.7348
            1880     8.82929E-03     101.446E-03         1.33174    -647.563E-03    -806.997E-03    -646.347E-03         1.33053    -806.997E-03     85.5115E-03     45.8012E-03    -19.2734E-03    -26.5239E-03    -21.4008E-03     40.6781E-03    -19.2734E-03     36.9685E-03     2.54196E+06    -10.7417E+06    -57.7511E+06    -11.2881E+06    -54.7142E+06     51.4980E+03    -11.3493E+06         24.4890
            1881     9.80755E-03     101.460E-03         1.23082    -560.586E-03    -786.699E-03    -559.239E-03         1.22947    -786.699E-03     89.3609E-03     48.9936E-03    -19.6207E-03    -29.3634E-03    -23.2992E-03     42.9294E-03    -19.6207E-03     41.7558E-03     3.34717E+06    -16.8574E+06    -56.9869E+06    -20.1097E+06    -53.7346E+06     3.34717E+06    -10.7503E+06         25.6122
            1882     10.7837E-03     101.479E-03         1.15215    -497.760E-03    -763.273E-03    -496.882E-03         1.15127    -763.273E-03     70.3672E-03     52.7280E-03    -20.1046E-03    -32.6187E-03    -25.8637E-03     45.9730E-03    -20.1046E-03     45.9960E-03     4.45203E+06    -21.4748E+06    -61.5166E+06    -24.3504E+06    -58.6410E+06     4.45203E+06    -10.1073E+06         27.0663
            1883     11.7570E-03     101.501E-03         1.07575    -437.238E-03    -738.682E-03    -436.594E-03         1.07510    -738.682E-03     52.2354E-03     56.3337E-03    -20.7018E-03    -35.6359E-03    -28.8565E-03     49.5543E-03    -20.7018E-03     47.9938E-03     3.00707E+06    -18.5366E+06    -53.6391E+06    -25.5691E+06    -46.6067E+06     3.00707E+06    -10.6576E+06         29.0379
            1884     12.7277E-03     101.526E-03     976.662E-03    -356.897E-03    -712.555E-03    -356.223E-03     975.988E-03    -712.555E-03     48.5353E-03     60.6046E-03    -21.4448E-03    -39.1614E-03    -31.9756E-03     53.4188E-03    -21.4448E-03     51.5562E-03    -465.336E+03    -17.4565E+06    -51.3790E+06    -25.4325E+06    -43.4029E+06    -465.336E+03    -12.0692E+06         31.9351
            1885     13.6950E-03     101.559E-03     868.140E-03    -272.759E-03    -684.366E-03    -271.773E-03     867.154E-03    -684.366E-03     63.3587E-03     64.9407E-03    -22.2480E-03    -42.6958E-03    -35.1069E-03     57.3518E-03    -22.2480E-03     55.0859E-03    -12.7420E+06    -30.3156E+06    -68.8356E+06    -23.7445E+06    -66.1496E+06    -21.9991E+06    -9.76469E+06         35.9258
            1886     14.6599E-03     101.596E-03     773.428E-03    -200.843E-03    -654.769E-03    -200.249E-03     772.834E-03    -654.769E-03     42.8145E-03     70.6689E-03    -23.0841E-03    -47.5963E-03    -37.3582E-03     60.4308E-03    -23.0841E-03     66.0647E-03     1.35976E+06    -27.4715E+06    -47.5668E+06    -18.2599E+06    -25.4760E+06    -29.9427E+06    -6.26023E+06         40.8448
            1887     15.6244E-03     101.660E-03     674.938E-03    -128.382E-03    -624.268E-03    -127.639E-03     674.196E-03    -624.268E-03     44.9974E-03     81.3344E-03    -23.9257E-03    -57.4158E-03    -38.3983E-03     62.3170E-03    -23.9257E-03     94.5534E-03     64.6606E+06    -11.1436E+06    -16.8720E+06    -11.3391E+06     63.4350E+06    -15.4509E+06    -8.56076E+06         46.1679
            1888     16.5888E-03     101.766E-03     567.371E-03    -47.9678E-03    -592.730E-03    -46.7351E-03     566.138E-03    -592.730E-03     24.7643E-03     79.5324E-03    -25.0698E-03    -54.4448E-03    -37.4707E-03     62.5584E-03    -25.0698E-03     87.0647E-03     135.222E+06     72.4525E+06    -8.11111E+06    -5.47593E+06     132.794E+06     72.2456E+06    -9.63064E+06         50.8492
            1889     984.114E-06     102.447E-03         1.70218    -862.138E-03    -977.895E-03    -788.648E-03         1.59875    -947.954E-03    -359.530E-03     32.3627E-03    -16.0967E-03    -16.2666E-03    -16.1631E-03     32.2592E-03    -16.0967E-03     4.11794E-03     89.0256E+06     80.0407E+06     62.6665E+06     82.8093E+06     67.6738E+06     81.2497E+06    -9.43364E+06         22.3113
            1890     1.96829E-03     102.447E-03         1.64180    -873.592E-03    -913.461E-03    -894.742E-03         1.62308    -873.592E-03     184.109E-03     32.3279E-03    -16.0401E-03    -16.2889E-03    -15.9643E-03     32.0033E-03    -16.0401E-03     7.62396E-03     85.4304E+06     67.6305E+06     50.5676E+06     76.5608E+06     60.6569E+06     66.4109E+06    -14.1718E+06         22.3266
            1891     2.95270E-03     102.447E-03         1.64097    -879.005E-03    -896.829E-03    -891.713E-03         1.63755    -880.707E-03    -26.8353E-03     32.4306E-03    -15.9153E-03    -16.5155E-03    -15.7920E-03     31.7071E-03    -15.9153E-03     11.5332E-03     73.7931E+06     47.7805E+06     31.2372E+06     64.3842E+06     41.8657E+06     46.5608E+06    -16.8864E+06         22.3590
            1892     3.93728E-03     102.448E-03         1.61430    -850.181E-03    -885.658E-03    -855.040E-03         1.61296    -879.463E-03     79.2408E-03     32.8201E-03    -15.7971E-03    -17.0229E-03    -15.6956E-03     31.4927E-03    -15.7971E-03     15.7958E-03     53.2323E+06     25.5154E+06     8.30745E+06     46.5458E+06     16.9260E+06     23.5834E+06    -15.3888E+06         22.4173
            1893     4.92188E-03     102.451E-03         1.53797    -783.653E-03    -867.802E-03    -782.265E-03         1.53658    -867.802E-03     75.6420E-03     33.6407E-03    -15.7190E-03    -17.9236E-03    -15.7810E-03     31.4981E-03    -15.7190E-03     20.3444E-03     29.2071E+06     3.23899E+06    -14.1965E+06     24.9824E+06    -8.03979E+06     1.30699E+06    -11.5775E+06         22.5173
            1894     5.90627E-03     102.455E-03         1.46859    -727.989E-03    -848.977E-03    -726.570E-03         1.46717    -848.977E-03     88.8597E-03     35.0179E-03    -15.7276E-03    -19.2915E-03    -16.1463E-03     31.8727E-03    -15.7276E-03     25.1676E-03     5.99430E+06    -14.1760E+06    -32.8829E+06     2.89472E+06    -29.7833E+06    -14.1760E+06    -6.72228E+06         22.6743
            1895     6.89004E-03     102.461E-03         1.43046    -707.557E-03    -829.893E-03    -706.461E-03         1.42936    -829.893E-03     80.8953E-03     37.0404E-03    -15.8536E-03    -21.1880E-03    -16.9037E-03     32.7561E-03    -15.8536E-03     30.2367E-03    -10.0426E+06    -22.9806E+06    -47.1545E+06    -16.8098E+06    -43.7960E+06    -19.5719E+06    -2.40456E+06         22.9367
            1896     7.87291E-03     102.471E-03         1.39402    -686.966E-03    -813.047E-03    -685.962E-03         1.39301    -813.047E-03     69.0256E-03     39.7756E-03    -16.1239E-03    -23.6616E-03    -18.1869E-03     34.3008E-03    -16.1239E-03     35.5005E-03    -13.0245E+06    -29.8124E+06    -53.9824E+06    -30.3962E+06    -51.5164E+06    -14.9066E+06    -380.706E+03         23.4241
            1897     8.85423E-03     102.485E-03         1.32658    -637.983E-03    -796.101E-03    -636.659E-03         1.32526    -796.101E-03     75.1166E-03     43.1212E-03    -16.5306E-03    -26.5966E-03    -20.0988E-03     36.6234E-03    -16.5306E-03     40.4432E-03    -5.90280E+06    -35.6516E+06    -53.9909E+06    -36.6810E+06    -52.9615E+06    -5.90280E+06    -1.29251E+06         24.2480
            1898     9.83323E-03     102.502E-03         1.24485    -570.074E-03    -776.629E-03    -568.074E-03         1.24285    -776.629E-03     119.135E-03     47.3221E-03    -17.0742E-03    -30.2389E-03    -22.7085E-03     39.7917E-03    -17.0742E-03     45.8550E-03     1.97946E+06    -37.4584E+06    -52.7581E+06    -38.7508E+06    -51.4657E+06     1.97946E+06    -3.76754E+06         25.4267
            1899     10.8096E-03     102.525E-03         1.15656    -497.713E-03    -754.282E-03    -495.992E-03         1.15484    -754.282E-03     105.042E-03     52.1148E-03    -17.7749E-03    -34.3348E-03    -26.0812E-03     43.8612E-03    -17.7749E-03     50.7491E-03     5.25265E+06    -35.3545E+06    -58.7698E+06    -37.9601E+06    -56.1642E+06     5.25265E+06    -7.10783E+06         26.9305
            1900     11.7824E-03     102.552E-03         1.07267    -432.320E-03    -729.966E-03    -431.114E-03         1.07146    -729.966E-03     78.6470E-03     56.7528E-03    -18.6221E-03    -38.1341E-03    -29.9835E-03     48.6022E-03    -18.6221E-03     53.1006E-03     5.71997E+06    -24.8574E+06    -52.4274E+06    -34.5194E+06    -42.7654E+06     5.71997E+06    -10.1035E+06         28.9627
            1901     12.7510E-03     102.581E-03     989.933E-03    -366.535E-03    -704.437E-03    -365.975E-03     989.373E-03    -704.437E-03     53.1136E-03     61.9341E-03    -19.6460E-03    -42.2871E-03    -34.0015E-03     53.6484E-03    -19.6460E-03     56.3689E-03     4.27131E+06    -19.2965E+06    -51.5865E+06    -30.0177E+06    -40.8653E+06     4.27131E+06    -12.3437E+06         31.9332
            1902     13.7167E-03     102.619E-03     885.713E-03    -281.429E-03    -677.256E-03    -280.488E-03     884.772E-03    -677.256E-03     60.0658E-03     67.4797E-03    -20.7441E-03    -46.7440E-03    -38.2687E-03     59.0043E-03    -20.7441E-03     59.8372E-03    -6.30354E+06    -31.0175E+06    -72.1142E+06    -24.0916E+06    -66.7375E+06    -18.6061E+06    -15.5454E+06         36.0751
            1903     14.6777E-03     102.661E-03     772.862E-03    -191.199E-03    -647.886E-03    -190.552E-03     772.215E-03    -647.886E-03     41.7028E-03     73.9119E-03    -21.9255E-03    -52.0042E-03    -41.7537E-03     63.6614E-03    -21.9255E-03     68.6444E-03     8.99630E+06    -24.1173E+06    -49.3057E+06    -14.8197E+06    -24.8004E+06    -24.8066E+06    -16.9986E+06         41.3032
            1904     15.6372E-03     102.726E-03     671.091E-03    -113.843E-03    -616.813E-03    -113.531E-03     670.780E-03    -616.813E-03     20.0931E-03     84.2026E-03    -23.1847E-03    -61.0232E-03    -43.5025E-03     66.6818E-03    -23.1847E-03     93.7723E-03     69.0793E+06     277.788E+03    -11.8562E+06    -6.94426E+06     64.8567E+06    -411.526E+03    -14.1229E+06         46.9764
            1905     16.5959E-03     102.835E-03     582.498E-03    -46.8528E-03    -584.998E-03    -46.3334E-03     581.979E-03    -584.998E-03     13.9114E-03     83.0430E-03    -24.7161E-03    -58.3349E-03    -43.3228E-03     68.0310E-03    -24.7161E-03     84.4959E-03     132.997E+06     79.6228E+06    -4.51757E+06    -3.83017E+06     126.926E+06     85.0066E+06    -7.82374E+06         51.8563
            1906     987.723E-06     103.477E-03         1.60166    -835.257E-03    -910.706E-03    -817.822E-03         1.55280    -879.279E-03    -251.252E-03     24.9549E-03    -12.3928E-03    -12.5622E-03    -12.4313E-03     24.8239E-03    -12.3928E-03     4.03749E-03     86.8772E+06     68.6294E+06     60.6774E+06      68.904E+06     80.2854E+06     66.9946E+06    -4.53356E+06         21.7754
            1907     1.97559E-03     103.476E-03         1.60037    -841.760E-03    -889.348E-03    -870.553E-03         1.59277    -852.953E-03     137.178E-03     24.9721E-03    -12.3060E-03    -12.6662E-03    -12.2487E-03     24.5546E-03    -12.3060E-03     7.59766E-03     76.8347E+06     51.4594E+06     42.3065E+06     56.1210E+06     69.1760E+06     45.3036E+06    -6.93876E+06         21.7982
            1908     2.96377E-03     103.476E-03         1.57548    -835.213E-03    -859.533E-03    -837.862E-03         1.57316    -854.565E-03     42.9319E-03     25.3976E-03    -12.2087E-03    -13.1891E-03    -12.2703E-03     24.4788E-03    -12.2087E-03     11.5231E-03     53.1638E+06     27.4792E+06     19.3468E+06     37.2307E+06     43.0240E+06     19.7351E+06    -4.16079E+06         21.8472
            1909     3.95156E-03     103.477E-03         1.55685    -816.265E-03    -847.611E-03    -814.564E-03         1.55515    -847.611E-03     95.7421E-03     26.3040E-03    -12.1833E-03    -14.1208E-03    -12.4586E-03     24.6418E-03    -12.1833E-03     15.8371E-03     26.7594E+06     1.60545E+06    -4.45629E+06     14.7576E+06     13.2190E+06    -4.06805E+06     1.99077E+06         21.9302
            1910     4.93916E-03     103.479E-03         1.52748    -789.843E-03    -838.397E-03    -788.473E-03         1.52611    -838.397E-03     87.0281E-03     27.7331E-03    -12.2414E-03    -15.4908E-03    -12.8347E-03     25.0770E-03    -12.2414E-03     20.5766E-03     3.75700E+06    -20.2883E+06    -27.8105E+06    -8.62676E+06    -13.3399E+06    -22.3751E+06     8.45678E+06         22.0624
            1911     5.92619E-03     103.483E-03         1.49893    -765.632E-03    -827.951E-03    -764.074E-03         1.49737    -827.951E-03     105.835E-03     29.8391E-03    -12.4159E-03    -17.4226E-03    -13.5696E-03     25.9861E-03    -12.4159E-03     25.7215E-03    -16.1071E+06    -30.5024E+06    -48.8323E+06    -30.1888E+06    -34.7505E+06    -30.5024E+06     13.0619E+06         22.2614
            1912     6.91228E-03     103.492E-03         1.42766    -705.619E-03    -814.615E-03    -704.594E-03         1.42664    -814.615E-03     86.7644E-03     32.7043E-03    -12.7221E-03    -19.9844E-03    -14.7882E-03     27.5082E-03    -12.7221E-03     31.3080E-03    -24.9388E+06    -34.0467E+06    -59.9415E+06    -45.2071E+06    -45.5630E+06    -28.1569E+06     13.5468E+06         22.5807
            1913     7.89675E-03     103.503E-03         1.34194    -640.131E-03    -796.725E-03    -639.249E-03         1.34105    -796.725E-03     66.5929E-03     36.3269E-03    -13.1676E-03    -23.1701E-03    -16.5768E-03     29.7336E-03    -13.1676E-03     37.2690E-03    -19.3000E+06    -40.4048E+06    -60.5188E+06    -52.1514E+06    -48.7723E+06    -19.3000E+06     9.19282E+06         23.1378
            1914     8.87924E-03     103.520E-03         1.28815    -602.652E-03    -776.899E-03    -601.824E-03         1.28732    -776.899E-03     62.1859E-03     40.5645E-03    -13.7612E-03    -26.8164E-03    -19.0365E-03     32.7845E-03    -13.7612E-03     43.0047E-03    -7.70446E+06    -46.4651E+06    -55.1591E+06    -52.5062E+06    -49.1180E+06    -7.70446E+06     3.41346E+06         24.0294
            1915     9.85921E-03     103.541E-03         1.22485    -555.593E-03    -756.702E-03    -554.161E-03         1.22342    -756.702E-03     98.3188E-03     45.8065E-03    -14.5120E-03    -31.2951E-03    -22.3347E-03     36.8461E-03    -14.5120E-03     49.3662E-03     3.04248E+06    -43.9023E+06    -51.5710E+06    -48.4486E+06    -47.0247E+06     3.04248E+06    -1.57675E+06         25.2670
            1916     10.8353E-03     103.569E-03         1.14758    -495.591E-03    -735.195E-03    -493.867E-03         1.14586    -735.195E-03     104.908E-03     51.6945E-03    -15.4381E-03    -36.2536E-03    -26.4899E-03     41.9308E-03    -15.4381E-03     55.1932E-03     8.54565E+06    -35.3146E+06    -55.8713E+06    -42.1027E+06    -49.0832E+06     8.54565E+06    -8.16975E+06         26.8313
            1917     11.8074E-03     103.602E-03         1.06658    -430.147E-03    -712.021E-03    -428.811E-03         1.06524    -712.021E-03     85.0383E-03     57.3611E-03    -16.5312E-03    -40.8174E-03    -31.1907E-03     47.7344E-03    -16.5312E-03     58.3035E-03     9.08301E+06    -22.3548E+06    -51.1311E+06    -34.5863E+06    -38.8996E+06     9.08301E+06    -13.0435E+06         28.9359
            1918     12.7749E-03     103.637E-03     974.964E-03    -353.915E-03    -687.007E-03    -353.078E-03     974.128E-03    -687.007E-03     63.3675E-03     63.6830E-03    -17.8401E-03    -45.8258E-03    -36.2724E-03     54.1295E-03    -17.8401E-03     61.7651E-03     9.41916E+06    -13.8651E+06    -50.4079E+06    -27.0122E+06    -37.2608E+06     9.41916E+06    -15.8017E+06         31.9936
            1919     13.7373E-03     103.680E-03     886.551E-03    -283.610E-03    -660.276E-03    -281.893E-03     884.834E-03    -660.276E-03     85.3227E-03     70.6368E-03    -19.2606E-03    -51.3833E-03    -41.7841E-03     61.0376E-03    -19.2606E-03     65.6494E-03     1.72968E+06    -24.0466E+06    -69.1436E+06    -20.6633E+06    -59.0582E+06    -11.7390E+06    -21.8241E+06         36.2893
            1920     14.6947E-03     103.731E-03     792.866E-03    -210.177E-03    -632.249E-03    -208.917E-03     791.606E-03    -632.249E-03     56.9169E-03     78.2286E-03    -20.8142E-03    -57.4222E-03    -46.6992E-03     67.5056E-03    -20.8142E-03     73.1521E-03     13.0924E+06    -20.0771E+06    -53.7756E+06    -16.9223E+06    -23.7610E+06    -20.0771E+06    -25.2179E+06         41.7850
            1921     15.6476E-03     103.798E-03     687.587E-03    -125.401E-03    -602.666E-03    -125.236E-03     687.422E-03    -602.666E-03     9.55582E-03     88.7667E-03    -22.5022E-03    -66.2609E-03    -49.6314E-03     72.1372E-03    -22.5022E-03     95.2670E-03     63.5816E+06     3.71845E+06    -21.1346E+06    -14.3344E+06     56.7815E+06     3.71845E+06    -18.0228E+06         47.7463
            1922     16.6011E-03     103.909E-03     580.674E-03    -37.0589E-03    -571.421E-03    -36.8701E-03     580.485E-03    -571.421E-03    -5.48381E-03     87.2476E-03    -24.4138E-03    -62.8103E-03    -49.0343E-03     73.4715E-03    -24.4138E-03     83.8181E-03     128.187E+06     78.5941E+06    -9.90526E+06    -9.22687E+06     118.078E+06     88.0248E+06    -7.42680E+06         52.7862
            1923     991.484E-06     104.498E-03         1.57910    -816.443E-03    -897.377E-03    -802.994E-03         1.56055    -892.269E-03    -136.593E-03     17.3642E-03    -8.58083E-03    -8.78326E-03    -8.63184E-03     17.2128E-03    -8.58083E-03     3.63482E-03     82.4457E+06     41.7486E+06     37.1856E+06     41.8249E+06     81.9685E+06     37.5865E+06     1.59035E+06         21.2486
            1924     1.98323E-03     104.497E-03         1.52682    -807.311E-03    -844.837E-03    -808.074E-03         1.52248    -839.729E-03     77.9109E-03     17.7511E-03    -8.57117E-03    -9.17980E-03    -8.69901E-03     17.2703E-03    -8.57117E-03     6.89286E-03     69.0789E+06     24.7094E+06     16.1532E+06     25.2033E+06     66.2832E+06     18.4550E+06     7.57877E+06         21.2867
            1925     2.97440E-03     104.497E-03         1.48699    -772.238E-03    -822.948E-03    -769.731E-03         1.48448    -822.948E-03     19.1555E-03     18.6460E-03    -8.62135E-03    -10.0244E-03    -8.97033E-03     17.5920E-03    -8.62135E-03     10.5965E-03     41.4559E+06     2.88712E+06    -11.8970E+06     2.25027E+06     33.8331E+06    -3.63735E+06     15.2016E+06         21.3591
            1926     3.96550E-03     104.498E-03         1.49783    -779.767E-03    -817.604E-03    -785.063E-03         1.49634    -810.828E-03     58.1403E-03     20.0537E-03    -8.73449E-03    -11.3202E-03    -9.42679E-03     18.1603E-03    -8.73449E-03     14.7825E-03     16.6079E+06    -21.9125E+06    -39.9902E+06    -21.7813E+06     2.14055E+06    -25.6540E+06     23.3209E+06         21.4749
            1927     4.95578E-03     104.501E-03         1.50424    -783.342E-03    -812.675E-03    -789.697E-03         1.50382    -805.899E-03     33.9931E-03     22.1413E-03    -8.95198E-03    -13.1896E-03    -10.1669E-03     19.1185E-03    -8.95198E-03     19.6325E-03    -1.69458E+06    -37.8078E+06    -63.0367E+06    -42.2996E+06    -22.2769E+06    -37.9625E+06     28.7580E+06         21.6477
            1928     5.94517E-03     104.507E-03         1.46352    -749.036E-03    -799.811E-03    -748.260E-03         1.46274    -799.811E-03     81.8756E-03     24.9911E-03    -9.30410E-03    -15.6882E-03    -11.2929E-03     20.5957E-03    -9.30410E-03     25.1574E-03    -16.5947E+06    -36.7847E+06    -76.4973E+06    -54.6079E+06    -38.4841E+06    -36.7847E+06     28.6913E+06         21.8920
            1929     6.93314E-03     104.517E-03         1.39126    -688.179E-03    -788.048E-03    -687.512E-03         1.39059    -788.048E-03     73.3738E-03     28.6117E-03    -9.77591E-03    -18.8385E-03    -12.8950E-03     22.6683E-03    -9.77591E-03     31.3325E-03    -22.5765E+06    -31.4312E+06    -75.4493E+06    -58.7368E+06    -43.0306E+06    -27.6895E+06     23.0033E+06         22.2640
            1930     7.91938E-03     104.531E-03         1.31066    -622.504E-03    -771.146E-03    -621.824E-03         1.30998    -771.146E-03     70.3409E-03     33.0446E-03    -10.3774E-03    -22.6645E-03    -15.0923E-03     25.4723E-03    -10.3774E-03     38.1228E-03    -15.8024E+06    -33.3180E+06    -66.5309E+06    -57.9657E+06    -41.8832E+06    -15.8024E+06     14.2532E+06         22.8821
            1931     8.90312E-03     104.551E-03         1.24541    -574.453E-03    -751.476E-03    -573.748E-03         1.24470    -751.476E-03     69.9595E-03     38.1985E-03    -11.1361E-03    -27.0638E-03    -18.0627E-03     29.1974E-03    -11.1361E-03     44.9536E-03    -4.22569E+06    -39.9364E+06    -56.9366E+06    -54.4880E+06    -42.3850E+06    -4.22569E+06     5.17434E+06         23.8345
            1932     9.88350E-03     104.577E-03         1.18652    -531.643E-03    -731.049E-03    -530.986E-03         1.18586    -731.049E-03     64.2367E-03     44.4442E-03    -12.0640E-03    -32.3848E-03    -21.9104E-03     33.9699E-03    -12.0640E-03     52.6731E-03     5.31354E+06    -37.8354E+06    -50.6644E+06    -48.4585E+06    -40.0412E+06     5.31354E+06    -3.07085E+06         25.1288
            1933     10.8601E-03     104.611E-03         1.11221    -473.016E-03    -709.604E-03    -472.079E-03         1.11127    -709.604E-03     73.4875E-03     51.4257E-03    -13.1888E-03    -38.2392E-03    -26.7239E-03     39.9105E-03    -13.1888E-03     59.9133E-03     11.3150E+06    -28.9603E+06    -52.3128E+06    -41.3142E+06    -39.9588E+06     11.3150E+06    -10.8071E+06         26.7557
            1934     11.8315E-03     104.650E-03         1.02554    -402.869E-03    -686.243E-03    -401.940E-03         1.02461    -686.243E-03     72.2307E-03     58.1789E-03    -14.5117E-03    -43.6550E-03    -32.2628E-03     46.7867E-03    -14.5117E-03     64.0785E-03     12.4823E+06    -16.3249E+06    -51.5304E+06    -34.2282E+06    -33.6270E+06     12.4823E+06    -17.1873E+06         28.9388
            1935     12.7977E-03     104.693E-03     943.031E-03    -336.151E-03    -661.097E-03    -335.186E-03     942.066E-03    -661.097E-03     68.6008E-03     65.7056E-03    -16.0782E-03    -49.6140E-03    -38.3408E-03     54.4325E-03    -16.0782E-03     68.4278E-03     12.7640E+06    -7.36143E+06    -52.1512E+06    -26.5586E+06    -32.9541E+06     12.7640E+06    -21.1261E+06         32.0910
            1936     13.7577E-03     104.745E-03     872.187E-03    -279.952E-03    -635.049E-03    -278.517E-03     870.752E-03    -635.049E-03     78.0657E-03     74.4004E-03    -17.8105E-03    -56.5910E-03    -45.2572E-03     63.0666E-03    -17.8105E-03     73.5551E-03     5.84537E+06    -15.7498E+06    -65.2470E+06    -20.4346E+06    -49.3486E+06    -5.36827E+06    -26.2989E+06         36.5280
            1937     14.7111E-03     104.803E-03     792.243E-03    -215.191E-03    -608.353E-03    -214.355E-03     791.407E-03    -608.353E-03     41.0590E-03     83.2897E-03    -19.7293E-03    -63.5575E-03    -51.7015E-03     71.4337E-03    -19.7293E-03     79.9941E-03     12.1427E+06    -14.7700E+06    -52.5279E+06    -16.5674E+06    -23.8178E+06    -14.7700E+06    -27.7337E+06         42.2372
            1938     15.6602E-03     104.877E-03     691.168E-03    -135.733E-03    -580.146E-03    -135.359E-03     690.795E-03    -580.146E-03     22.9151E-03     94.0852E-03    -21.7961E-03    -72.2946E-03    -55.7758E-03     77.5665E-03    -21.7961E-03     99.0288E-03     55.0077E+06     2.57108E+06    -23.5942E+06    -14.2262E+06     45.6397E+06     2.57108E+06    -19.7368E+06         48.4183
            1939     16.6051E-03     104.989E-03     589.564E-03    -56.8239E-03    -550.423E-03    -56.4314E-03     589.172E-03    -550.423E-03     18.6902E-03     91.8988E-03    -24.0748E-03    -67.8160E-03    -54.8588E-03     78.9416E-03    -24.0748E-03     83.8587E-03     122.204E+06     72.5982E+06    -11.0180E+06    -9.87172E+06     108.189E+06     85.4663E+06    -9.82217E+06         53.5889
            1940     995.170E-06     105.512E-03         1.53379    -778.888E-03    -871.874E-03    -771.952E-03         1.52262    -867.641E-03    -60.4563E-03     10.5700E-03    -5.13423E-03    -5.43561E-03    -5.28682E-03     10.4212E-03    -5.13423E-03     2.83727E-03     69.8613E+06     3.38212E+06    -8.62587E+06    -3.60794E+06     66.1616E+06     2.06385E+06     13.9131E+06         20.7815
            1941     1.98966E-03     105.512E-03         1.48931    -785.836E-03    -817.124E-03    -785.206E-03         1.48445    -812.891E-03     52.1518E-03     11.4061E-03    -5.30335E-03    -6.10270E-03    -5.62228E-03     10.9257E-03    -5.30335E-03     5.54784E-03     57.7204E+06    -11.7153E+06    -31.5807E+06    -19.9042E+06     47.3621E+06    -13.0336E+06     27.3465E+06         20.8405
            1942     2.98402E-03     105.512E-03         1.44550    -744.174E-03    -796.816E-03    -741.963E-03         1.44329    -796.816E-03    -25.1372E-03     12.7206E-03    -5.51988E-03    -7.20076E-03    -6.12908E-03     11.6489E-03    -5.51988E-03     8.85817E-03     35.9220E+06    -26.6194E+06    -57.7961E+06    -37.6625E+06     15.7884E+06    -26.6194E+06     37.9181E+06         20.9400
            1943     3.97739E-03     105.513E-03         1.43593    -734.357E-03    -789.116E-03    -740.048E-03         1.43484    -782.339E-03     60.2406E-03     14.6382E-03    -5.79349E-03    -8.84485E-03    -6.86470E-03     12.6580E-03    -5.79349E-03     12.9360E-03     15.4968E+06    -37.6843E+06    -80.6853E+06    -52.8781E+06    -12.3105E+06    -37.6843E+06     43.5455E+06         21.0893
            1944     4.97011E-03     105.518E-03         1.42658    -730.948E-03    -780.055E-03    -737.043E-03         1.42589    -773.278E-03     52.8108E-03     17.2901E-03    -6.15296E-03    -11.1376E-03    -7.90464E-03     14.0571E-03    -6.15296E-03     17.9589E-03     298.320E+03    -41.0566E+06    -90.7633E+06    -61.4140E+06    -29.0510E+06    -41.0566E+06     42.5084E+06         21.2997
            1945     5.96145E-03     105.525E-03         1.37107    -688.564E-03    -763.045E-03    -687.486E-03         1.36999    -763.045E-03     92.4435E-03     20.7071E-03    -6.62347E-03    -14.0868E-03    -9.31641E-03     15.9367E-03    -6.62347E-03     23.8653E-03    -12.7417E+06    -36.0667E+06    -88.4759E+06    -62.8140E+06    -38.4036E+06    -36.0667E+06     35.8251E+06         21.5785
            1946     6.95134E-03     105.537E-03         1.32191    -653.327E-03    -749.277E-03    -651.756E-03         1.32034    -749.277E-03     104.509E-03     24.8773E-03    -7.19877E-03    -17.6829E-03    -11.1363E-03     18.3308E-03    -7.19877E-03     30.6498E-03    -18.3878E+06    -27.2660E+06    -77.8440E+06    -60.4779E+06    -37.0144E+06    -26.0055E+06     26.4574E+06         21.9890
            1947     7.93912E-03     105.555E-03         1.27674    -620.971E-03    -734.437E-03    -619.651E-03         1.27542    -734.437E-03     90.3651E-03     29.9679E-03    -7.90817E-03    -22.0571E-03    -13.5872E-03     21.4980E-03    -7.90817E-03     38.3609E-03    -12.7676E+06    -25.6219E+06    -64.7780E+06    -56.4147E+06    -33.5511E+06    -13.2017E+06     15.9716E+06         22.6565
            1948     8.92430E-03     105.579E-03         1.20640    -562.458E-03    -717.702E-03    -560.811E-03         1.20476    -717.702E-03     95.1030E-03     35.8990E-03    -8.77457E-03    -27.1195E-03    -16.8685E-03     25.6480E-03    -8.77457E-03     46.4585E-03    -1.32658E+06    -30.1134E+06    -53.2071E+06    -50.8798E+06    -32.4407E+06    -1.32658E+06      5.0929E+06         23.6602
            1949     9.90593E-03     105.610E-03         1.14064    -509.754E-03    -698.472E-03    -508.084E-03         1.13897    -698.472E-03     91.8613E-03     43.1098E-03    -9.82170E-03    -33.2753E-03    -21.1075E-03     30.9420E-03    -9.82170E-03     55.8455E-03     7.83588E+06    -28.1801E+06    -47.3075E+06    -44.6259E+06    -30.8616E+06     7.83588E+06    -4.83733E+06         25.0046
            1950     10.8831E-03     105.650E-03         1.06046    -442.928E-03    -677.087E-03    -441.872E-03         1.05940    -677.087E-03     74.8812E-03     51.2380E-03    -11.0913E-03    -40.1390E-03    -26.5261E-03     37.6252E-03    -11.0913E-03     64.9736E-03     14.1311E+06    -20.7344E+06    -48.3559E+06    -38.0390E+06    -31.0513E+06     14.1311E+06    -12.9206E+06         26.6896
            1951     11.8548E-03     105.697E-03     975.528E-03    -371.214E-03    -653.347E-03    -370.329E-03     974.643E-03    -653.347E-03     66.9867E-03     59.0763E-03    -12.5964E-03    -46.4833E-03    -32.8596E-03     45.4525E-03    -12.5964E-03     70.6251E-03     15.7607E+06    -10.9155E+06    -49.0260E+06    -32.9543E+06    -26.9873E+06     15.7607E+06    -18.7691E+06         28.9483
            1952     12.8196E-03     105.749E-03     915.788E-03    -327.882E-03    -628.678E-03    -326.981E-03     914.888E-03    -628.678E-03     63.9256E-03     67.8563E-03    -14.3628E-03    -53.4949E-03    -39.8680E-03     54.2294E-03    -14.3628E-03     76.5297E-03     14.2923E+06    -2.79602E+06    -52.4208E+06    -29.3368E+06    -25.8800E+06     14.2923E+06    -24.3190E+06         32.1884
            1953     13.7785E-03     105.810E-03     838.404E-03    -268.744E-03    -603.722E-03    -267.705E-03     837.365E-03    -603.722E-03     66.4961E-03     78.5018E-03    -16.3501E-03    -62.1536E-03    -48.2074E-03     64.5556E-03    -16.3501E-03     83.9289E-03     8.28561E+06    -9.51440E+06    -65.0367E+06    -24.2377E+06    -39.4022E+06    -2.62556E+06    -31.4888E+06         36.7494
            1954     14.7282E-03     105.881E-03     739.362E-03    -185.756E-03    -577.178E-03    -185.117E-03     738.723E-03    -577.178E-03     43.8197E-03     88.8403E-03    -18.5940E-03    -70.2447E-03    -56.3204E-03     74.9160E-03    -18.5940E-03     89.8237E-03     11.4024E+06    -13.5424E+06    -56.4401E+06    -18.5364E+06    -26.5013E+06    -13.5424E+06    -32.1152E+06         42.6321
            1955     15.6706E-03     105.961E-03     662.881E-03    -127.319E-03    -549.061E-03    -126.727E-03     662.289E-03    -549.061E-03     36.8149E-03     99.8856E-03    -21.0092E-03    -78.8957E-03    -61.4723E-03     82.4623E-03    -21.0092E-03     105.719E-03     47.8921E+06     953.731E+03    -26.7072E+06    -13.2758E+06     34.4606E+06     953.731E+03    -22.9070E+06         48.9920
            1956     16.6133E-03     106.078E-03     597.259E-03    -80.9819E-03    -521.026E-03    -80.2012E-03     596.479E-03    -521.026E-03     37.1045E-03     97.4992E-03    -23.6604E-03    -73.8766E-03    -61.2474E-03     84.8700E-03    -23.6604E-03     84.7521E-03     116.432E+06     65.9802E+06    -9.74069E+06    -7.92240E+06     97.0666E+06     83.5276E+06    -11.5071E+06         54.2970
            1957     997.511E-06     106.519E-03         1.44295    -745.008E-03    -802.042E-03    -755.723E-03         1.43708    -785.457E-03    -72.0464E-03     5.50862E-03    -2.63298E-03    -2.87557E-03    -2.75403E-03     5.38708E-03    -2.63298E-03     1.84827E-03     36.1760E+06    -50.1692E+06    -74.9212E+06    -62.7447E+06     23.9994E+06    -50.1692E+06     32.8813E+06         20.4212
            1958     1.99458E-03     106.520E-03         1.40902    -732.461E-03    -767.607E-03    -734.629E-03         1.40696    -763.374E-03     61.1281E-03     6.53951E-03    -2.90027E-03    -3.63891E-03    -3.23212E-03     6.13272E-03    -2.90027E-03     3.88970E-03     37.6721E+06    -47.7266E+06    -92.3770E+06    -70.1550E+06     15.4501E+06    -47.7266E+06     48.3512E+06         20.4947
            1959     2.99078E-03     106.521E-03         1.40127    -726.478E-03    -764.187E-03    -735.116E-03         1.39882    -753.101E-03     88.4179E-03     8.09762E-03    -3.20357E-03    -4.89365E-03    -3.91254E-03     7.11651E-03    -3.20357E-03     6.77283E-03     24.4593E+06    -49.3083E+06    -104.785E+06    -74.8489E+06    -5.47682E+06    -49.3083E+06     54.0667E+06         20.6159
            1960     3.98651E-03     106.524E-03         1.36272    -691.451E-03    -755.530E-03    -700.483E-03         1.36066    -744.443E-03     118.898E-03     10.3479E-03    -3.56571E-03    -6.78045E-03    -4.83371E-03     8.40115E-03    -3.56571E-03     10.7926E-03     9.56697E+06    -47.5017E+06    -105.787E+06    -72.3221E+06    -23.8983E+06    -47.5017E+06     52.3154E+06         20.7887
            1961     4.98092E-03     106.529E-03         1.29696    -653.735E-03    -730.889E-03    -653.014E-03         1.29624    -730.889E-03     72.8703E-03     13.3453E-03    -3.99496E-03    -9.34995E-03    -6.03772E-03     10.0331E-03    -3.99496E-03     15.9620E-03     43.7914E+03    -42.2495E+06    -97.7024E+06    -65.8895E+06    -31.7691E+06    -42.2495E+06     45.7316E+06         21.0210
            1962     5.97419E-03     106.539E-03         1.26793    -638.063E-03    -716.072E-03    -637.132E-03         1.26700    -716.072E-03     81.9437E-03     17.0674E-03    -4.51143E-03    -12.5568E-03    -7.54633E-03     12.0569E-03    -4.51143E-03     22.1574E-03    -8.86613E+06    -35.0538E+06    -86.6813E+06    -60.0256E+06    -35.5218E+06    -35.0538E+06     36.9160E+06         21.3208
            1963     6.96570E-03     106.553E-03         1.24060    -617.184E-03    -702.608E-03    -615.636E-03         1.23905    -702.608E-03     100.838E-03     21.5945E-03    -5.13007E-03    -16.4668E-03    -9.44293E-03     14.5706E-03    -5.13007E-03     29.4818E-03    -12.7699E+06    -24.2232E+06    -72.3462E+06    -54.9302E+06    -30.1859E+06    -24.2232E+06     26.9158E+06         21.7562
            1964     7.95539E-03     106.574E-03         1.20391    -591.313E-03    -689.263E-03    -590.117E-03         1.20271    -689.263E-03     81.2831E-03     27.1861E-03    -5.87815E-03    -21.3124E-03    -11.9819E-03     17.8556E-03    -5.87815E-03     38.1853E-03      -9.249E+06    -18.3442E+06    -57.2992E+06    -49.4346E+06    -24.0721E+06    -11.3857E+06     15.8018E+06         22.4584
            1965     8.94203E-03     106.603E-03         1.14777    -542.086E-03    -674.366E-03    -540.004E-03         1.14569    -674.366E-03     100.162E-03     33.6780E-03    -6.78120E-03    -26.8989E-03    -15.3365E-03     22.1156E-03    -6.78120E-03     47.5534E-03     1.39602E+06    -18.7868E+06    -44.9511E+06    -43.0109E+06    -20.7270E+06     1.39602E+06     3.74261E+06         23.5015
            1966     9.92534E-03     106.639E-03         1.07215    -475.250E-03    -656.172E-03    -472.618E-03         1.06952    -656.172E-03     123.995E-03     41.7566E-03    -7.87879E-03    -33.8668E-03    -19.8253E-03     27.7151E-03    -7.87879E-03     58.7469E-03     11.9560E+06    -17.7437E+06    -39.9575E+06    -36.1157E+06    -21.5856E+06     11.9560E+06    -6.28718E+06         24.8850
            1967     10.9039E-03     106.686E-03         1.00601    -420.506E-03    -635.291E-03    -418.926E-03         1.00443    -635.291E-03     94.4493E-03     50.9658E-03    -9.20992E-03    -41.7540E-03    -25.6832E-03     34.8950E-03    -9.20992E-03     70.0790E-03     18.1478E+06    -12.5675E+06    -41.1802E+06    -31.0687E+06    -22.6789E+06     18.1478E+06    -13.2404E+06         26.6179
            1968     11.8760E-03     106.743E-03     946.353E-03    -371.249E-03    -613.293E-03    -369.891E-03     944.996E-03    -613.293E-03     82.3774E-03     59.7407E-03    -10.7992E-03    -48.9504E-03    -32.5350E-03     43.3253E-03    -10.7992E-03     77.6539E-03     19.3267E+06    -5.64285E+06    -42.9525E+06    -27.6914E+06    -20.9039E+06     19.3267E+06    -18.1637E+06         28.9419
            1969     12.8419E-03     106.804E-03     867.979E-03    -308.896E-03    -590.223E-03    -307.608E-03     866.691E-03    -590.223E-03     75.2878E-03     70.0880E-03    -12.6868E-03    -57.3958E-03    -40.6266E-03     53.3188E-03    -12.6868E-03     86.0365E-03     18.2796E+06     2.95724E+06    -44.5823E+06    -25.3331E+06    -16.2920E+06     18.2796E+06    -23.1374E+06         32.2606
            1970     13.7989E-03     106.876E-03     774.226E-03    -234.884E-03    -565.304E-03    -233.794E-03     773.136E-03    -565.304E-03     62.5498E-03     82.6384E-03    -14.8656E-03    -67.7734E-03    -50.2535E-03     65.1184E-03    -14.8656E-03     96.3214E-03     14.2510E+06    -1.51692E+06    -59.5745E+06    -24.5284E+06    -25.3878E+06     3.07573E+06    -33.7338E+06         36.9337
            1971     14.7470E-03     106.961E-03     691.717E-03    -170.488E-03    -538.816E-03    -169.900E-03     691.128E-03    -538.816E-03     42.0681E-03     94.2100E-03    -17.3448E-03    -76.8789E-03    -59.7342E-03     77.0652E-03    -17.3448E-03     102.552E-03     13.9502E+06    -13.4153E+06    -65.1269E+06    -21.1666E+06    -30.0101E+06    -13.4153E+06    -38.6729E+06         42.9836
            1972     15.6875E-03     107.051E-03     628.379E-03    -125.947E-03    -511.871E-03    -125.471E-03     627.902E-03    -511.871E-03     36.2351E-03     106.651E-03    -20.1043E-03    -86.5671E-03    -67.3022E-03     87.3862E-03    -20.1043E-03     115.659E-03     42.0393E+06     2.77298E+06    -37.3052E+06    -15.5332E+06     20.2672E+06     2.77298E+06    -27.8581E+06         49.5175
            1973     16.6213E-03     107.172E-03     555.489E-03    -70.3999E-03    -485.276E-03    -69.5433E-03     554.632E-03    -485.276E-03     18.9314E-03     105.113E-03    -23.1873E-03    -81.9398E-03    -69.2641E-03     92.4369E-03    -23.1873E-03     87.2327E-03     109.805E+06     63.9153E+06    -12.2607E+06    -9.60291E+06     84.3337E+06     86.7292E+06    -13.2920E+06         54.9634
            1974     998.714E-06     107.523E-03         1.32492    -663.122E-03    -741.346E-03    -674.250E-03         1.32369    -728.994E-03    -43.6703E-03     2.67910E-03    -1.28044E-03    -1.39865E-03    -1.32322E-03     2.60825E-03    -1.28503E-03     979.031E-06    -21.5483E+06    -123.649E+06    -141.325E+06    -126.205E+06    -33.4550E+06    -126.861E+06     33.0281E+06         20.1986
            1975     1.99707E-03     107.524E-03         1.28905    -670.589E-03    -700.351E-03    -673.823E-03         1.28792    -695.985E-03     39.4248E-03     3.46203E-03    -1.48210E-03    -1.97976E-03    -1.68726E-03     3.16953E-03    -1.48210E-03     2.38234E-03     1.83311E+06    -95.9527E+06    -129.379E+06    -105.560E+06    -21.2778E+06    -96.6608E+06     48.8183E+06         20.2646
            1976     2.99495E-03     107.526E-03         1.30090    -680.540E-03    -706.299E-03    -694.120E-03         1.29903    -690.846E-03     111.350E-03     5.02923E-03    -1.77609E-03    -3.25280E-03    -2.37325E-03     4.14968E-03    -1.77609E-03     5.02593E-03     6.69427E+06    -71.0464E+06    -116.276E+06    -85.6161E+06    -23.9656E+06    -71.0464E+06     52.8585E+06         20.3894
            1977     3.99179E-03     107.530E-03         1.26986    -657.108E-03    -699.537E-03    -667.064E-03         1.26873    -688.450E-03     74.5203E-03     7.38915E-03    -2.12219E-03    -5.26652E-03    -3.36148E-03     5.48410E-03    -2.12219E-03     8.99857E-03     1.08260E+06    -57.7018E+06    -104.953E+06    -72.0328E+06    -31.8375E+06    -57.7018E+06     48.9072E+06         20.5707
            1978     4.98796E-03     107.538E-03         1.20844    -613.811E-03    -678.783E-03    -613.046E-03         1.20767    -678.783E-03     67.6389E-03     10.4237E-03    -2.52994E-03    -7.89391E-03    -4.56267E-03     7.09244E-03    -2.52994E-03     14.0898E-03    -3.03175E+06    -49.7851E+06    -93.7785E+06    -63.3818E+06    -33.4285E+06    -49.7851E+06     42.7568E+06         20.8081
            1979     5.98267E-03     107.549E-03         1.18455    -599.291E-03    -666.001E-03    -598.515E-03         1.18377    -666.001E-03     67.5741E-03     14.1851E-03    -3.03030E-03    -11.1531E-03    -6.00304E-03     9.03498E-03    -3.03030E-03     20.3585E-03    -7.34203E+06    -38.8561E+06    -77.6000E+06    -54.9440E+06    -29.9981E+06    -38.8561E+06     32.7537E+06         21.1132
            1980     6.97608E-03     107.566E-03         1.15311    -575.869E-03    -653.934E-03    -575.195E-03         1.15244    -653.934E-03     63.7984E-03     18.9012E-03    -3.63423E-03    -15.2666E-03    -7.85389E-03     11.4885E-03    -3.63423E-03     28.1303E-03    -9.62666E+06    -24.2619E+06    -58.0641E+06    -43.8379E+06    -23.8528E+06    -24.2619E+06     21.8166E+06         21.5604
            1981     7.96716E-03     107.590E-03         1.10593    -533.145E-03    -640.415E-03    -532.475E-03         1.10526    -640.415E-03     62.4554E-03     24.7595E-03    -4.35831E-03    -20.4035E-03    -10.2955E-03     14.6515E-03    -4.35831E-03     37.6079E-03    -4.74102E+06    -11.4144E+06    -40.9027E+06    -33.6139E+06    -15.4951E+06    -7.94921E+06     12.9857E+06         22.2858
            1982     8.95602E-03     107.623E-03         1.05591    -493.541E-03    -624.768E-03    -492.445E-03         1.05481    -624.768E-03     69.2561E-03     31.6193E-03    -5.23222E-03    -26.3894E-03    -13.5499E-03     18.7798E-03    -5.23222E-03     48.1126E-03     6.31480E+06    -7.89079E+06    -30.2513E+06    -28.3780E+06    -9.76400E+06     6.31480E+06     3.84367E+06         23.3552
            1983     9.94114E-03     107.665E-03     991.277E-03    -439.514E-03    -606.986E-03    -438.018E-03     989.781E-03    -606.986E-03     87.2142E-03     40.4344E-03    -6.30202E-03    -34.1351E-03    -18.0908E-03     24.3901E-03    -6.30202E-03     61.2191E-03     16.0704E+06    -8.79261E+06    -30.2861E+06    -26.7635E+06    -12.3152E+06     16.0704E+06    -5.31335E+06         24.7612
            1984     10.9214E-03     107.720E-03     937.233E-03    -393.993E-03    -587.280E-03    -392.576E-03     935.816E-03    -587.280E-03     85.8530E-03     50.4286E-03    -7.60335E-03    -42.8324E-03    -23.9999E-03     31.5961E-03    -7.60335E-03     74.7566E-03     21.9943E+06    -5.10909E+06    -33.7538E+06    -23.9204E+06    -14.9425E+06     21.9943E+06    -12.7398E+06         26.5242
            1985     11.8959E-03     107.785E-03     883.054E-03    -352.919E-03    -566.719E-03    -351.495E-03     881.630E-03    -566.719E-03     83.2534E-03     60.1305E-03    -9.18234E-03    -50.9520E-03    -31.2458E-03     40.4243E-03    -9.18234E-03     84.6670E-03     24.9582E+06     2.35241E+06    -35.2191E+06    -18.6049E+06    -14.2618E+06     24.9582E+06    -18.4676E+06         28.8982
            1986     12.8627E-03     107.856E-03     796.176E-03    -280.226E-03    -544.526E-03    -279.123E-03     795.073E-03    -544.526E-03     68.1399E-03     72.1162E-03    -11.1047E-03    -61.0041E-03    -40.3403E-03     51.4524E-03    -11.1047E-03     96.2492E-03     26.2852E+06     11.4306E+06    -34.3902E+06    -13.3376E+06    -9.62190E+06     26.2852E+06    -22.4323E+06         32.2836
            1987     13.8205E-03     107.943E-03     713.926E-03    -213.446E-03    -520.060E-03    -212.557E-03     713.036E-03    -520.060E-03     53.8798E-03     86.2477E-03    -13.3954E-03    -72.8532E-03    -51.0190E-03     64.4135E-03    -13.3954E-03     109.280E-03     26.3858E+06     15.0629E+06    -40.1182E+06    -11.3527E+06    -7.60908E+06     20.2924E+06    -30.0183E+06         37.0619
            1988     14.7680E-03     108.041E-03     658.292E-03    -175.242E-03    -495.015E-03    -174.747E-03     657.798E-03    -495.015E-03     37.4968E-03     99.3061E-03    -16.0270E-03    -83.2937E-03    -62.2039E-03     78.2163E-03    -16.0270E-03     116.433E-03     19.6028E+06    -2.49905E+06    -60.9334E+06    -13.9718E+06    -27.3588E+06    -2.49905E+06    -38.7929E+06         43.2797
            1989     15.7050E-03     108.145E-03     589.091E-03    -123.059E-03    -469.927E-03    -122.796E-03     588.828E-03    -469.927E-03     24.2735E-03     114.565E-03    -19.0846E-03    -95.4913E-03    -73.4661E-03     92.5398E-03    -19.0846E-03     128.669E-03     35.4845E+06     7.41205E+06    -46.1029E+06    -13.1667E+06     2.54826E+06     7.41205E+06    -31.7397E+06         49.9876
            1990     16.6328E-03     108.278E-03     505.340E-03    -56.4698E-03    -444.686E-03    -55.9357E-03     504.805E-03    -444.686E-03    -12.9178E-03     114.827E-03    -22.6232E-03    -92.2110E-03    -78.9354E-03     101.551E-03    -22.6232E-03     91.6035E-03     101.707E+06     61.8328E+06    -11.8387E+06    -7.73179E+06     69.7900E+06     89.6429E+06    -15.1171E+06         55.5721
            1991     998.419E-06     108.525E-03         1.16829    -561.470E-03    -666.205E-03    -586.087E-03         1.16682    -640.120E-03    -12.8703E-03     2.14752E-03    -1.02491E-03    -1.12260E-03    -1.03314E-03     2.12411E-03    -1.09095E-03     462.082E-06    -67.2938E+06    -163.046E+06    -168.860E+06    -160.000E+06    -70.3395E+06    -168.860E+06     10.2957E+06         20.1231
            1992     1.99724E-03     108.526E-03         1.22395    -624.437E-03    -673.222E-03    -671.820E-03         1.22286    -624.750E-03     36.2690E-03     2.28506E-03    -1.02752E-03    -1.25755E-03    -1.06487E-03     2.13083E-03    -1.06597E-03     1.29678E-03    -42.6546E+06    -137.999E+06    -150.583E+06    -133.693E+06    -51.2745E+06    -146.269E+06     19.8830E+06         20.1654
            1993     2.99617E-03     108.529E-03         1.18807    -616.506E-03    -659.028E-03    -638.350E-03         1.18752    -636.641E-03     39.0223E-03     3.26561E-03    -1.14263E-03    -2.12295E-03    -1.46970E-03     2.61236E-03    -1.14263E-03     3.43269E-03    -24.7035E+06    -105.055E+06    -134.942E+06    -102.773E+06    -39.6553E+06    -122.272E+06     28.3907E+06         20.2671
            1994     3.99448E-03     108.535E-03         1.14237    -599.007E-03    -632.424E-03    -598.676E-03         1.14203    -632.424E-03    -4.42078E-03     5.36276E-03    -1.36481E-03    -3.99790E-03    -2.32382E-03     3.68868E-03    -1.36481E-03     7.15328E-03    -19.6556E+06    -78.1393E+06    -115.762E+06    -76.2190E+06    -39.2061E+06    -98.1317E+06     30.6064E+06         20.4277
            1995     4.99137E-03     108.543E-03         1.12990    -591.346E-03    -624.356E-03    -590.558E-03         1.12911    -624.356E-03     23.8140E-03     8.36679E-03    -1.73708E-03    -6.62970E-03    -3.45958E-03     5.19666E-03    -1.73708E-03     12.2307E-03    -14.6904E+06    -57.1562E+06    -87.6372E+06    -53.9793E+06    -35.8702E+06    -69.6343E+06     28.6148E+06         20.6470
            1996     5.98736E-03     108.557E-03         1.09013    -553.545E-03    -615.098E-03    -552.953E-03         1.08954    -615.098E-03     50.8631E-03     12.0779E-03    -2.18631E-03    -9.89004E-03    -4.80492E-03     6.99282E-03    -2.18631E-03     18.5183E-03    -7.02815E+06    -41.9982E+06    -61.3238E+06    -38.7708E+06    -24.9201E+06    -46.6593E+06     23.4814E+06         20.9446
            1997     6.98181E-03     108.576E-03         1.04136    -511.943E-03    -602.393E-03    -511.370E-03         1.04079    -602.393E-03     55.3989E-03     16.7847E-03    -2.72869E-03    -14.0542E-03    -6.49311E-03     9.22361E-03    -2.72869E-03     26.5165E-03    -7.03393E+06    -29.2516E+06    -44.5003E+06    -33.0099E+06    -18.5182E+06    -29.2577E+06     16.4365E+06         21.4022
            1998     7.97488E-03     108.603E-03     996.622E-03    -476.815E-03    -587.463E-03    -475.982E-03     995.789E-03    -587.463E-03     68.3353E-03     22.6114E-03    -3.37792E-03    -19.2318E-03    -8.64816E-03     12.0278E-03    -3.37792E-03     36.3550E-03    -3.02174E+06    -14.0824E+06    -35.1971E+06    -30.2291E+06    -9.24660E+06    -12.8255E+06     9.55880E+06         22.1452
            1999     8.96533E-03     108.640E-03     951.452E-03    -439.306E-03    -571.186E-03    -438.611E-03     950.757E-03    -571.186E-03     60.2142E-03     29.6715E-03    -4.16628E-03    -25.5052E-03    -11.6302E-03     15.7965E-03    -4.16628E-03     47.8392E-03     7.79109E+06    -2.46553E+06    -25.3891E+06    -23.8963E+06    -638.192E+03     4.47093E+06     1.91372E+06         23.2229
            2000     9.95274E-03     108.687E-03     906.311E-03    -406.238E-03    -553.874E-03    -405.014E-03     905.087E-03    -553.874E-03     75.1342E-03     39.0028E-03    -5.14464E-03    -33.8612E-03    -15.9511E-03     21.0927E-03    -5.14464E-03     62.6907E-03     19.0159E+06     1.97172E+06    -21.8253E+06    -15.6330E+06    -4.22049E+06     19.0159E+06    -5.38423E+06         24.6273
            2001     10.9355E-03     108.749E-03     851.226E-03    -361.205E-03    -535.334E-03    -359.361E-03     849.383E-03    -535.334E-03     92.1496E-03     49.5437E-03    -6.34929E-03    -43.1929E-03    -21.6684E-03     28.0192E-03    -6.34929E-03     78.2003E-03     29.0478E+06     5.45981E+06    -22.5946E+06    -10.3393E+06    -6.79549E+06     29.0478E+06    -11.6564E+06         26.3952
            2002     11.9126E-03     108.823E-03     781.762E-03    -303.414E-03    -514.893E-03    -302.141E-03     780.489E-03    -514.893E-03     71.9706E-03     60.2689E-03    -7.84241E-03    -52.4214E-03    -29.2026E-03     37.0501E-03    -7.84241E-03     90.9658E-03     34.5831E+06     13.1887E+06    -25.4386E+06    -6.97055E+06    -5.27927E+06     34.5831E+06    -19.1127E+06         28.7953
            2003     12.8817E-03     108.907E-03     717.938E-03    -253.119E-03    -492.773E-03    -252.486E-03     717.305E-03    -492.773E-03     49.4362E-03     73.5590E-03    -9.71149E-03    -63.8455E-03    -38.9309E-03     48.6444E-03    -9.71149E-03     105.716E-03     36.5329E+06     19.4265E+06    -28.1138E+06    -2.74489E+06    -5.94234E+06     36.5329E+06    -23.6414E+06         32.2271
            2004     13.8411E-03     109.008E-03     665.454E-03    -214.406E-03    -469.944E-03    -213.635E-03     664.683E-03    -469.944E-03     51.3927E-03     89.1400E-03    -12.0107E-03    -77.1317E-03    -50.5608E-03     62.5690E-03    -12.0107E-03     121.621E-03     39.5126E+06     28.5211E+06    -24.5165E+06         853.625     5.21869E+06     38.2976E+06    -26.4776E+06         37.0955
            2005     14.7896E-03     109.122E-03     604.888E-03    -167.701E-03    -446.826E-03    -167.135E-03     604.322E-03    -446.826E-03     39.1312E-03     104.512E-03    -14.7357E-03    -89.7784E-03    -64.1739E-03     78.9075E-03    -14.7357E-03     131.025E-03     29.9920E+06     14.3876E+06    -47.2330E+06    -880.945E+03    -18.2012E+06     16.2287E+06    -32.8800E+06         43.4703
            2006     15.7245E-03     109.243E-03     528.724E-03    -106.654E-03    -422.702E-03    -106.540E-03     528.610E-03    -422.702E-03     9.62737E-03     123.383E-03    -18.0435E-03    -105.341E-03    -79.4559E-03     97.4973E-03    -18.0435E-03     144.862E-03     34.3392E+06     13.4151E+06    -45.4385E+06    -3.79904E+06    -11.3029E+06     17.4177E+06    -30.3935E+06         50.3420
            2007     16.6442E-03     109.396E-03     466.108E-03    -55.9076E-03    -398.658E-03    -55.1217E-03     465.322E-03    -398.658E-03     5.41855E-03     125.870E-03    -22.0029E-03    -103.872E-03    -89.0528E-03     111.050E-03    -22.0029E-03     99.1296E-03     95.4661E+06     53.2678E+06    -10.1172E+06    -3.58739E+06     51.1111E+06     91.0929E+06    -13.9611E+06         56.0641
            2008     997.929E-06     109.527E-03         1.04208    -518.762E-03    -592.195E-03    -545.981E-03         1.04040    -563.292E-03    -5.53481E-03     3.29661E-03    -1.60465E-03    -1.69190E-03    -1.61025E-03     3.29154E-03    -1.68123E-03     55.7584E-06    -73.0975E+06    -141.235E+06    -146.327E+06    -142.953E+06    -73.8694E+06    -143.837E+06    -6.09145E+06         20.1857
            2009     1.99614E-03     109.528E-03         1.10155    -566.116E-03    -613.066E-03    -612.397E-03         1.10088    -566.116E-03     50.4346E-03     3.16396E-03    -1.54141E-03    -1.62252E-03    -1.51666E-03     3.12292E-03    -1.60623E-03     494.700E-06    -60.0181E+06    -132.150E+06    -142.861E+06    -133.646E+06    -61.6713E+06    -139.712E+06    -6.49429E+06         20.2142
            2010     2.99441E-03     109.532E-03         1.06826    -561.324E-03    -599.811E-03    -582.665E-03         1.06798    -578.192E-03     21.0626E-03     3.42730E-03    -1.53215E-03    -1.89515E-03    -1.60376E-03     3.14717E-03    -1.54341E-03     1.91136E-03    -46.4282E+06    -119.232E+06    -137.779E+06    -117.715E+06    -49.2745E+06    -136.450E+06    -2.90991E+06         20.2819
            2011     3.99281E-03     109.537E-03         1.02039    -540.886E-03    -578.167E-03    -543.247E-03         1.01918    -574.595E-03     29.8683E-03     4.56958E-03    -1.57747E-03    -2.99235E-03    -2.00277E-03     3.58000E-03    -1.57747E-03     4.82150E-03    -37.7530E+06    -100.502E+06    -126.079E+06    -95.2781E+06    -43.1562E+06    -125.899E+06    -526.957E+03         20.3949
            2012     4.99098E-03     109.548E-03     998.977E-03    -529.916E-03    -566.137E-03    -527.459E-03     996.521E-03    -566.137E-03     61.4495E-03     6.77030E-03    -1.72690E-03    -5.04328E-03    -2.75171E-03     4.47873E-03    -1.72690E-03     9.23966E-03    -28.8318E+06    -78.8258E+06    -108.945E+06    -70.2168E+06    -37.4408E+06    -108.945E+06    -478.003E+03         20.5673
            2013     5.98788E-03     109.563E-03     968.786E-03    -499.182E-03    -556.327E-03    -497.078E-03     966.682E-03    -556.327E-03     86.3534E-03     10.0451E-03    -1.98970E-03    -8.05409E-03    -3.84912E-03     5.84011E-03    -1.98970E-03     15.2601E-03    -15.7359E+06    -56.1608E+06    -87.8238E+06    -45.4246E+06    -26.4721E+06    -87.8238E+06     1.89699E+06         20.8407
            2014     6.98362E-03     109.584E-03     927.304E-03    -458.296E-03    -543.818E-03    -457.088E-03     926.097E-03    -543.818E-03     76.2707E-03     14.6457E-03    -2.43923E-03    -12.2051E-03    -5.34903E-03     7.78958E-03    -2.43923E-03     23.4083E-03    -5.76127E+06    -33.2469E+06    -57.9870E+06    -25.1362E+06    -17.7567E+06    -54.1023E+06     5.36146E+06         21.3055
            2015     7.97731E-03     109.614E-03     886.625E-03    -424.374E-03    -529.209E-03    -423.441E-03     885.692E-03    -529.209E-03     65.3133E-03     20.4751E-03    -3.02249E-03    -17.4522E-03    -7.27149E-03     10.2944E-03    -3.02249E-03     33.6114E-03     4.84063E+06    -12.0696E+06    -29.4000E+06    -12.5414E+06    -5.06043E+06    -19.0271E+06     4.45111E+06         22.0521
            2016     8.96962E-03     109.653E-03     843.089E-03    -391.767E-03    -513.468E-03    -391.059E-03     842.381E-03    -513.468E-03     56.4263E-03     27.6604E-03    -3.70330E-03    -23.9577E-03    -9.95110E-03     13.6538E-03    -3.70330E-03     45.9005E-03     12.2817E+06     3.36175E+06    -15.7366E+06    -9.36151E+06     4.70898E+06     4.55938E+06     1.39174E+06         23.1118
            2017     9.95891E-03     109.705E-03     804.317E-03    -360.519E-03    -496.786E-03    -359.125E-03     802.923E-03    -496.786E-03     77.8461E-03     37.0175E-03    -4.54311E-03    -32.4781E-03    -13.6977E-03     18.2371E-03    -4.54311E-03     61.7050E-03     20.1428E+06     11.6513E+06    -18.9051E+06    -11.4913E+06     4.23754E+06     20.1428E+06    -4.63974E+06         24.4848
            2018     10.9446E-03     109.774E-03     754.986E-03    -320.762E-03    -478.874E-03    -319.098E-03     753.321E-03    -478.874E-03     81.7859E-03     47.9061E-03    -5.58956E-03    -42.3187E-03    -18.9357E-03     24.5231E-03    -5.58956E-03     79.0023E-03     32.5581E+06     14.7940E+06    -21.3960E+06    -8.60941E+06     2.00737E+06     32.5581E+06    -13.3489E+06         26.2218
            2019     11.9247E-03     109.857E-03     689.938E-03    -266.254E-03    -459.138E-03    -265.460E-03     689.145E-03    -459.138E-03     44.2082E-03     59.6389E-03    -6.92482E-03    -52.7077E-03    -26.4407E-03     33.3719E-03    -6.92482E-03     94.9487E-03     42.5261E+06     21.2982E+06    -19.8902E+06    -2.35702E+06     3.76501E+06     42.5261E+06    -19.9147E+06         28.6114
            2020     12.8966E-03     109.953E-03     637.837E-03    -223.792E-03    -437.884E-03    -223.313E-03     637.358E-03    -437.884E-03     33.2739E-03     74.0404E-03    -8.66591E-03    -65.3690E-03    -36.5478E-03     45.2192E-03    -8.66591E-03     112.758E-03     47.0221E+06     24.2991E+06    -25.5260E+06     1.29954E+06    -2.52647E+06     47.0221E+06    -23.7204E+06         32.0531
            2021     13.8590E-03     110.068E-03     593.097E-03    -193.963E-03    -416.054E-03    -192.907E-03     592.041E-03    -416.054E-03     54.4236E-03     91.3205E-03    -10.8798E-03    -80.4479E-03    -49.3644E-03     60.2370E-03    -10.8798E-03     132.046E-03     50.5652E+06     33.3977E+06    -20.1452E+06     3.31998E+06     9.93251E+06     50.5652E+06    -24.0062E+06         36.9783
            2022     14.8088E-03     110.201E-03     533.239E-03    -146.164E-03    -393.558E-03    -144.933E-03     532.007E-03    -393.558E-03     51.1932E-03     109.347E-03    -13.6314E-03    -95.7214E-03    -65.3700E-03     78.9958E-03    -13.6314E-03     145.154E-03     38.0820E+06     24.2998E+06    -36.5727E+06     1.38274E+06    -7.96634E+06     32.3926E+06    -27.1503E+06         43.4826
            2023     15.7414E-03     110.345E-03     472.279E-03    -97.8247E-03    -369.952E-03    -97.2533E-03     471.708E-03    -369.952E-03     14.3491E-03     132.106E-03    -17.0999E-03    -115.005E-03    -84.5913E-03     101.693E-03    -17.0999E-03     162.232E-03     28.6706E+06     12.0643E+06    -41.2050E+06    -2.87709E+06    -20.5742E+06     22.9812E+06    -24.9670E+06         50.5283
            2024     16.6573E-03     110.523E-03     424.503E-03    -59.8108E-03    -347.363E-03    -59.1033E-03     423.796E-03    -347.363E-03     15.5355E-03     136.839E-03    -21.4029E-03    -115.463E-03    -98.4765E-03     119.853E-03    -21.4029E-03     109.326E-03     84.1066E+06     39.6019E+06    -12.2849E+06    -4.91650E+06     32.2335E+06     84.1066E+06    -10.0753E+06         56.3914
            2025     997.213E-06     110.532E-03     951.222E-03    -479.866E-03    -553.131E-03    -480.074E-03     948.611E-03    -550.312E-03     65.8469E-03     5.36310E-03    -2.63212E-03    -2.73101E-03    -2.69844E-03     5.35964E-03    -2.66123E-03    -329.020E-06    -58.6537E+06    -102.432E+06    -106.238E+06    -103.763E+06    -61.0729E+06    -102.487E+06    -9.62627E+06         20.3589
            2026     1.99417E-03     110.533E-03     901.578E-03    -486.679E-03    -512.641E-03    -488.690E-03     900.745E-03    -509.797E-03     56.6560E-03     5.59490E-03    -2.71951E-03    -2.87558E-03    -2.84471E-03     5.59041E-03    -2.74588E-03    -188.897E-06    -49.6615E+06    -95.7521E+06    -105.012E+06    -100.510E+06    -54.1638E+06    -95.7521E+06    -14.3853E+06         20.3912
            2027     2.99113E-03     110.536E-03     900.774E-03    -494.844E-03    -510.497E-03    -500.942E-03     900.135E-03    -503.760E-03     38.3458E-03     5.85500E-03    -2.81506E-03    -3.04009E-03    -2.97904E-03     5.80521E-03    -2.82632E-03     663.806E-06    -40.4031E+06    -90.8383E+06    -101.913E+06    -95.2525E+06    -47.0635E+06    -90.8383E+06    -18.2316E+06         20.4424
            2028     3.98799E-03     110.542E-03     890.115E-03    -489.052E-03    -508.570E-03    -494.762E-03     889.114E-03    -501.860E-03     54.3823E-03     6.25547E-03    -2.86163E-03    -3.39421E-03    -3.09345E-03     5.95471E-03    -2.86163E-03     2.57573E-03    -30.9623E+06    -87.2017E+06    -102.366E+06    -88.3651E+06    -39.5580E+06    -92.6070E+06    -21.0432E+06         20.5173
            2029     4.98476E-03     110.552E-03     858.233E-03    -465.174E-03    -496.733E-03    -462.667E-03     855.726E-03    -496.733E-03     101.000E-03     7.14229E-03    -2.87373E-03    -4.27008E-03    -3.28459E-03     6.15680E-03    -2.87373E-03     5.68765E-03    -21.9792E+06    -80.5619E+06    -108.476E+06    -79.4242E+06    -33.3895E+06    -98.2034E+06    -24.3346E+06         20.6378
            2030     5.98187E-03     110.568E-03     845.646E-03    -445.593E-03    -488.403E-03    -443.285E-03     843.338E-03    -488.403E-03     88.2979E-03     9.10642E-03    -2.95463E-03    -6.14978E-03    -3.80683E-03     6.76347E-03    -2.95463E-03     10.4975E-03    -14.4328E+06    -67.7416E+06    -106.049E+06    -65.5164E+06    -27.9634E+06    -94.7436E+06    -25.5145E+06         20.8671
            2031     6.97820E-03     110.591E-03     819.193E-03    -416.038E-03    -478.489E-03    -414.525E-03     817.680E-03    -478.489E-03     72.6117E-03     12.5222E-03    -3.16589E-03    -9.35273E-03    -4.72715E-03     7.89666E-03    -3.16589E-03     17.6015E-03    -4.24657E+06    -55.0592E+06    -81.7807E+06    -43.2413E+06    -21.7815E+06    -76.0635E+06    -21.6767E+06         21.3070
            2032     7.97383E-03     110.623E-03     774.790E-03    -375.374E-03    -466.075E-03    -374.254E-03     773.670E-03    -466.075E-03     64.6350E-03     17.5716E-03    -3.48293E-03    -14.0890E-03    -6.12896E-03     9.61161E-03    -3.48293E-03     27.3852E-03     9.74857E+06    -34.5581E+06    -50.7456E+06    -17.8888E+06    -6.92081E+06    -50.7456E+06    -14.6252E+06         22.0244
            2033     8.96702E-03     110.665E-03     735.066E-03    -347.867E-03    -451.772E-03    -346.715E-03     733.913E-03    -451.772E-03     59.4102E-03     24.6805E-03    -3.99866E-03    -20.6815E-03    -8.40161E-03     12.4007E-03    -3.99866E-03     40.2981E-03     18.2510E+06    -6.59243E+06    -23.8700E+06     2.21020E+06     608.058E+03    -15.0296E+06    -5.70227E+06         23.0360
            2034     9.95768E-03     110.721E-03     692.914E-03    -315.484E-03    -436.346E-03    -314.020E-03     691.451E-03    -436.346E-03     71.6605E-03     34.0583E-03    -4.71480E-03    -29.3465E-03    -11.6763E-03     16.3881E-03    -4.71480E-03     56.8535E-03     30.8381E+06     20.8720E+06    -6.37920E+06     11.7592E+06     9.96160E+06     23.6102E+06    -1.20090E+06         24.3444
            2035     10.9454E-03     110.794E-03     641.978E-03    -272.044E-03    -419.150E-03    -270.904E-03     640.839E-03    -419.150E-03     60.1419E-03     45.2291E-03    -5.58184E-03    -39.6522E-03    -16.3559E-03     21.9328E-03    -5.58184E-03     75.7422E-03     45.7752E+06     29.9761E+06     -6.4589E+06     9.84378E+06     14.9627E+06     44.4860E+06    -9.12922E+06         26.0073
            2036     11.9286E-03     110.886E-03     601.671E-03    -235.651E-03    -400.289E-03    -234.715E-03     600.735E-03    -400.289E-03     43.7125E-03     57.5434E-03    -6.70881E-03    -50.8359E-03    -23.2434E-03     29.9510E-03    -6.70881E-03     94.3502E-03     53.2165E+06     22.2828E+06    -9.80738E+06     4.50078E+06     7.97465E+06     53.2165E+06    -15.4324E+06         28.3238
            2037     12.9045E-03     110.994E-03     555.595E-03    -195.143E-03    -380.136E-03    -194.031E-03     554.482E-03    -380.136E-03     45.3991E-03     73.1136E-03    -8.23860E-03    -64.8748E-03    -33.5107E-03     41.7495E-03    -8.23860E-03     115.535E-03     58.6176E+06     23.3807E+06    -18.3535E+06     368.717E+03     4.65843E+06     58.6176E+06    -18.5225E+06         31.7104
            2038     13.8695E-03     111.124E-03     497.730E-03    -152.400E-03    -358.510E-03    -150.761E-03     496.091E-03    -358.510E-03     63.3281E-03     92.3972E-03    -10.2939E-03    -82.1122E-03    -47.6855E-03     57.9705E-03    -10.2939E-03     138.678E-03     59.7929E+06     32.8816E+06    -20.6018E+06    -413.023E+03     12.6929E+06     59.7929E+06    -23.0849E+06         36.6355
            2039     14.8207E-03     111.278E-03     453.536E-03    -120.052E-03    -335.984E-03    -118.744E-03     452.228E-03    -335.984E-03     51.2249E-03     112.461E-03    -12.9917E-03    -99.4766E-03    -64.7751E-03     77.7591E-03    -12.9917E-03     156.455E-03     48.5081E+06     26.1046E+06    -30.5200E+06     1.15751E+06    -5.57289E+06     48.5081E+06    -21.6696E+06         43.2246
            2040     15.7546E-03     111.448E-03     421.927E-03    -98.7050E-03    -313.341E-03    -98.0114E-03     421.233E-03    -313.341E-03     9.62536E-03     140.219E-03    -16.4332E-03    -123.784E-03    -87.0293E-03     103.464E-03    -16.4332E-03     182.505E-03     32.1340E+06     11.0450E+06    -35.5880E+06    -449.637E+03    -24.0933E+06     32.1340E+06    -17.7858E+06         50.4275
            2041     16.6641E-03     111.658E-03     379.656E-03    -68.5972E-03    -292.636E-03    -68.3749E-03     379.434E-03    -292.636E-03    -4.50148E-03     148.511E-03    -20.8744E-03    -127.675E-03    -106.472E-03     127.308E-03    -20.8744E-03     127.705E-03     73.8764E+06     28.8903E+06    -12.1445E+06    -554.119E+03     17.2999E+06     73.8764E+06    -6.10279E+06         56.4237
            2042     996.017E-06     111.538E-03     790.271E-03    -387.934E-03    -504.075E-03    -385.660E-03     787.997E-03    -504.075E-03     47.4771E-03     8.40130E-03    -4.12910E-03    -4.27219E-03    -4.24541E-03     8.39341E-03    -4.14799E-03    -604.505E-06    -41.4846E+06    -60.7702E+06    -67.3833E+06    -63.5268E+06    -45.2855E+06    -60.8258E+06    -8.76116E+06         20.6121
            2043     1.99154E-03     111.540E-03     728.919E-03    -405.663E-03    -436.768E-03    -405.100E-03     728.355E-03    -436.768E-03     43.7237E-03     9.05554E-03    -4.33607E-03    -4.71969E-03    -4.70621E-03     9.04206E-03    -4.33607E-03    -839.230E-06    -33.5242E+06    -56.5036E+06    -70.4343E+06    -62.7730E+06    -41.1855E+06    -56.5036E+06    -14.3540E+06         20.6512
            2044     2.98647E-03     111.543E-03     718.392E-03    -407.968E-03    -429.070E-03    -410.307E-03     717.592E-03    -425.931E-03     45.4324E-03     9.73287E-03    -4.58190E-03    -5.15141E-03    -5.13904E-03     9.72051E-03    -4.58190E-03    -544.805E-06    -23.4873E+06    -49.6118E+06    -72.4521E+06    -59.8984E+06    -36.0409E+06    -49.6118E+06    -20.7121E+06         20.7042
            2045     3.98094E-03     111.550E-03     741.103E-03    -415.896E-03    -440.024E-03    -431.727E-03     740.696E-03    -423.787E-03     26.0340E-03     10.2054E-03    -4.78786E-03    -5.41837E-03    -5.38077E-03     10.1678E-03    -4.78786E-03     582.924E-06    -13.0053E+06    -45.9366E+06    -72.3279E+06    -55.5746E+06    -29.7586E+06    -45.9366E+06    -26.1363E+06         20.7708
            2046     4.97556E-03     111.560E-03     740.839E-03    -410.656E-03    -436.995E-03    -423.057E-03     740.142E-03    -423.897E-03     48.4396E-03     10.6761E-03    -4.94269E-03    -5.73565E-03    -5.52687E-03     10.4673E-03    -4.94269E-03     2.67823E-03    -4.90798E+06    -45.5566E+06    -72.6527E+06    -53.3460E+06    -24.2146E+06    -45.5566E+06    -30.3268E+06         20.8687
            2047     5.96984E-03     111.576E-03     702.622E-03    -378.133E-03    -419.152E-03    -376.998E-03     701.487E-03    -419.152E-03     56.1984E-03     11.5389E-03    -5.07152E-03    -6.46575E-03    -5.72575E-03     10.7989E-03    -5.07152E-03     6.05099E-03     457.478E+03    -47.9709E+06    -76.6573E+06    -54.8231E+06    -21.3768E+06    -47.9709E+06    -34.6764E+06         21.0558
            2048     6.96422E-03     111.600E-03     673.465E-03    -347.294E-03    -409.428E-03    -345.756E-03     671.926E-03    -409.428E-03     64.1612E-03     13.1481E-03    -5.18817E-03    -7.95768E-03    -6.01085E-03     11.2013E-03    -5.18817E-03     11.1003E-03     5.28356E+06    -52.4242E+06    -80.4093E+06    -55.2937E+06    -19.6769E+06    -52.5794E+06    -38.7100E+06         21.4355
            2049     7.95842E-03     111.632E-03     649.996E-03    -327.308E-03    -398.059E-03    -325.953E-03     648.641E-03    -398.059E-03     69.2893E-03     16.0975E-03    -5.32194E-03    -10.7734E-03    -6.52920E-03     11.8533E-03    -5.32194E-03     18.6682E-03     11.8146E+06    -43.2250E+06    -80.4915E+06    -47.7778E+06    -11.6692E+06    -52.4549E+06    -37.0446E+06         22.0831
            2050     8.95298E-03     111.676E-03     623.427E-03    -305.283E-03    -385.931E-03    -303.695E-03     621.839E-03    -385.931E-03     71.3526E-03     21.2572E-03    -5.59612E-03    -15.6528E-03    -7.68518E-03     13.2896E-03    -5.59612E-03     29.8472E-03     14.2842E+06    -25.4193E+06    -63.4951E+06    -30.4875E+06    -9.64857E+06    -34.4941E+06    -28.0122E+06         23.0146
            2051     9.94576E-03     111.735E-03     585.567E-03    -271.183E-03    -372.285E-03    -269.510E-03     583.894E-03    -372.285E-03     72.1824E-03     29.3049E-03    -6.01951E-03    -23.2806E-03    -9.87906E-03     15.9034E-03    -6.01951E-03     45.6465E-03     27.1657E+06    -2.23484E+06    -30.9752E+06    -7.24748E+06     3.43799E+06    -2.23484E+06    -15.8574E+06         24.2265
            2052     10.9352E-03     111.813E-03     536.666E-03    -227.545E-03    -356.240E-03    -226.009E-03     535.130E-03    -356.240E-03     64.8597E-03     40.2230E-03    -6.65291E-03    -33.5696E-03    -13.5503E-03     20.2037E-03    -6.65291E-03     65.5990E-03     50.3803E+06     20.4921E+06    -5.92397E+06     8.19083E+06     19.6911E+06     37.0665E+06    -5.96169E+06         25.7723
            2053     11.9202E-03     111.911E-03     497.506E-03    -194.225E-03    -338.177E-03    -192.521E-03     495.801E-03    -338.177E-03     67.4302E-03     53.3652E-03    -7.56023E-03    -45.8074E-03    -19.7839E-03     27.3418E-03    -7.56023E-03     87.2307E-03     64.7017E+06     23.2413E+06     538.449E+03     10.0541E+06     13.7257E+06     64.7017E+06    -6.65223E+06         27.9363
            2054     12.8993E-03     112.029E-03     462.983E-03    -164.966E-03    -318.927E-03    -163.760E-03     461.777E-03    -318.927E-03     45.4928E-03     70.6012E-03    -8.81651E-03    -61.7863E-03    -30.4087E-03     39.2235E-03    -8.81651E-03     112.507E-03     72.9127E+06     23.5431E+06    -4.44014E+06     8.37021E+06     10.7327E+06     72.9127E+06    -9.86463E+06         31.1758
            2055     13.8672E-03     112.176E-03     417.394E-03    -131.286E-03    -298.624E-03    -130.374E-03     416.482E-03    -298.624E-03     33.5016E-03     91.3097E-03    -10.6559E-03    -80.6548E-03    -44.9292E-03     55.5841E-03    -10.6559E-03     139.372E-03     76.5092E+06     33.0051E+06    -9.66641E+06     3.53653E+06     19.8022E+06     76.5092E+06    -13.3266E+06         36.0199
            2056     14.8202E-03     112.350E-03     374.299E-03    -98.7229E-03    -277.539E-03    -98.4298E-03     374.006E-03    -277.539E-03     19.8182E-03     111.878E-03    -13.1158E-03    -98.7619E-03    -60.7119E-03     73.8276E-03    -13.1158E-03     161.836E-03     63.6831E+06     21.4752E+06    -29.4669E+06    -2.95993E+06    -5.03173E+06     63.6831E+06    -17.0237E+06         42.6111
            2057     15.7603E-03     112.542E-03     342.984E-03    -79.4438E-03    -255.788E-03    -79.2723E-03     342.812E-03    -255.788E-03    -4.96861E-03     145.267E-03    -16.2153E-03    -129.048E-03    -84.0482E-03     100.266E-03    -16.2153E-03     202.852E-03     37.1086E+06     1.23622E+06    -36.7707E+06    -6.11763E+06    -29.4169E+06     37.1086E+06    -13.5652E+06         49.9008
            2058     16.6770E-03     112.799E-03     306.897E-03    -55.9659E-03    -235.479E-03    -55.3449E-03     306.276E-03    -235.479E-03    -19.1582E-03     160.119E-03    -20.5193E-03    -139.597E-03    -111.153E-03     131.675E-03    -20.5193E-03     156.007E-03     68.1877E+06     18.7771E+06    -15.5149E+06    -4.99248E+06     8.25463E+06     68.1877E+06    -3.94786E+06         55.9816
            2059     993.909E-06     112.548E-03     605.671E-03    -304.437E-03    -420.042E-03    -312.981E-03     604.548E-03    -410.375E-03    -24.0522E-03     12.7725E-03    -6.27819E-03    -6.49583E-03    -6.48015E-03     12.7617E-03    -6.28308E-03    -818.920E-06    -23.6373E+06    -28.8182E+06    -40.4980E+06    -32.1598E+06    -31.9755E+06    -28.8182E+06    -6.23400E+06         20.9339
            2060     1.98742E-03     112.551E-03     597.558E-03    -349.489E-03    -370.344E-03    -357.575E-03     595.978E-03    -360.677E-03    -9.60041E-03     13.6463E-03    -6.56028E-03    -7.08799E-03    -7.05994E-03     13.6182E-03    -6.56028E-03    -1.50578E-03    -14.6574E+06    -23.7349E+06    -42.5627E+06    -30.2646E+06    -26.9555E+06    -23.7349E+06    -13.4010E+06         20.9771
            2061     2.97993E-03     112.555E-03     575.400E-03    -343.198E-03    -357.002E-03    -341.449E-03     573.651E-03    -357.002E-03    -4.10097E-03     14.6080E-03    -6.87806E-03    -7.72927E-03    -7.69527E-03     14.5740E-03    -6.87806E-03    -1.71388E-03    -5.17916E+06    -19.1323E+06    -45.9963E+06    -28.2079E+06    -22.9675E+06    -19.1323E+06    -19.9131E+06         21.0416
            2062     3.97206E-03     112.562E-03     585.936E-03    -344.350E-03    -367.371E-03    -357.062E-03     585.550E-03    -354.273E-03     22.5215E-03     15.5774E-03    -7.21701E-03    -8.35743E-03    -8.33330E-03     15.5533E-03    -7.21701E-03    -1.27070E-03     1.36587E+06    -14.6122E+06    -48.6864E+06    -28.3838E+06    -18.9367E+06    -14.6122E+06    -24.4693E+06         21.1265
            2063     4.96333E-03     112.573E-03     592.064E-03    -338.023E-03    -366.635E-03    -350.713E-03     591.657E-03    -353.537E-03     21.9734E-03     16.4958E-03    -7.54067E-03    -8.95295E-03    -8.92571E-03     16.4686E-03    -7.54067E-03    -119.164E-06     5.89356E+06    -14.7215E+06    -50.7559E+06    -29.5514E+06    -15.3109E+06    -14.7215E+06    -27.2702E+06         21.2372
            2064     5.95426E-03     112.590E-03     558.677E-03    -309.460E-03    -348.692E-03    -308.595E-03     557.812E-03    -348.692E-03     37.3789E-03     17.3371E-03    -7.85335E-03    -9.48521E-03    -9.36638E-03     17.2183E-03    -7.85335E-03     1.99126E-03     10.6359E+06    -14.7044E+06    -52.9325E+06    -30.7633E+06    -11.5332E+06    -14.7044E+06    -30.1487E+06         21.4032
            2065     6.94466E-03     112.613E-03     525.270E-03    -278.367E-03    -339.239E-03    -277.368E-03     524.270E-03    -339.239E-03     37.7455E-03     18.3366E-03    -8.17657E-03    -10.1664E-03    -9.72484E-03     17.8950E-03    -8.17657E-03     5.35255E-03     14.7503E+06    -10.2721E+06    -58.6716E+06    -34.0228E+06    -9.89853E+06    -10.2721E+06    -34.6243E+06         21.7113
            2066     7.93485E-03     112.646E-03     509.015E-03    -261.495E-03    -328.297E-03    -260.560E-03     508.080E-03    -328.297E-03     45.0670E-03     19.8535E-03    -8.48444E-03    -11.3651E-03    -10.0828E-03     18.5713E-03    -8.48444E-03     10.4215E-03     13.8499E+06    -7.96995E+06    -66.2321E+06    -41.4609E+06    -10.9213E+06    -7.96995E+06    -36.9140E+06         22.2568
            2067     8.92433E-03     112.690E-03     492.953E-03    -249.464E-03    -317.117E-03    -247.997E-03     491.486E-03    -317.117E-03     63.6940E-03     22.3066E-03    -8.75994E-03    -13.5355E-03    -10.4203E-03     19.1914E-03    -8.75994E-03     18.0746E-03     10.3855E+06    -11.6740E+06    -71.0724E+06    -48.2839E+06    -12.4030E+06    -11.6740E+06    -36.4762E+06         23.0734
            2068     9.91452E-03     112.749E-03     464.213E-03    -220.228E-03    -304.836E-03    -218.749E-03     462.734E-03    -304.836E-03     62.1092E-03     26.6513E-03    -9.04801E-03    -17.6072E-03    -10.9583E-03     20.0024E-03    -9.04801E-03     29.7254E-03     16.1592E+06    -11.2105E+06    -65.7721E+06    -46.9606E+06    -5.96172E+06    -7.90117E+06    -32.8768E+06         24.1602
            2069     10.9051E-03     112.829E-03     429.297E-03    -188.664E-03    -290.567E-03    -187.646E-03     428.280E-03    -290.567E-03     46.0878E-03     33.8667E-03    -9.46665E-03    -24.4100E-03    -12.3604E-03     21.8170E-03    -9.46665E-03     46.0106E-03     32.3392E+06     5.81380E+06    -44.4931E+06    -32.8478E+06     6.19301E+06     20.3146E+06    -20.2339E+06         25.5549
            2070     11.8943E-03     112.932E-03     389.543E-03    -157.770E-03    -274.506E-03    -156.808E-03     388.582E-03    -274.506E-03     41.0617E-03     45.2675E-03    -10.0851E-03    -35.1811E-03    -16.5160E-03     26.6023E-03    -10.0851E-03     67.4827E-03     55.7612E+06     22.7328E+06    -23.0759E+06    -16.3501E+06     16.0070E+06     55.7612E+06    -8.39758E+06         27.5076
            2071     12.8754E-03     113.060E-03     360.991E-03    -131.582E-03    -256.948E-03    -131.126E-03     360.535E-03    -256.948E-03     22.5687E-03     63.4688E-03    -11.0453E-03    -52.4187E-03    -25.9283E-03     36.9784E-03    -11.0453E-03     97.2332E-03     78.2579E+06     24.3057E+06    -17.5275E+06    -7.00439E+06     13.7827E+06     78.2579E+06    -8.56718E+06         30.5274
            2072     13.8446E-03     113.223E-03     339.330E-03    -116.805E-03    -238.509E-03    -116.681E-03     339.206E-03    -238.509E-03     5.04419E-03     84.8918E-03    -12.5080E-03    -72.3830E-03    -38.8857E-03     51.3945E-03    -12.5080E-03     128.723E-03     90.4229E+06     27.8246E+06    -9.96888E+06    -1.30560E+06     19.1613E+06     90.4229E+06    -5.70887E+06         35.1884
            2073     14.8040E-03     113.413E-03     299.163E-03    -84.7807E-03    -219.277E-03    -84.5039E-03     298.886E-03    -219.277E-03     10.3343E-03     105.260E-03    -14.4433E-03    -90.8121E-03    -52.8275E-03     67.2752E-03    -14.4433E-03     154.892E-03     72.7268E+06     16.6171E+06    -20.8500E+06    -6.21778E+06     1.98486E+06     72.7268E+06    -2.21438E+06         41.6251
            2074     15.7533E-03     113.623E-03     250.175E-03    -47.0058E-03    -197.918E-03    -46.7462E-03     249.915E-03    -197.918E-03     5.28859E-03     142.613E-03    -16.9696E-03    -125.638E-03    -75.7038E-03     92.6783E-03    -16.9696E-03     208.727E-03     36.9539E+06    -8.98847E+06    -41.1401E+06    -18.3110E+06    -31.8176E+06     36.9539E+06    -7.19870E+06         48.8800
            2075     16.6794E-03     113.927E-03     215.069E-03    -23.9518E-03    -176.370E-03    -22.8578E-03     213.976E-03    -176.370E-03    -5.09028E-03     163.907E-03    -20.7182E-03    -143.179E-03    -106.207E-03     126.935E-03    -20.7182E-03     185.508E-03     59.3588E+06     10.1350E+06    -23.7010E+06    -13.0033E+06    -562.715E+03     59.3588E+06    -9.38220E+06         54.9614
            2076     991.277E-06     113.564E-03     456.054E-03    -241.733E-03    -339.880E-03    -250.358E-03     455.013E-03    -330.213E-03    -19.6536E-03     18.5955E-03    -9.13320E-03    -9.46361E-03    -9.28963E-03     18.5836E-03    -9.29522E-03    -1.06623E-03    -1.45717E+06    -7.54033E+06    -23.2007E+06    -4.99688E+06    -19.6610E+06    -7.54033E+06    -6.74137E+06         21.3142
            2077     1.98147E-03     113.567E-03     464.050E-03    -281.686E-03    -309.433E-03    -297.752E-03     462.233E-03    -291.549E-03    -23.3272E-03     19.3295E-03    -9.42714E-03    -9.90309E-03    -9.87229E-03     19.2987E-03    -9.42714E-03    -1.85388E-03     3.78461E+06    -3.99979E+06    -23.2499E+06    -5.57445E+06    -13.8908E+06    -3.99979E+06    -12.2970E+06         21.3651
            2078     2.97169E-03     113.572E-03     461.394E-03    -288.951E-03    -306.297E-03    -299.835E-03     459.690E-03    -293.709E-03    -9.41848E-03     20.5924E-03    -9.76435E-03    -10.8245E-03    -10.7770E-03     20.5448E-03    -9.76435E-03    -2.42459E-03     7.23464E+06     94.8705E+03    -26.2686E+06    -7.33864E+06    -11.7545E+06     154.013E+03    -16.4469E+06         21.4504
            2079     3.96046E-03     113.581E-03     431.801E-03    -267.040E-03    -295.959E-03    -271.014E-03     431.405E-03    -291.589E-03     6.06307E-03     22.2527E-03    -10.2301E-03    -12.0161E-03    -11.9621E-03     22.1986E-03    -10.2301E-03    -2.70899E-03     10.8404E+06     4.93433E+06    -29.0720E+06    -9.02646E+06    -10.3848E+06     6.11404E+06    -19.0986E+06         21.5694
            2080     4.94800E-03     113.593E-03     403.061E-03    -241.584E-03    -283.894E-03    -241.207E-03     402.684E-03    -283.894E-03     2.01132E-03     23.9416E-03    -10.7756E-03    -13.1640E-03    -13.1183E-03     23.8959E-03    -10.7756E-03    -2.50571E-03     18.3991E+06     7.26806E+06    -31.1519E+06    -10.2345E+06    -7.34690E+06     12.0966E+06    -22.1557E+06         21.7166
            2081     5.93422E-03     113.611E-03     407.081E-03    -241.663E-03    -275.430E-03    -240.641E-03     406.060E-03    -275.430E-03     28.8153E-03     25.5583E-03    -11.3428E-03    -14.2219E-03    -14.1917E-03     25.5281E-03    -11.3428E-03    -1.62058E-03     23.5548E+06     8.13029E+06    -32.7778E+06    -12.2720E+06    -4.65256E+06     15.8319E+06    -23.9308E+06         21.8978
            2082     6.91971E-03     113.635E-03     398.082E-03    -227.262E-03    -267.744E-03    -226.122E-03     396.942E-03    -267.744E-03     30.1909E-03     27.2387E-03    -11.9267E-03    -15.3184E-03    -15.2721E-03     27.1923E-03    -11.9267E-03     36.0415E-06     23.8675E+06     8.58828E+06    -35.0961E+06    -17.5696E+06    -3.43835E+06     18.3676E+06    -23.4558E+06         22.1621
            2083     7.90378E-03     113.668E-03     369.280E-03    -198.938E-03    -258.618E-03    -198.215E-03     368.557E-03    -258.618E-03     31.6161E-03     29.0804E-03    -12.5429E-03    -16.5412E-03    -16.3713E-03     28.9105E-03    -12.5429E-03     2.74765E-03     23.5601E+06     8.01915E+06    -40.1934E+06    -23.7622E+06    -5.93722E+06     21.0853E+06    -23.4552E+06         22.5895
            2084     8.88704E-03     113.713E-03     350.944E-03    -183.376E-03    -248.117E-03    -182.440E-03     350.008E-03    -248.117E-03     35.9557E-03     31.1161E-03    -13.1850E-03    -17.9443E-03    -17.3665E-03     30.5383E-03    -13.1850E-03     6.96435E-03     28.0753E+06     9.07651E+06    -45.7632E+06    -28.1737E+06    -6.35318E+06     25.9155E+06    -26.0248E+06         23.2422
            2085     9.86887E-03     113.772E-03     328.553E-03    -164.284E-03    -236.788E-03    -163.268E-03     327.538E-03    -236.788E-03     17.4435E-03     33.2013E-03    -13.8277E-03    -19.3945E-03    -17.8280E-03     31.6348E-03    -13.8277E-03     13.1107E-03     33.7005E+06     9.27588E+06    -50.4479E+06    -32.5925E+06    -6.69187E+06     31.8128E+06    -27.9418E+06         24.1653
            2086     10.8504E-03     113.850E-03     306.238E-03    -144.229E-03    -224.228E-03    -142.597E-03     304.606E-03    -224.228E-03     24.2863E-03     35.7613E-03    -14.4318E-03    -21.3489E-03    -17.7573E-03     32.1697E-03    -14.4318E-03     22.2670E-03     37.5153E+06     8.76364E+06    -50.9520E+06    -36.9188E+06    -5.26956E+06     37.5153E+06    -25.0162E+06         25.3894
            2087     11.8323E-03     113.952E-03     294.393E-03    -130.554E-03    -210.546E-03    -129.268E-03     293.107E-03    -210.546E-03     28.8068E-03     41.4254E-03    -15.0681E-03    -26.3637E-03    -19.0372E-03     34.0989E-03    -15.0681E-03     36.9408E-03     51.0180E+06     14.2690E+06    -41.6838E+06    -33.0593E+06     5.64447E+06     51.0180E+06    -16.2196E+06         27.1203
            2088     12.8150E-03     114.086E-03     271.205E-03    -106.514E-03    -195.506E-03    -106.278E-03     270.968E-03    -195.506E-03     15.6436E-03     53.0139E-03    -15.9232E-03    -37.1038E-03    -23.5703E-03     39.4804E-03    -15.9232E-03     60.5807E-03     74.9277E+06     22.3678E+06    -30.9230E+06    -24.4690E+06     15.9137E+06     74.9277E+06    -9.89725E+06         29.8982
            2089     13.7912E-03     114.261E-03     241.107E-03    -79.8515E-03    -178.645E-03    -79.5774E-03     240.833E-03    -178.645E-03     4.10117E-03     66.9200E-03    -16.9625E-03    -49.9864E-03    -29.2556E-03     46.1892E-03    -16.9625E-03     87.6333E-03     79.4712E+06     16.3315E+06    -24.2716E+06    -19.5004E+06     11.5603E+06     79.4712E+06    -5.93800E+06         34.2859
            2090     14.7589E-03     114.462E-03     209.414E-03    -54.1570E-03    -160.019E-03    -52.9570E-03     208.214E-03    -160.019E-03     13.5467E-03     85.9628E-03    -18.2707E-03    -67.7108E-03    -40.2191E-03     58.4711E-03    -18.2707E-03     117.373E-03     65.0705E+06     8.42557E+06    -19.0684E+06    -11.7291E+06     1.08622E+06     65.0705E+06     4.16628E+06         40.4143
            2091     15.7126E-03     114.692E-03     166.806E-03    -26.1841E-03    -139.005E-03    -24.8826E-03     165.504E-03    -139.005E-03     14.1280E-03     122.610E-03    -20.1567E-03    -102.474E-03    -59.8780E-03     80.0140E-03    -20.1567E-03     176.048E-03     55.9942E+06     7.72830E+06    -25.7019E+06    -2.26187E+06    -15.7117E+06     55.9942E+06     581.013E+03         47.4142
            2092     16.6516E-03     115.022E-03     132.237E-03    -7.75929E-03    -117.418E-03    -5.75265E-03     130.231E-03    -117.418E-03    -5.71479E-03     142.973E-03    -22.6131E-03    -120.400E-03    -76.0345E-03     98.6076E-03    -22.6131E-03     190.978E-03     59.5313E+06     14.3682E+06    -24.3189E+06    -4.37152E+06    -5.57923E+06     59.5313E+06    -10.3773E+06         53.3962
            2093     987.132E-06     114.585E-03     304.704E-03    -171.130E-03    -277.289E-03    -169.145E-03     302.718E-03    -277.289E-03    -14.8891E-03     25.5401E-03    -12.5884E-03    -12.9508E-03    -12.7750E-03     25.5308E-03    -12.7549E-03    -1.11948E-03     34.2705E+06     29.1653E+06    -8.55794E+06     31.7274E+06    -6.97056E+06     30.1209E+06    -6.03087E+06         21.6699
            2094     1.97527E-03     114.589E-03     302.550E-03    -211.748E-03    -230.192E-03    -218.323E-03     300.907E-03    -221.975E-03    -10.3369E-03     26.1822E-03    -12.8489E-03    -13.3259E-03    -13.3016E-03     26.1624E-03    -12.8534E-03    -1.69058E-03     29.4112E+06     23.0079E+06    -9.66377E+06     25.5431E+06    -5.79572E+06     23.0079E+06    -8.19555E+06         21.7320
            2095     2.96153E-03     114.596E-03     312.125E-03    -211.231E-03    -233.381E-03    -222.793E-03     311.099E-03    -220.793E-03     44.1866E-03     27.8886E-03    -13.2421E-03    -14.6414E-03    -14.6061E-03     27.8533E-03    -13.2421E-03    -2.37300E-03     28.3496E+06     22.0822E+06    -9.82063E+06     18.9247E+06    -3.82578E+06     25.5122E+06    -10.1294E+06         21.8402
            2096     3.94635E-03     114.607E-03     278.695E-03    -190.499E-03    -221.454E-03    -192.206E-03     276.032E-03    -217.083E-03     43.2856E-03     30.1549E-03    -13.8632E-03    -16.2863E-03    -16.2346E-03     30.1033E-03    -13.8632E-03    -3.02153E-03     33.3137E+06     21.9343E+06    -11.6807E+06     14.3601E+06    -4.10645E+06     33.3137E+06    -11.9912E+06         21.9930
            2097     4.92927E-03     114.621E-03     245.549E-03    -170.622E-03    -208.609E-03    -167.305E-03     242.232E-03    -208.609E-03     48.3774E-03     32.8266E-03    -14.6319E-03    -18.1872E-03    -18.1255E-03     32.7649E-03    -14.6319E-03    -3.50211E-03     41.6607E+06     20.1563E+06    -11.7598E+06     9.99541E+06    -1.59894E+06     41.6607E+06    -13.1085E+06         22.1846
            2098     5.91059E-03     114.641E-03     240.573E-03    -167.970E-03    -200.081E-03    -166.019E-03     238.622E-03    -200.081E-03     50.7521E-03     35.8844E-03    -15.5216E-03    -20.3718E-03    -20.3058E-03     35.8184E-03    -15.5216E-03    -3.82931E-03     47.3303E+06     16.9663E+06    -13.0609E+06     5.03903E+06    -1.13362E+06     47.3303E+06    -13.0590E+06         22.4107
            2099     6.88909E-03     114.668E-03     246.734E-03    -166.916E-03    -193.250E-03    -165.723E-03     245.540E-03    -193.250E-03     40.3062E-03     39.2180E-03    -16.4978E-03    -22.7326E-03    -22.6641E-03     39.1495E-03    -16.4978E-03    -3.99331E-03     49.4849E+06     13.2496E+06    -14.0562E+06     1.04151E+06    -1.84805E+06     49.4849E+06    -11.8385E+06         22.6792
            2100     7.86546E-03     114.703E-03     243.009E-03    -155.429E-03    -186.673E-03    -154.812E-03     242.392E-03    -186.673E-03     29.7727E-03     42.8607E-03    -17.5961E-03    -25.2742E-03    -25.1967E-03     42.7832E-03    -17.5961E-03    -3.94983E-03     55.6448E+06     11.4866E+06    -14.3842E+06    -1.15585E+06    -1.74175E+06     55.6448E+06    -11.9612E+06         23.0181
            2101     8.83877E-03     114.750E-03     218.821E-03    -131.288E-03    -178.654E-03    -129.467E-03     217.000E-03    -178.654E-03     27.9209E-03     46.6160E-03    -18.8032E-03    -27.8272E-03    -27.7167E-03     46.5055E-03    -18.8032E-03    -3.68325E-03     62.7599E+06     10.5676E+06    -16.9348E+06    -4.76409E+06    -1.60309E+06     62.7599E+06    -12.7398E+06         23.4917
            2102     9.80911E-03     114.810E-03     195.762E-03    -111.526E-03    -168.858E-03    -109.463E-03     193.700E-03    -168.858E-03     1.00791E-03     50.0273E-03    -20.0649E-03    -29.9622E-03    -29.7578E-03     49.8229E-03    -20.0649E-03    -3.07568E-03     65.4028E+06     8.12271E+06    -21.4308E+06    -10.5572E+06    -2.75089E+06     65.4028E+06    -13.2253E+06         24.2211
            2103     10.7774E-03     114.887E-03     185.860E-03    -100.032E-03    -158.093E-03    -98.3716E-03     184.200E-03    -158.093E-03     2.43397E-03     53.3590E-03    -21.3929E-03    -31.9630E-03    -31.4660E-03     52.8619E-03    -21.3929E-03    -1.73292E-03     68.6898E+06     5.59771E+06    -25.6146E+06    -13.9238E+06    -6.09312E+06     68.6898E+06    -13.3487E+06         25.2839
            2104     11.7443E-03     114.987E-03     181.380E-03    -85.2990E-03    -146.398E-03    -84.0489E-03     180.130E-03    -146.398E-03     16.8766E-03     56.9745E-03    -22.7939E-03    -34.2037E-03    -33.0201E-03     55.7908E-03    -22.7939E-03     1.89841E-03     75.2008E+06     9.05141E+06    -24.1859E+06    -14.0563E+06    -1.07812E+06     75.2008E+06    -13.6062E+06         26.8500
            2105     12.7049E-03     115.120E-03     169.632E-03    -64.1938E-03    -132.992E-03    -63.3242E-03     168.762E-03    -132.992E-03     14.5754E-03     58.3199E-03    -24.1493E-03    -34.2013E-03    -31.6168E-03     55.7355E-03    -24.1493E-03     10.9815E-03     76.9847E+06     12.5909E+06    -17.0182E+06    -11.7118E+06     7.28455E+06     76.9847E+06    -6.50592E+06         29.4293
            2106     13.6662E-03     115.290E-03     138.543E-03    -38.6784E-03    -117.280E-03    -35.5916E-03     135.456E-03    -117.280E-03     23.8808E-03     58.4531E-03    -25.0184E-03    -33.4735E-03    -28.0051E-03     53.2735E-03    -25.3071E-03     24.4622E-03     71.5395E+06     14.2025E+06    -13.9680E+06    -10.8149E+06     11.0494E+06     71.5395E+06     185.620E+03         33.5625
            2107     14.6400E-03     115.486E-03     111.322E-03    -22.0547E-03    -99.3168E-03    -16.8295E-03     106.097E-03    -99.3168E-03     32.8047E-03     70.1173E-03    -26.2977E-03    -43.8522E-03    -34.3297E-03     60.8836E-03    -26.5865E-03     44.1311E-03     55.4132E+06     12.0793E+06    -27.5966E+06    -7.60274E+06    -7.91454E+06     55.4132E+06     3.41148E+06         39.3254
            2108     15.5959E-03     115.748E-03     97.1505E-03    -17.7025E-03    -79.9399E-03    -13.7442E-03     93.1922E-03    -79.9399E-03     11.8899E-03     83.0869E-03    -21.8560E-03    -61.2546E-03    -37.4430E-03     65.6491E-03    -28.2299E-03     76.6453E-03     65.1794E+06     21.2549E+06    -22.3596E+06     7.03694E+06    -8.14163E+06     65.1794E+06     1.79802E+06         45.9285
            2109     16.5514E-03     116.056E-03     70.8885E-03    -10.6579E-03    -60.8690E-03    -6.89028E-03     67.1209E-03    -60.8690E-03    -15.1699E-03     77.2321E-03    -10.5694E-03    -66.6962E-03    -23.7766E-03     52.8829E-03    -29.1397E-03     94.1332E-03     63.6677E+06     18.7562E+06    -27.6486E+06     8.77693E+06     6.96548E+06     39.0330E+06    -4.20175E+06         51.7251


