********************************************************************************
Field Output Report, written Tue May  6 16:14:36 2025

Source 1
---------

   ODB: D:/AISI_1020/Vel_20/1020_2a_8_rd_2000_cal_100_v_20_f_0100.odb
   Step: Step-1
   Frame: Increment   8523413: Step Time =    1.028

Loc 1 : Nodal values from source 1

Output sorted by column "Node Label".

Field Output reported at nodes for region: DIE_2A_8_D0_36-1.Region_1
   Computation algorithm: EXTRAPOLATE_COMPUTE_AVERAGE
   Averaged at nodes
   Averaging regions: ODB_REGIONS

      Node Label     COORD.COOR1     COORD.COOR2
                          @Loc 1          @Loc 1
-------------------------------------------------
               1     15.4045E-03     200.558E-03


Field Output reported at nodes for region: DIE_2A_8_D0_36-1.Region_2
   Computation algorithm: EXTRAPOLATE_COMPUTE_AVERAGE
   Averaged at nodes
   Averaging regions: ODB_REGIONS

      Node Label     COORD.COOR1     COORD.COOR2
                          @Loc 1          @Loc 1
-------------------------------------------------
               1     15.4045E-03     200.558E-03


Field Output reported at nodes for part: WIRE_1-1
   Computation algorithm: EXTRAPOLATE_COMPUTE_AVERAGE
   Averaged at nodes
   Averaging regions: ODB_REGIONS

      Node Label     COORD.COOR1     COORD.COOR2    ER.Max. Prin    ER.Mid. Prin    ER.Min. Prin         ER.ER11         ER.ER22         ER.ER33         ER.ER12    PE.Max. Prin    PE.Mid. Prin    PE.Min. Prin         PE.PE11         PE.PE22         PE.PE33         PE.PE12     S.Max. Prin     S.Mid. Prin     S.Min. Prin           S.S11           S.S22           S.S33           S.S12            TEMP
                          @Loc 1          @Loc 1          @Loc 1          @Loc 1          @Loc 1          @Loc 1          @Loc 1          @Loc 1          @Loc 1          @Loc 1          @Loc 1          @Loc 1          @Loc 1          @Loc 1          @Loc 1          @Loc 1          @Loc 1          @Loc 1          @Loc 1          @Loc 1          @Loc 1          @Loc 1          @Loc 1          @Loc 1
-----------------------------------------------------------------------------------------------------------------------------------------------------------------------------------------------------------------------------------------------------------------------------------------------------------------------------------------------------------------------------------------------------------------
               1     14.2302E-03     89.5537E-03     468.404E-03     291.739E-03        -1.16591     291.575E-03        -1.16575     468.404E-03     30.9173E-03     472.397E-03    -235.190E-03    -237.035E-03    -233.645E-03     469.217E-03    -235.400E-03     94.6939E-03     85.3007E+06     38.2656E+06    -1.43867E+06    -203.932E+03     37.0309E+06     85.3007E+06     6.88637E+06         93.7819
               2    -5.72212E-06     88.3319E-03     654.057E-03     564.187E-03        -1.63553     634.459E-03        -1.61593     564.187E-03    -421.772E-03     471.666E-03    -231.676E-03    -240.061E-03    -234.804E-03     471.562E-03    -236.830E-03     10.7117E-03    -27.0466E+06    -34.5296E+06    -38.2340E+06    -32.9561E+06    -32.3245E+06    -34.5296E+06    -754.658E+03         56.2020
               3     11.0761E-06    -156.462E-09     473.900E-03     105.661E-03        -1.25700     96.3853E-03        -1.24772     473.900E-03     224.088E-03     485.039E-03    -239.250E-03    -245.679E-03    -245.676E-03     485.036E-03    -239.250E-03    -2.58631E-03     13.7199E+06     5.58286E+06     1.45170E+06     2.52417E+06     4.51039E+06     13.7199E+06     1.81118E+06         57.4275
               4     13.9380E-03    -156.462E-09     477.166E-03     328.748E-03        -1.52245     476.470E-03        -1.52176     328.748E-03    -74.5753E-03     655.372E-03    -238.796E-03    -416.664E-03    -412.826E-03     651.534E-03    -238.796E-03     128.055E-03     568.503E+03    -21.1895E+06    -38.9980E+06    -4.12067E+06    -34.3088E+06    -21.1895E+06    -12.7885E+06         100.336
               5     14.4092E-03     176.835E-03     48.3689E-03     13.9925E-03    -21.6040E-03     12.3971E-03    -20.0086E-03     48.3689E-03     14.7303E-03     294.977E-03    -65.9631E-03    -229.270E-03    -64.8355E-03     293.849E-03    -229.270E-03     40.2854E-03      151.09E+06     80.3913E+06    -49.1484E+06    -42.9210E+06     74.1639E+06      151.09E+06    -27.7111E+06         157.561
               6     15.3951E-06     174.285E-03     176.669E-03     64.3411E-03    -291.162E-03     96.6001E-03     144.410E-03    -291.162E-03    -101.645E-03     576.057E-03    -283.492E-03    -293.472E-03    -293.367E-03     575.953E-03    -283.492E-03    -19.0426E-03     48.1621E+06     46.7594E+06    -20.2634E+06     46.3219E+06    -19.8260E+06     48.1621E+06    -5.39683E+06         60.5256
               7     13.4386E-03     89.3864E-03     475.115E-03     307.410E-03        -1.18842     307.127E-03        -1.18814     475.115E-03    -9.41757E-03     472.826E-03    -234.898E-03    -237.785E-03    -233.915E-03     469.574E-03    -235.516E-03     95.7829E-03     75.0054E+06     31.6295E+06    -4.36781E+06    -3.18750E+06     30.4492E+06     75.0054E+06     3.53531E+06         92.2772
               8     12.6394E-03     89.2201E-03     488.418E-03     330.940E-03        -1.22657     330.703E-03        -1.22634     488.418E-03    -15.0195E-03     471.953E-03    -233.826E-03    -238.035E-03    -233.343E-03     469.002E-03    -235.568E-03     90.6320E-03     50.3296E+06     15.4684E+06    -9.44018E+06    -8.27883E+06     14.3071E+06     50.3296E+06    -1.00892E+06         88.3694
               9     11.8489E-03     89.0955E-03     501.440E-03     351.323E-03        -1.26160     351.225E-03        -1.26150     501.440E-03    -4.45777E-03     471.081E-03    -234.209E-03    -236.901E-03    -233.237E-03     468.849E-03    -235.642E-03     78.6813E-03     31.2080E+06     4.24810E+06    -9.53865E+06    -8.69213E+06     3.40159E+06     31.2080E+06    -617.235E+03         82.8681
              10     11.0587E-03     88.9888E-03     513.748E-03     383.741E-03        -1.30829     383.620E-03        -1.30817     513.748E-03    -326.685E-06     472.762E-03    -235.566E-03    -237.250E-03    -235.342E-03     471.057E-03    -235.770E-03     69.3707E-03     16.4670E+06    -2.53062E+06    -14.8314E+06    -12.1126E+06    -5.24941E+06     16.4670E+06     368.066E+03         76.7256
              11     10.2692E-03     88.8957E-03     524.871E-03     417.377E-03        -1.35436     417.239E-03        -1.35422     524.871E-03     15.7075E-03     473.986E-03    -235.458E-03    -238.174E-03    -236.664E-03     472.588E-03    -235.569E-03     62.9625E-03     1.71996E+06    -10.8825E+06    -25.5548E+06    -20.6980E+06    -15.7393E+06     1.71996E+06     3.05157E+06         71.2165
              12     9.48226E-03     88.8083E-03     535.021E-03     440.785E-03        -1.38814     440.565E-03        -1.38792     535.021E-03     23.4068E-03     473.716E-03    -235.429E-03    -238.046E-03    -236.830E-03     472.612E-03    -235.540E-03     55.8060E-03    -1.33601E+06    -14.0051E+06    -27.3554E+06    -23.8890E+06    -17.4715E+06    -1.33601E+06     5.44487E+06         66.8903
              13     8.68979E-03     88.7199E-03     544.486E-03     460.629E-03        -1.41786     460.426E-03        -1.41766     544.486E-03     18.8008E-03     472.596E-03    -235.512E-03    -237.092E-03    -236.385E-03     471.890E-03    -235.512E-03     44.1539E-03     4.65271E+06    -7.80616E+06    -23.9369E+06    -20.3144E+06    -11.4287E+06     4.65271E+06     3.53543E+06         63.6082
              14     7.89979E-03     88.6720E-03     553.356E-03     478.802E-03        -1.44367     478.625E-03        -1.44349     553.356E-03     18.0801E-03     470.760E-03    -234.634E-03    -236.291E-03    -235.324E-03     470.349E-03    -235.189E-03     33.9079E-03     6.37613E+06    -5.07177E+06    -23.6598E+06    -20.0034E+06    -8.72818E+06     6.37613E+06     4.06466E+06         61.0311
              15     7.11064E-03     88.6136E-03     562.035E-03     493.691E-03        -1.46702     493.574E-03        -1.46690     562.035E-03     18.1954E-03     469.658E-03    -234.391E-03    -235.677E-03    -234.741E-03     469.346E-03    -235.016E-03     29.4897E-03     258.686E+03    -10.9746E+06    -27.5772E+06    -25.7280E+06    -12.8238E+06     258.686E+03     4.44349E+06         58.9996
              16     6.31950E-03     88.5667E-03     570.815E-03     509.288E-03        -1.49073     509.284E-03        -1.49073     570.815E-03    -3.77732E-03     468.912E-03    -234.165E-03    -235.102E-03    -233.935E-03     468.682E-03    -235.102E-03     25.1908E-03    -5.03932E+06    -13.5550E+06    -29.4194E+06    -28.0666E+06    -14.9078E+06    -5.03932E+06     3.29352E+06         57.5517
              17     5.52956E-03     88.5241E-03     579.286E-03     529.166E-03        -1.51783     529.148E-03        -1.51782     579.286E-03     6.61281E-03     468.250E-03    -233.185E-03    -235.484E-03    -233.052E-03     468.117E-03    -235.484E-03     18.8644E-03    -7.61953E+06    -13.6275E+06    -30.0443E+06    -28.2437E+06    -15.4280E+06    -7.61953E+06     4.11458E+06         56.7403
              18     4.73628E-03     88.4895E-03     586.516E-03     552.283E-03        -1.54896     552.210E-03        -1.54888     586.516E-03     10.9511E-03     469.399E-03    -233.381E-03    -235.929E-03    -233.317E-03     469.335E-03    -235.929E-03     12.9823E-03    -13.8459E+06    -18.9954E+06    -33.5993E+06    -32.3860E+06    -20.2087E+06    -13.8459E+06     2.86059E+06         56.4578
              19     3.94429E-03     88.4720E-03     592.938E-03     571.339E-03        -1.57358     572.298E-03        -1.57343     591.825E-03     20.6228E-03     470.923E-03    -234.149E-03    -236.339E-03    -234.112E-03     470.886E-03    -236.339E-03     9.89429E-03    -18.4911E+06    -23.3944E+06    -33.7980E+06    -33.2163E+06    -23.0349E+06    -19.4323E+06     1.48512E+06         56.3964
              20     3.15385E-03     88.4503E-03     596.583E-03     583.672E-03        -1.58942     584.344E-03        -1.58898     595.470E-03     55.9783E-03     472.863E-03    -235.483E-03    -237.206E-03    -235.664E-03     472.845E-03    -237.006E-03     5.99558E-03    -24.3404E+06    -28.4541E+06    -36.4106E+06    -34.7929E+06    -27.3185E+06    -27.0936E+06     2.35214E+06         56.3710
              21     2.36657E-03     88.4378E-03     602.402E-03     588.734E-03        -1.60267     592.806E-03        -1.60222     597.883E-03     17.3493E-03     475.241E-03    -236.544E-03    -238.746E-03    -237.969E-03     475.239E-03    -237.320E-03     458.736E-06    -28.6163E+06    -34.0629E+06    -40.3725E+06    -37.2946E+06    -31.6129E+06    -34.1443E+06     1.36185E+06         56.3420
              22     1.57745E-03     88.4312E-03     611.836E-03     587.465E-03        -1.61140     598.225E-03        -1.60940     599.079E-03     66.0175E-03     475.039E-03    -234.663E-03    -240.486E-03    -238.360E-03     475.018E-03    -236.767E-03    -2.14007E-03    -29.9707E+06    -36.7878E+06    -40.6860E+06    -37.9753E+06    -32.5717E+06    -36.8974E+06    -611.219E+03         56.2873
              23     783.761E-06     88.4125E-03     634.952E-03     575.269E-03        -1.62456     616.751E-03        -1.61287     581.778E-03    -123.530E-03     472.875E-03    -232.231E-03    -240.695E-03    -236.266E-03     472.802E-03    -236.588E-03     4.16034E-03    -30.3504E+06    -37.1930E+06    -40.0482E+06    -36.7101E+06    -33.5788E+06    -37.3026E+06    -1.08057E+06         56.2279
              24     10.8776E-06     86.8075E-03     658.733E-03     552.963E-03        -1.63628     632.744E-03        -1.61029     552.963E-03    -481.179E-03     456.252E-03    -224.344E-03    -231.988E-03    -231.910E-03     456.174E-03    -224.344E-03     8.78246E-03    -35.4371E+06    -41.9868E+06    -45.5085E+06    -40.4095E+06    -40.5361E+06    -41.9868E+06    -2.94268E+06         56.1704
              25    -3.97009E-06     85.2500E-03     701.855E-03     580.864E-03        -1.72171     677.533E-03        -1.69738     580.864E-03    -472.471E-03     472.487E-03    -231.554E-03    -240.938E-03    -235.873E-03     472.394E-03    -236.526E-03     5.21399E-03    -32.4900E+06    -36.6826E+06    -41.8408E+06    -38.1311E+06    -36.1997E+06    -36.6826E+06     1.49507E+06         56.1420
              26    -4.20503E-06     83.5821E-03     751.332E-03     612.960E-03        -1.81787     735.341E-03        -1.80187     612.960E-03    -404.087E-03     479.004E-03    -236.438E-03    -242.540E-03    -236.420E-03     478.985E-03    -242.540E-03    -6.05883E-03    -22.6886E+06    -26.8074E+06    -30.7510E+06    -26.1640E+06    -27.2756E+06    -26.8074E+06     923.832E+03         56.1346
              27     2.09501E-06     82.0016E-03     744.484E-03     652.515E-03        -1.86181     733.218E-03        -1.85054     652.515E-03    -331.214E-03     469.359E-03    -232.951E-03    -236.400E-03    -235.269E-03     469.358E-03    -234.082E-03    -749.684E-06    -18.0344E+06    -20.3478E+06    -24.8949E+06    -22.4803E+06    -21.7032E+06    -19.0935E+06    -2.73837E+06         56.1414
              28     1.29905E-06     80.3894E-03     633.934E-03     593.183E-03        -1.69954     628.208E-03        -1.69382     593.183E-03    -230.605E-03     467.866E-03    -232.306E-03    -235.499E-03    -234.620E-03     467.861E-03    -233.181E-03     2.88041E-03    -21.9536E+06    -26.9945E+06    -31.6927E+06    -24.4860E+06    -28.3505E+06    -27.8042E+06    -1.19283E+06         56.1259
              29    -3.00628E-06     78.7992E-03     576.762E-03     507.066E-03        -1.56372     517.148E-03        -1.56060     563.563E-03    -141.837E-03     470.662E-03    -235.002E-03    -236.389E-03    -235.508E-03     470.656E-03    -235.876E-03     916.726E-06    -15.1154E+06    -20.2236E+06    -31.8408E+06    -22.6272E+06    -23.5866E+06    -20.9661E+06     4.68741E+06         56.0779
              30     3.40152E-06     77.1967E-03     624.727E-03     518.998E-03        -1.62845     518.233E-03        -1.62769     624.727E-03     14.9512E-03     470.461E-03    -234.858E-03    -236.468E-03    -236.457E-03     470.450E-03    -234.858E-03    -5.23746E-03     1.68261E+06    -9.17467E+06    -20.1627E+06    -8.72062E+06    -11.0810E+06    -7.85310E+06    -271.527E+03         56.0395
              31    -2.04943E-06     75.5900E-03     616.413E-03     491.020E-03        -1.59964     485.619E-03        -1.59424     616.413E-03     185.727E-03     467.923E-03    -232.968E-03    -234.933E-03    -234.032E-03     467.889E-03    -233.836E-03     2.34717E-03    -11.8369E+06    -23.7184E+06    -28.5335E+06    -16.8530E+06    -23.5174E+06    -23.7184E+06    -2.07028E+06         56.0321
              32     299.832E-09     73.9794E-03     526.669E-03     408.721E-03        -1.43213     400.069E-03        -1.42347     526.669E-03     251.668E-03     471.138E-03    -234.930E-03    -236.125E-03    -234.866E-03     471.074E-03    -236.125E-03     13.3721E-03    -16.5076E+06    -20.4288E+06    -26.7535E+06    -22.4136E+06    -22.4229E+06    -18.8534E+06     1.49109E+06         56.0415
              33    -1.25534E-06     72.3637E-03     396.271E-03     317.356E-03        -1.20319     310.839E-03        -1.19667     396.271E-03     198.660E-03     470.229E-03    -234.569E-03    -235.641E-03    -234.528E-03     470.189E-03    -235.641E-03     8.66112E-03    -1.87906E+06    -4.41728E+06    -9.00988E+06    -6.22392E+06    -6.24044E+06    -2.84187E+06    -202.681E+03         56.0671
              34    -274.891E-09     70.7954E-03     309.008E-03     265.415E-03        -1.06156     267.475E-03        -1.05716     302.542E-03     151.697E-03     461.011E-03    -229.192E-03    -231.805E-03    -231.044E-03     460.997E-03    -229.938E-03    -3.07935E-03    -6.96290E+06    -9.52264E+06    -12.9631E+06    -9.83340E+06    -11.6895E+06    -7.92571E+06     1.94880E+06         56.0936
              35     2.83165E-06     69.2146E-03     330.340E-03     321.241E-03        -1.14365     328.663E-03        -1.14197     321.241E-03     56.9302E-03     459.442E-03    -227.975E-03    -231.444E-03    -231.430E-03     459.429E-03    -227.975E-03    -4.61119E-03    -8.47394E+06    -12.3893E+06    -14.8893E+06    -10.7945E+06    -13.4580E+06    -11.5000E+06     729.355E+03         56.1170
              36    -601.026E-09     67.6350E-03     337.509E-03     304.762E-03        -1.13415     305.012E-03        -1.13176     334.876E-03    -87.1080E-03     466.687E-03    -232.196E-03    -234.453E-03    -233.773E-03     466.663E-03    -232.851E-03    -6.17617E-03    -7.54399E+06    -12.9377E+06    -18.5503E+06    -10.9627E+06    -14.4239E+06    -13.6454E+06    -4.09566E+06         56.1520
              37    -804.684E-09     66.0250E-03     215.475E-03     120.749E-03    -825.048E-03     113.192E-03    -817.491E-03     215.475E-03    -156.554E-03     478.476E-03    -238.806E-03    -239.614E-03    -238.781E-03     478.452E-03    -239.614E-03    -5.57026E-03     331.077E+03    -8.11043E+06    -17.6728E+06    -7.04697E+06    -10.2948E+06    -8.11043E+06     954.579E+03         56.1927
              38     246.050E-09     64.4084E-03     136.313E-03    -43.5454E-03    -580.624E-03    -69.5696E-03    -554.599E-03     136.313E-03    -211.563E-03     493.484E-03    -243.732E-03    -249.531E-03    -243.729E-03     493.481E-03    -249.531E-03     2.43077E-03     6.62300E+06    -3.00223E+06    -13.7591E+06    -2.81870E+06    -4.31741E+06    -3.00223E+06    -268.707E+03         56.2322
              39    -9.93947E-06     62.7155E-03     207.501E-03     21.9605E-03    -720.628E-03    -5.41968E-03    -693.248E-03     207.501E-03    -247.552E-03     489.738E-03    -241.575E-03    -247.955E-03    -241.571E-03     489.734E-03    -247.955E-03     3.24703E-03    -7.72520E+06     -15.811E+06    -27.8661E+06    -17.5018E+06    -18.0895E+06     -15.811E+06    -314.988E+03         56.2821
              40     8.64379E-06     61.1008E-03     237.695E-03     111.408E-03    -845.069E-03     99.3306E-03    -832.991E-03     237.695E-03    -213.585E-03     473.979E-03    -236.108E-03    -237.840E-03    -236.979E-03     473.851E-03    -236.843E-03     14.4264E-03     2.04682E+06    -6.64532E+06    -13.7401E+06    -3.32742E+06    -8.36585E+06    -6.64532E+06     2.55771E+06         56.3367
              41    -7.79458E-06     59.5119E-03     152.866E-03     18.6631E-03    -671.585E-03     76.2799E-03    -650.991E-03     74.6561E-03    -234.796E-03     462.186E-03    -229.709E-03    -232.494E-03    -232.342E-03     462.034E-03    -229.709E-03     7.42981E-03    -349.135E+03    -7.45651E+06    -11.8801E+06    -5.37163E+06    -9.09966E+06    -5.21449E+06    -657.244E+03         56.4111
              42     10.4376E-06     57.9399E-03     142.036E-03    -93.7233E-03    -544.132E-03     126.702E-03    -528.798E-03    -93.7233E-03    -155.656E-03     455.827E-03    -225.577E-03    -229.882E-03    -229.856E-03     455.801E-03    -225.577E-03    -5.20669E-03    -8.09362E+06    -10.6392E+06    -17.0124E+06    -12.9588E+06    -14.3892E+06    -8.39715E+06     136.353E+03         56.5168
              43    -5.93624E-06     56.4155E-03     211.864E-03    -132.280E-03    -571.811E-03     207.634E-03    -567.581E-03    -132.280E-03     61.8891E-03     480.288E-03    -237.047E-03    -242.659E-03    -239.497E-03     480.222E-03    -240.142E-03    -9.24635E-03    -4.05043E+06    -4.53006E+06    -10.4590E+06    -5.47526E+06    -9.03419E+06    -4.53006E+06    -2.63664E+06         56.5982
              44     601.114E-09     54.7439E-03     253.234E-03    -94.1721E-03    -665.307E-03     248.584E-03    -660.657E-03    -94.1721E-03     118.097E-03     508.495E-03    -250.966E-03    -256.750E-03    -250.887E-03     508.416E-03    -256.750E-03    -14.5344E-03    -5.24350E+06    -6.96677E+06    -10.9651E+06    -7.25654E+06    -7.79407E+06    -8.12480E+06    -1.39433E+06         56.6447
              45    -5.36371E-06     53.0071E-03     255.641E-03     20.8805E-03    -785.456E-03     249.579E-03    -779.395E-03     20.8805E-03     144.352E-03     498.046E-03    -246.538E-03    -250.962E-03    -246.484E-03     497.992E-03    -250.962E-03     3.08900E-03     4.61852E+06    -834.211E+03    -3.49830E+06     2.73987E+06    -461.627E+03    -1.99224E+06     1.11593E+06         56.6623
              46     2.26209E-06     51.3980E-03     246.959E-03     105.918E-03    -866.011E-03     174.479E-03    -860.624E-03     173.010E-03     104.299E-03     475.439E-03    -235.474E-03    -240.073E-03    -238.294E-03     475.396E-03    -237.209E-03     9.58418E-03     7.33690E+06     9.67383E+03    -1.76150E+06     5.94901E+06    -108.494E+03    -255.437E+03    -182.804E+03         56.6282
              47     1.92189E-06     49.8291E-03     267.625E-03     105.095E-03    -901.500E-03     104.794E-03    -901.199E-03     267.625E-03    -27.6709E-03     470.439E-03    -233.570E-03    -236.613E-03    -236.431E-03     470.435E-03    -233.750E-03     2.72677E-03     1.74255E+06    -2.91980E+06    -12.6299E+06    -5.23060E+06    -5.39168E+06    -3.18491E+06     3.74581E+06         56.5532
              48    -1.87096E-06     48.2233E-03     348.184E-03     92.9553E-03    -978.243E-03     88.4972E-03    -973.785E-03     348.184E-03    -121.251E-03     482.501E-03    -240.591E-03    -241.701E-03    -240.588E-03     482.498E-03    -241.701E-03     2.91957E-03    -1.66774E+06    -3.66047E+06    -17.8356E+06    -10.2344E+06    -9.26892E+06    -3.66047E+06     2.56914E+06         56.4384
              49    -70.4409E-09     46.5700E-03     452.436E-03     175.161E-03        -1.18140     161.903E-03        -1.16814     452.436E-03    -265.305E-03     487.996E-03    -243.062E-03    -244.902E-03    -243.053E-03     487.987E-03    -244.902E-03     5.10405E-03     971.174E+03     160.438E+03    -6.12108E+06    -2.61244E+06    -2.53746E+06     160.438E+03    -1.95172E+06         56.3008
              50    -1.56324E-06     44.9255E-03     472.113E-03     310.758E-03        -1.36364     284.785E-03        -1.33767     472.113E-03    -410.594E-03     470.587E-03    -234.671E-03    -235.865E-03    -234.924E-03     470.556E-03    -235.581E-03     8.81528E-03     218.918E+03    -5.20685E+06    -6.78339E+06    -2.15875E+06    -4.40572E+06    -5.20685E+06     3.14905E+06         56.2024
              51     1.65905E-06     43.3561E-03     461.207E-03     404.263E-03        -1.45783     381.825E-03        -1.42232     448.135E-03    -511.180E-03     456.538E-03    -227.045E-03    -229.654E-03    -229.615E-03     456.499E-03    -227.045E-03     10.2467E-03     4.59858E+06    -3.29000E+06    -6.27685E+06    -603.905E+03    -3.59585E+06    -768.514E+03     895.555E+03         56.1574
              52     1.84217E-06     41.8146E-03     536.398E-03     444.919E-03        -1.57974     489.602E-03        -1.53295     444.919E-03    -620.772E-03     463.054E-03    -230.045E-03    -232.960E-03    -232.355E-03     463.039E-03    -230.635E-03     3.19989E-03     4.91754E+06    -4.29488E+06    -8.77189E+06    -2.42485E+06    -3.95097E+06    -1.77340E+06    -5.53158E+06         56.1447
              53    -2.87412E-06     40.1888E-03     621.656E-03     459.028E-03        -1.69304     585.875E-03        -1.65726     459.028E-03    -541.409E-03     470.690E-03    -234.753E-03    -235.813E-03    -235.223E-03     470.689E-03    -235.342E-03    -1.17850E-03    -248.275E+03    -7.02900E+06    -10.9009E+06    -4.50384E+06    -6.73512E+06    -6.93922E+06    -5.10576E+06         56.1996
              54     3.42971E-06     38.5927E-03     659.511E-03     531.890E-03        -1.82254     647.275E-03        -1.81031     531.890E-03    -343.987E-03     469.649E-03    -234.397E-03    -235.459E-03    -235.455E-03     469.645E-03    -234.397E-03    -2.22174E-03     3.42379E+06    -1.73371E+06    -11.8524E+06    -2.59152E+06    -5.92687E+06    -1.64392E+06     5.27513E+06         56.3276
              55    -2.76224E-06     37.0049E-03     653.427E-03     591.646E-03        -1.90227     648.759E-03        -1.89761     591.646E-03    -170.261E-03     472.203E-03    -235.661E-03    -236.654E-03    -236.243E-03     472.194E-03    -236.063E-03     466.910E-06     13.4157E+06     4.37223E+06    -14.2100E+06     1.07434E+06    -1.86873E+06     4.37223E+06    -1.07259E+06         56.4683
              56     1.88196E-06     35.3792E-03     634.849E-03     611.342E-03        -1.91881     633.756E-03        -1.91771     611.342E-03     57.4400E-03     481.062E-03    -240.353E-03    -240.827E-03    -240.345E-03     481.054E-03    -240.827E-03     4.58665E-03    -123.982E+03    -9.85307E+06    -20.8738E+06    -7.26145E+06    -13.5358E+06    -10.0536E+06    -8.11881E+06         56.6101
              57    -2.33260E-06     33.7549E-03     717.223E-03     641.923E-03        -2.04815     644.890E-03        -2.04599     712.095E-03     152.557E-03     485.007E-03    -242.129E-03    -243.097E-03    -243.023E-03     485.004E-03    -242.201E-03     1.16938E-03    -6.61560E+06    -12.3884E+06    -21.8843E+06    -11.3852E+06    -16.9336E+06    -12.5695E+06     3.91833E+06         56.7837
              58     3.45660E-06     32.1283E-03     771.164E-03     690.318E-03        -2.16346     696.572E-03        -2.15904     760.490E-03     217.944E-03     483.816E-03    -240.765E-03    -243.538E-03    -243.532E-03     483.810E-03    -240.765E-03    -3.63088E-03     12.0990E+06     11.2746E+06    -718.105E+03     5.33917E+06     5.21737E+06     12.0990E+06     3.30076E+06         56.9860
              59    -921.863E-09     30.5257E-03     770.830E-03     691.062E-03        -2.16399     696.306E-03        -2.15856     760.156E-03     248.012E-03     485.118E-03    -241.205E-03    -244.401E-03    -243.074E-03     485.110E-03    -242.523E-03    -4.82007E-03     2.78246E+06    -2.95421E+06    -6.74726E+06    -409.142E+03    -4.36055E+06    -2.14932E+06    -3.68111E+06         57.2123
              60    -1.35151E-06     28.8745E-03     803.936E-03     690.370E-03        -2.19679     730.109E-03        -2.19205     759.464E-03     235.288E-03     489.428E-03    -243.352E-03    -245.872E-03    -243.349E-03     489.425E-03    -245.872E-03    -1.14497E-03    -5.15171E+06    -11.4540E+06    -14.0589E+06    -8.37958E+06    -12.2015E+06    -10.0835E+06    -3.08881E+06         57.4751
              61    -371.584E-09     27.2359E-03     794.268E-03     722.096E-03        -2.23123     789.757E-03        -2.22672     722.096E-03     232.856E-03     496.542E-03    -247.128E-03    -248.719E-03    -247.512E-03     496.537E-03    -248.330E-03     3.29748E-03     7.54049E+06     419.991E+03    -3.04856E+06     5.11128E+06    -30.5466E+03    -168.818E+03     541.522E+03         57.7277
              62     1.43359E-06     25.5908E-03     764.264E-03     656.325E-03        -2.14060     762.259E-03        -2.13860     656.325E-03     130.481E-03     503.244E-03    -249.986E-03    -250.893E-03    -250.878E-03     503.229E-03    -249.986E-03    -1.43214E-03     1.09925E+06    -5.79886E+06    -12.1935E+06    -2.72749E+06    -7.55553E+06    -6.61005E+06     3.50855E+06         57.9387
              63    -492.533E-09     23.9358E-03     803.010E-03     595.481E-03        -2.12308     801.516E-03        -2.12158     595.481E-03    -68.3728E-03     506.203E-03    -252.223E-03    -252.873E-03    -252.724E-03     506.187E-03    -252.356E-03    -962.823E-06    -2.28194E+06    -7.94277E+06    -20.6259E+06    -11.3641E+06    -12.6919E+06    -6.79466E+06    -4.11544E+06         58.1220
              64     1.00062E-09     22.2732E-03     784.594E-03     601.447E-03        -2.12173     782.928E-03        -2.12006     601.447E-03    -130.803E-03     510.059E-03    -254.492E-03    -256.354E-03    -254.482E-03     510.049E-03    -256.354E-03     5.61143E-03     1.00743E+06    -3.94317E+06    -16.8731E+06    -8.30645E+06    -7.99710E+06    -3.50529E+06    -4.19759E+06         58.1864
              65    -3.16934E-06     20.5678E-03     725.406E-03     585.585E-03        -2.04682     712.319E-03        -2.03373     585.585E-03    -304.056E-03     503.901E-03    -250.932E-03    -252.991E-03    -251.234E-03     503.874E-03    -252.661E-03     8.46385E-03    -142.456E+03    -5.74791E+06    -17.6486E+06    -9.05752E+06    -9.17146E+06    -5.31002E+06     8.23750E+06         58.0616
              66     3.37797E-06     18.9377E-03     669.818E-03     581.520E-03        -1.99371     656.421E-03        -1.98031     581.520E-03    -319.792E-03     484.878E-03    -241.346E-03    -243.876E-03    -243.851E-03     484.853E-03    -241.346E-03     7.45405E-03     6.97681E+06    -7.63983E+06    -16.7819E+06    -1.38135E+06    -8.42376E+06    -7.63983E+06       996.8E+03         57.7919
              67    -221.464E-09     17.3446E-03     552.113E-03     524.775E-03        -1.80297     528.431E-03        -1.80229     547.781E-03    -74.5002E-03     479.098E-03    -238.394E-03    -240.920E-03    -240.582E-03     479.085E-03    -238.719E-03     5.62054E-03     6.22437E+06    -5.31131E+06    -11.5734E+06    -1.32138E+06    -6.11428E+06    -3.22470E+06    -7.27758E+06         57.3558
              68    -407.586E-09     15.7361E-03     515.061E-03     489.843E-03        -1.72579     484.348E-03        -1.71808     512.849E-03     167.589E-03     485.793E-03    -241.556E-03    -244.534E-03    -241.542E-03     485.779E-03    -244.534E-03     6.09635E-03     639.772E+03    -4.54766E+06    -11.8590E+06    -6.99315E+06    -6.31271E+06    -2.46105E+06     859.862E+03         56.7051
              69    -3.93785E-06     14.0546E-03     560.098E-03     483.888E-03        -1.76227     529.297E-03        -1.73147     483.888E-03     512.165E-03     466.547E-03    -232.027E-03    -234.995E-03    -232.338E-03     466.544E-03    -234.680E-03     1.79821E-03    -251.546E+03    -10.2829E+06    -15.6111E+06    -5.44406E+06    -10.4186E+06    -10.2829E+06     6.78226E+06         55.9358
              70     4.31680E-06     12.5161E-03     577.469E-03     387.927E-03        -1.67718     529.718E-03        -1.62943     387.927E-03     648.978E-03     436.569E-03    -216.533E-03    -220.074E-03    -220.036E-03     436.531E-03    -216.533E-03     6.74105E-03    -4.00267E+06    -11.8304E+06    -27.7771E+06    -15.4991E+06    -17.1778E+06    -10.9332E+06    -2.77191E+06         55.2225
              71     611.557E-09     11.0001E-03     619.572E-03     255.316E-03        -1.58223     557.639E-03        -1.52029     255.316E-03     724.095E-03     430.318E-03    -213.125E-03    -216.932E-03    -216.313E-03     430.279E-03    -213.705E-03     5.87694E-03     8.10792E+06     1.72370E+06    -17.3795E+06    -5.06741E+06    -5.10143E+06     2.62092E+06    -11.6850E+06         54.6245
              72    -1.85086E-06     9.44074E-03     634.747E-03     170.163E-03        -1.49952     562.362E-03        -1.42713     170.163E-03     772.656E-03     426.599E-03    -212.766E-03    -213.677E-03    -213.094E-03     426.597E-03    -213.346E-03    -2.32015E-03     14.4941E+06     5.12118E+06    -7.22466E+06     5.42776E+06     1.84168E+06     5.12118E+06     200.736E+03         54.1606
              73     1.94557E-06     7.94221E-03     600.376E-03     153.292E-03        -1.45408     544.664E-03        -1.39837     153.292E-03     661.501E-03     427.595E-03    -213.629E-03    -214.007E-03    -213.955E-03     427.591E-03    -213.677E-03     889.129E-06     1.36059E+06    -12.3081E+06    -25.7997E+06    -9.29593E+06    -15.1432E+06    -12.3081E+06     12.9966E+06         53.9778
              74    -2.52263E-06     6.38742E-03     542.475E-03     183.052E-03        -1.42242     503.301E-03        -1.38325     183.052E-03     549.313E-03     440.191E-03    -219.035E-03    -221.514E-03    -219.031E-03     440.188E-03    -221.514E-03     1.69803E-03     24.6377E+06     8.80198E+06    -6.49137E+06     13.1844E+06     4.96188E+06     8.80198E+06     372.497E+03         54.1888
              75    -2.47787E-06     4.81486E-03     359.806E-03     231.409E-03        -1.26645     325.138E-03        -1.23178     231.409E-03     469.310E-03     453.459E-03    -224.763E-03    -228.649E-03    -226.210E-03     453.452E-03    -227.195E-03     2.75000E-03     17.1034E+06     8.37350E+06    -2.37057E+06     10.3319E+06     4.40092E+06     8.37350E+06    -8.72906E+06         54.7425
              76     4.10943E-06     3.24675E-03     325.169E-03     199.191E-03        -1.19377     183.004E-03        -1.17739     324.983E-03     231.117E-03     469.170E-03    -232.984E-03    -235.702E-03    -234.429E-03     469.161E-03    -234.248E-03     4.75251E-03    -1.31387E+06    -9.83475E+06    -13.1978E+06    -3.66684E+06    -10.8448E+06    -9.83475E+06     1.65419E+06         55.5710
              77    -6.93002E-06     1.62246E-03     442.645E-03     132.734E-03        -1.25418     127.915E-03        -1.24936     442.645E-03     134.635E-03     481.251E-03    -238.341E-03    -242.819E-03    -241.553E-03     481.248E-03    -239.605E-03     306.243E-06     13.2271E+06     3.31473E+06    -5.34025E+03     5.77611E+06     3.37718E+06     7.38322E+06     4.02333E+06         56.7392
              78     783.099E-06    -156.462E-09     391.632E-03     199.497E-03        -1.26606     202.627E-03        -1.26118     383.616E-03     84.0164E-03     484.334E-03    -240.502E-03    -243.746E-03    -243.742E-03     484.330E-03    -240.502E-03     499.243E-06     13.6350E+06     7.90891E+06     2.71759E+06     3.44066E+06     7.18584E+06     13.6350E+06     1.64660E+06         57.4229
              79     1.56924E-03    -156.462E-09     306.365E-03     295.830E-03        -1.27665     306.048E-03        -1.27633     295.830E-03    -13.2768E-03     481.271E-03    -239.861E-03    -241.378E-03    -239.887E-03     481.269E-03    -241.349E-03     2.45061E-03     10.9134E+06     8.49014E+06     2.40277E+06     3.10651E+06     7.78639E+06     10.9134E+06     1.86515E+06         57.4808
              80     2.35919E-03    -156.462E-09     297.686E-03     272.727E-03        -1.24565     275.006E-03        -1.24541     295.167E-03    -7.55740E-03     476.132E-03    -236.009E-03    -240.180E-03    -236.006E-03     476.129E-03    -240.180E-03     2.51343E-03     9.41640E+06     6.49620E+06     3.15132E+06     4.71023E+06     7.09182E+06     7.26187E+06    -124.299E+03         57.7435
              81     3.14793E-03    -156.462E-09     285.250E-03     231.187E-03        -1.19133     231.014E-03        -1.19116     285.250E-03    -19.3845E-03     470.031E-03    -231.514E-03    -238.580E-03    -231.508E-03     470.025E-03    -238.580E-03     3.97341E-03     10.4006E+06     5.13333E+06     2.83140E+06     6.40234E+06     6.82966E+06     5.13333E+06     1.26723E+06         58.2925
              82     3.94465E-03    -156.462E-09     273.229E-03     221.919E-03        -1.17049     221.888E-03        -1.17046     273.229E-03     11.6849E-03     463.578E-03    -226.828E-03    -236.703E-03    -226.823E-03     463.573E-03    -236.703E-03     3.87784E-03     6.99598E+06     3.19247E+06     550.505E+03     3.35251E+06     3.50320E+06     3.88324E+06     2.16504E+06         59.1350
              83     4.74605E-03    -156.462E-09     271.714E-03     246.894E-03        -1.19657     251.876E-03        -1.19642     266.583E-03     27.8750E-03     446.285E-03    -217.004E-03    -229.153E-03    -217.000E-03     446.281E-03    -229.153E-03     3.19870E-03     6.09442E+06     5.07159E+06     1.55947E+06     3.13536E+06     3.49570E+06     6.09442E+06    -1.74203E+06         60.2659
              84     5.54558E-03    -156.462E-09     300.761E-03     267.533E-03        -1.24875     300.639E-03        -1.24863     267.533E-03     17.9019E-03     429.432E-03    -207.564E-03    -221.620E-03    -207.558E-03     429.426E-03    -221.620E-03     3.84960E-03     8.36442E+06     7.03172E+06     2.24664E+06     5.35279E+06     4.92621E+06     7.36378E+06      75.709E+03         61.6364
              85     6.35317E-03    -156.462E-09     337.924E-03     273.931E-03        -1.29126     337.416E-03        -1.29075     273.931E-03    -42.2141E-03     425.496E-03    -205.773E-03    -219.698E-03    -205.762E-03     425.485E-03    -219.698E-03     5.29647E-03     7.78569E+06     6.02000E+06     2.14894E+06     4.90176E+06     4.26781E+06     6.78506E+06     2.40443E+06         63.2077
              86     7.15755E-03    -156.462E-09     349.685E-03     281.666E-03        -1.31021     347.969E-03        -1.30849     281.666E-03    -104.356E-03     423.491E-03    -205.628E-03    -218.415E-03    -205.621E-03     423.484E-03    -218.415E-03     2.43503E-03     7.54216E+06     5.06720E+06     2.52896E+06     3.57048E+06     4.02568E+06     7.54216E+06     708.007E+03         65.1549
              87     7.96830E-03    -156.462E-09     348.161E-03     288.164E-03        -1.30995     346.182E-03        -1.30798     288.164E-03    -113.778E-03     425.434E-03    -208.406E-03    -217.521E-03    -208.404E-03     425.431E-03    -217.521E-03     1.24001E-03     5.42147E+06     3.63254E+06     976.236E+03     2.40175E+06     2.20702E+06     5.42147E+06    -1.16700E+06         67.7666
              88     8.76942E-03    -156.462E-09     343.753E-03     293.201E-03        -1.30960     342.553E-03        -1.30840     293.201E-03    -88.1604E-03     432.437E-03    -214.030E-03    -218.504E-03    -215.647E-03     432.435E-03    -216.884E-03     1.50396E-03     3.93269E+06     3.54687E+06    -936.706E+03     2.55324E+06     363.722E+03     3.62589E+06     238.070E+03         71.1543
              89     9.56516E-03    -156.462E-09     351.704E-03     297.631E-03        -1.32706     351.239E-03        -1.32659     297.631E-03    -48.4685E-03     440.187E-03    -217.025E-03    -223.315E-03    -223.315E-03     440.187E-03    -217.025E-03    -704.130E-06     7.11897E+06     4.40923E+06     93.0076E+03     3.59925E+06     1.20978E+06     6.81217E+06     374.440E+03         75.2800
              90     10.3572E-03    -156.462E-09     369.985E-03     302.422E-03        -1.35458     369.913E-03        -1.35451     302.422E-03     777.798E-06     452.704E-03    -218.093E-03    -234.963E-03    -234.962E-03     452.703E-03    -218.093E-03     600.313E-06     11.7399E+06     6.39065E+06    -1.07616E+06     3.07317E+06     2.24132E+06     11.7399E+06     2.01926E+06         80.0682
              91     11.1339E-03    -156.462E-09     385.132E-03     307.661E-03        -1.37814     385.046E-03        -1.37805     307.661E-03     24.6063E-03     474.025E-03    -220.033E-03    -254.002E-03    -253.994E-03     474.017E-03    -220.033E-03    -2.05035E-03     12.7731E+06     5.83561E+06    -4.52137E+06     861.315E+03     452.922E+03     12.7731E+06     5.16763E+06         85.4123
              92     11.8981E-03    -156.462E-09     400.316E-03     313.106E-03        -1.39938     400.262E-03        -1.39933     313.106E-03     17.9681E-03     504.285E-03    -223.024E-03    -280.071E-03    -280.064E-03     504.279E-03    -223.024E-03    -3.00411E-03     2.76166E+06    -1.49079E+06    -11.4240E+06    -4.20706E+06    -8.44651E+06     2.50040E+06     368.259E+03         90.9588
              93     12.6303E-03    -156.462E-09     420.947E-03     318.876E-03        -1.43004     420.923E-03        -1.43002     318.876E-03    -3.15100E-03     546.316E-03    -227.804E-03    -317.278E-03    -317.190E-03     546.228E-03    -227.804E-03     12.8464E-03    -5.47205E+06    -10.6800E+06    -20.5644E+06    -8.80085E+06    -17.2356E+06    -10.6800E+06     2.22939E+06         95.8230
              94     13.3232E-03    -156.462E-09     455.681E-03     325.309E-03        -1.48600     455.316E-03        -1.48563     325.309E-03    -45.3101E-03     612.857E-03    -234.764E-03    -377.896E-03    -375.888E-03     610.849E-03    -234.764E-03     76.7099E-03    -2.20844E+06    -18.0342E+06    -31.6052E+06    -7.03683E+06    -26.7768E+06    -18.0342E+06    -2.18607E+06         99.1363
              95     14.0373E-03     2.00699E-03     465.253E-03     334.410E-03        -1.48454     464.156E-03        -1.48344     334.410E-03    -90.6353E-03     607.685E-03    -237.607E-03    -371.113E-03    -366.704E-03     603.275E-03    -237.607E-03     130.261E-03    -67.0630E+03    -18.7526E+06    -29.7213E+06    -5.36074E+06    -24.4276E+06    -18.7526E+06    -10.9123E+06         99.6054
              96     14.0785E-03     3.87242E-03     455.414E-03     346.352E-03        -1.46106     454.465E-03        -1.46011     346.352E-03    -81.0911E-03     542.923E-03    -236.081E-03    -307.728E-03    -303.238E-03     538.433E-03    -236.081E-03     123.201E-03     6.94243E+06    -4.75441E+06    -9.55109E+06     100.368E+03    -6.59938E+06    -864.058E+03    -4.43351E+06         98.5302
              97     14.0923E-03     5.51953E-03     450.594E-03     360.714E-03        -1.48015     450.260E-03        -1.47982     360.714E-03    -50.4979E-03     517.308E-03    -235.280E-03    -281.667E-03    -278.288E-03     513.928E-03    -235.280E-03     103.361E-03     11.0142E+06     6.85506E+06     1.16575E+06     6.85242E+06     1.16839E+06     11.0142E+06     78.5660E+03         97.9689
              98     14.1151E-03     7.20855E-03     448.699E-03     379.287E-03        -1.50015     448.541E-03        -1.49999     379.287E-03    -32.4564E-03     502.321E-03    -235.046E-03    -266.675E-03    -264.350E-03     499.997E-03    -235.046E-03     84.1200E-03     2.51960E+06    -4.21661E+06    -8.92831E+06     2.11824E+06    -8.79570E+06    -3.94787E+06     1.02966E+06         97.5718
              99     14.1096E-03     8.87699E-03     461.577E-03     401.503E-03        -1.54560     461.522E-03        -1.54554     401.503E-03    -21.0226E-03     489.856E-03    -235.440E-03    -254.259E-03    -252.214E-03     487.812E-03    -235.440E-03     77.8208E-03     1.93295E+06    -7.43399E+06    -12.5556E+06    -1.24649E+06    -12.2756E+06    -4.53452E+06     346.874E+03         97.2052
             100     14.1136E-03     10.5219E-03     470.128E-03     426.616E-03        -1.59505     470.015E-03        -1.59494     426.616E-03    -29.7299E-03     479.308E-03    -235.772E-03    -243.820E-03    -241.272E-03     476.760E-03    -235.772E-03     85.4575E-03     9.37927E+06     5.83056E+06    -8.61556E+06     2.87907E+06    -5.01483E+06     8.73004E+06     4.65689E+06         96.8351
             101     14.1240E-03     12.0919E-03     480.337E-03     454.463E-03        -1.63846     480.214E-03        -1.63833     454.463E-03    -31.8772E-03     476.282E-03    -235.733E-03    -240.377E-03    -237.610E-03     473.515E-03    -235.733E-03     88.8624E-03    -1.23581E+06    -2.25204E+06    -19.2521E+06    -5.23421E+06    -15.2537E+06    -2.25204E+06     7.11492E+06         96.4581
             102     14.1266E-03     13.7498E-03     494.590E-03     482.717E-03        -1.68535     493.133E-03        -1.68529     484.114E-03    -4.45234E-03     473.243E-03    -234.471E-03    -238.927E-03    -234.839E-03     470.512E-03    -235.827E-03     87.9343E-03      21.987E+03    -2.00363E+06    -12.2630E+06     -614.42E+03    -11.6266E+06    -2.00363E+06     2.50375E+06         96.0723
             103     14.1348E-03     15.4193E-03     513.750E-03     498.189E-03        -1.73414     498.130E-03        -1.73408     513.750E-03    -4.57887E-03     469.713E-03    -234.478E-03    -236.120E-03    -231.385E-03     466.620E-03    -236.120E-03     93.0474E-03     8.39386E+06     4.77598E+06    -5.67448E+06     4.37209E+06    -3.61198E+06     6.73524E+06     3.59150E+06         95.7132
             104     14.1348E-03     17.0183E-03     542.539E-03     510.933E-03        -1.79012     510.887E-03        -1.79007     542.539E-03    -8.66381E-03     472.861E-03    -235.666E-03    -237.563E-03    -234.148E-03     469.731E-03    -235.952E-03     93.9946E-03     10.7093E+06     1.49924E+06    -6.97408E+06    -811.806E+03    -4.66304E+06     10.7093E+06     3.68587E+06         95.3993
             105     14.1421E-03     18.6519E-03     569.896E-03     526.106E-03        -1.82998     526.090E-03        -1.82996     569.896E-03    -2.22523E-03     473.091E-03    -235.356E-03    -237.477E-03    -234.085E-03     470.209E-03    -235.866E-03     90.2833E-03     10.8133E+06    -1.20449E+06    -8.24005E+06     1.78219E+06    -6.45968E+06     6.04629E+06     4.22374E+06         95.1181
             106     14.1391E-03     20.2551E-03     594.266E-03     513.902E-03        -1.85315     513.852E-03        -1.85310     594.266E-03     6.39669E-03     471.197E-03    -235.109E-03    -235.995E-03    -232.172E-03     468.260E-03    -235.995E-03     90.9004E-03     2.12303E+06    -5.85424E+06    -13.8232E+06    -2.53785E+06    -12.3725E+06    -2.64402E+06     3.57777E+06         94.8673
             107     14.1419E-03     21.9079E-03     615.977E-03     518.908E-03        -1.89008     518.601E-03        -1.88977     615.977E-03    -22.6978E-03     472.772E-03    -235.803E-03    -237.220E-03    -233.550E-03     469.478E-03    -236.178E-03     96.3930E-03     7.87379E+06     1.92883E+06    -11.2850E+06    -2.00954E+06    -7.34660E+06     7.87379E+06    -4.66820E+06         94.6494
             108     14.1504E-03     23.4942E-03     633.897E-03     536.267E-03        -1.91947     535.925E-03        -1.91912     633.897E-03    -55.4250E-03     472.581E-03    -235.702E-03    -237.152E-03    -233.303E-03     469.140E-03    -236.110E-03     98.5485E-03     9.93485E+06    -1.70499E+06    -20.9332E+06    -1.95563E+06    -11.7774E+06     1.02976E+06    -13.0906E+06         94.4505
             109     14.1558E-03     25.0603E-03     646.375E-03     525.393E-03        -1.91554     525.309E-03        -1.91545     646.375E-03    -26.0451E-03     466.375E-03    -230.812E-03    -236.042E-03    -227.742E-03     463.305E-03    -236.042E-03     92.2802E-03     10.1671E+06    -7.04849E+06    -18.7992E+06    -4.58573E+06    -12.3569E+06     1.26198E+06    -9.46026E+06         94.2542
             110     14.1564E-03     26.6686E-03     653.301E-03     576.521E-03        -1.91256     576.446E-03        -1.91249     653.301E-03    -25.0514E-03     462.082E-03    -226.553E-03    -236.191E-03    -223.995E-03     459.524E-03    -236.191E-03     83.6466E-03     19.2101E+06     10.6106E+06     1.86453E+06     8.92547E+06     3.83873E+06     18.9211E+06     884.066E+03         94.0760
             111     14.1592E-03     28.2647E-03     663.830E-03     644.391E-03        -1.90407     653.332E-03        -1.90394     654.767E-03    -35.4497E-03     465.831E-03    -229.909E-03    -235.947E-03    -227.682E-03     463.604E-03    -235.947E-03     78.5880E-03     3.69834E+06      2.3494E+06    -9.94043E+06     2.13622E+06    -8.37831E+06      2.3494E+06     4.34339E+06         93.9349
             112     14.1594E-03     29.8846E-03     660.114E-03     512.810E-03        -1.88384     521.692E-03        -1.88366     651.050E-03     6.24524E-03     470.806E-03    -234.393E-03    -235.949E-03    -232.444E-03     468.524E-03    -235.616E-03     80.1098E-03     3.36990E+06    -4.21670E+06    -12.1294E+06    -3.96315E+06    -11.3230E+06     2.30999E+06     2.15459E+06         93.8369
             113     14.1665E-03     31.4865E-03     730.636E-03     505.238E-03        -1.90187     591.989E-03        -1.90147     643.478E-03     62.9127E-03     478.042E-03    -235.517E-03    -242.623E-03    -239.795E-03     475.214E-03    -235.517E-03     89.8921E-03     10.4982E+06     2.67801E+06    -4.05471E+06     1.86241E+06    -3.23911E+06     10.4982E+06    -1.88460E+06         93.7840
             114     14.1637E-03     33.2555E-03         2.36138     633.965E-03        -1.89545         2.36089        -1.89497     633.965E-03    -9.13429E-03     484.856E-03    -235.337E-03    -249.544E-03    -246.204E-03     481.515E-03    -235.337E-03     98.8296E-03     7.20087E+06    -1.29957E+06    -7.80985E+06    -2.17664E+06    -6.93278E+06     7.20087E+06    -2.12749E+06         93.7605
             115     14.1713E-03     34.8472E-03         9.88060     640.124E-03        -2.02503         9.88014        -2.02457     640.124E-03     47.6449E-03     479.008E-03    -235.275E-03    -243.397E-03    -239.973E-03     475.585E-03    -235.275E-03     99.2205E-03     9.96081E+06     2.59098E+06    -4.75178E+06     2.18034E+06    -4.17828E+06     9.79796E+06    -1.96707E+06         93.7396
             116     14.1734E-03     36.3960E-03         43.5922     803.325E-03        -3.56992         43.5754        -3.55311     803.325E-03         1.68491     474.126E-03    -235.449E-03    -238.596E-03    -235.626E-03     471.156E-03    -235.449E-03     91.5274E-03     3.36051E+06     2.76676E+06    -11.5836E+06     1.04385E+06    -9.69787E+06     3.19765E+06     1.53831E+06         93.7085
             117     14.1725E-03     37.9990E-03         202.578         3.39101    -915.280E-03         202.162     851.257E-03         2.04027         17.7523     474.379E-03    -235.677E-03    -238.736E-03    -236.016E-03     471.659E-03    -235.677E-03     87.8365E-03     5.59391E+06     1.48579E+06    -12.8277E+06    -2.92879E+06    -8.41315E+06     5.59391E+06     388.069E+03         93.6639
             118     14.1780E-03     39.6471E-03         188.481         3.03403        -16.4331         170.593         2.80491         1.68329        -23.1340     474.508E-03    -235.727E-03    -238.684E-03    -235.708E-03     471.532E-03    -235.727E-03     91.9506E-03     12.5001E+06     8.41674E+06     1.45088E+06     4.63178E+06     5.64197E+06     12.0940E+06    -3.63431E+06         93.6107
             119     14.1742E-03     41.2497E-03         20.4422        -4.44216        -198.511        -175.707        -5.79808        -1.00599        -16.7155     480.527E-03    -235.614E-03    -244.644E-03    -241.792E-03     477.676E-03    -235.614E-03     90.7080E-03     14.4971E+06     5.57183E+06    -8.97575E+06    -3.93756E+06     939.767E+03     14.0910E+06    -7.06767E+06         93.5649
             120     14.1797E-03     42.8215E-03    -122.840E-03        -4.47334        -218.410        -217.682        -4.28666        -1.03717         22.6961     483.488E-03    -235.414E-03    -248.127E-03    -245.134E-03     480.496E-03    -235.414E-03     93.2603E-03     8.89668E+06    -3.77264E+06    -27.0713E+06    -17.7227E+06    -13.1212E+06     8.89668E+06    -1.16760E+06         93.5486
             121     14.1888E-03     44.5139E-03         1.17055    -323.934E-03        -46.2288        -46.2255     587.118E-03     256.219E-03    -204.264E-03     479.484E-03    -235.310E-03    -244.380E-03    -241.519E-03     476.623E-03    -235.310E-03     90.5818E-03     17.6327E+06     1.50982E+06    -10.5174E+06     7.80943E+06    -4.84433E+06     5.66001E+06     7.60454E+06         93.5678
             122     14.1827E-03     46.1225E-03     326.015E-03    -995.398E-03        -9.99975        -9.99223        -1.00292     326.015E-03    -454.773E-03     475.689E-03    -235.560E-03    -240.504E-03    -238.017E-03     473.201E-03    -235.560E-03     84.2579E-03     21.3721E+06     546.624E+03    -9.81094E+06     6.39492E+06    -3.68654E+06     9.39943E+06     6.52668E+06         93.6098
             123     14.1794E-03     47.7415E-03     298.327E-03    -588.462E-03        -2.21342        -1.66804        -1.13385     298.327E-03    -181.197E-03     473.015E-03    -235.469E-03    -237.713E-03    -234.423E-03     470.053E-03    -235.797E-03     91.3180E-03     14.1450E+06     1.36717E+06    -16.1039E+06    -3.23798E+06    -7.57375E+06     10.2200E+06     9.37059E+06         93.6788
             124     14.1906E-03     49.3396E-03     376.143E-03     114.270E-03        -1.10004     229.515E-03        -1.09894     259.799E-03    -20.9164E-03     473.007E-03    -235.305E-03    -237.399E-03    -233.633E-03     469.568E-03    -235.633E-03     98.5798E-03     8.51517E+06     3.22688E+06    -14.3600E+06     768.689E+03    -7.97678E+06     4.59017E+06     1.18438E+06         93.7694
             125     14.1866E-03     50.9436E-03     343.708E-03     208.646E-03        -1.08729     324.810E-03        -1.08711     227.364E-03     26.0542E-03     476.734E-03    -235.472E-03    -241.106E-03    -237.742E-03     473.370E-03    -235.472E-03     98.0295E-03     14.0879E+06     9.44064E+06    -10.3064E+06     1.21186E+06    -2.07757E+06     14.0879E+06    -9.73433E+06         93.8468
             126     14.1920E-03     52.5640E-03     217.862E-03     182.396E-03        -1.04569     199.139E-03        -1.04569     201.114E-03    -578.451E-06     475.979E-03    -235.532E-03    -240.611E-03    -237.337E-03     472.705E-03    -235.532E-03     96.6462E-03     21.7151E+06     7.94420E+06    -8.28017E+06    -543.969E+03     207.994E+03     21.7151E+06    -7.72418E+06         93.8903
             127     14.1920E-03     54.1640E-03     276.024E-03     179.278E-03        -1.00412     276.020E-03        -1.00412     179.278E-03    -2.52252E-03     473.644E-03    -235.691E-03    -238.362E-03    -235.098E-03     470.380E-03    -235.691E-03     96.1788E-03     19.1725E+06     138.599E+03    -10.3320E+06    -6.50006E+06    -3.69338E+06     19.1725E+06     512.607E+03         93.9035
             128     14.1971E-03     55.7847E-03     322.834E-03     163.351E-03    -974.022E-03     322.834E-03    -974.022E-03     163.351E-03     1.05795E-03     473.847E-03    -235.688E-03    -238.029E-03    -235.122E-03     470.941E-03    -235.688E-03     90.6697E-03     24.0319E+06     9.78715E+06    -811.139E+03     4.45131E+06     4.52470E+06     24.0319E+06     5.29028E+06         93.8868
             129     14.1942E-03     57.3900E-03     322.934E-03     154.837E-03    -964.837E-03     322.832E-03    -964.734E-03     154.837E-03     16.9642E-03     469.941E-03    -232.932E-03    -236.542E-03    -231.457E-03     467.586E-03    -235.661E-03     81.1997E-03     19.0749E+06     4.36398E+06    -2.90252E+06     1.46131E+06           152.5     19.0749E+06     1.71617E+06         93.8382
             130     14.1966E-03     58.9777E-03     322.514E-03     154.296E-03    -967.414E-03     322.406E-03    -967.307E-03     154.296E-03     12.5948E-03     468.005E-03    -231.785E-03    -235.856E-03    -229.493E-03     465.713E-03    -235.856E-03     79.9029E-03     19.7823E+06     2.71300E+06    -1.22337E+06     674.556E+03     815.068E+03     19.7823E+06    -232.156E+03         93.7762
             131     14.1966E-03     60.5779E-03     321.386E-03     161.581E-03    -969.832E-03     321.252E-03    -969.698E-03     161.581E-03     14.6008E-03     472.518E-03    -234.457E-03    -237.836E-03    -233.893E-03     469.918E-03    -235.800E-03     85.7072E-03     27.4360E+06     5.98495E+06    -212.362E+03     426.014E+03     5.34658E+06     27.4360E+06    -607.831E+03         93.7126
             132     14.2027E-03     62.1833E-03     327.760E-03     176.249E-03    -985.353E-03     327.502E-03    -985.095E-03     176.249E-03     36.8337E-03     478.556E-03    -235.576E-03    -243.124E-03    -239.803E-03     475.234E-03    -235.576E-03     97.3188E-03      22.455E+06    -2.43681E+06    -12.6831E+06    -11.7301E+06    -3.38985E+06      22.455E+06    -2.97532E+06         93.6383
             133     14.2021E-03     63.8419E-03     329.716E-03     196.257E-03        -1.01365     329.579E-03        -1.01351     196.257E-03     22.7872E-03     479.493E-03    -235.509E-03    -243.978E-03    -240.414E-03     475.929E-03    -235.509E-03     101.191E-03     31.9873E+06     11.6053E+06     302.512E+03     3.27080E+06     8.63701E+06     31.9873E+06     955.249E+03         93.5469
             134     14.2044E-03     65.4359E-03     331.398E-03     221.199E-03        -1.04727     331.226E-03        -1.04710     221.199E-03     25.7047E-03     476.126E-03    -235.562E-03    -240.581E-03    -237.080E-03     472.625E-03    -235.562E-03     99.8494E-03     35.6158E+06     14.0310E+06     1.52196E+06     4.24835E+06     11.3046E+06     35.6158E+06     1.20911E+06         93.4511
             135     14.2056E-03     67.0298E-03     332.576E-03     253.201E-03        -1.08083     332.375E-03        -1.08063     253.201E-03     31.5938E-03     478.913E-03    -235.498E-03    -243.143E-03    -239.727E-03     475.498E-03    -235.498E-03     98.9004E-03     29.9788E+06     10.5336E+06    -12.2275E+06    -6.01607E+06     4.32209E+06     29.9788E+06     6.10663E+06         93.3805
             136     14.2094E-03     68.6684E-03     345.796E-03     289.511E-03        -1.13155     345.622E-03        -1.13137     289.511E-03     30.6415E-03     479.971E-03    -235.330E-03    -244.162E-03    -241.227E-03     477.037E-03    -235.330E-03     91.9998E-03     31.4609E+06     17.0254E+06    -2.98065E+06     3.55814E+06     10.4866E+06     31.4609E+06     9.13845E+06         93.3479
             137     14.2111E-03     70.2562E-03     351.513E-03     322.941E-03        -1.17493     347.356E-03        -1.17438     326.551E-03     55.7589E-03     481.194E-03    -235.336E-03    -245.737E-03    -242.972E-03     478.429E-03    -235.336E-03     89.4765E-03     32.6758E+06     11.8483E+06    -4.41244E+06    -1.41997E+06     8.85587E+06     32.6758E+06    -3.18620E+06         93.3613
             138     14.2060E-03     71.8898E-03     364.836E-03     341.915E-03        -1.21041     341.409E-03        -1.20990     364.836E-03     52.8101E-03     483.170E-03    -235.376E-03    -247.659E-03    -245.020E-03     480.532E-03    -235.376E-03     87.6641E-03     39.0814E+06     13.2404E+06    -6.50570E+06    -3.78758E+06     10.5223E+06     39.0814E+06    -3.05968E+06         93.4188
             139     14.2167E-03     73.5085E-03     404.389E-03     348.834E-03        -1.25577     348.475E-03        -1.25541     404.389E-03     46.7146E-03     476.237E-03    -235.469E-03    -240.677E-03    -237.657E-03     473.217E-03    -235.469E-03     92.5701E-03     43.2834E+06     18.0796E+06     2.34112E+06     3.44798E+06     16.9728E+06     43.2834E+06     3.96591E+06         93.4905
             140     14.2165E-03     75.1142E-03     442.244E-03     358.586E-03        -1.30290     358.295E-03        -1.30261     442.244E-03     39.2404E-03     471.755E-03    -235.590E-03    -236.157E-03    -233.072E-03     468.670E-03    -235.590E-03     93.0860E-03     41.9340E+06     14.8256E+06    -3.43036E+06    -2.11376E+06     13.5090E+06     41.9340E+06    -103.579E+03         93.5453
             141     14.2142E-03     76.7062E-03     474.051E-03     367.442E-03        -1.34638     367.232E-03        -1.34618     474.051E-03     35.0218E-03     473.504E-03    -235.503E-03    -238.132E-03    -235.072E-03     470.444E-03    -235.503E-03     92.9855E-03     44.4300E+06     14.4159E+06    -9.19969E+06    -7.29469E+06     12.5109E+06     44.4300E+06    -6.36272E+06         93.5830
             142     14.2228E-03     78.3063E-03     499.263E-03     353.239E-03        -1.34899     352.906E-03        -1.34865     499.263E-03     47.5836E-03     477.016E-03    -235.324E-03    -241.829E-03    -238.383E-03     473.571E-03    -235.324E-03     99.2921E-03     59.3627E+06     26.7207E+06    -854.725E+03     1.11831E+06     24.7477E+06     59.3627E+06    -979.554E+03         93.6176
             143     14.2246E-03     79.9482E-03     519.348E-03     333.665E-03        -1.33549     333.464E-03        -1.33529     519.348E-03     35.2947E-03     478.060E-03    -235.241E-03    -242.683E-03    -239.127E-03     474.504E-03    -235.241E-03     100.996E-03     60.3090E+06     27.8976E+06     979.934E+03     2.19178E+06     26.6858E+06     60.3090E+06     5.58109E+06         93.6287
             144     14.2196E-03     81.5419E-03     533.588E-03     342.621E-03        -1.35089     342.455E-03        -1.35072     533.588E-03     32.8734E-03     476.727E-03    -235.615E-03    -240.994E-03    -237.397E-03     473.129E-03    -235.615E-03     101.368E-03     60.3778E+06     26.1498E+06    -734.986E+03     21.8246E+03     25.3930E+06     60.3778E+06     4.26918E+06         93.6154
             145     14.2210E-03     83.1349E-03     539.871E-03     346.409E-03        -1.35239     346.197E-03        -1.35217     539.871E-03     37.8730E-03     475.931E-03    -235.790E-03    -240.107E-03    -236.828E-03     472.652E-03    -235.790E-03     96.5938E-03     61.5216E+06     24.7306E+06    -3.28595E+06    -2.98372E+06     24.4283E+06     61.5216E+06     498.200E+03         93.6121
             146     14.2251E-03     84.7354E-03     535.506E-03     330.244E-03        -1.31956     330.016E-03        -1.31933     535.506E-03     38.5926E-03     474.761E-03    -235.603E-03    -239.156E-03    -236.160E-03     471.764E-03    -235.603E-03     92.3091E-03     58.7422E+06     24.3677E+06    -7.06787E+06    -5.31616E+06     22.6159E+06     58.7422E+06    -6.32340E+06         93.6328
             147     14.2278E-03     86.3398E-03     520.604E-03     315.085E-03        -1.27662     314.753E-03        -1.27629     520.604E-03     45.7027E-03     474.783E-03    -235.329E-03    -239.069E-03    -235.736E-03     471.451E-03    -235.329E-03     97.2020E-03     73.3572E+06     33.4136E+06    -2.51199E+06    -853.720E+03     31.7553E+06     73.3572E+06    -4.74807E+06         93.6784
             148     14.2358E-03     87.9497E-03     498.153E-03     299.420E-03        -1.22215     299.146E-03        -1.22188     498.153E-03     39.9580E-03     475.067E-03    -235.233E-03    -239.069E-03    -235.754E-03     471.752E-03    -235.233E-03     96.9547E-03     86.3692E+06     38.5687E+06    -679.479E+03     30.5551E+03     37.8587E+06     86.3692E+06     4.16957E+06         93.7352
             149     14.2341E-03     91.1433E-03     430.606E-03     283.477E-03        -1.10192     283.268E-03        -1.10172     430.606E-03     33.8048E-03     471.289E-03    -235.103E-03    -236.549E-03    -232.838E-03     467.789E-03    -235.313E-03     99.2751E-03     81.4913E+06     32.8278E+06    -6.59118E+06    -6.05136E+06     32.2880E+06     81.4913E+06     2.74390E+06         93.8215
             150     14.2356E-03     92.7355E-03     385.289E-03     264.055E-03        -1.01503     263.912E-03        -1.01489     385.289E-03     25.1241E-03     473.090E-03    -235.177E-03    -238.332E-03    -234.863E-03     469.620E-03    -235.177E-03     99.1017E-03     98.2044E+06     41.5703E+06    -2.88992E+06    -2.82408E+06     41.5045E+06     98.2044E+06     816.615E+03         93.8454
             151     14.2395E-03     94.3513E-03     333.368E-03     242.207E-03    -922.857E-03     242.060E-03    -922.709E-03     333.368E-03     23.8145E-03     472.729E-03    -234.920E-03    -237.920E-03    -234.417E-03     469.226E-03    -234.920E-03     99.5138E-03     100.459E+06     42.8466E+06    -2.11299E+06    -2.04682E+06     42.7804E+06     100.459E+06     1.56681E+06         93.8256
             152     14.2380E-03     95.9344E-03     278.468E-03     225.344E-03    -838.909E-03     225.208E-03    -838.774E-03     278.468E-03     20.9506E-03     472.055E-03    -234.744E-03    -237.159E-03    -233.585E-03     468.482E-03    -234.744E-03     100.418E-03     99.0872E+06     40.1798E+06    -6.18518E+06    -6.06763E+06     40.0623E+06     99.0872E+06    -1.28252E+06         93.7633
             153     14.2446E-03     97.5354E-03     236.169E-03     207.058E-03    -757.814E-03     220.549E-03    -757.800E-03     222.664E-03     7.39063E-03     473.824E-03    -234.631E-03    -239.054E-03    -235.423E-03     470.193E-03    -234.631E-03     101.474E-03     114.229E+06     51.3947E+06     995.653E+03     1.14089E+06     51.2494E+06     114.229E+06    -2.59809E+06         93.6842
             154     14.2480E-03     99.1372E-03     208.790E-03     165.179E-03    -667.260E-03     208.434E-03    -666.904E-03     165.179E-03     27.0864E-03     475.447E-03    -234.511E-03    -240.737E-03    -237.168E-03     471.878E-03    -234.511E-03     100.810E-03     109.393E+06     46.8878E+06    -4.84752E+06    -4.81170E+06     46.8520E+06     109.393E+06    -750.665E+03         93.6141
             155     14.2510E-03     100.744E-03     178.816E-03     107.529E-03    -569.592E-03     178.462E-03    -569.238E-03     107.529E-03     21.8316E-03     473.372E-03    -234.331E-03    -238.535E-03    -235.149E-03     469.986E-03    -234.331E-03     97.9522E-03     115.971E+06     52.8034E+06    -1.83086E+06    -1.76670E+06     52.7392E+06     115.971E+06     1.51221E+06         93.5846
             156     14.2601E-03     102.318E-03     165.810E-03     54.3405E-03    -491.329E-03     165.803E-03    -491.322E-03     54.3405E-03    -4.23567E-03     472.660E-03    -234.002E-03    -238.046E-03    -234.996E-03     469.610E-03    -234.002E-03     92.7275E-03     125.028E+06     57.4933E+06    -3.21027E+06    -3.07291E+06     57.3560E+06     125.028E+06     2.88423E+06         93.6197
             157     14.2572E-03     103.929E-03     170.069E-03     8.48845E-03    -436.551E-03     169.926E-03    -436.407E-03     8.48845E-03    -14.9197E-03     472.602E-03    -233.852E-03    -238.490E-03    -235.469E-03     469.581E-03    -233.852E-03     92.3425E-03     126.455E+06     60.9109E+06    -4.18433E+06    -1.97371E+06     58.7002E+06     126.455E+06     9.61495E+06         93.7005
             158     14.2649E-03     105.531E-03     163.742E-03    -31.4203E-03    -381.280E-03     163.498E-03    -381.036E-03    -31.4203E-03    -23.0197E-03     468.021E-03    -232.981E-03    -235.234E-03    -230.769E-03     464.149E-03    -233.574E-03     103.781E-03     116.122E+06     58.2172E+06    -9.91045E+06    -6.44046E+06     54.7472E+06     116.122E+06     1.30131E+06         93.8021
             159     14.2735E-03     107.097E-03     151.781E-03    -65.0781E-03    -328.104E-03     151.365E-03    -327.688E-03    -65.0781E-03    -27.0647E-03     469.242E-03    -232.681E-03    -236.887E-03    -232.271E-03     465.220E-03    -233.274E-03     106.106E-03     123.654E+06     59.8307E+06    -10.2822E+06    -8.94451E+06     58.4931E+06     123.654E+06    -6.39487E+06         93.9108
             160     14.2740E-03     108.715E-03     140.575E-03    -88.9564E-03    -288.680E-03     140.068E-03    -288.174E-03    -88.9564E-03    -29.3431E-03     472.793E-03    -232.984E-03    -240.382E-03    -236.463E-03     468.875E-03    -232.984E-03     105.382E-03     142.532E+06     76.3023E+06     2.46617E+06     3.87437E+06     74.8941E+06     142.532E+06     7.65930E+06         94.0026
             161     14.2832E-03     110.304E-03     140.255E-03    -100.901E-03    -270.329E-03     139.730E-03    -269.804E-03    -100.901E-03    -29.1099E-03     468.948E-03    -232.514E-03    -237.320E-03    -233.134E-03     464.762E-03    -232.514E-03     108.427E-03     131.932E+06     70.1122E+06    -8.45617E+06    -6.98907E+06     68.6451E+06     131.932E+06     5.72750E+06         94.0798
             162     14.2911E-03     111.879E-03     143.057E-03    -101.734E-03    -270.033E-03     142.607E-03    -269.583E-03    -101.734E-03    -26.4423E-03     464.352E-03    -231.801E-03    -232.915E-03    -228.823E-03     460.259E-03    -231.801E-03     106.517E-03     132.955E+06     73.5674E+06    -10.2599E+06    -8.52234E+06     71.8299E+06     132.955E+06    -10.0432E+06         94.1617
             163     14.3013E-03     113.464E-03     142.217E-03    -92.9189E-03    -275.725E-03     141.918E-03    -275.427E-03    -92.9189E-03    -22.2224E-03     462.002E-03    -230.568E-03    -231.411E-03    -226.884E-03     458.225E-03    -231.317E-03     101.992E-03     143.595E+06     84.6485E+06    -3.02144E+06    -1.27693E+06     82.9040E+06     143.595E+06    -10.2071E+06         94.2583
             164     14.3077E-03     115.032E-03     143.139E-03    -75.5019E-03    -296.105E-03     142.848E-03    -295.813E-03    -75.5019E-03    -22.4379E-03     463.654E-03    -230.471E-03    -233.399E-03    -229.087E-03     460.091E-03    -231.220E-03     99.3610E-03     150.503E+06     89.1125E+06    -1.80064E+06    -1.60467E+06     88.9165E+06     150.503E+06     721.753E+03         94.3936
             165     14.3187E-03     116.623E-03     146.559E-03    -48.8102E-03    -332.075E-03     146.446E-03    -331.962E-03    -48.8102E-03    -10.6385E-03     467.693E-03    -230.184E-03    -237.119E-03    -233.804E-03     464.379E-03    -230.184E-03     96.3659E-03     152.655E+06     91.7200E+06    -4.38403E+06    -4.22250E+06     91.5585E+06     152.655E+06     1.14921E+06         94.5889
             166     14.3257E-03     118.221E-03     150.950E-03    -11.7293E-03    -374.812E-03     150.777E-03    -374.639E-03    -11.7293E-03    -14.2735E-03     467.180E-03    -229.106E-03    -237.012E-03    -233.963E-03     464.132E-03    -229.106E-03     92.4619E-03     154.643E+06     95.0093E+06    -4.81701E+06    -4.78044E+06     94.9727E+06     154.643E+06    -1.04427E+06         94.8401
             167     14.3296E-03     119.814E-03     159.163E-03     33.1839E-03    -430.081E-03     158.984E-03    -429.902E-03     33.1839E-03    -16.5887E-03     464.594E-03    -228.915E-03    -234.526E-03    -231.110E-03     461.177E-03    -228.915E-03     97.3282E-03     159.291E+06     100.457E+06    -4.43244E+06    -4.40608E+06     100.431E+06     159.291E+06     1.41600E+06         95.1393
             168     14.3354E-03     121.405E-03     160.885E-03     82.7160E-03    -485.524E-03     160.860E-03    -485.499E-03     82.7160E-03    -7.79490E-03     463.176E-03    -228.806E-03    -233.543E-03    -229.682E-03     459.315E-03    -228.806E-03     103.438E-03     163.042E+06     104.807E+06    -4.86997E+06    -4.84332E+06     104.781E+06     163.042E+06     1.45630E+06         95.4818
             169     14.3411E-03     122.988E-03     158.666E-03     132.490E-03    -536.169E-03     155.487E-03    -535.985E-03     135.484E-03    -20.4039E-03     460.869E-03    -228.841E-03    -231.759E-03    -227.917E-03     457.026E-03    -228.841E-03     102.889E-03     166.849E+06     110.852E+06    -4.78991E+06    -4.75866E+06     110.820E+06     166.849E+06     1.62645E+06         95.8540
             170     14.3463E-03     124.561E-03     190.024E-03     168.336E-03    -601.058E-03     168.118E-03    -600.840E-03     190.024E-03    -24.6813E-03     459.022E-03    -228.674E-03    -230.797E-03    -226.888E-03     455.114E-03    -228.674E-03     103.540E-03     170.991E+06     117.575E+06    -4.93286E+06    -4.89367E+06     117.536E+06     170.991E+06     2.10228E+06         96.2422
             171     14.3517E-03     126.137E-03     243.329E-03     179.150E-03    -663.895E-03     179.003E-03    -663.748E-03     243.329E-03    -22.0740E-03     459.479E-03    -228.121E-03    -232.085E-03    -228.092E-03     455.486E-03    -228.121E-03     104.790E-03     175.370E+06     123.572E+06    -5.09574E+06    -5.07082E+06     123.547E+06     175.370E+06     1.77958E+06         96.6279
             172     14.3564E-03     127.698E-03     292.999E-03     167.620E-03    -699.438E-03     167.523E-03    -699.341E-03     292.999E-03    -14.8358E-03     459.826E-03    -227.360E-03    -232.504E-03    -228.590E-03     455.913E-03    -227.360E-03     103.811E-03     180.003E+06     128.949E+06    -5.31523E+06    -5.29593E+06     128.930E+06     180.003E+06     1.52348E+06         96.9889
             173     14.3608E-03     129.278E-03     338.112E-03     162.282E-03    -733.549E-03     162.251E-03    -733.518E-03     338.112E-03    -9.26429E-03     456.987E-03    -226.931E-03    -229.960E-03    -226.263E-03     453.290E-03    -226.931E-03     100.494E-03     184.351E+06     133.695E+06    -5.31156E+06    -5.28833E+06     133.672E+06     184.351E+06     1.68410E+06         97.3295
             174     14.3652E-03     130.830E-03     376.764E-03     175.521E-03    -783.609E-03     175.489E-03    -783.577E-03     376.764E-03    -9.79013E-03     457.006E-03    -226.998E-03    -230.291E-03    -226.534E-03     453.250E-03    -226.998E-03     101.307E-03     189.189E+06     139.908E+06    -5.28138E+06    -5.25096E+06     139.878E+06     189.189E+06     2.07693E+06         97.6871
             175     14.3694E-03     132.446E-03     406.684E-03     179.078E-03    -813.588E-03     178.999E-03    -813.509E-03     406.684E-03    -14.7747E-03     462.040E-03    -226.793E-03    -235.619E-03    -231.887E-03     458.309E-03    -226.793E-03     101.688E-03     194.011E+06     146.422E+06    -5.75628E+06    -5.73415E+06     146.399E+06     194.011E+06     1.83496E+06         98.0925
             176     14.3734E-03     134.014E-03     426.643E-03     169.165E-03    -811.147E-03     168.995E-03    -810.977E-03     426.643E-03     1.28654E-03     462.534E-03    -226.504E-03    -236.446E-03    -232.712E-03     458.800E-03    -226.504E-03     101.823E-03     198.632E+06     152.575E+06    -5.43141E+06    -5.41042E+06     152.554E+06     198.632E+06     1.81985E+06         98.5271
             177     14.3769E-03     135.597E-03     435.734E-03     162.647E-03    -797.855E-03     162.546E-03    -797.753E-03     435.734E-03     9.91761E-03     457.585E-03    -226.354E-03    -232.292E-03    -228.534E-03     453.827E-03    -226.354E-03     101.513E-03     202.965E+06     158.420E+06    -5.79197E+06    -5.76982E+06     158.398E+06     202.965E+06     1.90547E+06         98.9793
             178     14.3803E-03     137.170E-03     432.817E-03     158.947E-03    -786.893E-03     158.938E-03    -786.884E-03     432.817E-03    -1.33644E-03     456.918E-03    -225.986E-03    -232.231E-03    -228.842E-03     453.530E-03    -225.986E-03     96.3881E-03     207.518E+06     164.937E+06    -5.75357E+06    -5.73112E+06     164.914E+06     207.518E+06     1.95474E+06         99.4736
             179     14.3835E-03     138.746E-03     418.211E-03     143.559E-03    -748.358E-03     143.553E-03    -748.353E-03     418.211E-03     144.471E-06     456.546E-03    -225.624E-03    -231.905E-03    -228.855E-03     453.496E-03    -225.624E-03     91.3947E-03     211.865E+06     171.460E+06    -5.83852E+06    -5.81662E+06     171.438E+06     211.865E+06     1.96998E+06         100.015
             180     14.3864E-03     140.325E-03     392.149E-03     132.537E-03    -697.451E-03     132.517E-03    -697.430E-03     392.149E-03    -7.56689E-03     452.595E-03    -225.462E-03    -227.737E-03    -224.353E-03     449.211E-03    -225.462E-03     95.3820E-03     216.687E+06     177.501E+06    -6.65258E+06    -6.63429E+06     177.483E+06     216.687E+06     1.81529E+06         100.609
             181     14.3892E-03     141.871E-03     354.853E-03     134.536E-03    -649.736E-03     134.516E-03    -649.715E-03     354.853E-03    -3.42033E-03     451.544E-03    -225.313E-03    -226.304E-03    -222.779E-03     448.018E-03    -225.313E-03     97.3459E-03     221.929E+06     183.953E+06    -6.40816E+06    -6.39243E+06     183.938E+06     221.929E+06     1.72582E+06         101.275
             182     14.3918E-03     143.446E-03     308.541E-03     116.001E-03    -571.916E-03     115.922E-03    -571.837E-03     308.541E-03     11.7752E-03     451.327E-03    -225.266E-03    -226.231E-03    -222.986E-03     448.082E-03    -225.266E-03     93.5345E-03     226.944E+06     189.783E+06    -6.45139E+06    -6.43772E+06     189.769E+06     226.944E+06     1.61257E+06         102.014
             183     14.3941E-03     145.018E-03     254.734E-03     100.310E-03    -484.159E-03     99.9689E-03    -483.817E-03     254.734E-03    -7.23689E-03     452.675E-03    -225.178E-03    -227.899E-03    -224.264E-03     449.040E-03    -225.178E-03     99.1502E-03     231.126E+06     193.202E+06    -6.74118E+06    -6.73551E+06     193.196E+06     231.126E+06     1.00380E+06         102.859
             184     14.3965E-03     146.592E-03     193.836E-03     107.127E-03    -414.230E-03     106.686E-03    -413.789E-03     193.836E-03    -30.2423E-03     454.872E-03    -224.987E-03    -230.367E-03    -226.321E-03     450.826E-03    -224.987E-03     104.979E-03     233.281E+06     193.754E+06    -7.08608E+06    -7.08435E+06     193.753E+06     233.281E+06     64.2955E+03         103.898
             185     14.3985E-03     148.184E-03     127.681E-03     99.7727E-03    -330.162E-03     99.4262E-03    -329.816E-03     127.681E-03    -2.12757E-03     454.248E-03    -224.912E-03    -229.454E-03    -225.435E-03     450.229E-03    -224.912E-03     104.510E-03     234.810E+06     192.115E+06    -6.83174E+06    -6.82849E+06     192.111E+06     234.810E+06    -762.639E+03         105.280
             186     14.4002E-03     149.732E-03     67.3552E-03     56.5388E-03    -221.977E-03     64.6480E-03    -221.748E-03     59.0173E-03     16.0861E-03     456.499E-03    -224.868E-03    -231.344E-03    -227.449E-03     452.604E-03    -224.868E-03     103.229E-03     237.093E+06     189.761E+06    -6.42221E+06    -6.41887E+06     189.758E+06     237.093E+06    -776.339E+03         107.222
             187     14.4022E-03     151.305E-03     44.1769E-03    -8.43743E-03    -128.694E-03     44.1104E-03    -128.628E-03    -8.43743E-03     6.39772E-03     462.566E-03    -224.711E-03    -237.984E-03    -234.005E-03     458.587E-03    -224.711E-03     105.289E-03     239.135E+06     187.087E+06    -6.85720E+06    -6.85481E+06     187.085E+06     239.135E+06     122.332E+03         110.292
             188     14.4033E-03     152.894E-03     40.8456E-03    -20.9315E-03    -95.5017E-03     40.6729E-03    -44.4116E-03    -71.8489E-03     4.80573E-03     463.511E-03    -224.674E-03    -239.269E-03    -235.269E-03     459.512E-03    -224.674E-03     105.731E-03     237.887E+06     183.747E+06    -7.28584E+06    -7.26094E+06     183.722E+06     237.887E+06    -1.09206E+06         114.757
             189     14.4041E-03     154.484E-03     49.2111E-03     14.6687E-03    -131.830E-03     32.0564E-03     31.8234E-03    -131.830E-03     1.50138E-03     463.455E-03    -224.692E-03    -239.186E-03    -234.907E-03     459.176E-03    -224.692E-03     109.275E-03     237.549E+06     182.089E+06    -6.03866E+06    -5.99353E+06     182.044E+06     237.549E+06    -63.5502E+03         119.702
             190     14.4049E-03     156.054E-03     98.1885E-03     28.1918E-03    -187.346E-03     30.8285E-03     95.5518E-03    -187.346E-03    -24.7035E-03     472.209E-03    -224.450E-03    -247.537E-03    -243.300E-03     467.972E-03    -224.450E-03     109.994E-03     235.985E+06     178.102E+06    -7.85798E+06    -7.74658E+06     177.990E+06     235.985E+06    -1.46040E+06         124.389
             191     14.4055E-03     157.658E-03     178.076E-03     12.8524E-03    -233.923E-03     15.8581E-03     175.070E-03    -233.923E-03    -36.5466E-03     484.050E-03    -224.178E-03    -258.955E-03    -254.914E-03     480.009E-03    -224.178E-03     109.290E-03     232.319E+06     171.382E+06    -5.47890E+06    -5.37199E+06     171.275E+06     232.319E+06    -1.67914E+06         129.134
             192     14.4062E-03     159.301E-03     243.535E-03     3.96465E-03    -267.714E-03     4.38597E-03     243.114E-03    -267.714E-03    -13.4794E-03     493.251E-03    -224.030E-03    -268.478E-03    -263.527E-03     488.300E-03    -224.030E-03     122.089E-03     225.689E+06     162.596E+06    -7.90495E+06    -7.77061E+06     162.462E+06     225.689E+06    -1.97631E+06         134.050
             193     14.4062E-03     160.940E-03     274.375E-03     237.654E-06    -287.339E-03     313.617E-06     274.299E-03    -287.339E-03     6.92006E-03     500.688E-03    -223.893E-03    -276.870E-03    -271.134E-03     494.952E-03    -223.893E-03     133.075E-03     218.693E+06     151.892E+06    -6.61280E+06    -6.48842E+06     151.767E+06     218.693E+06    -2.45330E+06         138.456
             194     14.4069E-03     162.569E-03     282.061E-03     433.827E-06    -294.390E-03     631.103E-06     281.864E-03    -294.390E-03     14.7605E-03     502.797E-03    -223.755E-03    -279.602E-03    -274.513E-03     497.708E-03    -223.755E-03     125.534E-03     211.941E+06     139.799E+06    -7.75017E+06    -7.50057E+06     139.549E+06     211.941E+06    -3.54693E+06         141.965
             195     14.4066E-03     164.213E-03     287.346E-03    -6.07038E-03    -289.910E-03    -5.07102E-03     286.347E-03    -289.910E-03     31.6246E-03     503.503E-03    -223.694E-03    -280.726E-03    -276.160E-03     498.936E-03    -223.694E-03     119.329E-03     210.264E+06     129.856E+06    -3.22453E+06    -2.88972E+06     129.521E+06     210.264E+06    -1.97331E+06         144.836
             196     14.4076E-03     165.845E-03     300.282E-03    -27.1071E-03    -272.260E-03    -26.2006E-03     299.375E-03    -272.260E-03     27.9326E-03     510.346E-03    -223.556E-03    -287.468E-03    -282.765E-03     505.644E-03    -223.556E-03     122.137E-03     209.862E+06     118.378E+06    -7.22208E+06    -6.69345E+06     117.850E+06     209.862E+06    -3.13525E+06         147.264
             197     14.4072E-03     167.525E-03     281.544E-03    -30.2586E-03    -241.562E-03    -30.2235E-03     281.509E-03    -241.562E-03     2.48128E-03     515.680E-03    -223.422E-03    -291.853E-03    -286.720E-03     510.547E-03    -223.422E-03     128.233E-03     208.697E+06     104.578E+06    -5.10860E+06    -4.47295E+06     103.943E+06     208.697E+06    -2.56897E+06         149.357
             198     14.4092E-03     169.201E-03     242.439E-03    -31.7614E-03    -199.567E-03    -31.6191E-03     242.297E-03    -199.567E-03     6.52409E-03     507.121E-03    -223.548E-03    -283.182E-03    -278.244E-03     502.183E-03    -223.548E-03     124.376E-03     204.264E+06     92.0104E+06    -7.47900E+06    -6.48821E+06     91.0196E+06     204.264E+06    -3.86215E+06         150.910
             199     14.4084E-03     170.796E-03     191.774E-03    -18.0520E-03    -149.243E-03    -17.9013E-03     191.623E-03    -149.243E-03     6.27949E-03     489.647E-03    -223.840E-03    -266.169E-03    -262.170E-03     485.648E-03    -223.840E-03     109.621E-03     209.900E+06     88.0573E+06     884.567E+03     2.50167E+06     86.4402E+06     209.900E+06    -1.89741E+06         152.138
             200     14.4119E-03     172.398E-03     129.819E-03     4.95151E-03    -93.8927E-03     5.80068E-03     128.970E-03    -93.8927E-03     10.1454E-03     468.340E-03    -224.288E-03    -244.916E-03    -241.646E-03     465.070E-03    -224.288E-03     96.2645E-03     204.503E+06     79.9706E+06    -5.19871E+06    -2.82873E+06     77.6007E+06     204.503E+06    -4.34057E+06         153.519
             201     14.4105E-03     173.977E-03     69.6651E-03     8.42328E-03    -36.6392E-03     9.79491E-03     68.2935E-03    -36.6392E-03     6.72259E-03     432.708E-03    -204.597E-03    -228.925E-03    -205.435E-03     429.803E-03    -225.183E-03     86.0128E-03     193.044E+06     68.0146E+06    -3.67570E+06     2.54803E+06     61.7908E+06     193.044E+06    -2.01401E+06         155.303
             202     14.4156E-03     175.436E-03     42.6634E-03     10.4371E-03    -14.8474E-03     10.1767E-03     7.93740E-03     20.1391E-03     1.78264E-03     352.390E-03    -125.285E-03    -227.524E-03    -123.245E-03     350.350E-03    -227.524E-03     61.9289E-03     175.909E+06     74.1772E+06    -6.22793E+06     1.56543E+06     66.3839E+06     175.909E+06    -6.69532E+06         156.964
             203     13.4023E-03     176.674E-03     46.4428E-03     12.6261E-03    -31.4069E-03    -14.1059E-03    -4.67493E-03     46.4428E-03     12.9478E-03     306.959E-03    -73.4890E-03    -233.954E-03    -72.5351E-03     306.005E-03    -233.954E-03     2.49490E-03     113.943E+06     23.3407E+06    -67.5364E+06    -38.7823E+06    -5.41335E+06     113.943E+06    -17.3156E+06         151.945
             204     12.4537E-03     176.431E-03     40.8006E-03     18.6590E-03    -22.1062E-03    -16.6887E-03     13.2415E-03     40.8006E-03     19.4635E-03     332.627E-03    -90.3977E-03    -242.359E-03    -86.4152E-03     328.644E-03    -242.359E-03    -73.8037E-03     77.3003E+06    -5.66491E+06    -56.6080E+06    -30.7936E+06    -31.4793E+06     77.3003E+06    -5.53105E+06         137.178
             205     11.5443E-03     176.030E-03     34.0667E-03     24.9756E-03    -12.7209E-03     6.90438E-03     8.92840E-03     30.4887E-03     40.5281E-03     356.167E-03    -105.899E-03    -249.380E-03    -95.3443E-03     345.613E-03    -249.380E-03    -136.544E-03     73.4327E+06     14.0050E+06    -19.8111E+06    -11.8723E+06     6.06621E+06     73.4327E+06    -5.14321E+06         118.390
             206     10.6779E-03     175.769E-03     40.6730E-03     18.4927E-03    -23.6609E-03    -2.44285E-03     19.4550E-03     18.4927E-03     55.4362E-03     380.005E-03    -122.615E-03    -256.018E-03    -106.017E-03     363.406E-03    -256.018E-03    -179.330E-03     77.7059E+06     5.94920E+06    -9.03557E+06     4.39313E+06    -7.47950E+06     77.7059E+06    -4.46102E+06         100.507
             207     9.83758E-03     175.599E-03     59.1549E-03     8.54725E-03    -20.5662E-03    -5.70882E-03     44.2975E-03     8.54725E-03     62.0684E-03     410.674E-03    -147.741E-03    -262.350E-03    -126.098E-03     389.031E-03    -262.350E-03    -215.484E-03     87.7016E+06     6.29438E+06    -6.04532E+06     4.74478E+06    -4.49572E+06     87.7016E+06    -3.87839E+06         86.2264
             208     9.01742E-03     175.513E-03     60.5455E-03    -2.33756E-03    -18.5674E-03    -7.43718E-03     49.4152E-03    -2.33756E-03     53.4201E-03     439.905E-03    -172.529E-03    -267.117E-03    -148.628E-03     416.004E-03    -267.117E-03    -237.152E-03     92.7759E+06     9.45762E+06    -6.94873E+06     4.96849E+06    -2.45960E+06     92.7759E+06    -7.20918E+06         76.1504
             209     8.22477E-03     175.090E-03     65.3665E-03    -8.70122E-03    -20.6985E-03    -10.4386E-03     60.9998E-03    -14.5944E-03     35.3533E-03     465.011E-03    -193.584E-03    -271.166E-03    -169.864E-03     441.291E-03    -271.166E-03    -245.382E-03     97.5168E+06     12.0840E+06    -11.1482E+06     6.86141E+06    -5.92558E+06     97.5168E+06    -9.38791E+06         69.3510
             210     7.44072E-03     175.048E-03     77.6642E-03    -4.44017E-03    -25.4522E-03     1.17728E-03     72.0467E-03    -25.4522E-03     39.4468E-03     489.174E-03    -213.753E-03    -275.256E-03    -191.391E-03     466.812E-03    -275.256E-03    -246.476E-03     101.871E+06     16.3972E+06    -10.7648E+06     11.6224E+06    -5.99006E+06     101.871E+06    -10.2925E+06         64.7811
             211     6.67390E-03     174.870E-03     71.3481E-03    -8.26470E-03    -35.4326E-03    -3.95170E-03     67.0351E-03    -35.4326E-03     27.8283E-03     508.536E-03    -230.251E-03    -278.190E-03    -210.607E-03     488.892E-03    -278.190E-03    -237.441E-03     106.445E+06     24.6228E+06    -4.78115E+06     19.0050E+06     836.632E+03     106.445E+06    -11.5527E+06         61.9152
             212     5.91101E-03     174.811E-03     73.9155E-03    -16.9590E-03    -45.4717E-03    -16.8668E-03     73.8233E-03    -45.4717E-03     5.18622E-03     524.110E-03    -243.787E-03    -280.595E-03    -227.211E-03     507.533E-03    -280.595E-03    -222.793E-03     98.7332E+06     24.8162E+06    -9.97505E+06     19.2954E+06    -4.45424E+06     98.7332E+06    -12.6776E+06         60.2222
             213     5.16402E-03     174.581E-03     81.7869E-03    -24.7013E-03    -56.2298E-03    -23.4981E-03     80.5837E-03    -56.2298E-03     17.7938E-03     537.823E-03    -256.107E-03    -282.700E-03    -242.666E-03     524.382E-03    -282.700E-03    -204.424E-03     86.9602E+06     25.5677E+06    -16.0667E+06     19.6260E+06    -10.1250E+06     86.9602E+06    -14.5626E+06         59.3522
             214     4.41854E-03     174.491E-03     84.8357E-03    -37.0775E-03    -67.2407E-03    -34.9648E-03     82.7231E-03    -67.2407E-03     31.6471E-03     549.788E-03    -265.274E-03    -284.474E-03    -255.092E-03     539.606E-03    -284.474E-03    -180.262E-03     80.5164E+06     31.4673E+06    -16.6441E+06     25.1916E+06    -10.3684E+06     80.5164E+06    -16.1780E+06         59.2389
             215     3.67626E-03     174.397E-03     117.774E-03    -62.3656E-03    -78.1120E-03    -51.6577E-03     106.418E-03    -77.4640E-03     81.5655E-03     559.590E-03    -272.876E-03    -285.847E-03    -265.732E-03     552.446E-03    -285.847E-03    -152.872E-03     78.5241E+06     40.6648E+06    -13.9379E+06     34.3283E+06    -7.60149E+06     78.5241E+06    -17.4869E+06         59.5559
             216     2.93740E-03     174.334E-03     150.577E-03    -83.9947E-03    -86.5351E-03    -73.5304E-03     139.465E-03    -85.8871E-03     84.1182E-03     569.005E-03    -281.538E-03    -287.243E-03    -278.043E-03     564.329E-03    -286.062E-03    -124.715E-03     76.1085E+06     46.2820E+06    -10.5179E+06     40.3969E+06    -4.63278E+06     76.1085E+06    -17.2838E+06         59.9090
             217     2.20885E-03     174.306E-03     162.678E-03    -88.7165E-03    -100.979E-03    -96.2566E-03     159.848E-03    -90.6089E-03     52.6597E-03     572.052E-03    -284.715E-03    -286.941E-03    -283.576E-03     569.732E-03    -285.760E-03    -86.0827E-03     65.5832E+06     46.8916E+06    -13.6232E+06     43.1386E+06    -9.87015E+06     65.5832E+06    -14.1240E+06         60.1696
             218     1.47368E-03     174.230E-03     161.024E-03    -89.0265E-03    -102.917E-03    -97.2437E-03     158.871E-03    -92.5470E-03     35.4539E-03     570.212E-03    -283.844E-03    -286.133E-03    -282.966E-03     569.333E-03    -286.133E-03    -54.0439E-03     54.1243E+06     47.8497E+06    -18.7663E+06     47.0969E+06    -16.7182E+06     52.8289E+06    -11.5782E+06         60.3500
             219     745.168E-06     174.262E-03     163.936E-03    -10.9165E-03    -192.188E-03     5.21433E-03     147.805E-03    -192.188E-03    -50.0305E-03     573.530E-03    -283.805E-03    -290.038E-03    -288.441E-03     573.177E-03    -285.048E-03    -32.2177E-03     48.6552E+06     46.6585E+06    -21.0162E+06     46.8223E+06    -19.8846E+06     47.3599E+06    -8.31399E+06         60.4745
             220    -8.67502E-06     172.524E-03     230.548E-03    -10.9215E-03    -244.738E-03     11.4430E-03     208.183E-03    -244.738E-03    -117.651E-03     545.975E-03    -270.013E-03    -276.374E-03    -274.686E-03     545.658E-03    -271.384E-03    -29.7621E-03     9.12129E+06     7.02819E+06    -35.0538E+06     7.36969E+06    -34.0036E+06     7.72957E+06    -5.45383E+06         59.1257
             221     5.64075E-06     170.786E-03     405.897E-03    -151.835E-03    -232.846E-03    -166.822E-03     395.938E-03    -207.899E-03    -143.407E-03     481.969E-03    -239.859E-03    -241.937E-03    -240.293E-03     481.695E-03    -241.230E-03    -16.9364E-03    -58.7185E+06    -82.0060E+06    -93.0090E+06    -82.9499E+06    -68.7776E+06    -82.0060E+06    -7.41586E+06         55.8605
             222    -4.42104E-06     169.227E-03     532.102E-03    -139.742E-03    -349.991E-03    -343.204E-03     525.316E-03    -139.742E-03    -153.388E-03     429.643E-03    -212.553E-03    -216.805E-03    -213.250E-03     429.632E-03    -216.097E-03     5.03091E-03    -113.987E+06    -173.761E+06    -178.336E+06    -175.041E+06    -115.139E+06    -175.904E+06    -7.56322E+06         52.5286
             223    -1.54876E-06     167.717E-03     645.463E-03    -147.830E-03    -487.888E-03    -483.171E-03     640.746E-03    -147.830E-03    -142.246E-03     396.166E-03    -195.337E-03    -200.660E-03    -197.108E-03     396.158E-03    -198.881E-03     4.22645E-03    -153.075E+06    -224.023E+06    -226.930E+06    -224.556E+06    -153.306E+06    -226.166E+06    -3.37632E+06         50.0427
             224     3.99949E-06     166.242E-03     883.464E-03    -291.584E-03    -607.126E-03    -604.354E-03     880.692E-03    -291.584E-03    -126.736E-03     368.478E-03    -182.875E-03    -185.603E-03    -185.566E-03     368.440E-03    -182.875E-03     8.31781E-03    -126.780E+06    -163.731E+06    -188.633E+06    -161.999E+06    -153.414E+06    -163.731E+06     5.61442E+06         48.4022
             225    -2.50551E-06     164.830E-03     955.169E-03    -324.219E-03    -643.296E-03    -642.173E-03     954.046E-03    -324.219E-03    -65.3547E-03     356.334E-03    -177.112E-03    -179.289E-03    -179.257E-03     356.302E-03    -177.112E-03     6.55771E-03    -45.6020E+06    -54.1125E+06    -118.778E+06    -51.6736E+06    -117.335E+06    -49.4832E+06     7.51591E+06         47.4861
             226     4.49885E-06     163.419E-03     878.305E-03    -311.650E-03    -575.747E-03    -575.678E-03     878.236E-03    -311.650E-03     9.23599E-03     359.267E-03    -178.343E-03    -180.893E-03    -180.892E-03     359.266E-03    -178.343E-03     54.8720E-06    -5.93085E+06    -10.7481E+06    -96.9440E+06    -10.8445E+06    -96.6596E+06    -6.11882E+06    -1.83938E+06         47.1520
             227    -2.35485E-06     161.965E-03     818.329E-03    -302.778E-03    -540.396E-03    -540.332E-03     818.265E-03    -302.778E-03     11.3588E-03     358.238E-03    -178.216E-03    -179.941E-03    -179.534E-03     358.232E-03    -178.617E-03     1.72692E-03    -9.02929E+06    -11.4441E+06    -111.427E+06    -9.37652E+06    -111.080E+06    -11.4441E+06    -5.79509E+06         47.2585
             228     1.75344E-06     160.540E-03     817.580E-03    -317.402E-03    -539.417E-03    -539.391E-03     817.554E-03    -317.402E-03    -10.1965E-03     358.952E-03    -178.042E-03    -180.887E-03    -180.397E-03     358.863E-03    -178.443E-03     11.9778E-03    -20.0169E+06    -22.2857E+06    -133.428E+06    -20.2014E+06    -133.243E+06    -22.2857E+06    -4.53965E+06         47.6984
             229     2.22502E-06     159.097E-03     825.257E-03    -344.143E-03    -533.517E-03    -533.326E-03     825.065E-03    -344.143E-03     12.7510E-03     369.403E-03    -182.599E-03    -186.803E-03    -186.649E-03     369.249E-03    -182.599E-03     18.4981E-03    -42.7851E+06    -42.9730E+06    -160.724E+06    -43.1562E+06    -160.499E+06    -42.8270E+06    -5.07010E+06         48.3939
             230     79.4220E-09     157.637E-03     703.170E-03    -298.623E-03    -464.359E-03    -464.160E-03     702.971E-03    -298.623E-03     29.0931E-03     377.172E-03    -186.253E-03    -190.864E-03    -187.880E-03     377.039E-03    -189.104E-03     17.3562E-03    -68.9850E+06    -69.3938E+06    -189.116E+06    -69.3004E+06    -188.946E+06    -69.2479E+06    -4.01839E+06         49.2343
             231    -4.98677E-06     156.177E-03     570.862E-03    -265.765E-03    -359.504E-03    -355.264E-03     566.622E-03    -265.765E-03     92.3106E-03     385.974E-03    -191.014E-03    -194.663E-03    -190.926E-03     385.887E-03    -194.663E-03     13.7739E-03    -96.3788E+06    -96.9689E+06    -211.632E+06    -97.0020E+06    -211.336E+06    -96.6417E+06    -4.90803E+06         50.1323
             232     3.50307E-06     154.711E-03     453.485E-03    -224.513E-03    -289.869E-03    -283.231E-03     446.847E-03    -224.513E-03     139.578E-03     399.212E-03    -198.337E-03    -199.686E-03    -198.863E-03     399.188E-03    -199.135E-03     4.92237E-03    -123.013E+06    -125.315E+06    -237.673E+06    -123.632E+06    -237.381E+06    -124.988E+06    -4.75818E+06         51.0538
             233    -2.81940E-06     153.218E-03     292.911E-03    -143.462E-03    -207.935E-03    -195.489E-03     280.466E-03    -143.462E-03     138.662E-03     412.086E-03    -205.020E-03    -206.549E-03    -205.570E-03     412.085E-03    -205.998E-03    -1.22257E-03    -134.776E+06    -138.987E+06    -255.433E+06    -137.028E+06    -255.417E+06    -136.751E+06    -264.548E+03         51.9405
             234     1.52466E-06     151.713E-03     136.008E-03    -35.6962E-03    -177.335E-03    -77.2815E-03     35.9544E-03    -35.6962E-03     203.369E-03     432.292E-03    -215.664E-03    -217.308E-03    -216.329E-03     432.290E-03    -216.642E-03     335.069E-06    -139.081E+06    -142.135E+06    -261.506E+06    -141.524E+06    -261.299E+06    -139.900E+06    -2.93662E+06         52.7255
             235    -819.917E-09     150.115E-03     91.7161E-03     33.0798E-03    -224.988E-03    -17.9639E-03    -159.233E-03     77.0053E-03     229.794E-03     443.243E-03    -220.188E-03    -223.339E-03    -220.848E-03     443.237E-03    -222.673E-03     3.66996E-03    -147.280E+06    -148.686E+06    -273.934E+06    -147.502E+06    -273.713E+06    -148.686E+06    -2.33651E+06         53.3815
             236    -3.28784E-06     148.561E-03     152.071E-03     70.1461E-03    -322.676E-03     33.7236E-03    -286.254E-03     152.071E-03     210.903E-03     441.214E-03    -218.288E-03    -223.479E-03    -220.986E-03     441.206E-03    -220.773E-03     4.65224E-03    -149.350E+06    -150.509E+06    -279.205E+06    -149.964E+06    -279.162E+06    -149.938E+06     2.35668E+06         53.8877
             237     7.60082E-06     147.031E-03     296.416E-03     203.015E-03    -616.720E-03     185.847E-03    -599.552E-03     296.416E-03     221.995E-03     446.671E-03    -221.879E-03    -224.797E-03    -224.579E-03     446.665E-03    -222.091E-03     291.232E-06    -148.751E+06    -149.988E+06    -277.270E+06    -149.387E+06    -277.204E+06    -149.417E+06    -441.404E+03         54.2521
             238    -8.01478E-06     145.449E-03     390.214E-03     298.462E-03    -827.110E-03     291.743E-03    -820.391E-03     390.214E-03     143.797E-03     454.543E-03    -224.980E-03    -228.983E-03    -224.958E-03     454.521E-03    -228.983E-03     3.34130E-03    -146.748E+06    -149.694E+06    -280.655E+06    -149.093E+06    -280.590E+06    -147.414E+06    -2.88714E+06         54.5030
             239     1.98724E-06     143.851E-03     401.658E-03     346.726E-03    -898.546E-03     346.463E-03    -898.283E-03     401.658E-03     14.5206E-03     453.987E-03    -224.333E-03    -229.599E-03    -225.786E-03     453.965E-03    -228.124E-03     3.35628E-03    -142.123E+06    -147.682E+06    -282.357E+06    -144.471E+06    -282.289E+06    -145.402E+06     569.611E+03         54.6435
             240     83.9626E-09     142.295E-03     479.311E-03     425.032E-03        -1.05495     460.631E-03        -1.05485     443.613E-03    -24.0428E-03     453.576E-03    -225.034E-03    -228.499E-03    -228.483E-03     453.559E-03    -225.034E-03     2.58678E-03    -134.693E+06    -141.793E+06    -283.106E+06    -138.607E+06    -283.013E+06    -137.972E+06    -54.8907E+03         54.6814
             241     3.00943E-06     140.735E-03     580.503E-03     464.465E-03        -1.20564     578.185E-03        -1.20333     464.465E-03    -108.312E-03     461.092E-03    -228.727E-03    -232.448E-03    -230.701E-03     461.076E-03    -230.458E-03     2.77295E-03    -130.164E+06    -139.285E+06    -282.904E+06    -134.043E+06    -282.846E+06    -135.464E+06    -2.77477E+06         54.6277
             242    -6.07537E-06     139.106E-03     684.264E-03     536.775E-03        -1.40955     675.580E-03        -1.40087     536.775E-03    -263.135E-03     460.690E-03    -228.510E-03    -232.263E-03    -228.477E-03     460.658E-03    -232.263E-03     4.81212E-03    -129.544E+06    -141.000E+06    -286.071E+06    -135.770E+06    -286.001E+06    -134.844E+06     1.19734E+06         54.5026
             243     2.58032E-06     137.536E-03     719.023E-03     549.766E-03        -1.46302     699.151E-03        -1.44315     549.766E-03    -406.189E-03     455.328E-03    -226.160E-03    -229.093E-03    -227.006E-03     455.263E-03    -228.182E-03     13.2705E-03    -126.562E+06    -137.707E+06    -286.501E+06    -132.777E+06    -286.441E+06    -131.552E+06     2.23018E+06         54.3346
             244    -1.46806E-06     135.952E-03     635.472E-03     470.855E-03        -1.31754     618.493E-03        -1.30056     470.855E-03    -348.853E-03     447.611E-03    -222.993E-03    -224.708E-03    -224.672E-03     447.576E-03    -222.993E-03     8.23024E-03    -125.789E+06    -134.542E+06    -282.884E+06    -129.563E+06    -282.873E+06    -130.779E+06     1.01450E+06         54.1572
             245     2.87243E-06     134.417E-03     553.626E-03     482.436E-03        -1.25136     546.143E-03        -1.24387     482.436E-03    -231.874E-03     443.216E-03    -221.100E-03    -222.189E-03    -222.187E-03     443.214E-03    -221.100E-03     2.58418E-03    -122.942E+06    -130.642E+06    -280.343E+06    -126.717E+06    -280.331E+06    -126.879E+06     1.18584E+06         54.0441
             246    -2.87269E-06     132.876E-03     604.182E-03     526.380E-03        -1.34372     598.093E-03        -1.33763     526.380E-03    -213.666E-03     449.551E-03    -223.384E-03    -226.274E-03    -223.663E-03     449.545E-03    -225.989E-03    -1.33721E-03    -116.571E+06    -125.101E+06    -275.930E+06    -121.165E+06    -275.928E+06    -120.509E+06     590.982E+03         54.0263
             247    -1.38920E-06     131.264E-03     619.392E-03     498.667E-03        -1.33488     617.143E-03        -1.33263     498.667E-03    -76.1864E-03     442.279E-03    -219.695E-03    -222.973E-03    -220.363E-03     442.274E-03    -222.300E-03    -3.00849E-03    -115.768E+06    -123.520E+06    -271.169E+06    -120.364E+06    -271.165E+06    -118.928E+06    -186.055E+03         54.0355
             248     2.04850E-06     129.749E-03     515.798E-03     421.738E-03        -1.15361     463.582E-03        -1.14385     464.194E-03    -147.075E-03     436.372E-03    -217.833E-03    -218.824E-03    -218.493E-03     436.358E-03    -218.151E-03     3.69293E-03    -116.882E+06    -121.696E+06    -266.204E+06    -118.542E+06    -266.199E+06    -120.042E+06    -47.0364E+03         54.0668
             249    -2.69258E-06     128.203E-03     420.858E-03     328.622E-03    -969.042E-03     315.649E-03    -956.069E-03     420.858E-03    -252.927E-03     449.035E-03    -223.311E-03    -225.847E-03    -223.279E-03     449.003E-03    -225.847E-03     9.28130E-03    -113.386E+06    -116.121E+06    -256.937E+06    -115.072E+06    -256.904E+06    -114.467E+06     1.88161E+06         54.1626
             250    -1.40645E-06     126.568E-03     377.139E-03     165.446E-03    -783.982E-03     152.268E-03    -770.804E-03     377.139E-03    -206.774E-03     447.849E-03    -221.453E-03    -226.743E-03    -224.503E-03     447.827E-03    -223.672E-03     6.84450E-03    -110.461E+06    -112.250E+06    -252.557E+06    -111.235E+06    -252.491E+06    -111.542E+06     3.05324E+06         54.2757
             251     6.19496E-06     125.070E-03     388.622E-03     111.041E-03    -729.976E-03     74.2858E-03    -693.221E-03     388.622E-03    -337.591E-03     437.654E-03    -216.844E-03    -221.048E-03    -221.046E-03     437.652E-03    -216.844E-03     1.97655E-03    -106.673E+06    -108.805E+06    -248.235E+06    -107.426E+06    -248.190E+06    -108.098E+06     2.40408E+06         54.3850
             252    -4.65919E-06     123.517E-03     351.755E-03     135.571E-03    -705.212E-03     107.740E-03    -677.381E-03     351.755E-03    -255.412E-03     437.949E-03    -217.412E-03    -220.654E-03    -218.536E-03     437.941E-03    -219.521E-03    -3.00537E-03    -102.904E+06    -106.952E+06    -236.830E+06    -105.545E+06    -236.813E+06    -104.329E+06     67.7728E+03         54.5179
             253     1.09029E-06     121.951E-03     166.967E-03     18.0202E-03    -413.101E-03     15.0576E-03    -410.139E-03     166.967E-03    -15.9781E-03     445.604E-03    -220.615E-03    -225.089E-03    -222.972E-03     445.596E-03    -222.724E-03    -3.27450E-03    -102.604E+06    -108.611E+06    -232.235E+06    -105.235E+06    -232.226E+06    -105.988E+06    -770.957E+03         54.6507
             254     2.58901E-06     120.418E-03     40.7438E-03    -56.4531E-03    -205.860E-03    -47.6949E-03    -75.4668E-03    -98.4074E-03     61.9236E-03     464.541E-03    -231.006E-03    -233.496E-03    -233.460E-03     464.505E-03    -231.006E-03    -7.22163E-03    -102.425E+06    -107.487E+06    -228.803E+06    -104.239E+06    -228.667E+06    -105.809E+06     2.80213E+06         54.7840
             255    -2.82156E-06     118.787E-03     121.187E-03    -124.534E-03    -230.594E-03     27.8724E-03    -31.2196E-03    -230.594E-03     217.505E-03     481.484E-03    -239.602E-03    -241.867E-03    -239.691E-03     481.448E-03    -241.743E-03    -7.37680E-03    -100.141E+06    -102.623E+06    -222.317E+06    -102.803E+06    -222.137E+06    -100.141E+06     1.22811E+06         54.9716
             256    -845.304E-09     117.139E-03     136.605E-03    -160.624E-03    -217.098E-03     44.1107E-03    -68.1289E-03    -217.098E-03     273.900E-03     480.480E-03    -238.780E-03    -241.780E-03    -238.779E-03     480.480E-03    -241.780E-03     845.007E-06    -99.9290E+06    -101.568E+06    -217.034E+06    -100.776E+06    -216.990E+06    -100.764E+06    -1.69029E+06         55.2042
             257    -637.604E-09     115.524E-03     120.332E-03    -136.058E-03    -219.616E-03    -70.4464E-03     54.7202E-03    -219.616E-03     136.112E-03     465.341E-03    -232.071E-03    -233.388E-03    -232.065E-03     465.334E-03    -233.388E-03     3.89888E-03    -101.072E+06    -102.119E+06    -211.339E+06    -101.375E+06    -211.248E+06    -101.908E+06     2.13680E+06         55.3749
             258    -417.198E-09     113.954E-03     231.520E-03    -176.304E-03    -286.335E-03    -241.017E-03     228.962E-03    -219.064E-03     31.1246E-03     451.429E-03    -224.153E-03    -227.273E-03    -226.809E-03     451.421E-03    -224.611E-03     1.48332E-03    -98.2118E+06    -101.801E+06    -203.567E+06    -98.6810E+06    -203.309E+06    -101.590E+06     5.13598E+06         55.4258
             259     4.48939E-06     112.405E-03     389.525E-03    -224.678E-03    -404.751E-03    -385.875E-03     370.649E-03    -224.678E-03    -193.515E-03     456.651E-03    -226.484E-03    -230.146E-03    -230.123E-03     456.628E-03    -226.484E-03     4.10783E-03    -88.9739E+06    -98.2071E+06    -191.525E+06    -94.9960E+06    -191.358E+06    -92.3523E+06     2.90814E+06         55.4312
             260    -3.02840E-06     110.806E-03     384.382E-03    -217.273E-03    -400.937E-03    -342.959E-03     326.404E-03    -217.273E-03    -391.360E-03     468.932E-03    -233.070E-03    -236.044E-03    -234.045E-03     468.908E-03    -235.045E-03     3.51522E-03    -86.0632E+06    -97.8222E+06    -187.477E+06    -92.0199E+06    -187.375E+06    -91.9674E+06    -2.28589E+06         55.4581
             261    -339.221E-09     109.180E-03     201.724E-03    -108.676E-03    -332.962E-03    -220.195E-03     88.9563E-03    -108.676E-03    -416.863E-03     463.770E-03    -230.797E-03    -233.127E-03    -231.149E-03     463.767E-03    -232.773E-03    -1.59285E-03    -86.7264E+06    -96.6716E+06    -178.980E+06    -87.0423E+06    -178.664E+06    -96.6716E+06     722.324E+03         55.4900
             262     642.327E-09     107.630E-03     200.275E-03    -110.564E-03    -343.216E-03    -209.366E-03     66.4259E-03    -110.564E-03    -460.507E-03     466.949E-03    -231.140E-03    -235.787E-03    -231.428E-03     466.883E-03    -235.433E-03     10.0875E-03    -82.2791E+06    -95.1960E+06    -165.614E+06    -91.3873E+06    -165.382E+06    -86.3201E+06     3.75889E+06         55.5286
             263    -7.61090E-06     105.993E-03     245.448E-03    -197.744E-03    -297.863E-03    -203.483E-03     171.959E-03    -218.634E-03    -350.064E-03     476.024E-03    -235.433E-03    -240.552E-03    -235.364E-03     475.954E-03    -240.552E-03     7.49130E-03    -80.0955E+06    -90.2187E+06    -164.993E+06    -89.0541E+06    -164.910E+06    -81.3428E+06    -897.506E+03         55.6022
             264     6.29543E-06     104.367E-03     79.6994E-03    -152.362E-03    -189.525E-03    -126.621E-03     53.9583E-03    -189.525E-03    -128.708E-03     459.266E-03    -228.324E-03    -230.931E-03    -230.011E-03     459.172E-03    -229.150E-03     8.78729E-03    -83.8534E+06    -86.4207E+06    -170.197E+06    -84.0360E+06    -170.014E+06    -86.4207E+06     578.803E+03         55.6904
             265    -4.00121E-06     102.830E-03     51.1089E-03    -73.7668E-03    -259.756E-03     25.6098E-03    -217.984E-03    -90.0396E-03     70.5713E-03     448.017E-03    -221.689E-03    -226.324E-03    -226.233E-03     447.926E-03    -221.689E-03     11.4216E-03    -78.8912E+06    -81.0771E+06    -154.119E+06    -79.6333E+06    -153.377E+06    -81.0771E+06     6.69709E+06         55.7519
             266     8.27041E-06     101.272E-03     168.690E-03     22.8723E-03    -484.023E-03     138.744E-03    -454.077E-03     22.8723E-03     271.811E-03     455.375E-03    -226.062E-03    -229.272E-03    -228.914E-03     455.373E-03    -226.418E-03    -1.11447E-03    -73.0945E+06    -75.2385E+06    -130.182E+06    -75.0072E+06    -129.548E+06    -73.9605E+06     3.94425E+06         55.7880
             267    -8.82537E-06     99.6958E-03     194.930E-03     88.8137E-03    -582.345E-03     136.995E-03    -524.410E-03     88.8137E-03     403.165E-03     464.429E-03    -230.910E-03    -233.451E-03    -230.892E-03     464.411E-03    -233.451E-03    -6.32676E-03    -75.5885E+06    -78.4657E+06    -117.235E+06    -78.5459E+06    -117.155E+06    -75.5885E+06    -1.53196E+06         55.8403
             268     5.03181E-06     98.0884E-03     230.917E-03     167.739E-03    -711.493E-03     163.377E-03    -650.428E-03     174.214E-03     451.913E-03     471.673E-03    -233.743E-03    -237.910E-03    -235.707E-03     471.655E-03    -235.928E-03    -6.57627E-03    -69.2762E+06    -75.1183E+06    -98.7913E+06    -71.1548E+06    -98.5117E+06    -73.5193E+06     586.393E+03         55.9269
             269    -2.20544E-06     96.4743E-03     347.365E-03     273.781E-03    -944.170E-03     239.510E-03    -909.900E-03     347.365E-03     390.139E-03     470.615E-03    -233.938E-03    -236.840E-03    -235.910E-03     470.604E-03    -234.858E-03    -5.20299E-03    -62.7800E+06    -73.0950E+06    -87.0559E+06    -71.7002E+06    -78.1357E+06    -73.0950E+06     6.68213E+06         56.0353
             270     400.733E-09     94.8846E-03     406.373E-03     322.887E-03        -1.05923     311.678E-03        -1.04802     406.373E-03     206.009E-03     470.811E-03    -234.321E-03    -236.651E-03    -234.310E-03     470.799E-03    -236.651E-03    -1.32589E-03    -50.1431E+06    -60.7014E+06    -66.8539E+06    -63.2373E+06    -53.1936E+06    -61.2676E+06     4.39784E+06         56.1465
             271    -2.94247E-06     93.2637E-03     436.185E-03     392.704E-03        -1.18144     392.204E-03        -1.18095     436.185E-03     39.2729E-03     478.033E-03    -238.494E-03    -240.120E-03    -238.705E-03     478.029E-03    -239.905E-03     691.318E-06    -45.0149E+06    -53.4314E+06    -56.7956E+06    -54.2168E+06    -47.0275E+06    -53.9975E+06    -3.70335E+06         56.2162
             272     2.82126E-06     91.6485E-03     535.367E-03     481.348E-03        -1.39254     503.824E-03        -1.38810     508.453E-03    -133.645E-03     484.111E-03    -242.010E-03    -242.306E-03    -242.302E-03     484.107E-03    -242.010E-03     493.026E-06    -49.8847E+06    -58.9391E+06    -62.9707E+06    -58.2209E+06    -54.6345E+06    -58.9391E+06     127.044E+03         56.2350
             273    -2.96424E-06     90.0159E-03     621.009E-03     562.959E-03        -1.58315     606.230E-03        -1.56837     562.959E-03    -354.157E-03     487.884E-03    -241.139E-03    -246.375E-03    -241.116E-03     487.780E-03    -246.294E-03     14.0680E-03    -36.8446E+06    -44.0352E+06    -48.5791E+06    -45.3834E+06    -40.0403E+06    -44.0352E+06     4.49805E+06         56.2270
             274     13.4433E-03     87.7898E-03     505.237E-03     309.071E-03        -1.23791     308.786E-03        -1.23763     505.237E-03    -1.04086E-03     472.588E-03    -234.819E-03    -237.568E-03    -233.606E-03     469.139E-03    -235.332E-03     98.4177E-03     71.5048E+06     29.8479E+06    -2.83662E+06    -2.20511E+06     29.2164E+06     71.5048E+06     719.719E+03         92.2304
             275     12.6506E-03     87.6322E-03     519.419E-03     331.746E-03        -1.27491     331.473E-03        -1.27464     519.419E-03    -1.50522E-03     469.788E-03    -233.682E-03    -236.118E-03    -231.449E-03     466.861E-03    -235.423E-03     89.7049E-03     43.6160E+06     15.6921E+06    -5.65278E+06    -3.37204E+06     13.4113E+06     43.6160E+06     2.08653E+06         88.3152
             276     11.8485E-03     87.5004E-03     533.091E-03     365.958E-03        -1.32445     365.740E-03        -1.32423     533.091E-03     2.06641E-03     470.024E-03    -234.029E-03    -235.947E-03    -232.505E-03     468.123E-03    -235.570E-03     72.3744E-03     18.0682E+06     2.00872E+06    -12.8027E+06    -8.31976E+06    -2.47422E+06     18.0682E+06     5.16199E+06         82.8067
             277     11.0524E-03     87.3828E-03     545.420E-03     407.155E-03        -1.37878     406.963E-03        -1.37859     545.420E-03     1.54732E-03     471.191E-03    -234.912E-03    -236.373E-03    -234.095E-03     469.855E-03    -235.854E-03     60.6918E-03     3.87817E+06    -7.45954E+06    -21.7545E+06    -16.4662E+06    -12.7478E+06     3.87817E+06     1.31323E+06         76.6692
             278     10.2626E-03     87.2874E-03     556.178E-03     444.883E-03        -1.42729     444.735E-03        -1.42714     556.178E-03     29.8452E-03     473.275E-03    -235.204E-03    -237.849E-03    -236.054E-03     472.108E-03    -235.832E-03     57.1195E-03     4.69581E+06    -6.25879E+06    -21.5054E+06    -16.3596E+06    -11.4046E+06     4.69581E+06     2.68278E+06         71.1704
             279     9.47423E-03     87.1937E-03     565.564E-03     476.171E-03        -1.46845     475.990E-03        -1.46827     565.564E-03     31.9929E-03     474.281E-03    -235.742E-03    -238.267E-03    -237.252E-03     473.266E-03    -235.742E-03     53.2902E-03     5.33573E+06    -6.83182E+06    -18.7620E+06    -16.0085E+06    -9.58524E+06     5.33573E+06     4.32840E+06         66.8549
             280     8.68827E-03     87.1223E-03     574.118E-03     494.126E-03        -1.49561     493.974E-03        -1.49545     574.118E-03     26.7080E-03     473.339E-03    -235.699E-03    -237.253E-03    -236.579E-03     472.665E-03    -235.699E-03     43.2372E-03     4.89866E+06    -7.42749E+06    -20.1799E+06    -17.8396E+06    -9.76770E+06     4.89866E+06     1.62086E+06         63.5819
             281     7.89747E-03     87.0591E-03     582.718E-03     502.929E-03        -1.51348     502.824E-03        -1.51338     582.718E-03     23.0288E-03     472.069E-03    -235.327E-03    -236.845E-03    -236.394E-03     471.619E-03    -235.327E-03     35.6379E-03     3.74073E+06    -6.66286E+06    -22.5226E+06    -19.2495E+06    -9.93593E+06     3.74073E+06     1.01721E+06         61.0116
             282     7.10927E-03     87.0117E-03     591.820E-03     514.461E-03        -1.53434     514.326E-03        -1.53421     591.820E-03     27.0515E-03     470.818E-03    -234.935E-03    -236.284E-03    -235.842E-03     470.444E-03    -235.003E-03     32.4679E-03    -1.71384E+06    -9.12158E+06    -24.2007E+06    -21.4897E+06    -11.8326E+06    -1.71384E+06     2.58973E+06         58.9851
             283     6.31976E-03     86.9609E-03     600.824E-03     536.318E-03        -1.56498     536.267E-03        -1.56493     600.824E-03     9.75266E-03     470.072E-03    -234.851E-03    -235.342E-03    -234.979E-03     469.789E-03    -234.931E-03     28.0026E-03    -6.71033E+06    -13.0960E+06    -27.8578E+06    -25.7106E+06    -15.2433E+06    -6.71033E+06     4.13107E+06         57.5399
             284     5.52966E-03     86.9223E-03     608.109E-03     569.654E-03        -1.60561     569.579E-03        -1.60554     608.109E-03     15.4672E-03     469.326E-03    -234.165E-03    -235.385E-03    -234.344E-03     469.168E-03    -235.048E-03     20.8206E-03    -8.66379E+06    -14.3933E+06    -29.4317E+06    -27.4389E+06    -16.3861E+06    -8.66379E+06     3.90178E+06         56.7293
             285     4.73831E-03     86.8911E-03     612.316E-03     599.142E-03        -1.63956     599.013E-03        -1.63943     612.316E-03     18.7939E-03     469.388E-03    -233.726E-03    -235.522E-03    -233.871E-03     469.318E-03    -235.307E-03     13.4629E-03    -8.06310E+06    -12.7714E+06    -25.9526E+06    -24.6328E+06    -14.0912E+06    -8.06310E+06     2.42995E+06         56.4457
             286     3.94813E-03     86.8639E-03     616.521E-03     611.810E-03        -1.65662     614.568E-03        -1.65643     613.578E-03     27.3282E-03     470.316E-03    -234.431E-03    -235.518E-03    -234.406E-03     470.291E-03    -235.518E-03     8.18633E-03    -15.7068E+06    -21.1242E+06    -32.0456E+06    -31.8190E+06    -21.3508E+06    -15.7068E+06     1.24270E+06         56.3821
             287     3.15975E-03     86.8445E-03     623.335E-03     610.014E-03        -1.66162     620.195E-03        -1.66120     612.733E-03     59.8216E-03     472.002E-03    -235.580E-03    -236.458E-03    -236.064E-03     471.986E-03    -235.958E-03     6.44732E-03    -22.2801E+06    -26.8927E+06    -34.8473E+06    -33.6953E+06    -26.2327E+06    -24.0920E+06     1.62222E+06         56.3561
             288     2.36969E-03     86.8274E-03     627.303E-03     606.745E-03        -1.66294     624.222E-03        -1.66258     609.465E-03     18.1152E-03     474.020E-03    -235.761E-03    -238.567E-03    -238.555E-03     474.008E-03    -235.761E-03     3.89901E-03    -24.7485E+06    -30.8805E+06    -35.8431E+06    -32.1241E+06    -28.5435E+06    -30.8044E+06     1.50835E+06         56.3262
             289     1.58650E-03     86.8176E-03     621.640E-03     603.114E-03        -1.65394     618.610E-03        -1.65101     603.221E-03     95.4809E-03     473.433E-03    -233.663E-03    -239.966E-03    -239.909E-03     473.376E-03    -233.663E-03     2.76460E-03    -27.1506E+06    -33.4503E+06    -37.4541E+06    -33.9471E+06    -30.6576E+06    -33.4503E+06     1.36581E+06         56.2664
             290     810.118E-06     86.8106E-03     637.302E-03     576.071E-03        -1.64018     621.349E-03        -1.62433     576.178E-03    -127.238E-03     464.179E-03    -228.228E-03    -236.048E-03    -235.956E-03     464.087E-03    -228.228E-03     6.34810E-03    -30.5019E+06    -35.8324E+06    -39.0519E+06    -35.6758E+06    -33.8780E+06    -35.8324E+06    -520.024E+03         56.1998
             291     13.4365E-03     86.1936E-03     527.412E-03     327.266E-03        -1.29435     326.959E-03        -1.29404     527.412E-03     1.56169E-03     473.936E-03    -235.441E-03    -238.479E-03    -234.997E-03     470.453E-03    -235.441E-03     99.1160E-03     62.2302E+06     26.6484E+06    -4.29315E+06    -2.69923E+06     25.0545E+06     62.2302E+06    -8.63522E+03         92.1759
             292     12.6378E-03     86.0355E-03     540.734E-03     358.052E-03        -1.33785     357.810E-03        -1.33761     540.734E-03    -11.0773E-03     473.836E-03    -235.431E-03    -238.568E-03    -235.499E-03     470.768E-03    -235.431E-03     92.6951E-03     41.1326E+06     13.9253E+06    -9.26434E+06    -6.65782E+06     11.3188E+06     41.1326E+06     5.53389E+06         88.2739
             293     11.8539E-03     85.8973E-03     553.154E-03     393.895E-03        -1.38679     393.633E-03        -1.38653     553.154E-03    -14.0661E-03     473.433E-03    -235.218E-03    -238.354E-03    -236.333E-03     471.522E-03    -235.327E-03     72.7073E-03     19.9217E+06     2.91313E+06    -14.9091E+06    -10.1566E+06    -1.83933E+06     19.9217E+06     6.30918E+06         82.7900
             294     11.0658E-03     85.7868E-03     564.549E-03     424.148E-03        -1.42797     423.919E-03        -1.42775     564.549E-03    -10.3605E-03     471.135E-03    -234.602E-03    -236.760E-03    -234.873E-03     469.985E-03    -235.339E-03     56.6854E-03     8.85839E+06     534.251E+03    -20.1329E+06    -10.6788E+06    -7.79692E+06     7.73554E+06     6.04653E+06         76.6708
             295     10.2702E-03     85.6859E-03     575.308E-03     449.809E-03        -1.46368     449.737E-03        -1.46361     575.308E-03     18.1898E-03     470.328E-03    -234.289E-03    -235.880E-03    -233.836E-03     469.382E-03    -235.386E-03     51.4766E-03     7.03736E+06    -1.14919E+06    -19.9250E+06    -11.8381E+06    -8.11328E+06     5.91451E+06     1.54325E+06         71.1714
             296     9.47714E-03     85.5864E-03     585.590E-03     475.140E-03        -1.49884     475.089E-03        -1.49879     585.590E-03     17.8481E-03     470.536E-03    -233.777E-03    -236.246E-03    -233.645E-03     469.786E-03    -235.628E-03     45.6206E-03     4.37823E+06    -6.96808E+06    -16.2638E+06    -14.3433E+06    -8.88859E+06     4.37823E+06    -342.615E+03         66.8452
             297     8.68525E-03     85.5156E-03     595.248E-03     501.229E-03        -1.53530     501.170E-03        -1.53524     595.248E-03     18.1981E-03     471.450E-03    -234.345E-03    -236.553E-03    -234.603E-03     470.883E-03    -235.727E-03     39.9985E-03    -496.863E+03    -10.2715E+06    -19.6582E+06    -17.8505E+06    -12.0792E+06    -496.863E+03     3.48700E+06         63.5645
             298     7.89612E-03     85.4541E-03     603.988E-03     528.294E-03        -1.57244     528.264E-03        -1.57241     603.988E-03     8.70673E-03     471.882E-03    -235.357E-03    -236.662E-03    -236.223E-03     471.444E-03    -235.357E-03     34.9182E-03    -2.21138E+06    -9.76087E+06    -21.2747E+06    -18.8487E+06    -12.1868E+06    -2.21138E+06     2.37777E+06         60.9923
             299     7.10598E-03     85.4038E-03     611.457E-03     555.050E-03        -1.60782     554.973E-03        -1.60774     611.457E-03     9.66704E-03     470.899E-03    -235.018E-03    -236.480E-03    -236.154E-03     470.573E-03    -235.018E-03     30.2098E-03    -907.345E+03    -8.59553E+06    -21.5602E+06    -19.2125E+06    -10.9432E+06    -907.345E+03     1.92535E+06         58.9656
             300     6.31737E-03     85.3553E-03     617.600E-03     576.450E-03        -1.63595     576.187E-03        -1.63568     617.600E-03    -16.3290E-03     470.875E-03    -234.896E-03    -236.176E-03    -235.920E-03     470.619E-03    -234.896E-03     26.5977E-03    -2.72708E+06    -10.1397E+06    -23.1217E+06    -21.4752E+06    -11.7861E+06    -2.72708E+06     3.27441E+06         57.5189
             301     5.52916E-03     85.3163E-03     622.974E-03     588.626E-03        -1.65438     588.265E-03        -1.65402     622.974E-03    -23.1753E-03     470.959E-03    -234.818E-03    -236.222E-03    -236.083E-03     470.820E-03    -234.818E-03     19.4150E-03    -6.55571E+06    -13.2437E+06    -23.8737E+06    -23.5027E+06    -13.6147E+06    -6.55571E+06     1.07399E+06         56.7039
             302     4.74189E-03     85.2855E-03     627.884E-03     602.054E-03        -1.67339     601.703E-03        -1.67304     627.884E-03    -27.3710E-03     469.745E-03    -234.575E-03    -235.384E-03    -235.121E-03     469.671E-03    -234.764E-03     14.2712E-03    -11.2745E+06    -15.7161E+06    -24.9485E+06    -24.5390E+06    -16.1256E+06    -11.2745E+06     919.817E+03         56.4146
             303     3.95308E-03     85.2601E-03     632.954E-03     621.521E-03        -1.69823     623.121E-03        -1.69800     631.123E-03    -16.4756E-03     469.013E-03    -234.458E-03    -234.949E-03    -234.610E-03     468.960E-03    -234.744E-03     11.7816E-03    -15.9641E+06    -19.5401E+06    -27.0871E+06    -26.0116E+06    -19.6478E+06    -16.9318E+06     2.33658E+06         56.3482
             304     3.16083E-03     85.2419E-03     643.069E-03     630.396E-03        -1.71757     642.602E-03        -1.71741     630.708E-03     30.4736E-03     470.446E-03    -235.073E-03    -235.712E-03    -235.537E-03     470.404E-03    -235.206E-03     10.5645E-03    -22.7022E+06    -25.7661E+06    -32.2497E+06    -31.3180E+06    -25.7301E+06    -23.6699E+06     1.98964E+06         56.3244
             305     2.37261E-03     85.2195E-03     643.390E-03     624.866E-03        -1.71155     640.914E-03        -1.71140     627.199E-03     12.1323E-03     470.704E-03    -234.395E-03    -236.940E-03    -235.742E-03     470.672E-03    -235.560E-03     9.35776E-03    -22.6704E+06    -26.8548E+06    -32.8690E+06    -31.1411E+06    -26.0917E+06    -25.1613E+06     2.73976E+06         56.2994
             306     1.58081E-03     85.2119E-03     631.008E-03     621.498E-03        -1.69632     624.511E-03        -1.69368     625.347E-03     101.315E-03     470.348E-03    -232.695E-03    -238.209E-03    -235.228E-03     470.296E-03    -235.624E-03     9.63811E-03    -23.5939E+06    -29.1880E+06    -32.5361E+06    -30.0018E+06    -27.0083E+06    -28.3079E+06     3.19333E+06         56.2415
             307     780.482E-06     85.2147E-03     663.754E-03     601.743E-03        -1.70741     647.456E-03        -1.69263     603.259E-03    -126.211E-03     471.715E-03    -231.866E-03    -239.864E-03    -235.493E-03     471.629E-03    -236.151E-03     8.13636E-03    -30.3011E+06    -34.6205E+06    -37.7927E+06    -34.9429E+06    -33.1509E+06    -34.6205E+06     1.95979E+06         56.1728
             308     13.4327E-03     84.5932E-03     541.466E-03     354.417E-03        -1.34908     354.107E-03        -1.34877     541.466E-03    -6.97635E-03     476.555E-03    -235.535E-03    -240.936E-03    -237.748E-03     473.366E-03    -235.535E-03     95.3660E-03     56.8533E+06     22.9950E+06    -6.48232E+06    -4.80563E+06     21.3183E+06     56.8533E+06    -1.33923E+06         92.1382
             309     12.6470E-03     84.4325E-03     552.830E-03     391.491E-03        -1.39754     391.229E-03        -1.39728     552.830E-03    -18.0438E-03     477.548E-03    -235.289E-03    -242.168E-03    -239.311E-03     474.692E-03    -235.289E-03     90.0703E-03     41.1378E+06     11.5925E+06    -10.0368E+06    -9.07336E+06     10.6291E+06     41.1378E+06     2.84199E+06         88.2601
             310     11.8535E-03     84.2834E-03     563.527E-03     411.781E-03        -1.42867     411.594E-03        -1.42848     563.527E-03    -12.0929E-03     474.275E-03    -235.035E-03    -239.426E-03    -237.515E-03     472.444E-03    -235.114E-03     71.5167E-03     23.9118E+06     1.12312E+06    -12.8605E+06    -11.9286E+06     191.218E+03     23.9118E+06     3.04729E+06         82.8004
             311     11.0638E-03     84.1847E-03     574.197E-03     428.631E-03        -1.45483     428.492E-03        -1.45469     574.197E-03    -12.1624E-03     472.025E-03    -234.905E-03    -237.312E-03    -235.880E-03     470.672E-03    -234.985E-03     61.7730E-03     17.3749E+06     2.77850E+06    -14.6851E+06    -8.67584E+06    -2.10786E+06     16.2521E+06     7.84058E+06         76.6897
             312     10.2777E-03     84.0834E-03     585.075E-03     446.574E-03        -1.48276     446.551E-03        -1.48274     585.075E-03     10.7264E-03     470.882E-03    -234.393E-03    -236.215E-03    -234.571E-03     469.707E-03    -234.863E-03     57.2291E-03     6.46922E+06     164.055E+03    -20.3310E+06    -10.3716E+06    -7.93922E+06     4.61315E+06     7.14782E+06         71.1890
             313     9.48521E-03     83.9938E-03     595.938E-03     471.248E-03        -1.51764     471.170E-03        -1.51756     595.938E-03    -131.783E-06     468.452E-03    -232.734E-03    -235.302E-03    -231.993E-03     467.627E-03    -235.219E-03     47.6526E-03    -1.84255E+06    -6.85747E+06    -18.9185E+06    -13.2769E+06    -11.7658E+06    -2.57577E+06     2.63414E+06         66.8551
             314     8.68825E-03     83.9177E-03     605.992E-03     505.422E-03        -1.56158     505.334E-03        -1.56149     605.992E-03     3.37006E-03     468.916E-03    -233.081E-03    -235.496E-03    -232.593E-03     468.311E-03    -235.380E-03     40.9804E-03    -3.83956E+06    -11.0437E+06    -16.6122E+06    -15.3931E+06    -12.2627E+06    -3.83956E+06     2.11515E+06         63.5632
             315     7.89603E-03     83.8446E-03     614.615E-03     537.467E-03        -1.60331     537.451E-03        -1.60330     614.615E-03     2.73657E-03     470.493E-03    -234.739E-03    -235.788E-03    -235.092E-03     470.080E-03    -235.022E-03     33.7529E-03    -2.88408E+06    -11.1668E+06    -18.3929E+06    -17.6209E+06    -11.9388E+06    -2.88408E+06     2.09919E+06         60.9826
             316     7.10865E-03     83.7973E-03     621.911E-03     562.739E-03        -1.63687     562.726E-03        -1.63685     621.911E-03    -7.73108E-03     470.880E-03    -234.815E-03    -236.527E-03    -236.236E-03     470.589E-03    -234.815E-03     28.6537E-03     905.558E+03    -8.37891E+06    -17.6825E+06    -17.0833E+06    -8.97812E+06     905.558E+03     1.64142E+06         58.9501
             317     6.31901E-03     83.7479E-03     628.360E-03     581.056E-03        -1.66270     580.739E-03        -1.66238     628.360E-03    -41.1842E-03     471.482E-03    -234.675E-03    -236.939E-03    -236.720E-03     471.263E-03    -234.675E-03     24.5052E-03    -2.18093E+06    -10.0908E+06    -19.7654E+06    -19.1176E+06    -10.7386E+06    -2.18093E+06     1.78235E+06         57.4976
             318     5.53157E-03     83.7053E-03     634.503E-03     593.622E-03        -1.68181     593.226E-03        -1.68141     634.503E-03    -48.4739E-03     470.720E-03    -234.411E-03    -236.183E-03    -235.909E-03     470.611E-03    -234.576E-03     17.2341E-03    -4.55398E+06    -9.38075E+06    -18.9486E+06    -17.6917E+06    -10.6377E+06    -4.55398E+06     2.75808E+06         56.6725
             319     4.74188E-03     83.6818E-03     640.543E-03     606.133E-03        -1.69931     605.674E-03        -1.69885     640.543E-03    -53.1468E-03     469.257E-03    -234.165E-03    -235.087E-03    -234.704E-03     469.188E-03    -234.478E-03     13.8478E-03    -11.6855E+06    -14.6492E+06    -23.0586E+06    -22.0598E+06    -15.6480E+06    -11.6855E+06     2.19389E+06         56.3722
             320     3.94955E-03     83.6597E-03     646.560E-03     617.375E-03        -1.71739     617.005E-03        -1.71702     646.560E-03    -41.5944E-03     468.775E-03    -234.257E-03    -234.818E-03    -234.607E-03     468.717E-03    -234.410E-03     12.5391E-03    -17.3821E+06    -21.5743E+06    -28.0634E+06    -27.1034E+06    -21.5666E+06    -18.3498E+06     1.91687E+06         56.3024
             321     3.16211E-03     83.6350E-03     655.989E-03     623.016E-03        -1.73381     625.873E-03        -1.73380     653.118E-03     7.60144E-03     469.227E-03    -234.273E-03    -235.196E-03    -234.437E-03     469.186E-03    -234.991E-03     10.4602E-03    -19.5053E+06    -23.3280E+06    -28.1034E+06    -26.0539E+06    -23.0536E+06    -21.8292E+06     1.15252E+06         56.2812
             322     2.36928E-03     83.6221E-03     663.681E-03     633.932E-03        -1.75270     636.784E-03        -1.75268     660.811E-03     3.34676E-03     469.119E-03    -233.472E-03    -235.978E-03    -233.444E-03     469.091E-03    -235.978E-03     8.15157E-03    -22.5724E+06    -26.6245E+06    -30.1507E+06    -27.6032E+06    -25.5071E+06    -26.2373E+06    -951.195E+03         56.2624
             323     1.57415E-03     83.6126E-03     669.068E-03     656.169E-03        -1.78169     655.506E-03        -1.78032     668.369E-03     65.1973E-03     471.029E-03    -233.624E-03    -237.774E-03    -234.171E-03     471.018E-03    -237.216E-03     3.67238E-03    -22.8919E+06    -28.1560E+06    -31.6284E+06    -29.8252E+06    -26.3743E+06    -26.4769E+06     225.402E+03         56.2151
             324     788.343E-06     83.6060E-03     712.246E-03     640.953E-03        -1.80869     701.485E-03        -1.79934     642.361E-03    -132.456E-03     476.273E-03    -235.425E-03    -240.835E-03    -235.974E-03     476.264E-03    -240.277E-03    -2.81115E-03    -24.2426E+06    -28.3773E+06    -32.3673E+06    -29.4630E+06    -27.9459E+06    -27.5783E+06     1.73406E+06         56.1590
             325     13.4315E-03     82.9848E-03     545.112E-03     362.903E-03        -1.37378     362.583E-03        -1.37346     545.112E-03    -8.64332E-03     479.560E-03    -235.542E-03    -243.789E-03    -240.257E-03     476.027E-03    -235.542E-03     100.759E-03     52.2787E+06     18.4677E+06    -6.73181E+06    -6.50434E+06     18.2402E+06     52.2787E+06     222.095E+03         92.1257
             326     12.6439E-03     82.8138E-03     555.277E-03     393.694E-03        -1.41372     393.404E-03        -1.41343     555.277E-03    -11.8841E-03     479.337E-03    -235.152E-03    -244.048E-03    -241.014E-03     476.304E-03    -235.152E-03     92.8034E-03     35.6697E+06     7.35250E+06    -10.9261E+06    -10.7031E+06     7.12956E+06     35.6697E+06     639.019E+03         88.2674
             327     11.8600E-03     82.6873E-03     565.070E-03     416.327E-03        -1.44651     416.201E-03        -1.44638     565.070E-03     1.96190E-03     472.463E-03    -234.941E-03    -237.913E-03    -235.836E-03     470.466E-03    -235.021E-03     74.6621E-03     21.1598E+06    -394.760E+03    -11.6210E+06    -11.1563E+06    -859.503E+03     21.1598E+06     1.43422E+06         82.8174
             328     11.0645E-03     82.5816E-03     574.889E-03     432.987E-03        -1.47191     432.850E-03        -1.47177     574.889E-03     3.15580E-03     471.068E-03    -234.966E-03    -236.233E-03    -234.439E-03     469.354E-03    -235.046E-03     69.1252E-03     8.42877E+06    -6.08276E+06    -12.8149E+06    -12.1360E+06    -6.76166E+06     8.42877E+06     1.64005E+06         76.6960
             329     10.2717E-03     82.4746E-03     584.758E-03     452.603E-03        -1.50016     452.483E-03        -1.50004     584.758E-03     24.8328E-03     471.814E-03    -234.972E-03    -236.415E-03    -235.011E-03     470.409E-03    -234.972E-03     62.6122E-03     5.58982E+06    -3.67438E+06    -13.2981E+06    -9.51372E+06    -6.72549E+06     4.85660E+06     4.45529E+06         71.1853
             330     9.48119E-03     82.3985E-03     594.312E-03     477.984E-03        -1.53522     477.860E-03        -1.53509     594.312E-03     7.24951E-03     471.131E-03    -234.503E-03    -236.405E-03    -234.742E-03     470.102E-03    -235.137E-03     53.8076E-03     3.20214E+06    -3.07037E+06    -14.2923E+06    -9.38796E+06    -7.24144E+06     2.46892E+06     5.56871E+06         66.8529
             331     8.69199E-03     82.3170E-03     603.279E-03     503.112E-03        -1.56877     503.015E-03        -1.56868     603.279E-03     3.70185E-03     471.188E-03    -234.250E-03    -236.553E-03    -234.856E-03     470.407E-03    -235.166E-03     46.5665E-03     244.747E+03    -6.90447E+06    -14.4585E+06    -12.3449E+06    -9.01812E+06     244.747E+03     3.23013E+06         63.5639
             332     7.90028E-03     82.2443E-03     611.582E-03     528.366E-03        -1.60334     528.324E-03        -1.60330     611.582E-03    -5.95084E-03     469.991E-03    -234.432E-03    -235.238E-03    -234.489E-03     469.525E-03    -234.715E-03     35.7840E-03    -659.303E+03    -7.71999E+06    -13.7915E+06    -12.7825E+06    -8.72897E+06    -659.303E+03     1.97336E+06         60.9799
             333     7.10644E-03     82.1896E-03     618.901E-03     555.263E-03        -1.63752     555.129E-03        -1.63739     618.901E-03     4.81485E-03     470.162E-03    -234.466E-03    -235.999E-03    -235.682E-03     469.845E-03    -234.466E-03     29.8670E-03    -4.64534E+06    -9.18882E+06    -16.6987E+06    -14.8951E+06    -10.6354E+06    -5.00230E+06     2.66555E+06         58.9406
             334     6.32179E-03     82.1353E-03     625.045E-03     577.350E-03        -1.66522     577.137E-03        -1.66501     625.045E-03     4.71860E-03     470.747E-03    -234.402E-03    -236.486E-03    -236.272E-03     470.533E-03    -234.402E-03     24.0430E-03    -4.02464E+06    -8.77243E+06    -17.6888E+06    -15.6938E+06    -10.4105E+06    -4.38160E+06     2.32625E+06         57.4812
             335     5.53273E-03     82.1035E-03     630.286E-03     594.134E-03        -1.68712     593.707E-03        -1.68669     630.286E-03     18.3548E-03     469.384E-03    -234.191E-03    -235.150E-03    -234.884E-03     469.282E-03    -234.355E-03     16.7904E-03    -6.05623E+06    -10.7775E+06    -19.2876E+06    -17.8440E+06    -12.2212E+06    -6.05623E+06     2.04852E+06         56.6491
             336     4.74138E-03     82.0790E-03     635.339E-03     602.643E-03        -1.69886     602.126E-03        -1.69834     635.339E-03     12.8044E-03     468.879E-03    -234.093E-03    -234.811E-03    -234.579E-03     468.812E-03    -234.258E-03     13.5730E-03    -10.0797E+06    -12.7965E+06    -22.8482E+06    -20.8469E+06    -14.7978E+06    -10.0797E+06     3.62260E+06         56.3416
             337     3.95473E-03     82.0537E-03     642.290E-03     598.349E-03        -1.70145     597.661E-03        -1.70076     642.290E-03     16.7412E-03     468.550E-03    -233.699E-03    -234.606E-03    -234.016E-03     468.498E-03    -234.235E-03     11.9947E-03    -12.8078E+06    -16.2857E+06    -25.3447E+06    -23.9916E+06    -17.6388E+06    -12.8078E+06     2.73264E+06         56.2668
             338     3.16183E-03     82.0360E-03     653.257E-03     599.876E-03        -1.71570     599.362E-03        -1.71518     653.257E-03     43.4976E-03     469.080E-03    -233.739E-03    -235.133E-03    -233.880E-03     469.042E-03    -234.954E-03     10.0307E-03    -16.4586E+06    -20.2353E+06    -25.7159E+06    -24.0696E+06    -20.5253E+06    -17.8148E+06     972.590E+03         56.2483
             339     2.36971E-03     82.0235E-03     666.716E-03     625.058E-03        -1.75548     624.944E-03        -1.75537     666.716E-03     21.0231E-03     471.114E-03    -234.303E-03    -236.810E-03    -235.454E-03     471.099E-03    -235.644E-03     5.91032E-03    -19.6988E+06    -25.8558E+06    -30.0501E+06    -24.9663E+06    -24.7033E+06    -25.9350E+06     1.37326E+06         56.2390
             340     1.58159E-03     82.0073E-03     679.914E-03     656.192E-03        -1.80216     656.136E-03        -1.80140     679.215E-03     62.6251E-03     471.895E-03    -234.739E-03    -237.110E-03    -236.444E-03     471.892E-03    -235.402E-03     2.42726E-03    -20.2323E+06    -28.3634E+06    -32.8271E+06    -26.8428E+06    -26.6579E+06    -27.9221E+06     798.546E+03         56.2037
             341     792.143E-06     81.9897E-03     715.382E-03     660.806E-03        -1.84242     701.183E-03        -1.83611     668.698E-03    -113.241E-03     470.537E-03    -234.035E-03    -236.481E-03    -235.914E-03     470.535E-03    -234.601E-03     354.370E-06    -18.4752E+06    -22.8830E+06    -27.5046E+06    -23.9784E+06    -23.0698E+06    -21.8146E+06    -1.74066E+06         56.1599
             342     13.4272E-03     81.3677E-03     538.519E-03     351.432E-03        -1.36462     351.173E-03        -1.36436     538.519E-03    -7.93719E-03     477.440E-03    -235.542E-03    -241.816E-03    -238.247E-03     473.872E-03    -235.542E-03     101.039E-03     52.5548E+06     20.4432E+06    -3.92216E+06    -3.12488E+06     19.6459E+06     52.5548E+06     4.01875E+06         92.1296
             343     12.6441E-03     81.1986E-03     548.431E-03     373.507E-03        -1.39623     373.312E-03        -1.39604     548.431E-03    -22.5385E-03     475.378E-03    -235.298E-03    -240.295E-03    -237.289E-03     472.372E-03    -235.298E-03     92.1349E-03     33.9757E+06     8.62141E+06    -7.68513E+06    -6.97704E+06     7.91332E+06     33.9757E+06     1.01574E+06         88.2664
             344     11.8475E-03     81.0892E-03     558.085E-03     406.014E-03        -1.43890     405.903E-03        -1.43879     558.085E-03    -16.1261E-03     473.275E-03    -235.213E-03    -238.585E-03    -236.415E-03     471.105E-03    -235.213E-03     78.0613E-03     14.8084E+06    -1.63082E+06    -9.77556E+06    -8.64315E+06    -2.76324E+06     14.8084E+06    -1.41270E+06         82.8102
             345     11.0574E-03     80.9777E-03     566.692E-03     445.391E-03        -1.48663     445.225E-03        -1.48646     566.692E-03    -5.69796E-03     473.108E-03    -235.234E-03    -237.917E-03    -236.245E-03     471.435E-03    -235.234E-03     68.3348E-03     4.71379E+06    -5.56296E+06    -11.2918E+06    -9.51428E+06    -7.34051E+06     4.71379E+06     826.245E+03         76.6904
             346     10.2663E-03     80.8740E-03     573.942E-03     476.529E-03        -1.52446     476.422E-03        -1.52436     573.942E-03     20.9829E-03     471.847E-03    -235.039E-03    -236.399E-03    -235.209E-03     470.657E-03    -235.039E-03     57.1968E-03     747.146E+03    -8.74489E+06    -13.8185E+06    -12.7013E+06    -9.86210E+06     747.146E+03     1.95120E+06         71.1809
             347     9.47560E-03     80.7903E-03     580.517E-03     490.792E-03        -1.54559     490.715E-03        -1.54551     580.517E-03     19.2397E-03     472.340E-03    -235.160E-03    -236.839E-03    -235.948E-03     471.450E-03    -235.160E-03     49.9242E-03     542.894E+03    -9.31270E+06    -15.1122E+06    -14.0827E+06    -10.3422E+06     542.894E+03     1.94238E+06         66.8485
             348     8.68844E-03     80.7071E-03     587.309E-03     498.418E-03        -1.56012     498.354E-03        -1.56005     587.309E-03     19.5872E-03     472.853E-03    -235.182E-03    -237.132E-03    -236.381E-03     472.102E-03    -235.182E-03     45.8069E-03     1.73587E+06    -4.95376E+06    -11.4194E+06    -9.56162E+06     -6.8115E+06     1.73587E+06     2.16696E+06         63.5606
             349     7.89989E-03     80.6447E-03     594.381E-03     513.791E-03        -1.58282     513.727E-03        -1.58276     594.381E-03    -3.73745E-03     471.429E-03    -234.560E-03    -236.677E-03    -236.148E-03     470.900E-03    -234.560E-03     38.4392E-03    -1.66193E+06    -5.03859E+06    -14.3918E+06    -10.1711E+06    -8.57841E+06    -2.34291E+06     4.39693E+06         60.9761
             350     7.11325E-03     80.5815E-03     600.822E-03     540.875E-03        -1.61513     540.716E-03        -1.61497     600.822E-03    -4.17947E-03     469.605E-03    -234.063E-03    -235.926E-03    -235.517E-03     469.234E-03    -234.100E-03     32.1324E-03    -4.05305E+06    -7.04578E+06    -18.1010E+06    -13.3174E+06    -10.7915E+06    -5.09099E+06     4.36418E+06         58.9334
             351     6.32152E-03     80.5286E-03     605.985E-03     565.474E-03        -1.64410     565.033E-03        -1.64366     605.985E-03    -12.6775E-03     468.624E-03    -233.944E-03    -234.823E-03    -234.417E-03     468.409E-03    -234.134E-03     23.9894E-03    -2.78866E+06    -6.33622E+06    -15.2831E+06    -12.1608E+06    -8.45815E+06    -3.78901E+06     1.92221E+06         57.4684
             352     5.53107E-03     80.5022E-03     610.248E-03     580.298E-03        -1.66251     579.578E-03        -1.66179     610.248E-03    -8.54815E-03     468.840E-03    -234.096E-03    -234.819E-03    -234.552E-03     468.727E-03    -234.248E-03     17.8554E-03    -7.53959E+06    -11.9543E+06    -20.3393E+06    -18.5474E+06    -13.1028E+06    -8.18298E+06     2.07618E+06         56.6333
             353     4.74334E-03     80.4714E-03     616.715E-03     591.119E-03        -1.67891     593.439E-03        -1.67828     613.771E-03    -4.39773E-03     468.786E-03    -234.113E-03    -234.834E-03    -234.700E-03     468.708E-03    -234.168E-03     14.5906E-03    -11.3100E+06    -14.4042E+06    -23.1033E+06    -21.6032E+06    -15.9043E+06    -11.3100E+06     3.02226E+06         56.3246
             354     3.95038E-03     80.4536E-03     630.611E-03     593.052E-03        -1.69406     606.787E-03        -1.69322     616.031E-03     33.6691E-03     468.127E-03    -233.578E-03    -234.361E-03    -233.725E-03     468.079E-03    -234.166E-03     11.2822E-03    -10.9719E+06    -12.8427E+06    -20.8742E+06    -18.0895E+06    -14.7437E+06    -11.8556E+06     3.99715E+06         56.2474
             355     3.15959E-03     80.4366E-03     642.215E-03     592.674E-03        -1.70546     617.980E-03        -1.70482     616.265E-03     58.0547E-03     469.835E-03    -234.343E-03    -235.256E-03    -234.680E-03     469.792E-03    -234.875E-03     10.6682E-03    -16.6518E+06    -19.5367E+06    -24.8749E+06    -22.4547E+06    -20.2447E+06    -18.3640E+06     3.08671E+06         56.2306
             356     2.37243E-03     80.4141E-03     637.694E-03     597.351E-03        -1.70611     619.976E-03        -1.70551     614.463E-03     54.3909E-03     471.955E-03    -235.224E-03    -236.704E-03    -236.669E-03     471.920E-03    -235.224E-03     9.39639E-03    -16.9364E+06    -21.3099E+06    -27.2192E+06    -23.3849E+06    -21.7445E+06    -20.3362E+06     2.75709E+06         56.2262
             357     1.58533E-03     80.4033E-03     630.168E-03     597.758E-03        -1.69882     614.376E-03        -1.69759     612.323E-03     96.4625E-03     470.733E-03    -234.547E-03    -236.259E-03    -236.238E-03     470.712E-03    -234.547E-03     6.72069E-03    -12.1488E+06    -19.2906E+06    -25.6833E+06    -18.9370E+06    -18.8465E+06    -19.3391E+06     2.39757E+06         56.1915
             358     791.998E-06     80.4006E-03     631.635E-03     594.438E-03        -1.69785     620.229E-03        -1.69434     602.331E-03    -65.9973E-03     468.586E-03    -233.223E-03    -235.404E-03    -234.959E-03     468.578E-03    -233.660E-03     4.15567E-03    -16.4621E+06    -23.2439E+06    -28.1701E+06    -20.7628E+06    -23.1068E+06    -24.0065E+06     229.439E+03         56.1455
             359     13.4363E-03     79.7537E-03     523.739E-03     343.500E-03        -1.35060     343.230E-03        -1.35033     523.739E-03    -6.17201E-03     473.255E-03    -234.234E-03    -239.347E-03    -234.932E-03     469.962E-03    -235.357E-03     96.4996E-03     49.5264E+06     19.8422E+06    -2.21603E+06    -1.05476E+06     18.6809E+06     49.5264E+06     3.55280E+06         92.1408
             360     12.6327E-03     79.6138E-03     532.431E-03     365.322E-03        -1.38214     365.100E-03        -1.38192     532.431E-03    -17.7787E-03     470.965E-03    -234.175E-03    -237.234E-03    -233.392E-03     468.246E-03    -235.298E-03     87.2583E-03     29.2333E+06     7.07476E+06    -5.23433E+06    -4.37058E+06     6.21102E+06     29.2333E+06    -184.305E+03         88.2687
             361     11.8424E-03     79.4714E-03     540.767E-03     393.782E-03        -1.41820     393.547E-03        -1.41796     540.767E-03    -19.7580E-03     474.304E-03    -235.233E-03    -239.268E-03    -237.460E-03     472.496E-03    -235.233E-03     70.3956E-03     12.5834E+06    -513.405E+03    -9.28500E+06    -6.65887E+06    -3.13954E+06     12.5834E+06     479.498E+03         82.8084
             362     11.0600E-03     79.3684E-03     548.242E-03     430.555E-03        -1.46191     430.366E-03        -1.46172     548.242E-03    -22.2901E-03     473.726E-03    -235.130E-03    -238.447E-03    -237.184E-03     472.462E-03    -235.130E-03     59.5906E-03     3.41091E+06    -5.02899E+06    -13.3673E+06    -9.78746E+06    -8.60879E+06     3.41091E+06     2.77865E+06         76.6943
             363     10.2712E-03     79.2721E-03     554.411E-03     465.449E-03        -1.50315     465.439E-03        -1.50314     554.411E-03     6.90815E-03     472.198E-03    -234.881E-03    -236.774E-03    -235.628E-03     471.052E-03    -234.881E-03     56.4914E-03     940.391E+03    -6.24672E+06    -11.7673E+06    -9.45567E+06    -8.55837E+06     940.391E+03     2.27412E+06         71.1871
             364     9.48262E-03     79.1828E-03     559.300E-03     492.847E-03        -1.53549     492.839E-03        -1.53548     559.300E-03     2.51176E-03     472.001E-03    -235.054E-03    -236.663E-03    -235.756E-03     471.094E-03    -235.054E-03     50.2983E-03     647.317E+03    -6.73780E+06    -10.5520E+06    -7.18893E+06    -8.25180E+06    -1.20177E+06     468.284E+03         66.8511
             365     8.68943E-03     79.1064E-03     563.169E-03     512.245E-03        -1.55869     512.220E-03        -1.55867     563.169E-03     8.52710E-03     472.638E-03    -235.112E-03    -237.403E-03    -236.699E-03     471.934E-03    -235.112E-03     44.3177E-03    -3.75851E+06    -9.24526E+06    -15.7237E+06    -11.3136E+06    -11.8063E+06    -5.60760E+06     1.50250E+06         63.5585
             366     7.89898E-03     79.0337E-03     566.813E-03     515.819E-03        -1.56399     515.778E-03        -1.56395     566.813E-03     672.597E-06     472.069E-03    -234.516E-03    -237.792E-03    -237.312E-03     471.589E-03    -234.516E-03     36.5735E-03    -3.41947E+06    -7.06218E+06    -18.9414E+06    -13.8022E+06    -11.5204E+06    -4.10044E+06     5.52816E+06         60.9712
             367     7.11065E-03     78.9735E-03     571.804E-03     507.051E-03        -1.55969     506.949E-03        -1.55959     571.804E-03    -3.51821E-03     468.943E-03    -233.727E-03    -235.633E-03    -235.042E-03     468.609E-03    -233.984E-03     30.2773E-03    -1.24162E+06    -6.27876E+06    -16.0024E+06    -12.5877E+06    -9.01249E+06    -1.92260E+06     3.18471E+06         58.9245
             368     6.32134E-03     78.9305E-03     578.546E-03     513.359E-03        -1.57288     512.910E-03        -1.57243     578.546E-03    -31.1997E-03     467.451E-03    -233.531E-03    -233.985E-03    -233.325E-03     467.245E-03    -233.985E-03     23.5557E-03    -1.53002E+06    -5.59526E+06    -14.1529E+06    -11.6351E+06    -7.46963E+06    -2.17341E+06     2.59395E+06         57.4541
             369     5.53075E-03     78.8942E-03     584.944E-03     543.517E-03        -1.60908     543.015E-03        -1.60858     584.944E-03    -39.6704E-03     468.306E-03    -233.736E-03    -234.456E-03    -233.939E-03     468.193E-03    -234.140E-03     17.5534E-03    -2.60782E+06    -6.37847E+06    -15.4710E+06    -11.9210E+06    -7.90438E+06    -4.63185E+06     4.70423E+06         56.6143
             370     4.74037E-03     78.8684E-03     592.075E-03     575.249E-03        -1.64887     578.547E-03        -1.64835     588.265E-03    -44.3936E-03     468.703E-03    -233.917E-03    -234.628E-03    -234.294E-03     468.632E-03    -234.180E-03     13.7404E-03    -10.4817E+06    -13.6003E+06    -20.0854E+06    -18.0525E+06    -14.2525E+06    -11.8624E+06     2.99286E+06         56.3008
             371     3.95239E-03     78.8514E-03     610.245E-03     586.391E-03        -1.67743     609.660E-03        -1.67684     586.391E-03    -10.2946E-03     468.792E-03    -234.109E-03    -234.804E-03    -234.703E-03     468.747E-03    -234.165E-03     10.9423E-03    -11.5392E+06    -14.6290E+06    -21.5347E+06    -19.5391E+06    -15.7409E+06    -12.4228E+06     2.72441E+06         56.2163
             372     3.16300E-03     78.8324E-03     618.744E-03     578.815E-03        -1.67690     618.417E-03        -1.67657     578.815E-03     13.8900E-03     469.752E-03    -234.667E-03    -235.393E-03    -235.308E-03     469.712E-03    -234.712E-03     10.4280E-03    -11.5137E+06    -15.4621E+06    -20.5097E+06    -17.5028E+06    -15.9736E+06    -14.0090E+06     2.90101E+06         56.1922
             373     2.37046E-03     78.8117E-03     599.522E-03     568.576E-03        -1.64704     598.905E-03        -1.64643     568.576E-03     14.8325E-03     470.176E-03    -234.724E-03    -235.647E-03    -235.002E-03     470.140E-03    -235.333E-03     9.39454E-03    -15.4316E+06    -18.0391E+06    -21.6729E+06    -18.3066E+06    -18.5272E+06    -18.3098E+06     671.069E+03         56.1862
             374     1.57716E-03     78.8008E-03     581.082E-03     557.828E-03        -1.61486     580.348E-03        -1.61413     557.828E-03     23.8740E-03     470.711E-03    -234.770E-03    -236.079E-03    -235.311E-03     470.689E-03    -235.517E-03     6.82932E-03    -13.4216E+06    -16.5639E+06    -23.2853E+06    -18.6904E+06    -17.7458E+06    -16.8346E+06     2.08072E+03         56.1518
             375     791.000E-06     78.7975E-03     576.688E-03     529.647E-03        -1.58277     546.647E-03        -1.58098     557.896E-03    -78.8392E-03     471.128E-03    -235.127E-03    -236.424E-03    -235.796E-03     471.118E-03    -235.746E-03     3.35865E-03    -12.9496E+06    -17.6502E+06    -27.8857E+06    -20.4103E+06    -20.0537E+06    -18.0214E+06     3.12160E+06         56.1012
             376     13.4344E-03     78.1752E-03     502.215E-03     362.379E-03        -1.36006     361.926E-03        -1.35961     502.215E-03    -7.65449E-03     475.964E-03    -234.233E-03    -242.149E-03    -237.570E-03     472.508E-03    -235.356E-03     99.1656E-03     45.8825E+06     18.0076E+06    -3.92410E+06    -1.98973E+06     16.0733E+06     45.8825E+06     719.130E+03         92.1339
             377     12.6418E-03     78.0135E-03     507.779E-03     382.136E-03        -1.38339     381.792E-03        -1.38305     507.779E-03    -17.9958E-03     475.234E-03    -234.063E-03    -241.281E-03    -237.257E-03     472.333E-03    -235.186E-03     90.2881E-03     27.2565E+06     7.68872E+06    -7.80171E+06    -4.79797E+06     4.68498E+06     27.2565E+06     3.89652E+06         88.2770
             378     11.8549E-03     77.8570E-03     513.057E-03     397.951E-03        -1.40263     397.707E-03        -1.40239     513.057E-03    -12.4120E-03     472.242E-03    -234.227E-03    -238.084E-03    -235.509E-03     470.475E-03    -235.035E-03     69.5147E-03     15.3657E+06     3.23082E+06    -11.4703E+06    -6.41598E+06    -1.82352E+06     15.3657E+06     2.90090E+06         82.8260
             379     11.0588E-03     77.7702E-03     518.675E-03     405.952E-03        -1.41515     405.751E-03        -1.41495     518.675E-03    -18.7254E-03     470.445E-03    -234.246E-03    -236.540E-03    -234.361E-03     469.074E-03    -235.054E-03     61.8000E-03     4.35904E+06    -3.55970E+06    -14.9504E+06    -8.34788E+06    -8.49286E+06     2.68968E+06     2.83082E+06         76.7013
             380     10.2663E-03     77.6616E-03     524.414E-03     423.979E-03        -1.43858     423.959E-03        -1.43857     524.414E-03     8.71830E-03     472.395E-03    -234.967E-03    -237.291E-03    -236.038E-03     471.142E-03    -234.967E-03     58.9231E-03     3.11040E+06    -3.39004E+06    -9.50233E+06    -2.43519E+06    -6.62356E+06    -723.228E+03     2.83502E+06         71.1851
             381     9.47504E-03     77.5811E-03     529.341E-03     455.120E-03        -1.47422     455.097E-03        -1.47420     529.341E-03     4.82130E-03     473.132E-03    -234.948E-03    -238.159E-03    -237.260E-03     472.234E-03    -234.948E-03     50.0976E-03    -1.16542E+06    -6.16176E+06    -13.1324E+06    -5.51303E+06    -9.76779E+06    -5.17878E+06     1.78632E+06         66.8495
             382     8.68875E-03     77.4960E-03     532.979E-03     481.769E-03        -1.50333     481.744E-03        -1.50331     532.979E-03     7.63531E-03     473.789E-03    -234.874E-03    -239.034E-03    -238.360E-03     473.114E-03    -234.874E-03     43.3533E-03    -6.54544E+06    -10.5443E+06    -20.3791E+06    -14.1079E+06    -14.9663E+06    -8.39453E+06     3.89001E+06         63.5576
             383     7.90459E-03     77.4252E-03     535.468E-03     503.320E-03        -1.52543     503.249E-03        -1.52536     535.468E-03    -10.6100E-03     471.324E-03    -234.247E-03    -237.315E-03    -236.911E-03     470.920E-03    -234.247E-03     33.5087E-03    -3.72013E+06    -7.65514E+06    -14.5162E+06    -11.8890E+06    -10.2823E+06    -3.72013E+06     2.53881E+06         60.9669
             384     7.11388E-03     77.3725E-03     549.238E-03     503.570E-03        -1.53898     515.540E-03        -1.53883     537.110E-03     4.29772E-03     467.376E-03    -233.205E-03    -234.473E-03    -233.731E-03     467.117E-03    -233.688E-03     26.8987E-03    -3.70601E+06    -7.53225E+06    -13.6492E+06    -11.8291E+06    -9.35231E+06    -3.70601E+06     2.11429E+06         58.9133
             385     6.32175E-03     77.3271E-03     552.636E-03     498.471E-03        -1.53755     512.102E-03        -1.53739     538.845E-03     3.73039E-03     466.418E-03    -232.740E-03    -233.778E-03    -232.553E-03     466.231E-03    -233.778E-03     22.7333E-03    -533.680E+03    -3.77536E+06    -12.1990E+06    -10.1063E+06    -5.86798E+06    -533.680E+03     3.40623E+06         57.4357
             386     5.53204E-03     77.2902E-03     543.744E-03     502.860E-03        -1.53379     504.370E-03        -1.53363     542.081E-03     3.36599E-03     466.904E-03    -233.027E-03    -233.993E-03    -232.912E-03     466.790E-03    -233.993E-03     17.5717E-03    -924.674E+03    -5.56976E+06    -13.4591E+06    -11.1923E+06    -6.45597E+06    -2.30531E+06     3.43142E+06         56.5891
             387     4.74093E-03     77.2678E-03     548.155E-03     505.346E-03        -1.54219     505.693E-03        -1.54167     547.289E-03    -22.5796E-03     467.813E-03    -233.690E-03    -234.590E-03    -234.115E-03     467.749E-03    -234.101E-03     13.1681E-03    -5.50660E+06    -9.49885E+06    -17.5991E+06    -15.1504E+06    -10.5669E+06    -6.88724E+06     3.75147E+06         56.2660
             388     3.94933E-03     77.2430E-03     563.256E-03     506.320E-03        -1.55775     515.037E-03        -1.55720     553.982E-03    -18.7234E-03     469.141E-03    -234.043E-03    -235.482E-03    -235.440E-03     469.099E-03    -234.043E-03     10.3864E-03    -7.56948E+06    -10.7016E+06    -18.0564E+06    -17.0415E+06    -11.7165E+06    -7.56948E+06     2.01685E+06         56.1651
             389     3.16164E-03     77.2279E-03     575.149E-03     518.554E-03        -1.58061     532.105E-03        -1.58018     561.170E-03    -12.8717E-03     469.510E-03    -234.005E-03    -235.644E-03    -235.573E-03     469.484E-03    -234.049E-03     7.59639E-03    -9.25949E+06    -12.9180E+06    -17.9920E+06    -16.9459E+06    -13.1809E+06    -10.0427E+06     418.640E+03         56.1230
             390     2.37252E-03     77.2127E-03     574.842E-03     546.054E-03        -1.60684     552.912E-03        -1.60598     567.126E-03    -2.54918E-03     469.086E-03    -233.900E-03    -235.370E-03    -234.750E-03     469.075E-03    -234.509E-03     4.65392E-03    -12.5027E+06    -15.8683E+06    -19.9029E+06    -16.3593E+06    -16.2022E+06    -15.7125E+06     1.44308E+06         56.1158
             391     1.58131E-03     77.2001E-03     575.942E-03     562.129E-03        -1.62382     566.787E-03        -1.62307     570.533E-03     6.77291E-03     469.532E-03    -234.280E-03    -235.244E-03    -234.492E-03     469.528E-03    -235.028E-03     2.50646E-03    -18.9882E+06    -21.9562E+06    -26.2966E+06    -22.0026E+06    -22.4466E+06    -22.7918E+06     344.139E+03         56.0993
             392     787.478E-06     77.1866E-03     601.396E-03     542.265E-03        -1.62911     544.951E-03        -1.62853     598.131E-03    -18.8686E-03     470.251E-03    -234.835E-03    -235.823E-03    -235.632E-03     470.244E-03    -235.018E-03    -1.74144E-03    -10.1456E+06    -16.6954E+06    -24.6526E+06    -17.1832E+06    -18.0200E+06    -16.2904E+06    -1.00331E+06         56.0615
             393     13.4198E-03     76.5621E-03     475.396E-03     381.269E-03        -1.35903     380.799E-03        -1.35856     475.396E-03    -18.3878E-03     477.982E-03    -235.592E-03    -242.419E-03    -238.723E-03     474.286E-03    -235.592E-03     102.502E-03      46.159E+06     17.1253E+06    -4.56081E+06    -2.81759E+06     15.3821E+06      46.159E+06    -1.00684E+06         92.1009
             394     12.6428E-03     76.3880E-03     477.687E-03     400.556E-03        -1.37745     400.180E-03        -1.37708     477.687E-03    -30.3849E-03     478.886E-03    -235.461E-03    -243.323E-03    -239.820E-03     475.383E-03    -235.461E-03     99.6499E-03     34.7458E+06     12.5963E+06    -5.84129E+06    -2.66746E+06     9.42244E+06     34.7458E+06     5.89964E+06         88.2526
             395     11.8495E-03     76.2699E-03     479.769E-03     409.172E-03        -1.38623     409.049E-03        -1.38611     479.769E-03    -14.3149E-03     472.499E-03    -234.403E-03    -238.417E-03    -235.455E-03     470.345E-03    -235.211E-03     77.5147E-03     13.3024E+06     2.73324E+06    -15.3931E+06    -7.82625E+06    -4.26894E+06     12.7378E+06     5.37653E+06         82.8095
             396     11.0558E-03     76.1647E-03     482.184E-03     411.385E-03        -1.38957     411.247E-03        -1.38943     482.184E-03    -10.2781E-03     471.980E-03    -234.369E-03    -238.419E-03    -235.954E-03     470.323E-03    -235.177E-03     68.4609E-03     4.65311E+06    -214.934E+03    -17.9318E+06    -6.54713E+06    -8.61316E+06     1.66669E+06     1.66651E+06         76.6878
             397     10.2679E-03     76.0565E-03     485.162E-03     407.952E-03        -1.38850     407.920E-03        -1.38847     485.162E-03     5.33941E-03     474.870E-03    -234.867E-03    -240.175E-03    -238.966E-03     473.661E-03    -234.867E-03     57.5423E-03     1.40843E+06    -3.89922E+06    -16.4258E+06    -6.17085E+06    -9.56807E+06    -3.17762E+06     1.37257E+06         71.1788
             398     9.48213E-03     75.9705E-03     489.134E-03     407.008E-03        -1.39091     406.974E-03        -1.39088     489.134E-03    -3.50338E-03     474.831E-03    -234.573E-03    -239.957E-03    -239.230E-03     474.105E-03    -234.573E-03     45.5388E-03    -1.80815E+06    -5.23337E+06    -15.1748E+06    -8.19244E+06    -10.0515E+06    -3.97242E+06     3.93694E+06         66.8500
             399     8.69535E-03     75.8843E-03     493.571E-03     422.692E-03        -1.40961     422.664E-03        -1.40958     493.571E-03     590.074E-06     473.173E-03    -234.515E-03    -238.416E-03    -237.809E-03     472.566E-03    -234.515E-03     41.3343E-03    -2.16750E+06    -4.42356E+06    -11.4109E+06    -6.79850E+06    -8.25214E+06    -2.95130E+06     3.50682E+06         63.5563
             400     7.90425E-03     75.8189E-03     496.926E-03     457.123E-03        -1.44611     457.040E-03        -1.44602     496.926E-03    -17.9426E-03     469.564E-03    -233.828E-03    -235.855E-03    -235.477E-03     469.186E-03    -233.828E-03     32.2050E-03    -4.77445E+06    -7.41104E+06    -11.7765E+06    -8.25877E+06    -9.75886E+06    -5.94435E+06     2.08986E+06         60.9585
             401     7.11458E-03     75.7736E-03     509.744E-03     483.251E-03        -1.48465     495.259E-03        -1.48453     497.617E-03    -6.29807E-03     466.355E-03    -232.779E-03    -233.858E-03    -233.111E-03     466.098E-03    -233.271E-03     26.7355E-03    -1.86479E+06    -3.59131E+06    -10.4749E+06    -7.11996E+06    -6.56017E+06    -2.25089E+06     3.05457E+06         58.8981
             402     6.32432E-03     75.7241E-03     515.624E-03     491.600E-03        -1.49820     511.402E-03        -1.49799     495.614E-03    -11.4346E-03     465.773E-03    -232.410E-03    -233.429E-03    -232.220E-03     465.583E-03    -233.429E-03     22.7190E-03    -4.63324E+06    -7.70615E+06    -15.6062E+06    -13.5264E+06    -9.78594E+06    -4.63324E+06     3.17489E+06         57.4141
             403     5.53065E-03     75.6919E-03     506.907E-03     480.424E-03        -1.47854     493.355E-03        -1.47831     493.743E-03    -21.5720E-03     466.371E-03    -232.921E-03    -233.701E-03    -232.873E-03     466.273E-03    -233.651E-03     16.0441E-03    -4.88386E+06    -10.4858E+06    -18.4329E+06    -17.7152E+06    -11.2035E+06    -4.88386E+06     1.83156E+06         56.5598
             404     4.74090E-03     75.6588E-03     500.839E-03     459.967E-03        -1.45226     464.811E-03        -1.45182     495.557E-03    -35.3268E-03     467.124E-03    -233.441E-03    -234.170E-03    -233.799E-03     467.074E-03    -233.762E-03     11.3847E-03     1.22478E+06    -3.88064E+06    -11.4761E+06    -10.4712E+06    -4.88551E+06     1.22478E+06     2.07700E+06         56.2292
             405     3.95438E-03     75.6400E-03     502.842E-03     449.288E-03        -1.44326     447.713E-03        -1.44169     502.842E-03     19.2894E-03     468.173E-03    -233.586E-03    -234.596E-03    -234.441E-03     468.135E-03    -233.704E-03     9.76229E-03    -4.56252E+06    -7.22395E+06    -13.8734E+06    -12.2994E+06    -8.59279E+06    -4.76761E+06     2.67848E+06         56.1215
             406     3.16462E-03     75.6193E-03     515.058E-03     456.562E-03        -1.46266     455.175E-03        -1.46127     515.058E-03     38.4428E-03     468.899E-03    -233.352E-03    -235.193E-03    -235.164E-03     468.871E-03    -233.352E-03     7.62915E-03    -9.54536E+06    -11.5855E+06    -18.1309E+06    -16.8451E+06    -12.6662E+06    -9.75044E+06     1.53335E+06         56.0735
             407     2.37574E-03     75.6138E-03     529.442E-03     486.373E-03        -1.50786     484.337E-03        -1.50582     529.442E-03     66.6591E-03     469.584E-03    -233.429E-03    -235.753E-03    -235.742E-03     469.573E-03    -233.429E-03     5.08056E-03    -13.0588E+06    -15.7405E+06    -21.2896E+06    -19.4499E+06    -16.4201E+06    -14.2189E+06     1.65453E+06         56.0726
             408     1.58505E-03     75.6011E-03     541.950E-03     522.296E-03        -1.55761     520.059E-03        -1.55537     541.950E-03     50.1224E-03     468.367E-03    -233.412E-03    -234.636E-03    -234.419E-03     468.356E-03    -233.618E-03     4.47717E-03    -14.5932E+06    -17.5576E+06    -19.9878E+06    -17.1563E+06    -17.4133E+06    -17.5690E+06     1.54200E+06         56.0733
             409     795.625E-06     75.5915E-03     581.800E-03     515.307E-03        -1.59009     512.217E-03        -1.58700     581.800E-03     58.7638E-03     467.133E-03    -232.990E-03    -234.179E-03    -233.515E-03     467.109E-03    -233.630E-03     3.21480E-03    -12.7666E+06    -20.1385E+06    -22.9306E+06    -15.5409E+06    -19.7717E+06    -20.5231E+06    -764.536E+03         56.0492
             410     13.4259E-03     74.9519E-03     442.563E-03     368.472E-03        -1.31288     368.058E-03        -1.31246     442.563E-03    -9.99580E-03     473.581E-03    -235.520E-03    -237.925E-03    -234.004E-03     469.810E-03    -235.670E-03     102.808E-03     36.4549E+06     10.4917E+06    -6.24159E+06    -5.10558E+06     9.35572E+06     36.4549E+06    -862.686E+03         92.0564
             411     12.6242E-03     74.7783E-03     442.894E-03     386.226E-03        -1.32999     385.887E-03        -1.32965     442.894E-03    -17.5192E-03     475.328E-03    -235.549E-03    -239.804E-03    -236.174E-03     471.848E-03    -235.699E-03     98.4305E-03     23.4906E+06     3.06270E+06    -8.43634E+06    -7.09579E+06     1.72215E+06     23.4906E+06    -606.472E+03         88.1938
             412     11.8382E-03     74.6590E-03     442.965E-03     399.834E-03        -1.34207     399.667E-03        -1.34190     442.965E-03    -6.07871E-03     476.454E-03    -235.573E-03    -241.163E-03    -239.104E-03     474.394E-03    -235.573E-03     76.1818E-03     12.9136E+06     2.33721E+06    -8.93366E+06    -3.79209E+06    -2.23972E+06     12.3490E+06     2.94090E+06         82.7525
             413     11.0533E-03     74.5568E-03     442.880E-03     408.745E-03        -1.34942     408.625E-03        -1.34930     442.880E-03    -9.03514E-03     478.117E-03    -235.283E-03    -242.994E-03    -241.357E-03     476.479E-03    -235.283E-03     68.5677E-03     7.77874E+06     2.61246E+06    -12.6774E+06    -3.94553E+06    -4.80232E+06     6.46168E+06     1.84464E+06         76.6541
             414     10.2681E-03     74.4363E-03     442.809E-03     407.772E-03        -1.34796     407.714E-03        -1.34790     442.809E-03     13.3001E-03     477.108E-03    -234.718E-03    -242.143E-03    -240.910E-03     475.875E-03    -234.718E-03     58.5454E-03    -14.5511E+03    -3.69989E+06    -18.9747E+06    -11.3389E+06    -10.5833E+06    -766.977E+03     2.75023E+06         71.1628
             415     9.48494E-03     74.3598E-03     443.470E-03     401.264E-03        -1.34267     401.206E-03        -1.34261     443.470E-03     4.19429E-03     474.698E-03    -234.393E-03    -239.936E-03    -239.089E-03     473.851E-03    -234.393E-03     49.1048E-03    -1.04898E+06    -2.68959E+06    -13.5057E+06    -7.90214E+06    -7.82394E+06    -1.51816E+06     5.42128E+06         66.8367
             416     8.69576E-03     74.2809E-03     444.741E-03     403.557E-03        -1.34544     403.531E-03        -1.34542     444.741E-03     432.144E-06     472.460E-03    -234.255E-03    -238.150E-03    -237.431E-03     471.741E-03    -234.255E-03     44.8173E-03     852.540E+03    -1.49632E+06    -8.25611E+06    -3.41779E+06    -5.08167E+06    -400.436E+03     3.72765E+06         63.5409
             417     7.90705E-03     74.2156E-03     446.498E-03     406.040E-03        -1.34835     405.994E-03        -1.34830     446.498E-03    -12.0476E-03     469.096E-03    -233.628E-03    -235.870E-03    -235.473E-03     468.700E-03    -233.628E-03     32.7551E-03     449.665E+03    -2.68423E+06    -9.22648E+06    -5.14708E+06    -5.59373E+06    -720.230E+03     3.02507E+06         60.9415
             418     7.11602E-03     74.1712E-03     449.270E-03     404.841E-03        -1.34984     404.785E-03        -1.34979     449.270E-03    -6.09066E-03     466.855E-03    -232.909E-03    -234.247E-03    -233.771E-03     466.608E-03    -233.137E-03     26.2830E-03    -2.10738E+06    -4.46089E+06    -11.7308E+06    -8.53927E+06    -7.26632E+06    -2.49348E+06     3.00538E+06         58.8801
             419     6.32383E-03     74.1252E-03     458.211E-03     419.190E-03        -1.37212     425.236E-03        -1.37194     451.992E-03    -14.1796E-03     466.592E-03    -232.816E-03    -233.785E-03    -233.357E-03     466.408E-03    -233.060E-03     22.2751E-03    -6.02384E+06    -8.98600E+06    -16.0490E+06    -13.8969E+06    -11.1381E+06    -6.02384E+06     2.92856E+06         57.3940
             420     5.53708E-03     74.0864E-03     469.278E-03     441.890E-03        -1.40462     458.670E-03        -1.40424     452.116E-03    -8.71844E-03     466.352E-03    -232.997E-03    -233.476E-03    -233.286E-03     466.257E-03    -233.091E-03     15.9012E-03    -2.54461E+06    -6.68076E+06    -12.0853E+06    -11.1733E+06    -7.59277E+06    -2.54461E+06     1.32901E+06         56.5333
             421     4.74709E-03     74.0592E-03     473.910E-03     447.425E-03        -1.41428     471.756E-03        -1.41369     448.981E-03    -24.9217E-03     466.389E-03    -232.989E-03    -233.258E-03    -233.002E-03     466.331E-03    -233.186E-03     12.3460E-03    -2.41930E+06    -6.64040E+06    -11.8849E+06    -11.2321E+06    -7.29325E+06    -2.41930E+06     866.283E+03         56.1999
             422     3.95244E-03     74.0372E-03     472.017E-03     438.499E-03        -1.40295     464.593E-03        -1.40141     444.390E-03     7.47391E-03     466.893E-03    -233.077E-03    -233.508E-03    -233.347E-03     466.850E-03    -233.195E-03     10.1393E-03    -4.36886E+06    -7.93613E+06    -13.7392E+06    -12.5571E+06    -8.91314E+06    -4.57394E+06     1.83248E+06         56.1047
             423     3.16154E-03     74.0175E-03     459.032E-03     425.945E-03        -1.37737     441.117E-03        -1.37533     441.824E-03     7.18203E-03     467.811E-03    -233.214E-03    -234.411E-03    -234.139E-03     467.785E-03    -233.458E-03     6.76412E-03    -6.98536E+06    -10.1517E+06    -16.1805E+06    -13.5001E+06    -11.3981E+06    -8.41925E+06     3.27779E+06         56.0789
             424     2.37269E-03     74.0061E-03     449.198E-03     419.075E-03        -1.36243     420.344E-03        -1.36013     445.629E-03    -1.97657E-03     468.947E-03    -233.174E-03    -235.514E-03    -234.622E-03     468.932E-03    -234.051E-03     5.62782E-03    -10.7590E+06    -13.3203E+06    -17.3637E+06    -14.8691E+06    -13.8398E+06    -12.7342E+06     2.24951E+06         56.0909
             425     1.58470E-03     74.0050E-03     454.634E-03     437.089E-03        -1.38709     433.893E-03        -1.38390     454.634E-03    -41.3444E-03     468.663E-03    -233.278E-03    -235.270E-03    -234.058E-03     468.641E-03    -234.467E-03     7.87494E-03    -9.82601E+06    -11.7321E+06    -14.5721E+06    -12.5047E+06    -11.9380E+06    -11.6876E+06     1.15230E+06         56.0883
             426     788.105E-06     74.0004E-03     493.147E-03     431.639E-03        -1.42062     425.533E-03        -1.41451     493.147E-03     49.4370E-03     469.492E-03    -234.189E-03    -235.343E-03    -234.144E-03     469.446E-03    -235.343E-03     11.0437E-03    -12.2980E+06    -15.2451E+06    -20.2993E+06    -16.6949E+06    -16.5613E+06    -14.5861E+06     1.63073E+06         56.0589
             427     13.4190E-03     73.3590E-03     404.026E-03     347.560E-03        -1.25439     347.086E-03        -1.25391     404.026E-03    -6.37263E-03     474.297E-03    -235.312E-03    -238.949E-03    -235.590E-03     471.087E-03    -235.462E-03     94.7562E-03     33.0808E+06     12.1535E+06    -1.21037E+06     396.766E+03     10.5464E+06     33.0808E+06     1.91687E+06         92.0071
             428     12.6278E-03     73.1795E-03     403.297E-03     350.899E-03        -1.25585     350.515E-03        -1.25546     403.297E-03    -24.1682E-03     472.889E-03    -235.322E-03    -237.743E-03    -234.930E-03     470.226E-03    -235.472E-03     85.3514E-03     16.9124E+06     1.99482E+06    -6.53261E+06    -4.18135E+06    -356.434E+03     16.9124E+06    -1.55885E+06         88.1507
             429     11.8347E-03     73.0397E-03     402.696E-03     362.670E-03        -1.26536     362.325E-03        -1.26501     402.696E-03    -21.9862E-03     475.614E-03    -235.280E-03    -240.555E-03    -239.068E-03     474.128E-03    -235.280E-03     63.7797E-03     8.70296E+06    -1.80504E+06    -6.77114E+06    -4.19542E+06    -4.38076E+06     8.70296E+06    -1.91976E+06         82.7126
             430     11.0536E-03     72.9342E-03     401.914E-03     378.653E-03        -1.27946     378.365E-03        -1.27918     401.914E-03    -30.4006E-03     477.011E-03    -234.996E-03    -241.968E-03    -240.745E-03     475.789E-03    -234.996E-03     58.5199E-03     3.14846E+06    -4.04061E+06    -10.5245E+06    -5.86817E+06    -7.27998E+06     1.73152E+06     2.37950E+06         76.6190
             431     10.2705E-03     72.8244E-03     408.184E-03     391.957E-03        -1.29802     399.908E-03        -1.29791     400.124E-03    -4.89592E-03     474.231E-03    -234.673E-03    -239.140E-03    -238.040E-03     473.131E-03    -234.673E-03     55.4462E-03    -2.07069E+06    -5.84111E+06    -15.4022E+06    -9.34402E+06    -10.4824E+06    -3.48762E+06     3.75835E+06         71.1275
             432     9.47819E-03     72.7502E-03     414.055E-03     394.470E-03        -1.30699     411.208E-03        -1.30688     397.206E-03    -3.22394E-03     472.930E-03    -234.454E-03    -237.979E-03    -237.128E-03     472.080E-03    -234.454E-03     49.0997E-03    -3.75156E+06    -6.97637E+06    -15.5161E+06    -10.9280E+06    -11.0953E+06    -4.22074E+06     2.94233E+06         66.8001
             433     8.69193E-03     72.6706E-03     403.229E-03     386.916E-03        -1.28783     395.638E-03        -1.28776     394.440E-03    -7.42463E-03     472.818E-03    -234.288E-03    -238.416E-03    -237.708E-03     472.109E-03    -234.288E-03     44.3879E-03    -11.6698E+03    -4.58019E+06    -12.4631E+06    -8.79561E+06    -7.77846E+06    -480.848E+03     4.07918E+06         63.5100
             434     7.90448E-03     72.6120E-03     393.780E-03     369.198E-03        -1.26008     369.036E-03        -1.25992     393.780E-03    -24.4807E-03     469.988E-03    -233.702E-03    -236.875E-03    -236.470E-03     469.583E-03    -233.702E-03     33.4413E-03     3.48723E+06    -432.193E+03    -8.94834E+06    -5.86059E+06    -3.51994E+06     3.48723E+06     3.35585E+06         60.9187
             435     7.11540E-03     72.5685E-03     395.524E-03     358.226E-03        -1.25074     358.053E-03        -1.25057     395.524E-03    -23.6442E-03     468.020E-03    -233.123E-03    -235.327E-03    -235.026E-03     467.720E-03    -233.123E-03     28.9388E-03     1.71878E+06    -1.75045E+06    -10.7642E+06    -7.94240E+06    -4.57228E+06     1.71878E+06     3.48126E+06         58.8635
             436     6.32917E-03     72.5190E-03     398.451E-03     360.818E-03        -1.25482     360.607E-03        -1.25461     398.451E-03    -23.9991E-03     467.176E-03    -232.852E-03    -234.324E-03    -234.085E-03     466.936E-03    -232.852E-03     25.4218E-03     750.072E+03    -1.74292E+06    -8.43162E+06    -6.11364E+06     -4.0609E+06     750.072E+03     2.92375E+06         57.3809
             437     5.53651E-03     72.4865E-03     407.218E-03     367.358E-03        -1.26923     372.598E-03        -1.26881     401.558E-03    -9.36432E-03     465.933E-03    -232.715E-03    -233.384E-03    -233.168E-03     465.796E-03    -232.794E-03     19.3040E-03    -1.66116E+06    -3.48492E+06    -7.95726E+06    -5.84784E+06    -5.33486E+06    -1.92064E+06     2.14228E+06         56.5209
             438     4.74382E-03     72.4595E-03     422.628E-03     380.093E-03        -1.29712     398.911E-03        -1.29629     402.981E-03    -35.2316E-03     466.334E-03    -232.714E-03    -233.775E-03    -233.611E-03     466.248E-03    -232.793E-03     15.3642E-03    -5.85243E+06    -8.18953E+06    -12.3074E+06    -11.0119E+06    -9.22550E+06    -6.11191E+06     1.30856E+06         56.1893
             439     3.95701E-03     72.4350E-03     430.303E-03     392.950E-03        -1.31736     421.868E-03        -1.31652     400.545E-03    -25.7243E-03     466.535E-03    -232.639E-03    -233.970E-03    -233.927E-03     466.492E-03    -232.639E-03     10.2154E-03    -5.17124E+06    -9.26898E+06    -12.7895E+06    -12.6223E+06    -9.43616E+06    -5.17124E+06     390.773E+03         56.1113
             440     3.16767E-03     72.4165E-03     435.538E-03     392.898E-03        -1.32161     434.372E-03        -1.32044     392.898E-03    -26.4243E-03     466.618E-03    -232.713E-03    -233.895E-03    -233.183E-03     466.606E-03    -233.412E-03     4.73353E-03    -5.68154E+06    -9.50421E+06    -14.2771E+06    -11.9895E+06    -10.5630E+06    -6.91035E+06     912.523E+03         56.1153
             441     2.37307E-03     72.4119E-03     434.931E-03     374.777E-03        -1.30257     428.331E-03        -1.30052     379.334E-03    -17.6177E-03     467.534E-03    -233.014E-03    -234.576E-03    -233.005E-03     467.525E-03    -234.576E-03     2.58119E-03    -8.15982E+06    -10.7729E+06    -13.8637E+06    -10.3519E+06    -11.4279E+06    -11.0167E+06     900.556E+03         56.1383
             442     1.57549E-03     72.4037E-03     399.160E-03     358.020E-03        -1.25107     390.300E-03        -1.24851     364.317E-03    -25.6302E-03     469.361E-03    -233.737E-03    -235.694E-03    -234.464E-03     469.347E-03    -234.953E-03     2.57161E-03    -10.6454E+06    -13.3865E+06    -15.9010E+06    -12.4464E+06    -13.3487E+06    -14.1378E+06     1.13023E+06         56.1246
             443     790.257E-06     72.3953E-03     383.042E-03     335.728E-03        -1.21099     337.164E-03        -1.20631     376.925E-03     46.1587E-03     470.558E-03    -234.463E-03    -236.093E-03    -235.176E-03     470.530E-03    -235.352E-03     5.70981E-03    -7.35858E+06    -10.0962E+06    -14.5515E+06    -11.0847E+06    -11.2172E+06    -9.70434E+06     525.984E+03         56.0863
             444     13.4329E-03     71.7459E-03     363.685E-03     338.493E-03        -1.20527     337.851E-03        -1.20463     363.685E-03    -8.11524E-03     481.746E-03    -235.190E-03    -246.552E-03    -243.668E-03     478.863E-03    -235.190E-03     91.1415E-03     34.8464E+06     12.4226E+06    -2.67304E+06    -706.690E+03     10.4563E+06     34.8464E+06    -307.036E+03         91.9501
             445     12.6439E-03     71.5888E-03     361.369E-03     333.175E-03        -1.19700     332.710E-03        -1.19654     361.369E-03    -30.5680E-03     477.891E-03    -234.823E-03    -243.188E-03    -240.659E-03     475.362E-03    -234.823E-03     84.3456E-03     24.8071E+06     11.9509E+06    -2.83398E+06     2.53547E+06     6.58143E+06     24.8071E+06     4.34835E+06         88.1236
             446     11.8566E-03     71.4277E-03     359.302E-03     334.083E-03        -1.19408     333.794E-03        -1.19379     359.302E-03    -18.2354E-03     473.050E-03    -234.181E-03    -238.782E-03    -237.211E-03     471.648E-03    -234.350E-03     61.6149E-03     7.42212E+06    -533.598E+03    -11.2637E+06    -5.48656E+06    -6.31077E+06     7.42212E+06     3.49883E+06         82.7020
             447     11.0640E-03     71.3268E-03     357.371E-03     343.284E-03        -1.19952     343.042E-03        -1.19928     357.371E-03    -26.0568E-03     470.071E-03    -233.928E-03    -236.210E-03    -234.860E-03     469.072E-03    -234.279E-03     52.6457E-03    -4.48541E+06    -11.9618E+06    -15.4558E+06    -11.5729E+06    -14.4277E+06    -5.90234E+06     1.95140E+06         76.6032
             448     10.2679E-03     71.2214E-03     363.189E-03     342.774E-03        -1.20449     350.737E-03        -1.20439     355.129E-03    -7.83718E-03     469.547E-03    -234.016E-03    -235.266E-03    -234.199E-03     468.662E-03    -234.197E-03     49.2920E-03    -3.03686E+06    -6.81836E+06    -11.6649E+06    -7.06664E+06    -9.99969E+06    -4.45380E+06     1.26094E+06         71.1039
             449     9.48086E-03     71.1420E-03     369.521E-03     339.437E-03        -1.20630     356.131E-03        -1.20614     352.672E-03    -19.6757E-03     470.569E-03    -234.087E-03    -235.741E-03    -235.061E-03     469.889E-03    -234.087E-03     43.6859E-03    -1.46039E+06    -5.06201E+06    -10.0687E+06    -6.76700E+06    -7.92850E+06    -1.89564E+06    -420.845E+03         66.7777
             450     8.69123E-03     71.0603E-03     368.060E-03     345.140E-03        -1.21027     363.096E-03        -1.21012     349.951E-03    -15.9263E-03     470.889E-03    -234.152E-03    -236.270E-03    -235.639E-03     470.347E-03    -234.241E-03     38.4646E-03    -1.50609E+06    -5.84513E+06    -11.3378E+06    -8.58243E+06    -8.16524E+06    -1.94134E+06     236.436E+03         63.4918
             451     7.90160E-03     71.0067E-03     368.236E-03     341.741E-03        -1.20631     362.752E-03        -1.20608     346.995E-03    -22.3846E-03     468.895E-03    -233.699E-03    -235.486E-03    -235.062E-03     468.560E-03    -233.788E-03     30.6013E-03    -1.05735E+06    -4.27545E+06    -10.9148E+06    -8.31754E+06    -6.87275E+06    -1.05735E+06     2.01334E+06         60.9043
             452     7.11356E-03     70.9604E-03     356.377E-03     339.413E-03        -1.19094     351.121E-03        -1.19073     344.457E-03    -33.7837E-03     467.489E-03    -233.075E-03    -234.787E-03    -234.270E-03     467.160E-03    -233.262E-03     30.3688E-03     1.74913E+06    -1.38782E+06    -6.63577E+06    -4.73717E+06    -3.28643E+06     1.74913E+06     2.32672E+06         58.8537
             453     6.32203E-03     70.9162E-03     343.489E-03     332.310E-03        -1.17074     331.942E-03        -1.17037     343.489E-03    -42.3396E-03     467.036E-03    -232.933E-03    -234.064E-03    -233.589E-03     466.748E-03    -233.120E-03     28.1878E-03     1.24119E+06    -888.998E+03    -7.46533E+06    -5.17638E+06    -3.17795E+06     1.24119E+06     3.02089E+06         57.3770
             454     5.53420E-03     70.8847E-03     346.564E-03     318.746E-03        -1.15991     320.009E-03        -1.15944     344.828E-03    -51.8996E-03     467.241E-03    -233.097E-03    -234.328E-03    -234.147E-03     467.061E-03    -233.097E-03     22.1983E-03    -1.04456E+06    -2.56417E+06    -11.8325E+06    -8.41982E+06    -5.71739E+06    -1.30404E+06     4.48582E+06         56.5260
             455     4.74615E-03     70.8555E-03     352.927E-03     324.128E-03        -1.17236     329.462E-03        -1.17178     347.016E-03    -56.4843E-03     467.709E-03    -232.922E-03    -234.982E-03    -234.857E-03     467.584E-03    -232.922E-03     18.4651E-03    -115.077E+03    -1.86416E+06    -9.29179E+06    -6.50172E+06    -4.39474E+06    -374.558E+03     3.55890E+06         56.2031
             456     3.95612E-03     70.8285E-03     367.360E-03     338.792E-03        -1.20113     358.185E-03        -1.19955     346.388E-03     22.4562E-03     466.728E-03    -232.646E-03    -234.195E-03    -234.126E-03     466.660E-03    -232.646E-03     12.9580E-03    -1.64183E+06    -4.72228E+06    -8.99069E+06    -7.78098E+06    -5.93199E+06    -1.64183E+06     1.61985E+06         56.1312
             457     3.16444E-03     70.8224E-03     383.313E-03     339.275E-03        -1.21605     381.962E-03        -1.21470     339.275E-03     67.3593E-03     467.292E-03    -232.934E-03    -234.470E-03    -233.997E-03     467.274E-03    -233.389E-03     6.85112E-03    -5.50646E+06    -8.86814E+06    -12.4013E+06    -10.6695E+06    -9.63493E+06    -6.47141E+06     285.566E+03         56.1451
             458     2.37363E-03     70.8130E-03     381.058E-03     322.157E-03        -1.19542     375.950E-03        -1.19325     325.089E-03     87.5887E-03     469.422E-03    -233.316E-03    -236.256E-03    -235.562E-03     469.414E-03    -234.002E-03     3.23358E-03    -8.66014E+06    -10.5688E+06    -15.1502E+06    -11.9029E+06    -11.8635E+06    -10.6127E+06    -650.527E+03         56.1742
             459     1.58769E-03     70.8049E-03     348.720E-03     304.298E-03        -1.14308     343.436E-03        -1.14073     307.230E-03     51.4077E-03     469.225E-03    -232.717E-03    -236.480E-03    -236.245E-03     469.221E-03    -232.948E-03     161.180E-06    -9.77253E+06    -12.3497E+06    -15.5541E+06    -11.9161E+06    -12.8591E+06    -12.9012E+06    -500.868E+03         56.1561
             460     794.893E-06     70.7871E-03     316.274E-03     281.714E-03        -1.08583     295.135E-03        -1.08326     300.277E-03     49.2644E-03     464.666E-03    -230.653E-03    -233.917E-03    -233.536E-03     464.658E-03    -231.026E-03    -2.03567E-03    -8.41789E+06    -11.4430E+06    -14.1716E+06    -10.5131E+06    -12.4791E+06    -11.0404E+06     1.23025E+06         56.1134
             461     13.4201E-03     70.1280E-03     351.409E-03     319.897E-03        -1.17122     346.616E-03        -1.17056     324.035E-03    -6.07363E-03     483.906E-03    -235.118E-03    -248.839E-03    -245.538E-03     480.605E-03    -235.118E-03     97.8299E-03     30.0532E+06     8.03115E+06    -5.47579E+06    -3.96437E+06     6.51974E+06     30.0532E+06    -1.48673E+06         91.8941
             462     12.6458E-03     69.9559E-03     346.188E-03     314.484E-03        -1.16167     341.362E-03        -1.16123     318.864E-03    -21.4700E-03     482.877E-03    -234.427E-03    -248.363E-03    -245.151E-03     479.665E-03    -234.427E-03     96.1822E-03     17.3267E+06     728.014E+03    -14.4660E+06    -10.2681E+06    -3.46987E+06     17.3267E+06     4.64977E+06         88.0752
             463     11.8621E-03     69.8300E-03     336.313E-03     310.073E-03        -1.14740     332.216E-03        -1.14717     313.943E-03    -6.68030E-03     474.766E-03    -233.689E-03    -240.648E-03    -238.397E-03     472.684E-03    -233.859E-03     76.0708E-03     7.41427E+06    -3.13090E+06    -13.6419E+06    -8.98702E+06    -7.78579E+06     7.41427E+06     4.61423E+06         82.6676
             464     11.0693E-03     69.7271E-03     321.090E-03     306.029E-03        -1.12617     317.021E-03        -1.12599     309.917E-03    -20.9480E-03     469.634E-03    -233.554E-03    -236.069E-03    -234.193E-03     468.109E-03    -233.905E-03     64.6889E-03     8.84009E+06    -447.491E+03    -3.18034E+06    -1.56942E+06    -2.05841E+06     8.84009E+06     216.944E+03         76.5861
             465     10.2814E-03     69.6246E-03     309.227E-03     295.976E-03        -1.10424     298.065E-03        -1.10417     307.064E-03     10.4434E-03     468.937E-03    -233.606E-03    -235.357E-03    -233.960E-03     467.721E-03    -233.788E-03     56.9525E-03     2.53421E+06    -2.21179E+06    -6.79094E+06    -3.85344E+06    -5.14929E+06     2.53421E+06     1.29878E+06         71.1013
             466     9.48673E-03     69.5371E-03     306.112E-03     291.939E-03        -1.09600     292.740E-03        -1.09588     305.184E-03     5.21402E-03     469.153E-03    -233.751E-03    -235.113E-03    -234.229E-03     468.270E-03    -233.751E-03     48.9571E-03    -1.99630E+06    -4.02715E+06    -9.79532E+06    -5.23713E+06    -7.56771E+06    -3.01393E+06     1.65222E+06         66.7816
             467     8.69640E-03     69.4587E-03     312.489E-03     297.325E-03        -1.10661     306.451E-03        -1.10642     303.169E-03     10.9379E-03     468.533E-03    -233.553E-03    -234.585E-03    -233.534E-03     467.930E-03    -234.001E-03     40.2078E-03    -452.851E+03    -3.27026E+06    -7.73154E+06    -3.45591E+06    -5.53403E+06    -2.46471E+06    -510.109E+03         63.4968
             468     7.90332E-03     69.4050E-03     325.364E-03     298.339E-03        -1.11968     323.567E-03        -1.11951     299.962E-03     9.98057E-03     466.521E-03    -232.812E-03    -233.855E-03    -232.579E-03     466.148E-03    -233.715E-03     32.0895E-03    -4.38165E+06    -7.12224E+06    -9.23564E+06    -6.42468E+06    -8.45529E+06    -5.85956E+06    -714.005E+03         60.9085
             469     7.10962E-03     69.3568E-03     326.250E-03     295.359E-03        -1.11596     325.873E-03        -1.11581     295.583E-03    -33.5291E-06     465.876E-03    -232.563E-03    -233.580E-03    -232.372E-03     465.545E-03    -233.440E-03     30.3256E-03    -6.48241E+06    -8.98939E+06    -10.7267E+06    -9.16554E+06    -10.0669E+06    -6.96610E+06     199.269E+03         58.8585
             470     6.31953E-03     69.3138E-03     322.322E-03     288.352E-03        -1.10480     319.712E-03        -1.10452     290.684E-03    -2.17859E-03     466.940E-03    -233.112E-03    -233.826E-03    -233.141E-03     466.678E-03    -233.535E-03     26.9678E-03    -1.82063E+06    -4.17616E+06    -8.86603E+06    -7.49390E+06    -5.54829E+06    -1.82063E+06     1.58444E+06         57.3853
             471     5.52848E-03     69.2763E-03     315.341E-03     283.500E-03        -1.09335     312.887E-03        -1.09300     285.609E-03    -11.5096E-03     467.837E-03    -233.537E-03    -234.667E-03    -234.428E-03     467.658E-03    -233.597E-03     22.1946E-03     1.11644E+06    -1.19302E+06    -8.77107E+06    -7.00921E+06    -2.95488E+06     1.11644E+06     2.50620E+06         56.5401
             472     4.74088E-03     69.2485E-03     298.137E-03     279.805E-03        -1.07262     295.766E-03        -1.07173     281.281E-03    -41.9989E-03     467.907E-03    -233.402E-03    -234.631E-03    -234.360E-03     467.766E-03    -233.532E-03     19.7474E-03     2.27309E+06     324.614E+03    -7.97947E+06    -5.73772E+06    -1.91714E+06     2.27309E+06     1.59066E+06         56.2207
             473     3.95179E-03     69.2277E-03     298.568E-03     257.447E-03        -1.05021     274.418E-03        -1.04834     279.727E-03    -20.2546E-03     467.754E-03    -233.349E-03    -234.359E-03    -234.204E-03     467.669E-03    -233.419E-03     14.5441E-03     1.40269E+06    -538.400E+03    -7.65091E+06    -4.93324E+06    -2.86582E+06     1.01245E+06     2.09810E+06         56.1442
             474     3.16285E-03     69.2187E-03     302.240E-03     236.499E-03        -1.03215     253.069E-03        -1.03012     283.635E-03     7.79408E-03     470.377E-03    -234.021E-03    -236.403E-03    -236.376E-03     470.351E-03    -234.021E-03     8.34208E-03    -5.28889E+06    -8.04497E+06    -11.6897E+06     -9.0754E+06    -9.02561E+06    -6.92251E+06     2.39856E+06         56.1527
             475     2.37547E-03     69.2104E-03     298.824E-03     247.329E-03        -1.03841     249.327E-03        -1.03647     294.884E-03     12.9045E-03     472.246E-03    -234.014E-03    -238.307E-03    -238.289E-03     472.228E-03    -234.014E-03     6.90496E-03    -7.60838E+06    -10.3023E+06    -13.7786E+06    -10.1886E+06    -10.8538E+06    -10.6470E+06     632.786E+03         56.1859
             476     1.58641E-03     69.1982E-03     316.545E-03     275.000E-03        -1.08061     280.198E-03        -1.07916     309.899E-03     9.85724E-03     468.951E-03    -232.311E-03    -236.636E-03    -236.628E-03     468.943E-03    -232.311E-03     3.57470E-03    -6.33823E+06    -9.25129E+06    -13.1575E+06    -10.2248E+06    -9.77299E+06    -8.74925E+06    -144.304E+03         56.1752
             477     798.010E-06     69.2086E-03     330.504E-03     305.634E-03        -1.12561     315.594E-03        -1.12437     319.309E-03     12.8609E-03     462.825E-03    -229.617E-03    -233.145E-03    -233.138E-03     462.819E-03    -229.617E-03    -2.04790E-03    -7.26205E+06    -10.6822E+06    -13.4534E+06    -10.5810E+06    -11.4257E+06    -9.39092E+06     653.332E+03         56.1359
             478     13.4227E-03     68.4963E-03     347.648E-03     285.893E-03        -1.12967     347.198E-03        -1.12922     285.893E-03    -17.3354E-03     480.578E-03    -235.215E-03    -245.424E-03    -242.067E-03     477.221E-03    -235.215E-03     98.3091E-03     26.1410E+06     7.63306E+06    -6.94323E+06    -3.60946E+06     4.29928E+06     26.1410E+06     4.13943E+06         91.8775
             479     12.6335E-03     68.3381E-03     340.835E-03     278.668E-03        -1.11750     340.459E-03        -1.11713     278.668E-03    -32.4517E-03     479.482E-03    -234.715E-03    -245.031E-03    -241.925E-03     476.376E-03    -234.715E-03     93.8904E-03     16.3751E+06    -1.02856E+06    -14.0628E+06    -10.6845E+06    -4.40688E+06     16.3751E+06    -3.10948E+06         88.0496
             480     11.8454E-03     68.2167E-03     326.214E-03     271.961E-03        -1.09692     325.936E-03        -1.09664     271.961E-03    -27.0515E-03     475.394E-03    -234.280E-03    -241.163E-03    -239.125E-03     473.356E-03    -234.280E-03     75.4973E-03     11.9238E+06     1.30507E+06    -8.63570E+06    -4.13144E+06    -3.19919E+06     11.9238E+06    -3.22568E+06         82.6408
             481     11.0610E-03     68.1199E-03     310.322E-03     266.041E-03        -1.07442     310.034E-03        -1.07413     266.041E-03    -27.9692E-03     472.604E-03    -234.208E-03    -238.405E-03    -236.677E-03     470.876E-03    -234.208E-03     69.7094E-03     6.04474E+06    -1.91966E+06    -5.73779E+06    -2.22765E+06    -4.24670E+06     4.86164E+06     196.639E+03         76.5749
             482     10.2686E-03     68.0194E-03     295.068E-03     260.622E-03        -1.05433     295.007E-03        -1.05427     260.622E-03     4.93115E-03     471.193E-03    -234.056E-03    -237.133E-03    -235.627E-03     469.687E-03    -234.056E-03     64.7805E-03    -572.883E+03    -4.97831E+06    -10.1219E+06    -5.99338E+06    -7.92370E+06    -1.75598E+06     2.05613E+06         71.1077
             483     9.48212E-03     67.9331E-03     282.816E-03     255.701E-03        -1.03601     282.676E-03        -1.03588     255.711E-03    -1.97302E-03     469.233E-03    -233.699E-03    -235.559E-03    -234.098E-03     468.136E-03    -234.063E-03     55.4008E-03    -2.65843E+06    -5.02900E+06    -10.6881E+06    -5.82953E+06    -8.46315E+06    -4.08285E+06     3.21828E+06         66.7964
             484     8.69069E-03     67.8565E-03     265.306E-03     250.223E-03        -1.01173     263.492E-03        -1.01155     251.856E-03     2.09119E-03     468.205E-03    -233.459E-03    -234.452E-03    -232.933E-03     467.422E-03    -234.196E-03     46.3802E-03    -2.59748E+06    -5.52337E+06    -9.44113E+06    -4.48873E+06    -7.54987E+06    -5.52337E+06     2.07274E+06         63.5140
             485     7.89929E-03     67.8075E-03     258.021E-03     247.517E-03        -1.00130     256.097E-03        -1.00100     249.139E-03    -5.08784E-03     467.319E-03    -233.117E-03    -234.279E-03    -232.952E-03     466.819E-03    -233.944E-03     37.2786E-03    -2.11410E+06    -5.24558E+06    -7.84652E+06    -4.86955E+06    -6.23738E+06    -4.09926E+06     211.993E+03         60.9282
             486     7.10841E-03     67.7552E-03     279.405E-03     245.313E-03        -1.01991     279.027E-03        -1.01953     245.313E-03    -13.0507E-03     467.127E-03    -233.066E-03    -234.296E-03    -233.222E-03     466.744E-03    -233.756E-03     32.6754E-03    -1.40298E+06    -4.00766E+06    -8.49347E+06    -6.29646E+06    -5.61373E+06    -1.99393E+06     1.06216E+06         58.8814
             487     6.31726E-03     67.7092E-03     298.050E-03     238.267E-03        -1.03026     297.784E-03        -1.02999     238.267E-03    -3.38851E-03     467.690E-03    -233.580E-03    -234.207E-03    -233.707E-03     467.425E-03    -233.816E-03     26.9367E-03    -1.76250E+06    -3.63079E+06    -10.1190E+06    -7.79902E+06    -5.70061E+06    -2.01262E+06    -387.954E+03         57.4096
             488     5.52955E-03     67.6700E-03     277.604E-03     230.009E-03        -1.00132     277.379E-03        -1.00109     230.009E-03    -2.34884E-03     466.955E-03    -233.231E-03    -234.092E-03    -233.268E-03     466.806E-03    -233.906E-03     20.2076E-03     1.55695E+06    -1.24759E+06    -6.62709E+06    -4.37141E+06    -2.27541E+06     329.088E+03    -853.509E+03         56.5611
             489     4.73714E-03     67.6455E-03     240.868E-03     213.126E-03    -947.712E-03     227.613E-03    -946.966E-03     225.635E-03    -28.7696E-03     466.980E-03    -233.047E-03    -234.121E-03    -232.938E-03     466.871E-03    -234.121E-03     17.4539E-03     1.74080E+06    -1.09799E+06    -4.83633E+06    -3.34940E+06    -1.49992E+06     655.801E+03    -219.304E+03         56.2348
             490     3.94655E-03     67.6196E-03     230.282E-03     177.899E-03    -901.333E-03     176.448E-03    -899.881E-03     230.282E-03    -24.1507E-03     468.443E-03    -233.656E-03    -234.738E-03    -234.056E-03     468.369E-03    -234.263E-03     13.9723E-03    -3.32225E+06    -5.50935E+06    -10.6389E+06    -9.02771E+06    -6.73030E+06    -3.71249E+06     263.305E+03         56.1463
             491     3.15873E-03     67.6101E-03     245.175E-03     167.504E-03    -906.683E-03     165.937E-03    -905.116E-03     245.175E-03    -16.3442E-03     470.943E-03    -234.350E-03    -236.474E-03    -236.223E-03     470.900E-03    -234.558E-03     10.9123E-03    -5.19859E+06    -6.91348E+06    -11.0990E+06    -9.36936E+06    -7.97444E+06    -5.86726E+06     1.01743E+06         56.1397
             492     2.37166E-03     67.6016E-03     265.246E-03     203.562E-03    -961.291E-03     202.479E-03    -960.209E-03     265.246E-03    -16.9629E-03     473.096E-03    -234.889E-03    -237.997E-03    -237.965E-03     473.063E-03    -234.889E-03     9.21240E-03    -7.47040E+06    -9.31520E+06    -10.8959E+06    -8.93096E+06    -9.31241E+06     -9.4381E+06     721.537E+03         56.1779
             493     1.58324E-03     67.6009E-03     286.958E-03     242.709E-03        -1.02165     241.995E-03        -1.02093     286.958E-03    -6.20314E-03     471.311E-03    -234.353E-03    -236.824E-03    -236.811E-03     471.298E-03    -234.353E-03     1.51315E-03    -5.16666E+06    -9.24744E+06    -11.8313E+06    -7.54309E+06    -8.95262E+06    -9.74965E+06    -94.1098E+03         56.1924
             494     789.610E-06     67.6128E-03     317.923E-03     281.187E-03        -1.09187     280.945E-03        -1.09031     316.606E-03    -56.5427E-03     467.900E-03    -232.980E-03    -234.913E-03    -234.568E-03     467.883E-03    -233.308E-03    -5.02759E-03    -5.03681E+06    -10.4253E+06    -15.1889E+06    -8.52482E+06    -11.1450E+06    -10.9812E+06    -2.88122E+06         56.1687
             495     13.4224E-03     66.8960E-03     324.650E-03     249.217E-03        -1.06848     324.335E-03        -1.06817     249.217E-03    -7.98045E-03     479.104E-03    -235.461E-03    -243.881E-03    -240.090E-03     475.313E-03    -235.461E-03     104.132E-03     28.5666E+06     10.8767E+06    -4.36406E+06    -317.395E+03     6.83007E+06     28.5666E+06     3.62241E+06         91.9109
             496     12.6315E-03     66.7211E-03     309.581E-03     241.503E-03        -1.04693     309.269E-03        -1.04662     241.503E-03    -15.9711E-03     477.976E-03    -235.206E-03    -243.334E-03    -240.105E-03     474.747E-03    -235.206E-03     95.0617E-03     21.8142E+06     12.2841E+06    -858.484E+03     5.97269E+06     5.87767E+06     21.3895E+06    -1.67690E+06         88.0860
             497     11.8467E-03     66.6074E-03     300.043E-03     234.406E-03        -1.02991     299.781E-03        -1.02965     234.406E-03    -12.6698E-03     475.096E-03    -234.872E-03    -240.617E-03    -238.822E-03     473.302E-03    -234.872E-03     70.7597E-03     7.41472E+06     3.11857E+06    -11.2699E+06    -1.34297E+06    -5.28067E+06     5.88704E+06    -236.408E+03         82.6802
             498     11.0538E-03     66.5129E-03     295.641E-03     227.505E-03        -1.01723     295.417E-03        -1.01701     227.505E-03    -24.8745E-03     473.221E-03    -234.635E-03    -238.517E-03    -236.977E-03     471.682E-03    -234.635E-03     65.8909E-03    -2.75032E+06    -8.23122E+06    -16.1076E+06    -9.33199E+06    -12.7208E+06    -5.03637E+06     2.44978E+06         76.6120
             499     10.2683E-03     66.4073E-03     287.230E-03     220.334E-03        -1.00215     287.154E-03        -1.00207     220.334E-03    -10.1917E-03     471.662E-03    -234.473E-03    -236.966E-03    -235.487E-03     470.184E-03    -234.473E-03     64.2366E-03    -3.05668E+06    -7.79342E+06    -12.2038E+06    -7.21809E+06    -10.3057E+06    -5.53012E+06     561.452E+03         71.1409
             500     9.47628E-03     66.3267E-03     269.490E-03     213.512E-03    -977.973E-03     269.339E-03    -977.823E-03     213.512E-03    -23.6913E-03     470.096E-03    -234.265E-03    -235.658E-03    -234.216E-03     469.018E-03    -234.629E-03     54.9707E-03    -3.23477E+06    -6.51480E+06    -10.3449E+06    -5.63700E+06    -8.64143E+06    -5.81608E+06    -138.844E+03         66.8295
             501     8.68328E-03     66.2630E-03     252.500E-03     207.532E-03    -954.672E-03     252.352E-03    -954.524E-03     207.532E-03    -23.1195E-03     469.795E-03    -234.450E-03    -235.072E-03    -233.921E-03     469.022E-03    -234.827E-03     46.1932E-03    -2.79175E+06    -5.02553E+06    -9.17436E+06    -5.11899E+06    -7.28268E+06    -4.58996E+06     902.797E+03         63.5498
             502     7.89249E-03     66.1998E-03     238.910E-03     202.232E-03    -935.179E-03     238.292E-03    -934.561E-03     202.232E-03    -42.0369E-03     469.646E-03    -234.480E-03    -235.162E-03    -234.658E-03     469.155E-03    -234.493E-03     37.0076E-03    -339.772E+03    -2.66809E+06    -6.49803E+06    -3.92569E+06    -4.49400E+06    -1.08621E+06     1.45658E+06         60.9682
             503     7.10417E-03     66.1566E-03     226.311E-03     191.424E-03    -911.191E-03     219.087E-03    -910.395E-03     197.854E-03    -57.1085E-03     469.624E-03    -234.156E-03    -235.415E-03    -235.000E-03     469.209E-03    -234.156E-03     34.1568E-03     655.677E+03    -1.12874E+06    -6.71477E+06    -4.03408E+06    -3.17133E+06     17.5803E+03     2.31790E+06         58.9245
             504     6.31717E-03     66.0977E-03     222.938E-03     177.712E-03    -892.762E-03     205.421E-03    -892.325E-03     194.792E-03    -42.7694E-03     468.933E-03    -234.077E-03    -234.809E-03    -234.507E-03     468.640E-03    -234.087E-03     28.0183E-03     252.256E+03    -893.810E+03    -9.23861E+06    -5.32313E+06    -3.66323E+06    -893.810E+03     1.59119E+06         57.4524
             505     5.52637E-03     66.0691E-03     215.364E-03     181.856E-03    -889.625E-03     204.418E-03    -889.329E-03     192.506E-03    -31.5758E-03     467.490E-03    -233.476E-03    -234.199E-03    -233.436E-03     467.351E-03    -234.100E-03     19.6044E-03     319.431E+03    -1.94507E+06    -9.75345E+06    -5.77098E+06    -4.09538E+06    -1.51273E+06    -839.214E+03         56.6004
             506     4.73573E-03     66.0420E-03     219.405E-03     178.598E-03    -891.072E-03     208.299E-03    -890.999E-03     189.631E-03    -15.3179E-03     466.730E-03    -232.823E-03    -234.341E-03    -232.736E-03     466.636E-03    -234.334E-03     16.1631E-03    -1.59087E+06    -3.83893E+06    -9.51915E+06    -6.68048E+06    -5.39626E+06    -2.87220E+06     694.821E+03         56.2695
             507     3.94597E-03     66.0167E-03     241.740E-03     154.899E-03    -890.426E-03     210.706E-03    -889.494E-03     185.002E-03     37.6988E-03     467.240E-03    -232.808E-03    -234.695E-03    -232.753E-03     467.184E-03    -234.695E-03     12.1035E-03    -3.97949E+06    -5.82075E+06    -10.4956E+06    -9.17241E+06    -6.94760E+06    -4.17583E+06     433.114E+03         56.1661
             508     3.15420E-03     66.0044E-03     233.956E-03     148.314E-03    -876.769E-03     202.485E-03    -875.834E-03     178.850E-03     51.0903E-03     468.768E-03    -233.188E-03    -235.484E-03    -233.510E-03     468.731E-03    -235.125E-03     9.98664E-03    -3.01305E+06    -5.54717E+06    -9.75926E+06    -9.30633E+06    -6.00009E+06    -3.01305E+06    -459.151E+03         56.1331
             509     2.36466E-03     65.9910E-03     204.359E-03     155.960E-03    -854.502E-03     186.747E-03    -853.952E-03     173.022E-03     39.8569E-03     471.957E-03    -234.158E-03    -237.730E-03    -235.196E-03     471.926E-03    -236.660E-03     9.01314E-03    -5.11844E+06    -8.15294E+06    -10.6133E+06    -9.06693E+06    -7.99329E+06    -6.82448E+06    -369.797E+03         56.1711
             510     1.57813E-03     65.9934E-03     190.858E-03     156.268E-03    -840.591E-03     177.280E-03    -839.296E-03     168.551E-03     31.4957E-03     475.451E-03    -236.236E-03    -239.213E-03    -237.149E-03     475.426E-03    -238.275E-03     4.52327E-03    -7.40826E+06    -11.6758E+06    -14.7177E+06    -9.62250E+06    -11.3596E+06    -12.8197E+06     86.2767E+03         56.2152
             511     791.792E-06     66.0139E-03     202.605E-03     136.992E-03    -830.488E-03     144.007E-03    -825.939E-03     191.042E-03    -79.4656E-03     477.548E-03    -238.208E-03    -239.322E-03    -238.408E-03     477.520E-03    -239.095E-03    -1.91181E-03    -3.12562E+06    -10.0030E+06    -17.4047E+06    -8.34409E+06    -11.1374E+06    -11.0518E+06     1.14211E+06         56.2086
             512     13.4057E-03     65.2656E-03     318.286E-03     216.797E-03        -1.02958     317.851E-03        -1.02915     216.797E-03    -15.5790E-03     478.149E-03    -235.609E-03    -242.641E-03    -239.175E-03     474.683E-03    -235.609E-03     98.8930E-03     25.0896E+06     8.68118E+06    -561.576E+03     2.75907E+06     5.36054E+06     25.0896E+06     1.23960E+06         91.9853
             513     12.6220E-03     65.1133E-03     297.195E-03     208.299E-03    -999.232E-03     296.615E-03    -998.652E-03     208.299E-03    -30.9347E-03     476.725E-03    -235.256E-03    -241.753E-03    -238.730E-03     473.947E-03    -235.502E-03     87.4773E-03     10.3532E+06     2.82584E+06    -5.91230E+06     752.549E+03    -3.41429E+06     9.92847E+06     3.10851E+06         88.1678
             514     11.8325E-03     64.9835E-03     282.915E-03     200.458E-03    -975.691E-03     282.540E-03    -975.316E-03     200.458E-03    -21.1322E-03     472.876E-03    -234.924E-03    -238.242E-03    -236.192E-03     471.190E-03    -235.288E-03     68.2301E-03     3.85870E+06     298.791E+03    -10.8902E+06    -1.91132E+06    -7.15239E+06     2.33103E+06     5.50208E+06         82.7601
             515     11.0507E-03     64.9101E-03     267.546E-03     193.125E-03    -951.400E-03     267.345E-03    -951.200E-03     193.125E-03    -29.0626E-03     472.154E-03    -235.049E-03    -237.217E-03    -235.525E-03     470.581E-03    -235.167E-03     66.3497E-03     2.81235E+06    -1.42822E+06    -9.08504E+06    -2.53522E+06    -5.84767E+06     681.984E+03     3.09136E+06         76.6787
             516     10.2557E-03     64.7987E-03     257.224E-03     185.859E-03    -932.918E-03     257.152E-03    -932.846E-03     185.859E-03    -15.3924E-03     471.633E-03    -235.063E-03    -236.375E-03    -234.788E-03     470.045E-03    -235.063E-03     66.6438E-03     290.549E+03    -5.18453E+06    -8.43181E+06    -4.33044E+06    -6.96815E+06    -2.02721E+06    -673.694E+03         71.1967
             517     9.46674E-03     64.7251E-03     251.527E-03     178.371E-03    -921.187E-03     251.414E-03    -921.075E-03     178.371E-03    -4.95311E-03     472.020E-03    -235.271E-03    -236.394E-03    -235.273E-03     470.899E-03    -235.271E-03     56.1715E-03    -2.16189E+06    -6.22591E+06    -8.93538E+06    -5.68610E+06    -7.73592E+06    -3.90116E+06    -1.64336E+06         66.8840
             518     8.68050E-03     64.6534E-03     242.302E-03     170.584E-03    -904.768E-03     242.191E-03    -904.657E-03     170.584E-03    -3.18273E-03     472.277E-03    -235.506E-03    -236.651E-03    -235.849E-03     471.475E-03    -235.506E-03     47.2831E-03    -2.06293E+06    -4.55989E+06    -7.85020E+06    -4.73496E+06    -6.34574E+06    -3.39232E+06    -999.900E+03         63.6090
             519     7.89127E-03     64.5952E-03     220.135E-03     163.141E-03    -874.760E-03     219.590E-03    -874.215E-03     163.141E-03    -12.6740E-03     471.588E-03    -234.977E-03    -236.731E-03    -236.194E-03     471.051E-03    -234.977E-03     38.6535E-03    -3.70469E+06    -5.90065E+06    -9.17687E+06    -5.62211E+06    -7.69503E+06    -5.46508E+06     1.01743E+06         61.0317
             520     7.10100E-03     64.5390E-03     185.311E-03     151.546E-03    -827.971E-03     178.223E-03    -827.313E-03     157.975E-03    -16.8162E-03     470.583E-03    -234.427E-03    -236.211E-03    -235.807E-03     470.180E-03    -234.427E-03     33.6054E-03    -1.31117E+06    -3.91227E+06    -8.34142E+06    -4.19492E+06    -5.45768E+06    -3.91227E+06     535.047E+03         58.9895
             521     6.31160E-03     64.4865E-03     163.311E-03     139.360E-03    -791.913E-03     145.838E-03    -791.520E-03     156.440E-03    -10.1831E-03     469.183E-03    -234.324E-03    -234.922E-03    -234.605E-03     468.922E-03    -234.381E-03     26.3542E-03     1.45493E+06    -936.498E+03    -5.33659E+06    -2.00411E+06    -1.94349E+06    -870.551E+03     511.986E+03         57.5159
             522     5.52438E-03     64.4555E-03     161.174E-03     144.265E-03    -795.501E-03     148.301E-03    -795.205E-03     156.841E-03    -9.62289E-03     468.830E-03    -234.301E-03    -234.658E-03    -234.469E-03     468.697E-03    -234.357E-03     19.2582E-03    -2.52443E+06    -3.65215E+06    -9.95437E+06    -7.38641E+06    -5.61582E+06    -3.12872E+06     876.039E+03         56.6616
             523     4.73681E-03     64.4359E-03     189.407E-03     152.084E-03    -833.805E-03     187.178E-03    -833.502E-03     154.010E-03    -24.5268E-03     467.984E-03    -233.717E-03    -234.730E-03    -233.931E-03     467.897E-03    -234.429E-03     15.3757E-03    -3.37833E+06    -4.69700E+06    -12.9130E+06    -10.1588E+06    -7.25483E+06    -3.57467E+06     496.760E+03         56.3284
             524     3.94491E-03     64.4121E-03     227.424E-03     142.261E-03    -863.525E-03     226.780E-03    -862.881E-03     142.261E-03    -4.43608E-03     466.724E-03    -232.386E-03    -234.769E-03    -232.342E-03     466.679E-03    -234.769E-03     10.9668E-03     269.598E+03    -1.54380E+06    -8.65930E+06    -5.67955E+06    -3.61655E+06    -637.404E+03     1.85625E+06         56.2154
             525     3.15457E-03     64.3925E-03     223.313E-03     120.626E-03    -838.995E-03     222.933E-03    -838.615E-03     120.626E-03     15.8125E-03     467.019E-03    -231.475E-03    -235.560E-03    -231.450E-03     466.994E-03    -235.560E-03     8.32425E-03    -612.417E+03    -3.23345E+06    -8.71250E+06    -6.64986E+06    -4.58543E+06    -1.32308E+06     1.29243E+06         56.1652
             526     2.36172E-03     64.3851E-03     179.601E-03     93.2468E-03    -768.168E-03     179.067E-03    -767.635E-03     93.2468E-03     2.65721E-03     470.267E-03    -232.257E-03    -238.197E-03    -232.240E-03     470.250E-03    -238.197E-03     5.23997E-03    -4.53748E+06    -8.12742E+06    -11.5581E+06    -9.46673E+06    -8.51273E+06    -6.24352E+06     98.9454E+03         56.1970
             527     1.56453E-03     64.3829E-03     122.374E-03     65.0042E-03    -677.949E-03     120.903E-03    -676.478E-03     65.0042E-03     36.8746E-03     477.312E-03    -235.561E-03    -241.911E-03    -235.543E-03     477.295E-03    -241.911E-03     3.93255E-03    -8.03796E+06    -11.1777E+06    -15.3835E+06    -12.2272E+06    -11.8163E+06    -10.5557E+06     604.230E+03         56.2503
             528     777.349E-06     64.3824E-03     114.426E-03     3.82075E-03    -605.064E-03     10.5402E-03    -591.107E-03     93.7501E-03    -69.0722E-03     487.450E-03    -240.805E-03    -246.528E-03    -240.792E-03     487.438E-03    -246.528E-03     3.65831E-03    -1.22788E+06    -7.25908E+06    -15.3269E+06    -8.47077E+06    -8.49087E+06    -6.85220E+06     515.184E+03         56.2491
             529     13.4225E-03     63.6856E-03     319.644E-03     191.393E-03        -1.00078     319.267E-03        -1.00041     191.393E-03    -13.1062E-03     477.224E-03    -235.540E-03    -241.702E-03    -238.286E-03     473.809E-03    -235.540E-03     98.1242E-03     24.2457E+06     5.89427E+06    -7.04124E+06    -2.62033E+06     1.47336E+06     24.2457E+06     3.01363E+06         92.0853
             530     12.6310E-03     63.5062E-03     300.745E-03     181.778E-03    -972.601E-03     300.275E-03    -972.131E-03     181.778E-03    -32.5857E-03     472.870E-03    -235.239E-03    -237.840E-03    -234.830E-03     470.106E-03    -235.484E-03     86.9629E-03     15.8784E+06     1.86429E+06    -11.4008E+06    -6.00298E+06    -3.53355E+06     15.8784E+06     2.84561E+06         88.2703
             531     11.8369E-03     63.3824E-03     281.553E-03     172.591E-03    -942.823E-03     281.270E-03    -942.540E-03     172.591E-03    -24.3145E-03     470.456E-03    -234.768E-03    -235.904E-03    -233.481E-03     468.741E-03    -235.476E-03     68.1258E-03     8.67537E+06     2.09658E+06    -7.23963E+06    -1.69203E+06    -3.45103E+06     8.67537E+06     927.188E+03         82.8552
             532     11.0367E-03     63.2899E-03     260.871E-03     163.923E-03    -912.776E-03     260.720E-03    -912.625E-03     163.923E-03    -13.3330E-03     471.340E-03    -235.169E-03    -236.326E-03    -234.530E-03     470.006E-03    -235.632E-03     60.9815E-03    -856.680E+03    -3.63175E+06    -8.79153E+06    -2.26240E+06    -8.11090E+06    -2.90666E+06     1.78608E+06         76.7638
             533     10.2501E-03     63.1961E-03     243.103E-03     155.532E-03    -885.645E-03     242.874E-03    -885.416E-03     155.532E-03    -12.2885E-03     472.154E-03    -235.425E-03    -236.467E-03    -235.050E-03     470.901E-03    -235.590E-03     58.8256E-03     2.68474E+06    -2.96745E+06    -5.53217E+06     303.178E+03    -4.74335E+06    -1.37470E+06     724.452E+03         71.2776
             534     9.46058E-03     63.1074E-03     228.651E-03     147.325E-03    -863.590E-03     228.399E-03    -863.338E-03     147.325E-03    -5.52006E-03     471.451E-03    -234.707E-03    -236.384E-03    -234.413E-03     470.545E-03    -235.772E-03     50.2519E-03     2.91926E+06    -2.77247E+06    -4.21770E+06     29.3922E+03    -3.65258E+06    -447.721E+03     98.3764E+03         66.9633
             535     8.67022E-03     63.0440E-03     207.949E-03     139.638E-03    -836.061E-03     207.640E-03    -835.752E-03     139.638E-03    -5.05120E-03     472.543E-03    -235.125E-03    -237.377E-03    -235.726E-03     471.792E-03    -236.025E-03     45.9492E-03    -4.76766E+06    -8.29941E+06    -12.0623E+06    -7.68618E+06    -9.87582E+06    -7.56741E+06     1.46289E+06         63.6869
             536     7.88302E-03     62.9733E-03     184.282E-03     133.001E-03    -806.214E-03     183.884E-03    -805.817E-03     133.001E-03    -5.23299E-03     473.698E-03    -235.450E-03    -238.250E-03    -237.657E-03     473.106E-03    -235.450E-03     40.8644E-03    -3.10128E+06    -5.72721E+06    -10.3903E+06    -6.58363E+06    -7.45090E+06    -5.18425E+06     1.14001E+06         61.1122
             537     7.10001E-03     62.9186E-03     175.126E-03     126.976E-03    -790.906E-03     174.603E-03    -790.383E-03     126.976E-03    -6.25039E-03     471.956E-03    -234.849E-03    -237.194E-03    -236.765E-03     471.527E-03    -234.849E-03     34.6923E-03     991.313E+03    -1.94457E+06    -5.75965E+06    -2.58011E+06    -3.05385E+06    -1.07895E+06    -778.812E+03         59.0734
             538     6.31217E-03     62.8803E-03     171.812E-03     120.406E-03    -780.572E-03     171.329E-03    -780.090E-03     120.406E-03    -6.31413E-03     470.220E-03    -234.721E-03    -235.634E-03    -235.308E-03     469.941E-03    -234.768E-03     27.4787E-03    -550.791E+03    -3.08753E+06    -5.79601E+06    -3.84388E+06    -3.61012E+06    -1.98032E+06    -1.15339E+06         57.6004
             539     5.52148E-03     62.8498E-03     153.859E-03     111.891E-03    -754.162E-03     151.558E-03    -753.787E-03     113.817E-03    -10.1757E-03     470.029E-03    -234.679E-03    -235.498E-03    -235.305E-03     469.883E-03    -234.726E-03     19.9407E-03    -2.21659E+06    -3.86627E+06    -6.72452E+06    -4.84182E+06    -4.55555E+06    -3.41001E+06     522.906E+03         56.7423
             540     4.73310E-03     62.8222E-03     133.881E-03     98.8234E-03    -722.273E-03     122.807E-03    -721.715E-03     109.340E-03    -38.8709E-03     469.449E-03    -234.541E-03    -235.225E-03    -234.999E-03     469.367E-03    -234.686E-03     14.9767E-03    -3.43899E+06    -5.07005E+06    -8.97304E+06    -6.90806E+06    -5.94162E+06    -4.63241E+06     276.974E+03         56.4049
             541     3.94641E-03     62.8082E-03     136.211E-03     79.5524E-03    -707.626E-03     107.149E-03    -706.797E-03     107.786E-03    -8.29490E-03     468.455E-03    -233.731E-03    -234.933E-03    -233.858E-03     468.414E-03    -234.765E-03     10.3287E-03    -1.64703E+06    -3.19751E+06    -9.28910E+06    -6.74255E+06    -5.03339E+06    -2.35770E+06     153.011E+03         56.2927
             542     3.15359E-03     62.7910E-03     154.539E-03     65.2376E-03    -713.827E-03     112.232E-03    -713.241E-03     106.958E-03     16.0556E-03     467.330E-03    -231.995E-03    -235.332E-03    -231.981E-03     467.314E-03    -235.330E-03     5.94741E-03     281.132E+03    -1.88164E+06    -8.27997E+06    -5.49309E+06    -3.95786E+06    -429.533E+03     828.411E+03         56.2412
             543     2.36153E-03     62.7814E-03     159.046E-03     63.2715E-03    -716.095E-03     117.984E-03    -715.791E-03     104.029E-03    -11.4130E-03     470.365E-03    -232.754E-03    -237.790E-03    -232.748E-03     470.359E-03    -237.790E-03     2.19998E-03    -4.94703E+06    -7.22617E+06    -11.2500E+06    -9.46079E+06    -8.46917E+06    -5.49326E+06     269.627E+03         56.2652
             544     1.57376E-03     62.7737E-03     135.427E-03     73.5165E-03    -701.147E-03     107.707E-03    -700.275E-03     100.365E-03     11.2675E-03     477.085E-03    -236.074E-03    -241.091E-03    -236.157E-03     477.081E-03    -241.005E-03     1.00336E-03    -5.82179E+06    -7.80404E+06    -11.9949E+06    -8.78490E+06    -8.91391E+06    -7.92192E+06    -670.481E+03         56.3084
             545     780.662E-06     62.7511E-03     162.326E-03     52.2749E-03    -706.038E-03     47.0888E-03    -691.740E-03     153.214E-03    -96.0214E-03     484.877E-03    -239.567E-03    -245.185E-03    -239.649E-03     484.873E-03    -245.098E-03     2.49941E-03    -5.57849E+06    -10.7027E+06    -18.7274E+06    -11.6444E+06    -12.1889E+06    -11.1753E+06    -823.176E+03         56.3005
             546     13.4107E-03     62.0399E-03     318.216E-03     171.057E-03    -973.417E-03     317.941E-03    -973.143E-03     171.057E-03     818.084E-06     474.690E-03    -234.997E-03    -239.786E-03    -235.612E-03     471.139E-03    -235.621E-03     100.054E-03     27.9515E+06     7.47443E+06    -8.42124E+06    -4.35318E+06     3.40637E+06     27.9515E+06    -914.182E+03         92.1734
             547     12.6145E-03     61.8916E-03     297.279E-03     160.747E-03    -945.182E-03     297.086E-03    -944.989E-03     160.747E-03    -6.75689E-03     471.099E-03    -234.601E-03    -236.470E-03    -232.236E-03     467.915E-03    -235.650E-03     93.9951E-03     20.4559E+06     7.50882E+06    -9.55709E+06    -3.07368E+06     1.02541E+06     20.4559E+06     947.356E+03         88.3494
             548     11.8255E-03     61.7715E-03     275.120E-03     150.841E-03    -912.927E-03     274.914E-03    -912.722E-03     150.841E-03    -6.88355E-03     472.069E-03    -234.970E-03    -236.970E-03    -234.165E-03     470.033E-03    -235.740E-03     74.8483E-03     5.83500E+06    -2.69615E+06    -13.1690E+06    -7.93820E+06    -7.92700E+06     5.83500E+06     1.41347E+06         82.9310
             549     11.0435E-03     61.6799E-03     255.990E-03     141.417E-03    -883.923E-03     255.807E-03    -883.740E-03     141.417E-03    -11.5840E-03     474.262E-03    -235.548E-03    -238.560E-03    -236.619E-03     472.665E-03    -235.892E-03     66.6604E-03     2.69122E+06    -3.22180E+06    -9.43867E+06    -4.69485E+06    -6.94304E+06     1.66865E+06     2.10575E+06         76.8497
             550     10.2534E-03     61.5784E-03     232.101E-03     132.468E-03    -850.721E-03     231.795E-03    -850.415E-03     132.468E-03    -17.5758E-03     473.934E-03    -235.592E-03    -237.784E-03    -236.306E-03     472.621E-03    -235.757E-03     59.8040E-03     5.34266E+06    -1.69066E+06    -6.37625E+06     1.57266E+06    -3.88146E+06    -415.467E+03     3.36763E+06         71.3741
             551     9.46202E-03     61.5067E-03     197.883E-03     124.721E-03    -808.144E-03     197.513E-03    -807.775E-03     124.721E-03    -12.6396E-03     471.601E-03    -234.810E-03    -236.377E-03    -234.457E-03     470.745E-03    -235.874E-03     48.9825E-03     2.13469E+06    -4.23869E+06    -7.97551E+06    -8.47436E+03    -5.83235E+06    -4.23869E+06     2.53783E+06         67.0619
             552     8.66837E-03     61.4289E-03     173.789E-03     118.429E-03    -778.653E-03     173.347E-03    -778.211E-03     118.429E-03    -13.9830E-03     472.402E-03    -235.181E-03    -237.129E-03    -235.561E-03     471.734E-03    -236.081E-03     43.1451E-03    -2.36260E+06    -5.84588E+06    -9.48201E+06    -4.34929E+06    -7.49532E+06    -5.84588E+06     1.59083E+06         63.7843
             553     7.88100E-03     61.3625E-03     171.463E-03     112.329E-03    -771.134E-03     171.006E-03    -770.677E-03     112.329E-03    -17.4436E-03     472.151E-03    -235.008E-03    -237.278E-03    -236.176E-03     471.685E-03    -235.644E-03     36.1139E-03    -961.999E+03    -3.45388E+06    -7.37489E+06    -3.98304E+06    -4.89681E+06    -2.91091E+06     620.996E+03         61.2087
             554     7.09080E-03     61.3100E-03     172.760E-03     105.114E-03    -765.267E-03     172.057E-03    -764.565E-03     105.114E-03    -25.5359E-03     470.831E-03    -234.454E-03    -236.610E-03    -235.349E-03     470.446E-03    -235.330E-03     32.8418E-03    -2.12279E+06    -3.49288E+06    -6.24886E+06    -5.08619E+06    -4.55209E+06    -2.22626E+06    -78.6111E+03         59.1691
             555     6.30397E-03     61.2744E-03     169.491E-03     96.4351E-03    -754.325E-03     168.780E-03    -753.614E-03     96.4351E-03    -43.1413E-03     471.638E-03    -235.100E-03    -236.422E-03    -235.870E-03     471.327E-03    -235.340E-03     29.4588E-03    -796.415E+03    -2.34304E+06    -5.94359E+06    -4.76500E+06    -3.41726E+06    -900.790E+03     1.40494E+06         57.6971
             556     5.52040E-03     61.2350E-03     151.449E-03     87.0414E-03    -726.627E-03     151.076E-03    -726.254E-03     87.0414E-03    -27.8653E-03     471.783E-03    -235.284E-03    -236.419E-03    -236.236E-03     471.601E-03    -235.284E-03     22.2748E-03    -309.870E+03    -3.28639E+06    -7.25903E+06    -5.38530E+06    -3.86232E+06    -1.60767E+06     826.407E+03         56.8398
             557     4.73187E-03     61.2147E-03     113.698E-03     71.7664E-03    -672.556E-03     103.527E-03    -670.974E-03     80.3566E-03    -52.4249E-03     471.127E-03    -235.231E-03    -236.071E-03    -235.970E-03     471.026E-03    -235.231E-03     16.6399E-03    -1.35310E+06    -3.80980E+06    -6.27591E+06    -4.82073E+06    -4.07156E+06    -2.54653E+06     422.254E+03         56.5029
             558     3.94221E-03     61.1946E-03     88.6991E-03     43.0025E-03    -620.691E-03     48.2509E-03    -618.868E-03     81.6271E-03    -17.0956E-03     470.970E-03    -235.103E-03    -236.127E-03    -236.077E-03     470.919E-03    -235.103E-03     11.3257E-03    -4.20837E+06    -4.62296E+06    -8.35999E+06    -6.86354E+06    -6.11940E+06    -4.20837E+06    -1.12213E+06         56.3917
             559     3.15766E-03     61.1883E-03     94.2689E-03     19.2703E-03    -604.203E-03     18.7258E-03    -603.658E-03     94.2689E-03     23.9184E-03     470.619E-03    -234.015E-03    -236.557E-03    -235.563E-03     470.604E-03    -234.994E-03     5.81096E-03    -3.50485E+06    -4.83980E+06    -9.61212E+06    -7.77508E+06    -6.67685E+06    -3.50485E+06    -711.475E+03         56.3377
             560     2.36681E-03     61.1780E-03     116.828E-03     37.8180E-03    -647.499E-03     37.1289E-03    -646.810E-03     116.828E-03     26.6048E-03     472.366E-03    -234.623E-03    -237.645E-03    -236.041E-03     472.361E-03    -236.221E-03     2.94904E-03    -2.88133E+06    -6.66664E+06    -9.79562E+06    -6.30171E+06    -7.03342E+06    -6.00846E+06     946.664E+03         56.3543
             561     1.57537E-03     61.1576E-03     142.164E-03     95.8225E-03    -733.870E-03     92.6543E-03    -730.701E-03     142.164E-03     75.6172E-03     475.210E-03    -236.749E-03    -238.452E-03    -237.822E-03     475.199E-03    -237.368E-03     4.44934E-03    -7.02984E+06    -10.4612E+06    -13.1018E+06    -8.61726E+06    -10.2647E+06    -11.7109E+06     211.371E+03         56.3859
             562     794.028E-06     61.1356E-03     196.004E-03     120.565E-03    -812.745E-03     112.004E-03    -804.183E-03     196.004E-03    -51.3141E-03     474.928E-03    -236.699E-03    -238.198E-03    -237.758E-03     474.855E-03    -237.066E-03     10.7412E-03    -3.35769E+06    -8.57334E+06    -13.3792E+06    -6.56212E+06     -9.4904E+06    -9.25766E+06     1.30014E+06         56.3630
             563     13.4103E-03     60.4538E-03     313.108E-03     156.481E-03    -955.299E-03     312.877E-03    -955.067E-03     156.481E-03    -12.2268E-03     473.000E-03    -234.580E-03    -238.209E-03    -233.627E-03     469.713E-03    -235.876E-03     95.6403E-03     19.9574E+06     4.04419E+06    -6.38405E+06    -1.64703E+06    -692.831E+03     19.9574E+06    -2.44130E+06         92.2425
             564     12.6156E-03     60.2935E-03     292.784E-03     146.348E-03    -924.800E-03     292.591E-03    -924.607E-03     146.348E-03    -15.4933E-03     471.738E-03    -234.467E-03    -237.346E-03    -232.770E-03     468.727E-03    -236.031E-03     90.6979E-03     10.8069E+06     2.03183E+06    -10.0742E+06    -2.64388E+06    -5.39848E+06     10.8069E+06     96.4200E+03         88.4090
             565     11.8193E-03     60.1609E-03     267.273E-03     136.624E-03    -891.467E-03     267.097E-03    -891.291E-03     136.624E-03    -12.4527E-03     470.637E-03    -233.801E-03    -236.990E-03    -232.735E-03     468.769E-03    -236.188E-03     72.3499E-03     7.88195E+06    -287.084E+03    -8.85134E+06    -2.97255E+06    -5.01997E+06     6.73604E+06     2.52371E+06         82.9840
             566     11.0252E-03     60.0691E-03     237.611E-03     127.738E-03    -852.910E-03     237.456E-03    -852.755E-03     127.738E-03    -13.0581E-03     473.900E-03    -234.921E-03    -238.799E-03    -235.490E-03     472.039E-03    -236.368E-03     72.5182E-03     5.83615E+06    -1.21363E+06    -8.29213E+06    -3.73706E+06    -4.62278E+06     4.69024E+06    -171.709E+03         76.9042
             567     10.2421E-03     59.9638E-03     210.831E-03     119.846E-03    -817.724E-03     210.625E-03    -817.518E-03     119.846E-03    -16.4222E-03     475.558E-03    -236.272E-03    -238.688E-03    -237.153E-03     474.023E-03    -236.272E-03     65.1700E-03    -654.242E+03    -8.07654E+06    -14.7343E+06    -9.67685E+06    -10.4079E+06    -3.38034E+06     1.89600E+06         71.4408
             568     9.45475E-03     59.8957E-03     196.953E-03     112.466E-03    -795.124E-03     196.639E-03    -794.810E-03     112.466E-03    -5.28863E-03     475.172E-03    -236.362E-03    -238.517E-03    -237.401E-03     474.056E-03    -236.362E-03     56.2120E-03     988.463E+03    -5.89984E+06    -12.7385E+06    -6.08266E+06    -7.89548E+06    -3.67172E+06     4.26365E+06         67.1451
             569     8.67167E-03     59.8141E-03     186.439E-03     104.861E-03    -778.043E-03     185.942E-03    -777.545E-03     104.861E-03    -11.5276E-03     474.863E-03    -236.416E-03    -238.540E-03    -237.593E-03     473.915E-03    -236.416E-03     51.0369E-03     5.56572E+06     2.05503E+06    -2.25060E+06     3.01090E+06     304.216E+03     2.05503E+06     2.25714E+06         63.8787
             570     7.88238E-03     59.7464E-03     171.341E-03     97.0130E-03    -756.343E-03     170.761E-03    -755.763E-03     97.0130E-03    -7.11669E-03     471.337E-03    -235.144E-03    -236.660E-03    -235.327E-03     470.764E-03    -235.904E-03     39.5052E-03     1.69422E+06    -1.95257E+06    -4.49379E+06     56.0949E+03    -2.85567E+06    -1.95257E+06     1.46581E+06         61.3048
             571     7.09091E-03     59.7053E-03     150.274E-03     89.5412E-03    -728.325E-03     149.731E-03    -727.782E-03     89.5412E-03    -4.98616E-03     469.396E-03    -234.097E-03    -235.800E-03    -233.662E-03     468.961E-03    -235.800E-03     34.6047E-03    -1.14109E+06    -4.14111E+06    -7.77298E+06    -4.10634E+06    -5.20872E+06    -3.74011E+06     424.663E+03         59.2626
             572     6.30054E-03     59.6498E-03     122.895E-03     83.4286E-03    -696.495E-03     122.248E-03    -695.849E-03     83.4286E-03    -22.1690E-03     471.093E-03    -234.674E-03    -236.365E-03    -234.669E-03     470.758E-03    -236.035E-03     30.3384E-03    -2.90178E+06    -4.21610E+06    -7.95621E+06    -6.19071E+06    -5.34839E+06    -3.53499E+06     213.581E+03         57.7882
             573     5.51071E-03     59.6180E-03     104.889E-03     75.1279E-03    -669.428E-03     100.144E-03    -668.883E-03     79.3281E-03     10.9971E-03     472.975E-03    -235.722E-03    -237.032E-03    -236.415E-03     472.776E-03    -236.140E-03     23.5373E-03    -864.197E+03    -2.85162E+06    -6.88231E+06    -5.63821E+06    -3.70196E+06    -1.25796E+06     1.82705E+06         56.9314
             574     4.72582E-03     59.6042E-03     98.2467E-03     72.2792E-03    -658.763E-03     92.4914E-03    -657.207E-03     76.4794E-03    -24.0836E-03     473.738E-03    -236.093E-03    -237.554E-03    -237.434E-03     473.618E-03    -236.093E-03     18.3596E-03     750.165E+03    -1.74720E+06    -6.12923E+06    -5.04744E+06    -2.53960E+06     460.773E+03     1.80852E+06         56.5962
             575     3.94087E-03     59.5838E-03     97.2936E-03     63.7294E-03    -649.709E-03     84.8014E-03    -647.608E-03     74.1209E-03    -8.23985E-03     473.448E-03    -235.836E-03    -237.844E-03    -237.783E-03     473.387E-03    -235.836E-03     12.6342E-03    -1.45004E+06    -3.22007E+06    -8.33853E+06    -5.96050E+06    -4.76004E+06    -2.28809E+06     1.88388E+06         56.4840
             576     3.15201E-03     59.5682E-03     107.951E-03     39.7332E-03    -637.830E-03     73.3179E-03    -636.474E-03     73.0113E-03     4.60638E-03     474.057E-03    -235.263E-03    -238.884E-03    -238.857E-03     474.030E-03    -235.263E-03     8.67070E-03    -3.46190E+06    -4.69498E+06    -9.33552E+06    -6.81827E+06    -6.37417E+06    -4.29995E+06     680.164E+03         56.4293
             577     2.37062E-03     59.5667E-03     109.742E-03     35.1408E-03    -637.707E-03     69.6274E-03    -635.844E-03     73.3935E-03    -20.3136E-03     476.233E-03    -235.206E-03    -240.928E-03    -240.912E-03     476.218E-03    -235.206E-03     5.65579E-03    -3.86537E+06    -6.90677E+06    -9.24024E+06    -6.49096E+06    -7.07515E+06    -6.44627E+06     523.996E+03         56.4474
             578     1.58521E-03     59.5547E-03     92.9906E-03     54.9848E-03    -643.349E-03     69.7766E-03    -639.628E-03     74.4776E-03     43.7762E-03     473.916E-03    -234.244E-03    -239.565E-03    -239.553E-03     473.904E-03    -234.244E-03     2.66824E-03    -6.50174E+06    -10.0660E+06    -11.2472E+06    -8.57179E+06    -9.47535E+06    -9.76784E+06     1.41700E+06         56.4778
             579     788.752E-06     59.5305E-03     118.049E-03     42.7614E-03    -658.622E-03     73.2027E-03    -645.899E-03     74.8848E-03    -73.7527E-03     466.195E-03    -231.319E-03    -234.823E-03    -234.737E-03     466.109E-03    -231.319E-03     4.90974E-03    -4.67627E+06     -9.1103E+06    -11.8587E+06    -8.02701E+06    -9.82411E+06    -7.79415E+06     245.750E+03         56.4450
             580     13.3951E-03     58.8532E-03     309.111E-03     149.415E-03    -946.706E-03     309.014E-03    -946.609E-03     149.415E-03    -2.93611E-03     471.928E-03    -233.956E-03    -237.625E-03    -232.341E-03     468.680E-03    -235.992E-03     94.5422E-03     17.3110E+06     2.14078E+06    -5.97211E+06    -1.68971E+06    -2.14162E+06     17.3110E+06     1.34062E+06         92.3024
             581     12.6091E-03     58.6738E-03     281.419E-03     139.963E-03    -908.080E-03     281.335E-03    -907.997E-03     139.963E-03    -4.24466E-03     473.528E-03    -235.705E-03    -237.863E-03    -234.298E-03     470.478E-03    -236.220E-03     91.1262E-03     14.4735E+06     2.96254E+06    -7.03002E+06    -1.42539E+06    -2.64208E+06     14.4735E+06     1.05135E+06         88.4651
             582     11.8205E-03     58.5744E-03     254.291E-03     131.223E-03    -874.698E-03     254.186E-03    -874.593E-03     131.223E-03    -6.56824E-03     470.678E-03    -234.411E-03    -236.508E-03    -232.759E-03     468.892E-03    -236.373E-03     70.8519E-03     5.77454E+06    -1.56057E+06    -8.26856E+06    -2.60836E+06    -6.07486E+06     4.62863E+06    -480.227E+03         83.0427
             583     11.0255E-03     58.4575E-03     231.222E-03     123.170E-03    -844.409E-03     231.032E-03    -844.220E-03     123.170E-03     2.36586E-03     470.960E-03    -233.894E-03    -237.067E-03    -232.718E-03     469.401E-03    -236.685E-03     65.9794E-03    -1.06575E+06    -5.55173E+06    -13.1265E+06    -6.51750E+06    -10.1815E+06    -3.04495E+06     530.306E+03         76.9660
             584     10.2312E-03     58.3485E-03     214.363E-03     115.452E-03    -818.267E-03     214.076E-03    -817.980E-03     115.452E-03    -3.78158E-03     472.680E-03    -234.763E-03    -237.697E-03    -234.488E-03     471.522E-03    -236.815E-03     56.4905E-03     344.414E+03    -3.96781E+06    -11.8454E+06    -7.19015E+06    -7.73184E+06    -546.810E+03    -634.179E+03         71.5026
             585     9.44524E-03     58.2766E-03     207.245E-03     107.408E-03    -801.558E-03     207.021E-03    -801.333E-03     107.408E-03    -6.62418E-03     475.268E-03    -236.281E-03    -238.807E-03    -237.075E-03     474.244E-03    -236.989E-03     53.5872E-03     2.14064E+06    -2.00538E+06    -9.60992E+06    -4.77032E+06    -4.92709E+06     222.742E+03     54.3233E+03         67.2111
             586     8.65656E-03     58.1891E-03     195.939E-03     98.7668E-03    -782.521E-03     195.492E-03    -782.074E-03     98.7668E-03    -15.2753E-03     475.728E-03    -236.884E-03    -238.786E-03    -237.663E-03     474.811E-03    -237.091E-03     49.9837E-03     3.65527E+06     1.11447E+06    -4.45669E+06    -97.2329E+03    -1.09211E+06     1.50239E+06     1.94693E+06         63.9519
             587     7.87056E-03     58.1348E-03     168.964E-03     90.4375E-03    -748.898E-03     168.396E-03    -748.330E-03     90.4375E-03    -8.45106E-03     473.034E-03    -236.159E-03    -237.122E-03    -236.058E-03     472.430E-03    -236.620E-03     40.8773E-03     2.98005E+06    -125.285E+03    -2.70107E+06     543.338E+03    -1.11004E+06     720.401E+03     2.16329E+06         61.3808
             588     7.08393E-03     58.0923E-03     135.955E-03     83.6863E-03    -710.841E-03     135.448E-03    -710.333E-03     83.6863E-03    -4.83691E-03     471.705E-03    -235.519E-03    -236.595E-03    -235.125E-03     471.192E-03    -236.477E-03     38.0235E-03     3.04044E+06    -2.51865E+06    -7.16144E+06    -1.36060E+06    -3.21817E+06    -2.06089E+06     2.72107E+06         59.3376
             589     6.29442E-03     58.0425E-03     105.396E-03     79.2517E-03    -677.815E-03     104.842E-03    -677.261E-03     79.2517E-03    -5.44225E-03     471.761E-03    -235.038E-03    -236.804E-03    -234.803E-03     471.407E-03    -236.686E-03     31.0920E-03    -78.9971E+03    -4.16221E+06    -8.11904E+06    -4.54356E+06    -4.60310E+06    -3.21359E+06     1.37189E+06         57.8587
             590     5.50725E-03     58.0066E-03     91.1085E-03     72.7964E-03    -657.303E-03     86.4511E-03    -656.846E-03     76.9966E-03     30.1650E-03     472.738E-03    -235.546E-03    -237.180E-03    -235.585E-03     472.541E-03    -236.945E-03     23.4379E-03    -1.72628E+06    -3.16328E+06    -5.15149E+06    -4.36637E+06    -3.46002E+06    -2.21466E+06     401.205E+03         56.9928
             591     4.71992E-03     57.9765E-03     90.9402E-03     71.1875E-03    -654.527E-03     86.2732E-03    -654.060E-03     75.3877E-03    -2.25138E-03     474.466E-03    -236.636E-03    -238.105E-03    -237.523E-03     474.339E-03    -237.091E-03     18.7822E-03    -2.26279E+06    -4.03112E+06    -7.12443E+06    -5.33020E+06    -4.49679E+06    -3.59135E+06     690.685E+03         56.6522
             592     3.93449E-03     57.9606E-03     100.675E-03     71.6367E-03    -665.053E-03     99.5510E-03    -663.929E-03     71.6367E-03     18.7146E-03     475.025E-03    -236.937E-03    -238.653E-03    -238.582E-03     474.954E-03    -236.937E-03     13.9663E-03    -159.860E+03    -2.54444E+06    -8.46698E+06    -5.35557E+06    -3.97762E+06    -1.83809E+06     967.663E+03         56.5466
             593     3.15137E-03     57.9566E-03     111.260E-03     63.0362E-03    -667.518E-03     109.424E-03    -665.682E-03     63.0362E-03    -4.42425E-03     475.150E-03    -236.439E-03    -239.036E-03    -238.853E-03     475.086E-03    -236.558E-03     12.9743E-03     1.44491E+06    -852.575E+03    -8.57933E+06    -5.45492E+06    -3.13893E+06     606.860E+03     1.11389E+06         56.5042
             594     2.36531E-03     57.9381E-03     95.9663E-03     49.9921E-03    -639.174E-03     94.1032E-03    -637.310E-03     49.9921E-03    -73.0248E-03     478.939E-03    -236.637E-03    -242.303E-03    -242.093E-03     478.847E-03    -236.755E-03     14.5168E-03    -2.81068E+06    -5.17655E+06    -9.20595E+06    -7.88316E+06    -5.99467E+06    -3.31534E+06     932.628E+03         56.5354
             595     1.58634E-03     57.9415E-03     65.8574E-03     35.4633E-03    -599.764E-03     64.6308E-03    -598.538E-03     35.4633E-03    -51.3229E-03     478.933E-03    -234.968E-03    -243.966E-03    -243.903E-03     478.870E-03    -234.968E-03     8.66021E-03    -4.45667E+06    -6.69256E+06    -8.42267E+06    -6.71398E+06    -6.83371E+06    -6.02420E+06     1.52483E+06         56.5760
             596     804.661E-06     57.9494E-03     97.1701E-03    -32.7639E-03    -563.780E-03     89.1896E-03    -555.799E-03    -32.7639E-03    -94.3820E-03     465.595E-03    -229.149E-03    -236.291E-03    -236.269E-03     465.573E-03    -229.149E-03    -1.38587E-03    -6.40971E+06    -8.74534E+06    -13.3022E+06     -9.8035E+06    -11.0294E+06    -7.62434E+06     1.25696E+06         56.5486
             597     13.4039E-03     57.2468E-03     310.398E-03     150.365E-03    -948.522E-03     310.306E-03    -948.430E-03     150.365E-03    -593.099E-06     471.549E-03    -234.481E-03    -236.693E-03    -232.531E-03     468.751E-03    -235.846E-03     88.3202E-03     17.3310E+06     4.20816E+06    -5.14298E+06    -366.590E+03    -568.232E+03     17.3310E+06     2.99212E+06         92.3676
             598     12.6055E-03     57.0701E-03     283.461E-03     141.736E-03    -913.006E-03     283.380E-03    -912.925E-03     141.736E-03    -1.02462E-03     471.476E-03    -234.978E-03    -236.501E-03    -232.982E-03     469.065E-03    -236.085E-03     80.9083E-03     8.53619E+06    -2.61822E+06    -10.8002E+06    -6.54435E+06    -6.87407E+06     8.53619E+06     1.03719E+06         88.5352
             599     11.8135E-03     56.9546E-03     254.844E-03     133.766E-03    -879.685E-03     254.738E-03    -879.579E-03     133.766E-03    -3.64025E-03     471.921E-03    -235.149E-03    -236.917E-03    -234.234E-03     470.345E-03    -236.256E-03     66.4811E-03     5.11370E+06    -3.07350E+06    -10.6528E+06    -6.00859E+06    -7.71768E+06     5.11370E+06    -2.26778E+06         83.1225
             600     11.0299E-03     56.8562E-03     239.875E-03     126.080E-03    -860.100E-03     239.690E-03    -859.915E-03     126.080E-03     779.018E-06     471.639E-03    -234.436E-03    -237.139E-03    -233.789E-03     470.342E-03    -236.488E-03     60.1056E-03     5.67257E+06     1.37672E+06    -8.14865E+06    -1.09678E+06    -4.17949E+06     4.17691E+06    -562.688E+03         77.0583
             601     10.2378E-03     56.7411E-03     232.841E-03     117.961E-03    -842.832E-03     232.629E-03    -842.620E-03     117.961E-03    -1.59784E-03     468.919E-03    -232.159E-03    -236.622E-03    -231.245E-03     468.004E-03    -236.622E-03     50.4458E-03     2.84562E+06    -758.739E+03    -7.84341E+06    -437.545E+03    -4.56024E+06    -758.739E+03     521.100E+03         71.5917
             602     9.44294E-03     56.6622E-03     208.420E-03     109.794E-03    -809.174E-03     208.288E-03    -809.042E-03     109.794E-03    -5.83139E-03     471.114E-03    -233.772E-03    -237.156E-03    -233.112E-03     470.288E-03    -236.990E-03     48.1772E-03    -1.44458E+06    -4.51583E+06    -9.16720E+06    -4.58021E+06    -6.78794E+06    -3.75946E+06    -1.11749E+06         67.2862
             603     8.65771E-03     56.5752E-03     177.340E-03     102.665E-03    -771.603E-03     177.115E-03    -771.378E-03     102.665E-03    -10.2911E-03     473.451E-03    -235.706E-03    -237.503E-03    -235.254E-03     472.833E-03    -237.337E-03     41.0664E-03    -3.91152E+06    -5.88568E+06    -9.56786E+06    -6.94682E+06    -7.67684E+06     -4.7414E+06     88.2845E+03         64.0184
             604     7.86606E-03     56.5271E-03     155.785E-03     96.6996E-03    -744.805E-03     155.414E-03    -744.434E-03     96.6996E-03    -536.424E-06     473.212E-03    -236.135E-03    -237.123E-03    -235.769E-03     472.812E-03    -237.089E-03     33.5759E-03    -386.755E+03    -2.64200E+06    -4.78506E+06    -3.35882E+06    -3.44456E+06    -1.01044E+06     1.14325E+06         61.4430
             605     7.07645E-03     56.4740E-03     136.639E-03     91.6932E-03    -723.217E-03     136.205E-03    -722.782E-03     91.6932E-03    -1.07453E-03     473.205E-03    -236.430E-03    -237.072E-03    -236.212E-03     472.834E-03    -236.920E-03     32.1018E-03     2.93436E+06    -1.42797E+06    -4.75410E+06    -1.81437E+06    -1.76195E+06     328.599E+03     1.73758E+06         59.3943
             606     6.29258E-03     56.4250E-03     121.840E-03     87.4939E-03    -707.410E-03     121.549E-03    -707.119E-03     87.4939E-03    -13.2187E-03     472.742E-03    -235.631E-03    -237.196E-03    -235.499E-03     472.491E-03    -237.078E-03     26.1088E-03     3.68388E+06    -1.07306E+06    -4.91406E+06    -977.034E+03    -1.20849E+06    -117.721E+03     2.23842E+06         57.9054
             607     5.50345E-03     56.3934E-03     118.387E-03     83.1631E-03    -699.961E-03     118.298E-03    -699.872E-03     83.1631E-03    -278.983E-06     471.943E-03    -234.658E-03    -237.433E-03    -234.493E-03     471.778E-03    -237.433E-03     21.4620E-03    -770.759E+03    -3.09187E+06    -4.92767E+06    -3.56832E+06    -3.05639E+06    -2.16559E+06     357.920E+03         57.0240
             608     4.71489E-03     56.3532E-03     114.948E-03     77.8459E-03    -690.729E-03     114.237E-03    -690.018E-03     77.8459E-03    -38.3038E-03     472.513E-03    -234.766E-03    -238.160E-03    -234.785E-03     472.385E-03    -238.013E-03     18.7931E-03    -1.09824E+06    -2.47356E+06    -6.26495E+06    -4.15032E+06    -3.44417E+06    -2.24225E+06     1.00225E+06         56.6712
             609     3.92862E-03     56.3454E-03     102.962E-03     71.9317E-03    -673.702E-03     102.030E-03    -672.770E-03     71.9317E-03    -12.1505E-03     474.758E-03    -236.162E-03    -239.067E-03    -236.628E-03     474.659E-03    -238.502E-03     16.7043E-03     647.109E+03    -563.052E+03    -6.67173E+06    -3.54017E+06    -2.49846E+06    -549.038E+03     965.073E+03         56.5680
             610     3.14177E-03     56.3334E-03     93.0784E-03     65.6344E-03    -656.978E-03     92.4239E-03    -656.323E-03     65.6344E-03     3.83904E-03     476.803E-03    -237.835E-03    -239.188E-03    -238.160E-03     476.710E-03    -238.769E-03     16.1549E-03    -786.280E+03    -2.70548E+06    -8.93009E+06    -6.39901E+06    -4.68707E+06    -1.33577E+06     496.274E+03         56.5396
             611     2.35430E-03     56.3301E-03     87.5828E-03     57.7445E-03    -642.406E-03     85.1293E-03    -639.953E-03     57.7445E-03     7.06974E-03     480.464E-03    -238.846E-03    -241.577E-03    -239.989E-03     480.358E-03    -240.327E-03     16.7307E-03    -2.52890E+06    -4.70111E+06    -8.93954E+06    -6.74432E+06    -5.82725E+06    -3.59798E+06     1.63740E+06         56.5896
             612     1.56620E-03     56.3067E-03     71.7979E-03     47.3519E-03    -620.487E-03     67.7665E-03    -617.374E-03     48.2705E-03     30.1314E-03     484.191E-03    -238.081E-03    -246.172E-03    -242.687E-03     484.121E-03    -241.496E-03     11.5618E-03    -2.84701E+06    -4.31514E+06    -7.49503E+06    -5.33696E+06    -5.00508E+06    -4.31514E+06     1.30026E+06         56.6473
             613     787.979E-06     56.3442E-03     135.610E-03    -45.3755E-03    -589.083E-03     131.532E-03    -585.923E-03    -44.4569E-03     37.8177E-03     482.595E-03    -237.032E-03    -245.351E-03    -241.675E-03     482.554E-03    -240.666E-03    -1.94999E-03    -2.81861E+06    -3.75584E+06    -8.68595E+06    -5.02373E+06    -6.48083E+06    -3.75584E+06    -954.465E+03         56.6285
             614     13.4050E-03     55.6312E-03     309.659E-03     159.541E-03    -960.099E-03     309.589E-03    -960.028E-03     159.541E-03     268.927E-06     473.383E-03    -235.750E-03    -237.781E-03    -234.655E-03     470.257E-03    -235.750E-03     93.7994E-03     14.8848E+06     3.54689E+06    -5.37032E+06     194.637E+03    -2.01806E+06     14.8848E+06     2.82695E+06         92.4229
             615     12.6190E-03     55.4782E-03     294.501E-03     151.881E-03    -935.944E-03     294.422E-03    -935.866E-03     151.881E-03     3.96940E-03     471.928E-03    -234.726E-03    -237.650E-03    -233.879E-03     469.263E-03    -235.834E-03     85.2118E-03     6.75920E+06    -1.35416E+06    -7.21546E+06    -1.70961E+06    -6.51244E+06     6.41163E+06     193.584E+03         88.6071
             616     11.8241E-03     55.3379E-03     277.821E-03     144.079E-03    -914.707E-03     277.789E-03    -914.675E-03     144.079E-03    -2.94844E-03     471.820E-03    -234.793E-03    -237.429E-03    -234.510E-03     470.055E-03    -235.947E-03     69.7880E-03     6.85356E+06    -359.930E+03    -6.78905E+06       14.45E+03    -4.98649E+06     4.67661E+06    -2.11860E+06         83.2069
             617     11.0325E-03     55.2331E-03     254.166E-03     136.335E-03    -888.495E-03     254.131E-03    -888.460E-03     136.335E-03    -9.30277E-03     471.013E-03    -234.405E-03    -236.572E-03    -233.668E-03     469.750E-03    -236.046E-03     59.2266E-03     3.56297E+06    -820.475E+03    -8.35613E+06    -1.06129E+06    -5.62356E+06     1.07122E+06    -3.83513E+06         77.1425
             618     10.2420E-03     55.1506E-03     232.940E-03     128.983E-03    -858.668E-03     232.868E-03    -858.596E-03     128.983E-03    -5.35622E-03     469.060E-03    -232.795E-03    -236.168E-03    -231.854E-03     468.042E-03    -236.092E-03     53.3127E-03     534.975E+03    -3.18070E+06    -8.83758E+06    -2.13501E+06    -6.57301E+06    -2.77529E+06     472.166E+03         71.6724
             619     9.44945E-03     55.0472E-03     208.192E-03     122.336E-03    -829.201E-03     208.061E-03    -829.070E-03     122.336E-03     7.61172E-03     469.589E-03    -232.984E-03    -236.634E-03    -232.194E-03     468.722E-03    -236.558E-03     48.8275E-03    -1.43732E+06    -6.24881E+06    -8.96775E+06    -3.66555E+06    -7.42097E+06    -5.56736E+06     2.45781E+06         67.3618
             620     8.65462E-03     54.9573E-03     182.566E-03     116.643E-03    -798.041E-03     182.405E-03    -797.880E-03     116.643E-03     4.35695E-03     470.935E-03    -233.740E-03    -237.042E-03    -233.244E-03     470.440E-03    -237.042E-03     36.5504E-03    -3.30333E+06    -6.88119E+06    -10.3887E+06    -6.10271E+06    -8.27077E+06    -6.19974E+06      50.403E+03         64.0833
             621     7.86698E-03     54.9143E-03     160.274E-03     111.931E-03    -771.395E-03     159.984E-03    -771.106E-03     111.931E-03     12.5304E-03     472.253E-03    -235.348E-03    -236.933E-03    -235.058E-03     471.929E-03    -236.899E-03     30.2254E-03    -1.47378E+06    -4.86935E+06    -9.16237E+06    -5.17491E+06    -6.24711E+06    -4.08348E+06     789.222E+03         61.4970
             622     7.08192E-03     54.8576E-03     150.851E-03     107.738E-03    -759.737E-03     150.604E-03    -759.490E-03     107.738E-03     10.6987E-03     472.305E-03    -235.529E-03    -236.792E-03    -235.283E-03     472.025E-03    -236.758E-03     28.0310E-03     1.79785E+06    -1.25627E+06    -5.08787E+06    -2.35169E+06    -2.23713E+06     42.5354E+03     1.62301E+06         59.4368
             623     6.29116E-03     54.8068E-03     147.241E-03     103.089E-03    -753.915E-03     147.102E-03    -753.776E-03     103.089E-03     1.09837E-03     471.687E-03    -234.541E-03    -236.950E-03    -234.366E-03     471.512E-03    -236.950E-03     21.9866E-03     1.06674E+06    -1.34403E+06    -6.57727E+06    -3.05474E+06    -2.74261E+06    -1.05721E+06     2.32675E+06         57.9319
             624     5.50383E-03     54.7920E-03     142.600E-03     97.4510E-03    -744.192E-03     142.410E-03    -744.003E-03     97.4510E-03     9.68730E-03     471.002E-03    -233.621E-03    -237.432E-03    -233.512E-03     470.893E-03    -237.432E-03     17.4091E-03     2.52566E+06     407.518E+03     -4.7052E+06    -1.59808E+06    -839.235E+03     665.292E+03     3.00102E+06         57.0283
             625     4.71321E-03     54.7498E-03     134.966E-03     90.8704E-03    -729.553E-03     134.422E-03    -729.010E-03     90.8704E-03    -15.0142E-03     470.433E-03    -232.265E-03    -238.337E-03    -232.183E-03     470.350E-03    -238.337E-03     14.8032E-03     3.98617E+06     2.91005E+06    -4.45091E+06    -1.50021E+06     551.583E+03     3.39393E+06     1.43685E+06         56.6541
             626     3.91953E-03     54.7226E-03     117.186E-03     84.2734E-03    -705.932E-03     116.073E-03    -704.819E-03     84.2734E-03     16.4329E-03     473.350E-03    -233.952E-03    -239.400E-03    -233.883E-03     473.280E-03    -239.400E-03     12.8984E-03     91.8598E+03    -849.586E+03    -7.46250E+06    -4.69981E+06    -3.06521E+06    -455.207E+03     1.07479E+06         56.5457
             627     3.13245E-03     54.7073E-03     101.150E-03     78.6360E-03    -685.042E-03     99.6805E-03    -683.573E-03     78.6360E-03     7.10274E-03     478.261E-03    -238.032E-03    -240.209E-03    -237.984E-03     478.212E-03    -240.209E-03     9.62142E-03    -1.50888E+06    -3.54848E+06    -6.78964E+06    -5.45459E+06    -4.33405E+06    -2.05837E+06     788.177E+03         56.5307
             628     2.35093E-03     54.6992E-03     95.8802E-03     67.3492E-03    -667.532E-03     86.5507E-03    -664.849E-03     73.9956E-03     19.3618E-03     482.003E-03    -239.478E-03    -242.500E-03    -239.453E-03     481.977E-03    -242.500E-03     6.26084E-03    -3.19084E+06    -5.38884E+06    -8.12182E+06    -6.12085E+06    -5.96369E+06    -4.61696E+06     196.077E+03         56.6019
             629     1.56352E-03     54.6925E-03     83.9614E-03     64.2152E-03    -651.730E-03     71.0070E-03    -646.876E-03     72.3152E-03     23.3241E-03     485.075E-03    -238.567E-03    -246.494E-03    -238.554E-03     485.061E-03    -246.494E-03     1.79286E-03    -2.39677E+06    -5.53305E+06    -7.78640E+06    -4.10295E+06    -5.75637E+06    -5.85691E+06    -721.082E+03         56.6784
             630     767.085E-06     54.6950E-03     162.982E-03    -12.1744E-03    -656.034E-03     156.230E-03    -650.735E-03    -10.7209E-03     38.3954E-03     497.552E-03    -244.539E-03    -252.624E-03    -244.497E-03     497.509E-03    -252.624E-03    -8.28681E-03    -2.24200E+06    -5.43602E+06    -8.43102E+06    -4.32740E+06    -5.76662E+06    -6.01503E+06    -1.74164E+06         56.6710
             631     13.4025E-03     54.0137E-03     325.438E-03     175.787E-03    -995.783E-03     325.366E-03    -995.712E-03     175.787E-03    -2.07428E-03     473.709E-03    -235.720E-03    -238.451E-03    -235.145E-03     470.403E-03    -235.720E-03     96.6359E-03     19.8955E+06     2.80743E+06    -4.00161E+06    -1.00378E+06    -190.410E+03     19.8955E+06    -238.655E+03         92.4410
             632     12.6061E-03     53.8637E-03     318.472E-03     168.463E-03    -977.398E-03     318.360E-03    -977.286E-03     168.463E-03     8.61782E-03     473.913E-03    -235.726E-03    -238.305E-03    -235.401E-03     471.010E-03    -235.726E-03     90.2589E-03     15.3913E+06     7.30165E+06     1.61237E+06     7.10231E+06     2.33023E+06     14.8728E+06     139.698E+03         88.6322
             633     11.8224E-03     53.7311E-03     285.221E-03     161.228E-03    -951.959E-03     285.145E-03    -951.883E-03     161.228E-03     12.5149E-03     472.612E-03    -235.644E-03    -237.134E-03    -235.019E-03     470.544E-03    -235.691E-03     76.1097E-03     3.34821E+06    -1.58390E+06    -7.53214E+06     2.69340E+06    -6.87733E+06    -1.58390E+06     1.48701E+06         83.2410
             634     11.0324E-03     53.6292E-03     270.001E-03     154.330E-03    -919.267E-03     269.873E-03    -919.140E-03     154.330E-03     9.52837E-03     470.810E-03    -234.803E-03    -236.197E-03    -233.909E-03     469.454E-03    -235.735E-03     61.3848E-03    -2.82481E+06    -9.30799E+06    -13.8338E+06    -4.46001E+06    -12.6040E+06    -8.90257E+06     1.21462E+06         77.1812
             635     10.2397E-03     53.5422E-03     226.623E-03     148.517E-03    -883.636E-03     226.484E-03    -883.497E-03     148.517E-03     16.1659E-03     471.655E-03    -234.845E-03    -236.675E-03    -234.689E-03     470.554E-03    -235.731E-03     55.7357E-03    -637.730E+03    -3.67500E+06    -10.7743E+06    -3.85765E+06    -7.95976E+06    -3.26959E+06     69.1132E+03         71.7181
             636     9.45372E-03     53.4399E-03     209.529E-03     144.196E-03    -856.493E-03     209.397E-03    -856.361E-03     144.196E-03     12.5751E-03     471.691E-03    -234.878E-03    -236.735E-03    -234.743E-03     470.813E-03    -235.992E-03     49.1042E-03     1.11431E+06    -2.51875E+06    -7.92653E+06    -1.51227E+06    -5.22503E+06    -2.59367E+06     1.01069E+06         67.4137
             637     8.66556E-03     53.3687E-03     196.976E-03     140.182E-03    -844.550E-03     196.836E-03    -844.410E-03     140.182E-03    -1.95734E-03     470.344E-03    -233.863E-03    -236.370E-03    -233.391E-03     469.873E-03    -236.370E-03     35.9851E-03    -947.760E+03    -6.34803E+06    -9.57978E+06    -3.24931E+06    -7.20331E+06    -6.42295E+06     1.18836E+06         64.1316
             638     7.87227E-03     53.3090E-03     195.247E-03     135.744E-03    -839.040E-03     194.933E-03    -838.726E-03     135.744E-03    -8.58055E-03     470.286E-03    -234.098E-03    -236.261E-03    -233.773E-03     469.961E-03    -236.261E-03     30.0090E-03    -507.648E+03    -5.94728E+06    -10.5460E+06    -4.17882E+06    -6.87486E+06    -5.94728E+06    -430.542E+03         61.5359
             639     7.08114E-03     53.2444E-03     189.058E-03     130.556E-03    -828.646E-03     188.772E-03    -828.360E-03     130.556E-03    -10.4754E-03     469.856E-03    -233.693E-03    -236.171E-03    -233.457E-03     469.620E-03    -236.171E-03     25.4028E-03    -1.16891E+06    -5.10992E+06    -9.14946E+06    -4.16374E+06    -6.03926E+06    -5.22529E+06     863.109E+03         59.4633
             640     6.29396E-03     53.1976E-03     174.808E-03     125.008E-03    -809.731E-03     174.620E-03    -809.543E-03     125.008E-03    -6.04576E-03     469.288E-03    -232.523E-03    -236.461E-03    -232.382E-03     469.147E-03    -236.461E-03     19.5995E-03     1.76645E+06    -588.140E+03    -5.92694E+06    -2.61894E+06    -2.17626E+06     46.5718E+03     1.99339E+06         57.9409
             641     5.50432E-03     53.1630E-03     156.599E-03     119.891E-03    -786.508E-03     156.326E-03    -786.236E-03     119.891E-03    -17.6001E-06     469.534E-03    -232.468E-03    -237.049E-03    -232.380E-03     469.446E-03    -237.049E-03     15.6918E-03     4.61732E+06     3.08000E+06    -3.37148E+06    -835.404E+03     1.20846E+06     3.95279E+06     2.29036E+06         57.0110
             642     4.71506E-03     53.1380E-03     139.329E-03     114.623E-03    -763.324E-03     136.803E-03    -762.301E-03     116.126E-03    -25.4380E-03     470.819E-03    -233.196E-03    -237.873E-03    -233.138E-03     470.762E-03    -237.873E-03     12.5787E-03     2.52137E+06     476.370E+03    -6.32020E+06    -2.57143E+06    -1.35012E+06     599.083E+03     1.93110E+06         56.6142
             643     3.92695E-03     53.1137E-03     129.511E-03     104.933E-03    -744.464E-03     118.328E-03    -743.038E-03     114.691E-03    -981.075E-06     473.159E-03    -234.755E-03    -238.672E-03    -234.719E-03     473.123E-03    -238.672E-03     9.79545E-03     3.06044E+06     76.4646E+03    -5.91098E+06    -2.96899E+06    -1.23953E+06     1.43445E+06     1.17833E+06         56.5062
             644     3.13887E-03     53.0812E-03     125.353E-03     95.5332E-03    -730.773E-03     101.269E-03    -728.155E-03     116.999E-03    -34.6304E-03     475.969E-03    -236.722E-03    -239.444E-03    -236.707E-03     475.954E-03    -239.444E-03     4.09440E-03     2.21433E+06    -1.08724E+06    -5.56226E+06    -4.87087E+06    -1.77863E+06     2.21433E+06     1.61396E+06         56.5064
             645     2.35130E-03     53.0693E-03     125.476E-03     98.4213E-03    -733.275E-03     97.6952E-03    -730.877E-03     123.804E-03    -36.6603E-03     480.910E-03    -239.093E-03    -241.807E-03    -239.085E-03     480.902E-03    -241.807E-03    -2.66102E-03     651.790E+03    -3.39319E+06    -6.69270E+06    -4.19607E+06    -3.46456E+06    -1.77347E+06    -290.170E+03         56.5932
             646     1.56393E-03     53.0734E-03     133.946E-03     118.938E-03    -762.529E-03     118.546E-03    -759.835E-03     131.644E-03    -33.6099E-03     485.451E-03    -240.118E-03    -245.334E-03    -240.635E-03     485.438E-03    -244.805E-03    -4.87244E-03    -947.908E+03    -6.90873E+06    -9.80698E+06    -4.15751E+06    -6.27352E+06    -7.23259E+06    -5.33277E+03         56.6826
             647     781.741E-06     53.0586E-03     197.616E-03     77.3996E-03    -784.525E-03     191.647E-03    -779.090E-03     77.9345E-03     16.8166E-03     492.291E-03    -243.096E-03    -248.943E-03    -243.594E-03     492.259E-03    -248.414E-03    -904.496E-06     1.80403E+06    -4.78176E+06    -8.21312E+06    -1.56609E+06    -4.26398E+06    -5.36077E+06     1.73439E+06         56.6846
             648     13.3995E-03     52.4084E-03     345.591E-03     188.872E-03        -1.03707     336.194E-03        -1.03703     198.231E-03    -7.50827E-03     475.129E-03    -235.587E-03    -239.504E-03    -236.496E-03     472.121E-03    -235.587E-03     92.4481E-03     16.9526E+06     4.64639E+06    -5.23827E+06     237.470E+03    -829.341E+03     16.9526E+06    -3.50544E+06         92.4314
             649     12.6156E-03     52.2563E-03     343.300E-03     180.530E-03        -1.01911     331.402E-03        -1.01890     192.222E-03    -13.1140E-03     472.686E-03    -235.255E-03    -237.109E-03    -234.310E-03     470.137E-03    -235.505E-03     84.8231E-03     5.67565E+06    -2.74329E+06    -7.14281E+06    -2.96411E+06    -6.75104E+06     5.50470E+06     981.373E+03         88.6255
             650     11.8188E-03     52.1235E-03     297.691E-03     175.240E-03    -993.777E-03     285.801E-03    -993.580E-03     186.933E-03     829.183E-06     471.342E-03    -235.196E-03    -236.010E-03    -233.832E-03     469.414E-03    -235.445E-03     73.2231E-03     3.26731E+06    -3.07479E+06    -10.7608E+06    -2.56878E+06    -8.51163E+06     512.150E+03     3.65480E+06         83.2353
             651     11.0294E-03     52.0224E-03     294.297E-03     176.627E-03    -963.398E-03     288.531E-03    -962.997E-03     181.992E-03    -1.74166E-03     472.548E-03    -235.584E-03    -236.772E-03    -235.518E-03     471.294E-03    -235.584E-03     59.2638E-03     5.87287E+06    -753.081E+03    -8.95606E+06     1.49729E+06    -5.34016E+06     6.60661E+03     5.73621E+06         77.1867
             652     10.2440E-03     51.9292E-03     240.829E-03     172.760E-03    -941.050E-03     235.059E-03    -940.645E-03     178.125E-03    -3.14648E-03     474.001E-03    -235.483E-03    -237.925E-03    -236.859E-03     472.935E-03    -235.483E-03     55.0289E-03     2.10534E+06    -5.02442E+06    -12.3386E+06    -2.29630E+06    -7.93693E+06    -5.02442E+06     3.62519E+06         71.7377
             653     9.45554E-03     51.8269E-03     247.156E-03     175.016E-03    -925.006E-03     247.081E-03    -924.932E-03     175.016E-03    -4.53052E-03     473.633E-03    -235.499E-03    -237.805E-03    -236.932E-03     472.810E-03    -235.549E-03     47.4056E-03     181.548E+03    -5.18672E+06    -11.9600E+06    -3.86806E+06    -7.91044E+06    -5.18672E+06     891.029E+03         67.4368
             654     8.66616E-03     51.7487E-03     223.565E-03     171.328E-03    -914.164E-03     223.474E-03    -914.073E-03     171.328E-03    -16.3331E-03     471.536E-03    -235.107E-03    -236.404E-03    -235.331E-03     471.097E-03    -235.740E-03     34.8354E-03     2.22957E+06    -2.29092E+06    -5.88360E+06     178.013E+03    -3.83204E+06    -2.29092E+06     1.47148E+06         64.1529
             655     7.87847E-03     51.6946E-03     226.672E-03     167.352E-03    -909.344E-03     226.453E-03    -909.125E-03     167.352E-03    -16.8402E-03     469.155E-03    -233.891E-03    -235.407E-03    -233.577E-03     468.840E-03    -235.407E-03     29.5093E-03    -412.044E+03    -5.10835E+06    -8.73572E+06    -3.11420E+06    -6.03356E+06    -5.10835E+06     839.058E+03         61.5565
             656     7.09040E-03     51.6239E-03     218.586E-03     162.530E-03    -898.017E-03     218.322E-03    -897.753E-03     162.530E-03    -5.73842E-03     467.686E-03    -232.219E-03    -235.245E-03    -232.021E-03     467.488E-03    -235.245E-03     23.0775E-03    -1.02544E+06    -4.68923E+06    -8.14788E+06    -4.93492E+06    -5.41405E+06    -3.51358E+06    -498.392E+03         59.4776
             657     6.29842E-03     51.5871E-03     197.386E-03     158.021E-03    -873.408E-03     197.131E-03    -873.153E-03     158.021E-03     5.88746E-03     466.999E-03    -230.922E-03    -235.641E-03    -230.821E-03     466.898E-03    -235.641E-03     16.5843E-03     3.69634E+06    -605.363E+03    -3.06910E+06    -328.318E+03    -622.246E+03     972.444E+03    -944.051E+03         57.9397
             658     5.50586E-03     51.5522E-03     172.530E-03     154.418E-03    -844.247E-03     170.926E-03    -843.577E-03     155.352E-03     15.5108E-03     468.029E-03    -231.914E-03    -236.234E-03    -231.849E-03     467.964E-03    -236.234E-03     13.1502E-03     1.58837E+06    -920.226E+03    -3.65760E+06    -1.20533E+06    -1.38877E+06    -395.352E+03    -964.171E+03         56.9879
             659     4.71626E-03     51.5180E-03     159.168E-03     148.584E-03    -825.097E-03     150.889E-03    -823.690E-03     155.455E-03    -14.5544E-03     471.227E-03    -234.624E-03    -236.807E-03    -234.580E-03     471.184E-03    -236.807E-03     10.5928E-03     1.01355E+06    -696.802E+03    -5.90622E+06    -2.90243E+06    -2.21411E+06    -472.938E+03     656.154E+03         56.5740
             660     3.93113E-03     51.4905E-03     158.348E-03     143.675E-03    -819.916E-03     141.068E-03    -817.309E-03     158.348E-03     16.9573E-03     472.691E-03    -235.785E-03    -237.142E-03    -235.748E-03     472.655E-03    -237.142E-03     9.89300E-03     3.94691E+06     1.28017E+06    -4.39416E+06    -1.35643E+06    -155.570E+03     2.34493E+06     935.388E+03         56.4641
             661     3.14526E-03     51.4605E-03     171.401E-03     140.830E-03    -827.713E-03     146.400E-03    -824.659E-03     162.777E-03     5.63685E-03     473.189E-03    -235.754E-03    -237.596E-03    -235.829E-03     473.168E-03    -237.502E-03     5.76512E-03     4.16452E+06     1.35499E+06    -2.28120E+06    -682.160E+03     754.027E+03     3.16645E+06     372.291E+03         56.4684
             662     2.35734E-03     51.4533E-03     182.737E-03     147.045E-03    -844.722E-03     161.953E-03    -842.674E-03     165.781E-03    -2.72493E-03     478.764E-03    -238.319E-03    -240.412E-03    -239.345E-03     478.752E-03    -239.374E-03    -3.03776E-03     1.11198E+06    -2.58034E+06    -7.50728E+06    -3.91191E+06    -3.33123E+06    -1.73249E+06     394.617E+03         56.5591
             663     1.57417E-03     51.4459E-03     177.977E-03     154.257E-03    -850.590E-03     163.780E-03    -849.480E-03     167.343E-03     8.90997E-03     483.356E-03    -240.075E-03    -243.310E-03    -243.123E-03     483.344E-03    -240.251E-03    -4.68652E-03     834.311E+03    -3.48726E+06    -11.1279E+06    -5.41163E+06    -4.88201E+06    -3.48726E+06     557.764E+03         56.6525
             664     789.809E-06     51.4322E-03     209.889E-03     129.505E-03    -856.549E-03     165.679E-03    -853.447E-03     170.613E-03     23.6675E-03     479.324E-03    -237.498E-03    -241.914E-03    -241.023E-03     479.300E-03    -238.366E-03     3.75417E-03     5.37612E+06    -595.583E+03    -6.27179E+06     787.100E+03    -1.55022E+06    -728.138E+03      22.874E+03         56.6531
             665     13.4055E-03     50.7960E-03     354.097E-03     199.553E-03        -1.06932     327.828E-03        -1.06921     225.715E-03     17.4687E-03     475.269E-03    -235.509E-03    -239.521E-03    -236.281E-03     472.029E-03    -235.509E-03     95.8988E-03     11.2005E+06     4.53497E+06    -9.60795E+06    -727.528E+03    -4.34545E+06     11.2005E+06    -3.28426E+06         92.3879
             666     12.6106E-03     50.6551E-03     314.716E-03     195.145E-03        -1.04200     285.964E-03        -1.04174     223.641E-03    -20.1763E-03     473.853E-03    -235.194E-03    -238.662E-03    -235.520E-03     470.961E-03    -235.443E-03     90.4068E-03     4.81918E+06    -3.63399E+06    -11.4795E+06    -5.93237E+06    -9.18114E+06     4.81918E+06     2.96820E+06         88.5861
             667     11.8224E-03     50.5208E-03     321.513E-03     210.020E-03        -1.02973     309.378E-03        -1.02929     221.713E-03    -7.07163E-03     473.762E-03    -235.022E-03    -238.877E-03    -236.594E-03     471.729E-03    -235.271E-03     75.0375E-03     3.65923E+06    -2.27780E+06    -11.3706E+06    -5.73497E+06    -7.91346E+06     3.65923E+06     2.40228E+06         83.2113
             668     11.0328E-03     50.4205E-03     298.022E-03     207.977E-03        -1.02922     286.292E-03        -1.02860     219.087E-03    -13.6333E-03     473.701E-03    -235.282E-03    -238.251E-03    -237.103E-03     472.552E-03    -235.282E-03     56.7925E-03     4.41089E+06    -581.566E+03    -8.61318E+06    -2.42614E+06    -5.15073E+06     2.79301E+06     2.69616E+06         77.1836
             669     10.2443E-03     50.3111E-03     290.961E-03     205.748E-03        -1.03294     279.254E-03        -1.03235     216.858E-03    -15.3273E-03     474.056E-03    -235.096E-03    -238.560E-03    -237.619E-03     473.115E-03    -235.096E-03     51.6446E-03     3.74538E+06    -3.04016E+06    -8.09580E+06    -618.442E+03    -5.28083E+06    -1.49131E+06     3.71596E+06         71.7476
             670     9.45876E-03     50.2151E-03     313.665E-03     212.576E-03        -1.03149     313.465E-03        -1.03129     212.576E-03     9.24471E-03     473.329E-03    -235.016E-03    -237.950E-03    -237.235E-03     472.614E-03    -235.016E-03     44.1458E-03     3.15200E+06    -3.40131E+06    -8.28603E+06    -138.145E+03    -4.99588E+06    -3.40131E+06     2.56743E+06         67.4466
             671     8.67557E-03     50.1477E-03     271.536E-03     207.267E-03        -1.01461     271.393E-03        -1.01446     207.267E-03     6.95228E-03     471.722E-03    -235.066E-03    -236.418E-03    -235.999E-03     471.308E-03    -235.070E-03     34.0182E-03     1.79985E+06    -2.90752E+06    -6.64200E+06    -1.34862E+06    -4.21078E+06    -2.19026E+06     531.660E+03         64.1590
             672     7.88633E-03     50.0816E-03     255.350E-03     203.248E-03    -979.641E-03     255.219E-03    -979.510E-03     203.248E-03     16.3548E-03     469.183E-03    -234.266E-03    -235.108E-03    -234.480E-03     468.839E-03    -234.551E-03     30.8473E-03     1.77890E+06    -839.845E+03    -4.47994E+06    -977.979E+03    -2.44032E+06    -122.590E+03     1.46723E+06         61.5641
             673     7.09450E-03     50.0246E-03     225.818E-03     197.112E-03    -949.984E-03     222.031E-03    -949.899E-03     200.814E-03     13.8042E-03     466.822E-03    -232.332E-03    -234.357E-03    -232.184E-03     466.606E-03    -234.289E-03     24.0691E-03     2.93872E+06    -1.30373E+06    -4.35734E+06    -754.624E+03    -1.95502E+06     -12.718E+03     609.864E+03         59.4831
             674     6.30506E-03     49.9846E-03     214.905E-03     196.457E-03    -940.084E-03     211.020E-03    -939.901E-03     200.159E-03     16.2054E-03     466.546E-03    -231.593E-03    -234.554E-03    -231.494E-03     466.447E-03    -234.554E-03     16.3982E-03     2.17728E+06    -3.54301E+06    -6.21205E+06    -2.41510E+06    -3.30227E+06    -1.86041E+06    -781.301E+03         57.9335
             675     5.51527E-03     49.9428E-03     210.940E-03     199.018E-03    -938.280E-03     209.448E-03    -937.722E-03     199.951E-03     28.2026E-03     467.662E-03    -232.904E-03    -234.889E-03    -232.840E-03     467.599E-03    -234.889E-03     13.0828E-03     286.240E+03    -2.89317E+06    -5.89163E+06    -3.47908E+06    -3.32199E+06    -1.69748E+06     132.139E+03         56.9621
             676     4.72726E-03     49.9036E-03     215.291E-03     194.149E-03    -937.281E-03     209.039E-03    -936.398E-03     199.518E-03    -706.684E-06     469.398E-03    -234.268E-03    -235.220E-03    -234.227E-03     469.357E-03    -235.220E-03     10.1331E-03     2.72564E+06     1.18611E+06    -2.68100E+06    -748.446E+03     -112.16E+03     2.09136E+06    -580.073E+03         56.5256
             677     3.93856E-03     49.8754E-03     222.700E-03     192.805E-03    -943.410E-03     215.574E-03    -941.200E-03     197.722E-03     28.9676E-03     469.981E-03    -234.673E-03    -235.374E-03    -234.652E-03     469.959E-03    -235.374E-03     7.62885E-03     2.52752E+06     1.55269E+06    -2.22032E+06     207.384E+03     -1.3405E+03     1.65384E+06    -1.24742E+06         56.3963
             678     3.14866E-03     49.8475E-03     226.061E-03     192.141E-03    -943.810E-03     223.301E-03    -941.530E-03     192.622E-03     22.4162E-03     470.308E-03    -234.712E-03    -235.598E-03    -234.793E-03     470.294E-03    -235.503E-03     5.98497E-03     1.79617E+06    -279.555E+03    -3.15374E+06    -1.32113E+06    -990.192E+03     674.200E+03    -821.498E+03         56.3858
             679     2.36359E-03     49.8288E-03     211.610E-03     182.211E-03    -919.909E-03     207.266E-03    -918.827E-03     185.473E-03     2.86459E-03     475.389E-03    -236.837E-03    -238.596E-03    -238.245E-03     475.381E-03    -237.181E-03     2.19147E-03     1.48727E+06    -1.93967E+06    -6.47973E+06    -3.08153E+06    -2.53444E+06    -1.31616E+06     743.990E+03         56.4706
             680     1.57821E-03     49.8238E-03     194.039E-03     171.117E-03    -892.582E-03     182.292E-03    -891.658E-03     181.940E-03     6.98014E-03     479.055E-03    -237.878E-03    -241.304E-03    -241.297E-03     479.048E-03    -237.878E-03     1.47310E-03     291.452E+03    -4.76151E+06    -10.6728E+06    -4.19702E+06    -5.58212E+06    -5.36367E+06    -2.10173E+06         56.5674
             681     793.841E-06     49.8181E-03     228.541E-03     135.948E-03    -892.318E-03     139.220E-03    -891.823E-03     224.774E-03    -39.9844E-03     474.294E-03    -235.289E-03    -238.916E-03    -238.821E-03     474.289E-03    -235.378E-03     2.98872E-03     1.42207E+06    -4.31987E+06    -12.3810E+06    -4.62829E+06    -5.92612E+06    -4.72434E+06    -1.18405E+06         56.5747
             682     13.3912E-03     49.1927E-03     412.043E-03     170.262E-03        -1.10999     321.484E-03        -1.10900     259.830E-03    -33.9785E-03     474.166E-03    -235.485E-03    -238.615E-03    -235.088E-03     470.803E-03    -235.649E-03     97.6299E-03     8.33100E+06     316.013E+03    -14.3768E+06    -3.53229E+06    -8.56596E+06     6.36851E+06     336.139E+03         92.3055
             683     12.6034E-03     49.0389E-03     374.354E-03     215.686E-03        -1.11225     328.357E-03        -1.11001     259.448E-03     11.8388E-03     477.784E-03    -235.626E-03    -242.567E-03    -239.534E-03     474.750E-03    -235.626E-03     93.1522E-03     11.1182E+06     4.39222E+06    -8.94466E+06    -1.03252E+06    -3.44886E+06     11.0471E+06    -1.08034E+06         88.5041
             684     11.8201E-03     48.8920E-03     332.637E-03     231.912E-03        -1.09935     303.519E-03        -1.09719     258.871E-03     36.2216E-03     478.283E-03    -235.245E-03    -243.351E-03    -241.313E-03     476.244E-03    -235.245E-03     75.2687E-03     7.49071E+06     3.72745E+06    -8.76218E+06     117.067E+03    -3.73862E+06     6.07754E+06     487.649E+03         83.1517
             685     11.0382E-03     48.7930E-03     311.268E-03     249.073E-03        -1.10371     301.479E-03        -1.10322     258.368E-03    -10.6954E-03     475.565E-03    -234.876E-03    -240.577E-03    -239.334E-03     474.321E-03    -234.876E-03     59.2774E-03     1.37715E+06    -4.38771E+06    -10.3167E+06    -5.49609E+06    -7.86615E+06     35.0355E+03     1.16839E+06         77.1569
             686     10.2533E-03     48.6883E-03     329.008E-03     247.463E-03        -1.11036     319.248E-03        -1.10990     256.757E-03     20.2234E-03     473.834E-03    -234.607E-03    -238.811E-03    -237.746E-03     472.770E-03    -234.607E-03     54.5989E-03     1.32578E+06    -3.41489E+06    -6.84643E+06    -4.61937E+06    -5.50029E+06     1.18412E+06    -1.28395E+06         71.7436
             687     9.46701E-03     48.6019E-03     338.651E-03     238.994E-03        -1.10004     323.623E-03        -1.09960     253.577E-03     17.9735E-03     471.298E-03    -234.448E-03    -236.437E-03    -235.625E-03     470.528E-03    -234.490E-03     46.2255E-03     2.00706E+06    -2.28389E+06    -6.68584E+06    -1.88103E+06    -4.27496E+06    -806.676E+03     913.667E+03         67.4491
             688     8.67331E-03     48.5349E-03     294.235E-03     236.840E-03        -1.08498     279.374E-03        -1.08471     251.423E-03    -8.98274E-03     470.625E-03    -234.525E-03    -235.904E-03    -235.332E-03     470.094E-03    -234.567E-03     38.5177E-03      446.72E+03    -4.89489E+06    -7.82264E+06    -2.57950E+06    -5.57965E+06    -4.11166E+06     1.80538E+06         64.1606
             689     7.88706E-03     48.4742E-03     289.729E-03     250.323E-03        -1.06902     289.455E-03        -1.06874     250.323E-03    -7.77967E-03     469.936E-03    -234.089E-03    -236.112E-03    -235.713E-03     469.537E-03    -234.089E-03     33.4335E-03     1.70307E+06    -2.53850E+06    -4.70939E+06    -208.696E+03    -3.22007E+06    -2.11605E+06     302.752E+03         61.5658
             690     7.10020E-03     48.4173E-03     264.219E-03     246.130E-03        -1.05169     260.376E-03        -1.05155     249.831E-03    -17.5544E-03     467.771E-03    -233.104E-03    -234.959E-03    -234.170E-03     467.523E-03    -233.645E-03     25.8727E-03     2.71390E+06    -1.47934E+06    -4.91500E+06     532.231E+03    -2.60745E+06    -1.60522E+06     919.043E+03         59.4828
             691     6.30977E-03     48.3713E-03     257.308E-03     247.025E-03        -1.04535     253.466E-03        -1.04521     250.727E-03    -20.6395E-03     467.329E-03    -232.911E-03    -234.349E-03    -233.528E-03     467.199E-03    -233.602E-03     18.9114E-03     1.51006E+06    -1.68953E+06    -6.62888E+06    -2.61677E+06    -3.24155E+06    -950.021E+03     440.184E+03         57.9225
             692     5.52224E-03     48.3276E-03     264.060E-03     250.933E-03        -1.05601     263.844E-03        -1.05579     250.933E-03    -1.90008E-03     467.721E-03    -233.342E-03    -234.295E-03    -233.973E-03     467.627E-03    -233.569E-03     16.1771E-03     2.71114E+06     712.582E+03    -3.36765E+06    -1.66465E+06    -535.460E+03     2.25618E+06    -215.053E+03         56.9278
             693     4.73319E-03     48.2945E-03     276.500E-03     248.944E-03        -1.06653     275.759E-03        -1.06578     248.944E-03    -26.4873E-03     467.556E-03    -233.388E-03    -234.201E-03    -233.973E-03     467.495E-03    -233.555E-03     12.7588E-03     3.15798E+06     1.36567E+06    -1.97149E+06     133.285E+03     249.112E+03     2.16977E+06    -527.534E+03         56.4575
             694     3.94538E-03     48.2635E-03     277.499E-03     244.576E-03        -1.06343     276.730E-03        -1.06266     244.576E-03    -21.2872E-03     467.104E-03    -233.372E-03    -233.889E-03    -233.710E-03     467.076E-03    -233.523E-03     8.61428E-03     2.14370E+06     599.113E+03    -3.12414E+06    -992.488E+03    -801.596E+03     1.41276E+06    -365.010E+03         56.2950
             695     3.15812E-03     48.2376E-03     265.253E-03     238.001E-03        -1.04414     263.397E-03        -1.04347     239.190E-03    -14.1806E-03     466.278E-03    -232.517E-03    -233.782E-03    -232.634E-03     466.262E-03    -233.649E-03     6.31246E-03     2.18171E+06    -672.172E+03    -4.98162E+06    -3.76020E+06    -1.76969E+06     2.05782E+06     790.639E+03         56.2603
             696     2.36508E-03     48.2206E-03     253.485E-03     230.081E-03        -1.02569     248.410E-03        -1.02507     234.531E-03    -24.4235E-03     469.184E-03    -232.851E-03    -236.413E-03    -233.215E-03     469.172E-03    -236.036E-03     5.72773E-03     3.80138E+06    -1.74947E+06    -4.71281E+06    -809.817E+03    -1.49184E+06    -359.255E+03    -522.193E+03         56.3350
             697     1.57579E-03     48.2090E-03     247.080E-03     225.936E-03        -1.01420     243.566E-03        -1.01395     229.197E-03     6.45742E-03     475.101E-03    -235.297E-03    -239.907E-03    -236.168E-03     475.077E-03    -239.011E-03     7.69423E-03     2.89228E+06    -6.27783E+06    -9.10351E+06    -801.802E+03    -4.61139E+06    -7.07587E+06    -503.163E+03         56.4355
             698     785.387E-06     48.2139E-03     295.123E-03     159.399E-03    -992.872E-03     165.122E-03    -990.485E-03     287.013E-03    -62.9150E-03     479.911E-03    -238.571E-03    -241.244E-03    -239.071E-03     479.892E-03    -240.725E-03     6.10803E-03     406.877E+03    -6.12509E+06    -15.5122E+06    -6.84787E+06    -7.98554E+06    -6.39701E+06     2.21935E+06         56.4536
             699     13.3921E-03     47.5913E-03         1.20457    -140.019E-03        -1.71878     219.345E-03        -1.17695     303.375E-03    -206.759E-03     476.322E-03    -235.594E-03    -240.946E-03    -237.593E-03     473.133E-03    -235.758E-03     95.2001E-03     9.89440E+06     956.732E+03    -13.8189E+06    -2.27330E+06    -7.81307E+06     7.11857E+06     2.20786E+06         92.2157
             700     12.6057E-03     47.4175E-03         1.19858    -85.7504E-03        -1.31301     718.307E-03        -1.21587     297.393E-03     42.4451E-03     479.818E-03    -235.568E-03    -244.754E-03    -241.809E-03     476.872E-03    -235.568E-03     91.7976E-03     6.00983E+06     2.96152E+06    -9.65681E+06     761.639E+03    -6.14405E+06     4.69695E+06    -4.38634E+06         88.4148
             701     11.8229E-03     47.2641E-03     515.711E-03    -86.8336E-03        -1.30076     34.4547E-03        -1.20265     296.310E-03     61.0966E-03     477.206E-03    -235.142E-03    -242.308E-03    -240.438E-03     475.336E-03    -235.142E-03     72.2441E-03     5.23785E+06     2.63825E+06    -8.42685E+06     736.531E+03    -4.68347E+06     3.39619E+06    -330.349E+03         83.0676
             702     11.0350E-03     47.1741E-03     520.562E-03     268.290E-03        -1.19134     484.404E-03        -1.18805     301.161E-03    -76.6257E-03     474.843E-03    -234.808E-03    -239.625E-03    -238.193E-03     473.411E-03    -234.808E-03     63.7685E-03     2.67455E+06    -2.22182E+06    -7.80753E+06    -2.27556E+06    -5.42320E+06     343.976E+03     1.86362E+06         77.0912
             703     10.2507E-03     47.0628E-03     332.882E-03     264.260E-03        -1.16739     299.585E-03        -1.16697     297.132E-03     36.7803E-03     473.720E-03    -234.572E-03    -238.687E-03    -237.351E-03     472.384E-03    -234.572E-03     61.3427E-03     1.42832E+06    -3.18767E+06    -7.15592E+06    -4.18524E+06    -5.16988E+06     439.866E+03    -1.14211E+06         71.7023
             704     9.46206E-03     46.9956E-03     335.285E-03     261.848E-03        -1.14871     297.334E-03        -1.14844     299.534E-03     5.68100E-03     472.052E-03    -234.443E-03    -237.289E-03    -236.319E-03     471.122E-03    -234.484E-03     51.1456E-03     215.061E+03    -2.41857E+06    -8.51669E+06    -5.26680E+06    -5.66847E+06     215.061E+03    -1.84473E+06         67.4294
             705     8.67661E-03     46.9224E-03     319.377E-03     265.297E-03        -1.15129     281.489E-03        -1.15108     302.983E-03    -9.71941E-03     471.878E-03    -234.447E-03    -237.302E-03    -236.637E-03     471.254E-03    -234.488E-03     41.6539E-03     1.03289E+06    -1.86006E+06    -6.01654E+06    -1.20289E+06    -4.42580E+06    -1.21503E+06     87.1989E+03         64.1568
             706     7.88732E-03     46.8593E-03     327.064E-03     304.998E-03        -1.17067     326.619E-03        -1.17022     304.998E-03     7.84949E-03     470.726E-03    -233.851E-03    -237.282E-03    -236.886E-03     470.329E-03    -233.851E-03     33.3643E-03     66.3163E+03    -3.48793E+06    -5.59705E+06    -785.374E+03    -4.77765E+06    -3.45563E+06    -171.730E+03         61.5682
             707     7.09941E-03     46.7798E-03     328.543E-03     304.473E-03        -1.19126     327.902E-03        -1.19062     304.473E-03     21.1507E-03     469.120E-03    -233.129E-03    -236.348E-03    -236.097E-03     468.869E-03    -233.129E-03     26.2801E-03    -64.1570E+03    -1.86266E+06    -5.72944E+06    -2.05988E+06    -3.93494E+06    -1.66143E+06     430.379E+03         59.4828
             708     6.31487E-03     46.7449E-03     335.238E-03     302.588E-03        -1.19140     334.587E-03        -1.19075     302.588E-03     23.8777E-03     468.368E-03    -232.834E-03    -235.380E-03    -235.222E-03     468.210E-03    -232.834E-03     21.0571E-03     3.73983E+06     2.01195E+06    -1.91143E+06     1.62857E+06     199.832E+03     2.01195E+06    -50.5688E+03         57.9102
             709     5.52706E-03     46.7149E-03     322.109E-03     300.015E-03        -1.17724     321.533E-03        -1.17667     300.015E-03     35.2728E-03     467.657E-03    -232.526E-03    -234.948E-03    -234.823E-03     467.532E-03    -232.526E-03     18.5831E-03     4.23137E+06     1.98150E+06    -21.1238E+03     2.94886E+06     1.26138E+06     1.98150E+06    -1.61376E+06         56.8900
             710     4.74040E-03     46.7046E-03     312.974E-03     295.104E-03        -1.16593     309.216E-03        -1.16550     298.434E-03     12.7301E-03     466.053E-03    -232.247E-03    -234.054E-03    -233.973E-03     465.972E-03    -232.247E-03     14.7210E-03     498.548E+03    -991.137E+03    -4.17930E+06    -2.06000E+06    -2.24085E+06    -371.044E+03    -713.900E+03         56.3863
             711     3.95079E-03     46.6423E-03     306.451E-03     290.185E-03        -1.15630     297.279E-03        -1.15545     298.506E-03     25.7767E-03     464.298E-03    -231.707E-03    -232.934E-03    -232.422E-03     464.253E-03    -232.175E-03     10.9638E-03     1.35720E+06    -777.175E+03    -4.84293E+06    -3.41483E+06    -2.18092E+06     1.33285E+06     443.228E+03         56.1934
             712     3.16021E-03     46.6452E-03     301.365E-03     292.786E-03        -1.15351     293.303E-03        -1.15278     300.117E-03     34.8534E-03     463.015E-03    -230.457E-03    -232.567E-03    -230.560E-03     462.985E-03    -232.434E-03     8.81139E-03     4.27674E+06     384.911E+03    -2.82662E+06    -768.272E+03    -234.123E+03     2.83743E+06     287.550E+03         56.1386
             713     2.36994E-03     46.6369E-03     310.815E-03     294.090E-03        -1.16383     303.758E-03        -1.16372     301.042E-03    -8.78261E-03     465.924E-03    -230.738E-03    -235.264E-03    -230.718E-03     465.905E-03    -235.264E-03     6.87425E-03     1.71718E+06    -3.40050E+06    -7.77155E+06    -2.96630E+06    -3.85478E+06    -2.63379E+06    -32.7058E+03         56.2047
             714     1.56955E-03     46.6040E-03     315.302E-03     288.556E-03        -1.16332     301.668E-03        -1.16232     301.186E-03     41.1977E-03     472.778E-03    -233.512E-03    -239.356E-03    -233.492E-03     472.758E-03    -239.356E-03     6.24992E-03     3.89034E+06    -2.22102E+06    -8.23060E+06    -2.44229E+06    -2.51154E+06    -1.60746E+06     2.46499E+06         56.3029
             715     779.506E-06     46.5803E-03     381.302E-03     230.302E-03        -1.16843     227.024E-03        -1.16081     376.959E-03    -86.0582E-03     482.032E-03    -239.130E-03    -242.877E-03    -239.112E-03     482.014E-03    -242.877E-03     5.98444E-03     4.09423E+06     293.290E+03    -6.05522E+06    -1.71626E+06    -1.05417E+06     1.10273E+06     1.10860E+06         56.3181
             716     13.3933E-03     45.9863E-03         4.46645    -299.400E-03        -5.69040    -709.825E-03        -1.17484     361.306E-03    -799.611E-03     477.208E-03    -235.455E-03    -242.038E-03    -238.962E-03     474.132E-03    -235.455E-03     93.4417E-03     17.6576E+06     4.60649E+06    -5.40608E+06     6.90112E+06    -901.035E+03     10.8579E+06     3.33929E+06         92.1490
             717     12.6093E-03     45.7780E-03         4.44488    -415.890E-03        -2.79023         2.25966        -1.36064     339.745E-03    -1.76310E-03     476.714E-03    -235.263E-03    -241.712E-03    -238.744E-03     473.747E-03    -235.263E-03     91.5295E-03     3.35605E+06    -1.06999E+06    -11.3423E+06    -3.16285E+06    -8.00764E+06     2.11423E+06     2.10432E+06         88.3407
             718     11.8217E-03     45.6502E-03         1.10948    -425.273E-03        -2.73063        -1.06895        -1.30783     330.362E-03     315.090E-03     474.282E-03    -235.016E-03    -239.264E-03    -237.440E-03     472.458E-03    -235.016E-03     71.5065E-03    -2.16797E+06    -5.43548E+06    -14.8826E+06    -7.53442E+06    -11.6333E+06    -3.31833E+06    -76.2635E+03         82.9837
             719     11.0324E-03     45.5532E-03         1.13616     228.757E-03        -1.26559     996.250E-03        -1.25396     357.034E-03    -200.267E-03     473.734E-03    -234.846E-03    -238.455E-03    -237.122E-03     472.400E-03    -234.846E-03     61.2403E-03     1.16250E+06    -1.44959E+06    -7.55228E+06    -1.20849E+06    -6.08306E+06    -547.826E+03    -1.73958E+06         77.0229
             720     10.2426E-03     45.4649E-03     358.020E-03     213.490E-03        -1.26344     228.456E-03        -1.26216     341.767E-03     61.8741E-03     473.044E-03    -234.650E-03    -238.096E-03    -237.020E-03     471.968E-03    -234.650E-03     54.4541E-03     1.24123E+06    -3.02377E+06    -7.36472E+06    -389.441E+03    -6.45524E+06    -2.30257E+06    -977.420E+03         71.6615
             721     9.45790E-03     45.3855E-03     365.351E-03     324.103E-03        -1.26398     340.330E-03        -1.26395     349.098E-03     6.71012E-03     473.111E-03    -234.497E-03    -238.334E-03    -237.567E-03     472.344E-03    -234.497E-03     46.1823E-03     4.02898E+06    -1.16041E+06    -6.22423E+06     1.02019E+06    -4.37186E+06    -3.98588E+03    -3.06199E+06         67.4107
             722     8.67266E-03     45.2381E-03     380.466E-03     326.820E-03        -1.27705     355.408E-03        -1.27698     351.815E-03     13.2605E-03     473.059E-03    -234.357E-03    -238.332E-03    -237.762E-03     472.489E-03    -234.357E-03     39.8741E-03     2.75523E+06    -1.06115E+06    -5.93522E+06    -1.11299E+06    -4.04414E+06     915.981E+03    -2.00145E+06         64.1551
             723     7.88900E-03     45.2381E-03     380.847E-03     351.674E-03        -1.28427     380.244E-03        -1.28391     351.912E-03     43.0342E-03     471.034E-03    -233.590E-03    -237.649E-03    -237.232E-03     470.617E-03    -233.590E-03     34.2587E-03     2.40580E+06     110.458E+03    -5.48666E+06    -2.08355E+06    -2.93103E+06     2.04418E+06     457.256E+03         61.5750
             724     7.10393E-03     45.1620E-03     364.959E-03     347.172E-03        -1.28804     360.320E-03        -1.28747     351.248E-03     49.5034E-03     469.111E-03    -232.810E-03    -236.554E-03    -236.258E-03     468.815E-03    -232.810E-03     28.4965E-03     3.72959E+06     1.01209E+06    -4.51845E+06     89.8839E+03    -1.41438E+06     1.54773E+06    -1.18846E+06         59.4884
             725     6.31574E-03     45.1478E-03     376.890E-03     345.518E-03        -1.29278     371.230E-03        -1.29225     350.647E-03     41.0575E-03     468.595E-03    -232.463E-03    -235.986E-03    -235.771E-03     468.380E-03    -232.463E-03     24.4437E-03     4.28565E+06    -407.061E+03    -3.01180E+06     2.06551E+06    -791.661E+03    -407.061E+03    -1.73736E+06         57.9043
             726     5.52956E-03     45.1009E-03     366.331E-03     348.004E-03        -1.28674     364.660E-03        -1.28636     349.295E-03     33.8019E-03     467.750E-03    -232.024E-03    -235.601E-03    -235.434E-03     467.583E-03    -232.024E-03     21.4616E-03     1.42590E+06    -2.01617E+06    -2.85008E+06     30.7542E+03    -1.92210E+06    -1.54901E+06     188.693E+03         56.8596
             727     4.74093E-03     45.0690E-03     353.405E-03     344.318E-03        -1.27279     348.246E-03        -1.27250     349.184E-03    -212.614E-06     465.280E-03    -231.643E-03    -233.822E-03    -233.717E-03     465.175E-03    -231.643E-03     17.0325E-03    -1.26003E+06    -4.12808E+06    -5.52456E+06    -3.47403E+06    -4.39781E+06    -3.04083E+06     1.06290E+06         56.3272
             728     3.95341E-03     45.0575E-03     352.154E-03     341.124E-03        -1.27096     341.523E-03        -1.27019     350.981E-03     14.7835E-03     462.950E-03    -231.017E-03    -232.165E-03    -231.513E-03     462.887E-03    -231.606E-03     13.0198E-03     2.22849E+06    -995.899E+03    -3.42826E+06    -966.947E+03    -1.52920E+06     300.482E+03     796.846E+03         56.1156
             729     3.16054E-03     45.0408E-03     354.841E-03     345.363E-03        -1.27673     345.909E-03        -1.27611     353.669E-03     28.7710E-03     462.399E-03    -230.455E-03    -231.919E-03    -230.512E-03     462.365E-03    -231.829E-03     9.26386E-03     5.05563E+06     296.397E+03    -3.43620E+06    -1.10465E+06     15.4291E+03     3.00505E+06    -878.408E+03         56.0507
             730     2.36615E-03     44.9930E-03     357.855E-03     343.182E-03        -1.27776     343.082E-03        -1.27766     357.855E-03    -12.0079E-03     467.720E-03    -232.239E-03    -235.398E-03    -233.699E-03     467.706E-03    -233.925E-03     5.20105E-03     2.50021E+06    -1.75754E+06    -7.36099E+06    -4.58159E+06    -2.31155E+06     274.825E+03     311.815E+03         56.1135
             731     1.58318E-03     45.0067E-03     368.307E-03     346.168E-03        -1.29003     347.089E-03        -1.28819     365.544E-03     63.4545E-03     472.300E-03    -233.519E-03    -238.675E-03    -236.543E-03     472.297E-03    -235.647E-03     2.80830E-03     1.34503E+06    -3.57284E+06    -8.81892E+06    -4.48340E+06    -3.79993E+06    -2.76339E+06    -1.29442E+06         56.2109
             732     791.140E-06     44.9676E-03     424.032E-03     332.572E-03        -1.33307     320.568E-03        -1.31831     421.269E-03    -128.594E-03     471.183E-03    -233.822E-03    -237.291E-03    -235.592E-03     471.165E-03    -235.505E-03     5.84026E-03     1.80490E+06    -5.03978E+06    -7.94774E+06    -2.74956E+06    -4.20273E+06    -4.23034E+06    -642.459E+03         56.2221
             733     13.4026E-03     44.3466E-03         16.7295     198.868E-03        -23.8107        -7.18550    -185.703E-03     488.945E-03        -3.80473     477.706E-03    -235.076E-03    -242.768E-03    -239.681E-03     474.619E-03    -235.076E-03     93.8899E-03     16.3535E+06     5.13789E+06    -7.02138E+06     6.67932E+06    -1.24728E+06     9.03799E+06     7.31555E+06         92.1121
             734     12.6099E-03     44.1791E-03         16.2226    -368.003E-03        -6.97777         9.80796        -1.37031     439.208E-03        -1.83246     473.850E-03    -234.829E-03    -238.880E-03    -236.130E-03     471.101E-03    -234.829E-03     87.8604E-03     13.2405E+06     4.73368E+06    -10.7902E+06     1.65777E+06    -2.39173E+06     7.91789E+06     425.418E+03         88.3063
             735     11.8170E-03     44.0360E-03         1.80908    -497.124E-03        -6.98025        -4.39661        -1.58177     310.087E-03         1.64309     472.885E-03    -234.737E-03    -237.932E-03    -236.225E-03     471.178E-03    -234.737E-03     68.7833E-03     5.38692E+06    -1.22230E+06    -16.1913E+06    -2.32967E+06    -9.83396E+06     136.914E+03    -4.26734E+06         82.9519
             736     11.0351E-03     43.9197E-03         1.92007     173.975E-03        -1.38361         1.66395        -1.37459     421.080E-03    -194.240E-03     474.053E-03    -234.563E-03    -239.254E-03    -238.158E-03     472.957E-03    -234.563E-03     55.7191E-03     1.81595E+06    -1.31252E+06    -11.1583E+06     219.120E+03    -9.70525E+06    -1.16870E+06    -2.73676E+06         77.0123
             737     10.2522E-03     43.8449E-03     409.661E-03     141.518E-03        -1.38581     161.507E-03        -1.38476     388.622E-03     45.8586E-03     472.717E-03    -234.264E-03    -238.052E-03    -237.215E-03     471.879E-03    -234.264E-03     48.5942E-03     4.25875E+06    -1.04740E+06    -7.06907E+06     3.27658E+06    -6.23072E+06    -903.578E+03    -1.86863E+06         71.6725
             738     9.46335E-03     43.7737E-03     421.852E-03     396.967E-03        -1.40337     419.908E-03        -1.40332     398.859E-03     8.43997E-03     470.934E-03    -234.144E-03    -236.468E-03    -235.814E-03     470.280E-03    -234.144E-03     42.8307E-03     2.37125E+06    -3.13030E+06    -6.91705E+06     1.51040E+06    -6.05620E+06    -3.13030E+06    -338.576E+03         67.4228
             739     8.67605E-03     43.6843E-03     428.634E-03     397.220E-03        -1.39921     426.705E-03        -1.39918     399.112E-03    -5.85460E-03     470.730E-03    -234.076E-03    -236.488E-03    -235.960E-03     470.202E-03    -234.076E-03     38.4386E-03     1.05112E+06    -3.99707E+06    -7.57138E+06    -1.68894E+06    -5.97331E+06    -2.85507E+06    -980.805E+03         64.1615
             740     7.88755E-03     43.6245E-03     426.653E-03     390.299E-03        -1.38736     417.701E-03        -1.38719     399.086E-03    -2.78823E-03     469.972E-03    -233.418E-03    -236.774E-03    -236.338E-03     469.536E-03    -233.418E-03     35.0588E-03     1.84719E+06    -3.26743E+06    -7.69107E+06    -2.04035E+06    -4.76932E+06    -2.30164E+06    -230.278E+03         61.5842
             741     7.09936E-03     43.5901E-03     401.131E-03     381.537E-03        -1.37655     381.339E-03        -1.37636     401.131E-03    -13.2974E-03     468.726E-03    -232.772E-03    -236.159E-03    -235.832E-03     468.399E-03    -232.772E-03     30.0548E-03     3.75687E+06    -1.21971E+06    -6.30075E+06    -639.657E+03    -2.43155E+06    -692.370E+03    -933.051E+03         59.5012
             742     6.31392E-03     43.5167E-03     405.141E-03     384.701E-03        -1.37771     384.586E-03        -1.37760     405.141E-03    -21.1983E-03     468.281E-03    -232.463E-03    -235.791E-03    -235.559E-03     468.048E-03    -232.463E-03     25.5177E-03     3.90623E+06    -524.290E+03    -4.96610E+06    -828.254E+03    -1.34278E+06     586.873E+03    -20.6952E+03         57.9120
             743     5.52733E-03     43.4967E-03     410.000E-03     396.663E-03        -1.39654     398.070E-03        -1.39649     408.536E-03    -5.98493E-03     467.563E-03    -232.027E-03    -235.467E-03    -235.295E-03     467.390E-03    -232.027E-03     21.7586E-03     1.17891E+06    -1.21407E+06    -4.75635E+06    -2.29285E+06    -2.15936E+06    -339.297E+03     2.28873E+06         56.8488
             744     4.74132E-03     43.4797E-03     415.505E-03     406.402E-03        -1.41272     411.549E-03        -1.41254     410.178E-03    -12.5819E-03     465.354E-03    -231.666E-03    -233.753E-03    -233.658E-03     465.259E-03    -231.666E-03     16.0683E-03     2.56929E+06     290.428E+03    -3.40942E+06    -771.577E+03    -692.467E+03     914.345E+03     203.683E+03         56.2914
             745     3.94952E-03     43.4626E-03     415.598E-03     408.043E-03        -1.41502     412.850E-03        -1.41480     410.562E-03    -8.14242E-03     463.748E-03    -231.386E-03    -232.474E-03    -232.298E-03     463.693E-03    -231.507E-03     12.0300E-03     2.47566E+06    -252.049E+03    -4.16906E+06    -1.44805E+06    -1.04504E+06     547.648E+03    -789.424E+03         56.0654
             746     3.16140E-03     43.4300E-03     412.713E-03     407.705E-03        -1.41333     408.741E-03        -1.41319     411.541E-03     14.2404E-03     464.269E-03    -231.113E-03    -232.991E-03    -232.839E-03     464.237E-03    -231.235E-03     8.94050E-03     1.78288E+06    -1.88347E+06    -6.03025E+06    -4.58741E+06    -2.33525E+06     791.827E+03    -536.532E+03         55.9968
             747     2.37655E-03     43.4129E-03     419.497E-03     403.844E-03        -1.41639     409.482E-03        -1.41598     413.444E-03    -26.5195E-03     468.443E-03    -232.393E-03    -235.929E-03    -235.902E-03     468.416E-03    -232.393E-03     7.53468E-03     2.08360E+06    -1.59548E+06    -5.45559E+06    -3.00911E+06    -1.67306E+06    -285.313E+03    -597.026E+03         56.0612
             748     1.58613E-03     43.3884E-03     423.558E-03     407.194E-03        -1.42274     414.111E-03        -1.42084     414.743E-03     42.9183E-03     470.358E-03    -232.426E-03    -237.865E-03    -237.841E-03     470.333E-03    -232.426E-03     7.22761E-03     175.820E+03    -5.33017E+06    -8.63506E+06    -3.15215E+06    -4.58490E+06    -6.05236E+06    -1.40403E+06         56.1631
             749     800.976E-06     43.3858E-03     440.872E-03     408.836E-03        -1.44148     398.815E-03        -1.42216     431.574E-03    -179.805E-03     462.564E-03    -229.070E-03    -233.525E-03    -233.496E-03     462.535E-03    -229.070E-03     8.55307E-03     2.27937E+06    -5.90397E+06    -9.45965E+06    -2.93731E+06    -5.50371E+06    -4.64323E+06    -555.721E+03         56.1768
             750     13.3991E-03     42.7429E-03         51.4395        -1.02594        -110.727        -58.1146        -2.89115     692.142E-03        -1.37266     480.994E-03    -235.129E-03    -245.916E-03    -242.690E-03     477.768E-03    -235.129E-03     96.4288E-03     14.9311E+06     6.90736E+06    -13.9309E+06    -2.73069E+06    -2.96369E+06     13.6020E+06    -532.720E+03         92.1024
             751     12.6158E-03     42.5722E-03         51.7002     820.656E-03        -10.4489         41.9745        -1.13088         1.22842        -12.2777     476.980E-03    -234.629E-03    -242.261E-03    -239.345E-03     474.064E-03    -234.629E-03     90.8673E-03     21.3236E+06     11.1163E+06    -10.0576E+06     10.5080E+06     398.142E+03     11.4762E+06     -54.633E+03         88.3211
             752     11.8314E-03     42.4179E-03         1.99216    -131.765E-03        -9.72405        -6.97232        -1.16733     275.995E-03     632.105E-03     473.979E-03    -234.351E-03    -239.788E-03    -237.901E-03     472.093E-03    -234.351E-03     72.3822E-03     10.9293E+06     1.79859E+06    -14.7508E+06     4.42902E+06    -8.25048E+06     1.79859E+06     281.774E+03         82.9931
             753     11.0393E-03     42.3434E-03         2.00691     229.190E-03        -1.53578         1.74743        -1.51947     472.368E-03     115.859E-03     472.363E-03    -234.152E-03    -238.356E-03    -237.150E-03     471.157E-03    -234.152E-03     58.0763E-03     3.52428E+06     29.1905E+03    -9.47808E+06     1.53587E+06    -7.48967E+06     29.1905E+03     473.332E+03         77.0631
             754     10.2528E-03     42.2308E-03     452.754E-03     195.397E-03        -1.49215     206.361E-03        -1.48893     438.575E-03    -55.2278E-03     471.164E-03    -233.822E-03    -236.920E-03    -236.003E-03     470.247E-03    -233.822E-03     50.8753E-03     2.84713E+06    -2.04475E+06    -8.27381E+06    -501.101E+03    -6.05591E+06    -914.420E+03     756.609E+03         71.7154
             755     9.46505E-03     42.1473E-03     465.693E-03     443.924E-03        -1.50201     459.968E-03        -1.50192     449.559E-03     15.0525E-03     469.735E-03    -233.862E-03    -235.645E-03    -234.887E-03     468.977E-03    -233.862E-03     46.1551E-03    -2.45181E+06    -6.27401E+06    -9.08833E+06    -4.16645E+06    -8.22792E+06    -5.41978E+06     1.41095E+06         67.4484
             756     8.67486E-03     42.1399E-03     460.337E-03     443.521E-03        -1.49253     452.656E-03        -1.49247     451.149E-03    -1.16852E-03     469.232E-03    -233.903E-03    -235.465E-03    -234.904E-03     468.670E-03    -233.903E-03     39.4728E-03    -1.59428E+06    -6.80236E+06    -8.74144E+06    -2.14030E+06    -7.50826E+06    -7.48951E+06     956.705E+03         64.1722
             757     7.88637E-03     42.0144E-03     461.242E-03     437.642E-03        -1.49312     444.723E-03        -1.49296     454.009E-03    -2.05383E-03     468.697E-03    -233.309E-03    -235.698E-03    -235.288E-03     468.287E-03    -233.309E-03     33.9231E-03    -222.236E+03    -6.63773E+06     -7.8571E+06    -1.07566E+06    -6.20788E+06    -7.43352E+06    -1.00108E+06         61.5975
             758     7.09991E-03     41.9457E-03     458.443E-03     436.480E-03        -1.50425     436.813E-03        -1.50396     457.821E-03     995.240E-06     468.033E-03    -232.766E-03    -235.485E-03    -235.194E-03     467.742E-03    -232.766E-03     28.2225E-03     2.11532E+06    -3.40366E+06    -5.37015E+06    -597.421E+03    -2.97621E+06    -3.08486E+06    -28.9905E+03         59.5237
             759     6.31257E-03     41.9280E-03     462.159E-03     446.143E-03        -1.51234     446.554E-03        -1.51204     461.454E-03     6.38962E-03     467.632E-03    -232.493E-03    -235.198E-03    -234.988E-03     467.423E-03    -232.493E-03     24.2612E-03     2.62565E+06    -818.040E+03    -7.08537E+06    -3.30863E+06    -2.26225E+06     293.123E+03     158.168E+03         57.9356
             760     5.52601E-03     41.8773E-03     464.783E-03     449.755E-03        -1.51928     449.683E-03        -1.51913     464.701E-03     14.0701E-03     467.028E-03    -232.194E-03    -234.935E-03    -234.777E-03     466.870E-03    -232.194E-03     20.4968E-03     3.47080E+06     1.92429E+06    -5.30844E+06    -2.26206E+06    -246.482E+03     2.59519E+06    -697.734E+03         56.8644
             761     4.73840E-03     41.8306E-03     470.752E-03     458.966E-03        -1.53384     462.781E-03        -1.53379     466.889E-03     16.0663E-03     465.725E-03    -231.910E-03    -234.119E-03    -234.047E-03     465.653E-03    -231.910E-03     14.0226E-03     5.42097E+06     4.63812E+06    -1.81567E+06     446.406E+03     2.73885E+06     5.05816E+06     264.158E+03         56.2931
             762     3.95230E-03     41.8409E-03     472.336E-03     465.123E-03        -1.54225     469.804E-03        -1.54202     467.425E-03     32.6698E-03     465.037E-03    -231.536E-03    -233.769E-03    -233.715E-03     464.984E-03    -231.536E-03     12.0250E-03     2.08826E+06     488.070E+03    -5.45277E+06    -3.95410E+06    -985.991E+03     2.06366E+06     207.505E+03         56.0570
             763     3.16376E-03     41.8188E-03     471.169E-03     465.880E-03        -1.54309     469.201E-03        -1.54280     467.553E-03     42.8812E-03     465.115E-03    -230.905E-03    -234.093E-03    -234.046E-03     465.068E-03    -230.905E-03     11.2930E-03     85.2204E+03    -1.87485E+06    -4.42749E+06    -3.74717E+06    -2.17538E+06    -294.567E+03    -217.907E+03         55.9876
             764     2.37380E-03     41.7917E-03     475.741E-03     465.897E-03        -1.54729     474.644E-03        -1.54688     466.588E-03    -20.3787E-03     467.526E-03    -231.992E-03    -235.533E-03    -235.494E-03     467.487E-03    -231.992E-03     10.2648E-03    -912.688E+03    -3.35152E+06    -5.04080E+06    -2.30982E+06    -3.08293E+06    -3.91227E+06    -992.511E+03         56.0552
             765     1.58524E-03     41.8010E-03     471.532E-03     463.973E-03        -1.54214     467.825E-03        -1.53924     464.775E-03     64.9064E-03     468.235E-03    -232.330E-03    -236.005E-03    -235.459E-03     468.208E-03    -232.849E-03     7.98911E-03     132.551E+03    -3.06926E+06    -5.06984E+06    -2.03255E+06    -2.57006E+06    -3.40394E+06     569.891E+03         56.1573
             766     791.544E-06     41.7894E-03     500.413E-03     453.699E-03        -1.55698     473.645E-03        -1.53101     454.501E-03    -211.356E-03     464.760E-03    -230.626E-03    -234.107E-03    -233.278E-03     464.744E-03    -231.440E-03     4.64947E-03     3.47034E+06    -2.44009E+06    -5.93192E+06    -1.84751E+06    -2.26232E+06    -791.833E+03    -1.69735E+06         56.1670
             767     13.3943E-03     41.0987E-03         59.3981        -1.11548        -116.697        -54.9110        -4.10596     602.607E-03         8.37961     481.858E-03    -235.454E-03    -246.315E-03    -242.953E-03     478.496E-03    -235.454E-03     98.4271E-03     8.61239E+06     657.752E+03    -13.4635E+06    -7.87965E+06    -4.72300E+06     8.40933E+06    -6.72009E+06         92.1201
             768     12.6088E-03     40.9453E-03         51.1524         1.25151        -22.9427         29.7785        -1.56884         1.25151         13.2998     481.187E-03    -234.908E-03    -246.488E-03    -243.246E-03     477.945E-03    -234.908E-03     96.4828E-03     5.77586E+06    -6.03104E+06    -19.0421E+06    -8.13950E+06    -12.4088E+06     1.25101E+06     1.50704E+06         88.3548
             769     11.8245E-03     40.8259E-03         2.85478     284.115E-03        -6.37905        -2.48559        -1.15482     400.263E-03        -2.85700     476.791E-03    -234.322E-03    -242.949E-03    -240.770E-03     474.612E-03    -234.322E-03     78.6876E-03     5.63408E+06    -2.98832E+06    -11.3458E+06    -1.24269E+06    -8.48886E+06     1.03147E+06     4.69446E+06         83.0526
             770     11.0419E-03     40.7341E-03         1.14065     286.134E-03        -1.65872     839.587E-03        -1.56884     497.311E-03     444.175E-03     471.931E-03    -233.982E-03    -238.147E-03    -236.736E-03     470.520E-03    -233.982E-03     62.8044E-03     442.278E+03    -2.09135E+06    -6.50185E+06    -2.34942E+06    -5.01145E+06    -790.037E+03     1.67377E+06         77.1282
             771     10.2512E-03     40.6165E-03     511.792E-03     380.566E-03        -1.56533     395.512E-03        -1.55984     491.360E-03    -100.106E-03     469.581E-03    -233.759E-03    -235.373E-03    -234.311E-03     468.519E-03    -233.759E-03     54.5620E-03    -1.06073E+06    -5.60435E+06    -8.58745E+06    -4.94901E+06    -6.69143E+06    -3.61209E+06     1.65810E+06         71.7631
             772     9.46289E-03     40.5372E-03     501.303E-03     466.839E-03        -1.57889     468.673E-03        -1.57852     499.098E-03     38.2705E-03     470.538E-03    -233.910E-03    -236.565E-03    -235.658E-03     469.632E-03    -233.910E-03     50.2985E-03    -1.34301E+06    -5.17871E+06    -6.89538E+06    -3.15286E+06    -6.02506E+06     -4.2392E+06     329.590E+03         67.4728
             773     8.67709E-03     40.4792E-03     503.291E-03     481.700E-03        -1.60251     481.633E-03        -1.60244     503.291E-03     18.5718E-03     471.197E-03    -233.860E-03    -237.654E-03    -237.040E-03     470.582E-03    -233.860E-03     41.2906E-03     70.5660E+03    -3.34226E+06    -5.20477E+06    -1.23275E+06    -3.76530E+06    -3.47841E+06     522.826E+03         64.1857
             774     7.88850E-03     40.4157E-03     509.731E-03     495.748E-03        -1.62457     498.716E-03        -1.62448     506.669E-03     23.1021E-03     469.143E-03    -233.177E-03    -236.239E-03    -235.856E-03     468.760E-03    -233.177E-03     32.4843E-03     1.92562E+06    -1.48623E+06    -3.36690E+06    -183.814E+03    -1.52455E+06    -1.21915E+06    -775.185E+03         61.6217
             775     7.09932E-03     40.3515E-03     512.842E-03     501.430E-03        -1.63590     504.950E-03        -1.63573     509.157E-03     27.9793E-03     466.189E-03    -232.256E-03    -234.143E-03    -233.498E-03     465.934E-03    -232.646E-03     26.4637E-03     783.018E+03    -2.85675E+06    -4.97017E+06    -2.14043E+06    -2.79619E+06    -2.10728E+06    -91.3990E+03         59.5618
             776     6.31192E-03     40.3114E-03     511.565E-03     507.215E-03        -1.63826     507.719E-03        -1.63806     510.861E-03     28.9683E-03     465.957E-03    -232.126E-03    -233.873E-03    -233.253E-03     465.729E-03    -232.517E-03     25.2572E-03     1.55686E+06    -2.59768E+06    -7.80625E+06    -2.50606E+06    -3.33961E+06    -3.00139E+06    -682.497E+03         57.9768
             777     5.52468E-03     40.2290E-03     512.819E-03     503.106E-03        -1.63399     503.085E-03        -1.63389     512.736E-03     16.7648E-03     466.443E-03    -232.431E-03    -234.085E-03    -233.913E-03     466.270E-03    -232.431E-03     21.3179E-03     2.03921E+06    -336.559E+03    -6.86524E+06    -2.55571E+06    -1.88297E+06    -723.911E+03    -2.61989E+06         56.9007
             778     4.73744E-03     40.2522E-03     515.820E-03     496.487E-03        -1.63009     496.277E-03        -1.62988     515.820E-03    -7.51455E-03     466.218E-03    -232.270E-03    -234.251E-03    -234.163E-03     466.130E-03    -232.270E-03     15.5881E-03     358.045E+03    -570.028E+03    -5.21913E+06    -3.39925E+06    -1.80561E+06    -226.257E+03    -334.194E+03         56.3239
             779     3.94844E-03     40.2286E-03     520.779E-03     501.563E-03        -1.64063     502.263E-03        -1.64029     519.731E-03     4.86280E-03     466.482E-03    -231.867E-03    -234.904E-03    -234.831E-03     466.408E-03    -231.867E-03     14.1941E-03     1.90857E+06    -252.841E+03    -3.80367E+06    -1.78196E+06    -889.029E+03     523.052E+03     24.4320E+03         56.0968
             780     3.16153E-03     40.2098E-03     526.591E-03     512.167E-03        -1.65801     515.433E-03        -1.65766     522.974E-03     4.34735E-03     465.477E-03    -231.140E-03    -234.338E-03    -234.287E-03     465.426E-03    -231.140E-03     11.7508E-03     4.06249E+06     889.923E+03    -2.18527E+06    -1.31075E+06     816.625E+03     3.26127E+06    -497.446E+03         56.0502
             781     2.37388E-03     40.1895E-03     528.303E-03     517.520E-03        -1.66527     520.120E-03        -1.66477     525.204E-03    -52.7738E-03     467.027E-03    -232.295E-03    -234.691E-03    -234.442E-03     467.002E-03    -232.519E-03     8.03548E-03     441.580E+03    -3.02425E+06    -6.20580E+06    -4.49325E+06    -2.86642E+06    -1.42880E+06     724.911E+03         56.1275
             782     1.58365E-03     40.1878E-03     532.349E-03     522.548E-03        -1.67507     526.415E-03        -1.67273     526.147E-03     45.9692E-03     468.604E-03    -233.505E-03    -235.105E-03    -234.241E-03     468.594E-03    -234.360E-03     5.00897E-03    -2.27106E+06    -5.51305E+06    -7.62052E+06    -4.48518E+06    -5.29036E+06    -5.62909E+06     869.952E+03         56.2194
             783     790.327E-06     40.2014E-03     579.545E-03     492.561E-03        -1.68884     559.646E-03        -1.66895     492.561E-03    -189.237E-03     469.097E-03    -233.959E-03    -235.120E-03    -234.191E-03     469.093E-03    -234.884E-03     1.46116E-03    -797.203E+03    -5.55918E+06    -8.12934E+06    -3.47208E+06    -5.38332E+06    -5.63033E+06    -2.18904E+06         56.2217
             784     13.3807E-03     39.4914E-03         105.355     967.808E-03        -57.8757         47.3074     847.210E-03     292.436E-03         5.13861     478.036E-03    -235.636E-03    -242.379E-03    -239.016E-03     474.674E-03    -235.636E-03     98.0652E-03     7.99490E+06     472.868E+03    -11.0759E+06    -4.29033E+06    -3.76138E+06     5.44356E+06     1.74911E+06         92.1625
             785     12.6016E-03     39.3248E-03         17.5906    -170.710E-03        -51.5983        -32.1812        -1.82638    -170.710E-03         14.1230     481.051E-03    -235.231E-03    -245.976E-03    -242.778E-03     477.853E-03    -235.231E-03     95.8488E-03     5.43596E+06    -4.70135E+06    -18.1097E+06    -7.90470E+06    -11.6911E+06     2.22076E+06     1.16152E+06         88.3992
             786     11.8208E-03     39.1156E-03         6.71689     2.15926E-03        -3.05817         5.09484        -2.05342     619.464E-03        -2.14352     478.345E-03    -234.602E-03    -244.152E-03    -242.019E-03     476.212E-03    -234.602E-03     77.8141E-03     2.68414E+06    -2.55197E+06    -12.6761E+06    -4.31067E+06    -10.0505E+06     1.81722E+06    -397.007E+03         83.1092
             787     11.0335E-03     39.1537E-03     634.411E-03    -104.904E-03        -1.94355    -321.982E-03        -1.60447     512.401E-03     345.837E-03     473.178E-03    -234.202E-03    -239.247E-03    -237.956E-03     471.887E-03    -234.202E-03     59.9768E-03    -1.40196E+06    -4.70785E+06    -11.4234E+06    -5.05648E+06    -9.41960E+06    -3.05714E+06     893.465E+03         77.1906
             788     10.2473E-03     39.0198E-03     662.989E-03     510.233E-03        -1.64597     629.639E-03        -1.64337     540.978E-03    -60.5699E-03     470.140E-03    -234.042E-03    -235.798E-03    -234.697E-03     469.039E-03    -234.042E-03     55.4608E-03     871.173E+03    -3.16530E+06    -7.29659E+06    -1.31245E+06    -5.97489E+06    -2.30337E+06    -490.669E+03         71.8158
             789     9.45642E-03     38.9137E-03     542.519E-03     487.139E-03        -1.66070     486.795E-03        -1.66035     542.519E-03     30.3964E-03     471.220E-03    -234.111E-03    -237.020E-03    -236.008E-03     470.207E-03    -234.111E-03     53.1398E-03     2.70394E+06     436.478E+03    -2.95788E+06     769.759E+03    -1.77180E+06     1.18458E+06     660.697E+03         67.5030
             790     8.67107E-03     38.8048E-03     549.137E-03     496.190E-03        -1.69219     496.142E-03        -1.69214     549.137E-03     8.42671E-03     472.598E-03    -233.971E-03    -238.815E-03    -238.119E-03     471.902E-03    -233.971E-03     44.3344E-03     1.70353E+06     269.752E+03    -3.51196E+06    -1.65512E+06    -1.50478E+06     1.62122E+06    -1.22095E+06         64.2020
             791     7.89041E-03     38.8002E-03     558.138E-03     515.190E-03        -1.71631     518.149E-03        -1.71620     555.075E-03    -2.88810E-03     470.200E-03    -233.187E-03    -237.418E-03    -236.950E-03     469.731E-03    -233.187E-03     35.7867E-03     1.44009E+06     104.951E+03    -4.52264E+06    -2.20730E+06    -1.69104E+06     920.737E+03    -542.930E+03         61.6526
             792     7.10299E-03     38.6885E-03     562.615E-03     540.566E-03        -1.73488     543.531E-03        -1.73478     559.552E-03    -14.0694E-03     466.186E-03    -232.217E-03    -234.417E-03    -233.723E-03     465.882E-03    -232.607E-03     28.8824E-03     953.112E+03    -1.33433E+06    -4.71124E+06    -2.06772E+06    -2.43987E+06    -584.868E+03    -264.200E+03         59.6158
             793     6.30987E-03     38.6837E-03     562.320E-03     549.924E-03        -1.74684     549.871E-03        -1.74678     562.320E-03    -10.3925E-03     464.451E-03    -231.456E-03    -233.115E-03    -231.764E-03     464.208E-03    -232.563E-03     25.8334E-03     959.289E+03    -2.24913E+06    -4.83364E+06    -925.652E+03    -2.83045E+06    -2.36737E+06    -384.084E+03         58.0415
             794     5.52057E-03     38.7120E-03     564.573E-03     554.192E-03        -1.75204     554.150E-03        -1.75199     564.573E-03    -2.53852E-03     464.859E-03    -231.726E-03    -233.149E-03    -232.035E-03     464.696E-03    -232.677E-03     21.0317E-03    -232.466E+03    -3.85702E+06     -6.6375E+06    -2.25134E+06    -4.25347E+06    -4.22219E+06     611.079E+03         56.9613
             795     4.73141E-03     38.6349E-03     567.633E-03     552.075E-03        -1.75283     551.875E-03        -1.75263     567.633E-03    -17.1742E-03     466.742E-03    -232.524E-03    -234.265E-03    -233.924E-03     466.636E-03    -232.759E-03     17.1542E-03    -95.6732E+03    -2.88832E+06    -6.25462E+06    -3.04153E+06    -3.38926E+06    -2.80783E+06    -1.26365E+06         56.3762
             796     3.94562E-03     38.6199E-03     571.740E-03     552.057E-03        -1.75762     551.854E-03        -1.75742     571.740E-03    -15.0868E-03     467.673E-03    -232.454E-03    -235.341E-03    -235.266E-03     467.598E-03    -232.454E-03     14.3279E-03     3.22343E+06     651.154E+03    -2.93773E+06    -577.189E+03     39.9889E+03     1.47406E+06    -1.58872E+06         56.1681
             797     3.15947E-03     38.6060E-03     576.051E-03     561.263E-03        -1.77252     560.971E-03        -1.77223     576.051E-03     5.27657E-03     468.303E-03    -232.956E-03    -235.459E-03    -235.416E-03     468.260E-03    -232.956E-03     10.7619E-03     2.18899E+06    -2.67516E+06    -6.03174E+06    -3.25992E+06    -2.83973E+06    -418.253E+03    -842.487E+03         56.1674
             798     2.37144E-03     38.6134E-03     580.110E-03     568.951E-03        -1.78444     568.350E-03        -1.78384     580.110E-03    -17.3149E-03     470.223E-03    -234.489E-03    -235.872E-03    -235.628E-03     470.203E-03    -234.713E-03     7.18791E-03     503.315E+03    -4.09055E+06    -7.50940E+06    -3.79946E+06    -4.27389E+06    -3.02329E+06     449.037E+03         56.2674
             799     1.57877E-03     38.6113E-03     589.897E-03     570.526E-03        -1.79842     575.265E-03        -1.79766     584.398E-03     31.7496E-03     471.625E-03    -235.161E-03    -236.544E-03    -236.201E-03     471.618E-03    -235.496E-03     3.79959E-03    -2.18043E+06    -4.66043E+06    -8.14183E+06    -4.34828E+06    -5.10368E+06    -5.53073E+06     674.205E+03         56.3492
             800     790.190E-06     38.5943E-03     628.592E-03     551.307E-03        -1.81619     614.071E-03        -1.80965     559.284E-03    -127.103E-03     470.788E-03    -234.755E-03    -236.190E-03    -236.075E-03     470.784E-03    -234.866E-03     61.2778E-06    -688.984E+03    -4.39390E+06    -11.1197E+06    -4.68969E+06    -6.66033E+06    -4.85256E+06     2.32947E+06         56.3466
             801     13.3898E-03     37.8810E-03         102.002     598.401E-03        -43.5625         58.8696    -167.549E-03     335.628E-03        -3.44285     475.466E-03    -235.609E-03    -239.894E-03    -236.372E-03     471.944E-03    -235.609E-03     99.2414E-03     9.51607E+06     4.83904E+06    -14.4631E+06    -2.02999E+06    -4.97106E+06     6.89310E+06     1.39649E+06         92.2157
             802     12.5952E-03     37.7058E-03         8.83042    -644.323E-03        -44.2487        -34.1726        -1.65826    -231.723E-03        -11.3535     477.697E-03    -235.438E-03    -242.396E-03    -238.925E-03     474.226E-03    -235.438E-03     98.7245E-03     12.1579E+06     6.70290E+06    -14.0291E+06     2.16261E+06    -4.03376E+06     6.70290E+06     1.19714E+06         88.4478
             803     11.8113E-03     37.5636E-03         8.36623    -343.639E-03        -2.38474         6.82559        -1.88907     701.331E-03     962.048E-03     477.275E-03    -235.010E-03    -242.529E-03    -240.422E-03     475.168E-03    -235.010E-03     77.1770E-03     7.85063E+06     2.51236E+06    -12.9078E+06     2.84392E+06    -8.25052E+06     2.86176E+06     583.241E+03         83.1533
             804     11.0306E-03     37.4514E-03     739.320E-03    -501.460E-03        -2.11890    -723.022E-03        -1.70152     543.509E-03    -9.85842E-03     474.062E-03    -234.732E-03    -239.375E-03    -238.078E-03     472.765E-03    -234.732E-03     60.2067E-03     5.96745E+06     730.005E+03    -9.76285E+06     1.68868E+06    -6.90953E+06     2.15545E+06     173.608E+03         77.2363
             805     10.2429E-03     37.4013E-03     780.285E-03     556.643E-03        -1.75462     751.992E-03        -1.75415     584.474E-03     1.98900E-03     472.884E-03    -234.544E-03    -238.076E-03    -236.798E-03     471.606E-03    -234.544E-03     59.5496E-03     4.82482E+06     412.377E+03    -6.25992E+06     343.699E+03    -4.41350E+06     3.04708E+06     976.952E+03         71.8613
             806     9.45730E-03     37.3096E-03     581.962E-03     533.682E-03        -1.75893     533.607E-03        -1.75886     581.962E-03    -5.71183E-03     473.013E-03    -234.437E-03    -238.418E-03    -237.215E-03     471.810E-03    -234.437E-03     57.5702E-03     2.75553E+06    -176.356E+03    -5.31075E+06    -1.22154E+06    -3.55515E+06     2.04511E+06     179.388E+03         67.5347
             807     8.66959E-03     37.2466E-03     588.923E-03     516.917E-03        -1.76955     516.837E-03        -1.76947     588.923E-03    -3.79786E-03     472.121E-03    -234.378E-03    -237.683E-03    -236.941E-03     471.379E-03    -234.378E-03     45.6823E-03     2.57151E+06    -461.381E+03    -5.50302E+06    -882.071E+03    -3.10597E+06     595.164E+03    -1.02146E+06         64.2204
             808     7.87923E-03     37.1682E-03     597.510E-03     521.605E-03        -1.78464     521.443E-03        -1.78448     597.510E-03     10.3239E-03     470.405E-03    -233.645E-03    -237.144E-03    -236.632E-03     469.894E-03    -233.645E-03     37.7005E-03     2.30998E+06    -1.56503E+06    -7.60351E+06    -1.65996E+06    -4.02731E+06    -1.17129E+06    -396.335E+03         61.6868
             809     7.09464E-03     37.1160E-03     605.050E-03     560.666E-03        -1.81156     560.445E-03        -1.81134     605.050E-03     7.36836E-03     468.304E-03    -233.049E-03    -235.793E-03    -235.425E-03     467.937E-03    -233.049E-03     32.1227E-03     3.04461E+06    -1.38116E+06    -7.30485E+06    -891.115E+03    -3.36912E+06    -1.38116E+06     310.952E+03         59.6814
             810     6.31167E-03     37.1010E-03     610.087E-03     579.893E-03        -1.84172     579.657E-03        -1.84148     610.087E-03     18.9482E-03     466.303E-03    -232.221E-03    -234.234E-03    -233.213E-03     465.998E-03    -232.937E-03     28.8702E-03     77.1506E+03    -2.85944E+06    -7.46444E+06    -3.35978E+06    -4.63111E+06    -2.25584E+06     509.732E+03         58.1283
             811     5.51906E-03     37.0701E-03     613.407E-03     600.986E-03        -1.86556     600.782E-03        -1.86536     613.407E-03     28.5777E-03     465.409E-03    -231.950E-03    -233.487E-03    -232.291E-03     465.227E-03    -232.965E-03     21.6522E-03     1.58143E+06    -1.14108E+06    -3.64151E+06    -1.04314E+06    -1.97545E+06    -182.564E+03    -6.89303E+03         57.0502
             812     4.72925E-03     37.0332E-03     622.226E-03     612.373E-03        -1.88732     619.858E-03        -1.88725     614.670E-03     11.4693E-03     465.719E-03    -231.985E-03    -233.812E-03    -232.553E-03     465.622E-03    -233.147E-03     16.3665E-03     3.14607E+06     284.700E+03    -3.70197E+06     205.583E+03    -1.11641E+06     639.617E+03     149.165E+03         56.4562
             813     3.94235E-03     37.0106E-03     629.586E-03     610.761E-03        -1.89293     626.490E-03        -1.89267     613.596E-03     25.8710E-03     466.549E-03    -232.122E-03    -234.533E-03    -233.316E-03     466.461E-03    -233.251E-03     15.5489E-03     1.66703E+06    -373.002E+03    -5.57979E+06    -2.41331E+06    -2.32235E+06     449.902E+03    -465.165E+03         56.2579
             814     3.15471E-03     36.9913E-03     620.989E-03     608.035E-03        -1.88118     616.583E-03        -1.88076     612.015E-03     32.8237E-03     469.390E-03    -234.003E-03    -235.578E-03    -235.258E-03     469.337E-03    -234.269E-03     11.6784E-03     2.11083E+06    -1.06157E+06    -5.63315E+06    -2.03496E+06    -2.37905E+06    -169.880E+03     206.357E+03         56.2899
             815     2.36501E-03     37.0071E-03     612.940E-03     606.672E-03        -1.87289     606.975E-03        -1.87265     612.400E-03     10.6980E-03     473.700E-03    -236.213E-03    -237.911E-03    -237.895E-03     473.684E-03    -236.213E-03     6.54339E-03    -1.09470E+06    -3.90340E+06    -7.35060E+06    -3.22651E+06    -4.92082E+06    -4.20136E+06    -8.40564E+03         56.4130
             816     1.58014E-03     36.9952E-03     620.538E-03     602.681E-03        -1.87819     607.525E-03        -1.87770     615.208E-03     14.2929E-03     474.847E-03    -236.511E-03    -238.578E-03    -238.302E-03     474.840E-03    -236.780E-03     3.66672E-03    -1.98082E+06    -3.17332E+06    -5.51779E+06    -3.24565E+06    -4.00276E+06    -3.42351E+06    -1.08284E+06         56.4949
             817     792.971E-06     36.9925E-03     640.607E-03     596.410E-03        -1.89399     629.870E-03        -1.89123     604.386E-03    -80.0816E-03     473.020E-03    -235.765E-03    -237.324E-03    -236.847E-03     473.013E-03    -236.235E-03     1.41816E-03     6.08749E+06     1.30716E+06    -9.53184E+06    -1.09371E+06    -2.46720E+06     1.42371E+06    -1.17176E+06         56.4877
             818     13.3816E-03     36.2677E-03         21.9277    -412.076E-03        -13.8973         9.91963        -2.83460     533.228E-03        -2.43458     476.535E-03    -235.509E-03    -241.068E-03    -237.489E-03     472.956E-03    -235.509E-03     100.287E-03     6.14780E+06     3.78857E+06    -11.7697E+06     1.34862E+06    -7.18592E+06     4.00402E+06    -1.77499E+06         92.2599
             819     12.5941E-03     36.1135E-03         4.81498    -428.556E-03        -12.9170        -7.28011        -1.76717     516.748E-03        -1.85848     476.014E-03    -235.246E-03    -240.885E-03    -237.398E-03     472.749E-03    -235.468E-03     95.2379E-03     4.93536E+06    -687.732E+03    -13.7145E+06    -2.34282E+06    -8.03188E+06     907.877E+03     485.817E+03         88.4853
             820     11.8060E-03     35.9715E-03         4.96034    -200.002E-03        -1.86870         3.83715        -1.60762     662.100E-03         1.18817     471.820E-03    -233.893E-03    -238.001E-03    -234.769E-03     470.002E-03    -235.307E-03     70.5655E-03     7.63220E+06    -296.703E+03    -7.92056E+06     1.15172E+06    -5.24704E+06     3.51026E+06     1.35280E+06         83.1763
             821     11.0147E-03     35.7732E-03     705.743E-03    -273.913E-03        -1.98336    -322.454E-03        -1.81727     588.189E-03    -181.328E-03     471.985E-03    -234.119E-03    -237.705E-03    -235.311E-03     470.782E-03    -235.311E-03     57.9042E-03     7.41896E+06     1.51673E+06    -4.63524E+06     2.62403E+06    -3.58572E+06     5.26214E+06    -841.065E+03         77.2549
             822     10.2299E-03     35.7349E-03     737.541E-03     584.568E-03        -1.84394     701.619E-03        -1.84344     619.987E-03     59.9022E-03     475.512E-03    -235.098E-03    -239.987E-03    -238.683E-03     474.208E-03    -235.098E-03     60.5636E-03     2.85172E+06    -1.61526E+06    -6.80661E+06    -1.18780E+06    -5.85981E+06     1.47746E+06     960.488E+03         71.8878
             823     9.44640E-03     35.6826E-03     623.596E-03     577.586E-03        -1.85783     581.403E-03        -1.85773     619.678E-03    -5.91439E-03     474.858E-03    -234.892E-03    -239.772E-03    -238.625E-03     473.712E-03    -234.892E-03     56.1368E-03     2.77997E+06    -1.39124E+06    -6.20604E+06    -209.671E+03    -4.77506E+06     167.420E+03    -104.713E+03         67.5581
             824     8.66201E-03     35.6521E-03     628.558E-03     576.281E-03        -1.87591     580.088E-03        -1.87580     624.640E-03    -740.932E-06     471.772E-03    -234.899E-03    -236.832E-03    -236.065E-03     471.005E-03    -234.899E-03     46.3501E-03     1.05928E+06    -1.94104E+06    -6.39921E+06    -526.447E+03    -4.81349E+06    -1.94104E+06     960.644E+03         64.2400
             825     7.87643E-03     35.5524E-03     630.700E-03     574.772E-03        -1.89043     574.655E-03        -1.89031     630.700E-03     27.4529E-03     470.055E-03    -234.383E-03    -236.087E-03    -235.472E-03     469.484E-03    -234.427E-03     39.5580E-03     2.65826E+06    -1.12188E+06    -4.98359E+06     328.536E+03    -3.01624E+06    -759.510E+03    -97.2295E+03         61.7294
             826     7.08859E-03     35.5162E-03     636.388E-03     598.965E-03        -1.89864     598.825E-03        -1.89850     636.388E-03     25.9723E-03     468.962E-03    -233.897E-03    -235.565E-03    -235.135E-03     468.576E-03    -233.941E-03     32.8919E-03     3.30755E+06    -29.4791E+03    -5.69111E+06    -433.894E+03    -2.39890E+06     419.756E+03    -271.559E+03         59.7584
             827     6.29859E-03     35.4848E-03     641.484E-03     601.866E-03        -1.91289     601.642E-03        -1.91267     641.484E-03     39.5070E-03     469.827E-03    -233.784E-03    -235.998E-03    -235.654E-03     469.483E-03    -233.784E-03     31.1092E-03     2.36507E+06     149.669E+03    -5.10423E+06    -1.14622E+06    -1.99794E+06     554.667E+03     900.323E+03         58.2282
             828     5.51694E-03     35.4394E-03     646.069E-03     623.578E-03        -1.93849     623.378E-03        -1.93829     646.069E-03     40.9455E-03     468.809E-03    -233.547E-03    -235.246E-03    -234.956E-03     468.583E-03    -233.611E-03     24.5061E-03     1.93380E+06    -683.278E+03    -3.77220E+06    -2.23921E+06    -1.63792E+06     1.35545E+06    -598.355E+03         57.1544
             829     4.73049E-03     35.4285E-03     656.336E-03     632.803E-03        -1.96030     640.303E-03        -1.96025     648.780E-03     12.7605E-03     466.131E-03    -232.400E-03    -233.856E-03    -232.478E-03     466.013E-03    -233.661E-03     17.9888E-03     2.40957E+06    -313.236E+03    -4.00751E+06    -2.12062E+06    -1.84614E+06     2.05558E+06    -43.5022E+03         56.5546
             830     3.93579E-03     35.3954E-03     665.964E-03     633.659E-03        -1.97081     649.400E-03        -1.97056     649.974E-03     27.7015E-03     465.742E-03    -231.742E-03    -234.091E-03    -231.658E-03     465.658E-03    -234.091E-03     14.6867E-03     2.51576E+06     -46.683E+03    -4.20529E+06    -1.51392E+06    -1.90938E+06     1.68709E+06    -659.276E+03         56.3628
             831     3.14631E-03     35.3820E-03     660.701E-03     643.533E-03        -1.97362     653.943E-03        -1.97325     649.924E-03     6.00150E-03     470.096E-03    -234.073E-03    -236.171E-03    -234.513E-03     470.054E-03    -235.689E-03     10.0822E-03     1.88865E+06     3.56510E+03    -5.28394E+06    -2.28680E+06    -2.26283E+06     1.15791E+06    -510.836E+03         56.4109
             832     2.36364E-03     35.3779E-03     656.269E-03     646.473E-03        -1.97394     653.891E-03        -1.97381     648.725E-03    -25.2440E-03     476.166E-03    -237.031E-03    -239.418E-03    -238.243E-03     476.145E-03    -238.186E-03     7.40640E-03    -2.22623E+06    -2.95755E+06    -7.33510E+06    -4.48095E+06    -5.24838E+06    -2.78955E+06     241.626E+03         56.5457
             833     1.57627E-03     35.3794E-03     664.647E-03     640.914E-03        -1.97690     662.191E-03        -1.97670     643.166E-03    -30.8883E-03     478.198E-03    -238.174E-03    -240.246E-03    -238.909E-03     478.182E-03    -239.495E-03     6.51745E-03    -1.52574E+06    -2.47661E+06    -4.03149E+06    -2.28248E+06    -3.49051E+06    -2.26084E+06    -741.043E+03         56.6328
             834     783.927E-06     35.3816E-03     652.925E-03     624.891E-03        -1.94888     652.179E-03        -1.94813     624.891E-03    -1.84085E-03     479.440E-03    -239.357E-03    -240.225E-03    -239.347E-03     479.429E-03    -240.225E-03     5.33444E-03     1.32648E+06    -4.08247E+06    -10.2955E+06    -2.66294E+06    -6.32233E+06    -4.06619E+06    -4.45387E+06         56.6283
             835     13.3806E-03     34.6297E-03         5.21669    -469.344E-03        -3.93065         2.12107        -1.90082     596.457E-03    -578.487E-03     478.482E-03    -235.293E-03    -243.067E-03    -239.866E-03     475.281E-03    -235.293E-03     95.7744E-03     6.72729E+06    -1.81126E+06    -8.60550E+06    -745.664E+03    -7.80201E+06     4.85820E+06    -182.721E+03         92.2930
             836     12.6014E-03     34.4627E-03         1.91466    -455.000E-03        -3.81725        -1.20110        -1.76729     610.801E-03    -160.404E-03     473.470E-03    -234.499E-03    -238.945E-03    -235.515E-03     470.773E-03    -235.232E-03     87.2635E-03     6.65443E+06     117.454E+03    -6.81338E+06     747.471E+03    -5.65574E+06     4.86678E+06     1.94146E+06         88.5135
             837     11.8074E-03     34.3247E-03         1.94409     227.829E-03        -1.85151         1.49679        -1.81662     640.229E-03     267.126E-03     467.051E-03    -231.765E-03    -235.261E-03    -230.032E-03     465.318E-03    -235.261E-03     68.0005E-03     2.75091E+06    -1.55954E+06    -7.89416E+06    -2.83428E+06    -6.61942E+06     2.75091E+06     48.3254E+03         83.1911
             838     11.0154E-03     34.2462E-03     653.137E-03     207.015E-03        -1.89207     217.609E-03        -1.87713     627.609E-03    -131.114E-03     469.307E-03    -232.704E-03    -236.602E-03    -232.655E-03     468.123E-03    -235.468E-03     57.2662E-03    -1.61030E+06    -5.15743E+06    -10.1541E+06    -5.33161E+06    -9.51788E+06    -2.07232E+06    -1.02041E+06         77.2701
             839     10.2269E-03     34.1198E-03     670.987E-03     583.995E-03        -1.90035     608.967E-03        -1.89979     645.460E-03     70.5770E-03     475.309E-03    -235.381E-03    -239.644E-03    -238.448E-03     474.113E-03    -235.381E-03     58.1277E-03     1.83573E+06    -1.51120E+06    -6.15388E+06     914.357E+03    -5.69053E+06    -1.05318E+06     538.711E+03         71.9146
             840     9.44530E-03     34.0624E-03     654.737E-03     596.575E-03        -1.93306     601.281E-03        -1.93287     649.844E-03     25.4740E-03     473.994E-03    -235.313E-03    -238.659E-03    -237.829E-03     473.163E-03    -235.313E-03     48.1076E-03     3.78232E+06     415.759E+03    -3.85606E+06     2.90591E+06    -2.97966E+06     415.759E+03     912.885E+03         67.5811
             841     8.65460E-03     33.9631E-03     659.239E-03     617.111E-03        -1.95249     621.929E-03        -1.95242     654.346E-03     13.5642E-03     470.305E-03    -234.302E-03    -236.143E-03    -234.306E-03     469.635E-03    -235.469E-03     43.3184E-03     1.06810E+06    -339.605E+03    -5.42087E+06    -401.457E+03    -3.95131E+06    -339.605E+03    -704.955E+03         64.2602
             842     7.86608E-03     33.9180E-03     659.232E-03     609.798E-03        -1.96811     609.751E-03        -1.96807     659.232E-03     16.3800E-03     469.242E-03    -233.930E-03    -235.737E-03    -233.782E-03     468.639E-03    -235.280E-03     40.8123E-03    -465.722E+03    -1.36491E+06    -5.66746E+06    -2.05503E+06    -4.44052E+06    -1.00254E+06    -917.947E+03         61.7779
             843     7.07791E-03     33.9027E-03     663.852E-03     638.780E-03        -1.98400     638.689E-03        -1.98391     663.852E-03    -12.9882E-03     470.406E-03    -234.740E-03    -236.095E-03    -235.495E-03     469.990E-03    -234.924E-03     34.2509E-03     829.697E+03    -116.588E+03    -3.37894E+06    -494.856E+03    -2.50362E+06     332.647E+03    -822.820E+03         59.8453
             844     6.29539E-03     33.8555E-03     667.595E-03     642.635E-03        -1.99555     642.525E-03        -1.99544     667.595E-03    -9.53617E-03     471.696E-03    -234.622E-03    -236.831E-03    -236.397E-03     471.382E-03    -234.743E-03     29.6182E-03     2.64780E+06     996.643E+03    -2.47758E+06     559.697E+03    -1.03401E+06     1.64118E+06    -48.5170E+03         58.3365
             845     5.50809E-03     33.7941E-03     671.849E-03     643.524E-03        -1.99992     643.404E-03        -1.99980     671.849E-03    -4.28847E-03     470.306E-03    -234.414E-03    -235.754E-03    -235.327E-03     470.106E-03    -234.642E-03     23.5226E-03     3.18384E+06     278.973E+03    -2.43626E+06    -435.886E+03    -739.886E+03     2.20232E+06     367.626E+03         57.2672
             846     4.72116E-03     33.8124E-03     677.063E-03     642.108E-03        -2.00553     642.005E-03        -2.00542     677.063E-03    -11.5243E-03     469.088E-03    -234.243E-03    -234.997E-03    -234.407E-03     468.939E-03    -234.684E-03     20.4158E-03     3.02520E+06    -463.196E+03    -3.62056E+06    -2.42459E+06    -1.25600E+06     2.62203E+06    -1.52340E+06         56.6673
             847     3.93885E-03     33.7940E-03     683.055E-03     654.617E-03        -2.02549     654.555E-03        -2.02543     683.055E-03     14.9186E-03     468.386E-03    -233.307E-03    -235.086E-03    -233.305E-03     468.266E-03    -234.968E-03     17.3022E-03     3.23962E+06     49.5016E+03    -5.23300E+06    -3.30030E+06    -1.88320E+06     3.23962E+06    -130.966E+03         56.4761
             848     3.14873E-03     33.7704E-03     692.014E-03     677.043E-03        -2.05667     682.119E-03        -2.05650     686.762E-03     20.9165E-03     470.022E-03    -233.454E-03    -236.763E-03    -233.389E-03     469.958E-03    -236.763E-03     12.1741E-03     1.74483E+06    -1.26792E+06    -6.23909E+06    -3.78708E+06    -3.46386E+06     1.48877E+06     382.480E+03         56.5209
             849     2.35493E-03     33.7660E-03     696.334E-03     685.268E-03        -2.06971     695.568E-03        -2.06955     685.881E-03     15.5704E-03     476.725E-03    -236.899E-03    -240.101E-03    -236.873E-03     476.699E-03    -240.101E-03     7.53480E-03    -542.587E+03    -3.85054E+06    -6.37532E+06    -2.88216E+06    -4.98180E+06    -2.90449E+06    -802.641E+03         56.6648
             850     1.56579E-03     33.7507E-03     698.759E-03     673.577E-03        -2.05685     689.632E-03        -2.05676     682.608E-03    -5.75864E-03     483.136E-03    -240.544E-03    -242.639E-03    -241.044E-03     483.124E-03    -242.127E-03     3.80747E-03    -1.31528E+06    -5.95804E+06    -7.37538E+06    -2.25545E+06    -5.85714E+06    -6.53611E+06     124.147E+03         56.7794
             851     785.305E-06     33.7585E-03     710.010E-03     652.992E-03        -2.04756     665.366E-03        -2.04642     696.497E-03     58.5418E-03     484.995E-03    -241.910E-03    -243.269E-03    -242.865E-03     484.989E-03    -242.308E-03     1.82865E-03    -2.95670E+06    -8.72010E+06    -14.0237E+06    -6.06286E+06    -10.5890E+06    -9.04866E+06     2.51577E+06         56.7962
             852     13.3942E-03     33.0059E-03         1.49248     37.0263E-03        -1.91549     855.200E-03        -1.86996     628.772E-03    -158.964E-03     479.095E-03    -235.130E-03    -243.715E-03    -240.410E-03     475.791E-03    -235.130E-03     97.2846E-03     8.57152E+06    -1.58740E+06    -6.57591E+06    -2.50794E+06    -5.65536E+06     8.57152E+06    -937.165E+03         92.3141
             853     12.5969E-03     32.8523E-03     858.886E-03     35.7370E-03        -1.90933     208.045E-03        -1.86075     637.997E-03    -28.8544E-03     470.703E-03    -234.148E-03    -236.495E-03    -232.652E-03     467.726E-03    -235.014E-03     91.1825E-03     6.55442E+06    -1.80124E+06    -6.49191E+06    -2.39537E+06    -5.89778E+06     6.55442E+06     626.336E+03         88.5233
             854     11.8059E-03     32.7482E-03     871.056E-03     510.922E-03        -1.90039     727.389E-03        -1.89596     650.168E-03     70.0641E-03     467.333E-03    -232.298E-03    -235.217E-03    -230.342E-03     465.377E-03    -235.217E-03     72.5428E-03     1.91563E+06    -3.50909E+06    -9.58574E+06    -1.74753E+06    -8.78529E+06    -646.384E+03     372.665E+03         83.1935
             855     11.0103E-03     32.6524E-03     653.612E-03     513.002E-03        -1.92089     511.773E-03        -1.91966     653.612E-03    -38.6200E-03     469.215E-03    -233.041E-03    -236.289E-03    -232.288E-03     467.721E-03    -235.548E-03     64.4750E-03     3.24351E+06    -1.00738E+06    -6.18681E+06     1.25123E+06    -5.42140E+06     219.484E+03    -353.450E+03         77.2898
             856     10.2254E-03     32.5380E-03     662.983E-03     579.366E-03        -1.94074     579.155E-03        -1.94053     662.983E-03     35.0427E-03     471.988E-03    -234.546E-03    -237.438E-03    -234.907E-03     470.540E-03    -235.628E-03     63.5274E-03     3.95574E+06     719.063E+03    -4.43693E+06     779.574E+03    -2.98279E+06     2.44109E+06    -332.204E+03         71.9457
             857     9.43688E-03     32.4476E-03     671.517E-03     585.781E-03        -1.96880     586.627E-03        -1.96867     670.543E-03     21.8872E-03     471.830E-03    -234.923E-03    -236.953E-03    -235.067E-03     470.872E-03    -235.851E-03     51.5471E-03     864.861E+03    -1.39574E+06    -6.16570E+06    -1.52644E+06    -4.69313E+06    -477.009E+03    -525.470E+03         67.6017
             858     8.65314E-03     32.3984E-03     678.149E-03     623.673E-03        -1.99108     624.603E-03        -1.99103     677.174E-03     5.95884E-03     471.192E-03    -234.754E-03    -236.573E-03    -234.366E-03     470.451E-03    -236.221E-03     45.4367E-03     3.22295E+06     947.415E+03    -4.34309E+06     1.10605E+06    -2.23402E+06     955.250E+03    -223.303E+03         64.2802
             859     7.86015E-03     32.3329E-03     683.302E-03     622.299E-03        -2.01550     622.258E-03        -2.01546     683.302E-03     9.03592E-03     470.540E-03    -234.458E-03    -236.276E-03    -234.180E-03     469.943E-03    -235.957E-03     40.8253E-03     933.313E+03    -1.76260E+06    -6.74095E+06    -1.95408E+06    -4.50223E+06    -1.11393E+06    -132.630E+03         61.8303
             860     7.07278E-03     32.2806E-03     689.165E-03     650.212E-03        -2.03935     650.114E-03        -2.03925     689.165E-03    -8.91879E-03     471.198E-03    -234.748E-03    -236.557E-03    -235.184E-03     470.757E-03    -235.680E-03     35.1625E-03    -1.10091E+06    -3.17646E+06    -5.35156E+06    -3.18551E+06    -4.84546E+06    -1.59796E+06    -838.860E+03         59.9354
             861     6.28852E-03     32.2284E-03     694.023E-03     661.950E-03        -2.05627     661.782E-03        -2.05611     694.023E-03    -3.26363E-03     471.466E-03    -234.612E-03    -236.605E-03    -235.166E-03     471.144E-03    -235.728E-03     29.9848E-03     935.324E+03    -1.05339E+06    -3.51895E+06    -1.50398E+06    -2.56715E+06     434.116E+03    -373.669E+03         58.4474
             862     5.50208E-03     32.1803E-03     698.490E-03     672.127E-03        -2.06843     671.952E-03        -2.06825     698.490E-03    -7.87873E-03     470.943E-03    -234.914E-03    -235.916E-03    -234.691E-03     470.720E-03    -235.916E-03     24.8148E-03      735.73E+03    -307.334E+03    -3.28971E+06    -900.765E+03    -2.22017E+06     259.627E+03    -185.949E+03         57.3902
             863     4.71558E-03     32.1842E-03     703.771E-03     680.774E-03        -2.08434     682.147E-03        -2.08423     702.286E-03    -26.5690E-03     471.382E-03    -235.168E-03    -236.293E-03    -235.116E-03     471.212E-03    -236.176E-03     21.6915E-03     1.71479E+06    -390.697E+03    -3.58097E+06    -883.725E+03    -2.06308E+06     689.929E+03    -225.513E+03         56.8030
             864     3.92575E-03     32.1734E-03     706.626E-03     692.740E-03        -2.09985     694.163E-03        -2.09979     705.141E-03     2.13046E-03     471.457E-03    -234.988E-03    -236.552E-03    -234.971E-03     471.322E-03    -236.434E-03     19.2158E-03     1.49374E+06    -938.790E+03    -6.69198E+06    -3.37082E+06    -3.28376E+06     517.549E+03     363.598E+03         56.6117
             865     3.14091E-03     32.1538E-03     710.905E-03     695.222E-03        -2.10659     698.450E-03        -2.10636     707.456E-03     5.92858E-03     471.353E-03    -234.444E-03    -237.190E-03    -234.671E-03     471.275E-03    -236.885E-03     14.2068E-03     1.07542E+06    -1.34029E+06    -6.08802E+06    -3.76735E+06    -3.30646E+06     720.928E+03     596.494E+03         56.6385
             866     2.35412E-03     32.1527E-03     714.946E-03     691.662E-03        -2.10704     694.759E-03        -2.10669     711.496E-03     27.1752E-03     477.797E-03    -237.891E-03    -240.254E-03    -238.169E-03     477.770E-03    -239.948E-03     7.74674E-03    -561.268E+03    -4.54081E+06    -6.71858E+06    -4.10706E+06    -5.04649E+06    -2.66710E+06     303.527E+03         56.7945
             867     1.57074E-03     32.1387E-03     722.078E-03     699.054E-03        -2.11819     701.834E-03        -2.11758     718.679E-03    -13.1776E-03     485.592E-03    -242.104E-03    -243.466E-03    -242.917E-03     485.585E-03    -242.645E-03     2.72676E-03    -1.53168E+06    -8.13388E+06    -10.8613E+06    -6.20402E+06    -7.99814E+06    -6.32465E+06     1.27578E+06         56.9562
             868     785.138E-06     32.1280E-03     750.474E-03     698.233E-03        -2.14700     704.315E-03        -2.14435     741.737E-03     66.1618E-03     485.415E-03    -241.681E-03    -243.888E-03    -243.884E-03     485.411E-03    -241.681E-03    -1.49226E-03     5.20674E+06     495.709E+03    -6.90504E+06    -1.46847E+06    -2.25373E+06     2.51961E+06     2.95221E+06         56.9980
             869     13.3740E-03     31.3828E-03     690.813E-03     496.804E-03        -1.90269     539.326E-03        -1.90164     647.235E-03    -6.66619E-03     477.911E-03    -236.584E-03    -241.259E-03    -238.072E-03     474.723E-03    -236.584E-03     95.1886E-03     8.95666E+06    -64.0512E+03    -6.13463E+06     1.75979E+06    -5.69056E+06     6.68875E+06    -913.894E+03         92.3284
             870     12.5902E-03     31.2418E-03     654.878E-03     551.404E-03        -1.91627     550.282E-03        -1.91515     654.878E-03    -25.1668E-03     474.379E-03    -236.247E-03    -238.427E-03    -234.811E-03     471.119E-03    -236.603E-03     95.9841E-03     3.45186E+06    -4.90043E+06    -10.3743E+06    -1.96057E+06    -10.1638E+06      301.52E+03    -722.050E+03         88.5211
             871     11.7985E-03     31.0968E-03     662.637E-03     559.427E-03        -1.94525     559.139E-03        -1.94496     662.637E-03     7.86429E-03     470.958E-03    -234.743E-03    -236.482E-03    -233.411E-03     468.724E-03    -235.579E-03     78.0832E-03     6.64118E+06    -2.10071E+06    -7.16334E+06     214.604E+03    -6.03422E+06     3.19674E+06    -541.930E+03         83.1956
             872     11.0139E-03     31.0221E-03     670.160E-03     579.566E-03        -1.96438     579.542E-03        -1.96436     670.160E-03    -6.98989E-03     470.700E-03    -234.402E-03    -236.034E-03    -232.878E-03     468.974E-03    -235.833E-03     69.4254E-03     7.04622E+06     473.835E+03    -4.01501E+06     1.86624E+06    -2.84540E+06     4.48420E+06     367.439E+03         77.3176
             873     10.2177E-03     30.9122E-03     677.449E-03     594.099E-03        -1.97756     594.053E-03        -1.97752     677.449E-03    -10.7593E-03     468.951E-03    -232.484E-03    -236.045E-03    -230.967E-03     467.434E-03    -236.045E-03     64.3889E-03     808.664E+03    -1.47018E+06    -6.97443E+06    -2.45055E+06    -5.69825E+06     512.859E+03    -439.507E+03         71.9840
             874     9.42607E-03     30.8275E-03     685.533E-03     586.312E-03        -2.00232     586.246E-03        -2.00225     685.533E-03    -2.97874E-03     468.985E-03    -232.198E-03    -236.573E-03    -231.196E-03     467.983E-03    -236.573E-03     52.8391E-03    -323.670E+03    -2.12712E+06    -7.23840E+06    -3.24164E+06    -5.82807E+06    -619.475E+03    -1.21968E+06         67.6300
             875     8.63471E-03     30.7725E-03     692.839E-03     633.792E-03        -2.03255     633.758E-03        -2.03252     692.839E-03     1.22931E-03     473.537E-03    -235.317E-03    -238.135E-03    -235.519E-03     472.685E-03    -237.081E-03     49.0714E-03     -36.464E+03    -3.03950E+06    -6.79672E+06    -2.52190E+06    -5.43035E+06    -1.92043E+06     623.359E+03         64.3116
             876     7.85601E-03     30.7455E-03     698.689E-03     642.582E-03        -2.05998     642.512E-03        -2.05991     698.689E-03     11.8964E-03     474.375E-03    -236.546E-03    -237.855E-03    -236.990E-03     473.702E-03    -236.738E-03     43.6300E-03     2.99625E+06    -542.523E+03    -4.00384E+06     251.754E+03    -2.43034E+06     628.470E+03     1.53409E+06         61.8902
             877     7.06845E-03     30.6537E-03     704.584E-03     655.639E-03        -2.07395     655.578E-03        -2.07389     704.584E-03     15.1572E-03     470.576E-03    -234.008E-03    -236.592E-03    -233.544E-03     470.049E-03    -236.529E-03     38.3705E-03     2.54450E+06    -22.3024E+03    -2.16894E+06    -438.941E+03    -1.26848E+06     2.06069E+06    -21.4383E+03         60.0256
             878     6.27784E-03     30.6080E-03     710.558E-03     663.542E-03        -2.08617     663.452E-03        -2.08608     710.558E-03     18.9018E-03     470.488E-03    -233.351E-03    -236.955E-03    -232.945E-03     470.083E-03    -236.955E-03     33.5028E-03     896.188E+03    -909.421E+03    -2.92875E+06    -1.44234E+06    -2.02454E+06     524.897E+03    -1.10332E+06         58.5581
             879     5.49124E-03     30.5898E-03     715.787E-03     686.952E-03        -2.11293     686.792E-03        -2.11277     715.787E-03     1.94210E-03     473.034E-03    -235.470E-03    -237.481E-03    -235.189E-03     472.753E-03    -237.481E-03     28.1096E-03    -1.20931E+06    -1.94772E+06    -5.24780E+06    -2.63242E+06    -3.83398E+06    -1.93843E+06     92.1687E+03         57.5214
             880     4.70546E-03     30.5470E-03     720.669E-03     703.739E-03        -2.13535     705.136E-03        -2.13526     719.184E-03    -26.4407E-03     474.466E-03    -236.542E-03    -237.807E-03    -236.351E-03     474.275E-03    -237.807E-03     23.1243E-03    -1.13199E+06    -2.45425E+06    -5.50862E+06    -2.93441E+06    -4.04895E+06    -2.11151E+06     1.31649E+06         56.9578
             881     3.92242E-03     30.5378E-03     723.458E-03     705.444E-03        -2.13915     706.889E-03        -2.13911     721.972E-03    -2.76303E-03     475.086E-03    -237.017E-03    -238.236E-03    -237.109E-03     474.970E-03    -238.028E-03     17.8651E-03    -59.7260E+03    -1.71585E+06    -4.87334E+06    -2.06131E+06    -3.20520E+06    -1.38240E+06    -167.305E+03         56.7910
             882     3.13548E-03     30.5410E-03     726.136E-03     705.685E-03        -2.14029     705.557E-03        -2.14016     726.136E-03    -13.9493E-03     476.104E-03    -237.690E-03    -238.743E-03    -238.195E-03     476.038E-03    -238.172E-03     13.4695E-03    -556.391E+03    -2.18733E+06    -5.92623E+06    -3.46788E+06    -3.94470E+06    -1.25737E+06    -1.20370E+06         56.8401
             883     2.35447E-03     30.5254E-03     739.308E-03     709.436E-03        -2.15809     717.336E-03        -2.15779     731.113E-03     12.6894E-03     482.054E-03    -240.650E-03    -241.588E-03    -241.538E-03     482.014E-03    -240.660E-03     10.5192E-03    -951.163E+03    -2.68232E+06    -5.79136E+06    -4.36771E+06    -4.10597E+06    -951.163E+03     29.9650E+03         57.0147
             884     1.56828E-03     30.5113E-03     746.183E-03     722.471E-03        -2.17764     734.941E-03        -2.17699     733.064E-03    -13.4708E-03     486.594E-03    -242.789E-03    -243.780E-03    -243.644E-03     486.577E-03    -242.908E-03     6.14145E-03    -133.559E+03    -4.42790E+06    -7.89128E+06    -5.47471E+06    -5.20106E+06    -1.77698E+06    -202.971E+03         57.1864
             885     785.850E-06     30.5025E-03     756.664E-03     711.856E-03        -2.17316     718.944E-03        -2.16999     746.404E-03     78.5707E-03     485.566E-03    -241.854E-03    -243.869E-03    -243.095E-03     485.560E-03    -242.622E-03    -943.622E-06     2.19086E+06    -4.17062E+06    -8.13684E+06    -3.17848E+06    -5.01967E+06    -1.91844E+06    -2.67797E+06         57.2272
             886     13.3739E-03     29.7647E-03     660.368E-03     495.276E-03        -1.90444     499.680E-03        -1.90431     655.836E-03     16.4025E-03     473.696E-03    -236.175E-03    -237.507E-03    -233.950E-03     470.893E-03    -236.930E-03     88.6784E-03     3.73299E+06    -4.05612E+06    -13.2009E+06    -3.01691E+06    -11.4423E+06     935.124E+03    -457.930E+03         92.3730
             887     12.5759E-03     29.6246E-03     664.227E-03     556.052E-03        -1.93357     555.966E-03        -1.93349     664.227E-03     4.96712E-03     474.657E-03    -236.572E-03    -238.360E-03    -234.591E-03     471.564E-03    -237.248E-03     93.5212E-03     11.8893E+06     5.01358E+06    -3.52253E+06     6.31774E+06    -1.67636E+06     8.73897E+06    -1.80521E+06         88.5519
             888     11.7909E-03     29.4928E-03     671.924E-03     557.173E-03        -1.95485     557.116E-03        -1.95479     671.924E-03    -11.2801E-03     471.965E-03    -234.874E-03    -237.093E-03    -233.466E-03     469.654E-03    -236.190E-03     80.0992E-03     11.3028E+06     3.53283E+06    -3.05456E+06     4.43768E+06    -1.12512E+06     8.46856E+06    -2.28965E+06         83.2228
             889     11.0005E-03     29.3572E-03     680.331E-03     565.501E-03        -1.98356     565.432E-03        -1.98350     680.331E-03     6.02076E-03     471.466E-03    -234.623E-03    -236.489E-03    -232.856E-03     469.497E-03    -236.288E-03     74.3435E-03     236.709E+03    -5.39601E+06    -11.5074E+06    -5.24058E+06    -9.71097E+06    -1.71515E+06    -1.07521E+06         77.3545
             890     10.2167E-03     29.2922E-03     687.501E-03     618.028E-03        -2.01524     617.908E-03        -2.01512     687.501E-03    -8.28702E-03     469.610E-03    -232.491E-03    -236.665E-03    -230.790E-03     467.909E-03    -236.665E-03     68.1093E-03     25.0173E+03    -1.18924E+06    -6.43903E+06    -1.33788E+06    -5.99459E+06    -270.788E+03     1.38125E+06         72.0343
             891     9.42043E-03     29.2052E-03     693.721E-03     615.683E-03        -2.04383     615.577E-03        -2.04372     693.721E-03    -1.44644E-03     469.343E-03    -231.843E-03    -237.402E-03    -230.708E-03     468.208E-03    -237.402E-03     55.9757E-03     1.28288E+06    -285.045E+03    -4.92934E+06    -754.251E+03    -4.16433E+06     987.076E+03     519.112E+03         67.6882
             892     8.63076E-03     29.1654E-03     699.702E-03     643.460E-03        -2.06234     643.374E-03        -2.06226     699.702E-03     5.90948E-03     473.150E-03    -234.283E-03    -238.748E-03    -234.091E-03     472.223E-03    -238.013E-03     50.9962E-03     867.692E+03    -2.08499E+06    -5.99785E+06    -3.40523E+06    -4.67761E+06     867.692E+03    -530.422E+03         64.3775
             893     7.84216E-03     29.0675E-03     705.370E-03     645.807E-03        -2.07644     645.701E-03        -2.07634     705.370E-03     8.08611E-03     473.939E-03    -235.510E-03    -238.719E-03    -235.608E-03     473.239E-03    -237.921E-03     44.4495E-03     1.52174E+06    -836.543E+03    -4.14873E+06    -1.34922E+06    -3.15223E+06     1.03792E+06    -155.896E+03         61.9700
             894     7.05764E-03     29.0461E-03     711.182E-03     662.692E-03        -2.09918     662.611E-03        -2.09910     711.182E-03     10.6513E-03     472.129E-03    -234.581E-03    -237.936E-03    -234.066E-03     471.551E-03    -237.873E-03     40.3737E-03     343.443E+03    -1.92425E+06    -4.11770E+06    -809.039E+03    -3.38355E+06    -1.50593E+06     381.684E+03         60.1243
             895     6.26716E-03     29.0162E-03     715.976E-03     684.018E-03        -2.12289     683.923E-03        -2.12280     715.976E-03     12.3440E-03     472.273E-03    -233.794E-03    -238.392E-03    -233.328E-03     471.807E-03    -238.392E-03     36.0434E-03     311.816E+03    -1.95440E+06    -4.54374E+06    -1.75470E+06    -3.07952E+06    -1.35210E+06    -1.14718E+06         58.6772
             896     5.48050E-03     28.9676E-03     719.863E-03     694.077E-03        -2.13450     693.906E-03        -2.13433     719.863E-03    -2.48663E-03     474.975E-03    -235.759E-03    -239.068E-03    -235.458E-03     474.674E-03    -239.068E-03     29.0469E-03     2.17634E+06     994.374E+03     -2.8075E+06    -572.774E+03    -584.172E+03     1.52016E+06    -27.3073E+03         57.6614
             897     4.69692E-03     28.9162E-03     724.169E-03     694.806E-03        -2.13888     694.573E-03        -2.13864     724.169E-03    -3.14893E-03     477.847E-03    -238.395E-03    -239.460E-03    -238.185E-03     477.636E-03    -239.460E-03     24.5258E-03     1.64945E+06     475.549E+03    -2.22340E+06    -839.235E+03    -550.789E+03     1.29162E+06     568.924E+03         57.1193
             898     3.91244E-03     28.8949E-03     729.210E-03     702.873E-03        -2.15006     702.707E-03        -2.14989     729.210E-03     27.4834E-03     479.149E-03    -239.608E-03    -239.846E-03    -239.696E-03     479.008E-03    -239.618E-03     19.8553E-03     437.334E+03    -1.36225E+06    -3.66741E+06    -2.36938E+06    -2.31380E+06     90.8499E+03     151.009E+03         56.9918
             899     3.13360E-03     28.8976E-03     735.186E-03     720.068E-03        -2.17159     722.110E-03        -2.17157     733.120E-03     7.47074E-03     481.971E-03    -240.871E-03    -241.311E-03    -241.064E-03     481.878E-03    -241.025E-03     16.3211E-03    -56.1599E+03    -2.13498E+06    -6.29937E+06    -3.91455E+06    -3.94161E+06    -634.341E+03     719.598E+03         57.1011
             900     2.34754E-03     28.8535E-03     744.807E-03     723.666E-03        -2.18413     733.872E-03        -2.18408     734.547E-03     13.7736E-03     487.722E-03    -243.456E-03    -244.322E-03    -244.094E-03     487.647E-03    -243.610E-03     14.4308E-03    -499.492E+03    -3.41353E+06    -7.92903E+06    -2.95455E+06    -4.99040E+06    -3.89710E+06     681.139E+03         57.3015
             901     1.56911E-03     28.8715E-03     746.118E-03     720.119E-03        -2.18342     729.472E-03        -2.18305     736.398E-03    -23.9142E-03     490.145E-03    -244.609E-03    -245.599E-03    -245.459E-03     490.115E-03    -244.718E-03     7.98288E-03     1.12349E+06    -5.58396E+06    -8.45193E+06    -910.113E+03    -5.12806E+06    -6.87423E+06     652.755E+03         57.4524
             902     782.326E-06     28.8748E-03     772.564E-03     706.402E-03        -2.18975     727.481E-03        -2.18707     748.804E-03     78.9794E-03     489.363E-03    -243.862E-03    -245.458E-03    -244.086E-03     489.359E-03    -245.231E-03     1.05560E-03    -1.31785E+06    -9.03396E+06    -11.5066E+06    -4.58819E+06    -8.65464E+06    -8.61553E+06    -1.47998E+06         57.4842
             903     13.3627E-03     28.1458E-03     663.084E-03     527.437E-03        -1.91668     531.850E-03        -1.91656     658.552E-03    -18.9970E-03     468.979E-03    -232.941E-03    -236.310E-03    -230.116E-03     465.948E-03    -236.103E-03     91.2242E-03     7.30269E+06     3.79454E+06    -7.32030E+06     2.34210E+06    -5.19339E+06     6.62822E+06     460.030E+03         92.4659
             904     12.5776E-03     28.0146E-03     666.986E-03     520.161E-03        -1.94097     520.094E-03        -1.94090     666.986E-03    -3.22275E-03     472.007E-03    -235.587E-03    -236.585E-03    -232.523E-03     468.737E-03    -236.379E-03     95.5503E-03     6.03495E+06    -332.694E+03    -11.0457E+06    -2.72364E+06    -7.11827E+06     4.49848E+06    -4.27379E+06         88.6355
             905     11.7823E-03     27.8763E-03     674.952E-03     575.165E-03        -1.96976     575.090E-03        -1.96968     674.952E-03    -18.5803E-03     470.819E-03    -234.422E-03    -236.616E-03    -232.266E-03     468.662E-03    -236.616E-03     77.1818E-03     1.53808E+06    -4.49368E+06    -15.4184E+06    -4.70326E+06    -11.1745E+06    -2.49617E+06    -2.39965E+06         83.2995
             906     10.9906E-03     27.7498E-03     682.025E-03     575.294E-03        -2.00570     575.155E-03        -2.00556     682.025E-03     2.42904E-03     469.975E-03    -233.245E-03    -236.860E-03    -231.583E-03     468.313E-03    -236.860E-03     67.6716E-03     5.83849E+06     2.76506E+06    -6.29339E+06     2.97942E+06    -3.91595E+06     3.24668E+06    -276.859E+03         77.4307
             907     10.1957E-03     27.6847E-03     688.424E-03     617.685E-03        -2.03197     617.585E-03        -2.03187     688.424E-03     7.69637E-03     470.101E-03    -232.590E-03    -237.304E-03    -231.148E-03     468.659E-03    -237.304E-03     62.3809E-03     2.58157E+06     429.864E+03    -4.98865E+06    -199.706E+03    -4.26506E+06     2.48755E+06    -326.118E+03         72.1195
             908     9.41020E-03     27.5844E-03     694.317E-03     615.320E-03        -2.04500     615.271E-03        -2.04495     694.317E-03    -3.23963E-03     471.207E-03    -233.051E-03    -238.060E-03    -231.901E-03     470.057E-03    -238.060E-03     56.4540E-03    -1.07141E+06    -3.44919E+06    -7.43107E+06    -3.86469E+06    -6.72124E+06    -1.36573E+06     42.4103E+03         67.7872
             909     8.62326E-03     27.5232E-03     700.737E-03     631.455E-03        -2.06094     631.357E-03        -2.06085     700.737E-03    -11.9594E-03     471.872E-03    -232.919E-03    -238.799E-03    -231.974E-03     470.927E-03    -238.799E-03     51.2733E-03     4.32516E+06     686.193E+03    -2.65654E+06     1.13408E+06    -1.30129E+06     2.52202E+06    -209.599E+03         64.4854
             910     7.83271E-03     27.4681E-03     706.953E-03     646.774E-03        -2.08463     646.667E-03        -2.08452     706.953E-03    -21.6431E-03     471.722E-03    -233.119E-03    -238.996E-03    -232.455E-03     471.059E-03    -238.996E-03     43.0924E-03     2.08031E+06    -1.17802E+06    -4.18212E+06    -1.02086E+06    -2.83047E+06     571.496E+03    -930.626E+03         62.0829
             911     7.04176E-03     27.3816E-03     712.510E-03     667.484E-03        -2.11221     667.218E-03        -2.11194     712.510E-03    -32.5779E-03     474.082E-03    -235.314E-03    -239.114E-03    -234.821E-03     473.590E-03    -239.114E-03     37.0523E-03     321.086E+03    -1.65100E+06    -5.58062E+06    -2.14292E+06    -3.72314E+06    -1.04447E+06     181.863E+03         60.2470
             912     6.26039E-03     27.3570E-03     716.763E-03     689.408E-03        -2.13684     689.097E-03        -2.13653     716.763E-03    -21.6041E-03     475.598E-03    -235.862E-03    -239.621E-03    -235.481E-03     475.216E-03    -239.621E-03     32.6828E-03     525.783E+03    -1.79709E+06    -5.52942E+06    -2.16548E+06    -3.22566E+06    -1.40958E+06     854.073E+03         58.8135
             913     5.47229E-03     27.3157E-03     720.443E-03     702.859E-03        -2.15027     703.408E-03        -2.15004     719.664E-03    -18.6577E-03     476.334E-03    -236.072E-03    -240.276E-03    -235.796E-03     476.057E-03    -240.276E-03     27.7523E-03    -557.806E+03    -1.73329E+06    -5.25917E+06    -3.09697E+06    -3.24579E+06    -1.20750E+06    -366.937E+03         57.8101
             914     4.68708E-03     27.3124E-03     722.882E-03     706.020E-03        -2.15464     706.502E-03        -2.15434     722.102E-03    -7.63610E-03     478.721E-03    -238.108E-03    -240.922E-03    -237.914E-03     478.526E-03    -240.922E-03     23.5292E-03     1.45823E+06     449.629E+03    -2.60096E+06    -1.22382E+06    -847.621E+03     1.37834E+06    -137.198E+03         57.2792
             915     3.90713E-03     27.2793E-03     724.552E-03     712.519E-03        -2.16299     712.250E-03        -2.16273     724.552E-03     2.14318E-03     480.838E-03    -239.817E-03    -241.390E-03    -239.700E-03     480.700E-03    -241.369E-03     19.6337E-03     2.21425E+06    -12.8559E+03    -3.44504E+06    -2.41804E+06    -1.03986E+06     2.21425E+06     953.874E+03         57.1662
             916     3.12258E-03     27.2164E-03     728.702E-03     717.017E-03        -2.16983     718.956E-03        -2.16971     726.637E-03    -18.5053E-03     485.403E-03    -242.233E-03    -243.161E-03    -242.287E-03     485.304E-03    -243.007E-03     16.9568E-03     439.501E+03    -2.99841E+06    -7.15487E+06    -4.24774E+06    -4.08976E+06    -1.37628E+06     494.316E+03         57.2970
             917     2.34354E-03     27.2538E-03     732.487E-03     711.007E-03        -2.16669     713.035E-03        -2.16665     730.422E-03     12.2901E-03     491.678E-03    -245.381E-03    -246.171E-03    -245.524E-03     491.598E-03    -245.949E-03     14.8874E-03    -2.12555E+06    -6.87174E+06    -10.7785E+06    -5.23181E+06    -7.43674E+06    -7.10724E+06     119.673E+03         57.5203
             918     1.55839E-03     27.2437E-03     739.277E-03     715.905E-03        -2.18103     715.177E-03        -2.18031     739.277E-03    -50.7911E-03     494.757E-03    -246.813E-03    -247.932E-03    -247.101E-03     494.728E-03    -247.615E-03     7.82999E-03     1.24533E+06    -5.94794E+06    -8.88518E+06    -3.31174E+06    -5.16708E+06    -5.10897E+06     1.60910E+06         57.6888
             919     782.136E-06     27.2330E-03     769.763E-03     723.532E-03        -2.21477     756.671E-03        -2.21182     733.677E-03     53.1325E-03     495.874E-03    -247.080E-03    -248.491E-03    -247.497E-03     495.870E-03    -248.070E-03     3.32394E-03     6.57111E+06    -1.25199E+06    -4.17001E+06     2.36171E+06    -740.679E+03    -471.921E+03     1.41074E+06         57.7322
             920     13.3588E-03     26.5555E-03     656.859E-03     530.936E-03        -1.92120     530.863E-03        -1.92112     656.859E-03    -18.6490E-03     467.225E-03    -231.192E-03    -236.516E-03    -228.279E-03     464.105E-03    -236.310E-03     92.6414E-03     9.82818E+06     2.80137E+06    -4.66772E+06     3.57668E+06    -3.67723E+06     8.06238E+06     563.110E+03         92.6050
             921     12.5628E-03     26.4044E-03     664.272E-03     535.956E-03        -1.94904     535.911E-03        -1.94900     664.272E-03    -12.6903E-03     471.846E-03    -235.353E-03    -236.730E-03    -232.522E-03     468.809E-03    -236.523E-03     91.6299E-03    -1.33755E+06    -6.90343E+06    -16.2270E+06    -4.77337E+06    -13.8970E+06    -5.79765E+06    -3.31245E+06         88.7730
             922     11.7785E-03     26.3316E-03     670.859E-03     580.525E-03        -1.98380     580.423E-03        -1.98370     670.859E-03    -28.1859E-03     470.812E-03    -234.368E-03    -236.797E-03    -232.387E-03     468.832E-03    -236.797E-03     73.9797E-03     2.16339E+06    -2.98132E+06    -12.6841E+06    -2.96442E+06    -9.31628E+06    -1.22137E+06    -1.88452E+06         83.4396
             923     10.9905E-03     26.1352E-03     676.564E-03     585.271E-03        -2.00443     585.160E-03        -2.00432     676.564E-03    -13.7310E-03     470.150E-03    -233.103E-03    -237.110E-03    -231.676E-03     468.723E-03    -237.110E-03     63.1240E-03     3.16581E+06    -266.340E+03    -6.83108E+06    -1.24247E+06    -5.21500E+06     2.52586E+06     802.252E+03         77.5768
             924     10.2025E-03     26.0813E-03     682.592E-03     599.205E-03        -2.01693     599.168E-03        -2.01689     682.592E-03    -2.06848E-03     470.126E-03    -232.051E-03    -237.521E-03    -230.879E-03     468.953E-03    -237.521E-03     56.9794E-03     1.36195E+06    -2.08535E+06    -7.21442E+06    -2.37537E+06    -5.90959E+06     347.132E+03     394.904E+03         72.2700
             925     9.40899E-03     25.9755E-03     688.691E-03     610.485E-03        -2.03506     610.429E-03        -2.03501     688.691E-03     5.83948E-06     470.460E-03    -231.758E-03    -238.259E-03    -230.769E-03     469.470E-03    -238.259E-03     52.4122E-03     2.19747E+06    -443.660E+03    -4.64669E+06    -447.200E+03    -3.40226E+06     956.580E+03     138.811E+03         67.9370
             926     8.61645E-03     25.9034E-03     694.486E-03     629.169E-03        -2.05812     629.096E-03        -2.05805     694.486E-03     2.60279E-03     471.107E-03    -231.854E-03    -239.128E-03    -231.086E-03     470.340E-03    -239.128E-03     46.1007E-03    -1.72524E+06    -4.15083E+06    -6.96193E+06    -3.10245E+06    -6.18140E+06    -3.55416E+06    -417.787E+03         64.6337
             927     7.82537E-03     25.8695E-03     699.560E-03     647.223E-03        -2.08124     647.076E-03        -2.08110     699.560E-03     849.025E-06     471.773E-03    -232.548E-03    -239.460E-03    -231.997E-03     471.221E-03    -239.460E-03     39.2648E-03    -439.646E+03    -3.12689E+06    -5.10069E+06    -2.43605E+06    -4.10396E+06    -2.12721E+06     7.31624E+03         62.2318
             928     7.04112E-03     25.7576E-03     704.200E-03     656.989E-03        -2.09645     656.611E-03        -2.09608     704.200E-03    -5.15801E-03     473.382E-03    -233.868E-03    -239.737E-03    -233.447E-03     472.962E-03    -239.737E-03     34.2930E-03     2.76985E+06     1.06289E+06    -4.15049E+06    -1.17766E+06    -895.666E+03     1.75558E+06    -1.23418E+06         60.3964
             929     6.25232E-03     25.7198E-03     709.185E-03     664.111E-03        -2.10761     663.699E-03        -2.10720     709.185E-03     1.35988E-03     476.652E-03    -236.218E-03    -240.378E-03    -235.885E-03     476.319E-03    -240.378E-03     30.7577E-03     1.34108E+06    -796.236E+03    -6.29757E+06    -2.71647E+06    -2.97201E+06     -64.246E+03     364.600E+03         58.9627
             930     5.47066E-03     25.6859E-03     714.809E-03     681.564E-03        -2.12896     682.047E-03        -2.12867     714.029E-03    -12.8394E-03     478.497E-03    -237.617E-03    -241.015E-03    -237.372E-03     478.252E-03    -241.015E-03     26.2178E-03    -364.921E+03    -1.76568E+06    -6.12144E+06    -3.19847E+06    -3.73019E+06    -1.32338E+06    -543.933E+03         57.9581
             931     4.68536E-03     25.6552E-03     718.071E-03     702.433E-03        -2.15387     703.022E-03        -2.15368     717.291E-03    -16.6782E-03     478.384E-03    -236.923E-03    -241.783E-03    -236.768E-03     478.229E-03    -241.783E-03     20.9540E-03    -370.469E+03    -1.51225E+06    -5.80327E+06    -3.62250E+06    -3.30436E+06    -759.120E+03    -815.916E+03         57.4248
             932     3.89815E-03     25.6345E-03     719.266E-03     713.119E-03        -2.16562     713.287E-03        -2.16540     718.880E-03    -20.4403E-03     480.564E-03    -238.041E-03    -242.653E-03    -237.925E-03     480.448E-03    -242.653E-03     18.0882E-03     359.726E+03    -1.66812E+06    -4.86166E+06    -3.28022E+06    -2.63622E+06    -253.621E+03     758.758E+03         57.2965
             933     3.11808E-03     25.6146E-03     726.766E-03     711.360E-03        -2.16817     718.383E-03        -2.16789     719.472E-03    -16.5669E-03     484.750E-03    -241.043E-03    -243.582E-03    -241.081E-03     484.657E-03    -243.450E-03     16.5126E-03     3.57736E+06    -1.15847E+06    -5.98434E+06    -3.36402E+06    -1.58136E+06     1.37993E+06    -451.790E+03         57.4037
             934     2.33759E-03     25.5924E-03     740.149E-03     706.546E-03        -2.17726     729.031E-03        -2.17713     717.537E-03     27.0591E-03     492.713E-03    -245.451E-03    -246.961E-03    -245.515E-03     492.645E-03    -246.829E-03     13.8781E-03     2.41770E+06    -2.34682E+06    -7.04009E+06    -5.24569E+06    -2.55714E+06     833.621E+03    -69.3691E+03         57.6466
             935     1.56010E-03     25.5890E-03     731.449E-03     705.518E-03        -2.16912     723.827E-03        -2.16859     712.611E-03    -7.34191E-03     499.576E-03    -249.020E-03    -250.260E-03    -249.134E-03     499.549E-03    -250.120E-03     7.95698E-03    -3.07564E+06    -7.51337E+06    -10.7860E+06    -8.97336E+06    -7.53294E+06    -4.86865E+06    -1.01838E+06         57.8728
             936     775.096E-06     25.5842E-03     740.120E-03     680.727E-03        -2.14679     736.333E-03        -2.14529     683.017E-03     45.6005E-03     501.827E-03    -249.794E-03    -250.776E-03    -250.376E-03     501.816E-03    -250.182E-03     1.54108E-03    -1.59753E+06    -8.18089E+06    -13.1392E+06    -6.70887E+06    -8.96355E+06    -7.24519E+06     343.764E+03         57.9441
             937     13.3597E-03     24.9300E-03     649.117E-03     539.946E-03        -1.93369     539.892E-03        -1.93363     649.117E-03    -15.1357E-03     468.634E-03    -232.945E-03    -236.087E-03    -229.720E-03     465.408E-03    -236.087E-03     94.8529E-03     8.15856E+06    -2.80352E+06    -13.6060E+06    -824.984E+03    -9.51071E+06     2.08473E+06    -3.19538E+06         92.7915
             938     12.5724E-03     24.7861E-03     654.474E-03     558.030E-03        -1.95853     558.014E-03        -1.95851     654.474E-03    -7.10715E-03     469.754E-03    -233.802E-03    -236.328E-03    -231.132E-03     467.084E-03    -236.328E-03     85.7241E-03     7.12927E+06     2.07076E+06    -7.66576E+06     2.86219E+06    -5.53355E+06     4.20563E+06     2.72494E+06         88.9742
             939     11.7752E-03     24.7342E-03     659.772E-03     563.408E-03        -1.96566     563.368E-03        -1.96562     659.772E-03    -15.6339E-03     468.337E-03    -231.927E-03    -236.631E-03    -230.181E-03     466.591E-03    -236.631E-03     69.6795E-03     4.48927E+06    -651.596E+03    -7.21245E+06    -57.1575E+03    -5.82782E+06     2.51021E+06     1.55072E+06         83.6445
             940     10.9843E-03     24.5292E-03     665.289E-03     569.766E-03        -1.97599     569.713E-03        -1.97594     665.289E-03    -2.92972E-03     469.223E-03    -231.824E-03    -237.070E-03    -230.353E-03     467.752E-03    -237.070E-03     64.0896E-03    -1.47539E+06    -5.06374E+06    -8.78734E+06    -4.59597E+06    -8.45897E+06    -2.27155E+06     977.688E+03         77.7727
             941     10.1945E-03     24.4556E-03     670.789E-03     592.028E-03        -2.00258     591.993E-03        -2.00255     670.789E-03    -1.20491E-03     470.932E-03    -232.660E-03    -237.614E-03    -231.340E-03     469.612E-03    -237.614E-03     60.8315E-03     2.21009E+06     105.760E+03    -4.54908E+06     37.9012E+03    -3.44098E+06     1.16985E+06     1.29554E+06         72.4581
             942     9.40494E-03     24.3954E-03     675.352E-03     619.088E-03        -2.03303     619.036E-03        -2.03298     675.352E-03     1.73909E-03     471.411E-03    -232.775E-03    -238.333E-03    -231.757E-03     470.393E-03    -238.333E-03     53.1926E-03     2.52335E+06     1.16410E+06    -3.96334E+06     675.139E+03    -2.14697E+06     1.19595E+06     1.21965E+06         68.1228
             943     8.61617E-03     24.2841E-03     678.819E-03     634.904E-03        -2.05358     634.806E-03        -2.05348     678.819E-03     365.345E-06     471.861E-03    -232.751E-03    -239.059E-03    -232.047E-03     471.157E-03    -239.059E-03     44.3459E-03     1.05707E+06    -1.11631E+06    -4.70489E+06    -2.26607E+06    -3.14852E+06     650.456E+03     678.144E+03         64.8159
             944     7.82956E-03     24.2196E-03     681.947E-03     642.666E-03        -2.06290     642.495E-03        -2.06273     681.947E-03    -1.91914E-03     471.676E-03    -232.562E-03    -239.284E-03    -232.047E-03     471.161E-03    -239.284E-03     37.9000E-03     1.58315E+06    -1.13643E+06    -2.53365E+06    -1.89302E+06    -1.59830E+06     1.40440E+06     282.959E+03         62.4068
             945     7.03658E-03     24.1492E-03     685.288E-03     645.791E-03        -2.06738     645.544E-03        -2.06713     685.288E-03     4.15957E-03     472.088E-03    -232.524E-03    -239.722E-03    -232.140E-03     471.704E-03    -239.722E-03     32.7580E-03    -883.448E+03    -2.71267E+06    -6.07595E+06    -3.87758E+06    -3.89678E+06    -1.89772E+06    -884.630E+03         60.5600
             946     6.24949E-03     24.0972E-03     689.240E-03     650.174E-03        -2.07518     649.880E-03        -2.07488     689.240E-03     7.88469E-03     475.208E-03    -234.648E-03    -240.555E-03    -234.342E-03     474.902E-03    -240.555E-03     29.2783E-03     1.15345E+06    -440.211E+03    -6.28180E+06    -2.75351E+06    -2.85802E+06     42.9729E+03    -1.51096E+06         59.1117
             947     5.46524E-03     24.0678E-03     693.525E-03     660.204E-03        -2.08990     659.972E-03        -2.08967     693.525E-03    -8.05419E-03     478.149E-03    -236.968E-03    -241.378E-03    -236.747E-03     477.929E-03    -241.378E-03     24.8566E-03     1.65035E+06     334.800E+03    -5.22052E+06    -2.05589E+06    -2.24610E+06     1.06662E+06    -964.650E+03         58.0907
             948     4.68425E-03     24.0465E-03     697.131E-03     673.717E-03        -2.10900     673.433E-03        -2.10871     697.131E-03     12.0174E-03     479.280E-03    -237.249E-03    -242.223E-03    -237.095E-03     479.126E-03    -242.223E-03     20.9358E-03     252.876E+03    -833.330E+03    -5.51250E+06    -2.93520E+06    -3.10186E+06    -55.8876E+03    -709.609E+03         57.5382
             949     3.89891E-03     23.9351E-03     699.640E-03     689.311E-03        -2.12880     689.417E-03        -2.12852     699.254E-03     26.7899E-03     480.901E-03    -237.700E-03    -243.243E-03    -237.582E-03     480.783E-03    -243.243E-03     18.2860E-03    -7.60075E+03    -2.06676E+06    -5.45282E+06    -3.90923E+06    -2.99701E+06    -620.948E+03    -503.193E+03         57.3888
             950     3.11292E-03     23.9693E-03     706.349E-03     698.361E-03        -2.14100     705.429E-03        -2.14078     699.056E-03     24.2743E-03     484.366E-03    -239.850E-03    -244.419E-03    -239.767E-03     484.283E-03    -244.419E-03     15.3285E-03     2.69004E+06    -1.31952E+06    -6.26924E+06    -4.82472E+06    -1.58941E+06     1.51541E+06     1.15939E+06         57.4843
             951     2.33235E-03     23.9482E-03     718.973E-03     684.020E-03        -2.13820     706.421E-03        -2.13798     696.360E-03     19.9704E-03     493.968E-03    -245.493E-03    -248.306E-03    -245.439E-03     493.914E-03    -248.306E-03     12.0991E-03     2.45563E+06    -2.71042E+06    -7.92332E+06    -4.29132E+06    -2.55676E+06    -1.33003E+06     770.568E+03         57.7446
             952     1.55180E-03     23.9394E-03     713.431E-03     675.740E-03        -2.12710     694.420E-03        -2.12695     694.593E-03    -1.93612E-03     503.020E-03    -250.712E-03    -252.100E-03    -250.820E-03     502.988E-03    -251.960E-03     9.33814E-03    -2.18353E+06    -7.60854E+06    -11.7856E+06    -6.33619E+06    -7.13633E+06    -8.10518E+06    -750.021E+03         58.0122
             953     781.605E-06     23.9294E-03     751.982E-03     638.369E-03        -2.12226     744.418E-03        -2.12141     645.084E-03    -26.4422E-03     505.358E-03    -251.971E-03    -252.730E-03    -252.349E-03     505.337E-03    -252.331E-03     3.73612E-03    -3.51412E+06    -9.04182E+06    -17.7668E+06    -10.5319E+06    -11.3231E+06    -8.46776E+06    -2.14094E+06         58.1168
             954     13.3639E-03     23.2942E-03     635.827E-03     544.365E-03        -1.92912     544.179E-03        -1.92894     635.827E-03    -36.3267E-03     472.313E-03    -235.617E-03    -236.864E-03    -232.721E-03     468.603E-03    -236.050E-03     102.156E-03     7.54576E+06     747.959E+03    -15.2867E+06    -916.788E+03    -9.16936E+06     3.09322E+06    -3.81353E+06         92.9983
             955     12.5672E-03     23.1684E-03     639.852E-03     554.603E-03        -1.94135     554.584E-03        -1.94133     639.852E-03    -9.49916E-03     470.016E-03    -233.625E-03    -236.427E-03    -230.900E-03     466.997E-03    -236.134E-03     90.7710E-03     3.45050E+06     60.0899E+03    -12.8820E+06    -2.78428E+06    -9.02691E+06     2.43982E+06     6.18813E+06         89.2007
             956     11.7802E-03     23.0740E-03     644.058E-03     562.767E-03        -1.94943     562.709E-03        -1.94937     644.058E-03    -13.6524E-03     466.991E-03    -230.822E-03    -236.467E-03    -228.966E-03     465.135E-03    -236.467E-03     71.6568E-03     1.82988E+06    -3.61678E+06    -12.1206E+06    -4.67821E+06    -9.37181E+06     142.492E+03     4.20333E+06         83.8805
             957     10.9852E-03     22.9283E-03     648.071E-03     575.322E-03        -1.96574     575.226E-03        -1.96564     648.071E-03    -13.9689E-03     467.727E-03    -230.756E-03    -236.984E-03    -229.274E-03     466.245E-03    -236.984E-03     64.0464E-03     5.23330E+06     992.981E+03    -2.81510E+06     1.10031E+06    -2.12628E+06     4.43715E+06     880.577E+03         78.0006
             958     10.1904E-03     22.8296E-03     651.791E-03     589.705E-03        -1.98370     589.622E-03        -1.98362     651.791E-03    -14.2819E-03     470.574E-03    -232.681E-03    -237.559E-03    -231.517E-03     469.410E-03    -237.559E-03     57.0069E-03     603.694E+03    -1.33749E+06    -5.73527E+06    -2.28538E+06    -4.66793E+06     484.245E+03    -978.240E+03         72.6741
             959     9.40413E-03     22.7437E-03     655.319E-03     600.555E-03        -1.99732     600.502E-03        -1.99727     655.319E-03    -17.5709E-03     471.838E-03    -233.550E-03    -238.305E-03    -232.661E-03     470.949E-03    -238.305E-03     49.8634E-03    -181.525E+03    -2.53500E+06    -6.63546E+06    -3.71468E+06    -5.07494E+06    -562.362E+03    -215.571E+03         68.3314
             960     8.61661E-03     22.6583E-03     658.667E-03     611.744E-03        -2.01081     611.667E-03        -2.01073     658.667E-03    -21.3183E-03     472.162E-03    -233.258E-03    -238.903E-03    -232.556E-03     471.460E-03    -238.903E-03     44.4353E-03     6.16858E+06     1.99423E+06    -516.338E+03     2.05370E+06     1.19643E+06     4.39634E+06    -104.804E+03         65.0139
             961     7.82628E-03     22.6008E-03     661.784E-03     624.309E-03        -2.02436     624.223E-03        -2.02427     661.784E-03    -24.3882E-03     472.183E-03    -233.398E-03    -239.012E-03    -232.863E-03     471.647E-03    -239.012E-03     38.6558E-03     2.30487E+06    -1.51258E+06    -2.83828E+06    -1.38901E+06    -1.57043E+06     913.457E+03    -898.479E+03         62.5884
             962     7.04158E-03     22.5235E-03     664.306E-03     638.794E-03        -2.04033     638.674E-03        -2.04021     664.306E-03    -28.2961E-03     472.936E-03    -233.645E-03    -239.393E-03    -233.259E-03     472.550E-03    -239.393E-03     32.8848E-03     232.599E+03    -1.16965E+06    -4.01693E+06    -2.72936E+06    -2.35742E+06     132.797E+03    -248.580E+03         60.7217
             963     6.25464E-03     22.4913E-03     669.383E-03     652.833E-03        -2.05920     656.492E-03        -2.05907     665.598E-03    -32.4020E-03     473.597E-03    -233.347E-03    -240.222E-03    -233.057E-03     473.308E-03    -240.222E-03     28.3794E-03     1.00853E+06     71.4224E+03    -5.22677E+06    -2.05480E+06    -2.20432E+06     112.309E+03    -557.734E+03         59.2481
             964     5.46581E-03     22.4216E-03     674.127E-03     657.907E-03        -2.06874     666.521E-03        -2.06862     665.392E-03    -34.3167E-03     475.082E-03    -234.091E-03    -241.252E-03    -233.902E-03     474.892E-03    -241.252E-03     22.9944E-03     442.082E+03    -1.11171E+06    -5.47552E+06    -2.78976E+06    -3.00105E+06    -354.334E+03     157.258E+03         58.1958
             965     4.67742E-03     22.3887E-03     669.713E-03     656.067E-03        -2.06288     660.748E-03        -2.06261     664.763E-03    -4.81386E-03     479.185E-03    -237.067E-03    -242.266E-03    -236.933E-03     479.050E-03    -242.266E-03     19.4144E-03     482.836E+03    -1.53481E+06    -4.76453E+06    -3.46842E+06    -2.83092E+06     482.836E+03    -279.625E+03         57.6074
             966     3.89801E-03     22.3509E-03     665.652E-03     652.388E-03        -2.05848     651.901E-03        -2.05799     665.652E-03    -3.01296E-03     482.504E-03    -239.421E-03    -243.139E-03    -239.310E-03     482.393E-03    -243.139E-03     17.6531E-03     657.067E+03    -2.05296E+06    -5.22650E+06    -4.57464E+06    -2.70482E+06     657.067E+03    -535.126E+03         57.4315
             967     3.11623E-03     22.3505E-03     668.958E-03     651.029E-03        -2.06000     650.542E-03        -2.05951     668.958E-03     9.55419E-03     484.396E-03    -240.510E-03    -244.042E-03    -240.442E-03     484.329E-03    -244.042E-03     13.6237E-03    -872.841E+03    -4.07341E+06    -7.66818E+06    -5.67181E+06    -4.31896E+06    -2.62365E+06    -252.122E+03         57.5246
             968     2.33271E-03     22.2791E-03     676.018E-03     652.043E-03        -2.06772     653.231E-03        -2.06749     674.599E-03     16.0316E-03     492.271E-03    -244.561E-03    -247.956E-03    -244.536E-03     492.247E-03    -247.956E-03     7.95002E-03    -3.18724E+06    -7.90862E+06    -11.8622E+06    -6.60591E+06    -7.59587E+06    -8.75632E+06     -520.43E+03         57.7917
             969     1.55454E-03     22.2810E-03     683.973E-03     663.524E-03        -2.08785     664.271E-03        -2.08701     682.378E-03     24.1533E-03     501.218E-03    -248.901E-03    -252.395E-03    -248.883E-03     501.200E-03    -252.395E-03     7.04258E-03     1.65949E+06    -4.34239E+06    -8.01905E+06    -1.82127E+06    -3.69060E+06    -5.19008E+06     52.7956E+03         58.0631
             970     769.981E-06     22.2661E-03     735.852E-03     637.387E-03        -2.11095     727.511E-03        -2.10932     644.102E-03    -26.8760E-03     506.647E-03    -252.156E-03    -254.875E-03    -252.137E-03     506.628E-03    -254.875E-03     7.13938E-03     4.26388E+06    -1.24273E+06    -9.51240E+06    -2.40867E+06    -3.05880E+06    -1.02379E+06    -1.88598E+06         58.1754
             971     13.3522E-03     21.7235E-03     617.783E-03     519.774E-03        -1.88837     519.609E-03        -1.88820     617.783E-03    -18.7777E-03     473.802E-03    -235.977E-03    -237.690E-03    -233.709E-03     470.009E-03    -236.165E-03     103.345E-03     6.54036E+06     370.877E+03    -11.9293E+06    -3.49769E+06    -8.06072E+06     6.54036E+06    -2.28587E+06         93.2006
             972     12.5670E-03     21.5510E-03     621.393E-03     534.390E-03        -1.90036     534.376E-03        -1.90035     621.393E-03    -6.88233E-03     472.464E-03    -234.655E-03    -237.237E-03    -232.485E-03     469.290E-03    -236.233E-03     93.1235E-03     5.63036E+06     116.793E+03    -10.2965E+06    -2.05315E+06    -7.11588E+06     4.61968E+06     2.37397E+06         89.4129
             973     11.7714E-03     21.4089E-03     624.471E-03     563.912E-03        -1.92934     563.829E-03        -1.92926     624.471E-03    -19.3892E-03     469.860E-03    -233.296E-03    -236.487E-03    -231.431E-03     467.995E-03    -236.487E-03     72.1021E-03     5.81855E+06     841.993E+03    -6.57347E+06    -65.1160E+03    -4.65568E+06     4.80786E+06     3.36405E+06         84.1084
             974     10.9825E-03     21.3417E-03     626.603E-03     581.228E-03        -1.94938     581.113E-03        -1.94927     626.603E-03    -22.7805E-03     469.981E-03    -233.263E-03    -236.787E-03    -231.801E-03     468.519E-03    -236.787E-03     63.7845E-03     1.79446E+06    -3.11508E+06    -9.40992E+06    -5.41282E+06    -7.11217E+06     1.79446E+06    -708.453E+03         78.2429
             975     10.1987E-03     21.2116E-03     628.450E-03     583.937E-03        -1.95487     583.855E-03        -1.95479     628.450E-03    -17.5900E-03     469.799E-03    -232.440E-03    -237.142E-03    -231.316E-03     468.675E-03    -237.142E-03     56.0088E-03     3.14422E+06    -1.27917E+06    -6.66782E+06    -3.65424E+06    -4.29276E+06     3.14422E+06    -2.59623E+06         72.9160
             976     9.40696E-03     21.1477E-03     630.604E-03     585.615E-03        -1.95737     585.522E-03        -1.95728     630.604E-03    -10.6135E-03     469.880E-03    -232.016E-03    -237.873E-03    -231.150E-03     469.014E-03    -237.873E-03     49.0801E-03     3.10731E+06    -648.407E+03    -3.29111E+06    -1.25884E+06    -2.33644E+06     2.76307E+06    -1.32949E+06         68.5566
             977     8.61689E-03     21.0347E-03     632.968E-03     591.501E-03        -1.96357     591.448E-03        -1.96352     632.968E-03    -712.555E-06     471.656E-03    -233.138E-03    -238.596E-03    -232.471E-03     470.989E-03    -238.596E-03     43.2603E-03    -1.68446E+06    -5.04957E+06    -7.62465E+06    -4.77400E+06    -6.16456E+06    -3.42011E+06    -703.317E+03         65.2171
             978     7.82911E-03     20.9888E-03     634.932E-03     605.243E-03        -1.97679     605.192E-03        -1.97674     634.932E-03     5.52856E-03     472.664E-03    -234.314E-03    -238.695E-03    -233.792E-03     472.143E-03    -238.695E-03     38.2686E-03    -38.1845E+03    -3.08735E+06    -5.15499E+06    -2.41980E+06    -3.65269E+06    -2.20803E+06     234.254E+03         62.7681
             979     7.04119E-03     20.9009E-03     636.410E-03     622.840E-03        -1.99476     623.665E-03        -1.99471     635.530E-03     2.85108E-03     473.001E-03    -234.347E-03    -238.893E-03    -233.947E-03     472.602E-03    -238.893E-03     33.5128E-03     316.099E+03    -1.60259E+06    -4.10164E+06    -1.70558E+06    -2.56745E+06    -1.11510E+06     144.038E+03         60.8724
             980     6.25542E-03     20.8422E-03     639.631E-03     627.485E-03        -2.00400     631.999E-03        -2.00385     634.965E-03     6.44994E-03     473.654E-03    -233.956E-03    -239.584E-03    -233.668E-03     473.366E-03    -239.584E-03     28.2569E-03    -833.711E+03    -2.02628E+06    -6.90004E+06    -3.90908E+06    -3.82468E+06    -2.02628E+06    -270.607E+03         59.3619
             981     5.46850E-03     20.8152E-03     643.205E-03     619.958E-03        -1.99984     628.489E-03        -1.99964     634.470E-03    -3.95158E-03     474.779E-03    -234.372E-03    -240.445E-03    -234.200E-03     474.607E-03    -240.445E-03     21.7975E-03     274.905E+03    -1.36037E+06    -4.76103E+06    -3.25304E+06    -2.32854E+06    -264.909E+03    -138.933E+03         58.2634
             982     4.68395E-03     20.7226E-03     639.910E-03     617.966E-03        -1.99476     622.697E-03        -1.99455     634.960E-03    -2.14108E-03     477.608E-03    -236.395E-03    -241.319E-03    -236.303E-03     477.516E-03    -241.319E-03     15.9299E-03    -451.304E+03    -2.84031E+06    -4.26492E+06    -3.92010E+06    -2.73147E+06    -904.973E+03    -317.969E+03         57.6203
             983     3.89810E-03     20.7178E-03     637.232E-03     618.066E-03        -1.99423     617.507E-03        -1.99367     637.232E-03    -28.8840E-03     481.508E-03    -239.553E-03    -241.990E-03    -239.490E-03     481.445E-03    -241.990E-03     13.1665E-03    -2.11975E+06    -3.97457E+06    -5.72334E+06    -5.08677E+06    -4.15747E+06    -2.57342E+06    -562.600E+03         57.3951
             984     3.11938E-03     20.6380E-03     643.183E-03     620.011E-03        -2.00010     621.465E-03        -1.99945     641.078E-03    -8.64399E-03     483.696E-03    -241.430E-03    -242.459E-03    -241.399E-03     483.647E-03    -242.441E-03     11.5037E-03     1.74570E+06    -2.10641E+06    -6.43384E+06    -4.69375E+06    -2.65698E+06     556.172E+03    -1.14278E+06         57.4643
             985     2.34131E-03     20.6416E-03     648.177E-03     634.234E-03        -2.01991     636.668E-03        -2.01862     644.451E-03    -18.3790E-03     490.013E-03    -244.278E-03    -245.898E-03    -244.278E-03     489.994E-03    -245.879E-03     6.74618E-03     1.70513E+06    -3.53169E+06    -9.82222E+06    -6.06622E+06    -4.15218E+06    -1.43037E+06    -1.57257E+06         57.7237
             986     1.55600E-03     20.6382E-03     647.869E-03     644.619E-03        -2.03298     644.482E-03        -2.03104     646.072E-03     8.97157E-03     497.245E-03    -247.208E-03    -249.981E-03    -247.375E-03     497.237E-03    -249.806E-03     4.56510E-03    -1.01173E+06    -6.28330E+06    -9.97621E+06    -5.11384E+06    -5.87410E+06    -6.28330E+06    -1.03502E+06         57.9794
             987     777.880E-06     20.6101E-03     686.122E-03     614.582E-03        -2.03929     677.236E-03        -2.03185     616.035E-03    -88.6552E-03     501.112E-03    -249.201E-03    -251.900E-03    -249.522E-03     501.093E-03    -251.560E-03     7.00159E-03    -186.483E+03    -6.31479E+06    -12.9909E+06    -6.21226E+06    -7.18406E+06    -6.09585E+06     3.94000E+06         58.0652
             988     13.3486E-03     20.1020E-03     595.291E-03     519.489E-03        -1.85916     519.445E-03        -1.85912     595.291E-03    -6.11035E-03     472.622E-03    -235.643E-03    -236.853E-03    -233.055E-03     469.268E-03    -236.086E-03     97.0371E-03     6.18546E+06    -1.54854E+06    -10.2088E+06    -1.30494E+06    -8.06887E+06     3.80194E+06    -66.2716E+03         93.4164
             989     12.5581E-03     19.9338E-03     597.100E-03     532.952E-03        -1.87319     532.927E-03        -1.87316     597.100E-03    -7.25792E-03     472.872E-03    -235.439E-03    -236.965E-03    -233.322E-03     469.987E-03    -236.198E-03     89.0855E-03     9.43370E+06     1.15499E+06    -6.75252E+06    -1.26336E+06    -4.33416E+06     9.43370E+06    -2.22919E+06         89.6268
             990     11.7747E-03     19.8271E-03     598.619E-03     544.811E-03        -1.88497     544.770E-03        -1.88493     598.619E-03    -10.4284E-03     472.151E-03    -235.235E-03    -236.318E-03    -233.359E-03     470.275E-03    -236.318E-03     72.5424E-03     6.46839E+06    -73.9097E+03    -6.24329E+06    -1.53125E+06    -4.78595E+06     6.46839E+06     686.174E+03         84.3285
             991     10.9898E-03     19.7046E-03     600.105E-03     551.153E-03        -1.89236     551.103E-03        -1.89231     600.105E-03    -3.85215E-03     471.879E-03    -234.931E-03    -236.579E-03    -233.352E-03     470.300E-03    -236.579E-03     66.3929E-03     4.69317E+06    -48.6596E+03    -7.57336E+06    -1.01123E+06    -5.04073E+06     3.12311E+06    -1.63539E+06         78.4752
             992     10.1971E-03     19.5966E-03     601.427E-03     562.476E-03        -1.90425     562.329E-03        -1.90410     601.427E-03    -13.4949E-03     470.522E-03    -233.386E-03    -236.853E-03    -232.156E-03     469.293E-03    -236.853E-03     58.5820E-03     3.63141E+06    -1.14605E+06    -6.86920E+06    -1.19551E+06    -4.67578E+06     1.48745E+06    -3.06544E+06         73.1530
             993     9.40790E-03     19.5047E-03     602.284E-03     576.719E-03        -1.91768     576.545E-03        -1.91750     602.284E-03    -17.1989E-03     470.416E-03    -232.981E-03    -237.368E-03    -232.088E-03     469.523E-03    -237.368E-03     49.8645E-03     994.496E+03    -1.89003E+06    -6.26469E+06    -2.75410E+06    -4.48247E+06     76.3533E+03     360.093E+03         68.7867
             994     8.61937E-03     19.4284E-03     603.514E-03     585.797E-03        -1.92662     586.354E-03        -1.92631     602.651E-03    -21.3784E-03     472.132E-03    -234.064E-03    -237.937E-03    -233.436E-03     471.504E-03    -237.937E-03     41.9396E-03     1.65248E+06    -210.078E+03    -7.06804E+06    -2.98569E+06    -3.31738E+06     677.430E+03    -153.966E+03         65.4310
             995     7.83191E-03     19.3632E-03     603.256E-03     594.765E-03        -1.93361     595.178E-03        -1.93317     602.393E-03    -34.5040E-03     472.218E-03    -234.542E-03    -237.981E-03    -234.082E-03     471.757E-03    -237.981E-03     35.9256E-03     371.520E+03    -1.86542E+06    -6.41285E+06    -3.01332E+06    -3.85570E+06    -1.03773E+06    -137.626E+03         62.9534
             996     7.04551E-03     19.2723E-03     602.531E-03     595.433E-03        -1.93120     595.792E-03        -1.93068     601.650E-03    -39.1588E-03     471.852E-03    -234.262E-03    -238.066E-03    -233.935E-03     471.526E-03    -238.066E-03     30.1289E-03    -2.16300E+06    -4.49044E+06    -6.35186E+06    -4.20194E+06    -5.30896E+06    -3.49440E+06     1.39110E+06         61.0157
             997     6.25900E-03     19.1970E-03     602.717E-03     584.919E-03        -1.92088     585.205E-03        -1.92029     601.837E-03    -30.2175E-03     473.792E-03    -235.277E-03    -238.492E-03    -235.070E-03     473.585E-03    -238.492E-03     23.8577E-03    -520.183E+03    -1.91839E+06    -4.85073E+06    -2.89292E+06    -3.03815E+06    -1.35823E+06    -269.448E+03         59.4521
             998     5.47558E-03     19.1612E-03     603.692E-03     581.453E-03        -1.91955     580.844E-03        -1.91894     603.692E-03    -34.8154E-03     475.482E-03    -236.613E-03    -238.899E-03    -236.493E-03     475.362E-03    -238.899E-03     18.1041E-03    -2.21291E+06    -3.52852E+06    -6.06090E+06    -4.53446E+06    -4.36695E+06    -2.90092E+06    -586.762E+03         58.2883
             999     4.69169E-03     19.1244E-03     606.329E-03     585.444E-03        -1.92789     584.944E-03        -1.92739     606.329E-03    -14.4024E-03     476.503E-03    -237.241E-03    -239.379E-03    -237.309E-03     476.437E-03    -239.245E-03     13.4436E-03    -2.00391E+06    -3.42769E+06    -5.55200E+06    -4.13267E+06    -3.99043E+06    -2.86049E+06    -416.066E+03         57.5625
            1000     3.91007E-03     19.0692E-03     608.783E-03     594.517E-03        -1.93987     593.958E-03        -1.93928     608.755E-03    -24.2810E-03     477.624E-03    -237.978E-03    -239.751E-03    -238.076E-03     477.588E-03    -239.617E-03     10.0770E-03     1.03286E+06    -101.494E+03    -3.03587E+06    -1.77153E+06    -912.168E+03     579.195E+03    -895.581E+03         57.2521
            1001     3.12566E-03     19.0350E-03     611.982E-03     605.075E-03        -1.95051     606.600E-03        -1.94990     609.850E-03    -17.0302E-03     478.831E-03    -238.944E-03    -239.948E-03    -238.937E-03     478.806E-03    -239.929E-03     8.25885E-03     1.94928E+06    -1.53659E+06    -5.26463E+06    -4.27500E+06    -1.88276E+06     1.30582E+06     584.363E+03         57.2630
            1002     2.34349E-03     19.0205E-03     612.866E-03     604.360E-03        -1.95021     605.366E-03        -1.94891     610.559E-03    -38.3351E-03     487.169E-03    -242.725E-03    -244.390E-03    -244.036E-03     487.154E-03    -243.064E-03     6.00751E-03     191.786E+03    -4.44481E+06    -9.02806E+06    -6.46896E+06    -4.46862E+06    -2.34350E+06    -599.632E+03         57.4948
            1003     1.56695E-03     19.0011E-03     613.521E-03     605.902E-03        -1.95491     604.543E-03        -1.95335     613.319E-03    -21.0330E-03     493.995E-03    -245.199E-03    -248.625E-03    -248.564E-03     493.989E-03    -245.253E-03     3.97948E-03    -4.71241E+06    -9.14485E+06    -13.3448E+06    -10.3435E+06    -9.05585E+06    -7.80278E+06     183.294E+03         57.7356
            1004     784.447E-06     18.9576E-03     642.614E-03     596.305E-03        -1.97864     633.324E-03        -1.97151     598.465E-03    -114.192E-03     488.988E-03    -242.875E-03    -246.203E-03    -246.188E-03     488.973E-03    -242.875E-03     5.56673E-03    -30.9015E+03    -9.87984E+06    -16.4521E+06    -7.65138E+06    -10.1737E+06    -8.53777E+06     2.01769E+06         57.8052
            1005     13.3508E-03     18.4839E-03     569.752E-03     531.055E-03        -1.83732     530.993E-03        -1.83726     569.752E-03    -16.6000E-03     472.277E-03    -235.598E-03    -236.782E-03    -233.288E-03     469.105E-03    -235.920E-03     94.4957E-03     6.41686E+06    -838.599E+03    -9.71929E+06     67.2580E+03    -7.78832E+06     3.58003E+06     3.05219E+06         93.6669
            1006     12.5626E-03     18.3497E-03     569.418E-03     534.813E-03        -1.84128     534.727E-03        -1.84119     569.418E-03    -19.8733E-03     471.019E-03    -234.912E-03    -236.100E-03    -232.200E-03     468.250E-03    -236.043E-03     87.5237E-03     3.75639E+06    -2.19722E+06    -11.1194E+06    -2.66057E+06    -8.72310E+06     1.82347E+06    -1.11085E+06         89.8684
            1007     11.7714E-03     18.1903E-03     569.443E-03     530.550E-03        -1.83544     530.357E-03        -1.83525     569.443E-03    -27.5687E-03     471.053E-03    -234.496E-03    -236.258E-03    -232.503E-03     469.060E-03    -236.258E-03     74.8202E-03     4.18161E+06    -2.48912E+06    -8.32456E+06    -2.53166E+06    -6.80241E+06     2.70200E+06    -1.89944E+06         84.5596
            1008     10.9811E-03     18.0900E-03     570.092E-03     530.217E-03        -1.83636     530.038E-03        -1.83618     570.092E-03    -24.8127E-03     472.182E-03    -235.327E-03    -236.644E-03    -233.774E-03     470.510E-03    -236.525E-03     68.4422E-03     3.54026E+06    -266.023E+03    -5.22033E+06     411.915E+03    -4.32821E+06     1.97020E+06    -1.44656E+06         78.7109
            1009     10.1964E-03     17.9735E-03     570.765E-03     536.753E-03        -1.84202     536.585E-03        -1.84186     570.765E-03    -27.0513E-03     473.032E-03    -235.528E-03    -237.261E-03    -234.927E-03     471.838E-03    -236.669E-03     57.7903E-03     199.299E+03    -2.84548E+06    -7.71821E+06    -1.99225E+06    -6.42748E+06    -1.94466E+06    -1.09630E+06         73.4001
            1010     9.41043E-03     17.8531E-03     571.037E-03     547.853E-03        -1.85112     547.695E-03        -1.85096     571.037E-03    -29.2064E-03     473.180E-03    -235.582E-03    -237.435E-03    -235.261E-03     472.338E-03    -236.914E-03     48.7342E-03     1.81376E+06    -699.560E+03    -6.28108E+06    -1.73042E+06    -3.86087E+06     424.407E+03     940.928E+03         69.0355
            1011     8.62555E-03     17.7935E-03     571.814E-03     558.336E-03        -1.86160     558.923E-03        -1.86133     570.951E-03    -26.2717E-03     473.608E-03    -235.785E-03    -237.583E-03    -235.572E-03     473.007E-03    -237.196E-03     41.0288E-03     4.74526E+06     2.34214E+06    -4.47113E+06     2.05180E+03    -684.788E+03     3.29900E+06    -537.136E+03         65.6632
            1012     7.83970E-03     17.7287E-03     571.802E-03     555.937E-03        -1.85892     556.371E-03        -1.85849     570.940E-03    -34.6100E-03     473.308E-03    -235.569E-03    -238.132E-03    -236.357E-03     472.927E-03    -236.963E-03     32.6081E-03     1.55686E+06    -1.27574E+06    -6.06395E+06    -3.52279E+06    -3.18609E+06     926.049E+03    -681.031E+03         63.1504
            1013     7.05413E-03     17.6561E-03     571.621E-03     549.617E-03        -1.85219     549.113E-03        -1.85169     571.621E-03    -36.0845E-03     472.635E-03    -235.153E-03    -237.870E-03    -236.201E-03     472.408E-03    -236.596E-03     24.8302E-03     987.310E+03    -1.68175E+06    -3.57255E+06    -2.91066E+06    -2.34364E+06     987.310E+03     488.143E+03         61.1605
            1014     6.26986E-03     17.5972E-03     572.667E-03     554.736E-03        -1.85909     554.224E-03        -1.85857     572.667E-03    -31.4549E-03     472.891E-03    -235.597E-03    -237.239E-03    -236.172E-03     472.770E-03    -236.543E-03     17.8490E-03    -262.950E+03    -1.79278E+06    -3.34080E+06    -2.42356E+06    -2.44329E+06    -529.678E+03     248.513E+03         59.5265
            1015     5.48683E-03     17.5232E-03     578.095E-03     564.772E-03        -1.87382     569.517E-03        -1.87331     572.844E-03    -32.3960E-03     473.564E-03    -236.297E-03    -237.485E-03    -237.196E-03     473.505E-03    -236.527E-03     12.4478E-03     264.456E+03    -1.88400E+06    -5.58480E+06    -2.65746E+06    -2.99756E+06    -1.54934E+06    -1.35453E+06         58.2724
            1016     4.70469E-03     17.4872E-03     582.789E-03     567.521E-03        -1.88071     578.144E-03        -1.88008     571.532E-03     3.56275E-03     473.868E-03    -236.320E-03    -237.658E-03    -237.576E-03     473.837E-03    -236.371E-03     8.70885E-03    -423.948E+03    -2.27710E+06    -6.67342E+06    -3.62323E+06    -3.78023E+06    -1.97101E+06    -1.91319E+06         57.4321
            1017     3.92047E-03     17.4527E-03     579.442E-03     566.997E-03        -1.87696     576.607E-03        -1.87633     569.207E-03    -620.429E-06     472.873E-03    -235.793E-03    -237.140E-03    -236.683E-03     472.855E-03    -236.232E-03     5.83355E-03    -591.691E+03    -2.00013E+06    -4.96885E+06    -3.40300E+06    -3.13532E+06    -1.02235E+06    -717.412E+03         56.9983
            1018     3.13741E-03     17.4068E-03     574.248E-03     565.772E-03        -1.87113     572.647E-03        -1.87048     566.714E-03     6.95760E-03     472.130E-03    -235.487E-03    -236.729E-03    -235.996E-03     472.122E-03    -236.211E-03     3.89445E-03    -1.54657E+06    -3.35234E+06    -4.83493E+06    -3.44555E+06    -3.60763E+06    -2.68065E+06     57.5401E+03         56.9132
            1019     2.35194E-03     17.3705E-03     579.087E-03     557.316E-03        -1.86841     572.436E-03        -1.86796     563.515E-03     12.5458E-03     479.688E-03    -238.719E-03    -240.944E-03    -240.209E-03     479.680E-03    -239.447E-03     4.46864E-03    -5.08103E+06    -8.05112E+06    -9.61859E+06    -6.90953E+06    -7.79009E+06    -8.05112E+06     1.87655E+06         57.0880
            1020     1.57017E-03     17.3388E-03     581.180E-03     550.323E-03        -1.86055     574.726E-03        -1.86005     556.286E-03     16.2455E-03     486.843E-03    -241.561E-03    -245.263E-03    -244.800E-03     486.823E-03    -242.004E-03     6.69902E-03    -1.32304E+06    -9.06273E+06    -12.9146E+06     -7.4991E+06    -8.08057E+06    -7.72066E+06    -208.340E+03         57.3021
            1021     793.031E-06     17.3451E-03     564.219E-03     537.217E-03        -1.82787     551.300E-03        -1.82716     549.426E-03     2.49272E-03     482.786E-03    -239.860E-03    -243.075E-03    -242.891E-03     482.765E-03    -240.023E-03     6.69627E-03     4.50753E+06    -6.73333E+06    -12.3772E+06    -3.92765E+06    -6.32738E+06    -4.34796E+06    -5.45197E+06         57.3670
            1022     13.3539E-03     16.8766E-03     542.073E-03     508.964E-03        -1.78701     508.892E-03        -1.78693     542.073E-03    -18.5806E-03     472.998E-03    -235.768E-03    -237.579E-03    -233.697E-03     469.326E-03    -235.978E-03     101.432E-03     8.46804E+06     1.59953E+06    -8.25597E+06    -713.103E+03    -5.49003E+06     8.01473E+06     2.26394E+06         93.9486
            1023     12.5605E-03     16.6951E-03     541.099E-03     511.199E-03        -1.78598     511.123E-03        -1.78590     541.099E-03    -21.5807E-03     472.532E-03    -235.124E-03    -237.599E-03    -233.459E-03     469.304E-03    -236.036E-03     94.1986E-03     4.31879E+06    -480.083E+03    -10.6571E+06    -252.131E+03    -7.89639E+06     1.33010E+06     622.929E+03         90.1521
            1024     11.7705E-03     16.5427E-03     540.089E-03     519.824E-03        -1.79122     519.643E-03        -1.79104     540.089E-03    -27.6954E-03     472.108E-03    -234.742E-03    -237.472E-03    -234.129E-03     470.141E-03    -236.118E-03     74.3594E-03     1.28663E+06    -3.76767E+06    -11.5301E+06    -932.227E+03    -9.56856E+06    -3.51040E+06    -1.56626E+06         84.8509
            1025     10.9840E-03     16.4548E-03     539.014E-03     525.602E-03        -1.79568     525.424E-03        -1.79550     539.014E-03    -30.6486E-03     472.942E-03    -235.686E-03    -237.275E-03    -235.258E-03     471.455E-03    -236.216E-03     64.7446E-03    -270.232E+03    -3.92861E+06    -9.01116E+06    -2.68787E+06    -7.99026E+06    -2.53187E+06    -2.00185E+06         79.0127
            1026     10.1972E-03     16.3462E-03     541.486E-03     524.736E-03        -1.79636     528.390E-03        -1.79630     537.767E-03    -24.1459E-03     474.449E-03    -236.151E-03    -237.982E-03    -236.909E-03     473.375E-03    -236.151E-03     55.0041E-03     2.92442E+06     1.11950E+06    -3.84684E+06    -132.351E+03    -2.55780E+06     2.88724E+06    -303.837E+03         73.7032
            1027     9.41560E-03     16.2497E-03     541.242E-03     524.278E-03        -1.79256     529.130E-03        -1.79246     536.295E-03    -24.1516E-03     475.551E-03    -236.159E-03    -238.927E-03    -238.173E-03     474.797E-03    -236.159E-03     46.2034E-03     1.70887E+06      57.167E+03    -4.82254E+06    -541.856E+03    -3.20009E+06     685.441E+03    -493.871E+03         69.3246
            1028     8.63117E-03     16.1435E-03     536.379E-03     522.794E-03        -1.78452     523.945E-03        -1.78445     535.151E-03    -478.690E-06     475.959E-03    -236.129E-03    -239.738E-03    -239.225E-03     475.446E-03    -236.129E-03     37.8466E-03    -1.69404E+06    -3.77887E+06    -7.56943E+06    -3.84190E+06    -5.88273E+06    -3.31770E+06     869.213E+03         65.9227
            1029     7.84910E-03     16.1168E-03     535.796E-03     517.100E-03        -1.77769     517.901E-03        -1.77764     534.952E-03     16.2933E-03     475.730E-03    -235.304E-03    -240.709E-03    -240.424E-03     475.446E-03    -235.304E-03     27.8573E-03     2.82626E+06     317.802E+03    -2.85853E+06    -823.967E+03    -974.210E+03     2.08372E+06     1.43255E+06         63.3657
            1030     7.06937E-03     16.0409E-03     539.147E-03     518.161E-03        -1.78248     522.375E-03        -1.78243     534.887E-03     4.62199E-03     474.238E-03    -234.216E-03    -239.845E-03    -239.715E-03     474.108E-03    -234.216E-03     18.4935E-03     2.50639E+06    -244.629E+03    -2.42212E+06    -1.50673E+06    -1.05489E+06     2.40125E+06    -154.244E+03         61.3143
            1031     6.28780E-03     15.9579E-03     538.162E-03     526.937E-03        -1.78985     531.245E-03        -1.78978     533.784E-03     9.05620E-03     471.834E-03    -233.559E-03    -237.995E-03    -237.946E-03     471.784E-03    -233.559E-03     10.9120E-03    -61.9579E+03    -1.96963E+06    -3.80732E+06    -3.33483E+06    -2.44212E+06    -61.9579E+03    -100.601E+03         59.5961
            1032     5.50434E-03     15.8736E-03     538.195E-03     527.673E-03        -1.78846     533.675E-03        -1.78825     531.982E-03    -4.25621E-03     469.818E-03    -232.998E-03    -237.013E-03    -236.994E-03     469.800E-03    -232.998E-03     5.04055E-03     1.00806E+06    -1.05286E+06    -5.94199E+06    -3.23183E+06    -2.26864E+06    -486.324E+03    -552.986E+03         58.2302
            1033     4.72102E-03     15.8644E-03     542.662E-03     525.912E-03        -1.79115     538.156E-03        -1.79061     529.877E-03    -1.47049E-03     468.274E-03    -232.360E-03    -236.073E-03    -236.064E-03     468.265E-03    -232.360E-03     642.840E-06    -326.735E+03    -1.98000E+06    -7.39126E+06    -4.16959E+06    -3.67539E+06    -1.85302E+06    -60.4288E+03         57.2451
            1034     3.93824E-03     15.7915E-03     544.780E-03     526.438E-03        -1.79500     544.183E-03        -1.79440     526.438E-03    -9.35776E-03     466.334E-03    -231.704E-03    -234.805E-03    -234.799E-03     466.328E-03    -231.704E-03    -1.75988E-03    -2.95286E+06    -3.66911E+06    -7.55662E+06    -5.50817E+06    -5.12829E+06    -3.54212E+06    -670.729E+03         56.6514
            1035     3.15183E-03     15.7884E-03     540.132E-03     521.659E-03        -1.78886     539.566E-03        -1.78829     521.659E-03    -6.71518E-03     464.026E-03    -231.146E-03    -233.012E-03    -233.007E-03     464.020E-03    -231.146E-03    -2.21884E-03    -2.17415E+06    -5.08221E+06    -8.53798E+06    -7.06543E+06    -5.93743E+06    -2.79147E+06    -1.45798E+06         56.4394
            1036     2.36586E-03     15.7697E-03     536.964E-03     508.200E-03        -1.77401     527.657E-03        -1.77354     517.032E-03    -7.21053E-03     467.953E-03    -233.033E-03    -235.007E-03    -233.502E-03     467.946E-03    -234.532E-03    -427.292E-06    -685.751E+03    -7.27514E+06    -9.68791E+06    -5.64286E+06    -6.62001E+06    -5.38592E+06     7.39180E+03         56.5360
            1037     1.57255E-03     15.7383E-03     536.474E-03     500.009E-03        -1.76023     524.551E-03        -1.75988     511.581E-03    -31.1167E-03     474.199E-03    -235.101E-03    -239.276E-03    -235.147E-03     474.181E-03    -239.213E-03     3.90330E-03     2.21459E+06    -9.04841E+06    -11.7572E+06    -2.31699E+06    -6.82411E+06    -9.44992E+06    -1.25134E+06         56.6967
            1038     778.236E-06     15.7162E-03     524.269E-03     496.293E-03        -1.74088     505.953E-03        -1.73681     510.536E-03     76.2319E-03     480.557E-03    -238.309E-03    -242.475E-03    -238.351E-03     480.536E-03    -242.412E-03     6.30001E-03     3.04909E+06    -6.56893E+06    -11.4487E+06    -3.58597E+06    -5.85691E+06    -5.52562E+06    -930.212E+03         56.7273
            1039     13.3362E-03     15.3096E-03     514.363E-03     493.942E-03        -1.73179     495.542E-03        -1.73175     512.722E-03    -9.11746E-03     472.908E-03    -235.326E-03    -237.942E-03    -233.523E-03     469.309E-03    -236.148E-03     100.356E-03     6.18325E+06     1.64490E+06    -8.05579E+06     1.60488E+06    -6.26722E+06     4.43472E+06     781.290E+03         94.2663
            1040     12.5520E-03     15.0718E-03     512.047E-03     493.249E-03        -1.73030     494.873E-03        -1.73028     510.406E-03    -9.92992E-03     475.153E-03    -236.072E-03    -239.165E-03    -235.974E-03     471.962E-03    -236.072E-03     94.0681E-03     3.65339E+06    -1.11087E+06    -10.7288E+06    -1.23359E+06    -8.63106E+06     1.67839E+06    -715.753E+03         90.4940
            1041     11.7716E-03     14.9666E-03     507.963E-03     499.951E-03        -1.73163     499.912E-03        -1.73159     507.963E-03    -12.7399E-03     474.948E-03    -235.857E-03    -239.230E-03    -237.166E-03     472.883E-03    -235.857E-03     76.5331E-03     4.78060E+06    -546.127E+03    -9.48219E+06     19.8210E+03    -6.73072E+06     1.46319E+06    -368.767E+03         85.2246
            1042     10.9867E-03     14.7817E-03     505.759E-03     502.145E-03        -1.73035     502.086E-03        -1.73030     505.759E-03    -20.4693E-03     476.298E-03    -235.739E-03    -240.502E-03    -238.946E-03     474.743E-03    -235.739E-03     66.3557E-03     5.18752E+06    -86.1463E+03    -6.23392E+06     1.30064E+06    -4.24420E+06     1.81100E+06     572.125E+03         79.3942
            1043     10.2038E-03     14.7150E-03     507.570E-03     499.343E-03        -1.72756     502.953E-03        -1.72745     503.851E-03    -28.6597E-03     477.165E-03    -235.357E-03    -241.499E-03    -240.492E-03     476.158E-03    -235.357E-03     53.2852E-03     498.110E+03    -2.20491E+06    -6.60199E+06    -1.52253E+06    -5.44826E+06    -1.33799E+06     289.276E+03         74.0700
            1044     9.42005E-03     14.6317E-03     506.926E-03     498.354E-03        -1.72391     503.045E-03        -1.72365     501.979E-03    -44.8948E-03     478.056E-03    -234.885E-03    -242.912E-03    -242.314E-03     477.458E-03    -234.885E-03     40.9478E-03    -2.54978E+06    -4.45258E+06    -7.80934E+06    -4.49224E+06    -6.87765E+06    -3.44181E+06    -379.162E+03         69.6639
            1045     8.64364E-03     14.5134E-03     504.043E-03     496.300E-03        -1.71897     499.966E-03        -1.71874     500.147E-03    -29.4735E-03     478.759E-03    -234.283E-03    -244.576E-03    -244.246E-03     478.428E-03    -234.283E-03     30.0883E-03     137.737E+03    -1.86960E+06    -4.79623E+06    -2.08042E+06    -3.77719E+06    -670.478E+03     1.53766E+06         66.2228
            1046     7.86611E-03     14.4417E-03     507.108E-03     495.522E-03        -1.72135     503.733E-03        -1.72095     498.492E-03    -30.2843E-03     476.759E-03    -232.841E-03    -244.335E-03    -244.185E-03     476.609E-03    -232.841E-03     19.5876E-03    -134.497E+03    -1.54826E+06    -3.87482E+06    -1.16634E+06    -3.03133E+06    -1.35991E+06     870.271E+03         63.6094
            1047     7.08702E-03     14.3973E-03     507.796E-03     496.470E-03        -1.72172     507.300E-03        -1.72123     496.470E-03    -51.1063E-03     473.362E-03    -231.162E-03    -242.340E-03    -242.288E-03     473.309E-03    -231.162E-03     10.6570E-03     692.308E+03    -1.73049E+06    -3.81116E+06    -1.13949E+06    -2.39404E+06    -1.31581E+06    -211.707E+03         61.4826
            1048     6.30869E-03     14.3480E-03     501.295E-03     494.225E-03        -1.71006     500.965E-03        -1.70973     494.225E-03    -42.1855E-03     470.054E-03    -229.752E-03    -240.147E-03    -240.132E-03     470.039E-03    -229.752E-03     3.34743E-03    -463.517E+03    -2.58735E+06    -4.30715E+06    -2.61744E+06    -2.85695E+06    -1.88364E+06    -221.937E+03         59.6704
            1049     5.52915E-03     14.2853E-03     495.840E-03     488.727E-03        -1.69839     491.492E-03        -1.69801     492.691E-03    -47.0448E-03     465.474E-03    -228.460E-03    -237.138E-03    -237.132E-03     465.468E-03    -228.460E-03    -2.17516E-03    -3.48469E+06    -4.21905E+06    -7.08683E+06    -5.95554E+06    -4.90502E+06    -3.93001E+06     1.24023E+06         58.1860
            1050     4.74518E-03     14.2221E-03     495.392E-03     483.352E-03        -1.69421     486.030E-03        -1.69390     492.407E-03    -49.0583E-03     461.310E-03    -227.276E-03    -234.099E-03    -234.084E-03     461.294E-03    -227.276E-03    -5.94972E-03     977.238E+03     11.4536E+03    -5.75813E+06    -3.40716E+06    -1.37374E+06     11.4536E+03     581.382E+03         57.0464
            1051     3.95865E-03     14.2039E-03     501.009E-03     479.410E-03        -1.69735     487.211E-03        -1.69701     492.875E-03    -40.5146E-03     457.690E-03    -226.142E-03    -231.681E-03    -231.656E-03     457.665E-03    -226.142E-03    -7.93515E-03     672.735E+03    -182.079E+03    -8.86771E+06    -5.18380E+06    -3.01118E+06    -182.079E+03     9.60156E+03         56.2728
            1052     3.17207E-03     14.1860E-03     504.250E-03     480.198E-03        -1.70264     490.812E-03        -1.70229     493.285E-03    -42.6617E-03     453.550E-03    -225.138E-03    -228.494E-03    -228.469E-03     453.525E-03    -225.138E-03    -7.86236E-03     35.3463E+03    -2.70266E+06    -10.4008E+06    -8.07152E+06    -4.69754E+06    -299.007E+03     790.601E+03         55.9038
            1053     2.37996E-03     14.1459E-03     499.588E-03     480.897E-03        -1.69806     484.442E-03        -1.69725     495.229E-03    -1.84439E-03     457.049E-03    -227.071E-03    -229.911E-03    -228.835E-03     457.029E-03    -228.127E-03    -6.94099E-03    -390.155E+03    -6.48010E+06    -9.85007E+06    -7.53207E+06    -5.88482E+06    -3.30343E+06    -1.50814E+06         55.9009
            1054     1.58571E-03     14.1468E-03     501.239E-03     488.059E-03        -1.70517     486.498E-03        -1.70279     500.419E-03    -55.7176E-03     462.513E-03    -228.243E-03    -234.187E-03    -230.503E-03     462.498E-03    -231.912E-03    -5.05468E-03    -2.69613E+06    -10.0205E+06    -12.7801E+06    -7.62128E+06    -9.37264E+06    -8.50276E+06     173.172E+03         56.0028
            1055     788.360E-06     14.1116E-03     532.768E-03     491.103E-03        -1.74074     512.936E-03        -1.72365     493.843E-03     179.093E-03     464.469E-03    -229.540E-03    -235.079E-03    -231.132E-03     464.462E-03    -233.480E-03    -1.00584E-03    -1.00918E+06    -9.66291E+06    -13.9838E+06    -6.05576E+06    -9.68194E+06    -8.91821E+06     5.08813E+06         55.9834
            1056     13.3436E-03     13.6620E-03     495.782E-03     481.632E-03        -1.68677     494.975E-03        -1.68666     482.330E-03    -17.3771E-03     474.356E-03    -235.238E-03    -239.117E-03    -235.086E-03     471.003E-03    -235.916E-03     96.9661E-03     1.72362E+06    -1.01543E+06    -12.0652E+06    -68.6185E+03    -10.2729E+06    -1.01543E+06     3.53429E+06         94.6366
            1057     12.5564E-03     13.4475E-03     492.117E-03     477.893E-03        -1.68291     491.459E-03        -1.68281     478.448E-03    -25.0147E-03     475.355E-03    -235.844E-03    -239.642E-03    -236.505E-03     472.218E-03    -235.844E-03     93.4869E-03     2.42978E+06    -611.203E+03    -10.7378E+06    -1.08880E+06    -8.53400E+06     703.543E+03     957.730E+03         90.8975
            1058     11.7664E-03     13.2690E-03     483.500E-03     473.556E-03        -1.67030     482.174E-03        -1.67022     474.796E-03    -26.1830E-03     477.103E-03    -235.446E-03    -241.734E-03    -239.693E-03     475.062E-03    -235.446E-03     76.2335E-03     3.03248E+06     523.646E+03    -7.51262E+06    -747.121E+03    -6.07800E+06     2.86863E+06    -791.912E+03         85.6577
            1059     10.9863E-03     13.1866E-03     476.036E-03     469.940E-03        -1.65799     473.766E-03        -1.65789     472.112E-03    -28.5072E-03     480.395E-03    -235.045E-03    -245.005E-03    -243.555E-03     478.945E-03    -235.045E-03     64.1934E-03     3.67314E+06     831.456E+03    -5.59671E+06     800.874E+03    -4.28740E+06     2.39442E+06     1.85314E+06         79.8248
            1060     10.2102E-03     13.0864E-03     471.084E-03     465.909E-03        -1.64780     466.744E-03        -1.64769     470.144E-03    -25.0291E-03     482.009E-03    -234.334E-03    -247.300E-03    -246.435E-03     481.144E-03    -234.334E-03     49.5722E-03     1.64633E+06    -1.16614E+06    -6.62750E+06    -965.775E+03    -5.02894E+06    -152.590E+03     2.33908E+06         74.4777
            1061     9.43669E-03     13.0040E-03     468.759E-03     464.230E-03        -1.64153     464.292E-03        -1.64133     468.493E-03    -34.2110E-03     482.071E-03    -233.194E-03    -248.296E-03    -247.839E-03     481.613E-03    -233.194E-03     35.9287E-03     5.02290E+06     2.81867E+06    -1.27062E+06     2.05039E+06     181.705E+03     4.33885E+06     917.624E+03         70.0387
            1062     8.66140E-03     12.9076E-03     469.357E-03     464.872E-03        -1.64319     467.325E-03        -1.64297     466.689E-03    -21.0219E-03     480.746E-03    -231.769E-03    -248.693E-03    -248.491E-03     480.543E-03    -231.769E-03     23.3573E-03     3.61351E+06     2.24344E+06    -855.479E+03     1.20387E+06     326.443E+03     3.47116E+06    -580.003E+03         66.5464
            1063     7.88884E-03     12.8350E-03     472.526E-03     462.235E-03        -1.64457     469.578E-03        -1.64414     464.753E-03    -28.9885E-03     476.292E-03    -229.725E-03    -247.168E-03    -247.106E-03     476.230E-03    -229.725E-03     12.2304E-03    -1.21876E+06    -2.15442E+06    -4.66142E+06    -2.38243E+06    -3.68611E+06    -1.96607E+06    -521.860E+03         63.8635
            1064     7.11239E-03     12.7712E-03     472.822E-03     460.734E-03        -1.64126     470.114E-03        -1.64076     462.949E-03    -40.8933E-03     470.563E-03    -227.491E-03    -243.531E-03    -243.519E-03     470.551E-03    -227.491E-03     3.44242E-03     125.538E+03    -2.35211E+06    -4.62167E+06    -943.600E+03    -2.99435E+06    -2.91029E+06    -811.280E+03         61.6556
            1065     6.33488E-03     12.7330E-03     473.417E-03     460.846E-03        -1.64031     473.072E-03        -1.63996     460.846E-03    -24.7072E-03     465.602E-03    -225.513E-03    -240.092E-03    -240.084E-03     465.594E-03    -225.513E-03    -3.20301E-03    -983.668E+03    -3.69588E+06    -5.58609E+06    -2.23811E+06    -3.83063E+06    -4.19689E+06    -1.26339E+06         59.7520
            1066     5.55356E-03     12.6629E-03     471.985E-03     458.144E-03        -1.63666     471.701E-03        -1.63638     458.144E-03    -12.8346E-03     459.885E-03    -223.653E-03    -236.444E-03    -236.422E-03     459.864E-03    -223.653E-03    -7.25478E-03    -331.223E+03    -2.33276E+06    -3.53559E+06    -1.98305E+06    -1.81553E+06    -2.40099E+06    -680.416E+03         58.1608
            1067     4.76948E-03     12.6337E-03     466.175E-03     450.852E-03        -1.62378     460.971E-03        -1.62366     455.942E-03    -9.87271E-03     453.984E-03    -221.929E-03    -232.051E-03    -232.015E-03     453.948E-03    -221.929E-03    -9.68906E-03     187.835E+03    -3.06718E+06    -7.49645E+06    -4.04191E+06    -3.14131E+06    -3.19258E+06     -76.878E+03         56.8908
            1068     3.98214E-03     12.6195E-03     460.306E-03     438.451E-03        -1.60673     442.451E-03        -1.60653     456.112E-03     10.5091E-03     448.327E-03    -220.323E-03    -227.795E-03    -227.745E-03     448.277E-03    -220.323E-03    -11.4887E-03    -313.892E+03    -3.33373E+06    -10.9342E+06    -6.14351E+06    -5.10462E+06    -3.33373E+06     1.17945E+06         55.9592
            1069     3.18992E-03     12.5413E-03     459.725E-03     435.818E-03        -1.60341     435.522E-03        -1.60312     459.725E-03    -2.61618E-03     443.291E-03    -218.843E-03    -224.386E-03    -224.335E-03     443.240E-03    -218.843E-03    -11.5870E-03     1.46575E+06     257.962E+03    -5.76998E+06    -2.91929E+06    -1.49786E+06     370.878E+03     1.24844E+06         55.4150
            1070     2.39563E-03     12.5930E-03     465.225E-03     452.460E-03        -1.62553     452.031E-03        -1.62446     464.585E-03     39.0451E-03     447.426E-03    -221.105E-03    -226.293E-03    -226.257E-03     447.389E-03    -221.105E-03    -9.74903E-03    -105.748E+03    -3.84604E+06    -7.81601E+06    -5.29854E+06    -3.91066E+06    -2.55859E+06     1.65560E+06         55.2729
            1071     1.60283E-03     12.5762E-03     473.968E-03     464.792E-03        -1.64695     469.077E-03        -1.64285     465.580E-03    -53.6132E-03     451.063E-03    -222.607E-03    -228.404E-03    -228.379E-03     451.038E-03    -222.607E-03    -4.30419E-03    -3.30976E+06    -8.27443E+06    -12.6754E+06    -9.90793E+06    -8.75707E+06    -5.59457E+06     2.43207E+06         55.3170
            1072     813.131E-06     12.5396E-03     528.689E-03     426.170E-03        -1.66449     501.646E-03        -1.63745     426.170E-03     208.517E-03     442.545E-03    -218.843E-03    -223.638E-03    -223.608E-03     442.515E-03    -218.843E-03     3.31487E-03    -4.11374E+06    -9.53294E+06    -19.8462E+06    -12.8376E+06    -13.0763E+06    -7.57900E+06    -432.014E+03         55.2799
            1073     13.3398E-03     11.9675E-03     478.873E-03     452.382E-03        -1.63375     478.735E-03        -1.63361     452.382E-03    -28.1544E-03     478.448E-03    -235.682E-03    -242.685E-03    -239.043E-03     474.805E-03    -235.682E-03     101.503E-03     2.16215E+06     657.023E+03    -15.9581E+06    -2.69677E+06    -11.0992E+06     657.023E+03     3.67482E+06         95.0357
            1074     12.5503E-03     11.8237E-03     472.183E-03     448.082E-03        -1.62215     472.070E-03        -1.62203     448.082E-03    -24.5605E-03     481.020E-03    -235.330E-03    -245.403E-03    -242.139E-03     477.755E-03    -235.330E-03     95.1107E-03     4.91011E+06     2.31582E+06    -8.88334E+06     1.62600E+06    -5.93490E+06     2.65148E+06     297.002E+03         91.3355
            1075     11.7741E-03     11.6833E-03     466.319E-03     443.928E-03        -1.61132     466.229E-03        -1.61123     443.928E-03    -27.2657E-03     481.850E-03    -234.560E-03    -246.846E-03    -245.125E-03     480.129E-03    -234.560E-03     70.3191E-03     2.04210E+06    -331.467E+03    -7.09227E+06     1.07042E+06    -6.45626E+06     4.19581E+03    -1.18784E+06         86.1332
            1076     10.9966E-03     11.5696E-03     460.918E-03     440.211E-03        -1.60235     460.827E-03        -1.60226     440.211E-03    -27.1260E-03     482.953E-03    -233.720E-03    -248.663E-03    -247.535E-03     481.826E-03    -233.720E-03     56.7028E-03    -664.042E+03    -1.99009E+06    -8.64835E+06    -2.25160E+06    -7.61055E+06    -1.44033E+06    -317.154E+03         80.2946
            1077     10.2216E-03     11.4522E-03     453.897E-03     436.648E-03        -1.59296     453.854E-03        -1.59292     436.648E-03    -16.2006E-03     484.176E-03    -232.641E-03    -250.860E-03    -250.217E-03     483.533E-03    -232.641E-03     42.8248E-03     3.92576E+06     2.72066E+06    -3.29986E+06     1.18101E+06    -1.76021E+06     3.92576E+06     2.44915E+06         74.9060
            1078     9.45277E-03     11.3354E-03     452.306E-03     432.462E-03        -1.58465     451.535E-03        -1.58452     433.100E-03    -24.3918E-03     484.361E-03    -230.973E-03    -252.237E-03    -251.893E-03     484.016E-03    -230.973E-03     31.2301E-03     2.92993E+06     2.14974E+06    -2.55316E+06     878.415E+03    -1.18560E+06     2.83369E+06     764.208E+03         70.4079
            1079     8.68551E-03     11.2598E-03     445.566E-03     428.771E-03        -1.57221     444.426E-03        -1.57201     429.712E-03    -3.49408E-03     481.246E-03    -228.929E-03    -251.088E-03    -250.946E-03     481.104E-03    -228.929E-03     19.3214E-03     1.32217E+06    -231.214E+03    -3.71743E+06    -97.1372E+03    -2.32673E+06    -202.614E+03    -527.070E+03         66.8311
            1080     7.91255E-03     11.1531E-03     434.328E-03     424.592E-03        -1.55777     431.693E-03        -1.55765     427.110E-03     6.00784E-03     474.827E-03    -226.341E-03    -248.380E-03    -248.345E-03     474.792E-03    -226.341E-03     9.29910E-03     1.66927E+06    -234.221E+03    -3.22880E+06     234.767E+03    -1.79429E+06    -234.221E+03     789.398E+03         64.0601
            1081     7.14025E-03     11.1301E-03     430.554E-03     423.239E-03        -1.55297     428.117E-03        -1.55286     425.564E-03    -15.7926E-03     467.248E-03    -223.605E-03    -243.890E-03    -243.883E-03     467.242E-03    -223.605E-03     1.95821E-03    -242.425E+03    -2.49914E+06    -7.21264E+06    -3.11025E+06    -4.34481E+06    -2.49914E+06     1.29220E+06         61.7894
            1082     6.36010E-03     11.0862E-03     434.040E-03     420.865E-03        -1.55575     430.471E-03        -1.55548     424.160E-03    -17.1194E-03     459.990E-03    -221.346E-03    -238.764E-03    -238.755E-03     459.981E-03    -221.346E-03    -4.19701E-03     4.68216E+06     803.621E+03    -3.82546E+06     755.008E+03     101.691E+03     803.621E+03     1.34360E+06         59.8301
            1083     5.57778E-03     11.0685E-03     435.057E-03     419.126E-03        -1.55490     431.575E-03        -1.55460     422.311E-03    -12.1413E-03     453.285E-03    -219.185E-03    -234.354E-03    -234.322E-03     453.253E-03    -219.185E-03    -9.05643E-03     5.31867E+06     977.501E+03    -1.03040E+06     2.77609E+06     1.63757E+06     852.102E+03     1.14079E+06         58.1655
            1084     4.79247E-03     11.0413E-03     435.048E-03     419.875E-03        -1.55215     434.760E-03        -1.55187     419.875E-03    -21.7558E-03     446.550E-03    -217.073E-03    -229.529E-03    -229.480E-03     446.501E-03    -217.073E-03    -11.4848E-03    -421.903E+03    -4.49340E+06    -7.08855E+06    -2.82044E+06    -4.11292E+06    -5.07049E+06     1.90310E+06         56.8019
            1085     4.00203E-03     11.0244E-03     437.543E-03     412.346E-03        -1.54718     432.953E-03        -1.54678     416.541E-03     4.42756E-03     439.937E-03    -215.073E-03    -224.692E-03    -224.635E-03     439.880E-03    -215.073E-03    -12.2636E-03    -2.48976E+06    -5.84362E+06    -8.73111E+06    -4.97127E+06    -5.79791E+06    -6.29531E+06     1.34511E+06         55.7512
            1086     3.20777E-03     11.0089E-03     437.040E-03     402.106E-03        -1.53546     425.645E-03        -1.53489     412.926E-03    -9.17826E-03     434.292E-03    -213.123E-03    -220.977E-03    -220.920E-03     434.236E-03    -213.123E-03    -12.1205E-03    -1.78535E+06    -3.90718E+06    -6.67333E+06    -4.49285E+06    -4.39287E+06    -3.48014E+06    -197.142E+03         55.0505
            1087     2.41220E-03     10.9919E-03     424.120E-03     401.895E-03        -1.52429     413.673E-03        -1.52282     410.868E-03     27.9160E-03     436.844E-03    -215.146E-03    -221.774E-03    -221.742E-03     436.812E-03    -215.146E-03    -8.56767E-03     431.271E+03    -4.93126E+06    -8.51531E+06    -3.08184E+06    -4.75861E+06    -5.17484E+06     1.58654E+06         54.7536
            1088     1.61272E-03     10.9960E-03     417.867E-03     407.913E-03        -1.52861     410.712E-03        -1.52380     410.262E-03    -56.6262E-03     438.181E-03    -216.792E-03    -221.615E-03    -221.359E-03     438.166E-03    -217.033E-03    -2.30115E-03     1.57586E+06    -5.59515E+06    -10.2289E+06    -1.59568E+06    -5.47919E+06    -7.17331E+06     2.47188E+06         54.7217
            1089     802.068E-06     10.9896E-03     521.755E-03     332.662E-03        -1.55965     487.077E-03        -1.52497     332.662E-03     242.064E-03     432.441E-03    -214.306E-03    -218.034E-03    -217.475E-03     432.413E-03    -214.838E-03     3.57032E-03     3.86215E+06    -1.73351E+06    -13.8885E+06    -3.88745E+06    -5.68002E+06    -2.19243E+06    -5.00385E+06         54.6778
            1090     13.3275E-03     10.3737E-03     466.606E-03     424.037E-03        -1.58399     466.543E-03        -1.58392     424.037E-03    -17.7992E-03     484.427E-03    -235.486E-03    -248.885E-03    -245.554E-03     481.096E-03    -235.486E-03     97.8116E-03     8.25003E+06     5.29551E+06    -8.44097E+06     3.35932E+06    -5.00000E+06     6.74525E+06    -596.490E+03         95.4283
            1091     12.5597E-03     10.1882E-03     456.350E-03     418.850E-03        -1.56545     456.323E-03        -1.56542     418.850E-03    -11.0111E-03     488.364E-03    -234.690E-03    -252.935E-03    -249.967E-03     485.396E-03    -234.690E-03     91.7115E-03     1.91992E+06    -959.243E+03    -10.5930E+06    -220.392E+03    -8.89005E+06    -521.867E+03    -2.49845E+06         91.7708
            1092     11.7857E-03     10.0340E-03     448.770E-03     413.843E-03        -1.55391     448.715E-03        -1.55386     413.843E-03    -19.6004E-03     487.437E-03    -233.406E-03    -253.180E-03    -251.621E-03     485.878E-03    -233.406E-03     67.6067E-03    -617.051E+03    -3.48167E+06    -10.2887E+06    -1.71144E+06    -9.63164E+06    -3.04429E+06     4.06786E+03         86.6100
            1093     11.0141E-03     9.91353E-03     444.954E-03     409.069E-03        -1.54635     444.899E-03        -1.54629     409.069E-03    -20.2691E-03     486.887E-03    -231.928E-03    -254.233E-03    -253.284E-03     485.939E-03    -231.928E-03     52.0278E-03     2.26179E+06     480.467E+03    -7.11689E+06     449.749E+03    -5.32188E+06     497.500E+03     1.56039E+06         80.7730
            1094     10.2453E-03     9.78931E-03     437.444E-03     404.335E-03        -1.53767     437.400E-03        -1.53763     404.335E-03    -17.7543E-03     484.508E-03    -230.149E-03    -253.630E-03    -253.167E-03     484.045E-03    -230.149E-03     36.4812E-03    -194.126E+03    -2.53450E+06    -7.94688E+06    -1.88740E+06    -6.44517E+06    -2.34294E+06     1.49188E+06         75.3381
            1095     9.47481E-03     9.66422E-03     434.024E-03     399.776E-03        -1.52577     433.823E-03        -1.52557     399.776E-03    -35.2315E-03     481.502E-03    -228.152E-03    -252.662E-03    -252.427E-03     481.267E-03    -228.152E-03     25.5832E-03    -1.74809E+06    -5.72487E+06    -8.30625E+06    -2.43298E+06    -7.63599E+06    -5.71024E+06    -296.426E+03         70.7528
            1096     8.70479E-03     9.60448E-03     425.112E-03     395.647E-03        -1.51041     424.904E-03        -1.51020     395.647E-03    -18.7634E-03     477.505E-03    -226.028E-03    -250.637E-03    -250.544E-03     477.412E-03    -226.028E-03     15.7346E-03    -158.293E+03    -4.70745E+06    -6.54884E+06    -791.705E+03    -5.75554E+06    -4.86735E+06     867.474E+03         67.0479
            1097     7.93561E-03     9.53325E-03     413.756E-03     392.197E-03        -1.49819     413.399E-03        -1.49783     392.197E-03    -24.8857E-03     470.798E-03    -223.215E-03    -247.242E-03    -247.211E-03     470.767E-03    -223.215E-03     9.15921E-03     1.79763E+06    -3.32207E+06    -6.19444E+06    -194.457E+03    -4.20235E+06    -3.32207E+06     2.94828E+06         64.1653
            1098     7.15731E-03     9.51587E-03     404.132E-03     389.561E-03        -1.48463     403.641E-03        -1.48425     389.671E-03    -42.1027E-03     462.737E-03    -220.327E-03    -242.631E-03    -242.621E-03     462.727E-03    -220.327E-03     4.03231E-03     3.39131E+06    -2.23325E+06    -6.83151E+06    -248.879E+03    -3.16807E+06    -2.25651E+06     4.62316E+06         61.8629
            1099     6.38008E-03     9.50211E-03     392.211E-03     383.456E-03        -1.47040     386.747E-03        -1.47011     388.629E-03    -38.0897E-03     455.004E-03    -217.933E-03    -237.199E-03    -237.195E-03     455.001E-03    -217.933E-03    -877.172E-06     3.91769E+06    -1.11886E+06    -5.16321E+06     88.2417E+03    -1.31051E+06    -1.14211E+06     4.23841E+06         59.9009
            1100     5.59699E-03     9.45949E-03     390.248E-03     383.675E-03        -1.46996     384.765E-03        -1.46954     388.739E-03    -21.9879E-03     447.218E-03    -215.673E-03    -231.612E-03    -231.596E-03     447.203E-03    -215.673E-03    -4.68592E-03     5.11304E+06    -100.359E+03    -5.42891E+06    -25.6624E+03    -290.207E+03    -100.359E+03     5.19244E+06         58.2070
            1101     4.80870E-03     9.45333E-03     395.017E-03     388.000E-03        -1.47421     394.420E-03        -1.47382     388.203E-03    -18.7068E-03     439.945E-03    -213.497E-03    -226.514E-03    -226.489E-03     439.920E-03    -213.497E-03    -6.84476E-03     4.53074E+06     1.29057E+06    -5.13839E+06    -197.670E+03     41.7201E+03     838.876E+03     4.52891E+06         56.7867
            1102     4.01683E-03     9.44550E-03     402.862E-03     383.767E-03        -1.47741     400.273E-03        -1.47711     386.054E-03    -6.89924E-03     433.200E-03    -211.408E-03    -221.783E-03    -221.755E-03     433.172E-03    -211.408E-03    -7.09131E-03     2.01121E+06     371.709E+03      -3.916E+06    -538.217E+03    -914.877E+03    -79.9848E+03     2.65637E+06         55.6527
            1103     3.22166E-03     9.42286E-03     413.464E-03     378.831E-03        -1.48068     410.385E-03        -1.47969     380.916E-03    -39.8130E-03     426.774E-03    -209.392E-03    -217.239E-03    -217.214E-03     426.749E-03    -209.392E-03    -6.38611E-03     923.548E+03    -1.70941E+06    -6.44821E+06    -2.77203E+06    -3.17967E+06    -1.28237E+06     2.62584E+06         54.8412
            1104     2.42083E-03     9.47273E-03     406.632E-03     369.968E-03        -1.46557     402.260E-03        -1.46355     372.316E-03     5.04314E-03     429.015E-03    -211.746E-03    -217.061E-03    -217.048E-03     429.002E-03    -211.746E-03    -4.69053E-03    -403.282E+03    -4.43161E+06    -9.79216E+06    -4.43458E+06    -5.80809E+06    -4.38439E+06     1.67047E+06         54.4215
            1105     1.61458E-03     9.45468E-03     382.088E-03     363.232E-03        -1.44332     372.691E-03        -1.43627     365.581E-03    -80.8551E-03     431.713E-03    -214.136E-03    -217.503E-03    -217.255E-03     431.706E-03    -214.377E-03    -4.37974E-03     1.50152E+06    -3.31367E+06    -7.68758E+06    -185.361E+03    -3.95272E+06    -5.36164E+06     1.06277E+06         54.3004
            1106     810.223E-06     9.45394E-03     502.497E-03     266.968E-03        -1.46812     460.374E-03        -1.42600     266.968E-03     242.465E-03     427.895E-03    -212.990E-03    -214.857E-03    -214.320E-03     427.889E-03    -213.521E-03    -3.63601E-03     9.64861E+06     2.92041E+06    -5.37413E+06     4.96707E+06     975.565E+03     1.25226E+06     689.172E+03         54.2206
            1107     13.3412E-03     8.72455E-03     459.844E-03     398.534E-03        -1.53768     459.770E-03        -1.53760     398.534E-03    -22.9119E-03     491.230E-03    -234.807E-03    -255.906E-03    -253.130E-03     488.454E-03    -234.807E-03     90.0507E-03     803.878E+03    -5.25400E+06    -12.0440E+06    -1.30352E+06    -11.3864E+06    -3.80426E+06    -1.43968E+06         95.8140
            1108     12.5638E-03     8.53963E-03     453.667E-03     392.439E-03        -1.52451     453.453E-03        -1.52429     392.439E-03    -32.3583E-03     491.716E-03    -233.531E-03    -257.422E-03    -254.892E-03     489.186E-03    -233.531E-03     84.8538E-03     5.19684E+06     2.14915E+06    -6.06295E+06     4.13910E+06    -5.44259E+06     2.58652E+06    -2.16490E+06         92.1973
            1109     11.7958E-03     8.36659E-03     442.550E-03     386.464E-03        -1.51058     442.216E-03        -1.51024     386.464E-03    -41.8403E-03     490.767E-03    -231.815E-03    -258.116E-03    -256.836E-03     489.487E-03    -231.815E-03     60.9802E-03     7.58585E+06     4.19390E+06    -4.13876E+06     5.90836E+06    -2.89865E+06     4.63127E+06     1.63873E+06         87.0780
            1110     11.0338E-03     8.25019E-03     429.420E-03     381.015E-03        -1.49385     429.056E-03        -1.49348     381.015E-03    -43.9259E-03     488.905E-03    -229.769E-03    -258.133E-03    -257.363E-03     488.136E-03    -229.769E-03     47.1286E-03     2.04596E+06    -2.34163E+06    -9.62165E+06     137.536E+03    -7.71323E+06    -2.34163E+06     3.37004E+06         81.2464
            1111     10.2689E-03     8.13038E-03     417.346E-03     376.047E-03        -1.48117     417.033E-03        -1.48086     376.047E-03    -41.1682E-03     483.948E-03    -227.473E-03    -255.669E-03    -255.259E-03     483.538E-03    -227.473E-03     34.4318E-03     2.42317E+06    -4.37399E+06    -8.60653E+06     1.16744E+06    -7.35080E+06    -4.37399E+06     1.33107E+06         75.7690
            1112     9.50112E-03     8.04011E-03     412.909E-03     371.442E-03        -1.47044     412.694E-03        -1.47023     371.442E-03    -38.3717E-03     476.739E-03    -225.288E-03    -251.074E-03    -250.873E-03     476.538E-03    -225.288E-03     23.5776E-03     5.14250E+06    -2.60183E+06    -5.25326E+06     4.16972E+06    -4.12058E+06    -2.76173E+06     1.55874E+06         71.0986
            1113     8.72674E-03     8.00823E-03     406.438E-03     367.028E-03        -1.45990     406.247E-03        -1.45971     367.028E-03    -6.38097E-03     469.932E-03    -223.241E-03    -246.462E-03    -246.383E-03     469.854E-03    -223.241E-03     14.6477E-03     1.12344E+06    -5.65842E+06    -8.97154E+06    -559.273E+03    -7.12894E+06    -5.81831E+06     3.11242E+06         67.2634
            1114     7.94836E-03     7.93133E-03     396.952E-03     362.746E-03        -1.44837     396.547E-03        -1.44796     362.746E-03    -3.00073E-03     463.731E-03    -220.585E-03    -242.985E-03    -242.953E-03     463.699E-03    -220.585E-03     9.27772E-03     1.14660E+06    -5.38313E+06    -9.24836E+06    -1.38684E+06    -6.71493E+06    -5.38313E+06     3.42473E+06         64.2712
            1115     7.17227E-03     7.90046E-03     389.838E-03     358.701E-03        -1.43206     389.462E-03        -1.43168     358.701E-03    -4.96461E-03     455.921E-03    -218.071E-03    -238.062E-03    -238.048E-03     455.907E-03    -218.071E-03     5.78314E-03     5.99496E+06    -1.20587E+06    -3.59032E+06     3.84310E+06    -1.41522E+06    -1.22912E+06     3.39337E+06         61.9525
            1116     6.38875E-03     7.85302E-03     372.424E-03     354.008E-03        -1.41413     370.374E-03        -1.41396     355.886E-03    -8.74945E-03     448.204E-03    -215.978E-03    -232.437E-03    -232.430E-03     448.196E-03    -215.978E-03     3.72038E-03     2.69746E+06    -3.68020E+06    -6.34214E+06    -303.628E+03    -3.31780E+06    -3.70346E+06     4.02728E+06         60.0085
            1117     5.60351E-03     7.92988E-03     358.124E-03     351.117E-03        -1.40076     353.839E-03        -1.40042     355.068E-03    -16.1090E-03     441.740E-03    -214.006E-03    -227.772E-03    -227.764E-03     441.731E-03    -214.006E-03     2.84938E-03     3.11843E+06    -1.96934E+06    -8.31573E+06    -2.42361E+06    -2.77370E+06    -1.96934E+06     3.80886E+06         58.3062
            1118     4.81263E-03     7.87386E-03     355.660E-03     351.682E-03        -1.39574     351.761E-03        -1.39540     355.241E-03    -14.9098E-03     435.558E-03    -212.173E-03    -223.377E-03    -223.369E-03     435.550E-03    -212.173E-03     1.75481E-03     7.50863E+06     3.92907E+06    -3.21220E+06     2.17076E+06     2.12567E+06     3.92907E+06     3.44859E+06         56.8571
            1119     4.01916E-03     7.88353E-03     355.848E-03     351.585E-03        -1.39554     351.388E-03        -1.39534     355.848E-03    -1.65101E-03     429.352E-03    -210.383E-03    -218.917E-03    -218.912E-03     429.347E-03    -210.383E-03     1.05178E-03     9.04835E+06     5.95787E+06    -118.648E+03     3.32082E+06     4.12151E+06     7.44525E+06     3.73443E+06         55.6767
            1120     3.22011E-03     7.89227E-03     364.799E-03     349.009E-03        -1.39734     356.778E-03        -1.39667     356.365E-03    -17.3608E-03     428.267E-03    -211.052E-03    -217.209E-03    -217.207E-03     428.265E-03    -211.052E-03     592.544E-06     7.83566E+06     4.50266E+06    -1.26641E+06     2.04259E+06     2.59201E+06     6.43731E+06     3.27828E+06         54.8047
            1121     2.41907E-03     7.90972E-03     376.481E-03     345.274E-03        -1.40342     365.163E-03        -1.40160     354.777E-03     30.1728E-03     432.208E-03    -214.040E-03    -218.055E-03    -218.053E-03     432.205E-03    -214.040E-03    -178.510E-06     4.05724E+06     1.28601E+06    -3.31872E+06     138.689E+03    -138.252E+03     2.02408E+06     2.83897E+06         54.3138
            1122     1.61681E-03     7.90496E-03     370.932E-03     346.429E-03        -1.40631     358.977E-03        -1.39927     351.354E-03    -76.2277E-03     432.310E-03    -214.679E-03    -217.530E-03    -217.292E-03     432.300E-03    -214.907E-03     590.764E-06     2.15327E+06     200.809E+03    -4.44794E+06    -1.61845E+06    -1.02455E+06     549.148E+03     2.39125E+06         54.1339
            1123     810.865E-06     7.92781E-03     481.269E-03     251.420E-03        -1.42943     447.614E-03        -1.39578     251.420E-03     190.188E-03     429.058E-03    -213.754E-03    -215.341E-03    -215.079E-03     429.048E-03    -214.006E-03     1.23499E-03     1.21837E+06    -6.07232E+06    -15.5283E+06    -6.01242E+06    -8.35499E+06    -6.01479E+06     7.58761E+06         54.0357
            1124     13.3474E-03     7.08870E-03     446.755E-03     376.163E-03        -1.49499     446.633E-03        -1.49487     376.163E-03    -27.5944E-03     502.234E-03    -234.097E-03    -268.082E-03    -265.194E-03     499.346E-03    -234.097E-03     93.5492E-03     2.53239E+06    -4.51812E+06    -11.5226E+06     791.132E+03    -9.91567E+06    -4.38374E+06     2.22229E+06         96.2027
            1125     12.5850E-03     6.86989E-03     438.408E-03     370.045E-03        -1.48176     438.172E-03        -1.48152     370.045E-03    -36.4448E-03     499.146E-03    -232.067E-03    -267.210E-03    -264.855E-03     496.792E-03    -232.067E-03     82.3676E-03     3.72377E+06    -1.24295E+06    -9.04011E+06     2.03194E+06    -7.39669E+06    -1.19454E+06     1.15032E+06         92.6445
            1126     11.8240E-03     6.76470E-03     431.514E-03     364.149E-03        -1.46932     431.131E-03        -1.46894     364.149E-03    -50.4079E-03     492.727E-03    -229.734E-03    -262.433E-03    -261.431E-03     491.725E-03    -229.734E-03     54.5375E-03     4.67699E+06    -628.473E+03    -7.45913E+06     3.50829E+06    -6.33884E+06    -580.068E+03     1.31390E+06         87.5817
            1127     11.0560E-03     6.60215E-03     426.067E-03     358.050E-03        -1.45769     425.679E-03        -1.45730     358.050E-03    -41.6689E-03     485.922E-03    -227.253E-03    -257.801E-03    -257.224E-03     485.345E-03    -227.253E-03     40.8203E-03     4.62675E+06    -4.08340E+06    -9.27881E+06     3.60526E+06    -8.25732E+06    -4.08340E+06     1.76022E+06         81.7595
            1128     10.2872E-03     6.48801E-03     408.997E-03     352.081E-03        -1.44141     408.696E-03        -1.44111     352.081E-03    -33.1462E-03     478.777E-03    -224.862E-03    -253.323E-03    -253.004E-03     478.457E-03    -224.862E-03     29.9971E-03     5.32033E+06    -3.75275E+06    -6.87360E+06     5.00708E+06    -6.56035E+06    -3.75275E+06     1.09757E+06         76.2455
            1129     9.51780E-03     6.41819E-03     397.552E-03     346.801E-03        -1.42653     397.381E-03        -1.42636     346.801E-03    -32.4790E-03     470.871E-03    -222.799E-03    -247.720E-03    -247.552E-03     470.702E-03    -222.799E-03     21.4734E-03     1.97145E+06    -5.84093E+06    -9.88513E+06     762.443E+03    -8.67612E+06    -5.84093E+06     3.31983E+06         71.5111
            1130     8.74188E-03     6.36924E-03     387.536E-03     342.006E-03        -1.41363     387.304E-03        -1.41339     342.006E-03    -14.1091E-03     462.934E-03    -220.825E-03    -241.513E-03    -241.433E-03     462.855E-03    -220.825E-03     14.7407E-03     3.82479E+06    -3.04456E+06    -9.25572E+06     873.525E+03    -6.30445E+06    -3.04456E+06     5.36391E+06         67.5871
            1131     7.96277E-03     6.35148E-03     377.545E-03     337.490E-03        -1.40106     376.930E-03        -1.40045     337.490E-03    -18.3593E-03     454.938E-03    -218.658E-03    -235.811E-03    -235.770E-03     454.897E-03    -218.658E-03     10.4041E-03     4.37747E+06    -82.2782E+03    -5.61662E+06     2.13145E+06    -3.37059E+06    -82.2782E+03     3.61521E+06         64.5169
            1132     7.17793E-03     6.28590E-03     376.595E-03     332.723E-03        -1.38871     376.033E-03        -1.38815     332.723E-03    -18.5918E-03     447.031E-03    -216.917E-03    -229.966E-03    -229.936E-03     447.001E-03    -216.917E-03     8.68810E-03     3.29508E+06     336.993E+03    -4.08474E+06     1.32896E+06    -2.25203E+06     470.401E+03     2.40066E+06         62.1722
            1133     6.39008E-03     6.32820E-03     363.932E-03     328.009E-03        -1.37449     363.728E-03        -1.37429     328.009E-03    -16.3642E-03     440.962E-03    -215.623E-03    -225.357E-03    -225.321E-03     440.926E-03    -215.623E-03     9.18798E-03     6.73884E+06     2.92894E+06    -2.30154E+06     3.16811E+06     1.13578E+06     3.06235E+06     4.16722E+06         60.2226
            1134     5.59732E-03     6.29714E-03     347.412E-03     322.399E-03        -1.35692     345.013E-03        -1.35660     324.472E-03    -14.1433E-03     436.782E-03    -214.410E-03    -222.726E-03    -222.690E-03     436.746E-03    -214.410E-03     9.26635E-03     5.51146E+06     2.68298E+06    -2.12330E+06     2.50258E+06     885.572E+03     2.68298E+06     1.84376E+06         58.5026
            1135     4.80585E-03     6.31172E-03     332.148E-03     318.613E-03        -1.33714     327.677E-03        -1.33681     322.747E-03    -6.56170E-03     433.099E-03    -213.317E-03    -219.947E-03    -219.913E-03     433.065E-03    -213.317E-03     8.87186E-03     4.82832E+06     1.95750E+06    -1.74001E+06     1.45148E+06     717.783E+03     2.87654E+06     910.191E+03         57.0349
            1136     4.00937E-03     6.29912E-03     323.289E-03     314.973E-03        -1.32480     314.815E-03        -1.32464     323.289E-03     3.23429E-03     429.320E-03    -212.261E-03    -216.979E-03    -216.943E-03     429.284E-03    -212.261E-03     8.65520E-03     6.17375E+06     2.74273E+06    -968.321E+03     796.935E+03     1.97130E+06     5.17992E+06     2.11874E+06         55.8412
            1137     3.21216E-03     6.33749E-03     325.896E-03     313.824E-03        -1.32042     313.374E-03        -1.31997     325.896E-03    -13.0285E-03     430.197E-03    -213.561E-03    -216.755E-03    -216.717E-03     430.159E-03    -213.561E-03     8.12153E-03     6.96853E+06     4.41095E+06     358.515E+03     1.08870E+06     3.68077E+06     6.96853E+06     1.44871E+06         54.9536
            1138     2.41134E-03     6.33551E-03     330.191E-03     319.017E-03        -1.32531     317.843E-03        -1.32371     329.758E-03     35.4947E-03     436.828E-03    -217.546E-03    -219.345E-03    -219.315E-03     436.798E-03    -217.546E-03     7.01946E-03     5.33147E+06     1.94562E+06    -860.498E+03     1.16200E+06     2.26956E+06     2.98504E+06     2.02865E+06         54.4451
            1139     1.60651E-03     6.37414E-03     338.466E-03     325.502E-03        -1.34831     323.946E-03        -1.34321     334.925E-03    -52.7711E-03     439.666E-03    -219.350E-03    -220.239E-03    -219.995E-03     439.650E-03    -219.577E-03     5.14220E-03     2.80645E+06    -832.542E+03    -4.09706E+06    -645.911E+03    -699.306E+03    -777.933E+03     2.08218E+06         54.2735
            1140     799.668E-06     6.38372E-03     443.312E-03     255.993E-03        -1.39360     415.340E-03        -1.37013     260.492E-03     160.015E-03     439.424E-03    -219.018E-03    -220.567E-03    -219.092E-03     439.416E-03    -220.485E-03     2.84434E-03     12.9540E+06     3.74355E+06    -6.16272E+06     5.27432E+06     1.46231E+06     3.79816E+06     765.481E+03         54.2189
            1141     13.3444E-03     5.32839E-03     447.320E-03     357.266E-03        -1.47291     447.035E-03        -1.47262     357.266E-03    -42.5553E-03     518.804E-03    -233.923E-03    -285.506E-03    -282.011E-03     515.309E-03    -233.923E-03     105.617E-03     13.0747E+06     3.15359E+06    -8.30822E+06     4.99791E+06    -2.31094E+06     5.23314E+06    -2.71841E+06         96.6305
            1142     12.5972E-03     5.10124E-03     438.520E-03     350.550E-03        -1.45968     438.336E-03        -1.45949     350.550E-03    -33.0698E-03     512.203E-03    -230.877E-03    -282.104E-03    -279.705E-03     509.803E-03    -230.877E-03     84.2251E-03     4.24925E+06    -9.53544E+06    -21.3909E+06    -2.07493E+06    -15.1151E+06    -9.48703E+06    -1.24719E+06         93.1378
            1143     11.8408E-03     5.14504E-03     430.656E-03     343.888E-03        -1.44628     430.510E-03        -1.44613     343.888E-03    -33.0354E-03     497.596E-03    -227.754E-03    -269.541E-03    -268.637E-03     496.691E-03    -227.754E-03     51.8308E-03    -1.63155E+06    -13.1812E+06    -18.9365E+06    -2.17336E+06    -18.4431E+06    -13.1328E+06     847.911E+03         88.1401
            1144     11.0812E-03     4.95377E-03     420.678E-03     336.752E-03        -1.42817     420.571E-03        -1.42806     336.752E-03    -8.05345E-03     484.534E-03    -224.926E-03    -259.162E-03    -258.720E-03     484.092E-03    -224.926E-03     35.3896E-03     6.99055E+06    -4.93114E+06    -10.7294E+06     5.41724E+06    -9.15611E+06    -4.93114E+06     1.84574E+06         82.3696
            1145     10.3114E-03     4.88199E-03     398.088E-03     329.943E-03        -1.40391     398.049E-03        -1.40387     329.943E-03     2.73841E-03     471.793E-03    -222.470E-03    -249.445E-03    -249.267E-03     471.615E-03    -222.470E-03     21.2952E-03     3.96115E+06    -5.77592E+06    -11.9971E+06     1.85492E+06    -9.89093E+06    -5.77592E+06     4.23184E+06         76.8712
            1146     9.53245E-03     4.77437E-03     373.433E-03     324.564E-03        -1.37578     373.358E-03        -1.37571     324.564E-03    -6.78388E-03     461.039E-03    -220.649E-03    -240.683E-03    -240.608E-03     460.963E-03    -220.649E-03     13.4743E-03     2.79652E+06    -4.16119E+06    -11.8272E+06    -228.326E+03    -8.80239E+06    -4.16119E+06     5.31664E+06         72.1025
            1147     8.75396E-03     4.74957E-03     354.200E-03     320.634E-03        -1.35472     353.978E-03        -1.35450     320.634E-03     240.794E-06     453.121E-03    -218.995E-03    -233.676E-03    -233.625E-03     453.070E-03    -218.995E-03     11.5772E-03     5.69122E+06     430.960E+03    -7.37955E+06     2.30575E+06    -3.99408E+06     430.960E+03     5.59275E+06         68.1130
            1148     7.96811E-03     4.73895E-03     348.932E-03     317.459E-03        -1.34894     348.328E-03        -1.34834     317.459E-03    -20.5456E-03     445.190E-03    -217.532E-03    -227.116E-03    -227.071E-03     445.146E-03    -217.532E-03     10.9464E-03     5.75181E+06     3.31039E+06    -3.40922E+06     3.08404E+06    -741.450E+03     3.31039E+06     3.96641E+06         64.9840
            1149     7.17495E-03     4.71608E-03     354.878E-03     313.560E-03        -1.34737     354.315E-03        -1.34681     313.560E-03    -19.4701E-03     438.302E-03    -216.412E-03    -221.639E-03    -221.244E-03     438.253E-03    -216.759E-03     11.3401E-03     5.47184E+06     4.19033E+06    -2.82096E+06     1.77951E+06     306.801E+03     4.75489E+06     3.63161E+06         62.6019
            1150     6.38010E-03     4.69883E-03     353.778E-03     308.404E-03        -1.34180     353.492E-03        -1.34152     308.404E-03    -20.8462E-03     435.260E-03    -215.388E-03    -219.490E-03    -218.370E-03     435.196E-03    -216.444E-03     12.8937E-03     5.37473E+06     4.49661E+06    -1.98627E+06     1.75026E+06     1.01004E+06     5.12477E+06     3.25504E+06         60.6190
            1151     5.58665E-03     4.71619E-03     344.610E-03     302.748E-03        -1.33026     344.290E-03        -1.32994     302.748E-03    -10.0659E-03     433.219E-03    -214.569E-03    -218.746E-03    -216.982E-03     433.142E-03    -216.256E-03     13.9400E-03     6.80919E+06     6.03075E+06    -449.233E+03     3.06838E+06     2.97535E+06     6.34697E+06     3.34897E+06         58.8725
            1152     4.78787E-03     4.76794E-03     327.008E-03     296.846E-03        -1.30730     325.970E-03        -1.30703     297.623E-03     2.33828E-03     431.855E-03    -214.212E-03    -218.008E-03    -215.976E-03     431.771E-03    -216.161E-03     14.4405E-03     6.67123E+06     4.46453E+06    -1.22143E+06     940.473E+03     2.51488E+06     6.45897E+06     2.74975E+06         57.3915
            1153     3.99120E-03     4.76875E-03     312.156E-03     287.997E-03        -1.28309     305.558E-03        -1.28284     294.338E-03     10.1575E-03     436.672E-03    -216.895E-03    -219.943E-03    -218.009E-03     436.586E-03    -218.744E-03     14.8807E-03     5.43206E+06     2.63081E+06    -240.741E+03     1.31574E+06     2.35686E+06     4.14952E+06     1.50603E+06         56.1965
            1154     3.19106E-03     4.75522E-03     307.037E-03     285.932E-03        -1.27262     299.688E-03        -1.27207     292.733E-03    -2.63588E-03     441.689E-03    -220.027E-03    -221.847E-03    -220.521E-03     441.616E-03    -221.280E-03     13.6885E-03     4.98788E+06     971.917E+03    -907.485E+03     1.83247E+06     2.03542E+06     1.18442E+06     2.01544E+06         55.3273
            1155     2.39102E-03     4.76131E-03     313.458E-03     287.611E-03        -1.27776     310.596E-03        -1.27614     288.849E-03     38.2172E-03     447.314E-03    -223.278E-03    -223.971E-03    -223.393E-03     447.268E-03    -223.810E-03     10.7267E-03     6.27994E+06     1.74455E+06    -1.69390E+06     1.37276E+06     2.77767E+06     2.18016E+06     1.44310E+06         54.8579
            1156     1.59530E-03     4.81158E-03     306.552E-03     277.314E-03        -1.26600     298.742E-03        -1.26268     281.812E-03    -9.12023E-03     453.093E-03    -226.182E-03    -226.676E-03    -226.499E-03     453.071E-03    -226.338E-03     6.67209E-03     7.72314E+06     4.70486E+06     701.126E+03     3.39679E+06     5.03040E+06     4.70194E+06     281.978E+03         54.7394
            1157     801.478E-06     4.82832E-03     325.771E-03     250.235E-03        -1.25728     301.854E-03        -1.23787     254.734E-03     164.462E-03     453.424E-03    -225.519E-03    -227.778E-03    -226.552E-03     453.413E-03    -226.735E-03     3.57792E-03     13.5153E+06     7.71094E+06     453.027E+03     8.18856E+06     5.78271E+06     7.70801E+06    -4.02523E+06         54.7433
            1158     13.3311E-03     3.63228E-03     457.041E-03     342.587E-03        -1.46373     456.380E-03        -1.46307     342.587E-03    -67.2185E-03     539.521E-03    -234.016E-03    -306.657E-03    -303.289E-03     536.153E-03    -234.016E-03     102.727E-03     9.36166E+06    -3.98243E+06    -17.6498E+06     748.838E+03    -10.9821E+06    -2.03725E+06    -9.34286E+06         97.2314
            1159     12.5986E-03     3.50360E-03     453.174E-03     334.874E-03        -1.45955     452.940E-03        -1.45932     334.874E-03    -39.1085E-03     524.064E-03    -229.818E-03    -295.360E-03    -293.933E-03     522.637E-03    -229.818E-03     61.7209E-03     11.5663E+06    -2.25248E+06    -18.9251E+06     5.35442E+06    -12.7132E+06    -2.25248E+06    -4.19878E+06         93.8053
            1160     11.8554E-03     3.31318E-03     434.848E-03     327.091E-03        -1.43651     434.727E-03        -1.43638     327.091E-03    -28.8559E-03     502.911E-03    -225.956E-03    -277.058E-03    -276.625E-03     502.478E-03    -225.956E-03     31.9046E-03     5.60669E+06    -6.53072E+06    -14.7592E+06     4.26036E+06    -13.4129E+06    -6.53072E+06     2.78179E+06         88.8826
            1161     11.0969E-03     3.23572E-03     409.484E-03     319.774E-03        -1.40534     409.350E-03        -1.40520     319.774E-03    -17.9809E-03     483.895E-03    -222.792E-03    -260.536E-03    -260.345E-03     483.704E-03    -222.792E-03     19.4512E-03    -359.857E+03    -11.6450E+06    -19.3555E+06    -2.69753E+06    -17.0178E+06    -11.6450E+06     3.94154E+06         83.2172
            1162     10.3308E-03     3.06702E-03     391.170E-03     313.192E-03        -1.38140     391.082E-03        -1.38131     313.192E-03    -10.9807E-03     465.968E-03    -220.299E-03    -245.593E-03    -245.525E-03     465.900E-03    -220.299E-03     10.5974E-03     3.16906E+06    -5.58135E+06    -16.0245E+06    -1.49237E+06    -11.3630E+06    -5.58135E+06     8.07635E+06         77.7903
            1163     9.55432E-03     3.17807E-03     379.353E-03     307.028E-03        -1.36233     379.288E-03        -1.36226     307.028E-03     1.08706E-03     450.725E-03    -218.810E-03    -232.458E-03    -232.442E-03     450.709E-03    -218.810E-03     6.12527E-03     7.33768E+06     1.39046E+06    -8.22876E+06     1.82816E+06    -3.81917E+06     2.49039E+06     6.46409E+06         73.0103
            1164     8.76098E-03     3.09386E-03     362.979E-03     301.087E-03        -1.34018     362.819E-03        -1.34002     301.087E-03     30.3161E-03     440.602E-03    -217.165E-03    -223.719E-03    -222.930E-03     440.576E-03    -217.928E-03     8.19241E-03     6.84112E+06     2.96444E+06    -3.14056E+06     2.64248E+06    -812.554E+03     4.83507E+06     3.47848E+06         68.9510
            1165     7.96615E-03     3.13911E-03     336.688E-03     296.168E-03        -1.31092     336.482E-03        -1.31072     296.168E-03     35.6974E-03     435.429E-03    -215.727E-03    -219.974E-03    -218.356E-03     435.400E-03    -217.315E-03     8.40193E-03     6.59692E+06     4.52168E+06    -1.11549E+06     3.68074E+06     1.02998E+06     5.29238E+06     3.00922E+06         65.7373
            1166     7.16858E-03     3.12523E-03     316.842E-03     288.396E-03        -1.28397     312.122E-03        -1.28378     292.931E-03     33.6242E-03     431.378E-03    -213.795E-03    -217.931E-03    -214.338E-03     431.334E-03    -217.343E-03     10.2157E-03     6.59391E+06     4.95550E+06    -1.18855E+06     3.43565E+06     1.53856E+06     5.38666E+06     3.41810E+06         63.2981
            1167     6.36930E-03     3.10273E-03     313.595E-03     278.071E-03        -1.27185     300.240E-03        -1.27162     291.188E-03     723.380E-06     429.994E-03    -211.864E-03    -217.892E-03    -211.799E-03     429.929E-03    -217.892E-03     12.8857E-03     6.99745E+06     4.62983E+06    -763.776E+03     2.00611E+06     2.20102E+06     6.65638E+06     2.56041E+06         61.3046
            1168     5.56640E-03     3.18446E-03     311.379E-03     281.177E-03        -1.27416     302.578E-03        -1.27400     289.820E-03    -25.3629E-03     430.672E-03    -211.732E-03    -218.731E-03    -211.655E-03     430.594E-03    -218.731E-03     13.9416E-03     9.81302E+06     7.13786E+06     403.622E+03     2.78541E+06     4.75608E+06     9.81302E+06     2.99120E+06         59.5668
            1169     4.76671E-03     3.16147E-03     321.902E-03     285.939E-03        -1.28666     321.671E-03        -1.28649     285.998E-03    -29.8846E-03     437.845E-03    -215.608E-03    -222.430E-03    -215.521E-03     437.758E-03    -222.430E-03     14.8972E-03     10.8601E+06     8.17150E+06     1.84082E+06     5.13401E+06     6.48310E+06     9.25528E+06     2.63316E+06         58.0874
            1170     3.96570E-03     3.07000E-03     332.697E-03     277.557E-03        -1.28784     332.407E-03        -1.28755     277.557E-03    -2.34902E-03     451.827E-03    -223.326E-03    -228.739E-03    -223.249E-03     451.750E-03    -228.739E-03     13.9300E-03     8.61079E+06     5.77926E+06     2.28001E+06     5.42373E+06     5.52287E+06     5.72346E+06     1.62141E+06         56.8962
            1171     3.16978E-03     3.19378E-03     313.392E-03     266.387E-03        -1.25873     313.088E-03        -1.25843     266.387E-03     5.96286E-03     460.827E-03    -228.537E-03    -232.225E-03    -228.482E-03     460.772E-03    -232.225E-03     11.9773E-03     6.02257E+06     1.71225E+06     318.215E+03     3.30233E+06     2.53160E+06     2.21911E+06     2.04430E+06         56.0502
            1172     2.37748E-03     3.21893E-03     291.922E-03     248.081E-03        -1.21768     282.499E-03        -1.21662     256.447E-03     28.7399E-03     464.239E-03    -230.977E-03    -232.998E-03    -230.941E-03     464.202E-03    -232.998E-03     10.0028E-03     8.95795E+06     3.96860E+06     655.012E+03     5.73702E+06     4.81841E+06     3.02614E+06     923.732E+03         55.6120
            1173     1.58296E-03     3.22098E-03     275.521E-03     233.330E-03        -1.18539     255.593E-03        -1.18335     251.214E-03    -9.62826E-03     466.683E-03    -232.524E-03    -233.801E-03    -232.736E-03     466.661E-03    -233.567E-03     7.23182E-03     11.3598E+06     8.00347E+06     2.06351E+06     7.93126E+06     8.07913E+06     5.41634E+06     409.480E+03         55.5187
            1174     788.761E-06     3.22867E-03     294.521E-03     215.175E-03        -1.18273     212.772E-03        -1.17340     287.590E-03     63.9681E-03     468.392E-03    -232.946E-03    -234.964E-03    -233.896E-03     468.380E-03    -234.003E-03     5.15610E-03     4.24095E+06    -1.47403E+06    -6.11647E+06     1.21515E+06    -2.01269E+06    -2.55202E+06     1.52557E+06         55.5531
            1175     13.3354E-03     1.84987E-03     457.516E-03     330.758E-03        -1.47240     456.887E-03        -1.47177     330.758E-03    -61.1911E-03     582.126E-03    -234.404E-03    -348.513E-03    -346.035E-03     579.649E-03    -234.404E-03     85.4297E-03     2.76627E+06    -12.0021E+06    -25.1643E+06    -1.59208E+06    -20.8059E+06    -12.0021E+06    -5.26929E+06         98.3685
            1176     12.6171E-03     1.78067E-03     437.478E-03     323.551E-03        -1.44370     437.386E-03        -1.44361     323.551E-03    -17.1922E-03     537.659E-03    -228.545E-03    -309.288E-03    -308.962E-03     537.333E-03    -228.545E-03     26.9357E-03     3.28194E+06    -2.70267E+06    -16.1106E+06     406.986E+03    -13.2356E+06    -2.70267E+06     640.090E+03         95.0179
            1177     11.8780E-03     1.64417E-03     413.880E-03     316.767E-03        -1.41265     413.816E-03        -1.41259     316.767E-03    -1.98026E-03     504.454E-03    -224.025E-03    -280.016E-03    -279.957E-03     504.395E-03    -224.025E-03     6.55457E-03     2.46097E+06    -3.15710E+06    -12.6990E+06    -1.88969E+06    -10.3439E+06    -1.16151E+06     2.36874E+06         90.1458
            1178     11.1246E-03     1.67143E-03     393.867E-03     310.633E-03        -1.38721     393.759E-03        -1.38710     310.633E-03    -2.95114E-03     478.241E-03    -220.844E-03    -257.019E-03    -257.009E-03     478.230E-03    -220.844E-03     2.11647E-03     4.87814E+06    -3.42849E+06    -12.2184E+06    -1.85885E+06    -8.95014E+06     40.2687E+03     4.79150E+06         84.5708
            1179     10.3491E-03     1.63871E-03     380.877E-03     304.846E-03        -1.36688     380.783E-03        -1.36679     304.846E-03    -13.9232E-03     457.792E-03    -218.649E-03    -238.992E-03    -238.988E-03     457.787E-03    -218.649E-03     2.37040E-03     6.95358E+06     840.874E+03    -8.87034E+06     17.6279E+03    -4.60902E+06     3.51551E+06     5.09952E+06         79.2064
            1180     9.56155E-03     1.62212E-03     373.949E-03     298.865E-03        -1.35016     373.689E-03        -1.34990     298.865E-03    -27.2043E-03     443.342E-03    -217.504E-03    -225.965E-03    -225.961E-03     443.338E-03    -217.504E-03     1.65758E-03     6.76876E+06     2.65030E+06    -3.91124E+06     1.95285E+06    -1.39673E+06     4.95170E+06     2.88438E+06         74.4205
            1181     8.76773E-03     1.61912E-03     365.785E-03     292.452E-03        -1.33199     365.142E-03        -1.33134     292.452E-03    -32.8534E-03     433.570E-03    -215.044E-03    -218.925E-03    -216.722E-03     433.559E-03    -217.235E-03     4.42391E-03     6.39734E+06     4.33380E+06     589.796E+03     3.49893E+06     1.57806E+06     6.24394E+06     632.577E+03         70.3097
            1182     7.96414E-03     1.59632E-03     345.481E-03     286.245E-03        -1.30673     344.395E-03        -1.30565     286.245E-03    -39.1830E-03     428.108E-03    -211.335E-03    -217.481E-03    -211.325E-03     428.098E-03    -217.481E-03     3.86513E-03     6.25940E+06     4.32045E+06     905.928E+03     3.44617E+06     2.05399E+06     5.98562E+06     359.310E+03         66.9813
            1183     7.16306E-03     1.56602E-03     322.919E-03     276.768E-03        -1.27844     317.434E-03        -1.27749     281.303E-03    -35.4995E-03     426.038E-03    -208.508E-03    -218.103E-03    -208.487E-03     426.017E-03    -218.103E-03     5.56377E-03     6.37190E+06     4.51956E+06     707.238E+03     3.45814E+06     2.38352E+06     5.75705E+06     1.70418E+06         64.4369
            1184     6.35624E-03     1.57366E-03     310.065E-03     264.950E-03        -1.25479     296.658E-03        -1.25450     278.068E-03    -16.3266E-03     426.470E-03    -207.272E-03    -219.207E-03    -207.237E-03     426.435E-03    -219.207E-03     8.75056E-03     9.50743E+06     6.75171E+06     2.76065E+06     5.13695E+06     5.21681E+06     8.66604E+06     2.11778E+06         62.4715
            1185     5.55313E-03     1.53786E-03     292.998E-03     267.742E-03        -1.24114     284.275E-03        -1.24106     276.384E-03     1.79717E-03     429.421E-03    -208.478E-03    -220.818E-03    -208.446E-03     429.389E-03    -220.818E-03     7.95255E-03     10.5109E+06     7.48565E+06     2.84886E+06     4.86478E+06     5.97005E+06     10.0106E+06     816.543E+03         60.8278
            1186     4.74834E-03     1.58393E-03     293.734E-03     265.344E-03        -1.23596     283.693E-03        -1.23582     275.248E-03     225.255E-06     445.194E-03    -217.110E-03    -228.057E-03    -217.077E-03     445.161E-03    -228.057E-03     7.99820E-03     8.39491E+06     6.27032E+06     2.13074E+06     4.96072E+06     5.04513E+06     6.79012E+06    -39.8419E+03         59.4062
            1187     3.95096E-03     1.60226E-03     310.761E-03     247.784E-03        -1.23326     285.029E-03        -1.23319     273.440E-03     2.22630E-03     462.034E-03    -226.786E-03    -235.289E-03    -226.760E-03     462.009E-03    -235.289E-03     7.45399E-03     7.61860E+06     4.73675E+06     1.79142E+06     5.00434E+06     4.68500E+06     4.45744E+06     1.56450E+06         58.2480
            1188     3.15559E-03     1.55676E-03     304.159E-03     244.427E-03        -1.22586     276.867E-03        -1.22560     271.458E-03    -20.1350E-03     467.862E-03    -230.906E-03    -236.873E-03    -230.884E-03     467.840E-03    -236.873E-03     7.08003E-03     8.39993E+06     4.84902E+06     2.71443E+06     4.87229E+06     5.32480E+06     5.76629E+06     1.06348E+06         57.4072
            1189     2.36096E-03     1.59326E-03     284.200E-03     252.056E-03        -1.21309     264.321E-03        -1.21279     271.641E-03    -14.7062E-03     472.989E-03    -234.637E-03    -238.211E-03    -234.616E-03     472.967E-03    -238.211E-03     6.56726E-03     9.37555E+06     5.72823E+06     2.36862E+06     5.91840E+06     6.22887E+06     5.32514E+06     629.827E+03         56.9119
            1190     1.57344E-03     1.60738E-03     281.189E-03     258.037E-03        -1.21350     262.122E-03        -1.21232     275.922E-03    -39.4845E-03     477.116E-03    -237.618E-03    -239.265E-03    -237.622E-03     477.106E-03    -239.250E-03     4.27804E-03     9.60321E+06     5.67745E+06     46.6322E+03     5.34957E+06     5.67578E+06     4.30193E+06     1.59044E+06         56.7315
            1191     787.946E-06     1.63705E-03     364.934E-03     196.451E-03        -1.23743     196.918E-03        -1.23389     360.926E-03     15.8785E-03     480.035E-03    -238.575E-03    -241.254E-03    -240.194E-03     480.032E-03    -239.632E-03     1.64912E-03     11.2186E+06     4.18348E+06    -117.421E+03     5.19393E+06     4.12221E+06     5.96851E+06     2.41605E+06         56.7241
            1192     783.027E-06     90.0191E-03     597.855E-03     561.010E-03        -1.55552     581.423E-03        -1.54691     568.830E-03    -107.191E-03     482.432E-03    -238.563E-03    -243.681E-03    -238.538E-03     482.367E-03    -243.640E-03     11.4144E-03    -35.2517E+06    -42.1021E+06    -48.2726E+06    -45.1996E+06    -38.2150E+06    -42.2118E+06     3.18900E+06         56.2506
            1193     1.57318E-03     90.0395E-03     569.417E-03     550.575E-03        -1.51316     549.175E-03        -1.51176     569.417E-03     43.4535E-03     475.948E-03    -236.065E-03    -240.031E-03    -236.049E-03     475.932E-03    -240.031E-03     5.41858E-03    -32.7900E+06    -38.4182E+06    -46.6345E+06    -44.1702E+06    -35.1447E+06    -38.5279E+06     3.09636E+06         56.3036
            1194     2.36187E-03     90.0497E-03     560.564E-03     540.425E-03        -1.49217     540.040E-03        -1.49179     560.564E-03    -17.4436E-03     474.240E-03    -235.882E-03    -238.576E-03    -235.876E-03     474.234E-03    -238.576E-03     3.11804E-03    -32.7398E+06    -36.7174E+06    -45.5535E+06    -44.1945E+06    -34.5039E+06    -36.3123E+06     3.55462E+06         56.3494
            1195     3.15372E-03     90.0561E-03     553.914E-03     531.673E-03        -1.47564     531.455E-03        -1.47542     553.914E-03     7.96450E-03     472.280E-03    -234.822E-03    -237.482E-03    -234.799E-03     472.257E-03    -237.482E-03     7.33461E-03    -26.3843E+06    -29.8948E+06    -40.0567E+06    -38.9706E+06    -28.8402E+06    -28.5251E+06     3.28258E+06         56.3712
            1196     3.94586E-03     90.0749E-03     547.140E-03     514.212E-03        -1.45187     514.125E-03        -1.45178     547.140E-03    -17.2902E-03     471.029E-03    -234.201E-03    -236.639E-03    -234.154E-03     470.982E-03    -236.639E-03     11.4403E-03    -20.8207E+06    -24.6504E+06    -37.9648E+06    -35.5561E+06    -24.9562E+06    -22.9236E+06     4.74137E+06         56.3938
            1197     4.73458E-03     90.0967E-03     539.734E-03     500.863E-03        -1.43286     500.776E-03        -1.43278     539.734E-03    -12.3624E-03     470.880E-03    -234.598E-03    -236.261E-03    -234.518E-03     470.801E-03    -236.261E-03     14.5627E-03    -17.5019E+06    -23.0357E+06    -39.3676E+06    -37.2818E+06    -23.9599E+06    -18.6636E+06     4.49022E+06         56.4548
            1198     5.52284E-03     90.1239E-03     532.785E-03     495.813E-03        -1.42192     495.796E-03        -1.42191     532.785E-03     3.83953E-03     469.939E-03    -234.234E-03    -235.945E-03    -234.100E-03     469.805E-03    -235.945E-03     19.0737E-03    -6.19408E+06    -15.1153E+06    -32.9524E+06    -32.2085E+06    -15.8592E+06    -6.19408E+06     3.16971E+06         56.7375
            1199     6.31742E-03     90.1674E-03     526.429E-03     488.121E-03        -1.40655     488.109E-03        -1.40654     526.429E-03    -5.75106E-03     468.826E-03    -233.639E-03    -235.586E-03    -233.423E-03     468.610E-03    -235.586E-03     24.4116E-03    -1.65098E+06    -12.4766E+06    -31.4007E+06    -30.0550E+06    -13.8223E+06    -1.65098E+06     4.43665E+06         57.5500
            1200     7.10588E-03     90.2216E-03     519.884E-03     471.810E-03        -1.38407     471.751E-03        -1.38401     519.884E-03     6.33872E-03     467.765E-03    -233.102E-03    -235.260E-03    -232.838E-03     467.501E-03    -235.260E-03     27.1565E-03    -2.57357E+06    -14.1484E+06    -30.8337E+06    -29.4553E+06    -15.5269E+06    -2.57357E+06     4.38276E+06         59.0013
            1201     7.90090E-03     90.2648E-03     512.454E-03     449.329E-03        -1.35499     449.198E-03        -1.35486     512.454E-03    -4.92194E-03     468.663E-03    -233.577E-03    -235.383E-03    -233.336E-03     468.286E-03    -235.247E-03     32.1519E-03     461.714E+03    -10.6159E+06    -28.5105E+06    -24.7731E+06    -14.3533E+06     461.714E+03     6.53113E+06         61.0398
            1202     8.69288E-03     90.3329E-03     503.699E-03     422.723E-03        -1.32007     422.483E-03        -1.31983     503.699E-03     4.71259E-03     471.180E-03    -235.033E-03    -236.268E-03    -235.083E-03     470.495E-03    -235.533E-03     43.5723E-03     6.54848E+06    -6.78581E+06    -26.6607E+06    -21.1325E+06    -12.3140E+06     6.54848E+06     8.86602E+06         63.6264
            1203     9.47881E-03     90.4063E-03     493.601E-03     395.065E-03        -1.28264     394.848E-03        -1.28242     493.601E-03     20.0565E-03     471.851E-03    -235.308E-03    -236.379E-03    -235.134E-03     470.811E-03    -235.513E-03     54.0417E-03     11.6434E+06    -7.26899E+06    -21.0230E+06    -18.6220E+06    -9.67003E+06     11.6434E+06     3.83021E+06         66.9223
            1204     10.2760E-03     90.4987E-03     482.550E-03     369.860E-03        -1.24565     369.462E-03        -1.24525     482.550E-03     25.9863E-03     471.471E-03    -234.969E-03    -236.289E-03    -234.667E-03     470.183E-03    -235.303E-03     60.2104E-03     13.9839E+06    -7.11748E+06    -18.7860E+06    -17.1837E+06    -8.71983E+06     13.9839E+06    -1.25384E+06         71.2690
            1205     11.0665E-03     90.5965E-03     471.256E-03     354.703E-03        -1.21817     354.306E-03        -1.21777     471.256E-03     14.5962E-03     471.287E-03    -235.112E-03    -236.555E-03    -234.853E-03     469.808E-03    -235.335E-03     64.3627E-03     19.9261E+06    -5.10599E+06    -18.2992E+06    -16.6574E+06    -6.74784E+06     19.9261E+06    -159.611E+03         76.8009
            1206     11.8610E-03     90.6923E-03     460.221E-03     346.160E-03        -1.19646     345.985E-03        -1.19628     460.221E-03     2.99731E-03     472.932E-03    -235.391E-03    -237.807E-03    -235.676E-03     470.801E-03    -235.391E-03     76.6479E-03     35.1976E+06     2.49255E+06    -16.2532E+06    -15.2036E+06     1.44294E+06     35.1976E+06     823.222E+03         82.9474
            1207     12.6526E-03     90.8322E-03     448.917E-03     324.394E-03        -1.16177     324.146E-03        -1.16153     448.917E-03    -2.79009E-03     475.386E-03    -235.577E-03    -240.034E-03    -236.912E-03     472.264E-03    -235.577E-03     93.7830E-03     58.6646E+06     18.9690E+06    -10.7272E+06    -9.59299E+06     17.8347E+06     58.6646E+06     492.086E+03         88.4279
            1208     13.4339E-03     90.9864E-03     436.831E-03     295.929E-03        -1.12060     295.696E-03        -1.12037     436.831E-03    -1.88065E-03     473.721E-03    -235.443E-03    -238.710E-03    -235.069E-03     470.186E-03    -235.548E-03     100.105E-03     76.5417E+06     30.6935E+06    -6.32766E+06    -5.70663E+06     30.0724E+06     76.5417E+06     2.14774E+06         92.3192
            1209     786.135E-06     91.6425E-03     518.210E-03     487.270E-03        -1.37828     497.533E-03        -1.37508     504.753E-03    -10.3636E-03     481.488E-03    -240.128E-03    -241.488E-03    -240.267E-03     481.478E-03    -241.340E-03     2.63867E-03    -43.3889E+06    -50.8068E+06    -57.8065E+06    -53.4055E+06    -46.5949E+06    -52.0018E+06     2.14107E+06         56.2554
            1210     1.57203E-03     91.6498E-03     500.123E-03     488.704E-03        -1.35884     489.145E-03        -1.35771     498.551E-03     49.2335E-03     476.215E-03    -236.432E-03    -239.838E-03    -236.419E-03     476.202E-03    -239.838E-03     5.17705E-03    -38.4279E+06    -44.5468E+06    -52.1890E+06    -49.5864E+06    -39.8294E+06    -45.7479E+06     3.71553E+06         56.3005
            1211     2.36472E-03     91.6553E-03     494.829E-03     476.269E-03        -1.34266     477.588E-03        -1.34240     493.256E-03    -7.42328E-03     473.591E-03    -235.355E-03    -238.452E-03    -235.344E-03     473.579E-03    -238.452E-03     5.68259E-03    -35.6333E+06    -41.7416E+06    -49.0087E+06    -47.3963E+06    -37.2397E+06    -41.7476E+06     4.16809E+06         56.3391
            1212     3.15447E-03     91.6621E-03     487.850E-03     469.405E-03        -1.32884     469.088E-03        -1.32853     487.850E-03     14.8476E-03     472.433E-03    -235.485E-03    -237.452E-03    -235.468E-03     472.416E-03    -237.452E-03     6.82979E-03    -29.8919E+06    -34.4577E+06    -46.8069E+06    -45.2065E+06    -32.4569E+06    -33.4931E+06     4.60968E+06         56.3586
            1213     3.94343E-03     91.6790E-03     483.278E-03     467.997E-03        -1.32403     467.709E-03        -1.32375     483.278E-03     172.299E-06     470.752E-03    -234.149E-03    -236.739E-03    -234.105E-03     470.708E-03    -236.739E-03     10.7329E-03    -23.6610E+06    -28.6091E+06    -46.9550E+06    -44.6850E+06    -28.9961E+06    -25.5440E+06     5.13620E+06         56.3806
            1214     4.73644E-03     91.7016E-03     479.467E-03     463.799E-03        -1.31916     463.729E-03        -1.31909     479.467E-03    -15.4873E-03     470.729E-03    -234.344E-03    -236.298E-03    -234.237E-03     470.623E-03    -236.298E-03     16.9899E-03    -16.9399E+06    -22.3500E+06    -43.7374E+06    -40.8589E+06    -24.0668E+06    -18.1016E+06     6.36333E+06         56.4399
            1215     5.52662E-03     91.7337E-03     475.665E-03     457.903E-03        -1.31016     457.844E-03        -1.31010     475.665E-03    -8.74340E-03     471.298E-03    -235.362E-03    -236.072E-03    -235.267E-03     471.118E-03    -235.987E-03     22.3833E-03    -10.1239E+06    -16.3550E+06    -39.9047E+06    -36.8886E+06    -19.3711E+06    -10.1239E+06     7.55952E+06         56.7232
            1216     6.31175E-03     91.7697E-03     471.443E-03     448.236E-03        -1.29503     448.152E-03        -1.29494     471.443E-03    -17.3088E-03     469.538E-03    -233.943E-03    -235.830E-03    -233.756E-03     469.266E-03    -235.745E-03     27.3971E-03    -636.160E+03    -10.9943E+06    -33.2123E+06    -30.7077E+06    -13.4990E+06    -636.160E+03     6.66269E+06         57.5383
            1217     7.10803E-03     91.8203E-03     466.443E-03     433.175E-03        -1.27412     433.057E-03        -1.27401     466.443E-03     5.50464E-03     467.458E-03    -232.386E-03    -235.415E-03    -232.069E-03     467.142E-03    -235.415E-03     29.6321E-03     809.630E+03    -13.2781E+06    -31.9185E+06    -30.3753E+06    -14.8213E+06     809.630E+03     4.90030E+06         58.9928
            1218     7.89771E-03     91.8650E-03     460.325E-03     412.499E-03        -1.24726     412.348E-03        -1.24711     460.325E-03     12.5352E-03     468.650E-03    -233.367E-03    -235.304E-03    -232.932E-03     468.215E-03    -235.304E-03     34.3697E-03     1.32128E+06    -15.5464E+06    -34.2701E+06    -31.7843E+06    -18.0321E+06     1.32128E+06     4.15608E+06         61.0350
            1219     8.69068E-03     91.9316E-03     452.718E-03     387.578E-03        -1.21487     387.172E-03        -1.21446     452.718E-03     30.5589E-03     470.214E-03    -234.604E-03    -235.539E-03    -233.917E-03     469.526E-03    -235.539E-03     43.7600E-03     10.7460E+06    -7.74850E+06    -24.9924E+06    -21.9414E+06    -10.7995E+06     10.7460E+06     3.70218E+06         63.6271
            1220     9.48830E-03     92.0105E-03     443.499E-03     358.000E-03        -1.17635     357.584E-03        -1.17593     443.499E-03     46.7495E-03     470.782E-03    -235.058E-03    -235.948E-03    -234.578E-03     469.831E-03    -235.477E-03     51.5298E-03     16.6360E+06    -4.33939E+06    -19.6455E+06    -16.9716E+06    -7.01321E+06     16.6360E+06     3.57202E+06         66.9300
            1221     10.2732E-03     92.1005E-03     433.266E-03     336.941E-03        -1.14373     336.550E-03        -1.14334     433.266E-03     37.3643E-03     470.728E-03    -235.045E-03    -235.923E-03    -234.573E-03     469.601E-03    -235.268E-03     56.3037E-03     21.8621E+06    -4.09330E+06    -20.0949E+06    -17.9152E+06    -6.27303E+06     21.8621E+06     4.01330E+06         71.2840
            1222     11.0683E-03     92.1933E-03     423.049E-03     327.536E-03        -1.12283     327.117E-03        -1.12241     423.049E-03     7.94198E-03     470.470E-03    -235.039E-03    -235.942E-03    -234.460E-03     469.212E-03    -235.262E-03     59.5166E-03     25.3313E+06    -6.35493E+06    -22.3210E+06    -21.2716E+06    -7.40434E+06     25.3313E+06     3.32344E+06         76.8247
            1223     11.8566E-03     92.2995E-03     412.932E-03     315.995E-03        -1.09950     315.786E-03        -1.09930     412.932E-03    -2.32351E-03     472.626E-03    -235.226E-03    -237.592E-03    -235.668E-03     470.702E-03    -235.226E-03     72.8600E-03     35.7915E+06     265.112E+03    -18.7278E+06    -18.2134E+06    -249.208E+03     35.7915E+06     1.65718E+06         82.9764
            1224     12.6452E-03     92.4323E-03     402.302E-03     299.146E-03        -1.07066     298.934E-03        -1.07045     402.302E-03    -3.01010E-03     473.371E-03    -235.286E-03    -238.259E-03    -235.375E-03     470.486E-03    -235.286E-03     90.0483E-03     58.7412E+06     16.7238E+06    -11.7192E+06    -11.2069E+06     16.2115E+06     58.7412E+06     561.220E+03         88.4568
            1225     13.4473E-03     92.5918E-03     391.045E-03     276.898E-03        -1.03540     276.727E-03        -1.03523     391.045E-03    -3.50506E-03     472.633E-03    -235.291E-03    -237.971E-03    -234.597E-03     469.260E-03    -235.291E-03     97.6624E-03     83.8916E+06     31.8171E+06    -7.42341E+06    -7.29566E+06     31.6894E+06     83.8916E+06     157.988E+03         92.3455
            1226     785.433E-06     93.2688E-03     435.976E-03     403.550E-03        -1.19155     411.220E-03        -1.19115     427.910E-03     32.3632E-03     477.341E-03    -238.085E-03    -239.509E-03    -238.309E-03     477.339E-03    -239.282E-03     843.581E-06    -46.0427E+06    -54.8347E+06    -57.7697E+06    -54.8936E+06    -47.3829E+06    -56.3707E+06    -2.50509E+06         56.2343
            1227     1.57597E-03     93.2561E-03     441.276E-03     420.691E-03        -1.21355     438.048E-03        -1.21294     423.310E-03     46.8490E-03     475.384E-03    -236.783E-03    -238.532E-03    -236.985E-03     475.381E-03    -238.327E-03     2.31795E-03    -44.6744E+06    -54.6610E+06    -56.0126E+06    -53.9031E+06    -45.5250E+06    -55.9200E+06    -67.2227E+03         56.2738
            1228     2.36590E-03     93.2612E-03     438.601E-03     424.665E-03        -1.21648     434.466E-03        -1.21562     427.942E-03     66.5696E-03     473.800E-03    -236.014E-03    -237.817E-03    -236.086E-03     473.785E-03    -237.731E-03     5.71329E-03    -40.5642E+06    -49.7124E+06    -54.0933E+06    -52.7245E+06    -41.9269E+06    -49.7185E+06     2.06598E+06         56.3099
            1229     3.15416E-03     93.2739E-03     427.767E-03     413.506E-03        -1.19737     413.187E-03        -1.19629     427.009E-03     77.8197E-03     472.417E-03    -235.677E-03    -237.129E-03    -235.656E-03     472.397E-03    -237.129E-03     7.50132E-03    -35.4410E+06    -40.8274E+06    -53.9609E+06    -52.0703E+06    -37.3316E+06    -40.8274E+06     4.61357E+06         56.3328
            1230     3.94532E-03     93.2805E-03     422.855E-03     403.889E-03        -1.18380     403.163E-03        -1.18307     422.855E-03     33.9546E-03     470.778E-03    -234.505E-03    -236.608E-03    -234.458E-03     470.731E-03    -236.608E-03     10.8960E-03    -27.5311E+06    -32.1641E+06    -51.2777E+06    -49.5911E+06    -31.3182E+06    -30.0636E+06     5.20165E+06         56.3551
            1231     4.73614E-03     93.3035E-03     418.413E-03     399.003E-03        -1.17569     398.807E-03        -1.17549     418.413E-03     3.90960E-03     469.967E-03    -233.889E-03    -236.188E-03    -233.768E-03     469.847E-03    -236.188E-03     18.0691E-03    -21.9544E+06    -27.1979E+06    -49.0120E+06    -47.4881E+06    -27.8303E+06    -22.8460E+06     4.71483E+06         56.4122
            1232     5.52675E-03     93.3405E-03     414.048E-03     393.289E-03        -1.16703     393.081E-03        -1.16683     414.048E-03     4.86912E-03     469.661E-03    -234.088E-03    -235.845E-03    -233.975E-03     469.463E-03    -235.760E-03     23.4981E-03    -16.6030E+06    -21.4893E+06    -44.5735E+06    -42.1679E+06    -23.8948E+06    -16.6030E+06     5.85806E+06         56.6992
            1233     6.32038E-03     93.3767E-03     409.816E-03     389.772E-03        -1.15882     389.641E-03        -1.15869     409.816E-03    -7.13153E-03     469.233E-03    -233.855E-03    -235.537E-03    -233.662E-03     468.956E-03    -235.453E-03     27.7824E-03    -4.08306E+06    -13.5147E+06    -37.8927E+06    -34.6410E+06    -16.7664E+06    -4.08306E+06     7.48421E+06         57.5201
            1234     7.10827E-03     93.4155E-03     405.365E-03     379.024E-03        -1.14306     378.838E-03        -1.14288     405.365E-03     21.0698E-03     468.429E-03    -233.121E-03    -235.256E-03    -232.764E-03     468.072E-03    -235.256E-03     31.5674E-03     7.48446E+06    -9.95761E+06    -35.6877E+06    -32.3762E+06    -13.2692E+06     7.48446E+06     8.49426E+06         58.9768
            1235     7.90264E-03     93.4698E-03     399.764E-03     359.683E-03        -1.11780     359.507E-03        -1.11762     399.764E-03     16.0996E-03     469.518E-03    -233.844E-03    -235.511E-03    -233.663E-03     469.005E-03    -235.179E-03     37.6868E-03     12.7798E+06    -10.2541E+06    -33.4595E+06    -31.1356E+06    -12.5780E+06     12.7798E+06     5.45883E+06         61.0186
            1236     8.69314E-03     93.5300E-03     392.621E-03     338.937E-03        -1.08995     338.626E-03        -1.08963     392.621E-03     22.8736E-03     471.243E-03    -234.956E-03    -236.228E-03    -235.044E-03     470.495E-03    -235.392E-03     45.7690E-03     13.4126E+06    -12.2544E+06    -30.0436E+06    -29.0508E+06    -13.2471E+06     13.4126E+06     1.95854E+06         63.6080
            1237     9.47930E-03     93.6125E-03     384.542E-03     326.734E-03        -1.06870     326.433E-03        -1.06840     384.542E-03     29.1642E-03     471.147E-03    -235.094E-03    -236.633E-03    -235.340E-03     470.180E-03    -235.420E-03     52.0656E-03     15.9880E+06    -10.0096E+06    -26.9320E+06    -25.1369E+06    -11.8047E+06     15.9880E+06     4.06811E+06         66.9070
            1238     10.2764E-03     93.7022E-03     376.489E-03     320.062E-03        -1.05271     319.990E-03        -1.05263     376.489E-03     10.8664E-03     471.400E-03    -235.254E-03    -236.362E-03    -235.293E-03     470.331E-03    -235.254E-03     54.8805E-03     21.7151E+06    -4.78767E+06    -23.7888E+06    -20.2780E+06    -8.29855E+06     21.7151E+06     7.16602E+06         71.2570
            1239     11.0644E-03     93.7950E-03     368.404E-03     301.771E-03        -1.02484     301.671E-03        -1.02474     368.404E-03    -5.21429E-03     470.566E-03    -234.508E-03    -235.943E-03    -233.920E-03     469.342E-03    -235.307E-03     58.5816E-03     30.8087E+06    -529.086E+03    -18.6872E+06    -16.0962E+06    -3.12010E+06     30.8087E+06     5.84373E+06         76.7970
            1240     11.8600E-03     93.8987E-03     359.345E-03     278.029E-03    -990.011E-03     277.947E-03    -989.928E-03     359.345E-03    -9.93359E-03     470.970E-03    -234.460E-03    -236.622E-03    -233.706E-03     468.853E-03    -235.259E-03     76.0699E-03     43.1417E+06     4.25316E+06    -16.6603E+06    -15.9747E+06     3.56759E+06     43.1417E+06     1.73663E+06         82.9560
            1241     12.6542E-03     94.0393E-03     349.211E-03     261.336E-03    -962.068E-03     261.250E-03    -961.982E-03     349.211E-03    -12.2001E-03     472.657E-03    -235.173E-03    -237.675E-03    -234.796E-03     469.778E-03    -235.173E-03     90.2214E-03     63.8090E+06     16.6398E+06    -14.4250E+06    -14.2899E+06     16.5047E+06     63.8090E+06    -449.991E+03         88.4422
            1242     13.4425E-03     94.1738E-03     338.670E-03     248.504E-03    -936.402E-03     248.346E-03    -936.244E-03     338.670E-03    -1.79284E-03     472.651E-03    -235.046E-03    -237.922E-03    -234.716E-03     469.445E-03    -235.046E-03     95.0911E-03     89.9413E+06     35.3006E+06    -5.94154E+06    -5.83607E+06     35.1951E+06     89.9413E+06     621.762E+03         92.3282
            1243     792.631E-06     94.8718E-03     389.097E-03     328.809E-03        -1.05337     330.384E-03        -1.04688     381.030E-03     67.2527E-03     472.023E-03    -235.145E-03    -236.936E-03    -235.765E-03     472.017E-03    -236.310E-03     304.761E-06    -47.4129E+06    -56.9000E+06    -65.0613E+06    -62.5237E+06    -49.6096E+06    -57.2410E+06     2.79239E+06         56.1664
            1244     1.57877E-03     94.8706E-03     371.247E-03     336.406E-03        -1.04703     351.351E-03        -1.04558     354.853E-03     3.15625E-03     473.853E-03    -236.290E-03    -237.607E-03    -237.602E-03     473.848E-03    -236.290E-03     2.97895E-03    -45.2425E+06    -54.2201E+06    -64.1228E+06    -62.3332E+06    -46.9744E+06    -54.2779E+06     2.57132E+06         56.2101
            1245     2.36554E-03     94.8663E-03     364.407E-03     345.925E-03        -1.05018     353.976E-03        -1.04772     353.893E-03     17.8669E-03     473.350E-03    -236.076E-03    -237.347E-03    -236.749E-03     473.332E-03    -236.656E-03     6.50816E-03    -44.9528E+06    -53.2443E+06    -63.9110E+06    -62.2083E+06    -46.6556E+06    -53.2443E+06     3.50215E+06         56.2556
            1246     3.15835E-03     94.8783E-03     368.860E-03     345.831E-03        -1.05742     358.258E-03        -1.05504     354.050E-03     1.47522E-03     471.503E-03    -234.988E-03    -236.453E-03    -234.961E-03     471.476E-03    -236.453E-03     8.59358E-03    -41.9275E+06    -48.2847E+06    -60.6089E+06    -59.3173E+06    -43.2191E+06    -48.2847E+06     3.47041E+06         56.2938
            1247     3.94750E-03     94.8859E-03     373.944E-03     337.646E-03        -1.05453     356.206E-03        -1.05331     354.161E-03    -15.1418E-03     470.762E-03    -234.664E-03    -236.048E-03    -234.601E-03     470.699E-03    -236.048E-03     12.5018E-03     -33.943E+06    -39.0641E+06    -55.5447E+06    -53.3147E+06    -36.1730E+06    -39.0641E+06     6.05302E+06         56.3276
            1248     4.73718E-03     94.9070E-03     360.968E-03     337.750E-03        -1.04095     345.045E-03        -1.04001     352.733E-03    -15.0757E-03     470.039E-03    -234.341E-03    -235.761E-03    -234.185E-03     469.883E-03    -235.761E-03     20.5197E-03    -23.5709E+06    -27.9490E+06    -50.8953E+06    -48.3065E+06    -28.2521E+06    -25.8567E+06     7.16267E+06         56.3887
            1249     5.53009E-03     94.9399E-03     350.339E-03     328.019E-03        -1.02191     328.756E-03        -1.02157     349.264E-03     8.84750E-03     468.801E-03    -233.458E-03    -235.418E-03    -233.237E-03     468.580E-03    -235.418E-03     24.8708E-03    -15.2802E+06    -23.7971E+06    -49.3607E+06    -48.0064E+06    -25.1514E+06    -15.2802E+06     4.95892E+06         56.6770
            1250     6.32098E-03     94.9762E-03     344.040E-03     309.718E-03    -997.255E-03     309.522E-03    -997.060E-03     344.040E-03    -5.78021E-03     468.415E-03    -233.284E-03    -235.063E-03    -233.016E-03     468.147E-03    -235.063E-03     27.3613E-03    -7.00835E+06    -21.5502E+06    -47.9222E+06    -46.1799E+06    -23.2925E+06    -7.00835E+06     5.38325E+06         57.4975
            1251     7.11424E-03     95.0210E-03     337.593E-03     294.781E-03    -975.465E-03     294.688E-03    -975.372E-03     337.593E-03     17.6586E-03     469.074E-03    -233.636E-03    -235.236E-03    -233.625E-03     468.715E-03    -234.888E-03     31.6482E-03     5.15607E+06    -13.1256E+06    -38.5913E+06    -36.2367E+06    -15.4801E+06     5.15607E+06     6.59799E+06         58.9516
            1252     7.90343E-03     95.0651E-03     330.578E-03     286.198E-03    -961.014E-03     286.118E-03    -960.934E-03     330.578E-03     2.92401E-03     470.334E-03    -234.345E-03    -236.139E-03    -235.105E-03     469.811E-03    -234.856E-03     38.1865E-03     16.6475E+06    -6.44538E+06    -30.5715E+06    -28.1593E+06    -8.85753E+06     16.6475E+06     7.10846E+06         60.9877
            1253     8.69424E-03     95.1394E-03     324.101E-03     290.108E-03    -957.388E-03     290.255E-03    -957.293E-03     323.858E-03     4.79939E-03     471.434E-03    -235.202E-03    -236.681E-03    -235.911E-03     470.703E-03    -235.241E-03     45.2548E-03     18.4991E+06    -11.1326E+06    -34.8288E+06    -32.3652E+06    -13.5962E+06     18.4991E+06     7.09191E+06         63.5692
            1254     9.48753E-03     95.2122E-03     318.334E-03     298.418E-03    -957.596E-03     298.599E-03    -957.534E-03     318.091E-03     8.24937E-03     471.494E-03    -235.405E-03    -236.636E-03    -235.537E-03     470.434E-03    -235.444E-03     54.2917E-03     21.9529E+06    -11.2914E+06    -32.0674E+06    -30.4180E+06    -12.9408E+06     21.9529E+06     5.45373E+06         66.8608
            1255     10.2723E-03     95.3077E-03     312.803E-03     292.065E-03    -944.699E-03     291.995E-03    -944.629E-03     312.803E-03     8.49679E-03     471.086E-03    -234.809E-03    -236.065E-03    -234.448E-03     469.822E-03    -235.163E-03     59.5413E-03     26.1228E+06    -6.14364E+06    -24.5744E+06    -22.7044E+06    -8.01360E+06     26.1228E+06     3.44524E+06         71.2061
            1256     11.0659E-03     95.3946E-03     307.141E-03     276.064E-03    -922.045E-03     276.002E-03    -921.983E-03     307.141E-03     9.99847E-03     470.966E-03    -234.008E-03    -236.556E-03    -233.973E-03     469.536E-03    -235.161E-03     63.0794E-03     34.3899E+06     696.042E+03    -17.0754E+06    -15.0840E+06    -1.29530E+06     34.3899E+06     3.51364E+06         76.7420
            1257     11.8595E-03     95.4889E-03     300.301E-03     255.515E-03    -892.777E-03     255.322E-03    -892.584E-03     300.301E-03     13.6959E-03     471.750E-03    -234.401E-03    -237.680E-03    -234.771E-03     469.640E-03    -235.201E-03     76.5571E-03     48.7244E+06     9.33344E+06    -14.3970E+06    -12.7238E+06     7.66024E+06     48.7244E+06     5.31544E+06         82.8943
            1258     12.6539E-03     95.6402E-03     291.919E-03     230.364E-03    -858.033E-03     230.122E-03    -857.790E-03     291.919E-03     5.34553E-03     472.331E-03    -234.745E-03    -237.804E-03    -234.742E-03     469.663E-03    -235.140E-03     86.8187E-03     69.4257E+06     21.7007E+06    -13.7922E+06    -12.6010E+06     20.5095E+06     69.4257E+06     3.74936E+06         88.3762
            1259     13.4456E-03     95.7839E-03     282.921E-03     221.996E-03    -840.102E-03     221.877E-03    -839.984E-03     282.921E-03     296.943E-06     472.088E-03    -234.545E-03    -237.513E-03    -233.962E-03     468.932E-03    -234.941E-03     94.1889E-03     92.2253E+06     36.4688E+06    -7.30600E+06    -6.96844E+06     36.1312E+06     92.2253E+06     213.431E+03         92.2639
            1260     790.951E-06     96.4735E-03     312.829E-03     262.880E-03    -900.316E-03     243.596E-03    -881.032E-03     312.829E-03     126.941E-03     470.226E-03    -233.892E-03    -236.467E-03    -235.379E-03     470.215E-03    -234.969E-03    -3.96361E-03    -56.0660E+06    -68.9375E+06    -81.2331E+06    -70.8506E+06    -66.4485E+06    -68.9375E+06     8.03499E+06         56.0532
            1261     1.58354E-03     96.4752E-03     274.631E-03     251.339E-03    -853.817E-03     248.979E-03    -849.290E-03     272.464E-03    -7.88928E-03     470.036E-03    -233.854E-03    -236.170E-03    -234.955E-03     470.026E-03    -235.059E-03     644.021E-06    -50.1759E+06    -63.3787E+06    -75.8063E+06    -71.7029E+06    -54.2793E+06    -63.3787E+06     8.58664E+06         56.1007
            1262     2.37282E-03     96.4777E-03     273.230E-03     257.829E-03    -860.811E-03     261.326E-03    -856.875E-03     265.797E-03     14.7783E-03     470.653E-03    -234.539E-03    -236.044E-03    -235.398E-03     470.636E-03    -235.168E-03     6.29129E-03    -46.2289E+06    -56.1871E+06    -71.4693E+06    -68.5712E+06    -49.1270E+06    -56.1871E+06     7.96716E+06         56.1651
            1263     3.15945E-03     96.4794E-03     288.855E-03     267.138E-03    -885.769E-03     286.123E-03    -883.037E-03     267.138E-03    -14.6017E-03     470.254E-03    -234.665E-03    -235.538E-03    -234.901E-03     470.218E-03    -235.266E-03     9.84921E-03    -41.0212E+06    -47.9416E+06    -66.0396E+06    -63.7428E+06    -43.8534E+06    -47.4062E+06     6.64231E+06         56.2330
            1264     3.95274E-03     96.4900E-03     300.304E-03     271.584E-03    -901.015E-03     298.353E-03    -899.064E-03     271.584E-03    -8.39494E-03     469.717E-03    -234.418E-03    -235.305E-03    -234.509E-03     469.630E-03    -235.128E-03     15.0740E-03    -35.6437E+06    -40.7950E+06    -62.6625E+06    -60.9043E+06    -39.2433E+06    -38.9536E+06     5.07715E+06         56.2992
            1265     4.74420E-03     96.5087E-03     287.879E-03     274.193E-03    -889.609E-03     287.003E-03    -888.732E-03     274.193E-03    -24.1400E-03     470.194E-03    -234.575E-03    -235.780E-03    -235.200E-03     470.032E-03    -234.993E-03     21.1571E-03    -25.9892E+06    -31.5203E+06    -58.2790E+06    -56.3202E+06    -32.0848E+06    -27.3835E+06     5.60728E+06         56.3782
            1266     5.53375E-03     96.5411E-03     274.489E-03     263.775E-03    -864.955E-03     264.914E-03    -864.677E-03     273.071E-03    -4.11731E-03     469.574E-03    -234.172E-03    -235.488E-03    -234.586E-03     469.378E-03    -234.879E-03     23.2933E-03    -13.6575E+06    -23.5648E+06    -54.2335E+06    -52.2387E+06    -25.5597E+06    -13.6575E+06     6.86165E+06         56.6609
            1267     6.32556E-03     96.5771E-03     268.981E-03     243.027E-03    -839.480E-03     242.778E-03    -839.232E-03     268.981E-03    -11.9110E-03     468.353E-03    -233.533E-03    -234.670E-03    -233.295E-03     468.115E-03    -234.670E-03     25.5698E-03    -4.57815E+06    -21.6966E+06    -50.4316E+06    -49.3102E+06    -22.8180E+06    -4.57815E+06     5.02271E+06         57.4696
            1268     7.11659E-03     96.6178E-03     263.588E-03     233.558E-03    -824.824E-03     233.541E-03    -824.735E-03     263.516E-03     13.6516E-03     469.246E-03    -233.856E-03    -235.134E-03    -234.078E-03     468.889E-03    -234.556E-03     31.4783E-03     3.37589E+06    -18.1335E+06    -43.4374E+06    -42.5320E+06    -19.0389E+06     3.37589E+06     4.23802E+06         58.9153
            1269     7.90641E-03     96.6767E-03     262.247E-03     235.983E-03    -825.497E-03     239.768E-03    -825.470E-03     258.436E-03     9.49996E-03     470.153E-03    -234.634E-03    -235.940E-03    -235.426E-03     469.639E-03    -234.634E-03     37.9672E-03     13.4558E+06    -12.1514E+06    -37.9417E+06    -35.7436E+06    -14.3495E+06     13.4558E+06     7.08967E+06         60.9427
            1270     8.69468E-03     96.7381E-03     258.384E-03     243.573E-03    -828.276E-03     247.471E-03    -828.193E-03     254.403E-03     15.5012E-03     470.525E-03    -234.956E-03    -236.066E-03    -235.259E-03     469.757E-03    -234.995E-03     45.9286E-03     20.7222E+06    -8.50543E+06    -34.4268E+06    -31.5959E+06    -11.3363E+06     20.7222E+06     8.06812E+06         63.5164
            1271     9.48452E-03     96.8150E-03     250.886E-03     245.115E-03    -820.059E-03     245.114E-03    -819.815E-03     250.643E-03     24.8250E-03     470.628E-03    -234.818E-03    -235.707E-03    -234.230E-03     469.515E-03    -235.182E-03     55.5274E-03     26.0513E+06    -6.87930E+06    -29.4449E+06    -27.2899E+06    -9.03432E+06     26.0513E+06     6.53773E+06         66.8010
            1272     10.2829E-03     96.9071E-03     246.498E-03     238.141E-03    -806.474E-03     237.915E-03    -806.247E-03     246.498E-03     23.4899E-03     469.662E-03    -234.216E-03    -235.146E-03    -233.134E-03     468.398E-03    -234.964E-03     59.4540E-03     33.0326E+06    -3.33143E+06    -25.1799E+06    -22.7797E+06    -5.73164E+06     33.0326E+06     4.74207E+06         71.1380
            1273     11.0768E-03     96.9896E-03     241.903E-03     232.263E-03    -794.587E-03     232.195E-03    -794.520E-03     241.903E-03     7.64505E-03     471.648E-03    -234.500E-03    -237.067E-03    -235.126E-03     470.131E-03    -234.923E-03     65.1036E-03     39.3427E+06     98.2476E+03    -22.4923E+06    -20.4364E+06    -1.95766E+06     39.3427E+06     4.17160E+06         76.6549
            1274     11.8631E-03     97.1064E-03     241.987E-03     222.773E-03    -783.741E-03     227.820E-03    -783.533E-03     236.733E-03     7.78198E-03     473.016E-03    -234.945E-03    -238.357E-03    -236.140E-03     470.799E-03    -234.945E-03     78.8473E-03     47.6510E+06     5.54519E+06    -20.2016E+06    -18.8895E+06     4.23308E+06     47.6510E+06     4.93671E+06         82.7875
            1275     12.6489E-03     97.2308E-03     248.620E-03     210.502E-03    -777.158E-03     227.638E-03    -776.810E-03     231.137E-03    -5.42393E-03     471.457E-03    -234.483E-03    -237.071E-03    -233.525E-03     468.306E-03    -234.878E-03     93.5300E-03     68.2430E+06     20.7638E+06    -14.6474E+06    -13.3952E+06     19.5117E+06     68.2430E+06     5.46149E+06         88.2757
            1276     13.4486E-03     97.3798E-03     244.460E-03     205.865E-03    -766.557E-03     224.691E-03    -766.402E-03     225.479E-03    -12.8624E-03     472.323E-03    -234.352E-03    -237.883E-03    -233.844E-03     468.679E-03    -234.747E-03     101.081E-03     97.8671E+06     40.3535E+06    -5.26876E+06    -4.85905E+06     39.9438E+06     97.8671E+06     1.23558E+06         92.1799
            1277     787.460E-06     98.0777E-03     226.380E-03     172.431E-03    -711.518E-03     186.503E-03    -677.556E-03     178.346E-03     147.510E-03     470.113E-03    -233.712E-03    -236.424E-03    -234.688E-03     470.098E-03    -235.433E-03    -4.25591E-03    -68.2192E+06    -78.4953E+06    -92.0760E+06    -74.0778E+06    -87.0169E+06    -77.6958E+06     4.46504E+06         55.9421
            1278     1.57933E-03     98.0684E-03     225.955E-03     186.755E-03    -727.179E-03     217.165E-03    -721.067E-03     189.433E-03    -10.7595E-03     467.627E-03    -232.984E-03    -234.540E-03    -232.976E-03     467.619E-03    -234.540E-03     499.224E-06    -60.0969E+06    -74.2697E+06    -79.4204E+06    -72.7346E+06    -66.7826E+06    -74.2697E+06     7.90736E+06         55.9898
            1279     2.37492E-03     98.0760E-03     219.687E-03     197.510E-03    -732.764E-03     215.207E-03    -729.784E-03     199.010E-03     50.7637E-03     467.057E-03    -232.513E-03    -234.286E-03    -232.774E-03     467.047E-03    -234.014E-03     4.58738E-03    -50.1047E+06    -62.9899E+06      -74.45E+06    -70.2732E+06    -54.2815E+06    -62.9899E+06     8.28526E+06         56.0645
            1280     3.16896E-03     98.0809E-03     207.969E-03     184.936E-03    -708.196E-03     190.867E-03    -706.462E-03     200.304E-03     31.6630E-03     468.230E-03    -233.356E-03    -234.729E-03    -234.088E-03     468.201E-03    -233.968E-03     8.28835E-03    -41.1502E+06    -50.1008E+06    -72.1941E+06    -68.7897E+06    -45.0900E+06    -49.5654E+06     9.58096E+06         56.1541
            1281     3.95780E-03     98.0862E-03     205.385E-03     168.098E-03    -687.956E-03     175.347E-03    -686.268E-03     196.448E-03     29.1218E-03     470.245E-03    -234.184E-03    -236.064E-03    -235.947E-03     470.167E-03    -234.223E-03     14.1357E-03    -33.1704E+06    -38.8186E+06    -69.1644E+06    -66.5746E+06    -39.0607E+06    -35.5181E+06     7.93411E+06         56.2507
            1282     4.74684E-03     98.1143E-03     197.679E-03     175.355E-03    -684.628E-03     180.192E-03    -684.013E-03     192.228E-03     2.88465E-03     471.019E-03    -234.469E-03    -236.689E-03    -236.569E-03     470.899E-03    -234.469E-03     18.3153E-03    -24.5064E+06    -31.9033E+06    -65.5139E+06    -63.7681E+06    -33.6491E+06    -24.5064E+06     6.28651E+06         56.3501
            1283     5.53507E-03     98.1455E-03     196.359E-03     186.372E-03    -693.141E-03     192.385E-03    -692.718E-03     189.923E-03     11.9363E-03     469.479E-03    -234.296E-03    -235.425E-03    -235.024E-03     469.337E-03    -234.556E-03     19.8267E-03    -16.1347E+06    -26.3756E+06    -59.2045E+06    -57.6427E+06    -27.9374E+06    -16.1347E+06     5.65413E+06         56.6333
            1284     6.32496E-03     98.1750E-03     207.318E-03     185.323E-03    -703.660E-03     203.091E-03    -703.345E-03     189.236E-03     10.3447E-03     468.770E-03    -234.084E-03    -234.704E-03    -234.061E-03     468.540E-03    -234.498E-03     24.9940E-03    -3.32048E+06    -19.0701E+06    -50.5342E+06    -49.0203E+06    -20.5840E+06    -3.32048E+06     5.50218E+06         57.4335
            1285     7.11655E-03     98.2205E-03     212.601E-03     186.376E-03    -709.102E-03     209.577E-03    -708.830E-03     189.130E-03     26.4354E-03     469.045E-03    -234.027E-03    -234.824E-03    -234.073E-03     468.654E-03    -234.387E-03     32.8819E-03     6.34100E+06    -18.5376E+06    -50.2160E+06    -48.5856E+06    -20.1681E+06     6.34100E+06     6.53181E+06         58.8709
            1286     7.90658E-03     98.2809E-03     206.653E-03     188.780E-03    -704.374E-03     206.526E-03    -704.246E-03     188.780E-03     17.1754E-03     467.660E-03    -233.304E-03    -234.692E-03    -233.146E-03     467.147E-03    -234.338E-03     37.8820E-03     10.2847E+06    -19.7364E+06    -48.7804E+06    -47.3005E+06    -21.2163E+06     10.2847E+06     5.86578E+06         60.8931
            1287     8.70132E-03     98.3353E-03     193.539E-03     184.394E-03    -686.179E-03     190.548E-03    -685.943E-03     187.149E-03     26.1122E-03     467.825E-03    -233.078E-03    -234.919E-03    -232.670E-03     466.951E-03    -234.452E-03     48.5880E-03     20.2828E+06    -10.2113E+06    -35.4227E+06    -33.6861E+06    -11.9479E+06     20.2828E+06     5.92729E+06         63.4642
            1288     9.49456E-03     98.4191E-03     183.839E-03     178.088E-03    -668.121E-03     177.787E-03    -667.819E-03     183.839E-03     29.5174E-03     468.879E-03    -233.701E-03    -235.051E-03    -232.910E-03     467.610E-03    -234.572E-03     59.6402E-03     26.5210E+06    -5.96051E+06    -29.4403E+06    -27.2445E+06    -8.15630E+06     26.5210E+06     6.82385E+06         66.7446
            1289     10.2827E-03     98.4969E-03     179.737E-03     174.591E-03    -658.226E-03     174.352E-03    -657.987E-03     179.737E-03     24.7399E-03     470.219E-03    -234.102E-03    -236.015E-03    -234.128E-03     468.727E-03    -234.497E-03     64.0625E-03     31.6086E+06    -4.36818E+06    -28.8185E+06    -25.6181E+06    -7.56858E+06     31.6086E+06     8.03475E+06         71.0674
            1290     11.0731E-03     98.5970E-03     182.592E-03     171.032E-03    -655.400E-03     177.944E-03    -655.325E-03     175.606E-03     5.55407E-03     472.083E-03    -234.419E-03    -237.350E-03    -235.490E-03     470.294E-03    -234.490E-03     70.3641E-03     39.9610E+06     470.493E+03    -27.3550E+06    -23.1317E+06    -3.75282E+06     39.9610E+06     9.20683E+06         76.5571
            1291     11.8674E-03     98.7079E-03     197.328E-03     169.657E-03    -667.926E-03     194.839E-03    -667.860E-03     172.081E-03    -1.23998E-03     471.090E-03    -234.555E-03    -236.400E-03    -234.191E-03     468.881E-03    -234.555E-03     78.5551E-03     55.6573E+06     9.96678E+06    -20.1263E+06    -17.9225E+06     7.76292E+06     55.6573E+06     5.31655E+06         82.6780
            1292     12.6703E-03     98.8224E-03     214.105E-03     169.365E-03    -682.381E-03     213.934E-03    -682.210E-03     169.365E-03    -9.05216E-03     471.339E-03    -234.549E-03    -236.877E-03    -233.790E-03     468.252E-03    -234.549E-03     92.3964E-03     80.5881E+06     28.2900E+06    -9.29535E+06    -9.16371E+06     28.1583E+06     80.5881E+06     1.57956E+06         88.1844
            1293     13.4601E-03     98.9804E-03     214.948E-03     166.662E-03    -676.501E-03     214.653E-03    -676.207E-03     166.662E-03     1.44771E-03     474.094E-03    -234.527E-03    -239.600E-03    -235.973E-03     470.466E-03    -234.527E-03     101.115E-03     102.079E+06     43.4343E+06    -4.87449E+06    -4.75576E+06     43.3155E+06     102.079E+06     521.954E+03         92.1061
            1294     794.771E-06     99.6742E-03     176.211E-03     98.0075E-03    -575.214E-03     132.879E-03    -537.345E-03     103.471E-03     98.6577E-03     465.323E-03    -231.713E-03    -233.573E-03    -232.281E-03     465.313E-03    -232.995E-03    -2.13163E-03    -73.7879E+06    -76.5219E+06    -101.378E+06    -76.1859E+06    -100.821E+06    -74.6808E+06     448.579E+03         55.8619
            1295     1.58538E-03     99.6689E-03     155.267E-03     107.891E-03    -564.413E-03     131.942E-03    -554.108E-03     120.912E-03    -61.6166E-03     466.500E-03    -232.397E-03    -234.102E-03    -233.745E-03     466.495E-03    -232.748E-03     3.39739E-03    -67.9054E+06    -73.1923E+06    -84.6901E+06    -73.8235E+06    -79.1746E+06    -72.7898E+06     6.21058E+06         55.9196
            1296     2.37524E-03     99.6671E-03     138.589E-03     113.715E-03    -550.705E-03     126.062E-03    -548.379E-03     123.916E-03     8.15637E-03     466.567E-03    -232.120E-03    -234.419E-03    -233.497E-03     466.558E-03    -233.034E-03     4.83429E-03    -56.8220E+06    -67.1425E+06    -82.0218E+06    -73.5180E+06    -65.3257E+06    -67.1425E+06     10.9562E+06         55.9983
            1297     3.16871E-03     99.6743E-03     126.656E-03     105.568E-03    -530.629E-03     108.739E-03    -529.224E-03     122.081E-03    -8.67842E-03     468.022E-03    -232.740E-03    -235.084E-03    -234.492E-03     468.004E-03    -233.314E-03     6.83199E-03    -46.1154E+06    -58.6665E+06    -79.3050E+06    -73.1730E+06    -52.2474E+06    -58.6665E+06     12.2995E+06         56.0886
            1298     3.95978E-03     99.6927E-03     129.483E-03     89.2759E-03    -517.686E-03     99.6866E-03    -516.239E-03     117.626E-03    -7.61092E-03     470.644E-03    -233.798E-03    -236.671E-03    -236.609E-03     470.583E-03    -233.798E-03     12.5771E-03    -35.5460E+06    -46.3664E+06    -74.6532E+06    -69.4045E+06    -42.2538E+06    -44.9073E+06     12.8662E+06         56.1848
            1299     4.74574E-03     99.7206E-03     124.099E-03     97.0582E-03    -518.688E-03     105.854E-03    -517.317E-03     113.931E-03    -9.76178E-03     470.203E-03    -234.121E-03    -236.181E-03    -235.990E-03     470.101E-03    -234.210E-03     16.9463E-03    -23.8746E+06    -31.3640E+06    -67.6399E+06    -63.3584E+06    -32.5062E+06    -27.0138E+06     12.0402E+06         56.2888
            1300     5.53712E-03     99.7447E-03     127.062E-03     110.377E-03    -533.933E-03     123.795E-03    -533.058E-03     112.769E-03     2.31008E-03     468.650E-03    -234.124E-03    -234.720E-03    -234.317E-03     468.506E-03    -234.383E-03     19.9230E-03    -12.0542E+06    -22.9783E+06    -62.5548E+06    -59.5430E+06    -25.9901E+06    -12.0542E+06     9.37380E+06         56.5839
            1301     6.32977E-03     99.7750E-03     145.942E-03     113.930E-03    -555.474E-03     145.282E-03    -554.814E-03     113.930E-03    -5.24105E-03     469.287E-03    -234.264E-03    -235.190E-03    -234.751E-03     469.019E-03    -234.435E-03     27.0943E-03    -3.23421E+06    -22.3433E+06    -61.2169E+06    -58.2860E+06    -25.2742E+06    -3.23421E+06     9.14611E+06         57.3902
            1302     7.11859E-03     99.8259E-03     153.926E-03     115.908E-03    -563.153E-03     153.610E-03    -562.837E-03     115.908E-03     10.0443E-03     468.585E-03    -233.617E-03    -234.981E-03    -233.913E-03     468.203E-03    -234.303E-03     32.6087E-03     5.63915E+06    -19.0888E+06    -54.0905E+06    -51.6944E+06    -21.4848E+06     5.63915E+06     8.62632E+06         58.8265
            1303     7.91182E-03     99.8761E-03     144.371E-03     116.967E-03    -554.209E-03     144.029E-03    -553.868E-03     116.967E-03    -3.87861E-03     466.001E-03    -232.013E-03    -234.078E-03    -231.561E-03     465.550E-03    -234.078E-03     35.2806E-03     16.1493E+06    -13.8032E+06    -44.5046E+06    -43.3097E+06    -14.9981E+06     16.1493E+06     5.58380E+06         60.8477
            1304     8.70534E-03     99.9295E-03     136.419E-03     115.278E-03    -544.170E-03     135.053E-03    -543.882E-03     116.356E-03     8.29931E-03     465.450E-03    -231.376E-03    -234.013E-03    -230.660E-03     464.734E-03    -234.013E-03     43.8774E-03     22.6229E+06    -12.7876E+06    -40.0001E+06    -39.1757E+06    -13.6119E+06     22.6229E+06     3.75939E+06         63.4181
            1305     9.50089E-03     100.012E-03     135.686E-03     113.462E-03    -539.810E-03     134.441E-03    -539.709E-03     114.607E-03     6.16610E-03     466.026E-03    -231.987E-03    -234.209E-03    -231.053E-03     464.956E-03    -234.073E-03     54.1353E-03     24.4162E+06    -13.4148E+06    -37.5613E+06    -36.1479E+06    -14.8282E+06     24.4162E+06     4.74425E+06         66.6981
            1306     10.2984E-03     100.099E-03     142.226E-03     112.430E-03    -543.971E-03     141.846E-03    -543.864E-03     112.703E-03     8.96786E-03     468.302E-03    -233.050E-03    -235.424E-03    -233.109E-03     466.815E-03    -233.879E-03     63.7669E-03     28.0927E+06    -9.98344E+06    -34.0202E+06    -32.0417E+06    -11.9619E+06     28.0927E+06     6.57536E+06         71.0200
            1307     11.0884E-03     100.204E-03     158.377E-03     111.311E-03    -557.228E-03     157.861E-03    -556.918E-03     111.518E-03    -4.09040E-03     469.806E-03    -233.706E-03    -235.696E-03    -233.854E-03     467.964E-03    -233.706E-03     71.5288E-03     42.0253E+06     2.16348E+06    -25.2984E+06    -22.1101E+06    -1.02484E+06     42.0253E+06     5.58310E+06         76.5079
            1308     11.8789E-03     100.298E-03     169.279E-03     111.059E-03    -565.903E-03     168.994E-03    -565.619E-03     111.059E-03    -6.25265E-03     470.594E-03    -233.779E-03    -236.656E-03    -234.322E-03     468.260E-03    -233.779E-03     80.4219E-03     65.9225E+06     21.1104E+06    -13.4179E+06    -9.54099E+06     17.2335E+06     65.9225E+06     6.49076E+06         82.6307
            1309     12.6632E-03     100.424E-03     167.820E-03     110.146E-03    -561.511E-03     167.613E-03    -561.304E-03     110.146E-03    -3.15291E-03     474.991E-03    -233.905E-03    -240.954E-03    -237.789E-03     471.826E-03    -233.905E-03     94.2568E-03     85.0234E+06     31.9198E+06    -11.3215E+06    -9.56942E+06     30.1676E+06     85.0234E+06     3.22108E+06         88.1418
            1310     13.4573E-03     100.579E-03     171.896E-03     108.455E-03    -563.196E-03     171.563E-03    -562.863E-03     108.455E-03    -327.281E-06     475.623E-03    -234.175E-03    -241.029E-03    -237.547E-03     472.141E-03    -234.175E-03     99.4066E-03     102.609E+06     42.2266E+06    -8.93408E+06    -8.83018E+06     42.1227E+06     102.609E+06    -277.951E+03         92.0711
            1311     794.930E-06     101.263E-03     117.281E-03     36.4939E-03    -445.158E-03     87.5885E-03    -423.343E-03     44.3721E-03     82.2692E-03     458.373E-03    -227.563E-03    -230.786E-03    -230.600E-03     458.365E-03    -227.741E-03     1.73375E-03    -72.9405E+06    -74.9972E+06    -118.127E+06    -76.7548E+06    -115.937E+06    -73.3734E+06     6.48768E+06         55.8157
            1312     1.58869E-03     101.262E-03     56.6914E-03     33.9473E-03    -378.248E-03     19.9288E-03    -364.230E-03     56.6914E-03     6.54747E-03     463.540E-03    -229.955E-03    -233.661E-03    -233.644E-03     463.523E-03    -229.955E-03     5.92076E-03    -71.3530E+06    -73.6803E+06    -101.521E+06    -79.0442E+06    -95.6793E+06    -71.8306E+06     10.1023E+06         55.8842
            1313     2.38042E-03     101.265E-03     42.9015E-03     26.0590E-03    -351.892E-03     15.7096E-03    -341.543E-03     42.9015E-03     69.1603E-03     467.072E-03    -231.533E-03    -235.979E-03    -235.957E-03     467.050E-03    -231.533E-03     7.58351E-03    -63.5991E+06    -69.0586E+06    -93.1552E+06    -77.3667E+06    -80.2525E+06    -68.1936E+06     13.4262E+06         55.9696
            1314     3.16828E-03     101.271E-03     48.3473E-03     36.2049E-03    -367.207E-03     39.8538E-03    -360.691E-03     38.1815E-03     51.4098E-03     469.442E-03    -232.754E-03    -236.950E-03    -236.906E-03     469.397E-03    -232.754E-03     10.5689E-03    -50.0738E+06    -61.0675E+06    -86.1266E+06    -74.1443E+06    -62.0561E+06    -61.0675E+06     16.2676E+06         56.0566
            1315     3.95662E-03     101.296E-03     61.7970E-03     39.3534E-03    -385.298E-03     57.0580E-03    -380.559E-03     39.3534E-03     35.8524E-03     469.726E-03    -233.519E-03    -236.047E-03    -235.976E-03     469.654E-03    -233.519E-03     13.9812E-03    -38.0331E+06    -50.3254E+06    -78.4339E+06    -70.6927E+06    -45.7743E+06    -50.3254E+06     15.4230E+06         56.1403
            1316     4.75044E-03     101.319E-03     61.8113E-03     41.6674E-03    -387.840E-03     60.1013E-03    -386.130E-03     41.6674E-03     9.40153E-03     468.507E-03    -233.766E-03    -234.705E-03    -234.533E-03     468.424E-03    -233.855E-03     15.0830E-03    -28.7915E+06    -34.9553E+06    -70.5319E+06    -65.7327E+06    -34.1948E+06    -34.3511E+06     13.0335E+06         56.2371
            1317     5.54155E-03     101.341E-03     58.8949E-03     43.1320E-03    -387.114E-03     57.8978E-03    -386.117E-03     43.1320E-03    -8.67221E-03     468.548E-03    -233.912E-03    -234.397E-03    -234.177E-03     468.417E-03    -234.001E-03     18.8086E-03    -15.2260E+06    -21.9037E+06    -65.6555E+06    -61.1003E+06    -26.3148E+06    -15.3700E+06     13.3604E+06         56.5355
            1318     6.33071E-03     101.379E-03     59.9135E-03     40.0307E-03    -383.162E-03     55.4071E-03    -382.024E-03     43.3995E-03    -11.3719E-03     468.972E-03    -233.972E-03    -234.784E-03    -234.392E-03     468.684E-03    -234.076E-03     27.8400E-03    -4.83830E+06    -22.0172E+06    -64.3236E+06    -60.5419E+06    -25.7989E+06    -4.83830E+06     11.8111E+06         57.3493
            1319     7.12081E-03     101.428E-03     62.2289E-03     39.6597E-03    -382.756E-03     58.2859E-03    -382.182E-03     43.0285E-03     3.79080E-03     468.247E-03    -233.479E-03    -234.797E-03    -233.841E-03     467.876E-03    -234.063E-03     32.2178E-03     6.82427E+06    -17.7281E+06    -53.6476E+06    -51.3290E+06    -20.0467E+06     6.82427E+06     8.71675E+06         58.7918
            1320     7.91256E-03     101.468E-03     76.2742E-03     43.3162E-03    -399.642E-03     75.8094E-03    -399.177E-03     43.3162E-03    -7.80550E-03     466.637E-03    -232.488E-03    -234.263E-03    -232.344E-03     466.231E-03    -234.000E-03     33.5654E-03     20.2006E+06    -9.79652E+06    -43.9204E+06    -40.9534E+06    -12.7635E+06     20.2006E+06     9.25136E+06         60.8157
            1321     8.70506E-03     101.529E-03     94.9527E-03     44.6411E-03    -419.569E-03     94.0647E-03    -418.681E-03     44.6411E-03     17.5281E-03     466.407E-03    -232.219E-03    -234.139E-03    -231.770E-03     465.780E-03    -233.961E-03     41.4616E-03     27.5316E+06    -8.89614E+06    -43.6266E+06    -40.0783E+06    -12.4444E+06     27.5316E+06     8.95426E+06         63.3859
            1322     9.49887E-03     101.596E-03     109.726E-03     46.3759E-03    -436.228E-03     109.161E-03    -435.663E-03     46.3759E-03     12.8831E-03     467.057E-03    -232.516E-03    -234.730E-03    -232.291E-03     466.157E-03    -234.055E-03     50.0027E-03     32.3718E+06    -10.0066E+06    -40.2555E+06    -38.1596E+06    -12.1025E+06     32.3718E+06     5.65813E+06         66.6635
            1323     10.2921E-03     101.694E-03     128.941E-03     48.5372E-03    -456.171E-03     128.882E-03    -456.112E-03     48.5372E-03     3.31911E-03     465.877E-03    -231.865E-03    -234.371E-03    -231.310E-03     464.797E-03    -233.847E-03     54.8110E-03     36.5488E+06    -7.22046E+06    -33.0332E+06    -32.0099E+06    -8.24376E+06     36.5488E+06     2.36307E+06         70.9890
            1324     11.0901E-03     101.795E-03     137.940E-03     51.0521E-03    -464.965E-03     137.666E-03    -464.691E-03     51.0521E-03    -4.11840E-03     465.050E-03    -231.567E-03    -233.528E-03    -230.390E-03     463.779E-03    -233.434E-03     59.2709E-03     44.3260E+06     1.05944E+06    -25.8373E+06    -24.5823E+06    -195.563E+03     44.3260E+06     959.400E+03         76.4974
            1325     11.8875E-03     101.895E-03     133.089E-03     52.8247E-03    -458.899E-03     132.842E-03    -458.652E-03     52.8247E-03    -7.56478E-03     468.858E-03    -232.593E-03    -236.430E-03    -233.735E-03     466.877E-03    -233.307E-03     73.1433E-03     56.1287E+06     11.6941E+06    -22.9667E+06    -20.0231E+06     8.75046E+06     56.1287E+06     1.66959E+06         82.6426
            1326     12.6850E-03     102.032E-03     134.973E-03     53.3464E-03    -459.852E-03     134.809E-03    -459.688E-03     53.3464E-03    -5.86372E-03     474.765E-03    -233.423E-03    -240.825E-03    -237.832E-03     471.772E-03    -233.423E-03     91.1718E-03     83.3241E+06     32.4792E+06    -13.2606E+06    -9.91673E+06     29.1353E+06     83.3241E+06     3.79955E+06         88.1640
            1327     13.4637E-03     102.192E-03     152.840E-03     53.8462E-03    -477.964E-03     152.681E-03    -477.805E-03     53.8462E-03    -10.8128E-03     474.880E-03    -233.789E-03    -240.158E-03    -236.921E-03     471.643E-03    -233.789E-03     95.4893E-03     113.898E+06     51.5781E+06    -3.82722E+06    -2.76042E+06     50.5113E+06     113.898E+06     3.89628E+06         92.1012
            1328     801.454E-06     102.842E-03     25.1648E-03    -52.9949E-03    -250.901E-03     5.42362E-03    -225.438E-03    -58.7162E-03     62.2058E-03     453.843E-03    -224.190E-03    -229.705E-03    -229.647E-03     453.785E-03    -224.190E-03     9.95461E-03    -77.2793E+06    -81.6870E+06    -139.564E+06    -80.1287E+06    -137.297E+06    -81.1048E+06     6.91747E+06         55.7791
            1329     1.59421E-03     102.850E-03     3.18109E-03    -35.6515E-03    -239.824E-03    -18.3943E-03    -227.972E-03    -25.9278E-03     52.0177E-03     462.619E-03    -228.222E-03    -234.522E-03    -234.501E-03     462.598E-03    -228.222E-03     6.92060E-03    -72.0496E+06    -77.3415E+06    -115.338E+06    -77.4057E+06    -111.429E+06    -75.8943E+06     8.87276E+06         55.8485
            1330     2.38374E-03     102.862E-03    -5.77555E-03    -32.7527E-03    -231.014E-03    -23.7610E-03    -221.169E-03    -24.6122E-03     49.8637E-03     466.761E-03    -230.673E-03    -236.461E-03    -236.442E-03     466.742E-03    -230.673E-03     6.52959E-03    -67.5281E+06    -71.7590E+06    -102.774E+06    -76.7488E+06    -95.8294E+06    -69.4832E+06     11.8590E+06         55.9382
            1331     3.17126E-03     102.877E-03    -14.4379E-03    -25.9725E-03    -228.276E-03    -25.5544E-03    -217.992E-03    -25.1406E-03     36.0686E-03     468.183E-03    -232.127E-03    -236.602E-03    -236.549E-03     468.131E-03    -232.127E-03     11.4378E-03    -55.6066E+06    -61.2192E+06    -90.5957E+06    -72.6940E+06    -74.9192E+06    -59.8083E+06     15.3767E+06         56.0297
            1332     3.95983E-03     102.896E-03    -10.7861E-03    -25.5072E-03    -234.254E-03    -21.1701E-03    -223.870E-03    -25.5072E-03     11.2557E-03     468.288E-03    -232.883E-03    -235.729E-03    -235.636E-03     468.195E-03    -232.883E-03     15.9837E-03    -38.3263E+06    -48.9103E+06    -82.0085E+06    -69.3016E+06    -51.0332E+06    -48.9103E+06     18.6168E+06         56.1176
            1333     4.74872E-03     102.916E-03    -9.55277E-03    -24.9870E-03    -239.325E-03    -13.1840E-03    -235.694E-03    -24.9870E-03    -854.196E-06     468.170E-03    -233.292E-03    -234.894E-03    -234.796E-03     468.072E-03    -233.292E-03     16.2309E-03    -28.2909E+06    -37.5978E+06    -78.5236E+06    -69.6085E+06    -37.2061E+06    -37.5978E+06     18.6352E+06         56.2140
            1334     5.54042E-03     102.943E-03    -9.01222E-03    -24.1430E-03    -240.824E-03    -10.7357E-03    -239.101E-03    -24.1430E-03    -17.7492E-03     467.756E-03    -233.240E-03    -234.157E-03    -233.790E-03     467.602E-03    -233.453E-03     20.0737E-03    -21.1339E+06    -24.5678E+06    -70.0202E+06    -63.7111E+06    -28.7954E+06    -23.2154E+06     15.9128E+06         56.5063
            1335     6.33374E-03     102.976E-03    -7.20473E-03    -27.3068E-03    -239.401E-03    -12.1630E-03    -237.811E-03    -23.9381E-03     2.40691E-03     467.258E-03    -233.089E-03    -233.688E-03    -233.052E-03     466.939E-03    -233.406E-03     29.4174E-03    -6.17081E+06    -15.4573E+06    -58.9836E+06    -54.6709E+06    -19.7701E+06    -6.17081E+06     12.7057E+06         57.3210
            1336     7.12807E-03     103.024E-03     4.67021E-03    -27.0260E-03    -249.835E-03     156.212E-06    -248.690E-03    -23.6572E-03     9.63992E-03     467.231E-03    -233.204E-03    -233.819E-03    -233.184E-03     466.825E-03    -233.434E-03     33.6730E-03     8.36868E+06    -14.6339E+06    -54.3219E+06     -51.383E+06    -17.5728E+06     8.36868E+06     10.0631E+06         58.7725
            1337     7.91687E-03     103.073E-03     24.9587E-03    -21.8341E-03    -273.194E-03     24.3921E-03    -272.627E-03    -21.8341E-03     2.09707E-03     467.257E-03    -232.980E-03    -234.426E-03    -233.375E-03     466.814E-03    -233.586E-03     35.1925E-03     19.1153E+06    -13.8171E+06    -51.3038E+06    -48.4439E+06    -16.6770E+06     19.1153E+06     9.40317E+06         60.8051
            1338     8.70980E-03     103.118E-03     49.6463E-03    -18.5331E-03    -301.966E-03     48.8555E-03    -301.175E-03    -18.5331E-03     27.8257E-03     468.610E-03    -233.280E-03    -235.833E-03    -234.684E-03     467.942E-03    -233.761E-03     43.0067E-03     29.1701E+06    -8.99921E+06    -44.8663E+06    -41.3592E+06    -12.5064E+06     29.1701E+06     9.31145E+06         63.3800
            1339     9.50088E-03     103.202E-03     74.6963E-03    -14.4081E-03    -331.335E-03     73.9889E-03    -330.628E-03    -14.4081E-03     9.21850E-03     469.630E-03    -233.988E-03    -236.066E-03    -235.057E-03     468.706E-03    -234.074E-03     50.9436E-03     39.4407E+06    -3.37541E+06    -36.4241E+06    -33.5932E+06    -6.20637E+06     39.4407E+06     7.52268E+06         66.6592
            1340     10.2897E-03     103.287E-03     88.0572E-03    -9.97057E-03    -347.338E-03     87.8660E-03    -347.147E-03    -9.97057E-03    -2.43517E-03     466.767E-03    -232.368E-03    -234.555E-03    -231.787E-03     465.689E-03    -234.058E-03     54.8058E-03     46.5076E+06     466.890E+03    -30.1051E+06    -28.5537E+06    -1.08445E+06     46.5076E+06     3.66149E+06         70.9915
            1341     11.0851E-03     103.378E-03     94.4891E-03    -5.94484E-03    -354.438E-03     94.3296E-03    -354.279E-03    -5.94484E-03    -592.435E-06     465.384E-03    -231.300E-03    -234.188E-03    -230.543E-03     464.057E-03    -233.618E-03     60.4009E-03     47.1389E+06    -273.434E+03    -30.2427E+06    -29.3758E+06    -1.14038E+06     47.1389E+06     1.67856E+06         76.5186
            1342     11.8795E-03     103.490E-03     111.877E-03    -2.39679E-03    -372.106E-03     111.737E-03    -371.967E-03    -2.39679E-03    -2.78029E-03     469.222E-03    -232.762E-03    -236.724E-03    -233.978E-03     467.190E-03    -233.476E-03     74.2035E-03     60.2873E+06     10.6714E+06    -23.7993E+06    -22.7015E+06     9.57361E+06     60.2873E+06    -1.82325E+06         82.6847
            1343     12.6637E-03     103.634E-03     137.185E-03     1.40607E-03    -399.470E-03     137.172E-03    -399.457E-03     1.40607E-03     5.06065E-03     470.732E-03    -233.536E-03    -236.915E-03    -234.228E-03     468.116E-03    -233.608E-03     85.2704E-03     86.8818E+06     32.6609E+06    -15.2474E+06    -13.5480E+06     30.9614E+06     86.8818E+06    -636.966E+03         88.2232
            1344     13.4720E-03     103.781E-03     160.062E-03     5.98627E-03    -425.178E-03     159.983E-03    -425.099E-03     5.98627E-03    -4.57763E-03     471.065E-03    -233.704E-03    -236.725E-03    -233.805E-03     468.217E-03    -233.776E-03     89.4656E-03     114.175E+06     52.9150E+06    -8.35068E+06    -6.25581E+06     50.8201E+06     114.175E+06     7.19481E+06         92.1755
            1345     800.578E-06     104.415E-03     63.0947E-03    -143.538E-03    -183.222E-03    -121.799E-03     25.8192E-03    -167.685E-03    -46.8058E-03     460.523E-03    -227.983E-03    -232.689E-03    -230.976E-03     460.468E-03    -229.641E-03     5.26914E-03    -79.4274E+06    -84.3060E+06    -149.190E+06    -80.4321E+06    -149.047E+06    -83.4436E+06    -2.41644E+03         55.7142
            1346     1.58994E-03     104.446E-03     41.4867E-03    -120.783E-03    -182.849E-03    -92.9557E-03    -33.3896E-03    -135.801E-03    -25.9846E-03     463.134E-03    -228.819E-03    -234.581E-03    -232.758E-03     463.125E-03    -230.633E-03     2.00965E-03    -76.6486E+06    -81.7616E+06    -125.970E+06    -78.1992E+06    -125.282E+06    -80.8993E+06     2.80206E+06         55.7783
            1347     2.37845E-03     104.459E-03     4.08887E-03    -85.2795E-03    -176.533E-03    -63.2655E-03    -77.1892E-03    -117.269E-03    -43.6322E-03     464.794E-03    -230.745E-03    -234.176E-03    -233.460E-03     464.781E-03    -231.449E-03     5.07452E-03    -71.8505E+06    -75.5206E+06    -113.379E+06    -75.9209E+06    -110.720E+06    -74.1097E+06     8.64483E+06         55.8659
            1348     3.17151E-03     104.474E-03    -31.4509E-03    -69.9352E-03    -156.981E-03    -60.6983E-03    -93.7794E-03    -103.889E-03    -39.2116E-03     465.041E-03    -231.765E-03    -233.540E-03    -233.360E-03     464.995E-03    -231.899E-03     10.7625E-03    -63.8582E+06    -67.2334E+06    -99.2753E+06    -74.8868E+06    -90.5246E+06    -64.9555E+06     13.3142E+06         55.9606
            1349     3.96487E-03     104.492E-03    -45.8597E-03    -68.9053E-03    -146.972E-03    -62.5338E-03    -103.053E-03    -96.1506E-03    -53.4591E-03     465.374E-03    -232.075E-03    -233.735E-03    -233.582E-03     465.274E-03    -232.128E-03     16.4848E-03    -48.9386E+06    -56.5663E+06    -88.7734E+06    -72.7451E+06    -65.8340E+06    -55.6993E+06     18.3629E+06         56.0574
            1350     4.75533E-03     104.519E-03    -53.4099E-03    -66.5953E-03    -144.125E-03    -61.8853E-03    -110.926E-03    -91.3197E-03    -17.3056E-03     466.484E-03    -232.338E-03    -234.296E-03    -234.101E-03     466.341E-03    -232.391E-03     19.9582E-03    -29.7637E+06    -42.9734E+06    -79.8396E+06    -67.9131E+06    -41.6902E+06    -42.9734E+06     20.9862E+06         56.1664
            1351     5.54603E-03     104.535E-03    -48.8488E-03    -74.1551E-03    -142.927E-03    -59.8247E-03    -118.244E-03    -87.8626E-03    -1.08711E-03     467.352E-03    -232.408E-03    -234.889E-03    -234.477E-03     467.153E-03    -232.621E-03     23.4375E-03    -17.9286E+06    -25.1838E+06    -70.7943E+06    -62.4665E+06    -26.7063E+06    -24.7339E+06     19.0215E+06         56.4727
            1352     6.33894E-03     104.570E-03    -40.3534E-03    -76.5058E-03    -148.186E-03    -47.0256E-03    -133.270E-03    -84.7498E-03     18.4919E-03     467.050E-03    -232.526E-03    -234.231E-03    -233.716E-03     466.748E-03    -232.739E-03     28.9468E-03    -4.35882E+06    -12.0587E+06    -61.7199E+06    -55.4525E+06    -18.3261E+06    -4.35882E+06     16.4262E+06         57.2992
            1353     7.12902E-03     104.621E-03    -27.4198E-03    -77.6859E-03    -158.285E-03    -30.7276E-03    -151.545E-03    -81.1178E-03     1.15748E-03     466.272E-03    -232.721E-03    -233.129E-03    -232.641E-03     465.910E-03    -232.847E-03     31.7579E-03     10.5668E+06    -10.6417E+06    -56.7852E+06    -51.7120E+06    -15.7149E+06     10.5668E+06     14.2383E+06         58.7626
            1354     7.92523E-03     104.667E-03    -14.6377E-03    -76.9391E-03    -170.959E-03    -16.1232E-03    -169.473E-03    -76.9391E-03    -19.0370E-03     467.207E-03    -232.926E-03    -234.288E-03    -233.733E-03     466.778E-03    -233.052E-03     34.5709E-03     22.0449E+06    -9.64211E+06    -52.6117E+06    -48.7297E+06    -13.5240E+06     22.0449E+06     11.7851E+06         60.8091
            1355     8.71142E-03     104.726E-03     4.22325E-03    -72.3461E-03    -194.167E-03     3.89236E-03    -193.836E-03    -72.3461E-03    -5.93444E-03     469.223E-03    -233.277E-03    -236.631E-03    -235.912E-03     468.504E-03    -233.277E-03     44.4066E-03     31.3109E+06    -8.99417E+06    -45.6523E+06    -43.4679E+06    -11.1786E+06     31.3109E+06     7.81811E+06         63.3970
            1356     9.49801E-03     104.800E-03     20.8805E-03    -67.4943E-03    -216.351E-03     20.6620E-03    -216.133E-03    -67.4943E-03    -9.98524E-03     469.330E-03    -233.672E-03    -236.257E-03    -235.166E-03     468.325E-03    -233.758E-03     53.0633E-03     38.7261E+06    -5.58835E+06    -37.6123E+06    -36.0278E+06    -7.17284E+06     38.7261E+06     5.66022E+06         66.6926
            1357     10.2942E-03     104.878E-03     36.5384E-03    -62.5565E-03    -234.855E-03     36.2348E-03    -234.551E-03    -62.5565E-03     372.479E-06     468.250E-03    -233.495E-03    -235.078E-03    -233.395E-03     467.104E-03    -234.032E-03     56.6207E-03     46.9048E+06     1.97399E+06    -30.2549E+06    -28.2985E+06     17.6666E+03     46.9048E+06     6.75492E+06         71.0441
            1358     11.0881E-03     104.965E-03     68.3946E-03    -57.0915E-03    -268.165E-03     68.0153E-03    -267.786E-03    -57.0915E-03    -5.52557E-03     468.895E-03    -233.214E-03    -235.579E-03    -233.591E-03     467.359E-03    -233.665E-03     65.3718E-03     59.1079E+06     9.88567E+06    -23.6231E+06    -22.1597E+06     8.42225E+06     59.1079E+06     5.42047E+06         76.5878
            1359     11.8792E-03     105.082E-03     109.647E-03    -50.5320E-03    -312.889E-03     109.380E-03    -312.622E-03    -50.5320E-03    -15.2536E-03     470.103E-03    -233.503E-03    -236.460E-03    -234.017E-03     467.660E-03    -233.503E-03     82.2516E-03     73.9730E+06     19.4483E+06    -19.6305E+06    -18.9499E+06     18.7677E+06     73.9730E+06     2.30732E+06         82.7685
            1360     12.6785E-03     105.225E-03     139.574E-03    -43.0348E-03    -348.488E-03     139.504E-03    -348.418E-03    -43.0348E-03    -4.24731E-03     470.070E-03    -233.613E-03    -236.174E-03    -233.144E-03     467.111E-03    -233.685E-03     91.1512E-03     89.9789E+06     31.8938E+06    -18.9155E+06    -18.0566E+06     31.0349E+06     89.9789E+06     2.49089E+06         88.3151
            1361     13.4623E-03     105.356E-03     156.741E-03    -35.2721E-03    -371.659E-03     156.575E-03    -371.493E-03    -35.2721E-03    -14.0266E-03     468.963E-03    -233.317E-03    -235.241E-03    -231.499E-03     465.590E-03    -233.686E-03     96.8159E-03     106.752E+06     48.2104E+06    -15.1620E+06    -12.6709E+06     45.7192E+06     106.752E+06     2.68004E+06         92.2728
            1362     777.971E-06     106.010E-03     192.384E-03    -193.728E-03    -252.022E-03    -191.270E-03     147.642E-03    -209.738E-03    -127.291E-03     470.639E-03    -232.795E-03    -237.906E-03    -232.710E-03     470.554E-03    -237.906E-03     8.35997E-03    -80.4388E+06    -87.0822E+06    -153.237E+06    -86.7577E+06    -152.937E+06    -81.0625E+06     1.88822E+06         55.6265
            1363     1.57859E-03     106.031E-03     123.678E-03    -179.656E-03    -197.569E-03    -169.851E-03     110.977E-03    -194.673E-03     5.54889E-03     463.466E-03    -229.586E-03    -234.097E-03    -229.524E-03     463.404E-03    -234.097E-03     8.15470E-03    -79.0097E+06    -83.8326E+06    -137.119E+06    -84.2819E+06    -136.264E+06    -79.4159E+06     5.60112E+06         55.6895
            1364     2.37937E-03     106.050E-03     83.3986E-03    -149.525E-03    -184.883E-03    -139.213E-03     69.7185E-03    -181.515E-03     10.6955E-03     462.046E-03    -229.632E-03    -232.472E-03    -229.605E-03     462.020E-03    -232.472E-03     8.09570E-03    -76.5301E+06    -83.0861E+06    -127.030E+06    -83.9561E+06    -125.013E+06    -77.6773E+06     8.25365E+06         55.7755
            1365     3.17316E-03     106.063E-03     42.8509E-03    -124.089E-03    -170.532E-03    -108.969E-03     24.5894E-03    -167.391E-03     45.5755E-03     462.568E-03    -230.608E-03    -231.910E-03    -230.637E-03     462.516E-03    -231.830E-03     11.7421E-03    -72.3332E+06    -76.6649E+06    -113.197E+06    -81.9910E+06    -107.130E+06    -73.0743E+06     12.3704E+06         55.8721
            1366     3.96556E-03     106.085E-03     14.5046E-03    -113.398E-03    -155.197E-03    -101.897E-03     3.00343E-03    -155.197E-03     13.5196E-03     462.431E-03    -230.886E-03    -231.649E-03    -230.875E-03     462.339E-03    -231.568E-03     15.8381E-03    -59.7267E+06    -63.4961E+06    -95.2259E+06    -76.5067E+06    -80.7598E+06    -61.1822E+06     15.2038E+06         55.9728
            1367     4.76201E-03     106.104E-03    -801.770E-06    -109.008E-03    -146.995E-03    -104.863E-03    -4.94667E-03    -146.995E-03     30.7578E-03     463.798E-03    -231.201E-03    -232.708E-03    -232.230E-03     463.662E-03    -231.543E-03     19.3377E-03    -36.9576E+06    -47.0249E+06    -79.9483E+06    -69.9635E+06    -48.2397E+06    -45.7277E+06     16.7973E+06         56.0947
            1368     5.55421E-03     106.134E-03    -8.19333E-03    -107.703E-03    -141.274E-03    -98.7659E-03    -17.1302E-03    -141.274E-03     9.03796E-03     466.978E-03    -231.793E-03    -235.377E-03    -235.177E-03     466.778E-03    -231.793E-03     23.6107E-03    -20.9975E+06    -29.4442E+06    -73.7170E+06    -66.5288E+06    -28.2413E+06    -29.3886E+06     17.9367E+06         56.4262
            1369     6.33907E-03     106.165E-03    -20.4932E-03    -100.340E-03    -135.980E-03    -83.2288E-03    -37.6041E-03    -135.980E-03     5.66234E-03     468.082E-03    -232.156E-03    -235.810E-03    -235.525E-03     467.797E-03    -232.156E-03     28.1991E-03    -7.40929E+06    -14.8861E+06    -66.7484E+06    -60.4337E+06    -20.1242E+06    -8.48584E+06     17.0677E+06         57.2759
            1370     7.13391E-03     106.206E-03    -33.4883E-03    -91.1503E-03    -131.160E-03    -64.1939E-03    -61.3362E-03    -130.268E-03    -9.53690E-03     467.455E-03    -232.483E-03    -234.465E-03    -234.111E-03     467.101E-03    -232.483E-03     31.4847E-03     9.38495E+06    -8.99935E+06    -58.8822E+06    -53.3916E+06    -14.4899E+06     9.38495E+06     15.5423E+06         58.7552
            1371     7.92229E-03     106.261E-03    -36.3729E-03    -83.7448E-03    -134.199E-03    -45.1822E-03    -85.0775E-03    -124.057E-03    -18.8500E-03     466.618E-03    -232.300E-03    -234.086E-03    -233.197E-03     466.164E-03    -232.734E-03     35.4651E-03     19.5261E+06    -8.13044E+06    -53.3083E+06    -48.8625E+06    -12.5762E+06     19.5261E+06     13.1431E+06         60.8173
            1372     8.71499E-03     106.320E-03    -32.2042E-03    -80.5230E-03    -141.564E-03    -34.0972E-03    -102.307E-03    -117.887E-03    -3.12177E-03     466.156E-03    -232.146E-03    -234.245E-03    -232.808E-03     465.358E-03    -232.785E-03     46.5472E-03     35.6797E+06     71.9918E+03    -43.0697E+06    -38.2344E+06    -4.76336E+06     35.6797E+06     12.8731E+06         63.4279
            1373     9.51092E-03     106.394E-03    -18.0071E-03    -92.0725E-03    -144.601E-03    -18.4283E-03    -124.261E-03    -111.991E-03    -971.280E-06     468.468E-03    -233.017E-03    -235.777E-03    -234.476E-03     467.372E-03    -233.221E-03     55.4973E-03     45.5778E+06     1.91027E+06    -39.3766E+06    -35.2038E+06    -2.26255E+06     45.5778E+06     10.9736E+06         66.7490
            1374     10.2990E-03     106.469E-03     18.0308E-03    -102.504E-03    -169.193E-03     17.9037E-03    -166.296E-03    -105.273E-03     5.90039E-03     471.149E-03    -233.751E-03    -237.812E-03    -236.619E-03     469.957E-03    -233.751E-03     58.0641E-03     47.9846E+06    -554.061E+03    -36.8243E+06    -35.0121E+06    -2.36630E+06     47.9846E+06     6.68967E+06         71.1152
            1375     11.0877E-03     106.564E-03     56.5189E-03    -97.0661E-03    -210.548E-03     56.2528E-03    -210.282E-03    -97.0661E-03     2.68808E-03     470.990E-03    -233.631E-03    -237.160E-03    -235.652E-03     469.482E-03    -233.631E-03     65.0331E-03     58.6451E+06     8.75762E+06    -26.8935E+06    -25.3537E+06     7.21784E+06     58.6451E+06     6.77618E+06         76.6653
            1376     11.8815E-03     106.673E-03     83.8611E-03    -88.1339E-03    -243.190E-03     83.5520E-03    -242.881E-03    -88.1339E-03    -13.3451E-03     468.292E-03    -233.045E-03    -234.699E-03    -232.035E-03     466.023E-03    -233.439E-03     79.1747E-03     70.3700E+06     18.7752E+06    -24.0963E+06    -22.1069E+06     16.7857E+06     70.3700E+06     8.20765E+06         82.8571
            1377     12.6745E-03     106.814E-03     110.550E-03    -79.0588E-03    -276.405E-03     110.091E-03    -275.946E-03    -79.0588E-03    -4.23387E-03     466.232E-03    -231.677E-03    -234.273E-03    -229.426E-03     463.164E-03    -233.455E-03     92.1570E-03     90.8811E+06     36.4058E+06    -18.9047E+06    -16.8547E+06     34.3558E+06     90.8811E+06     5.30185E+06         88.4174
            1378     13.4771E-03     106.960E-03     138.244E-03    -69.7803E-03    -311.329E-03     137.745E-03    -310.829E-03    -69.7803E-03    -8.24589E-03     467.708E-03    -231.702E-03    -235.914E-03    -230.545E-03     464.020E-03    -233.383E-03     101.210E-03     114.973E+06     55.1558E+06    -11.0511E+06    -9.44980E+06     53.5545E+06     114.973E+06    -2.21011E+06         92.3813
            1379     797.250E-06     107.613E-03     166.869E-03    -137.888E-03    -277.181E-03    -193.156E-03     82.8439E-03    -137.888E-03    -127.419E-03     467.058E-03    -230.970E-03    -236.020E-03    -232.482E-03     466.973E-03    -234.424E-03     12.4525E-03    -84.7078E+06    -92.8210E+06    -162.127E+06    -91.1829E+06    -161.745E+06    -86.7282E+06     4.43369E+06         55.5528
            1380     1.58500E-03     107.622E-03     134.577E-03    -169.842E-03    -209.138E-03    -189.327E-03     114.766E-03    -169.842E-03     62.4943E-03     465.042E-03    -230.401E-03    -234.731E-03    -231.965E-03     464.973E-03    -233.099E-03     12.1779E-03    -81.2398E+06    -86.1783E+06    -149.311E+06     -86.776E+06    -148.264E+06    -81.6886E+06     7.06721E+06         55.6154
            1381     2.37698E-03     107.632E-03     150.371E-03    -178.775E-03    -216.910E-03    -205.111E-03     138.572E-03    -178.775E-03     19.3494E-03     462.169E-03    -229.587E-03    -232.634E-03    -229.763E-03     462.133E-03    -232.422E-03     9.89632E-03    -77.7403E+06    -85.6003E+06    -137.973E+06    -86.9745E+06    -136.150E+06    -78.1891E+06     9.31959E+06         55.7012
            1382     3.17357E-03     107.651E-03     154.980E-03    -176.216E-03    -224.823E-03    -204.950E-03     144.454E-03    -185.564E-03     51.0347E-03     461.068E-03    -229.366E-03    -231.740E-03    -229.312E-03     461.015E-03    -231.740E-03     11.8680E-03    -72.4317E+06    -81.6362E+06    -123.862E+06    -85.4721E+06    -120.026E+06    -72.4317E+06     11.4265E+06         55.8008
            1383     3.97017E-03     107.669E-03     134.847E-03    -173.970E-03    -209.201E-03    -191.155E-03     131.355E-03    -188.523E-03     8.86521E-03     461.840E-03    -230.131E-03    -231.744E-03    -230.449E-03     461.764E-03    -231.351E-03     14.3204E-03    -57.2194E+06    -65.3835E+06    -101.377E+06    -76.6325E+06    -90.1284E+06    -57.2194E+06     15.0734E+06         55.9089
            1384     4.76268E-03     107.693E-03     106.012E-03    -164.553E-03    -190.731E-03    -165.564E-03     103.799E-03    -187.506E-03     15.7222E-03     463.646E-03    -231.033E-03    -232.512E-03    -232.115E-03     463.537E-03    -231.322E-03     17.2445E-03    -42.6010E+06    -49.1443E+06    -87.7876E+06    -75.3114E+06    -58.6133E+06    -45.6083E+06     17.2549E+06         56.0404
            1385     5.55425E-03     107.730E-03     72.9138E-03    -139.282E-03    -183.183E-03    -138.179E-03     71.8117E-03    -183.183E-03    -7.76029E-03     464.626E-03    -231.393E-03    -233.398E-03    -233.176E-03     464.458E-03    -231.447E-03     21.4063E-03    -25.9554E+06    -31.4700E+06    -78.4538E+06    -71.5174E+06    -32.8918E+06    -31.4700E+06     17.5745E+06         56.3862
            1386     6.34915E-03     107.763E-03     40.0746E-03    -112.887E-03    -176.728E-03    -111.891E-03     39.0778E-03    -176.728E-03    -6.15651E-03     466.616E-03    -231.578E-03    -234.971E-03    -234.638E-03     466.338E-03    -231.632E-03     27.5779E-03    -12.8479E+06    -17.3691E+06    -68.8535E+06    -63.1190E+06    -20.5962E+06    -15.3552E+06     16.6020E+06         57.2551
            1387     7.13393E-03     107.806E-03     9.73278E-03    -89.3488E-03    -168.984E-03    -86.0965E-03     6.48051E-03    -168.984E-03    -13.6714E-03     467.859E-03    -231.967E-03    -235.478E-03    -235.073E-03     467.454E-03    -231.967E-03     33.6706E-03    -468.004E+03    -10.8540E+06    -61.8751E+06    -56.9886E+06    -15.7405E+06    -468.004E+03     14.9915E+06         58.7518
            1388     7.92673E-03     107.855E-03    -10.3800E-03    -76.1185E-03    -160.884E-03    -71.0406E-03    -15.4579E-03    -160.884E-03    -5.43695E-03     466.064E-03    -231.853E-03    -233.940E-03    -233.010E-03     465.568E-03    -232.287E-03     37.1684E-03     18.2767E+06    -6.86697E+06    -53.4088E+06    -50.0631E+06    -10.2126E+06     18.2767E+06     11.8586E+06         60.8293
            1389     8.72178E-03     107.907E-03    -26.9420E-03    -67.3867E-03    -153.015E-03    -53.5080E-03    -40.8208E-03    -153.015E-03     2.82220E-03     465.302E-03    -231.738E-03    -233.801E-03    -232.436E-03     464.576E-03    -232.377E-03     44.5394E-03     32.5424E+06    -2.94794E+06    -47.7314E+06    -44.0998E+06    -6.57959E+06     32.5424E+06     10.0325E+06         63.4556
            1390     9.51440E-03     107.991E-03    -17.4417E-03    -85.2043E-03    -144.595E-03    -19.6008E-03    -83.0452E-03    -144.595E-03    -7.01823E-03     467.523E-03    -232.452E-03    -235.162E-03    -234.026E-03     466.591E-03    -232.657E-03     51.0300E-03     44.7676E+06     3.41576E+06    -41.1987E+06    -36.5666E+06    -1.21632E+06     44.7676E+06     11.6793E+06         66.7914
            1391     10.3039E-03     108.078E-03     11.8451E-03    -109.268E-03    -149.204E-03     11.6219E-03    -123.183E-03    -135.065E-03    -5.41569E-03     469.373E-03    -233.175E-03    -236.326E-03    -235.119E-03     468.166E-03    -233.175E-03     57.8983E-03     53.2099E+06     5.31978E+06    -38.2558E+06    -33.9512E+06     1.01523E+06     53.2099E+06     11.9807E+06         71.1743
            1392     11.0917E-03     108.164E-03     35.0343E-03    -115.839E-03    -164.896E-03     34.7925E-03    -155.435E-03    -125.058E-03    -2.57467E-03     469.761E-03    -233.206E-03    -236.587E-03    -234.805E-03     467.980E-03    -233.206E-03     70.3230E-03     57.6787E+06     6.67306E+06    -34.7822E+06    -32.1937E+06     4.08451E+06     57.6787E+06     8.07535E+06         76.7409
            1393     11.8822E-03     108.264E-03     59.5506E-03    -115.031E-03    -186.653E-03     59.2325E-03    -186.335E-03    -115.031E-03    -11.3590E-03     467.183E-03    -232.200E-03    -234.673E-03    -231.317E-03     464.662E-03    -233.034E-03     83.4122E-03     70.5348E+06     20.6028E+06    -23.7919E+06    -22.3804E+06     19.1913E+06     70.5348E+06     5.65668E+06         82.9437
            1394     12.6850E-03     108.393E-03     86.6812E-03    -104.891E-03    -220.177E-03     86.1296E-03    -219.625E-03    -104.891E-03    -486.600E-06     464.550E-03    -230.710E-03    -233.743E-03    -228.159E-03     461.185E-03    -232.928E-03     96.3742E-03     89.8099E+06     37.2022E+06    -20.0087E+06    -18.6242E+06     35.8177E+06     89.8099E+06    -26.3932E+03         88.5109
            1395     13.4861E-03     108.527E-03     120.775E-03    -94.3634E-03    -263.588E-03     120.251E-03    -263.064E-03    -94.3634E-03    -2.75817E-03     468.733E-03    -231.500E-03    -237.398E-03    -232.161E-03     464.880E-03    -232.884E-03     103.903E-03     121.343E+06     59.8035E+06    -9.20052E+06    -8.15548E+06     58.7584E+06     121.343E+06     583.969E+03         92.4754
            1396     795.604E-06     109.207E-03     178.993E-03    -142.591E-03    -276.907E-03    -209.913E-03     111.999E-03    -142.591E-03    -131.862E-03     464.621E-03    -230.229E-03    -234.059E-03    -231.818E-03     464.614E-03    -232.463E-03    -365.020E-06    -86.7875E+06    -93.2702E+06    -172.360E+06    -87.9077E+06    -172.175E+06    -92.3349E+06     1.33394E+06         55.5113
            1397     1.58755E-03     109.218E-03     172.841E-03    -184.043E-03    -228.436E-03    -213.715E-03     158.120E-03    -184.043E-03     18.4898E-03     464.050E-03    -230.094E-03    -233.668E-03    -231.714E-03     464.038E-03    -232.037E-03     2.70022E-03    -85.8720E+06    -89.2704E+06    -161.366E+06    -88.5043E+06    -161.108E+06    -86.8956E+06     3.36518E+06         55.5716
            1398     2.38041E-03     109.222E-03     201.658E-03    -198.291E-03    -241.712E-03    -237.343E-03     197.289E-03    -198.291E-03    -42.7606E-03     462.357E-03    -230.359E-03    -232.044E-03    -230.541E-03     462.327E-03    -231.831E-03     8.03301E-03    -78.9077E+06    -84.6409E+06    -147.658E+06    -85.2960E+06    -146.554E+06    -79.3564E+06     7.05007E+06         55.6579
            1399     3.17445E-03     109.235E-03     213.939E-03    -206.413E-03    -248.125E-03    -243.361E-03     212.233E-03    -209.471E-03    -20.8960E-03     461.909E-03    -230.235E-03    -231.850E-03    -230.430E-03     461.857E-03    -231.603E-03     11.9931E-03    -68.7794E+06    -80.4987E+06    -129.845E+06    -82.6618E+06    -127.682E+06    -68.7794E+06     9.32897E+06         55.7556
            1400     3.96851E-03     109.256E-03     198.126E-03    -205.603E-03    -235.778E-03    -224.779E-03     196.624E-03    -215.101E-03    -36.1156E-03     462.815E-03    -230.902E-03    -232.142E-03    -231.472E-03     462.736E-03    -231.493E-03     14.5241E-03    -58.9479E+06    -73.0410E+06    -110.550E+06    -79.3267E+06    -104.264E+06    -58.9479E+06     11.8792E+06         55.8639
            1401     4.76052E-03     109.290E-03     163.177E-03    -188.402E-03    -217.734E-03    -191.476E-03     163.026E-03    -214.509E-03    -4.05119E-03     463.803E-03    -231.540E-03    -232.220E-03    -232.079E-03     463.689E-03    -231.567E-03     17.6596E-03    -46.1344E+06    -53.2340E+06    -92.8083E+06    -73.4580E+06    -71.7035E+06    -47.0152E+06     17.6826E+06         56.0008
            1402     5.55402E-03     109.314E-03     125.055E-03    -159.435E-03    -209.335E-03    -159.087E-03     124.707E-03    -209.335E-03    -5.52535E-03     463.253E-03    -231.506E-03    -231.920E-03    -231.680E-03     463.094E-03    -231.587E-03     20.8449E-03    -24.3631E+06    -30.9616E+06    -79.4854E+06    -67.6737E+06    -36.1748E+06    -30.9616E+06     21.4886E+06         56.3541
            1403     6.34668E-03     109.354E-03     94.8494E-03    -136.553E-03    -202.015E-03    -136.143E-03     94.4395E-03    -202.015E-03     6.41274E-03     463.618E-03    -231.187E-03    -232.625E-03    -232.045E-03     463.341E-03    -231.489E-03     27.3682E-03    -10.3616E+06    -17.3976E+06    -72.4445E+06    -64.6286E+06    -19.4959E+06    -16.0792E+06     20.2269E+06         57.2349
            1404     7.14317E-03     109.404E-03     72.4991E-03    -120.306E-03    -194.235E-03    -119.371E-03     71.5639E-03    -194.235E-03    -8.46458E-03     464.805E-03    -231.258E-03    -233.468E-03    -232.828E-03     464.412E-03    -231.507E-03     33.0095E-03    -1.92884E+06    -9.97846E+06    -65.3494E+06    -60.0623E+06    -15.2655E+06    -1.92884E+06     16.0155E+06         58.7488
            1405     7.93325E-03     109.446E-03     36.1316E-03    -91.4681E-03    -185.871E-03    -90.3246E-03     34.9881E-03    -185.871E-03    -8.83612E-03     466.229E-03    -231.724E-03    -234.354E-03    -233.841E-03     465.717E-03    -231.724E-03     37.5986E-03     17.5643E+06    -3.91554E+06    -55.3207E+06    -51.1993E+06    -8.03700E+06     17.5643E+06     13.7354E+06         60.8412
            1406     8.72162E-03     109.495E-03    -592.082E-06    -65.1338E-03    -176.091E-03    -51.1506E-03    -14.5752E-03    -176.091E-03    -13.9919E-03     467.875E-03    -232.009E-03    -236.167E-03    -235.343E-03     467.050E-03    -232.009E-03     47.4194E-03     31.2825E+06    -2.79237E+06     -52.737E+06    -48.7742E+06    -6.75513E+06     31.2825E+06     11.9133E+06         63.4738
            1407     9.50914E-03     109.588E-03    -11.0305E-03    -65.1537E-03    -165.205E-03    -21.5830E-03    -54.6012E-03    -165.205E-03    -23.8199E-03     467.115E-03    -232.240E-03    -234.965E-03    -233.979E-03     466.129E-03    -232.240E-03     52.3387E-03     40.4628E+06    -2.15012E+06    -47.6133E+06    -44.7387E+06    -5.02473E+06     40.4628E+06     9.03417E+06         66.8135
            1408     10.3066E-03     109.663E-03    -1.16615E-03    -83.4030E-03    -154.130E-03    -1.65843E-03    -82.9107E-03    -154.130E-03    -11.5831E-03     464.914E-03    -231.788E-03    -233.021E-03    -230.993E-03     463.730E-03    -232.632E-03     56.9750E-03     50.4086E+06     5.05872E+06    -37.2418E+06    -34.0116E+06     1.82857E+06     50.4086E+06     8.54240E+06         71.2123
            1409     11.1076E-03     109.761E-03     22.4791E-03    -112.507E-03    -147.051E-03     22.0553E-03    -116.013E-03    -143.121E-03    -11.6002E-03     464.438E-03    -231.028E-03    -233.828E-03    -230.511E-03     462.726E-03    -232.634E-03     68.3994E-03     63.8331E+06     16.3096E+06    -26.8980E+06    -23.7761E+06     13.1877E+06     63.8331E+06     8.38211E+06         76.8085
            1410     11.9019E-03     109.856E-03     54.5258E-03    -127.089E-03    -162.423E-03     54.3723E-03    -157.583E-03    -131.776E-03    -8.56396E-03     465.061E-03    -231.195E-03    -234.142E-03    -230.705E-03     462.824E-03    -232.396E-03     78.1987E-03     76.9541E+06     25.4878E+06    -23.4731E+06    -22.0023E+06     24.0170E+06     76.9541E+06     6.37079E+06         83.0309
            1411     12.6954E-03     109.974E-03     88.7604E-03    -119.837E-03    -201.740E-03     88.3754E-03    -201.355E-03    -119.837E-03     5.11347E-03     467.705E-03    -231.911E-03    -235.808E-03    -232.172E-03     464.508E-03    -232.350E-03     93.7979E-03     97.7103E+06     41.9936E+06    -17.5155E+06    -16.8055E+06     41.2836E+06     97.7103E+06     2.60676E+06         88.5928
            1412     13.4858E-03     110.142E-03     123.038E-03    -107.312E-03    -247.211E-03     122.527E-03    -246.700E-03    -107.312E-03    -3.30612E-03     469.527E-03    -232.369E-03    -237.578E-03    -233.533E-03     465.482E-03    -232.369E-03     106.633E-03     123.315E+06     62.6951E+06    -8.67505E+06    -7.73318E+06     61.7532E+06     123.315E+06     2.99316E+06         92.5509
            1413     784.317E-06     110.801E-03     340.225E-03    -236.885E-03    -337.806E-03    -296.961E-03     306.594E-03    -244.099E-03    -124.585E-03     465.853E-03    -231.064E-03    -234.398E-03    -231.537E-03     465.826E-03    -233.898E-03     3.52947E-03    -87.2939E+06    -95.3832E+06    -180.284E+06    -91.9908E+06    -180.149E+06    -90.8208E+06     473.001E+03         55.4862
            1414     1.58333E-03     110.804E-03     274.857E-03    -237.692E-03    -272.536E-03    -238.446E-03     267.619E-03    -264.543E-03     22.4364E-03     461.828E-03    -229.240E-03    -232.044E-03    -229.212E-03     461.800E-03    -232.044E-03     4.95737E-03    -87.7348E+06    -93.1581E+06    -170.383E+06    -92.8769E+06    -170.089E+06    -88.3096E+06     4.05191E+06         55.5620
            1415     2.38153E-03     110.810E-03     232.018E-03    -207.730E-03    -260.506E-03    -213.163E-03     228.797E-03    -251.852E-03    -28.1547E-03     462.240E-03    -230.290E-03    -231.831E-03    -230.760E-03     462.208E-03    -231.328E-03     8.40455E-03    -79.4316E+06    -87.0852E+06    -156.432E+06    -87.7112E+06    -155.806E+06    -79.4316E+06     6.06986E+06         55.6589
            1416     3.17567E-03     110.827E-03     200.476E-03    -194.299E-03    -242.619E-03    -195.580E-03     199.221E-03    -240.083E-03     1.87711E-03     463.809E-03    -231.376E-03    -232.482E-03    -232.353E-03     463.761E-03    -231.457E-03     11.5499E-03    -68.5052E+06    -79.3467E+06    -136.754E+06    -80.5610E+06    -135.539E+06    -68.5052E+06     8.03778E+06         55.7475
            1417     3.96734E-03     110.846E-03     184.929E-03    -192.429E-03    -230.744E-03    -191.640E-03     184.140E-03    -230.744E-03    -22.2048E-03     463.577E-03    -231.579E-03    -232.170E-03    -232.028E-03     463.494E-03    -231.639E-03     14.9249E-03    -62.4038E+06    -77.6540E+06    -120.755E+06    -80.6176E+06    -117.792E+06    -62.4038E+06     10.2354E+06         55.8302
            1418     4.76224E-03     110.877E-03     173.666E-03    -189.194E-03    -223.960E-03    -189.029E-03     173.501E-03    -223.960E-03    -3.20797E-03     463.071E-03    -231.394E-03    -231.706E-03    -231.290E-03     462.957E-03    -231.697E-03     17.6968E-03    -48.6053E+06    -63.2282E+06    -98.2909E+06    -74.0433E+06    -87.1554E+06    -48.9258E+06     14.4300E+06         55.9516
            1419     5.55540E-03     110.908E-03     157.666E-03    -178.110E-03    -218.168E-03    -177.384E-03     156.939E-03    -218.168E-03    -20.3186E-03     462.901E-03    -231.320E-03    -231.758E-03    -231.246E-03     462.745E-03    -231.676E-03     20.6257E-03    -28.8933E+06    -39.0225E+06    -79.4018E+06    -66.2830E+06    -47.5340E+06    -33.5006E+06     18.8494E+06         56.3110
            1420     6.34962E-03     110.944E-03     131.996E-03    -159.372E-03    -211.949E-03    -157.787E-03     130.411E-03    -211.949E-03    -898.030E-06     461.945E-03    -230.659E-03    -231.628E-03    -230.486E-03     461.690E-03    -231.547E-03     26.3214E-03    -11.3346E+06    -18.7157E+06    -72.1583E+06    -63.4972E+06    -21.1443E+06    -17.5671E+06     20.9387E+06         57.2073
            1421     7.14271E-03     110.994E-03     97.6526E-03    -132.414E-03    -204.534E-03    -130.531E-03     95.7698E-03    -204.534E-03    -62.3297E-06     461.758E-03    -230.333E-03    -231.582E-03    -230.246E-03     461.397E-03    -231.307E-03     31.4987E-03     3.91223E+06    -4.99488E+06    -65.5907E+06    -58.4090E+06    -10.2310E+06     1.96656E+06     19.5975E+06         58.7382
            1422     7.93829E-03     111.046E-03     54.3729E-03    -96.3618E-03    -195.444E-03    -95.2635E-03     53.2746E-03    -195.444E-03    -16.4601E-03     464.404E-03    -231.007E-03    -233.148E-03    -232.398E-03     463.854E-03    -231.207E-03     38.7805E-03     13.6725E+06    -3.52374E+06    -60.8936E+06    -55.0728E+06    -9.34460E+06     13.6725E+06     16.9988E+06         60.8478
            1423     8.72879E-03     111.101E-03     20.7311E-03    -72.9781E-03    -185.121E-03    -66.8529E-03     14.6059E-03    -185.121E-03    -18.0363E-03     465.711E-03    -231.249E-03    -234.334E-03    -233.268E-03     464.724E-03    -231.328E-03     51.9249E-03     29.8667E+06     2.18327E+06    -52.7746E+06    -46.8435E+06    -3.74781E+06     29.8667E+06     17.0114E+06         63.4970
            1424     9.52133E-03     111.190E-03    -3.24783E-03    -58.6222E-03    -174.274E-03    -39.5177E-03    -22.3524E-03    -174.274E-03    -29.8919E-03     465.219E-03    -231.316E-03    -233.872E-03    -232.524E-03     463.951E-03    -231.395E-03     59.3575E-03     44.6773E+06     5.98246E+06    -46.2045E+06    -40.6545E+06     432.495E+03     44.6773E+06     15.0461E+06         66.8520
            1425     10.3106E-03     111.252E-03     1.48193E-03    -71.5457E-03    -162.568E-03    -404.709E-06    -69.6591E-03    -162.568E-03    -11.4693E-03     466.120E-03    -230.992E-03    -234.855E-03    -232.524E-03     464.633E-03    -231.836E-03     63.8526E-03     53.4252E+06     7.54480E+06    -38.5312E+06    -35.3451E+06     4.35865E+06     53.4252E+06     9.04297E+06         71.2572
            1426     11.1039E-03     111.345E-03     32.6026E-03    -114.346E-03    -149.892E-03     32.2492E-03    -113.992E-03    -149.892E-03     917.154E-06     464.975E-03    -230.559E-03    -234.767E-03    -231.534E-03     463.347E-03    -232.164E-03     67.0562E-03     61.7547E+06     13.9292E+06    -30.7287E+06    -28.9096E+06     12.1102E+06     61.7547E+06     6.77114E+06         76.8499
            1427     11.9051E-03     111.449E-03     61.4307E-03    -131.456E-03    -160.414E-03     61.2626E-03    -154.980E-03    -136.722E-03     517.161E-06     464.574E-03    -231.288E-03    -233.649E-03    -231.066E-03     462.753E-03    -232.050E-03     70.9555E-03     78.0631E+06     27.7831E+06    -22.7303E+06    -20.9060E+06     25.9588E+06     78.0631E+06     8.66437E+06         83.0728
            1428     12.6986E-03     111.576E-03     96.2866E-03    -123.068E-03    -202.552E-03     95.9522E-03    -202.217E-03    -123.068E-03     10.1647E-03     466.990E-03    -232.032E-03    -235.502E-03    -232.510E-03     463.998E-03    -232.032E-03     90.4330E-03     104.467E+06     49.2198E+06    -14.5456E+06    -12.8948E+06     47.5690E+06     104.467E+06     9.65638E+06         88.6466
            1429     13.4941E-03     111.724E-03     128.595E-03    -108.910E-03    -248.851E-03     128.075E-03    -248.330E-03    -108.910E-03     349.613E-06     466.149E-03    -231.905E-03    -235.053E-03    -231.064E-03     462.160E-03    -231.905E-03     105.452E-03     124.593E+06     65.6604E+06    -12.3271E+06    -10.6751E+06     64.0083E+06     124.593E+06     -177.62E+03         92.6229
            1430     800.439E-06     112.392E-03     370.593E-03    -253.155E-03    -352.392E-03    -331.970E-03     357.385E-03    -260.369E-03    -69.1649E-03     458.771E-03    -227.264E-03    -231.393E-03    -230.769E-03     458.747E-03    -227.864E-03     4.81779E-03    -90.7443E+06    -98.2319E+06    -188.263E+06    -96.7739E+06    -188.032E+06    -92.4335E+06     3.97669E+06         55.4712
            1431     1.59186E-03     112.383E-03     305.098E-03    -252.189E-03    -288.683E-03    -249.590E-03     300.513E-03    -286.696E-03     2.17812E-03     461.984E-03    -228.950E-03    -232.798E-03    -231.906E-03     461.954E-03    -229.812E-03     7.51989E-03    -89.1829E+06    -95.3006E+06    -178.685E+06    -95.6632E+06    -178.323E+06    -89.1829E+06     5.08436E+06         55.5666
            1432     2.38319E-03     112.402E-03     234.311E-03    -204.632E-03    -266.638E-03    -202.917E-03     232.596E-03    -266.638E-03    -24.6773E-03     464.006E-03    -230.514E-03    -233.324E-03    -233.019E-03     463.963E-03    -230.776E-03     10.6786E-03    -80.5777E+06    -88.5115E+06    -163.934E+06    -89.0846E+06    -163.361E+06    -80.5777E+06     6.05461E+06         55.6720
            1433     3.17357E-03     112.416E-03     188.704E-03    -175.725E-03    -246.848E-03    -174.208E-03     187.188E-03    -246.848E-03    -15.7062E-03     465.119E-03    -231.465E-03    -233.557E-03    -233.508E-03     465.070E-03    -231.465E-03     11.6882E-03    -71.0170E+06    -83.0387E+06    -147.005E+06    -84.5072E+06    -145.537E+06    -71.0170E+06     9.00879E+06         55.7528
            1434     3.96731E-03     112.439E-03     163.432E-03    -168.174E-03    -231.327E-03    -167.325E-03     162.583E-03    -231.327E-03    -17.8114E-03     464.783E-03    -231.815E-03    -232.838E-03    -232.716E-03     464.720E-03    -231.875E-03     13.1486E-03    -62.1700E+06    -79.9992E+06    -128.958E+06    -83.0995E+06    -125.858E+06    -62.1700E+06     11.5382E+06         55.8018
            1435     4.75933E-03     112.464E-03     155.900E-03    -170.726E-03    -220.639E-03    -170.302E-03     155.476E-03    -220.639E-03     5.22149E-03     463.476E-03    -231.230E-03    -232.090E-03    -231.280E-03     463.394E-03    -231.958E-03     15.0137E-03    -49.9648E+06    -71.4415E+06    -105.354E+06    -78.4670E+06    -98.3285E+06    -49.9648E+06     12.5537E+06         55.8888
            1436     5.55436E-03     112.498E-03     147.114E-03    -169.563E-03    -213.064E-03    -168.645E-03     146.196E-03    -213.064E-03    -1.58359E-03     461.482E-03    -229.852E-03    -231.773E-03    -229.725E-03     461.355E-03    -231.773E-03     18.3713E-03    -37.5061E+06    -50.9087E+06    -85.7987E+06    -72.9478E+06    -63.7596E+06    -37.5061E+06     15.1322E+06         56.2536
            1437     6.34799E-03     112.535E-03     124.264E-03    -155.046E-03    -206.256E-03    -153.481E-03     122.699E-03    -206.256E-03     10.6937E-03     460.362E-03    -229.111E-03    -231.506E-03    -228.875E-03     460.127E-03    -231.506E-03     25.2103E-03    -19.2059E+06    -27.0551E+06    -74.3977E+06    -66.4909E+06    -29.5332E+06    -24.6345E+06     18.5098E+06         57.1743
            1438     7.14540E-03     112.573E-03     86.8593E-03    -125.431E-03    -198.357E-03    -123.504E-03     84.9327E-03    -198.357E-03    -588.175E-06     460.779E-03    -229.826E-03    -231.197E-03    -229.470E-03     460.395E-03    -231.169E-03     32.3817E-03    -1.11849E+06    -8.64033E+06    -67.0228E+06    -59.3264E+06    -10.3325E+06    -7.12274E+06     20.8404E+06         58.7235
            1439     7.93967E-03     112.633E-03     54.6469E-03    -100.884E-03    -189.240E-03    -99.7745E-03     53.5374E-03    -189.240E-03    -19.3911E-03     461.247E-03    -230.161E-03    -231.181E-03    -229.931E-03     460.718E-03    -230.882E-03     38.1425E-03     11.3288E+06    -854.441E+03    -63.4131E+06    -56.1732E+06    -7.51881E+06     10.7532E+06     20.0284E+06         60.8505
            1440     8.73626E-03     112.697E-03     22.5160E-03    -77.4208E-03    -179.529E-03    -75.8322E-03     20.9275E-03    -179.529E-03    -12.2316E-03     460.297E-03    -229.320E-03    -230.928E-03    -228.805E-03     459.510E-03    -230.656E-03     45.9026E-03     23.9030E+06    -676.557E+03    -57.5609E+06    -52.3372E+06    -5.90029E+06     23.9030E+06     16.2525E+06         63.5207
            1441     9.53420E-03     112.769E-03    -4.88028E-03    -58.9811E-03    -168.729E-03    -37.8233E-03    -26.0380E-03    -168.729E-03    -19.4719E-03     460.336E-03    -229.014E-03    -231.253E-03    -228.822E-03     459.260E-03    -230.369E-03     53.8859E-03     42.8409E+06     9.16388E+06    -44.0382E+06    -39.1944E+06     4.32008E+06     42.8409E+06     14.6231E+06         66.8996
            1442     10.3314E-03     112.849E-03     1.96461E-03    -76.1562E-03    -156.519E-03    -48.2098E-06    -74.1433E-03    -156.519E-03     457.303E-06     464.781E-03    -230.096E-03    -234.302E-03    -232.217E-03     463.235E-03    -230.635E-03     64.8647E-03     58.7867E+06     15.4534E+06    -36.4078E+06    -31.4087E+06     10.4543E+06     58.7867E+06     14.6749E+06         71.3223
            1443     11.1185E-03     112.938E-03     35.0122E-03    -116.392E-03    -149.065E-03     34.3813E-03    -121.441E-03    -143.386E-03     8.23742E-03     468.025E-03    -231.177E-03    -237.070E-03    -235.188E-03     466.143E-03    -231.177E-03     72.6314E-03     65.5955E+06     15.9385E+06    -35.4895E+06    -32.1547E+06     12.6038E+06     65.5955E+06     11.6223E+06         76.9103
            1444     11.9036E-03     113.034E-03     71.5358E-03    -128.969E-03    -172.318E-03     71.1742E-03    -171.378E-03    -129.547E-03    -8.42124E-03     467.264E-03    -231.437E-03    -236.295E-03    -234.080E-03     465.048E-03    -231.437E-03     78.4111E-03     79.0472E+06     27.5566E+06    -27.4196E+06    -25.8256E+06     25.9627E+06     79.0472E+06     8.35092E+06         83.1214
            1445     12.7023E-03     113.161E-03     102.761E-03    -115.075E-03    -216.789E-03     102.414E-03    -216.443E-03    -115.075E-03     2.58153E-03     465.658E-03    -231.656E-03    -234.568E-03    -231.311E-03     462.401E-03    -231.656E-03     94.6564E-03     102.308E+06     49.5403E+06    -16.5793E+06    -15.3342E+06     48.2953E+06     102.308E+06     7.63174E+06         88.7082
            1446     13.5001E-03     113.302E-03     129.051E-03    -100.316E-03    -256.343E-03     128.706E-03    -255.998E-03    -100.316E-03     495.273E-06     463.370E-03    -231.167E-03    -232.751E-03    -228.524E-03     459.518E-03    -231.541E-03     103.222E-03     130.394E+06     74.1313E+06    -6.86970E+06    -5.31765E+06     72.5793E+06     130.394E+06    -1.40756E+06         92.7093
            1447     799.178E-06     113.965E-03     233.765E-03    -204.300E-03    -266.684E-03    -239.453E-03     227.914E-03    -225.680E-03    -41.1453E-03     456.032E-03    -226.016E-03    -230.046E-03    -229.813E-03     456.028E-03    -226.245E-03     1.12453E-03    -96.1787E+06    -99.2437E+06    -197.060E+06    -97.7539E+06    -196.860E+06    -97.8679E+06     3.83317E+06         55.4650
            1448     1.59185E-03     113.975E-03     227.186E-03    -224.259E-03    -243.774E-03    -231.361E-03     222.428E-03    -231.914E-03    -69.5352E-03     462.839E-03    -229.065E-03    -233.706E-03    -233.700E-03     462.833E-03    -229.065E-03     2.53750E-03    -91.2381E+06    -94.5771E+06    -185.112E+06    -94.7310E+06    -184.958E+06    -91.2381E+06     3.10576E+06         55.5564
            1449     2.38260E-03     113.988E-03     207.055E-03    -210.223E-03    -233.225E-03    -213.948E-03     206.288E-03    -228.733E-03    -34.2482E-03     465.220E-03    -230.811E-03    -234.344E-03    -234.319E-03     465.194E-03    -230.811E-03     7.30206E-03    -84.6536E+06    -91.7314E+06    -172.997E+06    -92.1357E+06    -172.593E+06    -84.6536E+06     5.28668E+06         55.6582
            1450     3.17536E-03     114.013E-03     178.776E-03    -191.529E-03    -221.649E-03    -189.638E-03     176.885E-03    -221.649E-03    -19.7375E-03     465.728E-03    -231.668E-03    -234.178E-03    -234.142E-03     465.692E-03    -231.668E-03     9.47973E-03    -75.7337E+06    -88.8211E+06    -157.093E+06    -90.0107E+06    -155.903E+06    -75.7337E+06     8.38032E+06         55.7382
            1451     3.96485E-03     114.031E-03     149.359E-03    -171.214E-03    -212.772E-03    -169.048E-03     147.194E-03    -212.772E-03     22.1455E-03     465.560E-03    -232.066E-03    -233.408E-03    -233.301E-03     465.518E-03    -232.130E-03     10.5706E-03    -64.0201E+06    -82.9182E+06    -135.908E+06    -85.3908E+06    -133.436E+06    -64.0201E+06     10.6983E+06         55.7717
            1452     4.75773E-03     114.057E-03     125.553E-03    -155.333E-03    -203.847E-03    -154.219E-03     124.439E-03    -203.847E-03     31.7977E-03     463.139E-03    -230.496E-03    -232.395E-03    -230.563E-03     463.075E-03    -232.263E-03     13.2270E-03    -52.5151E+06    -74.9924E+06    -113.855E+06    -81.7324E+06    -107.115E+06    -52.5151E+06     13.3396E+06         55.8362
            1453     5.55129E-03     114.082E-03     103.079E-03    -141.706E-03    -195.334E-03    -140.021E-03     101.393E-03    -195.334E-03     1.93064E-03     459.848E-03    -227.916E-03    -232.027E-03    -227.791E-03     459.723E-03    -232.027E-03     18.0649E-03    -40.0546E+06    -57.9935E+06    -94.6477E+06    -77.5406E+06    -75.1006E+06    -40.0546E+06     16.5996E+06         56.2045
            1454     6.35174E-03     114.114E-03     82.4986E-03    -130.307E-03    -187.188E-03    -128.623E-03     80.8140E-03    -187.188E-03    -8.79560E-03     459.001E-03    -227.858E-03    -231.555E-03    -227.607E-03     458.751E-03    -231.555E-03     25.9630E-03    -23.1379E+06    -34.9766E+06    -82.5394E+06    -73.5465E+06    -38.4122E+06    -28.6951E+06     18.8134E+06         57.1465
            1455     7.14621E-03     114.162E-03     61.7844E-03    -116.576E-03    -179.175E-03    -113.371E-03     58.5798E-03    -179.175E-03    -26.9861E-03     460.107E-03    -229.326E-03    -231.114E-03    -228.941E-03     459.694E-03    -231.086E-03     33.5319E-03    -9.77836E+06    -16.2760E+06    -74.0708E+06    -67.8132E+06    -16.0360E+06    -16.2760E+06     19.0239E+06         58.7149
            1456     7.94092E-03     114.222E-03     24.7991E-03    -87.9158E-03    -170.296E-03    -83.0450E-03     19.9283E-03    -170.296E-03    -27.6015E-03     459.955E-03    -229.236E-03    -230.753E-03    -228.730E-03     459.421E-03    -230.726E-03     38.2983E-03     3.46466E+06    -2.26917E+06    -63.4774E+06    -57.5059E+06    -7.30021E+06     2.52425E+06     18.2314E+06         60.8591
            1457     8.73628E-03     114.278E-03    -9.27334E-03    -64.1064E-03    -159.796E-03    -47.7044E-03    -25.6753E-03    -159.796E-03    -14.8388E-03     458.392E-03    -228.138E-03    -230.349E-03    -227.451E-03     457.705E-03    -230.349E-03     43.1653E-03     20.9198E+06     1.74708E+06    -56.7043E+06    -52.1459E+06    -2.81137E+06     20.9198E+06     15.4771E+06         63.5455
            1458     9.53295E-03     114.352E-03    -15.8141E-03    -67.3297E-03    -148.262E-03    -23.3089E-03    -59.8349E-03    -148.262E-03    -17.9658E-03     458.370E-03    -228.342E-03    -230.156E-03    -227.526E-03     457.471E-03    -230.073E-03     49.4987E-03     40.0319E+06     6.73677E+06    -47.6187E+06    -44.7596E+06     3.87772E+06     40.0319E+06     12.0818E+06         66.9390
            1459     10.3298E-03     114.431E-03     35.4928E-06    -89.0863E-03    -141.631E-03    -998.226E-06    -93.2562E-03    -136.427E-03    -5.88194E-03     460.620E-03    -229.112E-03    -231.058E-03    -228.850E-03     459.375E-03    -230.075E-03     58.1815E-03     53.7276E+06     11.7990E+06    -40.4226E+06    -37.2130E+06     8.58940E+06     53.7276E+06     12.1311E+06         71.3795
            1460     11.1307E-03     114.542E-03     32.9327E-03    -111.248E-03    -152.888E-03     31.9584E-03    -139.072E-03    -124.091E-03    -6.82591E-03     463.105E-03    -229.385E-03    -233.497E-03    -231.049E-03     461.479E-03    -230.207E-03     66.9820E-03     68.6269E+06     20.6462E+06    -32.5414E+06    -29.2129E+06     17.3177E+06     68.6269E+06     12.3989E+06         76.9928
            1461     11.9239E-03     114.636E-03     67.6936E-03    -111.013E-03    -187.477E-03     67.3372E-03    -187.121E-03    -111.013E-03    -16.5709E-03     465.076E-03    -229.998E-03    -235.114E-03    -232.496E-03     462.857E-03    -230.397E-03     78.0923E-03     83.9342E+06     32.6436E+06    -26.2781E+06    -24.5442E+06     30.9098E+06     83.9342E+06     9.25262E+06         83.2277
            1462     12.7117E-03     114.735E-03     100.477E-03    -97.1884E-03    -233.569E-03     100.071E-03    -233.163E-03    -97.1884E-03    -4.12080E-03     466.062E-03    -230.711E-03    -235.688E-03    -232.040E-03     462.413E-03    -230.711E-03     99.9192E-03     106.077E+06     52.9737E+06    -17.0959E+06    -16.7223E+06     52.6001E+06     106.077E+06     3.55616E+06         88.8299
            1463     13.5093E-03     114.900E-03     130.240E-03    -82.7876E-03    -276.600E-03     129.957E-03    -276.317E-03    -82.7876E-03    -2.84616E-03     464.883E-03    -230.689E-03    -234.802E-03    -230.343E-03     460.798E-03    -231.063E-03     106.294E-03     137.825E+06     80.3491E+06    -3.92700E+06    -3.82671E+06     80.2488E+06     137.825E+06     533.746E+03         92.8409
            1464     793.692E-06     115.548E-03     107.024E-03    -144.931E-03    -202.196E-03    -121.713E-03     68.3196E-03    -186.710E-03     11.9692E-03     465.009E-03    -231.417E-03    -233.711E-03    -232.180E-03     465.000E-03    -232.939E-03     792.165E-06    -96.9575E+06    -98.3841E+06    -202.674E+06    -98.0645E+06    -202.576E+06    -97.3753E+06     2.22869E+06         55.4067
            1465     1.58670E-03     115.566E-03     99.1718E-03    -158.072E-03    -183.421E-03    -176.615E-03     92.3658E-03    -158.072E-03    -49.7556E-03     464.949E-03    -230.895E-03    -234.142E-03    -232.545E-03     464.944E-03    -232.487E-03    -1.07888E-03    -92.3674E+06    -95.8409E+06    -192.205E+06    -96.0584E+06    -191.987E+06    -92.3674E+06     3.91596E+06         55.4857
            1466     2.37824E-03     115.584E-03     116.925E-03    -165.064E-03    -190.330E-03    -188.297E-03     115.516E-03    -165.689E-03    -11.5351E-03     465.440E-03    -231.428E-03    -234.025E-03    -232.908E-03     465.432E-03    -232.537E-03     3.35188E-03    -87.3354E+06    -95.2012E+06    -182.080E+06    -95.6728E+06    -181.609E+06    -87.3354E+06     6.21181E+06         55.5808
            1467     3.16859E-03     115.605E-03     136.822E-03    -170.302E-03    -202.688E-03    -198.664E-03     134.521E-03    -172.025E-03    -21.4937E-03     464.899E-03    -231.189E-03    -233.768E-03    -232.361E-03     464.876E-03    -232.573E-03     7.72732E-03    -78.5708E+06    -91.7205E+06    -165.442E+06    -92.5742E+06    -164.588E+06    -78.5708E+06     7.70346E+06         55.6616
            1468     3.96196E-03     115.628E-03     130.338E-03    -168.445E-03    -196.552E-03    -184.805E-03     125.813E-03    -175.667E-03    -11.8737E-03     463.268E-03    -230.252E-03    -232.996E-03    -230.793E-03     463.219E-03    -232.406E-03     11.1010E-03    -66.2985E+06    -85.0434E+06    -144.609E+06    -86.9563E+06    -142.696E+06    -66.2985E+06     10.0111E+06         55.7034
            1469     4.75571E-03     115.649E-03     92.0899E-03    -147.045E-03    -179.028E-03    -149.049E-03     89.0944E-03    -174.028E-03    -9.76392E-03     461.060E-03    -228.922E-03    -232.062E-03    -228.851E-03     460.989E-03    -232.062E-03     13.8658E-03    -53.8699E+06    -77.4666E+06    -121.740E+06    -82.4511E+06    -116.756E+06    -53.8699E+06     12.9078E+06         55.7803
            1470     5.55613E-03     115.661E-03     52.2848E-03    -118.404E-03    -167.772E-03    -116.320E-03     50.2010E-03    -167.772E-03    -24.0298E-03     459.577E-03    -227.794E-03    -231.638E-03    -227.664E-03     459.447E-03    -231.638E-03     18.4717E-03    -41.6581E+06    -64.0881E+06    -100.317E+06    -78.4254E+06    -85.9802E+06    -41.6581E+06     15.8972E+06         56.1640
            1471     6.34979E-03     115.698E-03     24.5214E-03    -98.9466E-03    -158.875E-03    -87.3964E-03     12.9712E-03    -158.875E-03    -17.2052E-03     459.354E-03    -227.936E-03    -231.230E-03    -227.666E-03     459.083E-03    -231.230E-03     26.8668E-03    -24.7294E+06    -37.1549E+06    -83.8083E+06    -72.2988E+06    -45.9631E+06    -27.4307E+06     19.2448E+06         57.1256
            1472     7.14767E-03     115.748E-03     8.31273E-03    -92.2983E-03    -148.566E-03    -63.1408E-03    -20.8448E-03    -148.566E-03    -11.9160E-03     458.744E-03    -227.853E-03    -230.898E-03    -227.419E-03     458.310E-03    -230.898E-03     34.3425E-03    -9.92595E+06    -14.1341E+06    -74.2374E+06    -67.0933E+06    -17.0700E+06    -14.1341E+06     19.8393E+06         58.7175
            1473     7.94492E-03     115.801E-03    -17.6537E-03    -76.0900E-03    -137.952E-03    -47.9110E-03    -45.8327E-03    -137.952E-03    -20.2154E-03     458.240E-03    -227.472E-03    -230.533E-03    -226.881E-03     457.649E-03    -230.533E-03     40.1211E-03     296.228E+03    -2.85505E+06    -65.3731E+06    -60.3258E+06    -6.39544E+06    -1.21063E+06     17.2015E+06         60.8875
            1474     8.74124E-03     115.862E-03    -31.6482E-03    -72.3481E-03    -127.692E-03    -34.8561E-03    -69.1403E-03    -127.692E-03    -18.5502E-03     458.493E-03    -228.178E-03    -230.162E-03    -227.378E-03     457.693E-03    -230.162E-03     46.6727E-03     15.4771E+06     3.36172E+06    -55.8230E+06    -51.9658E+06    -495.467E+03     15.4771E+06     14.5928E+06         63.5972
            1475     9.53854E-03     115.932E-03    -9.02531E-03    -88.8022E-03    -133.131E-03    -12.4379E-03    -101.087E-03    -117.434E-03    -31.3778E-03     459.719E-03    -229.340E-03    -230.672E-03    -229.066E-03     458.641E-03    -229.869E-03     54.3369E-03     34.6314E+06     6.30808E+06    -51.8533E+06    -47.8009E+06     2.25563E+06     34.6314E+06     14.6857E+06         67.0062
            1476     10.3319E-03     116.014E-03     22.8302E-03    -95.9845E-03    -157.518E-03     21.1004E-03    -145.487E-03    -106.286E-03    -32.2898E-03     460.564E-03    -229.458E-03    -231.020E-03    -229.270E-03     459.238E-03    -229.882E-03     60.4029E-03     54.7199E+06     13.3739E+06    -43.2969E+06    -40.0519E+06     10.1289E+06     54.7199E+06     12.7811E+06         71.4561
            1477     11.1263E-03     116.116E-03     49.3615E-03    -94.1781E-03    -187.167E-03     48.6445E-03    -186.450E-03    -94.1781E-03    -17.8158E-03     458.459E-03    -227.811E-03    -230.277E-03    -226.633E-03     456.947E-03    -229.942E-03     64.2814E-03     68.8703E+06     20.6885E+06    -32.3486E+06    -30.9302E+06     19.2701E+06     68.8703E+06     8.30248E+06         77.0914
            1478     11.9288E-03     116.220E-03     68.6277E-03    -81.8124E-03    -219.321E-03     68.4064E-03    -219.100E-03    -81.8124E-03    -12.4306E-03     457.559E-03    -226.911E-03    -230.495E-03    -225.764E-03     455.605E-03    -229.689E-03     72.7295E-03     88.2947E+06     38.1846E+06    -20.7870E+06    -20.0501E+06     37.4478E+06     88.2947E+06     6.10570E+06         83.3708
            1479     12.7325E-03     116.327E-03     93.5428E-03    -69.1197E-03    -257.818E-03     93.2615E-03    -257.537E-03    -69.1197E-03    -4.67909E-03     462.245E-03    -228.660E-03    -234.197E-03    -229.669E-03     458.787E-03    -229.730E-03     96.4302E-03     115.811E+06     62.2109E+06    -12.5746E+06    -12.2400E+06     61.8763E+06     115.811E+06     4.10075E+06         89.0128
            1480     13.5266E-03     116.489E-03     127.582E-03    -55.7017E-03    -305.978E-03     127.457E-03    -305.854E-03    -55.7017E-03     1.08589E-03     466.787E-03    -230.061E-03    -237.189E-03    -233.229E-03     462.827E-03    -230.061E-03     104.819E-03     139.546E+06     80.9007E+06    -9.38125E+06    -9.19798E+06     80.7174E+06     139.546E+06     2.03771E+06         93.0365
            1481     783.440E-06     117.153E-03     76.9334E-03    -126.862E-03    -190.997E-03    -31.9484E-03    -53.8782E-03    -155.099E-03     72.5712E-03     476.272E-03    -236.433E-03    -239.956E-03    -236.428E-03     476.267E-03    -239.956E-03    -1.51423E-03    -97.5844E+06    -99.7913E+06    -210.571E+06    -99.4640E+06    -210.480E+06    -98.0021E+06     969.448E+03         55.2292
            1482     1.57542E-03     117.157E-03     18.5477E-03    -98.8629E-03    -158.705E-03    -122.653E-03    -17.5043E-03    -98.8629E-03    -21.5387E-03     469.127E-03    -232.385E-03    -236.954E-03    -232.380E-03     469.121E-03    -236.954E-03    -1.45115E-03    -94.3775E+06    -98.3607E+06    -200.888E+06    -98.5675E+06    -200.681E+06    -94.3775E+06     4.34431E+06         55.2988
            1483     2.37112E-03     117.177E-03     36.4385E-03    -111.654E-03    -163.479E-03    -154.899E-03     27.8592E-03    -111.654E-03     23.1458E-03     464.501E-03    -229.641E-03    -234.892E-03    -229.630E-03     464.490E-03    -234.892E-03     4.13216E-03    -88.1889E+06    -95.9037E+06    -189.085E+06    -96.3104E+06    -188.678E+06    -88.1889E+06     5.93807E+06         55.3950
            1484     3.16675E-03     117.194E-03     47.8890E-03    -117.869E-03    -166.732E-03    -159.120E-03     45.3746E-03    -122.967E-03    -35.1320E-03     461.515E-03    -228.105E-03    -233.408E-03    -228.064E-03     461.475E-03    -233.408E-03     10.1071E-03    -78.7238E+06    -92.1564E+06    -172.743E+06    -92.9578E+06    -171.941E+06    -78.7238E+06     7.79822E+06         55.4939
            1485     3.96365E-03     117.210E-03     38.6954E-03    -122.579E-03    -150.128E-03    -134.943E-03     28.6086E-03    -127.677E-03    -21.6044E-03     459.799E-03    -227.598E-03    -232.314E-03    -227.533E-03     459.734E-03    -232.314E-03     13.1512E-03    -67.8827E+06    -87.4478E+06    -153.701E+06    -89.1311E+06    -152.018E+06    -67.8827E+06     10.0848E+06         55.5707
            1486     4.76281E-03     117.228E-03     15.7558E-03    -116.242E-03    -134.083E-03    -108.701E-03     405.088E-06    -126.274E-03     1.95289E-03     459.472E-03    -227.950E-03    -231.472E-03    -227.874E-03     459.396E-03    -231.472E-03     14.3432E-03    -54.6786E+06    -79.6255E+06    -129.609E+06    -83.3998E+06    -125.834E+06    -54.6786E+06     12.5527E+06         55.6876
            1487     5.55469E-03     117.248E-03    -9.13260E-03    -95.8342E-03    -128.977E-03    -78.3709E-03    -34.6944E-03    -120.878E-03     13.3840E-03     459.398E-03    -228.458E-03    -230.911E-03    -228.309E-03     459.250E-03    -230.911E-03     19.7177E-03    -42.4707E+06    -68.7905E+06    -105.944E+06    -78.7341E+06    -96.0005E+06    -42.4707E+06     14.9517E+06         56.1085
            1488     6.35357E-03     117.281E-03    -26.0894E-03    -82.1275E-03    -124.987E-03    -52.8691E-03    -67.5092E-03    -112.826E-03     15.1534E-03     458.456E-03    -227.623E-03    -230.591E-03    -227.311E-03     458.145E-03    -230.591E-03     28.8230E-03    -27.2719E+06    -44.1594E+06    -84.4320E+06    -70.3407E+06    -57.6237E+06    -27.8989E+06     17.8287E+06         57.1054
            1489     7.14924E-03     117.327E-03    -33.0904E-03    -79.2973E-03    -119.616E-03    -35.7439E-03    -92.5082E-03    -103.751E-03     7.16226E-03     456.664E-03    -226.020E-03    -230.230E-03    -225.525E-03     456.168E-03    -230.230E-03     36.5682E-03    -8.44997E+06    -17.4864E+06    -72.1896E+06    -63.8180E+06    -20.4573E+06    -13.8506E+06     20.3522E+06         58.7331
            1490     7.94936E-03     117.376E-03    -24.4901E-03    -76.1179E-03    -129.832E-03    -25.8561E-03    -109.761E-03    -94.8234E-03    -17.5030E-03     456.120E-03    -226.072E-03    -229.858E-03    -225.376E-03     455.425E-03    -229.858E-03     43.2878E-03     6.13294E+06    -1.38127E+06    -65.7581E+06    -59.9220E+06    -2.44376E+06     1.35935E+06     19.1275E+06         60.9408
            1491     8.74888E-03     117.446E-03    -7.82093E-03    -73.6653E-03    -149.137E-03    -9.71445E-03    -134.931E-03    -85.9775E-03    -25.3495E-03     458.274E-03    -228.161E-03    -230.154E-03    -227.660E-03     457.351E-03    -229.732E-03     50.1829E-03     17.7444E+06     6.17511E+06    -57.3896E+06    -53.1910E+06     1.97651E+06     17.7444E+06     15.7670E+06         63.6858
            1492     9.54276E-03     117.518E-03     20.6270E-03    -73.9244E-03    -177.734E-03     19.0242E-03    -173.756E-03    -76.2992E-03    -29.5188E-03     459.715E-03    -229.406E-03    -230.791E-03    -229.523E-03     458.522E-03    -229.480E-03     57.2085E-03     33.0426E+06     9.46172E+06    -51.2745E+06    -47.3546E+06     5.54184E+06     33.0426E+06     14.6489E+06         67.1262
            1493     10.3378E-03     117.611E-03     45.5659E-03    -65.5956E-03    -210.872E-03     44.2930E-03    -209.599E-03    -65.5956E-03    -23.5883E-03     459.232E-03    -229.091E-03    -230.485E-03    -228.763E-03     457.681E-03    -229.262E-03     65.1117E-03     52.1839E+06     15.9035E+06    -42.4968E+06    -39.7444E+06     13.1511E+06     52.1839E+06     11.7112E+06         71.6089
            1494     11.1340E-03     117.697E-03     65.2675E-03    -54.4754E-03    -241.889E-03     65.0035E-03    -241.625E-03    -54.4754E-03    -5.24562E-03     457.872E-03    -228.052E-03    -229.894E-03    -226.632E-03     456.090E-03    -229.531E-03     69.7532E-03     70.9609E+06     24.0872E+06    -32.7652E+06    -31.6791E+06     23.0010E+06     70.9609E+06     7.62808E+06         77.2780
            1495     11.9345E-03     117.788E-03     85.9785E-03    -43.0644E-03    -276.082E-03     85.8843E-03    -275.988E-03    -43.0644E-03    -1.48992E-03     456.898E-03    -227.106E-03    -230.163E-03    -225.706E-03     454.818E-03    -229.484E-03     75.1745E-03     91.3213E+06     40.2055E+06    -24.3569E+06    -23.8271E+06     39.6756E+06     91.3213E+06     5.51519E+06         83.5853
            1496     12.7352E-03     117.918E-03     106.089E-03    -30.9884E-03    -310.888E-03     105.941E-03    -310.740E-03    -30.9884E-03     4.89345E-03     460.912E-03    -228.227E-03    -232.825E-03    -228.557E-03     457.714E-03    -229.297E-03     93.1030E-03     116.753E+06     64.0146E+06    -15.7413E+06    -15.4847E+06     63.7580E+06     116.753E+06     4.30393E+06         89.2468
            1497     13.5338E-03     118.081E-03     133.807E-03    -18.2321E-03    -351.518E-03     133.656E-03    -351.368E-03    -18.2321E-03    -1.35605E-03     465.982E-03    -229.254E-03    -236.083E-03    -232.535E-03     462.434E-03    -229.254E-03     99.3039E-03     142.522E+06     85.7367E+06    -8.40143E+06    -8.26439E+06     85.5996E+06     142.522E+06     1.57544E+06         93.2831
            1498     785.813E-06     118.769E-03     68.6242E-03    -109.029E-03    -193.132E-03    -25.4829E-03    -45.9945E-03    -162.059E-03     26.4452E-03     477.306E-03    -237.142E-03    -240.213E-03    -237.183E-03     477.284E-03    -240.151E-03    -2.28803E-03    -101.013E+06    -103.189E+06    -219.493E+06    -103.300E+06    -219.382E+06    -101.013E+06     1.66417E+06         54.9917
            1499     1.57432E-03     118.762E-03     3.83735E-03    -90.6223E-03    -147.264E-03    -79.1203E-03    -64.3060E-03    -90.6223E-03    -45.2302E-03     469.827E-03    -232.676E-03    -237.372E-03    -232.662E-03     469.813E-03    -237.372E-03     4.81168E-03    -97.1121E+06    -100.128E+06    -208.880E+06    -100.258E+06    -208.751E+06    -97.1121E+06     3.40515E+06         55.0501
            1500     2.36798E-03     118.765E-03     15.4592E-03    -83.9752E-03    -166.890E-03    -62.0064E-03    -89.4245E-03    -83.9752E-03     3.30788E-03     463.435E-03    -228.453E-03    -235.065E-03    -228.420E-03     463.403E-03    -235.065E-03     8.75864E-03    -88.9763E+06    -96.5219E+06    -195.880E+06    -96.8918E+06    -195.510E+06    -88.9763E+06     5.83134E+06         55.1449
            1501     3.16915E-03     118.775E-03     17.1916E-03    -69.7794E-03    -182.123E-03    -34.5517E-03    -125.282E-03    -74.8773E-03    -49.0529E-03     459.052E-03    -225.999E-03    -233.121E-03    -225.940E-03     458.993E-03    -233.121E-03     12.4874E-03    -79.1681E+06    -93.4043E+06    -180.940E+06    -94.1774E+06    -180.167E+06    -79.1681E+06     7.99781E+06         55.2644
            1502     3.96737E-03     118.797E-03    -8.27346E-03    -60.4166E-03    -164.636E-03    -29.2447E-03    -138.567E-03    -65.5145E-03    -3.94439E-03     457.623E-03    -226.121E-03    -231.740E-03    -226.047E-03     457.549E-03    -231.740E-03     14.0337E-03    -67.5948E+06    -88.2857E+06    -161.000E+06    -89.7359E+06    -159.550E+06    -67.5948E+06     9.88755E+06         55.3808
            1503     4.76197E-03     118.808E-03    -16.3856E-03    -59.1965E-03    -156.679E-03    -36.6927E-03    -136.372E-03    -59.1965E-03     4.73222E-03     457.781E-03    -227.133E-03    -230.813E-03    -227.030E-03     457.678E-03    -230.813E-03     16.3567E-03    -54.9763E+06    -81.6784E+06    -137.035E+06    -84.6331E+06    -134.080E+06    -54.9763E+06     11.8017E+06         55.5505
            1504     5.56237E-03     118.832E-03    -23.9145E-03    -59.4160E-03    -149.051E-03    -39.3968E-03    -137.807E-03    -55.1773E-03     1.89366E-03     458.154E-03    -228.076E-03    -230.269E-03    -227.895E-03     457.973E-03    -230.269E-03     21.9782E-03    -41.5843E+06    -71.8503E+06    -111.089E+06    -78.7263E+06    -104.213E+06    -41.5843E+06     13.7636E+06         56.0285
            1505     6.35618E-03     118.860E-03    -30.8164E-03    -58.5889E-03    -143.148E-03    -39.5605E-03    -141.025E-03    -51.9677E-03     8.62588E-03     456.847E-03    -227.298E-03    -229.892E-03    -227.006E-03     456.555E-03    -229.892E-03     28.0102E-03    -28.7770E+06    -53.5341E+06    -89.5372E+06     -73.044E+06    -70.0273E+06    -28.7770E+06     16.0149E+06         57.0788
            1506     7.15827E-03     118.904E-03    -24.7500E-03    -50.7972E-03    -156.773E-03    -27.2529E-03    -156.652E-03    -48.4147E-03    -5.94758E-03     455.592E-03    -225.730E-03    -229.494E-03    -225.297E-03     455.160E-03    -229.494E-03     33.8437E-03    -10.6340E+06    -24.5087E+06    -74.6106E+06    -66.2259E+06    -28.2931E+06    -15.2344E+06     18.6522E+06         58.7549
            1507     7.95770E-03     118.955E-03     10.1342E-03    -42.6012E-03    -200.102E-03     9.30386E-03    -199.272E-03    -42.6012E-03    -20.2398E-03     455.749E-03    -225.901E-03    -229.152E-03    -225.281E-03     455.129E-03    -229.152E-03     40.5412E-03     6.00463E+06    -705.274E+03    -65.4701E+06    -59.6824E+06    -1.50038E+06     1.01201E+06     19.1862E+06         61.0071
            1508     8.75445E-03     119.029E-03     44.9168E-03    -33.9052E-03    -243.899E-03     44.0476E-03    -243.030E-03    -33.9052E-03    -14.8680E-03     456.385E-03    -227.037E-03    -229.298E-03    -226.532E-03     455.458E-03    -228.876E-03     49.8968E-03     20.0933E+06     10.1001E+06    -58.1470E+06    -53.3004E+06     5.64567E+06     19.7011E+06     17.5697E+06         63.7973
            1509     9.55031E-03     119.108E-03     56.8811E-03    -24.1578E-03    -266.339E-03     56.3120E-03    -265.770E-03    -24.1578E-03    -17.1344E-03     456.388E-03    -227.501E-03    -229.456E-03    -226.855E-03     455.150E-03    -228.865E-03     58.0839E-03     35.7321E+06     14.2563E+06    -49.5014E+06    -46.4607E+06     11.2155E+06     35.7321E+06     13.2330E+06         67.2896
            1510     10.3480E-03     119.185E-03     66.2634E-03    -14.7770E-03    -284.983E-03     65.7976E-03    -284.518E-03    -14.7770E-03    -16.8664E-03     456.031E-03    -227.656E-03    -228.769E-03    -226.251E-03     454.457E-03    -228.600E-03     65.3296E-03     52.0903E+06     18.6012E+06    -41.6654E+06    -40.0720E+06     17.0078E+06     52.0903E+06     9.61472E+06         71.8326
            1511     11.1512E-03     119.274E-03     82.3221E-03    -5.55084E-03    -311.128E-03     82.2612E-03    -311.067E-03    -5.55084E-03    -688.971E-06     457.313E-03    -228.523E-03    -229.188E-03    -227.221E-03     455.550E-03    -228.726E-03     69.4020E-03     72.3487E+06     27.7597E+06    -34.1406E+06    -32.9276E+06     26.5467E+06     72.3487E+06     8.43792E+06         77.5602
            1512     11.9439E-03     119.366E-03     102.672E-03     4.21870E-03    -342.452E-03     102.601E-03    -342.381E-03     4.21870E-03    -1.14484E-03     460.933E-03    -229.080E-03    -232.462E-03    -230.274E-03     458.746E-03    -229.080E-03     77.3221E-03     93.0569E+06     43.3440E+06    -26.3316E+06    -25.7334E+06     42.7459E+06     93.0569E+06     6.10659E+06         83.8928
            1513     12.7375E-03     119.495E-03     129.807E-03     15.2089E-03    -380.766E-03     129.674E-03    -380.633E-03     15.2089E-03    -6.38881E-03     464.891E-03    -228.987E-03    -235.166E-03    -231.817E-03     461.542E-03    -228.987E-03     96.0673E-03     117.555E+06     65.7274E+06    -18.2500E+06    -18.0741E+06     65.5515E+06     117.555E+06     3.41970E+06         89.5439
            1514     13.5327E-03     119.664E-03     152.149E-03     27.1342E-03    -416.071E-03     151.991E-03    -415.914E-03     27.1342E-03    -13.7947E-03     465.429E-03    -228.983E-03    -235.048E-03    -231.312E-03     461.693E-03    -228.983E-03     101.861E-03     145.743E+06       89.52E+06    -8.91291E+06    -8.87606E+06     89.4832E+06     145.743E+06     1.72848E+06         93.5766
            1515     790.773E-06     120.370E-03     23.9738E-03    -60.9506E-03    -190.578E-03    -47.5350E-03    -98.0919E-03    -81.9277E-03    -1.62523E-03     464.769E-03    -230.894E-03    -233.888E-03    -233.084E-03     464.743E-03    -231.673E-03    -376.890E-06    -102.163E+06    -105.782E+06    -225.043E+06    -104.183E+06    -224.950E+06    -103.855E+06     2.55824E+06         54.8046
            1516     1.58555E-03     120.364E-03     16.3999E-03    -54.9188E-03    -192.707E-03    -11.5080E-03    -164.799E-03    -54.9188E-03    -17.7678E-03     463.769E-03    -230.518E-03    -233.343E-03    -231.593E-03     463.738E-03    -232.237E-03     8.92220E-03    -99.0585E+06    -102.884E+06    -216.410E+06    -103.009E+06    -216.285E+06    -99.0585E+06     3.43339E+06         54.8539
            1517     2.37933E-03     120.352E-03     42.5491E-03    -32.2955E-03    -242.857E-03     40.0976E-03    -240.406E-03    -32.2955E-03    -9.30856E-03     461.776E-03    -229.386E-03    -232.437E-03    -229.893E-03     461.703E-03    -231.857E-03     13.8065E-03    -91.3699E+06    -99.8399E+06    -204.025E+06    -100.174E+06    -203.691E+06    -91.3699E+06     5.66167E+06         54.9260
            1518     3.17243E-03     120.357E-03     50.1263E-03    -12.5079E-03    -273.165E-03     46.9071E-03    -269.945E-03    -12.5079E-03    -41.4727E-03     459.157E-03    -227.591E-03    -231.626E-03    -227.916E-03     459.037E-03    -231.181E-03     17.6559E-03    -80.7481E+06    -95.6567E+06    -187.661E+06    -96.2882E+06    -187.030E+06    -80.7481E+06     7.40991E+06         55.0288
            1519     3.97048E-03     120.374E-03     34.7807E-03    -1.06095E-03    -267.324E-03     33.2404E-03    -265.784E-03    -1.06095E-03    -21.1466E-03     456.596E-03    -226.178E-03    -230.342E-03    -226.042E-03     456.460E-03    -230.342E-03     18.9022E-03    -68.2428E+06    -90.3516E+06    -167.152E+06    -91.4111E+06    -166.093E+06    -68.2428E+06     8.72114E+06         55.1567
            1520     4.77169E-03     120.391E-03     25.2609E-03     4.55938E-03    -262.324E-03     22.7820E-03    -259.845E-03     4.55938E-03    -34.1170E-03     456.205E-03    -226.783E-03    -229.691E-03    -226.612E-03     456.035E-03    -229.691E-03     21.3425E-03    -54.5326E+06    -83.7617E+06    -142.866E+06    -85.6835E+06    -140.944E+06    -54.5326E+06     10.1266E+06         55.3762
            1521     5.56551E-03     120.412E-03     21.2118E-03     3.17204E-03    -255.284E-03     14.4537E-03    -252.765E-03     7.41072E-03    -40.1121E-03     456.875E-03    -228.003E-03    -229.396E-03    -227.772E-03     456.643E-03    -229.396E-03     25.0866E-03    -40.1265E+06    -74.6524E+06    -116.840E+06    -79.3438E+06    -112.148E+06    -40.1265E+06     12.2391E+06         55.9266
            1522     6.36435E-03     120.445E-03     31.3102E-03     3.30381E-03    -265.517E-03     23.8192E-03    -264.647E-03     9.92498E-03    -27.6191E-03     457.170E-03    -227.923E-03    -229.690E-03    -228.234E-03     456.879E-03    -229.089E-03     28.0872E-03    -26.5078E+06    -58.9085E+06    -92.9480E+06    -73.0630E+06    -78.7935E+06    -26.5078E+06     14.8747E+06         57.0448
            1523     7.15785E-03     120.475E-03     50.1386E-03     11.8654E-03    -295.582E-03     47.0073E-03    -294.834E-03     14.2479E-03    -21.7565E-03     457.611E-03    -227.418E-03    -230.108E-03    -228.265E-03     457.224E-03    -228.875E-03     32.3542E-03    -12.4783E+06    -28.7102E+06    -76.2904E+06    -66.9407E+06    -37.0911E+06    -13.4471E+06     17.4877E+06         58.7750
            1524     7.95487E-03     120.531E-03     64.8734E-03     20.5067E-03    -319.973E-03     63.4925E-03    -318.592E-03     20.5067E-03    -31.1732E-03     456.344E-03    -226.443E-03    -229.541E-03    -226.579E-03     455.847E-03    -228.908E-03     36.6769E-03     2.77518E+06    -959.036E+03    -66.9056E+06    -61.0454E+06    -4.17576E+06     131.715E+03     19.0120E+06         61.0734
            1525     8.75506E-03     120.602E-03     73.6164E-03     27.5317E-03    -336.907E-03     72.2197E-03    -335.510E-03     27.5317E-03    -18.6741E-03     453.119E-03    -224.569E-03    -228.355E-03    -223.778E-03     452.328E-03    -228.355E-03     45.6812E-03     16.0657E+06     10.9609E+06    -59.3478E+06    -54.9107E+06     8.19843E+06     14.3911E+06     17.0883E+06         63.9143
            1526     9.55814E-03     120.684E-03     84.6100E-03     34.7516E-03    -354.734E-03     83.9028E-03    -354.027E-03     34.7516E-03    -15.2128E-03     452.438E-03    -224.169E-03    -228.091E-03    -223.082E-03     451.351E-03    -228.091E-03     54.0719E-03     34.0764E+06     16.1620E+06    -49.8907E+06    -47.3412E+06     13.6125E+06     34.0764E+06     12.3919E+06         67.4679
            1527     10.3587E-03     120.770E-03     99.8503E-03     42.2154E-03    -377.227E-03     99.1963E-03    -376.573E-03     42.2154E-03    -24.8190E-03     454.954E-03    -226.393E-03    -228.824E-03    -225.775E-03     453.658E-03    -228.146E-03     59.1762E-03     56.8489E+06     22.8174E+06    -41.2308E+06    -39.4583E+06     21.0449E+06     56.8489E+06     10.4843E+06         72.0735
            1528     11.1531E-03     120.850E-03     112.296E-03     49.9306E-03    -398.881E-03     112.245E-03    -398.831E-03     49.9306E-03    -4.80167E-03     457.381E-03    -228.282E-03    -229.920E-03    -228.455E-03     455.948E-03    -228.314E-03     62.5857E-03     75.2199E+06     32.6172E+06    -34.1253E+06    -32.6996E+06     31.1915E+06     75.2199E+06     9.44728E+06         77.8576
            1529     11.9528E-03     120.950E-03     128.674E-03     58.3159E-03    -423.774E-03     128.618E-03    -423.718E-03     58.3159E-03    -9.84961E-03     461.101E-03    -228.644E-03    -233.168E-03    -231.136E-03     459.069E-03    -228.644E-03     74.0847E-03     94.8934E+06     47.5932E+06    -25.8213E+06    -25.2175E+06     46.9894E+06     94.8934E+06     6.31604E+06         84.2281
            1530     12.7441E-03     121.093E-03     146.312E-03     67.8047E-03    -451.337E-03     146.203E-03    -451.228E-03     67.8047E-03    -12.8097E-03     465.015E-03    -228.521E-03    -235.801E-03    -232.642E-03     461.856E-03    -228.521E-03     93.4930E-03     121.119E+06     69.7837E+06    -17.7148E+06    -17.4933E+06     69.5622E+06     121.119E+06     4.09022E+06         89.8852
            1531     13.5385E-03     121.241E-03     157.209E-03     77.7681E-03    -474.796E-03     157.129E-03    -474.716E-03     77.7681E-03    -10.6180E-03     464.535E-03    -228.652E-03    -234.703E-03    -230.939E-03     460.771E-03    -228.652E-03     102.229E-03     149.225E+06     93.0171E+06    -9.60752E+06    -9.52567E+06     92.9353E+06     149.225E+06     2.35864E+06         93.9162
            1532     805.410E-06     121.962E-03     131.088E-03     53.1473E-03    -411.182E-03     54.0451E-03    -409.602E-03     128.611E-03    -10.3704E-03     448.593E-03    -222.455E-03    -226.168E-03    -225.105E-03     448.585E-03    -223.510E-03    -275.790E-06    -102.068E+06    -106.436E+06    -230.118E+06    -104.084E+06    -230.084E+06    -104.453E+06     955.965E+03         54.6700
            1533     1.59728E-03     121.939E-03     108.052E-03     54.5746E-03    -392.378E-03     75.2553E-03    -391.963E-03     86.9565E-03     13.8873E-03     453.916E-03    -225.200E-03    -228.686E-03    -228.647E-03     453.877E-03    -225.200E-03     8.22517E-03    -100.054E+06    -104.023E+06    -223.770E+06    -103.447E+06    -223.652E+06    -100.747E+06     3.57154E+06         54.7143
            1534     2.39324E-03     121.938E-03     105.186E-03     23.1245E-03    -363.367E-03     49.2025E-03    -363.043E-03     78.7840E-03     13.8607E-03     457.457E-03    -226.815E-03    -230.691E-03    -230.609E-03     457.375E-03    -226.815E-03     14.7582E-03    -93.3290E+06    -101.712E+06    -210.857E+06    -101.974E+06    -210.595E+06    -93.3290E+06     5.10542E+06         54.7685
            1535     3.18749E-03     121.940E-03     83.3952E-03     35.3003E-03    -355.913E-03     47.4858E-03    -355.874E-03     71.1704E-03     2.65317E-03     457.763E-03    -227.402E-03    -230.730E-03    -230.224E-03     457.646E-03    -227.791E-03     17.3358E-03    -81.9152E+06    -97.2627E+06    -192.533E+06    -97.6986E+06    -192.097E+06    -81.9152E+06     6.26399E+06         54.8452
            1536     3.98302E-03     121.949E-03     76.8834E-03     54.6766E-03    -367.642E-03     62.8335E-03    -367.187E-03     68.2724E-03     21.7988E-03     456.544E-03    -226.892E-03    -229.580E-03    -228.266E-03     456.401E-03    -228.064E-03     19.4153E-03    -69.1481E+06    -92.1662E+06    -172.333E+06    -92.9026E+06    -171.597E+06    -69.1481E+06     7.44273E+06         54.9616
            1537     4.77765E-03     121.971E-03     81.8157E-03     67.4012E-03    -383.411E-03     78.9156E-03    -382.505E-03     69.3954E-03     17.6503E-03     455.775E-03    -226.828E-03    -228.498E-03    -227.081E-03     455.585E-03    -228.055E-03     22.6167E-03    -54.8284E+06    -86.0812E+06    -149.162E+06    -87.5202E+06    -147.723E+06    -54.8284E+06     9.05520E+06         55.2080
            1538     5.57679E-03     121.993E-03     99.8315E-03     73.1917E-03    -406.337E-03     98.5049E-03    -405.011E-03     73.1917E-03     17.2316E-03     455.376E-03    -227.578E-03    -228.487E-03    -227.583E-03     455.103E-03    -228.209E-03     27.2262E-03    -39.7724E+06    -77.8759E+06    -122.696E+06    -81.2110E+06    -119.361E+06    -39.7724E+06     11.0037E+06         55.8246
            1539     6.37014E-03     122.025E-03     118.743E-03     79.0258E-03    -430.085E-03     117.224E-03    -428.567E-03     79.0258E-03    -1.22945E-03     457.319E-03    -228.145E-03    -230.185E-03    -229.631E-03     456.952E-03    -228.333E-03     31.6229E-03    -26.0036E+06    -64.3502E+06    -96.5213E+06    -74.3414E+06    -86.5302E+06    -26.0036E+06     13.1072E+06         57.0122
            1540     7.16589E-03     122.068E-03     120.956E-03     85.3713E-03    -440.449E-03     120.121E-03    -439.614E-03     85.3713E-03    -7.41003E-03     458.906E-03    -228.132E-03    -231.090E-03    -230.590E-03     458.406E-03    -228.132E-03     37.0000E-03    -13.1965E+06    -37.2241E+06    -77.8894E+06    -67.4632E+06    -47.6502E+06    -13.1965E+06     16.3179E+06         58.7961
            1541     7.95792E-03     122.119E-03     112.227E-03     90.6388E-03    -438.472E-03     110.792E-03    -437.038E-03     90.6388E-03    -14.9393E-03     456.623E-03    -227.461E-03    -229.757E-03    -228.223E-03     455.999E-03    -228.370E-03     41.1934E-03     4.42718E+06    -5.15004E+06    -66.3587E+06    -60.3020E+06    -7.61104E+06     831.484E+03     18.2348E+06         61.1422
            1542     8.75597E-03     122.171E-03     110.000E-03     95.0333E-03    -441.618E-03     108.383E-03    -440.001E-03     95.0333E-03    -6.82918E-03     454.191E-03    -225.741E-03    -228.682E-03    -225.323E-03     453.319E-03    -228.228E-03     48.1755E-03     21.4884E+06     13.5942E+06    -56.7549E+06    -53.0000E+06     13.4350E+06     17.8927E+06     16.0672E+06         64.0300
            1543     9.55789E-03     122.254E-03     119.890E-03     99.8381E-03    -456.878E-03     119.141E-03    -456.166E-03     99.8750E-03     7.88708E-03     453.916E-03    -225.233E-03    -228.321E-03    -224.731E-03     452.884E-03    -227.792E-03     52.8748E-03     35.3677E+06     18.4452E+06    -49.5455E+06    -46.8468E+06     15.7465E+06     35.3677E+06     13.1888E+06         67.6316
            1544     10.3570E-03     122.342E-03     129.576E-03     105.359E-03    -471.507E-03     129.007E-03    -470.975E-03     105.395E-03     2.06852E-03     455.096E-03    -226.875E-03    -228.686E-03    -226.504E-03     453.968E-03    -227.928E-03     55.3545E-03     53.8954E+06     24.0383E+06    -43.1187E+06    -41.0240E+06     21.9436E+06     53.8954E+06     11.5596E+06         72.2889
            1545     11.1552E-03     122.439E-03     141.966E-03     111.276E-03    -489.240E-03     141.791E-03    -489.065E-03     111.276E-03     8.91240E-03     457.411E-03    -228.214E-03    -230.008E-03    -228.609E-03     456.085E-03    -228.287E-03     60.2558E-03     75.2416E+06     35.6875E+06    -34.7948E+06    -33.4863E+06     34.3790E+06     75.2416E+06     9.30021E+06         78.1303
            1546     11.9478E-03     122.535E-03     155.717E-03     117.969E-03    -509.277E-03     155.676E-03    -509.235E-03     117.969E-03    -1.06767E-03     460.284E-03    -228.497E-03    -232.398E-03    -230.338E-03     458.224E-03    -228.497E-03     74.3507E-03     98.3644E+06     52.1047E+06    -25.9004E+06    -25.2108E+06     51.4151E+06     98.3644E+06     7.09785E+06         84.5504
            1547     12.7461E-03     122.679E-03     156.417E-03     123.456E-03    -518.394E-03     154.592E-03    -518.358E-03     125.246E-03    -117.671E-06     462.053E-03    -228.146E-03    -233.496E-03    -230.582E-03     459.139E-03    -228.146E-03     89.7732E-03     124.507E+06     73.5489E+06    -18.0289E+06    -17.6536E+06     73.1736E+06     124.507E+06     5.65630E+06         90.2355
            1548     13.5421E-03     122.831E-03     156.083E-03     128.893E-03    -528.028E-03     152.697E-03    -527.929E-03     132.180E-03    -12.7697E-03     461.566E-03    -228.373E-03    -232.323E-03    -228.856E-03     458.099E-03    -228.373E-03     97.7004E-03     152.630E+06     97.6125E+06    -9.55981E+06    -9.42300E+06     97.4757E+06     152.630E+06     3.25549E+06         94.2815
            1549     800.512E-06     123.505E-03     283.833E-03     163.162E-03    -672.437E-03     148.707E-03    -657.982E-03     283.833E-03    -112.791E-03     440.643E-03    -218.833E-03    -221.833E-03    -220.773E-03     440.637E-03    -219.888E-03    -767.542E-06    -103.664E+06    -106.760E+06    -236.210E+06    -105.394E+06    -236.170E+06    -105.070E+06     1.43744E+06         54.5363
            1550     1.60937E-03     123.508E-03     203.332E-03     154.106E-03    -590.430E-03     153.304E-03    -589.627E-03     203.332E-03     11.7464E-03     447.041E-03    -221.346E-03    -225.661E-03    -225.637E-03     447.018E-03    -221.346E-03     3.74044E-03    -101.629E+06    -104.904E+06    -230.256E+06    -104.312E+06    -230.154E+06    -102.323E+06     3.32540E+06         54.5842
            1551     2.40252E-03     123.517E-03     179.110E-03     108.656E-03    -522.325E-03     108.301E-03    -521.969E-03     179.110E-03    -13.0460E-03     452.057E-03    -223.393E-03    -228.759E-03    -228.719E-03     452.017E-03    -223.393E-03     7.75002E-03    -93.6163E+06    -101.886E+06    -215.766E+06    -102.065E+06    -215.587E+06    -93.6163E+06     4.30866E+06         54.6478
            1552     3.19639E-03     123.518E-03     160.278E-03     101.387E-03    -499.537E-03     101.140E-03    -499.290E-03     160.278E-03    -16.4240E-03     453.975E-03    -224.906E-03    -229.604E-03    -229.555E-03     453.926E-03    -224.906E-03     11.3019E-03    -82.1017E+06    -98.2346E+06    -197.257E+06    -98.5470E+06    -196.945E+06    -82.1017E+06     5.39118E+06         54.7263
            1553     3.99013E-03     123.527E-03     150.439E-03     120.568E-03    -509.157E-03     119.963E-03    -508.552E-03     150.439E-03     2.84738E-03     455.081E-03    -225.906E-03    -229.708E-03    -229.612E-03     454.985E-03    -225.906E-03     15.9252E-03    -69.0017E+06    -93.3369E+06    -177.860E+06    -93.9476E+06    -177.249E+06    -69.0017E+06     6.93092E+06         54.8376
            1554     4.78654E-03     123.544E-03     161.322E-03     144.092E-03    -541.691E-03     155.343E-03    -540.499E-03     148.879E-03    -1.33411E-03     455.517E-03    -226.152E-03    -228.652E-03    -228.187E-03     455.355E-03    -226.455E-03     20.8842E-03    -54.6005E+06    -87.2544E+06    -154.704E+06    -88.4269E+06    -153.532E+06    -54.6005E+06     8.53188E+06         55.0971
            1555     5.58232E-03     123.565E-03     179.031E-03     152.554E-03    -568.082E-03     177.481E-03    -566.532E-03     152.554E-03     4.47574E-03     454.820E-03    -226.545E-03    -228.434E-03    -227.875E-03     454.564E-03    -226.848E-03     26.1735E-03    -39.8849E+06    -79.9511E+06    -127.602E+06    -82.3956E+06    -125.157E+06    -39.8849E+06     9.95056E+06         55.7534
            1556     6.38064E-03     123.608E-03     177.325E-03     154.568E-03    -567.553E-03     173.680E-03    -566.530E-03     157.190E-03     2.56928E-03     456.141E-03    -227.489E-03    -229.907E-03    -229.531E-03     455.765E-03    -227.489E-03     31.9978E-03    -26.1423E+06    -68.8318E+06    -100.999E+06    -76.1341E+06    -93.6968E+06    -26.1423E+06     11.8588E+06         56.9874
            1557     7.17205E-03     123.649E-03     166.871E-03     155.736E-03    -557.085E-03     161.853E-03    -556.710E-03     160.380E-03    -1.71603E-03     456.670E-03    -227.478E-03    -229.922E-03    -229.448E-03     456.196E-03    -227.478E-03     35.9152E-03    -12.8953E+06    -45.9657E+06    -80.2088E+06    -69.1235E+06    -57.0511E+06    -12.8953E+06     14.0939E+06         58.8139
            1558     7.97110E-03     123.701E-03     165.659E-03     160.316E-03    -559.616E-03     162.786E-03    -559.132E-03     162.704E-03    -6.73955E-03     455.372E-03    -227.222E-03    -228.816E-03    -228.189E-03     454.745E-03    -227.222E-03     41.0912E-03     5.54591E+06    -10.7136E+06    -66.7722E+06    -61.6962E+06    -11.5932E+06     1.34953E+06     15.7958E+06         61.1994
            1559     8.76697E-03     123.752E-03     170.529E-03     161.129E-03    -566.476E-03     165.470E-03    -565.737E-03     165.448E-03    -12.9273E-03     457.604E-03    -227.370E-03    -230.561E-03    -229.565E-03     456.607E-03    -227.370E-03     51.8938E-03     21.6883E+06     13.7022E+06    -58.4772E+06    -54.7659E+06     14.1873E+06     17.4919E+06     16.4085E+06         64.1272
            1560     9.55884E-03     123.830E-03     171.136E-03     161.825E-03    -570.208E-03     163.448E-03    -569.314E-03     168.619E-03    -11.3484E-03     458.850E-03    -227.395E-03    -231.544E-03    -230.377E-03     457.683E-03    -227.395E-03     56.6806E-03     33.7633E+06     20.5383E+06    -51.8833E+06    -48.5854E+06     17.2404E+06     33.7633E+06     15.0358E+06         67.7745
            1561     10.3542E-03     123.924E-03     172.951E-03     168.900E-03    -579.842E-03     169.008E-03    -579.029E-03     172.029E-03    -18.5064E-03     456.691E-03    -227.689E-03    -229.529E-03    -228.239E-03     455.475E-03    -227.762E-03     57.6040E-03     52.6960E+06     28.1007E+06    -43.9837E+06    -41.8553E+06     25.9723E+06     52.6960E+06     12.0188E+06         72.4850
            1562     11.1532E-03     124.017E-03     181.684E-03     168.713E-03    -588.313E-03     174.233E-03    -587.935E-03     175.785E-03    -9.25061E-03     456.901E-03    -228.018E-03    -229.024E-03    -227.484E-03     455.434E-03    -228.091E-03     63.2901E-03     75.0908E+06     38.7864E+06    -35.9530E+06    -34.7474E+06     37.5808E+06     75.0908E+06     9.29607E+06         78.3915
            1563     11.9536E-03     124.122E-03     187.030E-03     163.031E-03    -587.118E-03     170.164E-03    -587.015E-03     179.794E-03    -7.90299E-03     459.434E-03    -228.122E-03    -231.238E-03    -228.951E-03     457.148E-03    -228.122E-03     78.4026E-03     98.8327E+06     54.2112E+06    -28.1358E+06    -27.3518E+06     53.4272E+06     98.8327E+06     7.89824E+06         84.8732
            1564     12.7455E-03     124.265E-03     186.160E-03     163.900E-03    -590.083E-03     166.073E-03    -589.998E-03     183.902E-03    -7.21572E-03     459.784E-03    -228.003E-03    -231.694E-03    -228.620E-03     456.711E-03    -228.003E-03     91.9641E-03     126.309E+06     76.8472E+06    -19.6183E+06    -19.1612E+06     76.3902E+06     126.309E+06     6.39111E+06         90.5962
            1565     13.5458E-03     124.404E-03     187.992E-03     167.125E-03    -598.044E-03     166.990E-03    -597.909E-03     187.992E-03    -18.4771E-03     459.067E-03    -228.238E-03    -230.644E-03    -227.110E-03     455.533E-03    -228.238E-03     98.3211E-03     156.124E+06     103.431E+06    -10.0813E+06    -9.93067E+06     103.280E+06     156.124E+06     3.66411E+06         94.6621
            1566     807.659E-06     125.051E-03     317.821E-03     158.110E-03    -707.932E-03     147.648E-03    -688.137E-03     308.488E-03    -118.500E-03     441.991E-03    -218.874E-03    -223.239E-03    -223.236E-03     441.988E-03    -218.874E-03     2.56570E-03    -106.101E+06    -107.839E+06    -243.889E+06    -107.180E+06    -243.835E+06    -106.814E+06     2.62250E+06         54.4037
            1567     1.59876E-03     125.074E-03     256.385E-03     213.452E-03    -703.761E-03     237.961E-03    -702.181E-03     230.296E-03     44.2991E-03     446.361E-03    -221.360E-03    -224.981E-03    -224.681E-03     446.358E-03    -221.657E-03     1.26824E-03    -102.679E+06    -105.956E+06    -234.117E+06    -106.022E+06    -234.051E+06    -102.679E+06     2.84607E+06         54.4531
            1568     2.40124E-03     125.079E-03     262.170E-03     219.670E-03    -717.445E-03     246.924E-03    -716.993E-03     234.464E-03     798.280E-06     446.833E-03    -222.124E-03    -224.790E-03    -224.184E-03     446.824E-03    -222.720E-03     3.02115E-03     -94.523E+06    -103.469E+06    -220.562E+06    -103.607E+06    -220.425E+06     -94.523E+06     3.79892E+06         54.5285
            1569     3.20085E-03     125.094E-03     252.358E-03     213.023E-03    -703.139E-03     228.864E-03    -702.666E-03     236.044E-03    -10.5357E-03     448.715E-03    -223.098E-03    -225.966E-03    -225.630E-03     448.678E-03    -223.397E-03     9.54418E-03    -82.6749E+06    -99.8396E+06    -202.920E+06    -100.141E+06    -202.619E+06    -82.6749E+06     5.40409E+06         54.6298
            1570     3.99821E-03     125.100E-03     239.552E-03     212.635E-03    -690.177E-03     217.771E-03    -689.949E-03     234.189E-03    -20.4938E-03     451.803E-03    -224.198E-03    -228.392E-03    -228.301E-03     451.712E-03    -224.198E-03     15.4736E-03    -69.0292E+06    -94.8352E+06    -183.156E+06    -95.3762E+06    -182.615E+06    -69.0292E+06     6.66039E+06         54.7613
            1571     4.79288E-03     125.121E-03     238.708E-03     211.459E-03    -686.306E-03     217.037E-03    -685.479E-03     232.304E-03    -39.8935E-03     455.503E-03    -224.976E-03    -229.841E-03    -229.686E-03     455.348E-03    -224.976E-03     20.5271E-03    -54.5788E+06    -88.5551E+06    -159.760E+06    -89.5310E+06    -158.784E+06    -54.5788E+06     7.98984E+06         55.0369
            1572     5.58797E-03     125.144E-03     239.513E-03     208.964E-03    -683.240E-03     216.186E-03    -682.254E-03     231.306E-03    -32.4862E-03     456.108E-03    -225.654E-03    -229.809E-03    -229.571E-03     455.870E-03    -225.654E-03     25.3780E-03    -39.4649E+06    -81.1634E+06    -132.699E+06    -83.2135E+06    -130.649E+06    -39.4649E+06     9.57633E+06         55.7104
            1573     6.38183E-03     125.182E-03     232.977E-03     217.947E-03    -685.533E-03     219.199E-03    -684.982E-03     231.174E-03    -20.6550E-03     455.171E-03    -226.603E-03    -229.185E-03    -228.694E-03     454.817E-03    -226.739E-03     30.9918E-03    -24.8098E+06    -71.2657E+06    -105.493E+06    -76.6734E+06    -100.085E+06    -24.8098E+06     11.3266E+06         56.9655
            1574     7.18075E-03     125.232E-03     231.905E-03     225.086E-03    -690.866E-03     224.679E-03    -690.459E-03     231.905E-03    -16.3047E-03     454.913E-03    -226.985E-03    -228.517E-03    -227.998E-03     454.530E-03    -227.121E-03     32.2626E-03    -11.7706E+06    -51.1900E+06    -83.1020E+06    -70.3007E+06    -63.9914E+06    -11.7706E+06     13.2262E+06         58.8162
            1575     7.97608E-03     125.263E-03     232.972E-03     220.755E-03    -686.388E-03     220.293E-03    -685.926E-03     232.972E-03    -16.6699E-03     455.175E-03    -226.407E-03    -229.087E-03    -228.604E-03     454.692E-03    -226.407E-03     35.9125E-03     2.98013E+06    -14.7365E+06    -69.6124E+06    -64.2109E+06    -18.2549E+06     1.09703E+06     15.5845E+06         61.2211
            1576     8.77359E-03     125.337E-03     234.137E-03     213.301E-03    -681.416E-03     212.722E-03    -680.837E-03     234.137E-03    -26.7405E-03     457.275E-03    -226.515E-03    -231.218E-03    -230.284E-03     456.341E-03    -226.515E-03     49.9202E-03     16.3153E+06     13.8003E+06    -61.8276E+06    -58.1109E+06     11.9666E+06     14.4322E+06     16.4578E+06         64.1825
            1577     9.56634E-03     125.426E-03     235.528E-03     214.022E-03    -684.931E-03     213.382E-03    -684.292E-03     235.528E-03    -22.9980E-03     458.387E-03    -226.775E-03    -232.223E-03    -230.977E-03     457.142E-03    -226.775E-03     58.5846E-03     29.8149E+06     23.4595E+06    -53.9868E+06    -51.1513E+06     20.6240E+06     29.8149E+06     14.4030E+06         67.9004
            1578     10.3590E-03     125.499E-03     237.008E-03     210.271E-03    -683.209E-03     209.585E-03    -682.523E-03     237.008E-03    -28.1446E-03     458.230E-03    -227.197E-03    -231.495E-03    -230.028E-03     456.763E-03    -227.197E-03     63.2525E-03     50.4338E+06     31.3538E+06    -45.7450E+06    -43.8451E+06     29.4540E+06     50.4338E+06     11.8815E+06         72.6909
            1579     11.1559E-03     125.596E-03     238.232E-03     197.884E-03    -673.344E-03     197.610E-03    -673.070E-03     238.232E-03    -15.6804E-03     458.453E-03    -227.571E-03    -230.479E-03    -228.700E-03     456.674E-03    -227.571E-03     69.7671E-03     74.0534E+06     41.4328E+06    -37.8699E+06    -36.4700E+06     40.0329E+06     74.0534E+06     10.4165E+06         78.6669
            1580     11.9515E-03     125.704E-03     239.363E-03     192.486E-03    -669.686E-03     192.390E-03    -669.591E-03     239.363E-03    -16.9013E-03     458.275E-03    -227.509E-03    -230.056E-03    -227.515E-03     455.733E-03    -227.509E-03     82.6464E-03     98.5856E+06     56.3231E+06    -29.8676E+06    -28.9241E+06     55.3796E+06     98.5856E+06     8.80668E+06         85.2092
            1581     12.7553E-03     125.841E-03     240.867E-03     191.015E-03    -671.982E-03     190.904E-03    -671.870E-03     240.867E-03    -18.5631E-03     458.141E-03    -227.590E-03    -230.408E-03    -227.188E-03     454.921E-03    -227.590E-03     93.9228E-03     128.189E+06     80.8079E+06    -20.5394E+06    -20.0959E+06     80.3643E+06     128.189E+06     6.37426E+06         90.9693
            1582     13.5536E-03     125.983E-03     242.533E-03     184.131E-03    -668.350E-03     183.987E-03    -668.206E-03     242.533E-03    -21.7561E-03     459.045E-03    -227.808E-03    -231.220E-03    -227.614E-03     455.439E-03    -227.808E-03     99.3817E-03     160.198E+06     109.749E+06    -10.1144E+06    -9.98577E+06     109.621E+06     160.198E+06     3.40632E+06         95.0467
            1583     797.765E-06     126.632E-03     339.298E-03     221.244E-03    -797.132E-03     225.745E-03    -789.425E-03     327.091E-03    -57.9769E-03     446.551E-03    -220.407E-03    -226.322E-03    -223.320E-03     446.539E-03    -223.397E-03     4.58394E-03    -109.243E+06    -111.239E+06    -249.353E+06    -110.744E+06    -249.308E+06    -109.783E+06     2.34992E+06         54.2959
            1584     1.59908E-03     126.637E-03     311.879E-03     278.001E-03    -824.399E-03     305.812E-03    -823.247E-03     282.916E-03     54.2047E-03     444.230E-03    -220.269E-03    -224.133E-03    -221.647E-03     444.220E-03    -222.743E-03     4.12966E-03    -104.573E+06    -108.802E+06    -239.216E+06    -108.871E+06    -239.147E+06    -104.573E+06     2.69495E+06         54.3482
            1585     2.39897E-03     126.641E-03     331.823E-03     289.457E-03    -855.831E-03     326.638E-03    -855.561E-03     294.371E-03     17.2011E-03     444.294E-03    -221.353E-03    -222.858E-03    -221.939E-03     444.267E-03    -222.245E-03     7.48803E-03    -95.3969E+06    -105.965E+06    -225.488E+06    -106.116E+06    -225.338E+06    -95.3969E+06     4.17780E+06         54.4259
            1586     3.20244E-03     126.651E-03     340.933E-03     304.761E-03    -878.905E-03     340.632E-03    -878.603E-03     304.761E-03    -3.49134E-03     446.570E-03    -222.252E-03    -223.826E-03    -223.488E-03     446.531E-03    -222.551E-03     9.97134E-03    -83.1983E+06    -101.907E+06    -208.403E+06    -102.199E+06    -208.111E+06    -83.1983E+06     5.38356E+06         54.5391
            1587     4.00329E-03     126.672E-03     329.751E-03     306.055E-03    -868.815E-03     324.390E-03    -868.732E-03     311.334E-03    -5.68712E-03     449.182E-03    -223.360E-03    -226.118E-03    -226.049E-03     449.113E-03    -223.360E-03     13.1828E-03    -69.1585E+06    -96.4051E+06    -187.558E+06    -96.8922E+06    -187.071E+06    -69.1585E+06     6.50574E+06         54.6933
            1588     4.79989E-03     126.693E-03     314.917E-03     287.704E-03    -834.450E-03     290.384E-03    -834.190E-03     311.977E-03    -7.13869E-03     453.004E-03    -224.138E-03    -228.834E-03    -228.687E-03     452.856E-03    -224.138E-03     19.5264E-03    -53.7718E+06    -90.1222E+06    -164.331E+06    -90.9272E+06    -163.526E+06    -53.7718E+06     7.43649E+06         54.9869
            1589     5.59232E-03     126.726E-03     308.800E-03     268.415E-03    -808.935E-03     267.816E-03    -808.336E-03     308.800E-03     14.1270E-03     454.892E-03    -224.724E-03    -229.611E-03    -229.356E-03     454.637E-03    -224.724E-03     26.2588E-03    -38.5657E+06    -82.6776E+06    -138.048E+06    -84.3024E+06    -136.423E+06    -38.5657E+06     8.91263E+06         55.6727
            1590     6.38835E-03     126.761E-03     305.262E-03     265.042E-03    -802.619E-03     264.549E-03    -802.125E-03     305.262E-03     14.1880E-03     454.727E-03    -225.465E-03    -229.043E-03    -228.511E-03     454.331E-03    -225.602E-03     32.6572E-03    -24.3944E+06    -73.1470E+06    -110.704E+06    -77.4303E+06    -106.420E+06    -24.3944E+06     10.8709E+06         56.9417
            1591     7.18432E-03     126.805E-03     302.967E-03     268.994E-03    -805.787E-03     268.711E-03    -805.504E-03     302.967E-03     4.33498E-03     455.745E-03    -226.269E-03    -229.466E-03    -228.885E-03     455.300E-03    -226.405E-03     34.6689E-03    -11.2266E+06    -55.2080E+06    -86.5018E+06    -70.4851E+06    -71.2247E+06    -11.2266E+06      13.301E+06         58.8055
            1592     7.97956E-03     126.854E-03     301.945E-03     273.269E-03    -809.438E-03     273.039E-03    -809.208E-03     301.945E-03     7.54344E-03     457.105E-03    -226.225E-03    -231.015E-03    -230.497E-03     456.588E-03    -226.225E-03     37.3099E-03     2.29552E+06    -19.6433E+06    -70.5546E+06    -63.6529E+06    -26.5451E+06     2.29552E+06     16.0299E+06         61.2180
            1593     8.77240E-03     126.916E-03     301.895E-03     269.433E-03    -805.557E-03     269.228E-03    -805.351E-03     301.895E-03     5.90665E-03     456.131E-03    -226.344E-03    -230.709E-03    -229.838E-03     455.260E-03    -226.344E-03     48.3379E-03     18.0614E+06     13.7497E+06    -60.9947E+06    -57.0286E+06     11.0903E+06     16.7547E+06     16.6756E+06         64.2085
            1594     9.57307E-03     127.004E-03     301.705E-03     252.911E-03    -787.917E-03     252.786E-03    -787.792E-03     301.705E-03     14.0826E-03     454.754E-03    -226.482E-03    -229.477E-03    -228.352E-03     453.629E-03    -226.482E-03     55.3359E-03     32.9134E+06     25.8308E+06    -53.6723E+06    -50.9105E+06     24.3756E+06     31.6067E+06     14.6255E+06         68.0064
            1595     10.3733E-03     127.067E-03     300.396E-03     229.371E-03    -764.877E-03     229.324E-03    -764.831E-03     300.396E-03     6.07095E-03     456.531E-03    -226.475E-03    -230.631E-03    -229.268E-03     455.168E-03    -226.475E-03     60.6709E-03     49.4288E+06     32.7789E+06    -46.7976E+06    -44.7407E+06     30.7219E+06     49.4288E+06     12.5592E+06         72.8957
            1596     11.1648E-03     127.180E-03     298.418E-03     217.222E-03    -753.645E-03     217.154E-03    -753.577E-03     298.418E-03     994.467E-06     458.320E-03    -226.844E-03    -230.979E-03    -229.276E-03     456.617E-03    -226.844E-03     68.1147E-03     71.8564E+06     43.2266E+06    -39.1021E+06    -37.6237E+06     41.7482E+06     71.8564E+06     10.8619E+06         78.9547
            1597     11.9623E-03     127.269E-03     296.806E-03     216.891E-03    -750.064E-03     216.855E-03    -750.028E-03     296.806E-03    -7.64671E-03     457.977E-03    -227.098E-03    -230.415E-03    -227.928E-03     455.490E-03    -227.098E-03     81.7000E-03     99.0725E+06     59.7015E+06    -30.1004E+06    -29.1703E+06     58.7714E+06     99.0725E+06     8.93804E+06         85.5523
            1598     12.7594E-03     127.400E-03     295.597E-03     204.203E-03    -735.882E-03     204.132E-03    -735.812E-03     295.597E-03    -4.47206E-03     457.753E-03    -227.084E-03    -230.630E-03    -227.491E-03     454.614E-03    -227.084E-03     92.7132E-03     131.336E+06     86.3958E+06    -20.6236E+06    -20.1984E+06     85.9707E+06     131.336E+06     6.30002E+06         91.3298
            1599     13.5591E-03     127.522E-03     293.990E-03     179.785E-03    -711.966E-03     179.676E-03    -711.858E-03     293.990E-03    -11.2235E-03     458.999E-03    -227.135E-03    -231.432E-03    -227.912E-03     455.479E-03    -227.135E-03     98.1948E-03     164.262E+06     115.445E+06    -10.7004E+06    -10.6002E+06     115.345E+06     164.262E+06     3.07163E+06         95.4072
            1600     793.778E-06     128.184E-03     396.549E-03     342.512E-03    -962.413E-03     338.702E-03    -955.728E-03     393.674E-03    -111.787E-03     445.344E-03    -221.035E-03    -224.424E-03    -221.236E-03     445.305E-03    -224.184E-03     9.08247E-03    -112.528E+06    -115.210E+06    -254.004E+06    -114.706E+06    -253.968E+06    -113.069E+06     1.97534E+06         54.1892
            1601     1.60194E-03     128.186E-03     377.893E-03     356.729E-03    -963.406E-03     367.161E-03    -962.633E-03     366.688E-03    -10.5253E-03     441.990E-03    -219.818E-03    -222.488E-03    -220.275E-03     441.954E-03    -221.995E-03     8.54128E-03    -107.498E+06    -112.867E+06    -244.871E+06    -112.936E+06    -244.802E+06    -107.498E+06     2.74340E+06         54.2594
            1602     2.40595E-03     128.187E-03     394.177E-03     365.301E-03    -986.338E-03     388.615E-03    -985.690E-03     370.216E-03    -39.4230E-03     444.473E-03    -221.258E-03    -223.514E-03    -223.183E-03     444.438E-03    -221.554E-03     9.49383E-03    -97.0171E+06    -109.131E+06    -230.688E+06    -109.274E+06    -230.544E+06    -97.0171E+06     4.04624E+06         54.3567
            1603     3.20201E-03     128.204E-03     402.795E-03     376.254E-03        -1.00429     401.803E-03        -1.00409     377.052E-03    -5.91512E-03     447.734E-03    -222.091E-03    -224.949E-03    -224.907E-03     447.691E-03    -222.091E-03     10.6517E-03    -83.9777E+06    -104.331E+06    -212.806E+06    -104.598E+06    -212.539E+06    -83.9777E+06     5.26728E+06         54.4756
            1604     3.99975E-03     128.221E-03     395.186E-03     380.183E-03        -1.00318     392.936E-03        -1.00288     382.132E-03     27.8466E-03     448.693E-03    -223.139E-03    -225.150E-03    -225.088E-03     448.631E-03    -223.139E-03     12.5783E-03    -69.2323E+06    -98.5762E+06    -191.892E+06    -99.0404E+06    -191.428E+06    -69.2323E+06     6.41527E+06         54.6267
            1605     4.79958E-03     128.248E-03     386.654E-03     373.408E-03    -988.400E-03     376.167E-03    -988.218E-03     383.714E-03     22.9226E-03     449.018E-03    -223.835E-03    -225.835E-03    -225.615E-03     448.904E-03    -223.940E-03     17.0576E-03    -53.2683E+06    -91.9771E+06    -168.496E+06    -92.6945E+06    -167.779E+06    -53.2683E+06     7.24322E+06         54.9262
            1606     5.59994E-03     128.282E-03     382.270E-03     351.459E-03    -962.180E-03     351.236E-03    -961.957E-03     382.270E-03     17.9440E-03     450.441E-03    -223.954E-03    -226.603E-03    -226.295E-03     450.239E-03    -224.060E-03     22.8469E-03    -38.1596E+06    -84.6968E+06    -143.038E+06    -86.0149E+06    -141.720E+06    -38.1596E+06     8.33744E+06         55.6295
            1607     6.39666E-03     128.319E-03     378.512E-03     326.328E-03    -935.187E-03     325.957E-03    -934.816E-03     378.512E-03    -1.26683E-03     453.410E-03    -224.259E-03    -228.273E-03    -227.923E-03     453.060E-03    -224.259E-03     30.3978E-03    -24.3835E+06    -75.7196E+06    -115.795E+06    -78.8541E+06    -112.661E+06    -24.3835E+06     10.0061E+06         56.9164
            1608     7.19238E-03     128.370E-03     373.881E-03     311.766E-03    -917.908E-03     311.521E-03    -917.663E-03     373.881E-03    -3.64168E-03     456.066E-03    -225.288E-03    -230.055E-03    -229.595E-03     455.606E-03    -225.288E-03     35.4004E-03    -11.0094E+06    -60.4675E+06    -89.5982E+06    -71.3558E+06    -78.7098E+06    -11.0094E+06     11.9802E+06         58.7921
            1609     7.98531E-03     128.423E-03     369.706E-03     308.681E-03    -910.477E-03     308.439E-03    -910.235E-03     369.706E-03    -2.41726E-03     457.192E-03    -225.876E-03    -231.160E-03    -230.559E-03     456.591E-03    -225.876E-03     40.4276E-03     2.71519E+06    -28.2589E+06    -71.4553E+06    -63.7739E+06    -35.9403E+06     2.71519E+06     14.9940E+06         61.2124
            1610     8.77914E-03     128.484E-03     366.198E-03     300.669E-03    -900.040E-03     300.462E-03    -899.833E-03     366.198E-03    -7.73520E-03     457.009E-03    -226.002E-03    -231.380E-03    -230.506E-03     456.135E-03    -226.002E-03     48.8458E-03     20.9947E+06     8.69203E+06    -61.4913E+06    -56.9871E+06     8.51579E+06     16.6666E+06     17.3372E+06         64.2311
            1611     9.57318E-03     128.559E-03     362.792E-03     285.329E-03    -881.407E-03     285.227E-03    -881.304E-03     362.792E-03    -490.934E-06     455.955E-03    -226.290E-03    -230.560E-03    -229.427E-03     454.822E-03    -226.290E-03     55.4857E-03     36.3827E+06     26.4044E+06    -54.2246E+06    -50.9119E+06     27.4197E+06     32.0547E+06     16.4377E+06         68.0997
            1612     10.3681E-03     128.657E-03     359.257E-03     271.850E-03    -864.812E-03     271.793E-03    -864.755E-03     359.257E-03    -2.20817E-03     454.738E-03    -226.240E-03    -229.445E-03    -228.153E-03     453.446E-03    -226.240E-03     59.1729E-03     49.6742E+06     35.0791E+06    -47.1343E+06    -44.6643E+06     32.6091E+06     49.6742E+06     13.9369E+06         73.0813
            1613     11.1687E-03     128.745E-03     355.472E-03     252.819E-03    -843.748E-03     252.789E-03    -843.718E-03     355.472E-03     3.45798E-03     455.936E-03    -226.385E-03    -229.516E-03    -227.976E-03     454.396E-03    -226.385E-03     64.7113E-03     71.7351E+06     46.8660E+06    -39.2708E+06    -37.6929E+06     45.2880E+06     71.7351E+06     11.4329E+06         79.2292
            1614     11.9654E-03     128.841E-03     351.226E-03     226.430E-03    -810.671E-03     226.408E-03    -810.649E-03     351.226E-03    -100.950E-06     458.426E-03    -226.909E-03    -231.631E-03    -229.479E-03     456.274E-03    -226.909E-03     76.4707E-03     99.8015E+06     63.5431E+06    -30.7266E+06    -29.8627E+06     62.6793E+06     99.8015E+06     8.75693E+06         85.8809
            1615     12.7639E-03     128.972E-03     346.378E-03     200.972E-03    -777.014E-03     200.957E-03    -776.999E-03     346.378E-03     3.19559E-03     457.782E-03    -226.947E-03    -231.397E-03    -228.637E-03     455.021E-03    -226.947E-03     86.8806E-03     133.951E+06     91.5484E+06    -20.9424E+06    -20.5793E+06     91.1853E+06     133.951E+06     6.01473E+06         91.6657
            1616     13.5627E-03     129.106E-03     340.943E-03     175.802E-03    -747.681E-03     175.775E-03    -747.654E-03     340.943E-03    -3.02931E-03     456.838E-03    -226.797E-03    -229.880E-03    -226.555E-03     453.513E-03    -226.797E-03     95.1496E-03     168.616E+06     121.219E+06    -10.4129E+06    -10.3163E+06     121.122E+06     168.616E+06     3.13667E+06         95.7432
            1617     811.246E-06     129.745E-03     486.979E-03     434.176E-03        -1.13687     454.769E-03        -1.13167     461.177E-03    -50.6397E-03     439.972E-03    -218.904E-03    -221.254E-03    -221.066E-03     439.943E-03    -219.063E-03     5.41698E-03    -115.161E+06    -119.118E+06    -260.344E+06    -117.568E+06    -260.314E+06    -116.741E+06     1.31727E+06         54.0960
            1618     1.60578E-03     129.741E-03     464.958E-03     442.041E-03        -1.12566     449.442E-03        -1.12473     456.627E-03     1.77132E-03     444.358E-03    -220.731E-03    -223.683E-03    -223.650E-03     444.325E-03    -220.731E-03     7.33502E-03    -109.614E+06    -115.258E+06    -249.136E+06    -115.321E+06    -249.073E+06    -109.614E+06     2.84504E+06         54.1764
            1619     2.40279E-03     129.752E-03     467.849E-03     428.646E-03        -1.11780     442.221E-03        -1.11716     453.634E-03    -29.4230E-03     445.554E-03    -221.781E-03    -224.457E-03    -224.419E-03     445.516E-03    -221.781E-03     9.74315E-03    -99.7657E+06    -112.022E+06    -235.684E+06    -112.143E+06    -235.562E+06    -99.7657E+06     3.75162E+06         54.2941
            1620     3.20277E-03     129.770E-03     455.510E-03     420.184E-03        -1.09731     425.767E-03        -1.09700     449.626E-03    -11.1198E-03     448.077E-03    -222.269E-03    -225.676E-03    -225.622E-03     448.023E-03    -222.269E-03     12.0099E-03    -86.1316E+06    -107.103E+06    -217.256E+06    -107.341E+06    -217.018E+06    -86.1316E+06     4.98256E+06         54.4295
            1621     4.00070E-03     129.789E-03     444.996E-03     420.477E-03        -1.08974     419.979E-03        -1.08924     444.996E-03     2.45281E-03     449.545E-03    -223.004E-03    -225.602E-03    -225.528E-03     449.472E-03    -223.004E-03     13.9166E-03    -70.4746E+06    -100.855E+06    -196.174E+06    -101.235E+06    -195.794E+06    -70.4746E+06     5.89109E+06         54.5764
            1622     4.79779E-03     129.816E-03     441.743E-03     422.591E-03        -1.08984     422.231E-03        -1.08948     441.743E-03    -6.98531E-03     447.821E-03    -223.784E-03    -224.707E-03    -224.456E-03     447.722E-03    -223.937E-03     16.2054E-03    -54.0374E+06    -93.9347E+06    -172.983E+06    -94.6145E+06    -172.303E+06    -54.0374E+06     7.10885E+06         54.8701
            1623     5.59713E-03     129.846E-03     439.830E-03     421.132E-03        -1.08636     420.963E-03        -1.08619     439.830E-03    -5.47285E-03     448.496E-03    -223.999E-03    -225.202E-03    -224.889E-03     448.336E-03    -224.152E-03     20.3879E-03    -37.8848E+06    -86.4955E+06    -147.713E+06    -87.7128E+06    -146.496E+06    -37.8848E+06     8.35583E+06         55.5866
            1624     6.39736E-03     129.893E-03     437.799E-03     404.664E-03        -1.07009     404.415E-03        -1.06984     437.799E-03    -16.7173E-03     451.818E-03    -223.830E-03    -227.089E-03    -226.834E-03     451.563E-03    -223.830E-03     26.1917E-03    -23.7043E+06    -78.1286E+06    -120.127E+06    -80.5548E+06    -117.700E+06    -23.7043E+06     9.24131E+06         56.8906
            1625     7.19302E-03     129.949E-03     433.958E-03     371.948E-03        -1.03671     371.739E-03        -1.03650     433.958E-03    -21.1365E-03     453.649E-03    -224.520E-03    -228.233E-03    -227.872E-03     453.288E-03    -224.520E-03     31.2150E-03    -11.1992E+06    -65.4525E+06    -93.4468E+06    -73.4059E+06    -85.4934E+06    -11.1992E+06     10.8310E+06         58.7762
            1626     7.99033E-03     130.006E-03     427.821E-03     337.731E-03    -995.794E-03     337.274E-03    -995.337E-03     427.821E-03    -31.5570E-03     454.675E-03    -225.317E-03    -228.704E-03    -228.172E-03     454.142E-03    -225.317E-03     37.8938E-03     1.24891E+06    -37.5528E+06    -74.8656E+06    -66.4468E+06    -45.9716E+06     1.24891E+06     13.6929E+06         61.2043
            1627     8.78637E-03     130.068E-03     420.722E-03     320.286E-03    -970.617E-03     319.831E-03    -970.163E-03     420.722E-03    -35.7318E-03     456.449E-03    -225.500E-03    -230.489E-03    -229.661E-03     455.622E-03    -225.500E-03     47.2775E-03     19.3094E+06     1.84049E+06    -63.6869E+06    -59.1688E+06     2.10228E+06     14.5295E+06     16.7445E+06         64.2562
            1628     9.58001E-03     130.138E-03     414.530E-03     319.135E-03    -963.694E-03     319.066E-03    -963.625E-03     414.530E-03    -14.7446E-03     457.186E-03    -225.915E-03    -231.828E-03    -230.666E-03     456.024E-03    -225.915E-03     56.3217E-03     34.2719E+06     27.1569E+06    -55.6452E+06    -52.0905E+06     29.0244E+06     28.8497E+06     17.3428E+06         68.2015
            1629     10.3759E-03     130.237E-03     409.246E-03     307.587E-03    -945.241E-03     307.512E-03    -945.165E-03     409.246E-03    -10.2531E-03     454.734E-03    -226.116E-03    -229.778E-03    -228.460E-03     453.416E-03    -226.116E-03     59.8566E-03     47.3006E+06     38.4841E+06    -47.9891E+06    -45.2965E+06     36.4338E+06     46.6583E+06     14.9564E+06         73.2744
            1630     11.1737E-03     130.316E-03     403.392E-03     276.644E-03    -908.144E-03     276.408E-03    -907.908E-03     403.392E-03    -11.5194E-03     454.764E-03    -226.159E-03    -229.175E-03    -227.439E-03     453.028E-03    -226.159E-03     68.2784E-03     70.9273E+06     51.0549E+06    -39.7488E+06    -38.1114E+06     49.4175E+06     70.9273E+06     11.9438E+06         79.5085
            1631     11.9687E-03     130.440E-03     396.522E-03     242.511E-03    -869.261E-03     242.282E-03    -869.032E-03     396.522E-03    -15.3798E-03     457.467E-03    -226.555E-03    -231.540E-03    -229.083E-03     455.010E-03    -226.555E-03     81.7000E-03     101.099E+06     68.5834E+06    -30.8952E+06    -30.0543E+06     67.7425E+06     101.099E+06     8.80140E+06         86.2225
            1632     12.7612E-03     130.578E-03     388.946E-03     213.005E-03    -832.130E-03     212.986E-03    -832.111E-03     388.946E-03    -6.68568E-03     458.013E-03    -226.697E-03    -232.217E-03    -228.994E-03     454.791E-03    -226.697E-03     93.2551E-03     136.765E+06     96.0653E+06    -21.2898E+06    -20.9721E+06     95.7476E+06     136.765E+06     5.81484E+06         92.0266
            1633     13.5613E-03     130.686E-03     380.880E-03     187.862E-03    -798.661E-03     187.828E-03    -798.627E-03     380.880E-03    -10.4065E-03     457.536E-03    -226.740E-03    -231.083E-03    -227.367E-03     453.819E-03    -226.740E-03     100.477E-03     172.656E+06     126.440E+06    -10.8610E+06    -10.7640E+06     126.343E+06     172.656E+06     3.33780E+06         96.1020
            1634     801.493E-06     131.298E-03     587.337E-03     524.391E-03        -1.32532     583.298E-03        -1.32386     526.975E-03    -11.4474E-03     442.923E-03    -219.219E-03    -223.914E-03    -221.167E-03     442.919E-03    -221.963E-03    -874.915E-06    -116.148E+06    -121.248E+06    -265.243E+06    -119.500E+06    -265.232E+06    -117.906E+06     539.603E+03         54.0627
            1635     1.60414E-03     131.302E-03     547.220E-03     514.690E-03        -1.27245     514.320E-03        -1.27208     547.220E-03     35.3115E-03     445.097E-03    -220.557E-03    -224.482E-03    -223.027E-03     445.083E-03    -221.998E-03     4.71879E-03    -112.668E+06    -117.511E+06    -254.497E+06    -117.393E+06    -254.437E+06    -112.846E+06     2.47900E+06         54.1411
            1636     2.40416E-03     131.321E-03     528.482E-03     462.109E-03        -1.20300     462.065E-03        -1.20295     528.482E-03     5.21045E-03     446.994E-03    -222.628E-03    -224.812E-03    -224.772E-03     446.954E-03    -222.628E-03     10.1119E-03    -102.344E+06    -113.990E+06    -240.205E+06    -114.118E+06    -240.078E+06    -102.344E+06     3.95668E+06         54.2536
            1637     3.20274E-03     131.343E-03     509.966E-03     444.021E-03        -1.16957     443.836E-03        -1.16939     509.966E-03    -12.4372E-03     448.193E-03    -223.040E-03    -225.587E-03    -225.536E-03     448.142E-03    -223.040E-03     11.5888E-03    -88.5619E+06    -109.271E+06    -221.222E+06    -109.458E+06    -221.034E+06    -88.5619E+06     4.52999E+06         54.3882
            1638     3.99946E-03     131.379E-03     497.542E-03     446.922E-03        -1.16337     446.654E-03        -1.16310     497.542E-03    -13.6477E-03     448.900E-03    -223.067E-03    -224.903E-03    -224.695E-03     448.837E-03    -223.212E-03     12.8658E-03    -72.8809E+06    -103.412E+06    -200.520E+06    -103.728E+06    -200.204E+06    -72.8809E+06     5.41354E+06         54.5442
            1639     4.79829E-03     131.396E-03     490.539E-03     456.519E-03        -1.16772     456.308E-03        -1.16750     490.539E-03    -17.8273E-03     448.483E-03    -223.583E-03    -224.960E-03    -224.660E-03     448.375E-03    -223.775E-03     16.9033E-03    -55.8490E+06    -96.4187E+06    -177.521E+06    -96.9907E+06    -176.949E+06    -55.8490E+06     6.63220E+06         54.8431
            1640     5.59743E-03     131.427E-03     486.795E-03     461.283E-03        -1.16883     461.113E-03        -1.16866     486.795E-03    -2.18592E-03     449.285E-03    -224.437E-03    -226.115E-03    -225.875E-03     449.091E-03    -224.484E-03     22.6101E-03    -38.8457E+06    -88.3036E+06    -151.825E+06    -89.3178E+06    -150.811E+06    -38.8457E+06     7.73826E+06         55.5650
            1641     6.39245E-03     131.478E-03     483.744E-03     445.803E-03        -1.15189     445.702E-03        -1.15179     483.744E-03     1.43558E-03     450.837E-03    -224.270E-03    -226.606E-03    -226.332E-03     450.563E-03    -224.270E-03     27.1827E-03    -23.5006E+06    -79.6447E+06    -124.566E+06    -81.7169E+06    -122.494E+06    -23.5006E+06     8.95029E+06         56.8772
            1642     7.19227E-03     131.524E-03     479.075E-03     415.682E-03        -1.11960     415.553E-03        -1.11948     479.075E-03     1.52509E-03     451.221E-03    -224.308E-03    -226.347E-03    -225.979E-03     450.853E-03    -224.308E-03     31.3616E-03    -10.6496E+06    -68.3874E+06    -98.7591E+06    -74.7117E+06    -92.4348E+06    -10.6496E+06     10.8659E+06         58.7683
            1643     7.99003E-03     131.582E-03     472.901E-03     393.040E-03        -1.09123     392.656E-03        -1.09084     472.901E-03    -12.2169E-03     452.470E-03    -224.890E-03    -226.474E-03    -225.937E-03     451.933E-03    -224.890E-03     37.9234E-03     1.11642E+06    -43.7905E+06    -77.8213E+06    -67.7159E+06    -53.8959E+06     1.11642E+06     12.9960E+06         61.2004
            1644     8.78787E-03     131.639E-03     466.414E-03     371.535E-03        -1.06046     371.175E-03        -1.06010     466.414E-03    -15.4890E-03     454.942E-03    -225.049E-03    -229.179E-03    -228.330E-03     454.093E-03    -225.049E-03     47.7150E-03     15.7473E+06    -3.01732E+06    -64.7999E+06    -60.4690E+06    -5.58964E+06     13.9887E+06     15.3680E+06         64.2860
            1645     9.58433E-03     131.720E-03     459.026E-03     334.074E-03        -1.01521     334.000E-03        -1.01514     459.026E-03     628.901E-06     455.851E-03    -225.382E-03    -230.765E-03    -229.739E-03     454.826E-03    -225.382E-03     52.9871E-03     31.4565E+06     27.0388E+06    -56.3140E+06    -52.9761E+06     27.6880E+06     27.4694E+06     16.7154E+06         68.3175
            1646     10.3793E-03     131.799E-03     450.063E-03     296.897E-03    -971.195E-03     296.761E-03    -971.058E-03     450.063E-03     4.20643E-03     454.557E-03    -225.858E-03    -229.680E-03    -228.577E-03     453.454E-03    -225.858E-03     54.7997E-03     45.8001E+06     41.0476E+06    -48.5225E+06    -45.9491E+06     40.7502E+06     43.5242E+06     15.0210E+06         73.4877
            1647     11.1763E-03     131.906E-03     440.381E-03     275.907E-03    -938.249E-03     275.566E-03    -937.909E-03     440.381E-03    -2.52006E-03     453.942E-03    -226.000E-03    -228.962E-03    -227.354E-03     452.334E-03    -226.000E-03     65.5505E-03     68.0963E+06     55.2960E+06    -40.2893E+06    -38.7642E+06     53.8184E+06     68.0488E+06     11.8011E+06         79.8040
            1648     11.9782E-03     131.997E-03     430.854E-03     257.301E-03    -911.446E-03     257.071E-03    -911.216E-03     430.854E-03    -13.8778E-03     453.552E-03    -225.447E-03    -228.839E-03    -225.743E-03     451.289E-03    -226.280E-03     77.6634E-03     101.054E+06     73.0458E+06    -31.3756E+06    -30.5618E+06     72.2320E+06     101.054E+06     8.99300E+06         86.5855
            1649     12.7821E-03     132.138E-03     421.500E-03     231.882E-03    -880.400E-03     231.849E-03    -880.367E-03     421.500E-03    -36.0277E-06     454.770E-03    -225.549E-03    -230.146E-03    -226.160E-03     451.617E-03    -226.382E-03     91.4725E-03     139.625E+06     100.900E+06    -21.9857E+06    -21.6175E+06     100.532E+06     139.625E+06     6.38132E+06         92.4262
            1650     13.5775E-03     132.299E-03     411.754E-03     198.690E-03    -837.738E-03     198.619E-03    -837.667E-03     411.754E-03    -7.43617E-03     459.430E-03    -226.503E-03    -233.489E-03    -229.734E-03     455.674E-03    -226.503E-03     101.414E-03     177.103E+06     132.316E+06    -11.4299E+06    -11.3265E+06     132.212E+06     177.103E+06     3.41372E+06         96.5088
            1651     794.345E-06     132.846E-03     584.534E-03     542.183E-03        -1.33459     579.343E-03        -1.33126     544.038E-03    -81.4149E-03     447.479E-03    -222.184E-03    -225.337E-03    -222.580E-03     447.466E-03    -224.928E-03     2.74947E-03    -117.518E+06    -122.980E+06    -270.511E+06    -120.859E+06    -270.484E+06    -119.665E+06     1.35572E+06         54.0554
            1652     1.60089E-03     132.860E-03     576.231E-03     536.806E-03        -1.31967     552.914E-03        -1.31935     559.795E-03     17.5709E-03     446.456E-03    -222.315E-03    -224.069E-03    -222.578E-03     446.428E-03    -223.778E-03     8.13558E-03    -115.093E+06    -119.828E+06    -259.426E+06    -119.712E+06    -259.363E+06    -115.271E+06     2.55941E+06         54.1382
            1653     2.40158E-03     132.876E-03     581.662E-03     514.018E-03        -1.30568     540.230E-03        -1.30563     555.403E-03    -13.9096E-03     448.248E-03    -223.540E-03    -224.791E-03    -224.357E-03     448.209E-03    -223.935E-03     10.1460E-03    -105.386E+06    -116.641E+06    -244.587E+06    -116.750E+06    -244.479E+06    -105.386E+06     3.57096E+06         54.2484
            1654     3.19766E-03     132.913E-03     562.981E-03     512.795E-03        -1.28560     525.572E-03        -1.28549     550.096E-03    -11.3876E-03     448.002E-03    -223.464E-03    -225.284E-03    -224.506E-03     447.956E-03    -224.196E-03     10.9721E-03    -90.9382E+06    -111.862E+06    -225.136E+06    -112.047E+06    -224.951E+06    -90.9382E+06     4.51647E+06         54.3745
            1655     3.99913E-03     132.925E-03     545.229E-03     502.298E-03        -1.26139     503.650E-03        -1.26128     543.761E-03     325.476E-06     448.125E-03    -223.432E-03    -224.452E-03    -223.888E-03     448.065E-03    -223.937E-03     12.5150E-03    -74.5591E+06    -106.018E+06    -204.227E+06    -106.310E+06    -203.935E+06    -74.5591E+06     5.27936E+06         54.5345
            1656     4.80002E-03     132.998E-03     536.089E-03     480.896E-03        -1.23211     480.819E-03        -1.23203     536.089E-03    -3.43261E-03     449.542E-03    -223.796E-03    -225.386E-03    -225.133E-03     449.434E-03    -223.941E-03     16.8038E-03    -57.7472E+06    -99.0936E+06    -181.217E+06    -99.5395E+06    -180.771E+06    -57.7472E+06     5.94968E+06         54.8476
            1657     5.59476E-03     132.995E-03     527.519E-03     460.663E-03        -1.20353     460.599E-03        -1.20347     527.519E-03    -7.64688E-03     449.594E-03    -224.567E-03    -226.134E-03    -225.958E-03     449.418E-03    -224.567E-03     21.5954E-03    -41.3233E+06    -91.5300E+06    -155.623E+06    -92.2751E+06    -154.878E+06    -41.3233E+06     6.69336E+06         55.5783
            1658     6.39476E-03     133.040E-03     519.469E-03     454.058E-03        -1.19017     454.020E-03        -1.19014     519.469E-03    -6.36788E-03     449.735E-03    -224.659E-03    -225.619E-03    -225.352E-03     449.468E-03    -224.659E-03     26.5528E-03    -25.8260E+06    -82.9652E+06    -129.579E+06    -84.6435E+06    -127.900E+06    -25.8260E+06     8.20885E+06         56.8971
            1659     7.19192E-03     133.097E-03     513.116E-03     457.390E-03        -1.18564     457.281E-03        -1.18553     513.116E-03     5.00804E-03     449.747E-03    -224.393E-03    -225.350E-03    -224.977E-03     449.374E-03    -224.393E-03     31.6342E-03    -11.6340E+06    -71.9739E+06    -102.879E+06    -76.4973E+06    -98.3557E+06    -11.6340E+06     9.85482E+06         58.7974
            1660     7.99298E-03     133.098E-03     507.543E-03     438.861E-03        -1.16373     438.680E-03        -1.16354     507.543E-03    -2.51904E-03     451.157E-03    -224.637E-03    -225.613E-03    -225.047E-03     450.591E-03    -224.637E-03     38.7671E-03     1.05421E+06    -49.5409E+06    -79.6788E+06    -68.4835E+06    -60.7361E+06     1.05421E+06     11.8891E+06         61.2349
            1661     8.79096E-03     133.220E-03     500.735E-03     396.877E-03        -1.11358     396.700E-03        -1.11340     500.735E-03    -983.522E-06     453.046E-03    -224.669E-03    -227.503E-03    -226.546E-03     452.088E-03    -224.669E-03     50.5479E-03     14.1363E+06    -9.02593E+06    -65.8397E+06    -61.1994E+06    -13.6662E+06     14.1363E+06     14.7163E+06         64.3510
            1662     9.58512E-03     133.317E-03     491.487E-03     349.277E-03        -1.05532     349.173E-03        -1.05522     491.487E-03     6.18247E-03     453.448E-03    -224.900E-03    -228.627E-03    -227.429E-03     452.251E-03    -224.900E-03     56.8584E-03     31.3653E+06     23.7923E+06    -57.5099E+06    -54.4081E+06     25.3831E+06     26.6728E+06     15.8440E+06         68.4693
            1663     10.3821E-03     133.383E-03     480.384E-03     311.045E-03        -1.00830     310.897E-03        -1.00815     480.384E-03     6.10801E-03     454.425E-03    -225.649E-03    -230.038E-03    -228.670E-03     453.057E-03    -225.649E-03     60.6064E-03     47.1728E+06     42.2376E+06    -49.3987E+06    -47.2130E+06     44.7919E+06     42.4329E+06     14.2288E+06         73.7377
            1664     11.1777E-03     133.494E-03     468.809E-03     285.316E-03    -968.529E-03     285.176E-03    -968.389E-03     468.809E-03     11.7460E-03     455.406E-03    -225.950E-03    -230.983E-03    -229.248E-03     453.671E-03    -225.950E-03     68.5570E-03     67.0716E+06     58.9700E+06    -41.1191E+06    -39.7107E+06     57.6091E+06     67.0242E+06     11.6759E+06         80.1258
            1665     11.9727E-03     133.589E-03     457.166E-03     257.166E-03    -927.481E-03     257.140E-03    -927.454E-03     457.166E-03    -531.288E-06     453.687E-03    -225.423E-03    -228.914E-03    -226.007E-03     451.613E-03    -226.256E-03     74.7279E-03     100.197E+06     76.6251E+06    -32.4966E+06    -31.6715E+06     75.8000E+06     100.197E+06     9.27344E+06         86.9567
            1666     12.7727E-03     133.716E-03     445.323E-03     225.520E-03    -884.781E-03     225.471E-03    -884.732E-03     445.323E-03     11.9275E-03     453.286E-03    -225.488E-03    -228.543E-03    -224.844E-03     450.420E-03    -226.321E-03     87.2687E-03     141.469E+06     106.001E+06    -22.3301E+06    -21.9518E+06     105.623E+06     141.469E+06     6.59851E+06         92.8291
            1667     13.5780E-03     133.887E-03     432.999E-03     189.663E-03    -837.159E-03     189.530E-03    -837.026E-03     432.999E-03     10.5746E-03     458.722E-03    -226.296E-03    -232.964E-03    -229.343E-03     455.101E-03    -226.296E-03     99.6360E-03     181.301E+06     138.517E+06    -11.1130E+06    -11.0090E+06     138.414E+06     181.301E+06     3.47449E+06         96.9339
            1668     805.743E-06     134.419E-03     553.757E-03     504.816E-03        -1.26889     549.690E-03        -1.26482     504.816E-03    -84.7943E-03     447.205E-03    -222.369E-03    -224.866E-03    -224.854E-03     447.194E-03    -222.369E-03     4.44528E-03    -122.715E+06    -127.640E+06    -275.641E+06    -125.703E+06    -275.609E+06    -124.684E+06     1.71978E+06         54.0689
            1669     1.59702E-03     134.419E-03     576.038E-03     536.892E-03        -1.31884     575.597E-03        -1.31840     536.892E-03     10.2167E-03     450.478E-03    -224.250E-03    -226.225E-03    -226.174E-03     450.449E-03    -224.272E-03     8.24091E-03    -118.352E+06    -123.295E+06    -264.489E+06    -123.360E+06    -264.424E+06    -118.352E+06     2.66170E+06         54.1418
            1670     2.39588E-03     134.451E-03     606.400E-03     555.159E-03        -1.36763     606.276E-03        -1.36750     555.159E-03    -21.9814E-03     448.613E-03    -223.386E-03    -224.897E-03    -223.346E-03     448.573E-03    -224.896E-03     10.3721E-03    -107.271E+06    -119.991E+06    -248.316E+06    -120.089E+06    -248.217E+06    -107.271E+06     3.39676E+06         54.2531
            1671     3.19916E-03     134.477E-03     599.755E-03     567.758E-03        -1.37331     599.674E-03        -1.37323     567.758E-03    -13.6676E-03     447.659E-03    -223.014E-03    -224.929E-03    -223.036E-03     447.614E-03    -224.862E-03     10.9218E-03    -92.5198E+06    -114.948E+06    -228.612E+06    -115.091E+06    -228.469E+06    -92.5198E+06     3.96809E+06         54.3857
            1672     3.99866E-03     134.495E-03     577.152E-03     551.009E-03        -1.33724     557.485E-03        -1.33716     570.596E-03    -8.94171E-03     449.474E-03    -224.401E-03    -225.331E-03    -224.911E-03     449.413E-03    -224.761E-03     12.6752E-03    -76.0773E+06    -108.281E+06    -207.783E+06    -108.522E+06    -207.542E+06    -76.0773E+06     4.77980E+06         54.5456
            1673     4.79416E-03     134.507E-03     565.314E-03     513.307E-03        -1.28930     513.242E-03        -1.28924     565.314E-03    -6.14153E-03     450.262E-03    -224.583E-03    -225.658E-03    -225.434E-03     450.149E-03    -224.694E-03     17.1468E-03    -58.7456E+06    -100.979E+06    -184.215E+06    -101.349E+06    -183.845E+06    -58.7456E+06     5.47525E+06         54.8696
            1674     5.59365E-03     134.582E-03     556.463E-03     486.160E-03        -1.25343     486.061E-03        -1.25333     556.463E-03    -2.66839E-03     449.437E-03    -224.731E-03    -225.343E-03    -225.046E-03     449.268E-03    -224.859E-03     21.2333E-03    -42.0100E+06    -93.2468E+06    -159.061E+06    -93.8297E+06    -158.478E+06    -42.0100E+06     6.01506E+06         55.6196
            1675     6.39059E-03     134.607E-03     547.288E-03     471.087E-03        -1.23046     471.010E-03        -1.23038     547.288E-03    -2.25817E-03     449.472E-03    -224.880E-03    -224.927E-03    -224.674E-03     449.236E-03    -224.896E-03     25.0127E-03    -27.0888E+06    -84.7882E+06    -133.208E+06    -85.8442E+06    -132.152E+06    -27.0888E+06     6.73743E+06         56.9565
            1676     7.19257E-03     134.650E-03     538.582E-03     455.631E-03        -1.20207     455.470E-03        -1.20191     538.582E-03     6.40643E-03     448.993E-03    -224.657E-03    -225.093E-03    -224.765E-03     448.665E-03    -224.657E-03     29.6479E-03    -13.3893E+06    -74.8662E+06    -106.136E+06    -77.6629E+06    -103.339E+06    -13.3893E+06     7.93496E+06         58.8756
            1677     7.99056E-03     134.717E-03     529.141E-03     421.010E-03        -1.15773     420.784E-03        -1.15750     529.141E-03     2.67151E-03     450.030E-03    -224.600E-03    -225.240E-03    -224.720E-03     449.510E-03    -224.600E-03     37.0710E-03     202.298E+03    -55.7250E+06    -81.8068E+06    -69.6298E+06    -67.9020E+06     202.298E+03     10.0886E+06         61.3309
            1678     8.78963E-03     134.797E-03     518.453E-03     390.760E-03        -1.11718     390.635E-03        -1.11706     518.453E-03    -5.52988E-03     450.297E-03    -224.470E-03    -225.250E-03    -224.400E-03     449.446E-03    -224.470E-03     47.4221E-03     13.7677E+06    -18.7980E+06    -66.2047E+06    -61.5723E+06    -23.4303E+06     13.7677E+06     13.3234E+06         64.4809
            1679     9.59519E-03     134.905E-03     507.642E-03     375.804E-03        -1.08832     375.738E-03        -1.08826     507.642E-03    -2.94534E-03     449.226E-03    -224.001E-03    -225.712E-03    -224.155E-03     448.167E-03    -224.500E-03     52.7312E-03     34.2682E+06     18.7988E+06    -57.0643E+06    -53.9518E+06     23.1091E+06     26.8454E+06     15.4015E+06         68.6693
            1680     10.3942E-03     134.986E-03     496.863E-03     347.421E-03        -1.04993     347.354E-03        -1.04986     496.863E-03    -2.64753E-03     450.909E-03    -224.726E-03    -227.854E-03    -225.971E-03     449.524E-03    -225.225E-03     60.4043E-03     51.0429E+06     43.1275E+06    -48.9192E+06    -46.8753E+06     48.5065E+06     43.6201E+06     14.0470E+06         74.0287
            1681     11.1882E-03     135.071E-03     485.241E-03     306.068E-03    -998.236E-03     306.000E-03    -998.169E-03     485.241E-03    -2.31813E-03     453.931E-03    -225.527E-03    -230.023E-03    -228.083E-03     451.990E-03    -225.527E-03     72.5641E-03     67.4993E+06     61.4235E+06    -41.1544E+06    -39.7527E+06     60.0219E+06     67.4993E+06     11.8349E+06         80.5036
            1682     11.9841E-03     135.178E-03     472.331E-03     260.179E-03    -939.715E-03     260.135E-03    -939.671E-03     472.331E-03    -8.06427E-03     455.972E-03    -225.698E-03    -230.738E-03    -228.287E-03     453.520E-03    -225.698E-03     81.8060E-03     100.107E+06     81.2430E+06    -32.8352E+06    -31.9953E+06     80.4031E+06     100.107E+06     9.49727E+06         87.3886
            1683     12.7823E-03     135.279E-03     458.219E-03     214.523E-03    -878.533E-03     214.466E-03    -878.476E-03     458.219E-03     3.14703E-03     458.857E-03    -225.948E-03    -233.436E-03    -230.046E-03     455.467E-03    -225.948E-03     96.1703E-03     142.999E+06     111.381E+06    -22.8453E+06    -22.5066E+06     111.042E+06     142.999E+06     6.36844E+06         93.2714
            1684     13.5768E-03     135.458E-03     443.318E-03     177.856E-03    -823.256E-03     177.750E-03    -823.151E-03     443.318E-03     5.94740E-03     459.416E-03    -226.092E-03    -234.020E-03    -230.103E-03     455.499E-03    -226.092E-03     103.901E-03     184.819E+06     144.210E+06    -11.5684E+06    -11.4778E+06     144.120E+06     184.819E+06     3.36753E+06         97.3795
            1685     798.630E-06     135.983E-03     612.656E-03     515.448E-03        -1.33164     603.904E-03        -1.32289     515.448E-03    -144.865E-03     450.055E-03    -223.542E-03    -226.571E-03    -226.056E-03     450.026E-03    -224.028E-03     7.31463E-03    -125.936E+06    -131.915E+06    -279.182E+06    -129.434E+06    -279.168E+06    -128.431E+06     1.20736E+06         54.1681
            1686     1.59551E-03     135.999E-03     591.106E-03     559.702E-03        -1.34731     584.925E-03        -1.34668     565.248E-03    -6.59240E-03     451.714E-03    -224.674E-03    -226.993E-03    -226.340E-03     451.694E-03    -225.307E-03     6.68335E-03    -121.810E+06    -127.508E+06    -269.361E+06    -127.551E+06    -269.318E+06    -121.810E+06     2.03132E+06         54.2036
            1687     2.39356E-03     136.019E-03     597.516E-03     559.261E-03        -1.35317     583.867E-03        -1.35280     572.534E-03    -32.8416E-03     449.775E-03    -224.094E-03    -225.430E-03    -224.067E-03     449.746E-03    -225.429E-03     8.52422E-03    -109.959E+06    -123.207E+06    -251.941E+06    -123.288E+06    -251.860E+06    -109.959E+06     3.00098E+06         54.2807
            1688     3.19547E-03     136.037E-03     594.613E-03     563.050E-03        -1.35575     582.129E-03        -1.35571     575.502E-03     9.77119E-03     449.274E-03    -223.932E-03    -225.375E-03    -223.959E-03     449.234E-03    -225.308E-03     10.2870E-03    -93.7815E+06    -117.635E+06    -231.193E+06    -117.736E+06    -231.092E+06    -93.7815E+06     3.36336E+06         54.4045
            1689     3.99360E-03     136.077E-03     580.983E-03     564.913E-03        -1.34784     569.903E-03        -1.34766     575.813E-03     26.8172E-03     450.309E-03    -224.628E-03    -225.788E-03    -224.888E-03     450.258E-03    -225.476E-03     11.5330E-03    -76.9181E+06    -110.852E+06    -210.643E+06    -110.989E+06    -210.505E+06    -76.9181E+06     3.58316E+06         54.5656
            1690     4.79341E-03     136.081E-03     573.825E-03     555.164E-03        -1.33006     555.095E-03        -1.32991     573.742E-03     20.0689E-03     449.482E-03    -224.131E-03    -225.702E-03    -224.273E-03     449.379E-03    -225.458E-03     16.1399E-03    -59.5797E+06    -102.905E+06    -186.976E+06    -103.136E+06    -186.745E+06    -59.5797E+06     4.20159E+06         54.8985
            1691     5.59178E-03     136.142E-03     569.361E-03     528.296E-03        -1.29855     528.221E-03        -1.29847     569.361E-03     348.250E-06     448.449E-03    -223.825E-03    -225.247E-03    -223.655E-03     448.278E-03    -225.247E-03     21.3020E-03    -42.1742E+06    -94.4225E+06    -161.374E+06    -94.7704E+06    -161.026E+06    -42.1742E+06     4.65447E+06         55.6775
            1692     6.39210E-03     136.170E-03     561.417E-03     480.453E-03        -1.24456     480.352E-03        -1.24445     561.417E-03    -7.67282E-03     449.598E-03    -224.313E-03    -225.329E-03    -224.303E-03     449.328E-03    -225.069E-03     26.6127E-03    -26.8555E+06    -85.8375E+06    -135.555E+06    -86.3894E+06    -135.003E+06    -26.8555E+06     4.99639E+06         57.0512
            1693     7.18768E-03     136.248E-03     549.880E-03     432.741E-03        -1.18336     432.591E-03        -1.18321     549.880E-03     5.59915E-03     449.938E-03    -224.896E-03    -226.067E-03    -225.709E-03     449.580E-03    -224.896E-03     31.0376E-03    -13.5003E+06    -76.6683E+06    -109.607E+06    -78.1865E+06    -108.089E+06    -13.5003E+06     6.12060E+06         59.0012
            1694     7.98841E-03     136.295E-03     536.959E-03     407.246E-03        -1.14457     407.111E-03        -1.14444     536.959E-03     17.3011E-03     449.296E-03    -224.724E-03    -225.726E-03    -225.140E-03     448.792E-03    -224.806E-03     36.5600E-03    -390.927E+03    -60.9057E+06    -83.9824E+06    -70.1121E+06    -74.7760E+06    -390.927E+03     8.10778E+06         61.4861
            1695     8.78847E-03     136.384E-03     524.609E-03     392.978E-03        -1.11718     392.748E-03        -1.11695     524.609E-03     22.8951E-03     448.980E-03    -224.536E-03    -225.165E-03    -224.314E-03     448.210E-03    -224.617E-03     45.2955E-03     12.7676E+06    -28.8798E+06    -66.6059E+06    -62.2556E+06    -33.2301E+06     12.7676E+06     11.0592E+06         64.6741
            1696     9.58435E-03     136.457E-03     512.768E-03     369.863E-03        -1.07857     369.521E-03        -1.07823     512.768E-03     27.7053E-03     447.827E-03    -223.986E-03    -225.089E-03    -223.655E-03     446.955E-03    -224.548E-03     48.2075E-03     34.5484E+06     12.5802E+06    -57.1494E+06    -54.4108E+06     18.3360E+06     26.0540E+06     13.8680E+06         68.9103
            1697     10.3888E-03     136.532E-03     500.476E-03     337.363E-03        -1.03306     337.199E-03        -1.03289     500.476E-03     18.5352E-03     447.172E-03    -223.864E-03    -225.131E-03    -222.875E-03     446.122E-03    -225.070E-03     52.5520E-03     52.2804E+06     41.7077E+06    -49.3019E+06    -47.2212E+06     49.9024E+06     42.0051E+06     14.3337E+06         74.3331
            1698     11.1958E-03     136.646E-03     487.169E-03     297.967E-03    -982.293E-03     297.893E-03    -982.219E-03     487.169E-03     8.80991E-03     448.637E-03    -223.838E-03    -226.020E-03    -223.347E-03     447.216E-03    -225.091E-03     60.9787E-03     66.6858E+06     62.5041E+06    -41.9958E+06    -40.4591E+06     62.7482E+06     64.9050E+06     12.5093E+06         80.8902
            1699     11.9974E-03     136.745E-03     472.675E-03     253.699E-03    -924.734E-03     253.664E-03    -924.698E-03     472.675E-03    -1.34365E-03     453.190E-03    -224.313E-03    -228.866E-03    -226.278E-03     451.210E-03    -224.921E-03     72.3128E-03     99.4259E+06     86.7151E+06    -33.2017E+06    -32.3891E+06     85.9025E+06     99.4259E+06     9.55326E+06         87.8428
            1700     12.7898E-03     136.879E-03     457.144E-03     212.700E-03    -868.935E-03     212.672E-03    -868.907E-03     457.144E-03    -2.58528E-03     460.013E-03    -225.273E-03    -234.820E-03    -231.586E-03     456.779E-03    -225.273E-03     93.6970E-03     144.821E+06     116.782E+06    -22.9874E+06    -22.6656E+06     116.460E+06     144.821E+06     6.35624E+06         93.7525
            1701     13.5789E-03     137.054E-03     440.990E-03     176.347E-03    -814.738E-03     176.316E-03    -814.706E-03     440.990E-03    -3.43352E-03     460.239E-03    -225.664E-03    -235.257E-03    -231.518E-03     456.500E-03    -225.664E-03     101.604E-03     188.516E+06     149.794E+06    -11.6613E+06    -11.5724E+06     149.705E+06     188.516E+06     3.40581E+06         97.8692
            1702     794.994E-06     137.554E-03     669.491E-03     567.415E-03        -1.42837     644.781E-03        -1.41796     581.714E-03    -159.704E-03     453.803E-03    -225.713E-03    -227.954E-03    -226.121E-03     453.756E-03    -227.499E-03     11.0820E-03    -127.404E+06    -134.850E+06    -282.427E+06    -132.066E+06    -282.388E+06    -130.227E+06     1.77426E+06         54.3384
            1703     1.59551E-03     137.580E-03     609.333E-03     573.517E-03        -1.37249     575.777E-03        -1.37160     606.184E-03     4.50604E-03     451.982E-03    -225.497E-03    -226.464E-03    -225.477E-03     451.962E-03    -226.464E-03     6.90626E-03    -124.709E+06    -130.258E+06    -272.162E+06    -129.948E+06    -272.144E+06    -125.036E+06     1.42933E+06         54.3449
            1704     2.39426E-03     137.588E-03     591.643E-03     549.469E-03        -1.32940     549.020E-03        -1.32895     591.643E-03    -29.9101E-03     452.074E-03    -225.841E-03    -226.254E-03    -225.967E-03     452.052E-03    -226.106E-03     7.23513E-03    -113.609E+06    -126.241E+06    -255.056E+06    -126.282E+06    -255.015E+06    -113.609E+06     2.04564E+06         54.3659
            1705     3.18902E-03     137.610E-03     579.391E-03     538.310E-03        -1.30513     538.068E-03        -1.30489     579.391E-03    -1.68018E-03     451.433E-03    -225.008E-03    -226.183E-03    -225.102E-03     451.380E-03    -226.035E-03     11.6065E-03    -96.3956E+06    -120.614E+06    -232.998E+06    -120.680E+06    -232.932E+06    -96.3956E+06     2.60831E+06         54.4411
            1706     3.98824E-03     137.646E-03     571.337E-03     543.305E-03        -1.30515     543.036E-03        -1.30480     571.254E-03     4.85746E-03     450.248E-03    -224.120E-03    -225.993E-03    -224.046E-03     450.174E-03    -225.993E-03     13.7409E-03    -77.7173E+06    -113.375E+06    -211.675E+06    -113.435E+06    -211.616E+06    -77.7173E+06     2.35464E+06         54.5862
            1707     4.78800E-03     137.697E-03     565.986E-03     539.242E-03        -1.29505     539.126E-03        -1.29485     565.903E-03     5.43101E-03     449.062E-03    -223.633E-03    -225.941E-03    -223.541E-03     448.970E-03    -225.941E-03     15.4702E-03    -59.8322E+06    -105.213E+06    -189.127E+06    -105.285E+06    -189.055E+06    -59.8322E+06     2.11721E+06         54.9293
            1708     5.58967E-03     137.707E-03     560.019E-03     515.331E-03        -1.26213     515.242E-03        -1.26204     560.019E-03    -17.8808E-03     448.077E-03    -222.897E-03    -225.743E-03    -222.757E-03     447.937E-03    -225.743E-03     19.2392E-03    -42.5190E+06    -96.3856E+06    -163.119E+06    -96.5069E+06    -162.997E+06    -42.5190E+06     2.51299E+06         55.7498
            1709     6.39044E-03     137.757E-03     551.856E-03     483.160E-03        -1.22194     483.039E-03        -1.22182     551.856E-03    -4.01043E-03     449.226E-03    -223.601E-03    -225.693E-03    -223.604E-03     448.971E-03    -225.434E-03     25.7420E-03    -26.8393E+06    -87.5176E+06    -137.614E+06    -87.7577E+06    -137.374E+06    -26.8393E+06     3.15017E+06         57.1782
            1710     7.19141E-03     137.805E-03     541.945E-03     452.889E-03        -1.18433     452.757E-03        -1.18420     541.945E-03     12.4944E-03     449.762E-03    -224.718E-03    -226.147E-03    -225.358E-03     449.418E-03    -225.163E-03     30.3265E-03    -13.2723E+06    -78.5910E+06    -112.471E+06    -79.2097E+06    -111.852E+06    -13.2723E+06     4.04122E+06         59.1757
            1711     7.98583E-03     137.845E-03     530.972E-03     421.675E-03        -1.14424     421.568E-03        -1.14414     530.972E-03     4.17152E-03     448.828E-03    -224.905E-03    -226.220E-03    -225.558E-03     448.317E-03    -225.056E-03     36.5890E-03    -928.925E+03    -65.8505E+06    -85.9370E+06    -70.8959E+06    -80.8916E+06    -928.925E+03     5.86740E+06         61.7040
            1712     8.78577E-03     137.933E-03     518.767E-03     386.276E-03        -1.09606     385.879E-03        -1.09567     518.767E-03     265.702E-06     448.247E-03    -224.446E-03    -225.846E-03    -224.552E-03     447.434E-03    -224.926E-03     46.5724E-03     11.3075E+06    -37.6708E+06    -66.9833E+06    -62.8207E+06    -41.8334E+06     11.3075E+06     8.68100E+06         64.9361
            1713     9.58869E-03     138.036E-03     505.380E-03     350.369E-03        -1.04425     349.833E-03        -1.04371     505.380E-03     6.29784E-03     447.891E-03    -224.298E-03    -225.389E-03    -223.899E-03     446.862E-03    -224.761E-03     52.4615E-03     30.0093E+06     6.65015E+06    -57.5943E+06    -55.2280E+06     10.0648E+06     24.2283E+06     12.2555E+06         69.2199
            1714     10.3857E-03     138.086E-03     491.067E-03     313.432E-03    -991.862E-03     313.212E-03    -991.642E-03     491.067E-03     5.02736E-03     449.804E-03    -224.277E-03    -227.051E-03    -225.133E-03     448.594E-03    -224.985E-03     56.9296E-03     50.3143E+06     38.8516E+06    -50.5785E+06    -48.4626E+06     48.1984E+06     38.8516E+06     14.4073E+06         74.6837
            1715     11.1829E-03     138.217E-03     475.957E-03     277.086E-03    -941.171E-03     277.038E-03    -941.123E-03     475.957E-03     11.5017E-03     451.374E-03    -223.775E-03    -228.042E-03    -225.586E-03     450.170E-03    -225.027E-03     56.8414E-03     68.8075E+06     61.7530E+06    -42.6406E+06    -41.1235E+06     67.2862E+06     61.7572E+06     12.6048E+06         81.2687
            1716     11.9858E-03     138.326E-03     460.223E-03     241.559E-03    -890.082E-03     241.423E-03    -889.945E-03     460.223E-03     17.8838E-03     451.617E-03    -224.098E-03    -227.038E-03    -224.709E-03     450.060E-03    -224.871E-03     64.1217E-03     99.7246E+06     89.9455E+06    -33.2262E+06    -32.4935E+06     90.5815E+06     98.3560E+06     9.30613E+06         88.2594
            1717     12.7880E-03     138.452E-03     443.841E-03     203.447E-03    -833.909E-03     203.301E-03    -833.763E-03     443.841E-03     17.5927E-03     453.575E-03    -224.548E-03    -228.778E-03    -225.563E-03     450.882E-03    -225.071E-03     84.6149E-03     146.094E+06     121.563E+06    -23.4307E+06    -23.1056E+06     121.238E+06     146.094E+06     6.54780E+06         94.2284
            1718     13.5912E-03     138.596E-03     426.840E-03     163.792E-03    -776.479E-03     163.752E-03    -776.439E-03     426.840E-03     7.75382E-03     455.676E-03    -225.048E-03    -231.182E-03    -227.618E-03     452.469E-03    -225.406E-03     93.3170E-03     192.034E+06     155.706E+06    -12.1391E+06    -12.0445E+06     155.611E+06     192.034E+06     3.55743E+06         98.3941
            1719     798.447E-06     139.137E-03     640.699E-03     550.760E-03        -1.37484     621.750E-03        -1.37019     565.059E-03    -98.9711E-03     457.604E-03    -226.942E-03    -230.592E-03    -226.915E-03     457.576E-03    -230.592E-03     2.31249E-03    -131.121E+06    -137.535E+06    -283.592E+06    -134.595E+06    -283.555E+06    -134.099E+06     555.272E+03         54.5078
            1720     1.59394E-03     139.143E-03     588.400E-03     559.262E-03        -1.32595     560.270E-03        -1.32506     586.504E-03    -11.4938E-03     453.273E-03    -225.332E-03    -228.122E-03    -225.309E-03     453.251E-03    -228.122E-03     3.62952E-03    -128.600E+06    -132.850E+06    -274.761E+06    -132.531E+06    -274.752E+06    -128.927E+06     601.202E+03         54.5123
            1721     2.39026E-03     139.172E-03     574.049E-03     542.310E-03        -1.29593     541.692E-03        -1.29531     574.049E-03    -33.3718E-03     452.464E-03    -225.465E-03    -227.050E-03    -225.584E-03     452.436E-03    -226.903E-03     8.52520E-03    -116.197E+06    -129.035E+06    -256.644E+06    -129.048E+06    -256.632E+06    -116.197E+06     1.14790E+06         54.5000
            1722     3.18888E-03     139.175E-03     563.083E-03     522.412E-03        -1.26343     522.055E-03        -1.26307     563.083E-03    -22.7095E-03     452.017E-03    -225.074E-03    -226.532E-03    -225.163E-03     451.959E-03    -226.384E-03     12.1327E-03    -98.7704E+06    -122.931E+06    -233.677E+06    -122.951E+06    -233.657E+06    -98.7704E+06     1.06216E+06         54.5103
            1723     3.98905E-03     139.208E-03     552.766E-03     506.330E-03        -1.23509     505.967E-03        -1.23473     552.766E-03    -26.1233E-03     450.671E-03    -224.301E-03    -226.177E-03    -224.208E-03     450.578E-03    -226.177E-03     15.7617E-03    -79.6448E+06    -115.416E+06    -211.646E+06    -115.436E+06    -211.626E+06    -79.6448E+06     823.145E+03         54.6137
            1724     4.78700E-03     139.233E-03     543.459E-03     494.878E-03        -1.21320     494.568E-03        -1.21289     543.459E-03     16.2285E-03     449.437E-03    -223.989E-03    -226.129E-03    -223.884E-03     449.333E-03    -226.129E-03     16.7618E-03    -60.2103E+06    -107.103E+06    -189.481E+06    -107.110E+06    -189.474E+06    -60.2103E+06     321.040E+03         54.9745
            1725     5.58638E-03     139.266E-03     535.071E-03     483.933E-03        -1.19204     483.534E-03        -1.19164     535.071E-03     23.6007E-03     449.866E-03    -224.267E-03    -226.220E-03    -224.192E-03     449.710E-03    -226.141E-03     20.1144E-03    -42.7379E+06    -98.3198E+06    -164.389E+06    -98.3448E+06    -164.364E+06    -42.7379E+06     360.055E+03         55.8527
            1726     6.38591E-03     139.323E-03     526.945E-03     469.561E-03        -1.17014     469.359E-03        -1.16994     526.945E-03     28.5922E-03     450.469E-03    -224.455E-03    -226.048E-03    -224.296E-03     450.231E-03    -225.968E-03     25.2491E-03    -27.6233E+06    -89.3616E+06    -139.469E+06    -89.4130E+06    -139.418E+06    -27.6233E+06     972.466E+03         57.3429
            1727     7.18410E-03     139.386E-03     518.203E-03     443.002E-03        -1.13806     442.886E-03        -1.13795     518.203E-03     21.8542E-03     448.761E-03    -223.923E-03    -225.572E-03    -223.645E-03     448.483E-03    -225.572E-03     27.3251E-03    -14.2488E+06    -80.5497E+06    -115.137E+06    -80.7386E+06    -114.948E+06    -14.2488E+06     1.84355E+06         59.3975
            1728     7.98856E-03     139.427E-03     507.449E-03     399.801E-03        -1.08780     399.703E-03        -1.08770     507.449E-03     590.084E-06     447.691E-03    -223.833E-03    -225.764E-03    -223.807E-03     447.226E-03    -225.325E-03     34.5863E-03    -2.10917E+06    -70.3897E+06    -87.7531E+06    -72.1582E+06    -85.9845E+06    -2.10917E+06     3.18661E+06         61.9826
            1729     8.78596E-03     139.503E-03     494.401E-03     360.755E-03        -1.03632     360.576E-03        -1.03614     494.401E-03    -17.2910E-03     447.831E-03    -224.263E-03    -225.827E-03    -224.091E-03     447.132E-03    -225.300E-03     43.1831E-03     9.42879E+06    -45.9615E+06    -67.4444E+06    -63.7100E+06    -49.6959E+06     9.42879E+06     5.69838E+06         65.2665
            1730     9.58693E-03     139.577E-03     480.443E-03     334.477E-03    -993.353E-03     334.195E-03    -993.071E-03     480.443E-03    -11.6029E-03     447.764E-03    -224.592E-03    -225.250E-03    -223.935E-03     446.848E-03    -224.991E-03     49.2992E-03     23.7624E+06    -1.20734E+06    -57.6515E+06    -55.6900E+06    -1.56580E+06     22.1593E+06     10.3454E+06         69.5988
            1731     10.3912E-03     139.674E-03     466.121E-03     302.353E-03    -947.155E-03     302.194E-03    -946.995E-03     466.121E-03    -1.11702E-03     450.594E-03    -224.831E-03    -227.009E-03    -225.726E-03     449.310E-03    -224.831E-03     58.6653E-03     48.9847E+06     35.1616E+06    -50.2004E+06    -48.1889E+06     44.8544E+06     37.2805E+06     13.6970E+06         75.1098
            1732     11.1849E-03     139.784E-03     451.137E-03     265.840E-03    -896.392E-03     265.807E-03    -896.359E-03     451.137E-03     1.12606E-03     454.452E-03    -225.000E-03    -229.432E-03    -227.865E-03     452.885E-03    -225.000E-03     65.0719E-03     74.0379E+06     60.0403E+06    -42.0691E+06    -40.7076E+06     72.6764E+06     60.0403E+06     12.2713E+06         81.7325
            1733     11.9755E-03     139.862E-03     435.292E-03     230.463E-03    -844.665E-03     230.323E-03    -844.526E-03     435.292E-03     9.41747E-03     454.154E-03    -224.776E-03    -228.617E-03    -226.247E-03     451.949E-03    -224.940E-03     76.1104E-03     100.542E+06     90.6248E+06    -33.6095E+06    -32.8830E+06     93.7947E+06     96.6455E+06     9.48167E+06         88.7609
            1734     12.7759E-03     140.050E-03     418.440E-03     191.231E-03    -787.625E-03     191.082E-03    -787.475E-03     418.440E-03     12.6324E-03     452.412E-03    -224.557E-03    -227.514E-03    -223.687E-03     449.108E-03    -225.080E-03     93.1662E-03     146.893E+06     126.559E+06    -24.0308E+06    -23.6769E+06     126.205E+06     146.893E+06     6.93510E+06         94.7734
            1735     13.5790E-03     140.171E-03     400.959E-03     152.213E-03    -727.281E-03     152.166E-03    -727.234E-03     400.959E-03     14.1676E-06     452.213E-03    -225.047E-03    -227.726E-03    -223.755E-03     448.600E-03    -225.405E-03     97.9960E-03     195.946E+06     162.039E+06    -12.5931E+06    -12.4964E+06     161.942E+06     195.946E+06     3.59468E+06         98.9743
            1736     787.178E-06     140.709E-03     554.338E-03     493.680E-03        -1.21207     552.499E-03        -1.21023     493.680E-03    -11.7445E-03     459.690E-03    -227.967E-03    -231.770E-03    -229.394E-03     459.664E-03    -230.318E-03     2.31172E-03    -132.582E+06    -137.532E+06    -282.794E+06    -134.881E+06    -282.764E+06    -135.262E+06    -1.62714E+06         54.6353
            1737     1.58946E-03     140.712E-03     530.999E-03     523.933E-03        -1.22326     529.725E-03        -1.22210     524.054E-03     8.53777E-03     455.809E-03    -226.052E-03    -229.925E-03    -226.481E-03     455.781E-03    -229.468E-03     4.37494E-03    -131.329E+06    -134.359E+06    -276.035E+06    -134.334E+06    -276.029E+06    -131.360E+06    -423.529E+03         54.6502
            1738     2.39127E-03     140.728E-03     530.630E-03     522.388E-03        -1.22506     527.198E-03        -1.22446     525.225E-03    -17.0868E-03     452.461E-03    -224.880E-03    -227.991E-03    -224.853E-03     452.435E-03    -227.991E-03     8.05221E-03    -119.148E+06    -130.673E+06    -257.205E+06    -130.678E+06    -257.200E+06    -119.148E+06    -182.368E+03         54.6393
            1739     3.18981E-03     140.747E-03     524.499E-03     510.527E-03        -1.20756     511.361E-03        -1.20729     523.401E-03     3.73523E-03     451.478E-03    -225.005E-03    -226.773E-03    -224.966E-03     451.439E-03    -226.773E-03     10.1497E-03    -100.800E+06    -124.971E+06    -233.254E+06    -124.980E+06    -233.245E+06    -100.800E+06    -476.173E+03         54.6109
            1740     3.98583E-03     140.777E-03     518.005E-03     485.728E-03        -1.16972     485.483E-03        -1.16947     518.005E-03     5.02634E-03     450.339E-03    -223.959E-03    -226.239E-03    -223.885E-03     450.265E-03    -226.239E-03     13.8221E-03    -81.5964E+06    -117.600E+06    -210.951E+06    -117.619E+06    -210.932E+06    -81.5964E+06    -1.04822E+06         54.6767
            1741     4.78740E-03     140.795E-03     509.860E-03     460.162E-03        -1.13078     459.800E-03        -1.13042     509.860E-03     28.2899E-03     449.295E-03    -224.072E-03    -226.199E-03    -224.070E-03     449.180E-03    -226.086E-03     17.5342E-03    -62.3524E+06    -109.288E+06    -188.606E+06    -109.320E+06    -188.574E+06    -62.3524E+06    -1.26133E+06         55.0630
            1742     5.58631E-03     140.841E-03     500.119E-03     437.113E-03        -1.09968     436.646E-03        -1.09921     500.119E-03     14.6281E-03     451.384E-03    -225.877E-03    -226.478E-03    -225.963E-03     451.191E-03    -226.198E-03     22.5115E-03    -43.9855E+06    -100.500E+06    -164.375E+06    -100.546E+06    -164.328E+06    -43.9855E+06    -1.47880E+06         56.0046
            1743     6.38223E-03     140.887E-03     489.412E-03     412.484E-03        -1.06506     412.218E-03        -1.06480     489.412E-03    -37.6652E-06     452.140E-03    -225.432E-03    -226.334E-03    -225.322E-03     451.863E-03    -226.168E-03     27.3304E-03    -28.6666E+06    -91.5673E+06    -140.780E+06    -91.6368E+06    -140.710E+06    -28.6666E+06    -1.32366E+06         57.5575
            1744     7.18300E-03     140.929E-03     478.268E-03     391.574E-03        -1.03345     391.513E-03        -1.03338     478.268E-03    -6.68731E-03     449.750E-03    -224.246E-03    -225.831E-03    -223.997E-03     449.438E-03    -225.767E-03     28.9401E-03    -15.9373E+06    -82.6915E+06    -117.013E+06    -82.7655E+06    -116.939E+06    -15.9373E+06    -761.961E+03         59.6710
            1745     7.98062E-03     140.978E-03     467.021E-03     374.568E-03        -1.00787     374.545E-03        -1.00785     467.021E-03     4.17583E-03     447.869E-03    -223.572E-03    -225.687E-03    -223.195E-03     447.427E-03    -225.622E-03     34.0783E-03    -4.18061E+06    -74.0149E+06    -90.6323E+06    -74.3188E+06    -90.3285E+06    -4.18061E+06     360.387E+03         62.3133
            1746     8.78461E-03     141.072E-03     455.449E-03     347.862E-03    -971.004E-03     347.832E-03    -970.975E-03     455.449E-03     10.6399E-03     448.482E-03    -224.438E-03    -225.989E-03    -224.127E-03     447.886E-03    -225.703E-03     40.0297E-03     7.30285E+06    -52.8869E+06    -69.8761E+06    -66.1965E+06    -56.5665E+06     7.30285E+06     2.75414E+06         65.6504
            1747     9.58317E-03     141.119E-03     442.830E-03     309.338E-03    -919.389E-03     309.205E-03    -919.255E-03     442.830E-03     21.4241E-03     449.341E-03    -225.501E-03    -226.355E-03    -225.569E-03     448.555E-03    -225.501E-03     45.8620E-03     18.8207E+06    -13.5017E+06    -59.1379E+06    -58.0120E+06    -14.6277E+06     18.8207E+06     6.99025E+06         70.0282
            1748     10.3798E-03     141.237E-03     428.673E-03     270.156E-03    -866.719E-03     270.018E-03    -866.581E-03     428.673E-03     22.3171E-03     448.299E-03    -224.253E-03    -225.870E-03    -223.804E-03     447.194E-03    -225.213E-03     54.3205E-03     47.8792E+06     25.4042E+06    -51.3073E+06    -49.8519E+06     38.6050E+06     33.2231E+06     11.2256E+06         75.5918
            1749     11.1880E-03     141.309E-03     413.370E-03     234.689E-03    -816.604E-03     234.652E-03    -816.568E-03     413.370E-03     4.66961E-03     448.718E-03    -222.604E-03    -226.581E-03    -222.558E-03     447.255E-03    -225.163E-03     62.2811E-03     77.4232E+06     55.9596E+06    -43.6374E+06    -42.4583E+06     76.2441E+06     55.9596E+06     11.7724E+06         82.2929
            1750     11.9920E-03     141.451E-03     397.186E-03     203.096E-03    -767.395E-03     203.065E-03    -767.365E-03     397.186E-03    -539.160E-06     451.150E-03    -223.209E-03    -227.435E-03    -223.617E-03     448.931E-03    -224.808E-03     76.1085E-03     100.742E+06     91.1183E+06    -35.3055E+06    -34.5916E+06     97.2119E+06     93.9346E+06     9.52175E+06         89.3913
            1751     12.7898E-03     141.579E-03     380.222E-03     173.940E-03    -721.691E-03     173.871E-03    -721.622E-03     380.222E-03     4.95526E-03     453.560E-03    -224.871E-03    -228.485E-03    -224.900E-03     449.975E-03    -224.871E-03     97.5028E-03     147.520E+06     132.020E+06    -24.8878E+06    -24.5657E+06     131.698E+06     147.520E+06     6.73229E+06         95.4286
            1752     13.5895E-03     141.751E-03     363.226E-03     147.544E-03    -674.819E-03     147.472E-03    -674.746E-03     363.226E-03     3.33021E-03     452.971E-03    -225.299E-03    -228.112E-03    -224.160E-03     449.018E-03    -225.299E-03     103.077E-03     199.642E+06     167.971E+06    -12.7993E+06    -12.7129E+06     167.885E+06     199.642E+06     3.44310E+06         99.6352
            1753     806.089E-06     142.300E-03     474.068E-03     440.350E-03        -1.06707     462.410E-03        -1.06470     449.641E-03    -29.5042E-03     457.135E-03    -226.951E-03    -230.120E-03    -230.095E-03     457.110E-03    -226.951E-03     2.55899E-03    -135.641E+06    -139.754E+06    -282.009E+06    -138.132E+06    -281.961E+06    -137.311E+06    -266.976E+03         54.6901
            1754     1.59186E-03     142.297E-03     476.885E-03     459.223E-03        -1.09567     473.807E-03        -1.09260     459.223E-03    -55.8029E-03     459.458E-03    -228.292E-03    -231.068E-03    -230.092E-03     459.441E-03    -229.251E-03     2.58268E-03    -133.146E+06    -136.888E+06    -274.053E+06    -136.868E+06    -274.042E+06    -133.177E+06    -1.04221E+06         54.7166
            1755     2.38665E-03     142.298E-03     479.194E-03     464.691E-03        -1.10691     478.314E-03        -1.10603     464.691E-03    -26.4049E-03     455.425E-03    -226.476E-03    -229.548E-03    -226.844E-03     455.412E-03    -229.166E-03     5.28343E-03    -121.362E+06    -133.573E+06    -256.035E+06    -133.624E+06    -255.984E+06    -121.362E+06    -1.99432E+06         54.7320
            1756     3.18548E-03     142.333E-03     469.460E-03     461.553E-03        -1.09127     464.825E-03        -1.09112     466.040E-03     8.52917E-03     451.322E-03    -224.260E-03    -227.829E-03    -224.239E-03     451.302E-03    -227.829E-03     7.09689E-03    -102.974E+06    -127.578E+06    -232.474E+06    -127.638E+06    -232.415E+06    -102.974E+06    -2.14420E+06         54.7059
            1757     3.98723E-03     142.345E-03     462.823E-03     439.856E-03        -1.06045     439.649E-03        -1.06025     462.823E-03     18.9685E-03     449.406E-03    -222.728E-03    -226.602E-03    -222.680E-03     449.359E-03    -226.602E-03     10.1425E-03    -83.0928E+06    -120.029E+06    -209.440E+06    -120.096E+06    -209.373E+06    -83.0928E+06    -2.30010E+06         54.7590
            1758     4.78670E-03     142.365E-03     455.360E-03     406.689E-03        -1.01565     406.454E-03        -1.01541     455.360E-03     10.7985E-03     448.903E-03    -223.378E-03    -226.182E-03    -223.361E-03     448.772E-03    -226.068E-03     18.1501E-03    -64.0435E+06    -111.524E+06    -187.214E+06    -111.655E+06    -187.083E+06    -64.0435E+06    -2.96883E+06         55.1816
            1759     5.58457E-03     142.405E-03     444.827E-03     379.233E-03    -976.305E-03     379.103E-03    -976.175E-03     444.827E-03    -21.9786E-03     450.451E-03    -225.275E-03    -226.344E-03    -225.243E-03     450.219E-03    -226.143E-03     24.8602E-03    -45.7920E+06    -102.493E+06    -163.547E+06    -102.698E+06    -163.343E+06    -45.7920E+06    -3.30463E+06         56.1947
            1760     6.38399E-03     142.451E-03     433.925E-03     366.009E-03    -952.453E-03     365.877E-03    -952.321E-03     433.925E-03    -15.6085E-03     451.728E-03    -225.395E-03    -226.234E-03    -225.172E-03     451.419E-03    -226.148E-03     28.8912E-03    -29.8452E+06    -93.4191E+06    -140.850E+06    -93.7021E+06    -140.567E+06    -29.8452E+06    -3.44183E+06         57.8176
            1761     7.18174E-03     142.497E-03     424.067E-03     357.271E-03    -930.934E-03     357.208E-03    -930.871E-03     424.067E-03    -4.51479E-03     451.027E-03    -225.155E-03    -226.045E-03    -225.118E-03     450.638E-03    -225.693E-03     32.3402E-03    -17.1327E+06    -84.6244E+06    -118.271E+06    -84.9576E+06    -117.938E+06    -17.1327E+06    -3.12032E+06         59.9978
            1762     7.98137E-03     142.553E-03     414.302E-03     337.465E-03    -899.997E-03     337.439E-03    -899.971E-03     414.302E-03     6.42915E-03     449.935E-03    -225.059E-03    -226.278E-03    -225.111E-03     449.396E-03    -225.686E-03     37.9204E-03    -5.97229E+06    -76.2125E+06    -93.6227E+06    -76.6223E+06    -93.2129E+06    -5.97229E+06    -2.14699E+06         62.7008
            1763     8.77799E-03     142.628E-03     403.648E-03     309.233E-03    -863.905E-03     309.083E-03    -863.755E-03     403.648E-03    -4.62937E-03     450.427E-03    -225.308E-03    -226.791E-03    -225.421E-03     449.684E-03    -225.935E-03     44.4861E-03     4.46257E+06    -58.7356E+06    -72.9035E+06    -68.6292E+06    -63.0099E+06     4.46257E+06    -1.78098E+03         66.0925
            1764     9.57772E-03     142.701E-03     391.753E-03     277.917E-03    -823.060E-03     277.723E-03    -822.866E-03     391.753E-03     98.2551E-06     449.735E-03    -225.281E-03    -226.989E-03    -225.507E-03     448.800E-03    -225.828E-03     49.9691E-03     15.0176E+06    -25.3282E+06    -61.3841E+06    -60.9394E+06    -25.7728E+06     15.0176E+06     3.75417E+06         70.5248
            1765     10.3785E-03     142.789E-03     378.112E-03     241.057E-03    -772.093E-03     240.936E-03    -771.972E-03     378.112E-03     7.01573E-03     448.115E-03    -224.039E-03    -226.116E-03    -223.279E-03     446.811E-03    -225.572E-03     58.5465E-03     43.5719E+06     15.7367E+06    -53.7809E+06    -53.0103E+06     29.9182E+06     28.6197E+06     7.80072E+06         76.1459
            1766     11.1767E-03     142.906E-03     363.333E-03     206.758E-03    -723.693E-03     206.668E-03    -723.603E-03     363.333E-03    -4.58790E-03     447.626E-03    -222.668E-03    -225.379E-03    -221.152E-03     446.109E-03    -225.379E-03     63.3371E-03     76.8756E+06     50.3643E+06    -45.7878E+06    -44.9824E+06     76.0701E+06     50.3643E+06     9.80101E+06         82.9014
            1767     11.9839E-03     142.991E-03     348.197E-03     181.247E-03    -683.025E-03     181.197E-03    -682.974E-03     348.197E-03     4.10329E-03     447.595E-03    -222.271E-03    -224.939E-03    -220.477E-03     445.755E-03    -224.892E-03     69.6015E-03     102.850E+06     89.0464E+06    -36.8529E+06    -36.3127E+06     101.662E+06     89.6937E+06     8.25249E+06         90.0461
            1768     12.7881E-03     143.138E-03     332.453E-03     155.983E-03    -640.016E-03     155.849E-03    -639.882E-03     332.453E-03     18.4629E-03     450.174E-03    -223.955E-03    -226.195E-03    -222.272E-03     447.149E-03    -224.851E-03     89.4050E-03     148.431E+06     135.049E+06    -25.8715E+06    -25.6709E+06     136.445E+06     146.834E+06     5.29586E+06         96.1239
            1769     13.5879E-03     143.305E-03     316.461E-03     129.174E-03    -594.544E-03     129.019E-03    -594.389E-03     316.461E-03     19.1293E-03     451.753E-03    -225.235E-03    -227.014E-03    -223.481E-03     448.219E-03    -225.235E-03     97.5937E-03     202.604E+06     172.885E+06    -13.1961E+06    -13.1413E+06     172.830E+06     202.604E+06     2.82073E+06         100.362
            1770     791.157E-06     143.874E-03     398.929E-03     363.328E-03    -909.566E-03     369.433E-03    -907.536E-03     390.794E-03    -57.6345E-03     455.443E-03    -225.626E-03    -229.761E-03    -227.318E-03     455.418E-03    -228.044E-03     2.69105E-03    -141.992E+06    -145.406E+06    -280.146E+06    -143.805E+06    -280.108E+06    -143.632E+06    -224.555E+03         54.6574
            1771     1.59306E-03     143.873E-03     396.304E-03     375.809E-03    -918.770E-03     387.834E-03    -915.882E-03     381.391E-03    -114.690E-03     458.821E-03    -228.046E-03    -230.490E-03    -229.942E-03     458.796E-03    -228.568E-03     3.98258E-03    -136.163E+06    -141.539E+06    -270.437E+06    -141.566E+06    -270.410E+06    -136.163E+06    -1.65605E+06         54.6944
            1772     2.38556E-03     143.890E-03     393.374E-03     377.460E-03    -918.478E-03     386.494E-03    -917.180E-03     383.042E-03    -70.5348E-03     458.264E-03    -228.350E-03    -230.318E-03    -229.323E-03     458.239E-03    -229.320E-03     7.34127E-03    -122.086E+06    -137.395E+06    -253.222E+06    -137.471E+06    -253.146E+06    -122.086E+06    -2.79352E+06         54.7355
            1773     3.18211E-03     143.896E-03     390.061E-03     379.524E-03    -915.150E-03     386.057E-03    -914.800E-03     383.178E-03    -31.0932E-03     453.151E-03    -225.145E-03    -228.724E-03    -225.180E-03     453.131E-03    -228.670E-03     7.02535E-03    -104.213E+06    -131.281E+06    -230.835E+06    -131.427E+06    -230.689E+06    -104.213E+06    -3.48621E+06         54.7359
            1774     3.98215E-03     143.911E-03     391.276E-03     368.401E-03    -905.452E-03     377.192E-03    -905.270E-03     382.304E-03     7.28154E-03     449.262E-03    -222.099E-03    -227.102E-03    -222.053E-03     449.216E-03    -227.102E-03     9.79396E-03    -84.5718E+06    -123.149E+06    -207.238E+06    -123.359E+06    -207.028E+06    -84.5718E+06    -3.92787E+06         54.8095
            1775     4.78406E-03     143.912E-03     391.378E-03     355.884E-03    -893.286E-03     367.276E-03    -892.888E-03     379.588E-03     31.9698E-03     448.417E-03    -222.402E-03    -226.186E-03    -222.233E-03     448.248E-03    -226.186E-03     20.3136E-03    -64.9494E+06    -114.025E+06    -184.815E+06    -114.350E+06    -184.490E+06    -64.9494E+06    -4.58335E+06         55.2912
            1776     5.58614E-03     143.978E-03     380.909E-03     343.990E-03    -868.051E-03     349.803E-03    -867.719E-03     374.763E-03     23.2290E-03     449.254E-03    -224.193E-03    -226.141E-03    -223.938E-03     448.999E-03    -226.141E-03     26.1501E-03    -47.3414E+06    -104.722E+06    -162.021E+06    -105.261E+06    -161.482E+06    -47.3414E+06    -5.30845E+06         56.3910
            1777     6.38489E-03     144.022E-03     367.862E-03     320.656E-03    -829.000E-03     320.562E-03    -828.906E-03     367.862E-03     15.3475E-03     450.159E-03    -224.396E-03    -226.076E-03    -224.090E-03     449.853E-03    -226.076E-03     28.5557E-03    -31.7790E+06    -95.1978E+06    -140.226E+06    -96.0035E+06    -139.420E+06    -31.7790E+06    -5.71108E+06         58.0969
            1778     7.18473E-03     144.070E-03     358.690E-03     287.731E-03    -786.318E-03     287.389E-03    -785.976E-03     358.690E-03    -8.07434E-03     450.174E-03    -224.451E-03    -225.846E-03    -224.288E-03     449.723E-03    -225.558E-03     34.6746E-03    -18.4694E+06    -85.7780E+06    -119.080E+06    -86.8692E+06    -117.989E+06    -18.4694E+06    -5.64283E+06         60.3571
            1779     7.98240E-03     144.135E-03     347.672E-03     263.836E-03    -750.114E-03     263.174E-03    -749.452E-03     347.672E-03    -31.4419E-03     450.275E-03    -225.450E-03    -226.234E-03    -225.483E-03     449.562E-03    -225.489E-03     43.4514E-03    -7.40908E+06    -76.6192E+06    -96.5400E+06    -77.9928E+06    -95.1664E+06    -7.40908E+06    -4.77456E+06         63.1374
            1780     8.78144E-03     144.204E-03     336.318E-03     249.645E-03    -724.362E-03     248.899E-03    -723.615E-03     336.318E-03    -44.0451E-03     451.505E-03    -225.803E-03    -227.168E-03    -226.167E-03     450.504E-03    -225.803E-03     51.8751E-03     2.27449E+06    -62.2589E+06    -75.4823E+06    -69.6094E+06    -68.1317E+06     2.27449E+06    -2.99285E+06         66.6044
            1781     9.57904E-03     144.240E-03     325.194E-03     236.860E-03    -701.871E-03     236.410E-03    -701.421E-03     325.194E-03    -19.0896E-03     449.632E-03    -225.122E-03    -226.587E-03    -224.897E-03     448.489E-03    -225.669E-03     55.5105E-03     12.3741E+06    -33.6897E+06    -61.6893E+06    -61.2247E+06    -34.1543E+06     12.3741E+06     24.9335E+03         71.1075
            1782     10.3826E-03     144.362E-03     313.737E-03     225.303E-03    -677.291E-03     225.212E-03    -677.200E-03     313.737E-03     1.07784E-03     448.590E-03    -224.577E-03    -225.434E-03    -223.078E-03     447.080E-03    -225.423E-03     63.2527E-03     37.5589E+06     10.0519E+06    -53.1537E+06    -52.8536E+06     20.7886E+06     26.5220E+06     4.17477E+06         76.7877
            1783     11.1854E-03     144.493E-03     302.195E-03     203.550E-03    -643.897E-03     203.408E-03    -643.756E-03     302.195E-03    -3.81531E-03     450.328E-03    -224.713E-03    -225.275E-03    -222.920E-03     448.535E-03    -225.275E-03     69.4642E-03     73.5176E+06     48.4705E+06    -45.1635E+06    -44.7368E+06     73.0909E+06     48.4705E+06     6.96799E+06         83.5843
            1784     11.9803E-03     144.566E-03     290.204E-03     171.974E-03    -599.232E-03     171.837E-03    -599.096E-03     290.204E-03     10.8775E-03     449.353E-03    -223.741E-03    -224.916E-03    -221.529E-03     447.125E-03    -224.900E-03     76.7651E-03     105.840E+06     87.0969E+06    -36.2636E+06    -35.9291E+06     105.506E+06     87.0969E+06     6.57770E+06         90.7683
            1785     12.7852E-03     144.732E-03     276.605E-03     139.006E-03    -548.773E-03     138.689E-03    -548.456E-03     276.605E-03     25.3154E-03     448.928E-03    -223.765E-03    -224.992E-03    -220.394E-03     445.378E-03    -224.813E-03     96.6783E-03     150.268E+06     136.400E+06    -25.9324E+06    -25.8098E+06     141.011E+06     145.535E+06     4.09023E+06         96.8995
            1786     13.5922E-03     144.872E-03     262.031E-03     110.812E-03    -503.465E-03     110.366E-03    -503.019E-03     262.031E-03     13.9676E-03     451.196E-03    -224.953E-03    -226.628E-03    -222.469E-03     447.188E-03    -225.105E-03     103.691E-03     204.936E+06     176.839E+06    -13.5796E+06    -13.5568E+06     176.816E+06     204.936E+06     1.79622E+06         101.188
            1787     800.635E-06     145.443E-03     360.966E-03     297.488E-03    -793.948E-03     295.634E-03    -789.793E-03     358.666E-03     32.8848E-03     453.767E-03    -225.383E-03    -228.096E-03    -225.547E-03     453.743E-03    -227.907E-03     5.68228E-03    -145.881E+06    -148.373E+06    -276.972E+06    -148.081E+06    -276.930E+06    -146.214E+06    -2.18005E+06         54.5238
            1788     1.59530E-03     145.455E-03     321.067E-03     285.558E-03    -738.755E-03     286.003E-03    -736.901E-03     318.766E-03    -28.7766E-03     454.612E-03    -226.499E-03    -227.894E-03    -227.219E-03     454.582E-03    -227.145E-03     8.71309E-03    -139.087E+06    -145.454E+06    -267.257E+06    -145.484E+06    -267.226E+06    -139.087E+06    -1.83578E+06         54.5730
            1789     2.39226E-03     145.462E-03     305.974E-03     272.063E-03    -706.227E-03     271.872E-03    -704.803E-03     304.741E-03    -1.60513E-03     455.011E-03    -226.972E-03    -228.317E-03    -227.549E-03     454.973E-03    -227.701E-03     10.0711E-03    -123.837E+06    -140.787E+06    -249.676E+06    -140.862E+06    -249.602E+06    -123.837E+06    -2.65908E+06         54.6340
            1790     3.18481E-03     145.474E-03     301.667E-03     279.298E-03    -708.893E-03     283.222E-03    -708.257E-03     297.106E-03    -1.52999E-03     452.645E-03    -225.714E-03    -227.601E-03    -225.707E-03     452.583E-03    -227.547E-03     12.1096E-03    -104.375E+06    -133.923E+06    -226.169E+06    -134.125E+06    -225.967E+06    -104.375E+06    -4.06232E+06         54.6693
            1791     3.98409E-03     145.480E-03     307.517E-03     292.672E-03    -732.226E-03     304.094E-03    -731.839E-03     295.709E-03     24.4804E-03     451.226E-03    -223.955E-03    -227.392E-03    -224.672E-03     451.111E-03    -226.559E-03     16.7195E-03    -84.4725E+06    -125.603E+06    -203.810E+06    -126.025E+06    -203.388E+06    -84.4725E+06    -5.54265E+06         54.7981
            1792     4.78631E-03     145.495E-03     312.396E-03     296.616E-03    -742.902E-03     312.032E-03    -742.538E-03     296.616E-03     31.8481E-03     450.589E-03    -223.712E-03    -226.843E-03    -224.337E-03     450.381E-03    -226.011E-03     23.3856E-03    -65.4401E+06    -116.070E+06    -181.704E+06    -116.793E+06    -180.980E+06    -65.4401E+06    -6.59090E+06         55.3643
            1793     5.58448E-03     145.552E-03     302.867E-03     288.019E-03    -725.028E-03     294.951E-03    -724.659E-03     295.566E-03     32.8863E-03     449.185E-03    -223.863E-03    -226.060E-03    -223.605E-03     448.928E-03    -226.060E-03     26.2762E-03    -47.8649E+06    -105.878E+06    -159.348E+06    -107.070E+06    -158.156E+06    -47.8649E+06    -7.60500E+06         56.5588
            1794     6.38525E-03     145.590E-03     290.744E-03     256.521E-03    -679.716E-03     256.174E-03    -679.369E-03     290.744E-03     31.9674E-03     448.299E-03    -222.890E-03    -225.979E-03    -222.593E-03     448.002E-03    -225.979E-03     28.1142E-03    -32.7376E+06    -95.5887E+06    -138.811E+06    -97.4184E+06    -136.981E+06    -32.7376E+06    -8.42182E+06         58.3559
            1795     7.18727E-03     145.641E-03     282.500E-03     221.008E-03    -633.922E-03     219.561E-03    -632.475E-03     282.500E-03     26.1850E-03     448.380E-03    -223.350E-03    -225.502E-03    -222.900E-03     447.930E-03    -225.502E-03     34.5163E-03    -20.0983E+06    -85.5222E+06    -119.413E+06    -88.1413E+06    -116.794E+06    -20.0983E+06    -8.74730E+06         60.7117
            1796     7.99018E-03     145.689E-03     272.486E-03     201.930E-03    -603.769E-03     199.860E-03    -601.699E-03     272.486E-03     10.4017E-03     448.425E-03    -224.292E-03    -225.255E-03    -223.779E-03     447.694E-03    -225.037E-03     43.9260E-03    -8.81448E+06    -75.0967E+06    -99.7204E+06    -78.9146E+06    -95.9025E+06    -8.81448E+06    -8.48049E+06         63.5913
            1797     8.78833E-03     145.769E-03     262.304E-03     191.362E-03    -582.539E-03     190.042E-03    -581.219E-03     262.304E-03    -3.56914E-03     448.807E-03    -224.179E-03    -225.839E-03    -223.865E-03     447.786E-03    -225.132E-03     52.2760E-03     1.28225E+06    -61.1303E+06    -79.2452E+06    -69.4035E+06    -70.9721E+06     1.28225E+06    -7.49698E+06         67.1600
            1798     9.58843E-03     145.855E-03     252.501E-03     183.177E-03    -566.143E-03     182.622E-03    -565.589E-03     252.501E-03     6.67186E-03     448.762E-03    -224.576E-03    -226.190E-03    -224.348E-03     447.466E-03    -225.121E-03     58.8567E-03     10.8503E+06    -38.0846E+06    -62.8287E+06    -60.2836E+06    -40.6296E+06     10.8503E+06    -5.21414E+06         71.7627
            1799     10.3852E-03     145.935E-03     242.987E-03     178.660E-03    -553.374E-03     178.566E-03    -553.280E-03     242.987E-03     12.9684E-03     450.012E-03    -224.666E-03    -226.502E-03    -224.484E-03     448.267E-03    -224.940E-03     68.1810E-03     29.3115E+06     4.66952E+06    -52.1449E+06    -51.6967E+06     9.20045E+06     24.3323E+06    -72.2857E+03         77.5243
            1800     11.1847E-03     146.029E-03     233.571E-03     166.034E-03    -529.285E-03     165.899E-03    -529.149E-03     233.571E-03     14.7911E-03     450.980E-03    -224.304E-03    -225.919E-03    -223.361E-03     449.055E-03    -224.935E-03     71.9483E-03     68.3332E+06     46.9793E+06    -44.0857E+06    -43.8506E+06     68.0981E+06     46.9793E+06     4.98466E+06         84.3878
            1801     11.9926E-03     146.137E-03     223.465E-03     143.511E-03    -491.023E-03     143.336E-03    -490.848E-03     223.465E-03     14.1666E-03     449.443E-03    -224.134E-03    -224.671E-03    -221.879E-03     447.172E-03    -224.655E-03     77.6301E-03     109.355E+06     85.4662E+06    -36.4052E+06    -36.1841E+06     109.134E+06     85.4662E+06     5.18227E+06         91.6427
            1802     12.7930E-03     146.264E-03     211.973E-03     124.131E-03    -455.459E-03     123.844E-03    -455.172E-03     211.973E-03     15.7931E-03     449.674E-03    -224.188E-03    -225.617E-03    -221.688E-03     446.060E-03    -224.503E-03     97.6583E-03     152.205E+06     138.141E+06    -26.2785E+06    -26.2068E+06     145.584E+06     144.691E+06     2.81988E+06         97.8485
            1803     13.5978E-03     146.437E-03     199.851E-03     111.276E-03    -427.306E-03     110.816E-03    -426.845E-03     199.851E-03    -453.029E-06     452.862E-03    -224.658E-03    -228.597E-03    -224.169E-03     448.586E-03    -224.809E-03     107.520E-03     206.406E+06     180.093E+06    -13.7098E+06    -13.7006E+06     180.084E+06     206.406E+06     908.746E+03         102.200
            1804     795.904E-06     147.011E-03     282.774E-03     205.030E-03    -604.740E-03     208.899E-03    -592.868E-03     267.032E-03     43.5726E-03     448.778E-03    -223.043E-03    -225.689E-03    -225.539E-03     448.734E-03    -223.149E-03     6.61012E-03    -147.569E+06    -149.489E+06    -274.042E+06    -149.194E+06    -274.004E+06    -147.902E+06    -757.625E+03         54.2763
            1805     1.59607E-03     147.024E-03     258.584E-03     207.495E-03    -582.560E-03     226.745E-03    -578.348E-03     235.122E-03    -49.5478E-03     450.427E-03    -224.243E-03    -225.808E-03    -225.367E-03     450.365E-03    -224.622E-03     11.7196E-03    -140.558E+06    -147.242E+06    -263.505E+06    -147.275E+06    -263.473E+06    -140.558E+06    -1.69668E+06         54.3392
            1806     2.39442E-03     147.039E-03     242.070E-03     202.536E-03    -559.927E-03     213.304E-03    -558.257E-03     229.632E-03     2.58615E-03     448.329E-03    -223.487E-03    -225.073E-03    -223.443E-03     448.285E-03    -225.073E-03     10.7516E-03    -125.442E+06    -142.478E+06    -244.620E+06    -142.604E+06    -244.494E+06    -125.442E+06    -3.29504E+06         54.4265
            1807     3.20005E-03     147.045E-03     228.108E-03     196.028E-03    -540.017E-03     199.436E-03    -538.708E-03     223.391E-03    -13.9633E-03     448.723E-03    -223.671E-03    -225.775E-03    -224.449E-03     448.653E-03    -224.927E-03     13.2681E-03    -104.674E+06    -135.077E+06    -220.676E+06    -135.376E+06    -220.376E+06    -104.674E+06    -4.86834E+06         54.5062
            1808     3.99666E-03     147.055E-03     219.974E-03     189.299E-03    -528.984E-03     191.420E-03    -528.270E-03     217.138E-03     15.9975E-03     452.372E-03    -224.744E-03    -227.794E-03    -227.589E-03     452.215E-03    -224.792E-03     19.9733E-03    -82.9360E+06    -126.003E+06    -198.415E+06    -126.637E+06    -197.781E+06    -82.9360E+06    -6.51610E+06         54.7130
            1809     4.78627E-03     147.072E-03     215.099E-03     181.884E-03    -518.721E-03     185.565E-03    -518.411E-03     211.108E-03     23.7674E-03     452.461E-03    -224.883E-03    -227.674E-03    -227.152E-03     452.176E-03    -225.121E-03     27.4042E-03    -64.0764E+06    -116.073E+06    -176.856E+06    -117.339E+06    -175.590E+06    -64.0764E+06    -8.39224E+06         55.3825
            1810     5.58627E-03     147.115E-03     206.328E-03     183.016E-03    -511.410E-03     183.692E-03    -510.931E-03     205.173E-03     27.3872E-03     449.129E-03    -223.926E-03    -225.807E-03    -223.946E-03     448.751E-03    -225.409E-03     31.4912E-03    -47.3479E+06    -105.445E+06    -155.627E+06    -107.605E+06    -153.467E+06    -47.3479E+06    -9.93224E+06         56.6781
            1811     6.38826E-03     147.168E-03     206.513E-03     186.515E-03    -516.444E-03     192.104E-03    -515.856E-03     200.336E-03     25.9530E-03     447.452E-03    -222.799E-03    -225.360E-03    -222.368E-03     447.020E-03    -225.360E-03     33.6461E-03    -32.6281E+06    -94.8141E+06    -136.558E+06    -98.1005E+06    -133.272E+06    -32.6281E+06    -10.9818E+06         58.5643
            1812     7.18875E-03     147.211E-03     212.967E-03     181.862E-03    -516.280E-03     196.657E-03    -514.963E-03     196.855E-03     23.9800E-03     447.852E-03    -223.368E-03    -225.226E-03    -223.027E-03     447.268E-03    -224.982E-03     38.9912E-03    -20.2381E+06    -83.7239E+06    -118.402E+06    -88.8226E+06    -113.303E+06    -20.2381E+06    -11.9181E+06         61.0031
            1813     7.98830E-03     147.265E-03     203.758E-03     164.943E-03    -487.108E-03     174.052E-03    -485.171E-03     192.711E-03     20.2350E-03     446.807E-03    -223.149E-03    -224.563E-03    -222.574E-03     445.989E-03    -224.319E-03     46.3844E-03    -9.46852E+06    -71.9200E+06    -101.719E+06    -79.7125E+06    -93.9262E+06    -9.46852E+06    -12.7673E+06         63.9868
            1814     8.79251E-03     147.344E-03     187.337E-03     142.347E-03    -447.548E-03     141.596E-03    -445.685E-03     186.225E-03    -4.41788E-03     445.296E-03    -222.126E-03    -224.245E-03    -221.102E-03     444.271E-03    -224.245E-03     52.0973E-03    -414.726E+03    -58.6897E+06    -84.7125E+06    -71.0503E+06    -72.3519E+06    -414.726E+03    -12.3660E+06         67.7036
            1815     9.59735E-03     147.417E-03     177.800E-03     121.745E-03    -420.257E-03     120.544E-03    -419.056E-03     177.800E-03    -11.0826E-03     445.594E-03    -222.877E-03    -224.976E-03    -222.047E-03     444.196E-03    -224.407E-03     60.8091E-03     8.58044E+06    -39.3419E+06    -68.5709E+06    -62.7316E+06    -45.1812E+06     8.58044E+06    -10.3982E+06         72.4787
            1816     10.4000E-03     147.519E-03     168.401E-03     103.568E-03    -395.146E-03     103.204E-03    -394.782E-03     168.401E-03    -7.41517E-03     448.756E-03    -223.979E-03    -226.210E-03    -223.949E-03     446.777E-03    -224.261E-03     72.7636E-03     20.6670E+06    -3.12273E+06    -56.0688E+06    -54.5655E+06    -4.18737E+06     20.2284E+06    -5.41474E+06         78.4025
            1817     11.1976E-03     147.597E-03     158.941E-03     99.3174E-03    -376.949E-03     99.0739E-03    -376.706E-03     158.941E-03    -3.47573E-03     451.307E-03    -224.033E-03    -226.672E-03    -224.211E-03     449.067E-03    -224.254E-03     77.6880E-03     62.4679E+06     38.3916E+06    -45.7692E+06    -45.5578E+06     59.2855E+06     41.3626E+06     987.464E+03         85.3930
            1818     11.9934E-03     147.714E-03     150.021E-03     106.770E-03    -372.695E-03     106.512E-03    -372.437E-03     150.021E-03     5.52451E-03     451.009E-03    -223.772E-03    -227.072E-03    -224.170E-03     448.490E-03    -224.156E-03     82.0860E-03     112.254E+06     81.1580E+06    -35.9344E+06    -35.8061E+06     112.125E+06     81.1580E+06     3.35618E+06         92.7508
            1819     12.7986E-03     147.836E-03     141.228E-03     109.310E-03    -367.526E-03     108.999E-03    -367.216E-03     141.228E-03     15.2255E-03     453.560E-03    -224.024E-03    -229.960E-03    -226.214E-03     449.977E-03    -224.187E-03     98.0860E-03     153.470E+06     139.585E+06    -25.8621E+06    -25.8248E+06     149.977E+06     143.041E+06     1.68229E+06         99.0657
            1820     13.5963E-03     148.021E-03     132.207E-03     104.203E-03    -346.294E-03     103.872E-03    -345.963E-03     132.207E-03     9.83031E-03     455.271E-03    -224.631E-03    -230.796E-03    -226.625E-03     451.099E-03    -224.631E-03     106.642E-03     207.169E+06     182.366E+06    -13.7457E+06    -13.7400E+06     182.360E+06     207.169E+06    -193.151E+03         103.529
            1821     807.305E-06     148.578E-03     146.030E-03     87.1764E-03    -335.906E-03     80.6232E-03    -311.462E-03     128.139E-03     32.4772E-03     443.310E-03    -219.954E-03    -223.633E-03    -222.346E-03     443.266E-03    -221.196E-03     8.49020E-03    -147.906E+06    -149.467E+06    -271.894E+06    -149.199E+06    -271.868E+06    -148.200E+06     705.076E+03         53.9123
            1822     1.60257E-03     148.589E-03     143.893E-03     110.543E-03    -363.027E-03     137.549E-03    -356.684E-03     110.543E-03    -82.7436E-03     444.199E-03    -221.095E-03    -222.945E-03    -222.121E-03     444.141E-03    -221.862E-03     10.4274E-03    -140.330E+06    -146.618E+06    -257.485E+06    -146.689E+06    -257.413E+06    -140.330E+06    -2.31389E+06         53.9827
            1823     2.40544E-03     148.595E-03     151.775E-03     121.294E-03    -382.243E-03     150.320E-03    -380.789E-03     121.294E-03    -47.4617E-03     442.839E-03    -220.839E-03    -222.485E-03    -221.053E-03     442.776E-03    -222.208E-03     11.6318E-03    -124.616E+06    -141.744E+06    -239.121E+06    -141.925E+06    -238.940E+06    -124.616E+06    -4.09726E+06         54.0948
            1824     3.20226E-03     148.601E-03     149.183E-03     116.879E-03    -371.299E-03     137.433E-03    -369.105E-03     126.435E-03    -65.2006E-03     445.343E-03    -221.731E-03    -224.579E-03    -223.841E-03     445.207E-03    -222.333E-03     17.5510E-03    -104.005E+06    -134.589E+06    -214.840E+06    -135.011E+06    -214.418E+06    -104.005E+06    -5.54566E+06         54.2312
            1825     3.99973E-03     148.633E-03     132.108E-03     97.0233E-03    -336.287E-03     103.773E-03    -335.310E-03     124.381E-03    -26.6540E-03     448.900E-03    -222.423E-03    -226.529E-03    -226.288E-03     448.659E-03    -222.423E-03     24.3652E-03    -82.0079E+06    -125.232E+06    -191.750E+06    -126.201E+06    -190.781E+06    -82.0079E+06     -7.6896E+06         54.5407
            1826     4.80132E-03     148.653E-03     117.726E-03     83.0317E-03    -311.200E-03     82.6967E-03    -310.865E-03     117.726E-03     6.03199E-03     449.823E-03    -223.013E-03    -226.833E-03    -226.449E-03     449.439E-03    -223.013E-03     31.9813E-03    -61.9667E+06    -114.609E+06    -170.438E+06    -116.460E+06    -168.586E+06    -61.9667E+06    -9.71198E+06         55.3408
            1827     5.59811E-03     148.691E-03     111.245E-03     89.9477E-03    -310.382E-03     89.4459E-03    -309.804E-03     111.169E-03     12.1175E-03     448.953E-03    -223.440E-03    -226.239E-03    -225.400E-03     448.479E-03    -223.805E-03     35.7430E-03    -45.2652E+06    -103.865E+06    -150.557E+06    -107.024E+06    -147.397E+06    -45.2652E+06    -11.4956E+06         56.7568
            1828     6.39771E-03     148.722E-03     113.017E-03     95.2251E-03    -319.128E-03     100.990E-03    -318.638E-03     106.763E-03     5.19121E-03     447.161E-03    -223.192E-03    -224.752E-03    -223.373E-03     446.591E-03    -224.002E-03     38.9092E-03    -30.7709E+06    -92.4350E+06    -132.933E+06    -97.5671E+06    -127.801E+06    -30.7709E+06    -13.1685E+06         58.7377
            1829     7.19827E-03     148.786E-03     119.796E-03     94.0815E-03    -326.761E-03     109.922E-03    -326.489E-03     103.684E-03    -12.5121E-03     446.506E-03    -223.295E-03    -224.333E-03    -223.103E-03     445.721E-03    -223.739E-03     45.6795E-03    -18.3013E+06    -80.2722E+06    -115.980E+06    -88.1926E+06    -108.060E+06    -18.3013E+06    -14.5576E+06         61.2360
            1830     8.00055E-03     148.845E-03     126.319E-03     99.1381E-03    -336.642E-03     123.385E-03    -336.102E-03     101.532E-03    -27.4280E-03     445.687E-03    -222.756E-03    -224.064E-03    -222.595E-03     444.682E-03    -223.220E-03     51.7580E-03    -8.55513E+06    -68.5327E+06    -101.413E+06    -79.8485E+06    -90.0970E+06    -8.55513E+06    -15.4071E+06         64.3250
            1831     8.80149E-03     148.898E-03     126.690E-03     91.6131E-03    -328.971E-03     117.527E-03    -327.662E-03     99.4677E-03    -43.1081E-03     444.908E-03    -222.020E-03    -223.814E-03    -221.484E-03     443.745E-03    -223.187E-03     55.6361E-03    -1.14402E+06    -55.9232E+06    -87.6492E+06    -72.2625E+06    -71.3099E+06    -1.14402E+06    -15.4866E+06         68.2767
            1832     9.60381E-03     148.963E-03     112.480E-03     71.9685E-03    -293.447E-03     87.8231E-03    -292.253E-03     95.4310E-03    -29.5976E-03     444.335E-03    -222.574E-03    -224.155E-03    -221.724E-03     442.888E-03    -223.559E-03     61.8831E-03     6.08868E+06    -39.1370E+06    -73.5228E+06    -64.6869E+06    -47.9729E+06     6.08868E+06    -14.2696E+06         73.3219
            1833     10.4069E-03     149.080E-03     99.4049E-03     56.3933E-03    -262.423E-03     66.0769E-03    -261.890E-03     89.1877E-03    -3.86303E-03     444.954E-03    -222.932E-03    -224.118E-03    -221.652E-03     443.057E-03    -223.502E-03     70.9691E-03     16.4616E+06    -10.2254E+06    -60.1474E+06    -56.4110E+06    -13.9618E+06     16.4616E+06    -11.2720E+06         79.4838
            1834     11.2112E-03     149.181E-03     93.5373E-03     57.3046E-03    -253.844E-03     67.1960E-03    -252.852E-03     82.6537E-03     8.33200E-03     448.237E-03    -223.086E-03    -225.120E-03    -222.654E-03     446.059E-03    -223.373E-03     76.3644E-03     56.2486E+06     29.6817E+06    -48.1140E+06    -47.1433E+06     48.2885E+06     36.6710E+06    -6.17312E+06         86.6949
            1835     12.0142E-03     149.287E-03     81.8704E-03     65.5630E-03    -250.670E-03     69.5434E-03    -249.305E-03     76.5248E-03     26.6757E-03     453.415E-03    -223.410E-03    -230.193E-03    -227.453E-03     450.676E-03    -223.410E-03     85.9646E-03     109.465E+06     76.0031E+06    -37.1652E+06    -37.0200E+06     109.319E+06     76.0031E+06    -1.74630E+06         94.2587
            1836     12.8046E-03     149.415E-03     69.8074E-03     62.6736E-03    -240.476E-03     61.6255E-03    -239.427E-03     69.8074E-03     31.9829E-03     458.669E-03    -223.702E-03    -235.490E-03    -231.599E-03     454.778E-03    -223.702E-03     103.313E-03     153.800E+06     138.449E+06    -25.7619E+06    -25.6930E+06     152.960E+06     139.221E+06    -349.317E+03         100.779
            1837     13.5986E-03     149.586E-03     66.7555E-03     57.0129E-03    -227.746E-03     60.6534E-03    -227.217E-03     62.5865E-03     22.3914E-03     458.524E-03    -224.415E-03    -234.008E-03    -229.794E-03     454.310E-03    -224.415E-03     107.649E-03     207.695E+06     182.562E+06    -13.0586E+06    -13.0559E+06     183.255E+06     207.000E+06    -509.036E+03         105.408
            1838     797.358E-06     150.133E-03     66.2543E-03     26.5877E-03    -194.410E-03    -8.57355E-03    -141.545E-03     48.5505E-03     47.3820E-03     439.662E-03    -218.109E-03    -221.698E-03    -218.511E-03     439.645E-03    -221.280E-03     5.66073E-03    -145.790E+06    -147.645E+06    -266.655E+06    -146.555E+06    -266.489E+06    -147.047E+06    -2.72102E+06         53.4096
            1839     1.60598E-03     150.138E-03     38.0649E-03     18.0166E-03    -155.015E-03     10.3718E-03    -127.322E-03     18.0166E-03    -69.0695E-03     436.049E-03    -216.513E-03    -219.472E-03    -216.564E-03     436.014E-03    -219.386E-03     8.48395E-03    -138.172E+06    -144.668E+06    -252.358E+06    -144.221E+06    -252.251E+06    -138.726E+06    -3.04778E+06         53.4902
            1840     2.41096E-03     150.148E-03     46.8525E-03     16.0879E-03    -159.619E-03     19.2345E-03    -132.001E-03     16.0879E-03    -750.320E-06     436.958E-03    -218.043E-03    -219.392E-03    -218.328E-03     436.839E-03    -218.988E-03     15.8792E-03    -122.060E+06    -139.592E+06    -233.224E+06    -139.820E+06    -232.995E+06    -122.060E+06    -4.16761E+06         53.6234
            1841     3.21519E-03     150.173E-03     52.3500E-03     16.1307E-03    -166.286E-03     20.5467E-03    -134.482E-03     16.1307E-03    -8.30082E-03     439.318E-03    -219.122E-03    -221.432E-03    -221.162E-03     439.048E-03    -219.122E-03     26.3336E-03    -101.060E+06    -131.805E+06    -207.801E+06    -132.406E+06    -207.200E+06    -101.060E+06    -6.41019E+06         53.8280
            1842     4.01492E-03     150.187E-03     42.2147E-03     13.5057E-03    -152.667E-03     24.9584E-03    -137.966E-03     16.0609E-03    -1.64566E-03     443.495E-03    -219.177E-03    -224.460E-03    -224.057E-03     443.091E-03    -219.177E-03     32.5982E-03    -79.4744E+06    -122.187E+06    -183.819E+06    -123.526E+06    -182.480E+06    -79.4744E+06    -8.70227E+06         54.2776
            1843     4.81322E-03     150.211E-03     38.6241E-03     10.6420E-03    -145.589E-03     29.0950E-03    -141.529E-03     16.1115E-03    -5.74514E-03     446.242E-03    -220.050E-03    -226.100E-03    -225.609E-03     445.751E-03    -220.050E-03     36.1662E-03    -59.4671E+06    -111.876E+06    -163.654E+06    -114.316E+06    -161.214E+06    -59.4671E+06    -10.7712E+06         55.2469
            1844     5.61175E-03     150.252E-03     34.8425E-03     13.1248E-03    -143.261E-03     30.5723E-03    -141.905E-03     16.0390E-03    -17.6583E-03     446.303E-03    -221.401E-03    -226.082E-03    -225.497E-03     445.719E-03    -221.401E-03     39.2465E-03    -41.9522E+06    -100.694E+06    -144.643E+06    -104.836E+06    -140.501E+06    -41.9522E+06    -12.5563E+06         56.8181
            1845     6.40923E-03     150.282E-03     30.9099E-03     7.93773E-03    -135.602E-03     23.2128E-03    -135.114E-03     15.1467E-03     3.96532E-03     445.738E-03    -221.780E-03    -225.301E-03    -224.465E-03     444.997E-03    -221.875E-03     44.1444E-03    -27.5108E+06    -88.5500E+06    -127.337E+06    -95.5814E+06    -120.306E+06    -27.5108E+06    -14.6305E+06         58.9326
            1846     7.21120E-03     150.330E-03     25.4945E-03     3.38063E-03    -129.759E-03     14.9113E-03    -128.778E-03     12.9831E-03     12.3149E-03     444.722E-03    -221.769E-03    -224.672E-03    -223.638E-03     443.782E-03    -221.863E-03     49.9404E-03    -15.9030E+06    -76.3896E+06    -112.715E+06    -86.8074E+06    -102.298E+06    -15.9030E+06    -16.2428E+06         61.5427
            1847     8.01184E-03     150.380E-03     31.7005E-03     8.28669E-03    -141.574E-03     24.2062E-03    -136.473E-03     10.6801E-03     1.85369E-03     444.681E-03    -221.622E-03    -224.350E-03    -223.219E-03     443.549E-03    -221.622E-03     54.8550E-03    -6.74154E+06    -64.3038E+06    -99.5354E+06    -78.3384E+06    -85.5008E+06    -6.74154E+06    -17.1056E+06         64.7984
            1848     8.81355E-03     150.455E-03     48.8877E-03     9.26778E-03    -157.998E-03     43.8747E-03    -152.985E-03     9.26778E-03    -4.11976E-03     446.154E-03    -221.846E-03    -224.908E-03    -223.593E-03     444.839E-03    -221.846E-03     59.2599E-03    -152.431E+03    -51.2985E+06    -87.1543E+06    -70.4190E+06    -68.0337E+06    -152.431E+03    -17.6832E+06         69.0373
            1849     9.61365E-03     150.543E-03     62.6072E-03     8.75074E-03    -166.167E-03     61.9716E-03    -165.531E-03     8.75074E-03     5.50762E-03     446.373E-03    -222.477E-03    -226.266E-03    -224.715E-03     444.822E-03    -222.477E-03     64.4358E-03     5.83948E+06    -36.1068E+06    -74.8799E+06    -62.9434E+06    -48.0433E+06     5.83948E+06    -17.5212E+06         74.3981
            1850     10.4142E-03     150.612E-03     67.6674E-03     8.44262E-03    -165.834E-03     67.3171E-03    -165.484E-03     8.44262E-03     9.61441E-03     445.625E-03    -222.445E-03    -225.841E-03    -223.792E-03     443.863E-03    -222.732E-03     68.6107E-03     15.2054E+06    -11.5455E+06    -62.1612E+06    -55.4126E+06    -18.2942E+06     15.2054E+06    -16.0674E+06         80.8433
            1851     11.2183E-03     150.725E-03     56.4172E-03     7.10572E-03    -151.755E-03     54.0095E-03    -149.347E-03     7.10572E-03     2.78822E-03     447.546E-03    -222.557E-03    -225.395E-03    -223.300E-03     445.739E-03    -222.844E-03     69.5491E-03     49.6893E+06     26.4413E+06    -49.8498E+06    -47.2936E+06     38.8091E+06     34.7654E+06    -12.6883E+06         88.3380
            1852     12.0188E-03     150.847E-03     37.0330E-03     2.97358E-03    -129.096E-03     33.3074E-03    -126.115E-03     3.71883E-03     6.17663E-03     452.667E-03    -222.901E-03    -230.025E-03    -227.603E-03     450.245E-03    -222.901E-03     80.4664E-03     102.573E+06     73.6035E+06    -38.5123E+06    -37.8893E+06     101.950E+06     73.6035E+06    -7.82974E+06         96.2488
            1853     12.8154E-03     151.021E-03     27.0065E-03    -5.06944E-03    -112.573E-03     22.2105E-03    -111.460E-03    -1.38656E-03     10.5353E-03     457.359E-03    -223.186E-03    -234.911E-03    -231.342E-03     453.790E-03    -223.186E-03     98.7938E-03     150.878E+06     134.436E+06    -26.8116E+06    -26.6461E+06     150.713E+06     134.436E+06    -4.50253E+06         103.206
            1854     13.6098E-03     151.159E-03     36.3803E-03    -9.24881E-03    -118.757E-03     33.0952E-03    -118.409E-03    -6.31119E-03     8.31656E-03     460.625E-03    -224.066E-03    -236.811E-03    -232.784E-03     456.598E-03    -224.066E-03     105.579E-03     206.938E+06     178.517E+06    -13.7400E+06    -13.6599E+06     180.834E+06     204.541E+06    -1.81409E+06         108.274
            1855     803.346E-06     151.682E-03     110.685E-03    -44.8306E-03    -149.337E-03    -72.4976E-03     36.8814E-03    -47.8664E-03     45.1064E-03     430.049E-03    -213.538E-03    -216.832E-03    -214.391E-03     430.025E-03    -215.956E-03     5.54322E-03    -139.046E+06    -142.782E+06    -258.470E+06    -141.976E+06    -258.313E+06    -140.009E+06    -2.92571E+06         52.7664
            1856     1.61448E-03     151.679E-03     81.2530E-03    -61.4895E-03    -109.143E-03    -81.3040E-03     56.4502E-03    -64.5253E-03    -74.9792E-03     428.696E-03    -212.672E-03    -215.788E-03    -213.336E-03     428.605E-03    -215.032E-03     14.5697E-03    -134.717E+06    -141.192E+06    -248.014E+06    -140.762E+06    -247.889E+06    -135.271E+06    -3.14508E+06         52.8682
            1857     2.42219E-03     151.694E-03     84.7631E-03    -73.1417E-03    -99.9209E-03    -94.9777E-03     79.8200E-03    -73.1417E-03    -13.4068E-03     429.434E-03    -214.505E-03    -215.610E-03    -214.985E-03     429.241E-03    -214.937E-03     21.8597E-03    -119.468E+06    -135.796E+06    -226.935E+06    -136.074E+06    -226.657E+06    -119.468E+06    -4.56281E+06         53.0242
            1858     3.22617E-03     151.700E-03     84.5390E-03    -77.9403E-03    -96.5762E-03    -90.4032E-03     79.7378E-03    -79.3120E-03    -37.2981E-06     431.020E-03    -214.887E-03    -217.445E-03    -217.071E-03     430.646E-03    -214.887E-03     30.5325E-03    -97.0774E+06    -128.293E+06    -199.631E+06    -129.074E+06    -198.850E+06    -97.0774E+06    -7.03861E+06         53.3110
            1859     4.03251E-03     151.732E-03     72.6643E-03    -71.9707E-03    -90.3155E-03    -67.1514E-03     58.5077E-03    -80.9782E-03     12.3096E-03     436.619E-03    -215.072E-03    -221.555E-03    -220.952E-03     436.016E-03    -215.072E-03     39.4459E-03    -75.5745E+06    -118.873E+06    -175.526E+06    -120.491E+06    -173.909E+06    -75.5745E+06    -9.22042E+06         53.9310
            1860     4.82965E-03     151.769E-03     69.5940E-03    -61.8681E-03    -91.9645E-03    -41.5054E-03     35.7365E-03    -78.4697E-03     26.2834E-03     440.486E-03    -216.331E-03    -224.235E-03    -223.525E-03     439.776E-03    -216.331E-03     43.1880E-03    -56.2582E+06    -108.134E+06    -156.320E+06    -111.212E+06    -153.242E+06    -56.2582E+06    -11.4923E+06         55.0973
            1861     5.63055E-03     151.800E-03     68.6528E-03    -61.2275E-03    -88.7093E-03    -40.7246E-03     34.2924E-03    -74.8519E-03     27.1036E-03     441.099E-03    -217.927E-03    -224.557E-03    -223.680E-03     440.223E-03    -217.927E-03     47.8352E-03    -38.6064E+06    -95.9718E+06    -138.022E+06    -101.561E+06    -132.432E+06    -38.6064E+06    -13.9086E+06         56.8538
            1862     6.43245E-03     151.847E-03     64.8358E-03    -61.0249E-03    -86.0802E-03    -44.3283E-03     34.9401E-03    -72.8811E-03     21.1785E-03     442.558E-03    -218.746E-03    -225.409E-03    -224.290E-03     441.439E-03    -218.746E-03     54.3094E-03    -23.4877E+06    -82.7993E+06    -121.055E+06    -91.7995E+06    -112.055E+06    -23.4877E+06    -15.9844E+06         59.1560
            1863     7.22755E-03     151.904E-03     53.9448E-03    -52.8861E-03    -86.3171E-03    -41.1987E-03     28.0205E-03    -72.0802E-03     4.26402E-03     444.566E-03    -219.153E-03    -227.229E-03    -225.876E-03     443.212E-03    -219.153E-03     59.7798E-03    -12.2151E+06    -70.0522E+06    -108.126E+06    -82.6980E+06    -95.4807E+06    -12.2151E+06    -17.8463E+06         61.9754
            1864     8.02927E-03     151.951E-03     38.9615E-03    -42.9567E-03    -79.3318E-03    -40.6199E-03     29.0898E-03    -71.7969E-03    -1.66315E-03     445.496E-03    -219.502E-03    -227.605E-03    -226.097E-03     443.988E-03    -219.502E-03     63.4255E-03    -3.94283E+06    -57.5615E+06    -96.6460E+06    -74.2121E+06    -79.9954E+06    -3.94283E+06    -19.2094E+06         65.4853
            1865     8.82812E-03     152.021E-03     42.1878E-03    -43.5386E-03    -80.0254E-03    -34.8165E-03     25.4904E-03    -72.0500E-03     3.32340E-03     447.014E-03    -220.162E-03    -227.767E-03    -226.111E-03     445.357E-03    -220.162E-03     66.5634E-03     2.31151E+06    -45.0303E+06    -85.0973E+06    -66.1673E+06    -63.9603E+06     2.31151E+06    -19.8904E+06         70.0349
            1866     9.62682E-03     152.098E-03     70.3562E-03    -49.4690E-03    -101.320E-03    -12.8664E-03     4.24930E-03    -71.8155E-03     14.2773E-03     448.523E-03    -220.863E-03    -230.066E-03    -228.166E-03     446.623E-03    -220.863E-03     71.4963E-03     7.90785E+06    -31.1080E+06    -73.6450E+06    -59.0160E+06    -45.7370E+06     7.90785E+06    -19.8953E+06         75.7413
            1867     10.4224E-03     152.185E-03     78.2214E-03    -44.4325E-03    -113.488E-03     5.07403E-03    -13.9129E-03    -70.8601E-03     11.2533E-03     449.653E-03    -221.512E-03    -230.906E-03    -228.798E-03     447.545E-03    -221.512E-03     75.1930E-03     16.3458E+06    -8.95018E+06    -61.6464E+06    -52.2394E+06    -18.3572E+06     16.3458E+06    -19.3457E+06         82.5368
            1868     11.2172E-03     152.291E-03     50.8157E-03    -29.9866E-03    -102.621E-03     7.44990E-03    -18.8030E-03    -70.4392E-03    -6.65364E-03     453.098E-03    -222.276E-03    -231.644E-03    -229.328E-03     450.782E-03    -222.276E-03     78.6738E-03     45.6726E+06     26.2254E+06    -49.3555E+06    -44.8746E+06     33.0266E+06     34.3905E+06    -17.1973E+06         90.3792
            1869     12.0145E-03     152.403E-03     33.1518E-03    -22.0845E-03    -89.9475E-03     15.4283E-03    -23.3313E-03    -70.9772E-03    -747.702E-06     455.595E-03    -222.614E-03    -233.535E-03    -230.738E-03     452.798E-03    -222.614E-03     86.8681E-03     95.3562E+06     71.5173E+06    -37.3433E+06    -35.7325E+06     93.7454E+06     71.5173E+06    -13.2665E+06         98.7523
            1870     12.8139E-03     152.565E-03     36.7620E-03    -26.0080E-03    -84.5855E-03     31.0957E-03    -33.2838E-03    -71.6433E-03     16.0811E-03     456.732E-03    -222.967E-03    -234.496E-03    -231.139E-03     453.375E-03    -222.967E-03     96.0365E-03     142.948E+06     128.356E+06    -25.8938E+06    -25.2927E+06     142.347E+06     128.356E+06    -7.85500E+06         106.415
            1871     13.6128E-03     152.709E-03     41.2726E-03    -24.9448E-03    -89.9795E-03     40.0780E-03    -41.8797E-03    -71.8499E-03     9.36885E-03     460.482E-03    -223.929E-03    -236.986E-03    -233.220E-03     456.716E-03    -223.929E-03     102.176E-03     201.344E+06     172.240E+06    -13.7894E+06    -13.6953E+06     174.180E+06     199.310E+06    -2.86524E+06         112.320
            1872     818.524E-06     153.210E-03     281.260E-03    -152.817E-03    -192.791E-03    -180.975E-03     272.480E-03    -155.853E-03     23.8236E-03     415.605E-03    -206.464E-03    -208.861E-03    -208.354E-03     415.587E-03    -206.953E-03     4.12812E-03    -133.381E+06    -138.083E+06    -253.243E+06    -136.177E+06    -253.220E+06    -135.310E+06    -988.968E+03         51.9928
            1873     1.62359E-03     153.199E-03     266.062E-03    -159.525E-03    -181.482E-03    -168.574E-03     262.194E-03    -168.566E-03    -50.5613E-03     419.858E-03    -208.677E-03    -211.034E-03    -210.892E-03     419.716E-03    -208.677E-03     17.1529E-03    -128.988E+06    -135.695E+06    -242.812E+06    -134.836E+06    -242.729E+06    -129.930E+06    -2.43391E+06         52.1225
            1874     2.43219E-03     153.221E-03     254.478E-03    -153.972E-03    -177.357E-03    -161.267E-03     252.724E-03    -168.307E-03    -18.5164E-03     420.866E-03    -209.760E-03    -211.849E-03    -211.519E-03     420.536E-03    -209.760E-03     28.2500E-03    -114.774E+06    -131.264E+06    -219.713E+06    -131.526E+06    -219.451E+06    -114.774E+06    -4.28790E+06         52.3137
            1875     3.24251E-03     153.245E-03     238.613E-03    -145.791E-03    -166.817E-03    -145.698E-03     237.685E-03    -165.982E-03    -15.6145E-03     424.184E-03    -210.081E-03    -214.586E-03    -213.975E-03     423.572E-03    -210.081E-03     38.4945E-03    -92.2406E+06    -123.567E+06    -190.130E+06    -124.531E+06    -189.166E+06    -92.2406E+06    -7.28904E+06         52.6917
            1876     4.04597E-03     153.282E-03     231.440E-03    -142.664E-03    -163.284E-03    -141.822E-03     230.598E-03    -163.284E-03    -7.84022E-03     428.226E-03    -210.589E-03    -217.207E-03    -216.329E-03     427.348E-03    -210.589E-03     47.3252E-03    -70.9946E+06    -113.287E+06    -167.179E+06    -115.433E+06    -165.032E+06    -70.9946E+06    -10.3353E+06         53.4931
            1877     4.85513E-03     153.358E-03     228.428E-03    -141.041E-03    -161.400E-03    -138.950E-03     226.337E-03    -161.400E-03     6.78399E-03     431.662E-03    -211.920E-03    -219.795E-03    -218.835E-03     430.702E-03    -211.920E-03     49.8915E-03    -51.6086E+06    -101.803E+06    -148.592E+06    -105.567E+06    -144.827E+06    -51.6086E+06    -12.4524E+06         54.8624
            1878     5.65677E-03     153.358E-03     216.371E-03    -132.198E-03    -159.172E-03    -128.670E-03     212.843E-03    -159.172E-03     15.5494E-03     434.885E-03    -213.542E-03    -222.330E-03    -221.206E-03     433.761E-03    -213.542E-03     54.1404E-03    -33.6122E+06    -88.6119E+06    -129.380E+06    -95.9641E+06    -122.028E+06    -33.6122E+06    -15.1789E+06         56.8007
            1879     6.45699E-03     153.397E-03     201.748E-03    -118.597E-03    -156.729E-03    -116.780E-03     199.932E-03    -156.729E-03    -549.389E-06     437.466E-03    -214.700E-03    -224.122E-03    -222.605E-03     435.948E-03    -214.700E-03     62.9618E-03    -18.7457E+06    -74.7881E+06    -114.895E+06    -86.4353E+06    -103.248E+06    -18.7457E+06    -18.0892E+06         59.2816
            1880     7.26092E-03     153.448E-03     190.532E-03    -106.359E-03    -154.402E-03    -106.255E-03     190.428E-03    -154.402E-03    -5.55904E-03     443.207E-03    -215.597E-03    -228.957E-03    -227.067E-03     441.317E-03    -215.597E-03     70.9980E-03    -7.66310E+06    -61.9454E+06    -103.440E+06    -76.9995E+06    -88.3863E+06    -7.66310E+06    -19.8705E+06         62.3364
            1881     8.05247E-03     153.502E-03     173.476E-03    -89.7920E-03    -151.710E-03    -88.7059E-03     172.390E-03    -151.710E-03    -22.8203E-03     446.680E-03    -216.605E-03    -232.059E-03    -230.101E-03     444.721E-03    -216.605E-03     72.7210E-03     305.382E+03    -49.7803E+06    -92.2591E+06    -68.7265E+06    -73.3130E+06     305.382E+03    -21.0185E+06         66.1863
            1882     8.85000E-03     153.575E-03     158.394E-03    -77.8985E-03    -148.907E-03    -76.2290E-03     156.724E-03    -148.907E-03    -33.8131E-03     448.164E-03    -217.817E-03    -231.872E-03    -229.709E-03     446.002E-03    -217.817E-03     76.2942E-03     5.63257E+06    -38.0051E+06    -82.3221E+06    -61.4493E+06    -58.8780E+06     5.63257E+06    -22.0559E+06         71.1377
            1883     9.64633E-03     153.666E-03     157.763E-03    -82.1202E-03    -146.922E-03    -80.8930E-03     156.536E-03    -146.922E-03    -18.1257E-03     449.581E-03    -218.671E-03    -233.341E-03    -230.875E-03     447.115E-03    -218.671E-03     81.7932E-03     10.3168E+06    -24.7412E+06    -71.8177E+06    -54.1377E+06    -42.4213E+06     10.3168E+06    -22.5660E+06         77.2698
            1884     10.4431E-03     153.748E-03     145.298E-03    -70.8704E-03    -145.627E-03    -69.7768E-03     144.204E-03    -145.627E-03    -2.89530E-03     452.220E-03    -219.655E-03    -235.508E-03    -232.780E-03     449.492E-03    -219.655E-03     86.3469E-03     18.1723E+06    -4.17666E+06    -59.2985E+06    -47.0909E+06    -16.3842E+06     18.1723E+06    -22.1130E+06         84.5131
            1885     11.2381E-03     153.863E-03     111.852E-03    -38.3603E-03    -143.826E-03    -37.2761E-03     110.768E-03    -143.826E-03     13.3797E-03     458.261E-03    -221.016E-03    -238.637E-03    -235.555E-03     455.179E-03    -221.016E-03     92.4582E-03     45.1143E+06     28.1695E+06    -46.2491E+06    -39.8357E+06     31.4665E+06     35.4040E+06    -20.6660E+06         92.8148
            1886     12.0267E-03     153.981E-03     86.6265E-03    -11.8040E-03    -140.756E-03    -77.2900E-06     74.8998E-03    -140.756E-03     24.5145E-03     462.058E-03    -221.789E-03    -241.280E-03    -237.706E-03     458.484E-03    -221.789E-03     99.8177E-03     88.6507E+06     68.9740E+06    -35.6190E+06    -32.8888E+06     85.9205E+06     68.9740E+06    -17.1872E+06         101.756
            1887     12.8151E-03     154.124E-03     76.9188E-03    -3.09001E-03    -136.932E-03     26.3201E-03     47.5087E-03    -136.932E-03     27.4681E-03     463.667E-03    -222.529E-03    -241.916E-03    -237.786E-03     459.537E-03    -222.529E-03     107.333E-03     130.784E+06     118.839E+06    -25.1446E+06    -24.1969E+06     128.191E+06     120.484E+06    -10.2914E+06         110.260
            1888     13.6061E-03     154.294E-03     61.5220E-03     5.86976E-03    -133.405E-03     32.7994E-03     34.5923E-03    -133.405E-03     14.7787E-03     463.898E-03    -223.843E-03    -240.494E-03    -236.192E-03     459.596E-03    -223.843E-03     109.532E-03     194.292E+06     164.584E+06    -12.4404E+06    -12.2486E+06     164.726E+06     193.959E+06    -2.95297E+06         116.966
            1889     816.865E-06     154.712E-03     452.754E-03    -236.868E-03    -276.921E-03    -269.594E-03     448.100E-03    -239.541E-03     31.4796E-03     402.118E-03    -199.628E-03    -201.893E-03    -201.426E-03     402.050E-03    -200.027E-03     9.97101E-03    -123.542E+06    -128.583E+06    -245.143E+06    -123.922E+06    -244.927E+06    -128.420E+06    -4.39996E+06         51.1098
            1890     1.63542E-03     154.725E-03     439.210E-03    -242.712E-03    -257.715E-03    -245.734E-03     437.530E-03    -253.013E-03    -31.6998E-03     406.716E-03    -201.776E-03    -205.099E-03    -204.887E-03     406.505E-03    -201.776E-03     21.3211E-03    -121.356E+06    -129.334E+06    -242.167E+06    -124.084E+06    -242.088E+06    -126.685E+06    -2.69155E+06         51.2679
            1891     2.45054E-03     154.735E-03     417.511E-03    -227.713E-03    -248.525E-03    -227.068E-03     416.866E-03    -248.525E-03    -10.3006E-03     410.882E-03    -203.160E-03    -208.241E-03    -207.750E-03     410.391E-03    -203.160E-03     34.2008E-03    -107.615E+06    -123.332E+06    -210.538E+06    -122.133E+06    -210.300E+06    -109.053E+06    -3.48304E+06         51.5212
            1892     3.26007E-03     154.773E-03     407.625E-03    -220.159E-03    -246.322E-03    -221.993E-03     406.968E-03    -243.831E-03    -22.5810E-03     416.338E-03    -204.300E-03    -211.357E-03    -210.502E-03     415.483E-03    -204.300E-03     45.9669E-03    -85.2331E+06    -114.622E+06    -177.204E+06    -116.020E+06    -175.805E+06    -85.2331E+06    -8.35897E+06         52.0122
            1893     4.07051E-03     154.817E-03     406.847E-03    -225.234E-03    -244.273E-03    -227.108E-03     406.231E-03    -241.782E-03    -21.4172E-03     419.667E-03    -205.680E-03    -213.393E-03    -212.267E-03     418.541E-03    -205.680E-03     53.2421E-03    -64.8366E+06    -103.777E+06    -159.099E+06    -106.739E+06    -156.137E+06    -64.8366E+06    -12.3332E+06         52.9884
            1894     4.87671E-03     154.845E-03     400.720E-03    -223.362E-03    -241.002E-03    -223.012E-03     400.369E-03    -241.002E-03    -17.9602E-03     422.978E-03    -207.430E-03    -215.997E-03    -214.674E-03     421.655E-03    -207.430E-03     57.7441E-03    -45.8875E+06    -92.2706E+06    -141.364E+06    -96.8961E+06    -136.738E+06    -45.8875E+06    -14.0706E+06         54.5353
            1895     5.68401E-03     154.892E-03     380.033E-03    -206.041E-03    -239.092E-03    -205.421E-03     379.413E-03    -239.092E-03    -10.0658E-03     427.776E-03    -208.881E-03    -219.596E-03    -218.143E-03     426.324E-03    -208.881E-03     60.9817E-03    -27.0169E+06    -78.9513E+06    -119.610E+06    -87.4417E+06    -111.120E+06    -27.0169E+06    -15.9892E+06         56.6140
            1896     6.48971E-03     154.936E-03     351.804E-03    -178.106E-03    -235.406E-03    -177.559E-03     351.256E-03    -235.406E-03    -12.0462E-03     433.164E-03    -210.099E-03    -223.900E-03    -222.021E-03     431.285E-03    -210.099E-03     69.7008E-03    -12.2573E+06    -65.1306E+06    -105.961E+06    -78.6854E+06    -92.4057E+06    -12.2573E+06    -19.1669E+06         59.1934
            1897     7.28805E-03     155.003E-03     329.919E-03    -156.892E-03    -230.644E-03    -156.864E-03     329.891E-03    -230.644E-03    -3.68621E-03     439.782E-03    -211.561E-03    -229.110E-03    -226.816E-03     437.488E-03    -211.561E-03     78.1410E-03    -2.69144E+06    -54.0494E+06    -98.1162E+06    -70.6432E+06    -81.5224E+06    -2.69144E+06    -21.3283E+06         62.4342
            1898     8.08733E-03     155.076E-03     319.699E-03    -153.271E-03    -226.120E-03    -152.286E-03     318.714E-03    -226.120E-03    -22.2761E-03     444.582E-03    -213.104E-03    -233.541E-03    -231.241E-03     442.283E-03    -213.104E-03     78.8000E-03     4.52756E+06    -42.9112E+06    -87.5489E+06    -63.1781E+06    -67.2820E+06     4.52756E+06    -22.0232E+06         66.6905
            1899     8.87826E-03     155.137E-03     304.939E-03    -142.192E-03    -222.288E-03    -140.537E-03     303.284E-03    -222.288E-03    -33.4502E-03     449.748E-03    -214.851E-03    -236.277E-03    -233.730E-03     447.202E-03    -214.851E-03     83.3135E-03     9.61738E+06    -29.7112E+06    -77.2706E+06    -56.1247E+06    -50.8571E+06     9.61738E+06    -23.5630E+06         72.1428
            1900     9.67250E-03     155.235E-03     274.551E-03    -115.377E-03    -218.139E-03    -114.264E-03     273.439E-03    -218.139E-03    -16.6588E-03     452.214E-03    -216.142E-03    -238.329E-03    -235.602E-03     449.488E-03    -216.142E-03     86.5961E-03     12.0693E+06    -18.0723E+06    -69.5333E+06    -49.8577E+06    -37.7479E+06     12.0693E+06    -24.9591E+06         78.7721
            1901     10.4661E-03     155.305E-03     243.032E-03    -85.2502E-03    -213.054E-03    -84.7103E-03     242.492E-03    -213.054E-03    -12.6758E-03     454.486E-03    -217.593E-03    -240.525E-03    -237.662E-03     451.624E-03    -217.593E-03     88.9670E-03     18.1436E+06     199.404E+03    -58.6640E+06    -44.0457E+06    -14.4189E+06     18.1436E+06    -24.5849E+06         86.5460
            1902     11.2541E-03     155.445E-03     214.427E-03    -57.7514E-03    -207.376E-03    -57.1898E-03     213.865E-03    -207.376E-03    -3.20288E-03     459.653E-03    -219.424E-03    -242.475E-03    -239.301E-03     456.479E-03    -219.424E-03     94.1938E-03     44.8645E+06     29.6508E+06    -46.0963E+06    -38.2328E+06     32.0908E+06     34.5610E+06    -23.4106E+06         95.4366
            1903     12.0441E-03     155.567E-03     183.656E-03    -34.4216E-03    -201.432E-03    -33.9522E-03     183.187E-03    -201.432E-03     1.28411E-03     464.345E-03    -220.479E-03    -245.060E-03    -241.142E-03     460.427E-03    -220.479E-03     104.813E-03      80.431E+06     65.7791E+06    -35.4674E+06    -31.9188E+06     76.8824E+06     65.7791E+06    -19.0047E+06         105.046
            1904     12.8323E-03     155.724E-03     154.381E-03    -17.9301E-03    -195.800E-03    -17.2279E-03     153.679E-03    -195.800E-03     11.6802E-03     469.998E-03    -221.551E-03    -249.010E-03    -244.235E-03     465.223E-03    -221.551E-03     116.756E-03     118.518E+06     108.747E+06    -25.3032E+06    -24.1268E+06     111.919E+06     114.170E+06    -10.7395E+06         114.280
            1905     13.6180E-03     155.891E-03     119.563E-03     7.78167E-03    -190.260E-03     9.78884E-03     117.555E-03    -190.260E-03     1.52432E-03     472.551E-03    -223.389E-03    -249.225E-03    -244.609E-03     467.935E-03    -223.389E-03     114.907E-03     189.241E+06     154.877E+06    -14.0333E+06    -13.8030E+06     154.647E+06     189.241E+06    -3.84347E+06         121.508
            1906     827.554E-06     156.201E-03     565.147E-03    -283.757E-03    -333.698E-03    -328.333E-03     562.853E-03    -286.828E-03     30.8479E-03     388.486E-03    -192.597E-03    -195.800E-03    -193.858E-03     388.369E-03    -194.422E-03     16.1044E-03    -101.232E+06    -109.408E+06    -230.644E+06    -101.638E+06    -230.401E+06    -109.245E+06    -5.02935E+06         50.1935
            1907     1.64811E-03     156.216E-03     565.148E-03    -304.021E-03    -315.431E-03    -310.454E-03     564.866E-03    -308.716E-03    -29.1614E-03     393.461E-03    -194.930E-03    -198.928E-03    -198.647E-03     393.180E-03    -194.930E-03     24.8094E-03    -108.228E+06    -121.835E+06    -241.545E+06    -108.434E+06    -241.339E+06    -121.835E+06    -4.79964E+06         50.3736
            1908     2.46437E-03     156.245E-03     571.489E-03    -304.327E-03    -320.976E-03    -314.096E-03     571.085E-03    -310.804E-03    -26.4418E-03     399.540E-03    -196.413E-03    -203.720E-03    -203.070E-03     398.890E-03    -196.413E-03     38.7717E-03    -101.302E+06    -114.485E+06    -202.554E+06    -109.153E+06    -202.161E+06    -107.028E+06    -5.21878E+06         50.6993
            1909     3.27992E-03     156.285E-03     572.912E-03    -305.072E-03    -318.670E-03    -310.370E-03     572.261E-03    -312.721E-03    -14.8501E-03     405.996E-03    -198.075E-03    -207.164E-03    -206.127E-03     404.960E-03    -198.075E-03     50.1530E-03    -78.3184E+06    -102.288E+06    -161.848E+06    -104.189E+06    -159.947E+06    -78.3184E+06    -9.41973E+06         51.3300
            1910     4.09348E-03     156.329E-03     560.412E-03    -298.287E-03    -315.566E-03    -300.360E-03     559.994E-03    -313.075E-03    -12.4877E-03     409.857E-03    -200.108E-03    -208.971E-03    -207.610E-03     408.497E-03    -200.108E-03     57.7632E-03    -57.0581E+06    -92.1559E+06    -149.657E+06    -96.0727E+06    -145.740E+06    -57.0581E+06    -14.4246E+06         52.4661
            1911     4.90639E-03     156.385E-03     533.229E-03    -277.482E-03    -310.933E-03    -277.396E-03     533.143E-03    -310.933E-03    -4.69170E-03     413.989E-03    -202.216E-03    -212.241E-03    -210.524E-03     412.272E-03    -202.216E-03     65.3403E-03    -40.0572E+06    -81.6136E+06    -135.438E+06    -87.0432E+06    -130.008E+06    -40.0572E+06    -16.0065E+06         54.1493
            1912     5.71677E-03     156.419E-03     512.777E-03    -259.231E-03    -306.779E-03    -259.064E-03     512.610E-03    -306.779E-03     3.64473E-03     421.486E-03    -203.733E-03    -218.224E-03    -216.281E-03     419.544E-03    -203.733E-03     70.2107E-03    -20.2674E+06    -68.3494E+06    -110.847E+06    -78.0869E+06    -101.109E+06    -20.2674E+06    -16.9769E+06         56.3277
            1913     6.51891E-03     156.483E-03     491.687E-03    -238.669E-03    -301.821E-03    -238.503E-03     491.522E-03    -301.821E-03    -7.35294E-03     430.666E-03    -205.303E-03    -225.287E-03    -222.931E-03     428.310E-03    -205.303E-03     78.0834E-03    -4.97188E+06    -55.1951E+06    -95.6542E+06    -69.3551E+06    -81.4942E+06    -4.97188E+06    -19.2456E+06         58.9599
            1914     7.31930E-03     156.540E-03     462.299E-03    -212.406E-03    -296.020E-03    -212.258E-03     462.151E-03    -296.020E-03     3.07164E-03     436.878E-03    -207.330E-03    -229.753E-03    -227.127E-03     434.252E-03    -207.330E-03     83.4505E-03     3.25291E+06    -46.4541E+06    -90.3043E+06    -61.8201E+06    -74.9383E+06     3.25291E+06    -20.8919E+06         62.3389
            1915     8.11615E-03     156.626E-03     438.359E-03    -198.641E-03    -289.895E-03    -198.475E-03     438.193E-03    -289.895E-03     4.15258E-03     440.947E-03    -209.433E-03    -233.096E-03    -230.436E-03     438.287E-03    -209.433E-03     84.4229E-03     9.81142E+06    -35.4406E+06    -80.3188E+06    -55.1013E+06    -60.6582E+06     9.81142E+06    -21.9052E+06         66.9427
            1916     8.91203E-03     156.716E-03     413.386E-03    -179.387E-03    -283.841E-03    -179.208E-03     413.206E-03    -283.841E-03    -9.12496E-03     449.619E-03    -211.570E-03    -239.207E-03    -236.189E-03     446.601E-03    -211.570E-03     90.7841E-03     14.3033E+06    -22.1373E+06    -69.4455E+06    -49.1518E+06    -42.4310E+06     14.3033E+06    -23.3066E+06         72.8003
            1917     9.69738E-03     156.807E-03     376.172E-03    -142.915E-03    -276.852E-03    -142.656E-03     375.913E-03    -276.852E-03     5.89452E-03     456.200E-03    -213.334E-03    -245.040E-03    -241.832E-03     452.992E-03    -213.334E-03     94.3671E-03     15.2151E+06    -12.8407E+06    -63.4879E+06    -44.4227E+06    -31.9059E+06     15.2151E+06    -24.5193E+06         79.8609
            1918     10.4822E-03     156.917E-03     342.425E-03    -116.028E-03    -268.922E-03    -115.688E-03     342.084E-03    -268.922E-03     19.4623E-03     458.888E-03    -215.329E-03    -247.382E-03    -243.996E-03     455.502E-03    -215.329E-03     97.2046E-03     19.4753E+06     4.39992E+06    -55.1826E+06    -40.1952E+06    -10.5875E+06     19.4753E+06    -24.8825E+06         88.2666
            1919     11.2710E-03     157.037E-03     316.067E-03    -96.6876E-03    -261.075E-03    -96.3179E-03     315.697E-03    -261.075E-03    -1.85757E-03     462.541E-03    -217.665E-03    -247.528E-03    -244.054E-03     459.067E-03    -217.665E-03     98.9425E-03     43.0411E+06     30.5434E+06    -44.0030E+06    -35.9905E+06     32.2253E+06     33.3467E+06    -23.4438E+06         97.9863
            1920     12.0609E-03     157.159E-03     284.562E-03    -75.1252E-03    -253.588E-03    -74.9632E-03     284.400E-03    -253.588E-03    -11.8126E-03     467.397E-03    -219.208E-03    -249.132E-03    -245.266E-03     463.532E-03    -219.208E-03     104.706E-03     72.5062E+06     60.2329E+06    -34.0371E+06    -30.2727E+06     66.8899E+06     62.0849E+06    -19.0465E+06         108.433
            1921     12.8488E-03     157.323E-03     245.826E-03    -48.3924E-03    -246.270E-03    -48.0485E-03     245.482E-03    -246.270E-03     6.19594E-03     473.552E-03    -220.639E-03    -252.630E-03    -248.238E-03     469.161E-03    -220.639E-03     112.467E-03     110.394E+06     97.2627E+06    -24.0911E+06    -22.5021E+06     96.4006E+06     109.667E+06    -11.9565E+06         118.299
            1922     13.6292E-03     157.499E-03     201.373E-03    -9.78619E-03    -238.270E-03    -7.95295E-03     199.539E-03    -238.270E-03    -10.9480E-03     480.211E-03    -222.901E-03    -256.535E-03    -252.312E-03     475.988E-03    -222.901E-03     111.123E-03     185.178E+06     144.157E+06    -12.2698E+06    -11.8345E+06     143.722E+06     185.178E+06    -4.81261E+06         126.009
            1923     828.225E-06     157.658E-03     696.943E-03    -326.821E-03    -418.512E-03    -408.130E-03     695.384E-03    -335.645E-03    -30.4300E-03     378.254E-03    -187.551E-03    -190.781E-03    -189.174E-03     378.120E-03    -189.025E-03     17.3697E-03    -76.1635E+06    -91.7809E+06    -216.529E+06    -76.4032E+06    -216.363E+06    -91.7080E+06    -4.57352E+06         49.3045
            1924     1.65462E-03     157.689E-03     687.877E-03    -354.164E-03    -377.344E-03    -359.361E-03     686.359E-03    -370.630E-03    -52.5415E-03     381.687E-03    -189.355E-03    -192.623E-03    -192.221E-03     381.333E-03    -189.404E-03     26.8357E-03    -89.7713E+06    -115.480E+06    -237.148E+06    -89.9859E+06    -236.933E+06    -115.480E+06    -5.36364E+06         49.5039
            1925     2.47999E-03     157.721E-03     688.381E-03    -358.984E-03    -379.521E-03    -368.952E-03     688.177E-03    -369.348E-03    -17.9061E-03     387.728E-03    -190.739E-03    -196.970E-03    -196.117E-03     386.875E-03    -190.739E-03     43.9504E-03     -90.166E+06    -105.318E+06    -193.805E+06    -96.1359E+06    -192.691E+06    -100.462E+06    -7.86873E+06         49.8982
            1926     3.30009E-03     157.771E-03     678.358E-03    -353.185E-03    -372.760E-03    -356.338E-03     678.053E-03    -369.302E-03    -4.62318E-03     394.074E-03    -192.559E-03    -201.041E-03    -199.745E-03     392.778E-03    -192.559E-03     55.2628E-03    -71.1511E+06    -88.4830E+06    -146.822E+06    -91.7653E+06    -143.540E+06    -71.1511E+06    -12.5093E+06         50.6726
            1927     4.11849E-03     157.823E-03     657.379E-03    -336.065E-03    -366.247E-03    -335.873E-03     657.187E-03    -366.247E-03    -874.439E-06     398.855E-03    -194.374E-03    -204.148E-03    -202.505E-03     397.212E-03    -194.374E-03     62.6903E-03    -51.5299E+06    -80.0417E+06    -140.219E+06    -84.4871E+06    -135.774E+06    -51.5299E+06    -15.5574E+06         51.9564
            1928     4.93576E-03     157.874E-03     641.382E-03    -322.906E-03    -361.542E-03    -322.554E-03     641.031E-03    -361.542E-03     13.1941E-03     405.001E-03    -196.037E-03    -209.070E-03    -207.039E-03     402.970E-03    -196.037E-03     70.3701E-03    -33.9135E+06    -71.5923E+06    -129.221E+06    -77.3563E+06    -123.457E+06    -33.9135E+06    -16.6852E+06         53.7486
            1929     5.74744E-03     157.943E-03     621.533E-03    -306.453E-03    -356.411E-03    -305.680E-03     620.760E-03    -356.411E-03     30.5501E-03     414.809E-03    -197.833E-03    -217.401E-03    -214.956E-03     412.364E-03    -197.833E-03     78.3084E-03    -13.0795E+06    -57.7281E+06    -102.113E+06    -68.8289E+06    -91.0124E+06    -13.0795E+06    -18.3536E+06         56.0082
            1930     6.55238E-03     158.016E-03     602.210E-03    -290.883E-03    -351.048E-03    -290.322E-03     601.649E-03    -351.048E-03     16.6622E-03     426.256E-03    -200.319E-03    -225.578E-03    -222.638E-03     423.317E-03    -200.319E-03     87.1445E-03     1.26556E+06    -45.8771E+06    -87.8795E+06    -60.0143E+06    -73.7423E+06     1.26556E+06    -19.7866E+06         58.7087
            1931     7.35002E-03     158.113E-03     576.972E-03    -268.965E-03    -345.302E-03    -268.723E-03     576.731E-03    -345.302E-03     18.7627E-03     434.230E-03    -203.045E-03    -230.819E-03    -227.739E-03     431.150E-03    -203.045E-03     90.1782E-03     8.88109E+06    -38.7542E+06    -82.6707E+06    -52.1482E+06    -69.2767E+06     8.88109E+06    -20.1933E+06         62.2120
            1932     8.14735E-03     158.185E-03     533.079E-03    -236.079E-03    -338.377E-03    -235.917E-03     532.917E-03    -338.377E-03     17.8418E-03     439.734E-03    -205.747E-03    -234.818E-03    -231.744E-03     436.659E-03    -205.747E-03     90.8022E-03     15.5313E+06    -28.4887E+06    -71.2946E+06    -46.0618E+06    -53.7216E+06     15.5313E+06    -20.4690E+06         67.0247
            1933     8.94202E-03     158.279E-03     490.048E-03    -200.358E-03    -330.056E-03    -200.214E-03     489.905E-03    -330.056E-03    -3.02075E-03     447.632E-03    -208.173E-03    -240.589E-03    -237.130E-03     444.173E-03    -208.173E-03     97.2825E-03     20.1282E+06    -17.3059E+06    -59.6801E+06    -41.6535E+06    -35.3325E+06     20.1282E+06    -20.8461E+06         73.0519
            1934     9.73231E-03     158.399E-03     463.459E-03    -173.295E-03    -320.968E-03    -173.119E-03     463.283E-03    -320.968E-03    -1.71693E-03     455.530E-03    -210.240E-03    -247.571E-03    -243.780E-03     451.739E-03    -210.240E-03     102.969E-03     20.5360E+06    -9.33984E+06    -54.5170E+06    -37.8596E+06    -25.9972E+06     20.5360E+06    -21.7672E+06         80.4061
            1935     10.5152E-03     158.497E-03     435.428E-03    -157.460E-03    -312.018E-03    -157.170E-03     435.138E-03    -312.018E-03     13.4496E-03     463.006E-03    -212.793E-03    -253.588E-03    -249.637E-03     459.055E-03    -212.793E-03     106.105E-03     23.2356E+06     7.80496E+06    -47.6347E+06    -34.5587E+06    -5.27097E+06     23.2356E+06    -22.5253E+06         89.5717
            1936     11.2966E-03     158.627E-03     397.339E-03    -130.839E-03    -303.207E-03    -130.525E-03     397.024E-03    -303.207E-03     3.32952E-03     469.539E-03    -215.729E-03    -256.508E-03    -252.805E-03     465.836E-03    -215.729E-03     103.327E-03     42.5773E+06     32.4658E+06    -38.0551E+06    -30.9165E+06     32.9716E+06     34.9330E+06    -21.6587E+06         100.350
            1937     12.0739E-03     158.760E-03     356.348E-03    -96.3592E-03    -293.871E-03    -96.0696E-03     356.059E-03    -293.871E-03     6.45411E-03     475.500E-03    -217.953E-03    -257.718E-03    -253.678E-03     471.460E-03    -217.953E-03     108.092E-03     67.8653E+06     54.4533E+06    -29.6483E+06    -25.7050E+06     58.1544E+06     60.2209E+06    -18.2668E+06         111.789
            1938     12.8498E-03     158.927E-03     311.148E-03    -63.6990E-03    -283.973E-03    -63.2389E-03     310.688E-03    -283.973E-03     18.7135E-03     480.330E-03    -219.970E-03    -258.512E-03    -253.955E-03     475.773E-03    -219.970E-03     115.492E-03     105.812E+06     84.1852E+06    -21.5488E+06    -19.6662E+06     82.3025E+06     105.812E+06    -11.9810E+06         122.366
            1939     13.6330E-03     159.110E-03     265.171E-03    -20.9143E-03    -273.318E-03    -20.4499E-03     264.706E-03    -273.318E-03     1.68113E-03     487.348E-03    -222.636E-03    -263.378E-03    -258.696E-03     482.666E-03    -222.636E-03     117.950E-03     180.068E+06     132.661E+06    -12.6952E+06    -12.2410E+06     132.207E+06     180.068E+06    -5.03315E+06         130.632
            1940     829.696E-06     159.116E-03     818.934E-03    -379.527E-03    -485.134E-03    -475.154E-03     817.378E-03    -387.952E-03    -29.1679E-03     370.235E-03    -183.640E-03    -186.569E-03    -186.316E-03     370.030E-03    -183.689E-03     20.9876E-03    -52.5792E+06    -74.6638E+06    -201.855E+06    -52.9181E+06    -201.589E+06    -74.5909E+06    -6.19185E+06         48.4678
            1941     1.66218E-03     159.138E-03     797.090E-03    -404.295E-03    -429.360E-03    -405.238E-03     795.539E-03    -426.865E-03    -46.1594E-03     373.139E-03    -185.245E-03    -187.879E-03    -187.381E-03     372.688E-03    -185.293E-03     30.8180E-03    -71.0265E+06    -108.237E+06    -232.753E+06    -71.3546E+06    -232.425E+06    -108.237E+06    -6.93269E+06         48.6926
            1942     2.49208E-03     159.189E-03     765.712E-03    -386.438E-03    -417.385E-03    -386.131E-03     765.405E-03    -417.385E-03    -14.0353E-03     376.828E-03    -186.414E-03    -190.302E-03    -189.387E-03     375.914E-03    -186.414E-03     45.0169E-03    -76.5513E+06    -95.2095E+06    -180.422E+06    -81.3392E+06    -179.073E+06    -91.7706E+06    -8.90093E+06         49.1719
            1943     3.32090E-03     159.241E-03     743.093E-03    -374.120E-03    -409.019E-03    -373.875E-03     742.849E-03    -409.019E-03    -8.43396E-03     380.512E-03    -187.580E-03    -193.231E-03    -191.829E-03     379.110E-03    -187.580E-03     56.4868E-03    -63.1342E+06    -76.3693E+06    -131.895E+06    -80.2470E+06    -128.017E+06    -63.1342E+06    -13.6482E+06         50.0839
            1944     4.14493E-03     159.302E-03     727.964E-03    -362.557E-03    -401.910E-03    -362.478E-03     727.885E-03    -401.910E-03     1.29994E-03     387.402E-03    -188.761E-03    -199.354E-03    -197.423E-03     385.470E-03    -188.761E-03     66.9512E-03    -46.6308E+06    -69.2559E+06    -132.312E+06    -74.3242E+06    -127.243E+06    -46.6308E+06    -16.9242E+06         51.4954
            1945     4.96217E-03     159.360E-03     715.057E-03    -352.197E-03    -395.685E-03    -351.832E-03     714.693E-03    -395.685E-03     23.9774E-03     397.983E-03    -190.045E-03    -207.659E-03    -205.133E-03     395.458E-03    -190.045E-03     77.7929E-03    -29.0693E+06    -60.9792E+06    -122.545E+06    -67.2356E+06    -116.289E+06    -29.0693E+06    -17.9478E+06         53.3769
            1946     5.77551E-03     159.448E-03     702.864E-03    -344.472E-03    -390.384E-03    -343.761E-03     702.154E-03    -390.384E-03     31.5858E-03     409.086E-03    -192.182E-03    -216.503E-03    -213.421E-03     406.004E-03    -192.182E-03     87.3636E-03    -7.49214E+06    -48.4067E+06    -93.1528E+06    -60.0493E+06    -81.5101E+06    -7.49214E+06    -18.6364E+06         55.6996
            1947     6.58219E-03     159.542E-03     681.119E-03    -329.288E-03    -385.451E-03    -328.735E-03     680.566E-03    -385.451E-03     15.0847E-03     419.750E-03    -195.621E-03    -224.177E-03    -220.682E-03     416.256E-03    -195.621E-03     94.5041E-03     5.73164E+06    -39.3861E+06    -81.4944E+06    -52.9923E+06    -67.8882E+06     5.73164E+06    -19.3965E+06         58.4812
            1948     7.38533E-03     159.632E-03     645.538E-03    -297.101E-03    -379.391E-03    -296.719E-03     645.156E-03    -379.391E-03    -9.71497E-03     430.003E-03    -198.955E-03    -230.848E-03    -227.266E-03     426.421E-03    -198.955E-03     96.9768E-03     11.6617E+06    -35.7090E+06    -78.0940E+06    -46.9807E+06    -66.8223E+06     11.6617E+06    -18.6924E+06         62.1216
            1949     8.17977E-03     159.745E-03     607.181E-03    -265.830E-03    -371.622E-03    -265.539E-03     606.889E-03    -371.622E-03    -12.3460E-03     439.794E-03    -201.945E-03    -238.318E-03    -234.736E-03     436.212E-03    -201.945E-03     98.2234E-03     18.7397E+06    -26.8641E+06    -64.4243E+06    -42.4665E+06    -48.8219E+06     18.7397E+06    -17.5231E+06         67.0835
            1950     8.96863E-03     159.842E-03     575.552E-03    -242.121E-03    -363.024E-03    -241.958E-03     575.389E-03    -363.024E-03    -10.3031E-03     446.961E-03    -204.736E-03    -243.685E-03    -239.992E-03     443.267E-03    -204.736E-03     100.695E-03     24.2085E+06    -15.5145E+06    -52.3422E+06    -38.6095E+06    -29.2472E+06     24.2085E+06    -17.5994E+06         73.2162
            1951     9.75962E-03     159.958E-03     537.108E-03    -203.251E-03    -353.644E-03    -203.143E-03     537.000E-03    -353.644E-03    -5.58019E-03     453.595E-03    -207.393E-03    -248.765E-03    -244.759E-03     449.588E-03    -207.393E-03     105.732E-03     24.5503E+06    -8.46166E+06    -47.5704E+06    -35.4575E+06    -20.5746E+06     24.5503E+06    -17.9203E+06         80.8528
            1952     10.5455E-03     160.084E-03     489.559E-03    -168.005E-03    -343.169E-03    -167.903E-03     489.457E-03    -343.169E-03     6.62238E-03     463.948E-03    -210.499E-03    -256.744E-03    -252.580E-03     459.785E-03    -210.499E-03     109.175E-03     26.9926E+06     10.7459E+06    -42.2172E+06    -32.9499E+06     1.72035E+06     26.7509E+06    -18.9938E+06         90.7463
            1953     11.3181E-03     160.232E-03     439.737E-03    -131.565E-03    -331.774E-03    -131.464E-03     439.636E-03    -331.774E-03     4.42737E-03     475.055E-03    -213.879E-03    -263.395E-03    -259.431E-03     471.091E-03    -213.879E-03     107.792E-03     41.9595E+06     35.5910E+06    -35.4657E+06    -29.7521E+06     35.0470E+06     36.7899E+06    -19.4958E+06         102.495
            1954     12.0925E-03     160.355E-03     393.070E-03    -94.6177E-03    -319.488E-03    -94.0204E-03     392.473E-03    -319.488E-03     23.9443E-03     483.447E-03    -216.624E-03    -266.048E-03    -261.563E-03     478.961E-03    -216.624E-03     115.234E-03     62.3816E+06     49.0238E+06    -30.1574E+06    -26.6059E+06     50.4000E+06     57.4538E+06    -16.5761E+06         114.828
            1955     12.8701E-03     160.534E-03     350.714E-03    -70.6526E-03    -306.906E-03    -69.8058E-03     349.868E-03    -306.906E-03     30.4360E-03     489.487E-03    -219.186E-03    -267.988E-03    -262.985E-03     484.483E-03    -219.186E-03     122.679E-03     101.060E+06     72.7997E+06    -23.1006E+06    -21.3023E+06     71.0014E+06     101.060E+06    -11.0939E+06         126.087
            1956     13.6388E-03     160.706E-03     301.722E-03    -28.3122E-03    -294.004E-03    -28.0144E-03     301.424E-03    -294.004E-03     11.0102E-03     496.450E-03    -222.328E-03    -273.196E-03    -267.880E-03     491.134E-03    -222.328E-03     127.415E-03     174.774E+06     121.543E+06    -12.3648E+06    -11.8534E+06     121.032E+06     174.774E+06    -5.20483E+06         134.831
            1957     839.086E-06     160.556E-03     826.134E-03    -374.954E-03    -490.786E-03    -490.746E-03     826.095E-03    -374.954E-03     2.91453E-03     361.318E-03    -179.181E-03    -182.031E-03    -181.603E-03     361.090E-03    -179.381E-03     20.1330E-03    -32.8482E+06    -57.6260E+06    -183.462E+06    -33.1630E+06    -183.148E+06    -57.6260E+06    -6.83424E+06         47.7716
            1958     1.66981E-03     160.587E-03     833.225E-03    -426.684E-03    -443.758E-03    -437.121E-03     833.092E-03    -433.187E-03     1.69664E-03     365.674E-03    -181.062E-03    -184.496E-03    -183.954E-03     365.133E-03    -181.062E-03     34.0138E-03    -55.3040E+06    -98.8985E+06    -225.202E+06    -55.7959E+06    -224.710E+06    -98.8985E+06    -9.06833E+06         48.0276
            1959     2.50016E-03     160.632E-03     823.045E-03    -412.061E-03    -446.652E-03    -425.819E-03     822.796E-03    -432.644E-03     12.4017E-03     368.064E-03    -182.223E-03    -185.965E-03    -184.977E-03     367.076E-03    -182.223E-03     46.2161E-03    -66.2993E+06    -87.0663E+06    -169.550E+06    -68.4655E+06    -168.200E+06    -86.2503E+06    -9.63760E+06         48.5994
            1960     3.33328E-03     160.689E-03     812.211E-03    -404.338E-03    -437.807E-03    -412.456E-03     812.067E-03    -429.545E-03     17.9659E-03     369.837E-03    -182.923E-03    -187.881E-03    -186.439E-03     368.395E-03    -182.923E-03     56.4875E-03    -56.3129E+06    -65.9122E+06    -117.002E+06    -69.7660E+06    -113.148E+06    -56.3129E+06    -12.9074E+06         49.6242
            1961     4.16559E-03     160.765E-03     805.274E-03    -403.576E-03    -428.999E-03    -406.198E-03     805.126E-03    -426.229E-03    -4.60842E-03     377.377E-03    -183.811E-03    -194.792E-03    -192.766E-03     375.351E-03    -183.811E-03     67.6895E-03    -42.1421E+06    -61.1958E+06    -122.798E+06    -66.3087E+06    -117.685E+06    -42.1421E+06    -16.6668E+06         51.1241
            1962     4.99039E-03     160.841E-03     786.745E-03    -389.678E-03    -425.878E-03    -392.234E-03     786.530E-03    -423.108E-03    -13.3109E-03     391.517E-03    -185.312E-03    -205.499E-03    -202.794E-03     388.812E-03    -185.312E-03     80.1105E-03    -28.3958E+06    -56.3037E+06    -116.597E+06    -62.2004E+06    -110.700E+06    -28.3958E+06    -17.2635E+06         53.0656
            1963     5.80333E-03     160.940E-03     753.986E-03    -360.617E-03    -418.353E-03    -360.424E-03     753.793E-03    -418.353E-03    -25.0211E-03     403.742E-03    -187.940E-03    -214.594E-03    -211.361E-03     400.510E-03    -187.940E-03     89.0912E-03    -6.56374E+06    -46.4544E+06    -85.7983E+06    -57.2259E+06    -75.0267E+06    -6.56374E+06    -16.3342E+06         55.4253
            1964     6.61118E-03     161.053E-03     712.429E-03    -327.991E-03    -411.007E-03    -327.763E-03     712.201E-03    -411.007E-03    -29.7633E-03     412.774E-03    -191.850E-03    -221.196E-03    -217.543E-03     409.121E-03    -191.850E-03     95.9238E-03     6.57925E+06    -41.2346E+06    -75.4778E+06    -52.9699E+06    -63.7425E+06     6.57925E+06    -15.8237E+06         58.2768
            1965     7.41421E-03     161.173E-03     679.134E-03    -301.796E-03    -401.949E-03    -301.448E-03     678.786E-03    -401.949E-03    -22.6802E-03     424.404E-03    -195.379E-03    -229.567E-03    -225.537E-03     420.374E-03    -195.379E-03     102.273E-03     11.3217E+06    -40.7383E+06    -74.4778E+06    -49.6268E+06    -65.5893E+06     11.3217E+06    -14.8248E+06         62.0688
            1966     8.21121E-03     161.288E-03     655.788E-03    -282.297E-03    -392.361E-03    -281.965E-03     655.456E-03    -392.361E-03    -7.89292E-03     437.093E-03    -198.187E-03    -239.556E-03    -235.278E-03     432.816E-03    -198.187E-03     107.136E-03     18.7271E+06    -29.3729E+06    -61.4226E+06    -45.8663E+06    -44.9292E+06     18.7271E+06    -13.9917E+06         67.2186
            1967     8.99932E-03     161.403E-03     620.669E-03    -257.759E-03    -382.543E-03    -257.549E-03     620.459E-03    -382.543E-03    -3.76854E-03     448.046E-03    -201.254E-03    -248.265E-03    -243.957E-03     443.739E-03    -201.254E-03     109.043E-03     24.7305E+06    -15.4546E+06    -50.2036E+06    -41.8222E+06    -23.8359E+06     24.7305E+06    -14.4721E+06         73.5484
            1968     9.78289E-03     161.525E-03     571.476E-03    -214.123E-03    -371.615E-03    -213.988E-03     571.340E-03    -371.615E-03    -769.659E-06     457.185E-03    -204.789E-03    -255.131E-03    -250.570E-03     452.625E-03    -204.789E-03     113.474E-03     24.8799E+06    -8.23077E+06    -45.9411E+06    -37.9703E+06    -16.2016E+06     24.8799E+06    -15.2751E+06         81.4750
            1969     10.5646E-03     161.687E-03     518.944E-03    -169.349E-03    -359.053E-03    -169.233E-03     518.828E-03    -359.053E-03     15.0081E-03     464.924E-03    -208.356E-03    -259.739E-03    -255.250E-03     460.435E-03    -208.356E-03     113.590E-03     30.6949E+06     13.8334E+06    -40.5298E+06    -34.3680E+06     10.0069E+06     28.3596E+06    -16.4634E+06         91.8768
            1970     11.3472E-03     161.832E-03     469.428E-03    -135.774E-03    -345.531E-03    -135.555E-03     469.208E-03    -345.531E-03     2.18120E-03     477.117E-03    -211.997E-03    -266.469E-03    -262.404E-03     473.052E-03    -211.997E-03     109.573E-03     41.7972E+06     37.1136E+06    -35.3656E+06    -31.1599E+06     37.5915E+06     37.1136E+06    -17.4493E+06         104.302
            1971     12.1167E-03     161.977E-03     418.358E-03    -103.039E-03    -331.708E-03    -102.520E-03     417.839E-03    -331.708E-03     7.38869E-03     489.531E-03    -215.342E-03    -273.354E-03    -269.237E-03     485.414E-03    -215.342E-03     111.530E-03     57.4556E+06     44.0235E+06    -29.8631E+06    -26.5021E+06     43.0108E+06     55.1073E+06    -15.2621E+06         117.295
            1972     12.8811E-03     162.144E-03     360.117E-03    -60.4963E-03    -317.401E-03    -59.6388E-03     359.259E-03    -317.401E-03     2.35135E-03     497.743E-03    -218.559E-03    -277.974E-03    -273.447E-03     493.216E-03    -218.559E-03     117.948E-03     97.8533E+06     64.0231E+06    -21.3557E+06    -19.5830E+06     62.2503E+06     97.8533E+06    -10.5922E+06         129.090
            1973     13.6454E-03     162.353E-03     305.694E-03    -16.7146E-03    -302.219E-03    -16.1629E-03     305.143E-03    -302.219E-03    -6.89432E-03     502.409E-03    -222.092E-03    -280.140E-03    -275.197E-03     497.465E-03    -222.092E-03     123.856E-03     169.437E+06     110.619E+06    -12.2682E+06    -11.6805E+06     110.031E+06     169.437E+06    -5.91922E+06         138.202
            1974     836.857E-06     161.978E-03     819.116E-03    -359.876E-03    -483.363E-03    -480.837E-03     818.938E-03    -362.223E-03    -4.56313E-03     357.270E-03    -177.418E-03    -179.801E-03    -178.576E-03     357.116E-03    -178.489E-03     13.4455E-03    -21.7469E+06    -49.8428E+06    -165.646E+06    -22.0689E+06    -165.324E+06    -49.8428E+06    -6.44797E+06         47.3278
            1975     1.67705E-03     162.020E-03     834.772E-03    -422.116E-03    -437.607E-03    -435.061E-03     834.573E-03    -424.463E-03    -12.8281E-03     357.924E-03    -177.504E-03    -180.420E-03    -179.095E-03     357.469E-03    -178.374E-03     30.5051E-03    -47.5343E+06    -94.7563E+06    -215.081E+06    -48.0104E+06    -214.604E+06    -94.7563E+06    -8.42743E+06         47.6058
            1976     2.51370E-03     162.066E-03     865.754E-03    -432.261E-03    -461.381E-03    -461.236E-03     865.609E-03    -432.261E-03     1.19912E-03     361.597E-03    -178.927E-03    -182.410E-03    -181.550E-03     360.737E-03    -178.927E-03     42.3674E-03    -62.6650E+06    -83.2668E+06    -160.594E+06    -64.4223E+06    -158.903E+06    -83.2007E+06    -10.3082E+06         48.2469
            1977     3.34660E-03     162.128E-03     874.971E-03    -436.117E-03    -461.098E-03    -457.341E-03     874.843E-03    -439.746E-03    -4.25642E-03     365.112E-03    -179.998E-03    -185.846E-03    -184.533E-03     363.799E-03    -179.998E-03     53.3351E-03    -55.4413E+06    -64.5060E+06    -105.909E+06    -67.7088E+06    -102.504E+06    -55.6434E+06    -11.2118E+06         49.3421
            1978     4.17568E-03     162.206E-03     856.180E-03    -429.402E-03    -447.687E-03    -435.045E-03     856.007E-03    -441.872E-03    -12.3242E-03     372.402E-03    -181.075E-03    -192.949E-03    -190.975E-03     370.428E-03    -181.075E-03     66.2678E-03    -44.2543E+06    -64.8772E+06    -114.439E+06    -67.9397E+06    -111.377E+06    -44.2543E+06    -11.1741E+06         50.8832
            1979     5.00034E-03     162.312E-03     823.541E-03    -404.607E-03    -441.748E-03    -407.022E-03     823.186E-03    -438.978E-03    -163.144E-06     386.035E-03    -182.546E-03    -202.783E-03    -200.069E-03     383.321E-03    -182.546E-03     79.6607E-03    -31.1812E+06    -64.2351E+06    -109.432E+06    -67.7870E+06    -105.880E+06    -31.1812E+06    -10.8288E+06         52.8453
            1980     5.81700E-03     162.429E-03     775.677E-03    -361.525E-03    -431.370E-03    -361.059E-03     775.211E-03    -431.370E-03     6.44107E-03     397.458E-03    -185.187E-03    -210.573E-03    -207.467E-03     394.352E-03    -185.187E-03     86.6553E-03    -10.0487E+06    -54.2708E+06    -82.6468E+06    -66.6423E+06    -70.2752E+06    -10.0487E+06    -10.9726E+06         55.2144
            1981     6.62972E-03     162.536E-03     731.655E-03    -328.958E-03    -420.511E-03    -328.565E-03     731.263E-03    -420.511E-03     7.08626E-03     406.605E-03    -189.126E-03    -217.459E-03    -213.869E-03     403.015E-03    -189.126E-03     94.2960E-03     2.62824E+06    -49.1507E+06    -74.9657E+06    -63.2352E+06    -60.8812E+06     2.62824E+06    -10.9912E+06         58.1106
            1982     7.43903E-03     162.674E-03     700.418E-03    -307.069E-03    -409.061E-03    -306.775E-03     700.124E-03    -409.061E-03     21.0289E-03     418.168E-03    -192.680E-03    -226.894E-03    -222.664E-03     413.937E-03    -192.680E-03     104.102E-03     7.99733E+06    -48.4031E+06    -72.4912E+06    -58.5147E+06    -62.3796E+06     7.99733E+06    -11.2316E+06         62.0300
            1983     8.23869E-03     162.812E-03     662.799E-03    -275.365E-03    -397.275E-03    -275.161E-03     662.595E-03    -397.275E-03     25.4596E-03     431.399E-03    -195.137E-03    -237.037E-03    -232.547E-03     426.909E-03    -195.137E-03     109.173E-03     16.0128E+06    -31.4401E+06    -62.2603E+06    -53.2890E+06    -40.4114E+06     16.0128E+06    -11.9483E+06         67.3619
            1984     9.03350E-03     162.948E-03     617.892E-03    -245.958E-03    -384.705E-03    -245.776E-03     617.710E-03    -384.705E-03     23.0819E-03     446.559E-03    -198.041E-03    -249.030E-03    -244.354E-03     441.883E-03    -198.041E-03     113.657E-03     22.9601E+06    -13.2879E+06    -52.3599E+06    -47.1493E+06    -18.4984E+06     22.9601E+06    -13.1782E+06         73.8947
            1985     9.81249E-03     163.106E-03     577.942E-03    -217.523E-03    -371.676E-03    -217.349E-03     577.769E-03    -371.676E-03     20.5921E-03     459.736E-03    -202.133E-03    -260.124E-03    -255.058E-03     454.670E-03    -202.133E-03     120.337E-03     23.6707E+06    -3.39782E+06    -47.8468E+06    -41.4949E+06     -9.7497E+06     23.6707E+06    -15.4616E+06         82.0698
            1986     10.5861E-03     163.262E-03     535.810E-03    -182.525E-03    -358.203E-03    -182.409E-03     535.695E-03    -358.203E-03     16.4309E-03     470.344E-03    -206.217E-03    -266.573E-03    -261.640E-03     465.410E-03    -206.217E-03     120.022E-03     33.5396E+06     16.8541E+06    -41.4050E+06    -35.5588E+06     17.0361E+06     27.5115E+06    -17.7728E+06         92.8277
            1987     11.3567E-03     163.419E-03     486.200E-03    -155.299E-03    -344.438E-03    -155.111E-03     486.012E-03    -344.438E-03    -328.256E-06     483.134E-03    -210.135E-03    -273.317E-03    -268.844E-03     478.661E-03    -210.135E-03     115.712E-03     43.2421E+06     35.6385E+06    -33.5388E+06    -29.1682E+06     38.1727E+06     36.3374E+06    -17.6195E+06         105.712
            1988     12.1242E-03     163.612E-03     428.844E-03    -115.027E-03    -330.235E-03    -114.869E-03     428.686E-03    -330.235E-03    -3.81831E-03     496.351E-03    -214.165E-03    -281.368E-03    -277.086E-03     492.068E-03    -214.165E-03     114.797E-03     54.7090E+06     38.9941E+06    -27.4055E+06    -23.8575E+06     36.3227E+06     53.8324E+06    -14.8834E+06         119.196
            1989     12.8841E-03     163.790E-03     366.886E-03    -61.4027E-03    -314.788E-03    -60.8847E-03     366.368E-03    -314.788E-03    -9.77000E-03     505.681E-03    -218.166E-03    -287.163E-03    -282.485E-03     501.003E-03    -218.166E-03     121.161E-03     95.0018E+06     54.7073E+06    -20.5922E+06    -18.5478E+06     52.6629E+06     95.0018E+06    -10.6999E+06         131.471
            1990     13.6393E-03     164.004E-03     311.913E-03    -22.1686E-03    -298.288E-03    -21.1914E-03     310.936E-03    -298.288E-03    -192.456E-06     506.348E-03    -221.990E-03    -284.885E-03    -280.038E-03     501.500E-03    -221.990E-03     123.393E-03     166.525E+06     100.166E+06    -9.96306E+06    -9.22085E+06     99.4240E+06     166.525E+06    -5.10373E+06         140.946
            1991     833.186E-06     163.405E-03     886.644E-03    -378.085E-03    -519.921E-03    -517.399E-03     886.469E-03    -380.432E-03    -7.13122E-03     358.216E-03    -177.676E-03    -180.556E-03    -179.579E-03     358.109E-03    -178.546E-03     10.6858E-03    -23.3348E+06    -51.2944E+06    -154.674E+06    -25.8257E+06    -154.498E+06    -48.9797E+06    -2.11301E+06         47.2132
            1992     1.67304E-03     163.435E-03     889.687E-03    -435.716E-03    -461.942E-03    -447.705E-03     889.169E-03    -449.434E-03    -39.9152E-03     357.070E-03    -177.586E-03    -179.523E-03    -178.255E-03     356.750E-03    -178.534E-03     25.7844E-03    -54.6967E+06    -98.3387E+06    -207.165E+06    -54.9867E+06    -206.875E+06    -98.3387E+06    -2.66031E+06         47.4963
            1993     2.51174E-03     163.497E-03     871.412E-03    -417.671E-03    -462.589E-03    -432.083E-03     870.712E-03    -447.477E-03    -15.0867E-03     358.957E-03    -178.429E-03    -180.415E-03    -179.780E-03     358.400E-03    -178.506E-03     34.3408E-03    -70.3377E+06    -92.6228E+06    -153.641E+06    -75.3521E+06    -152.619E+06    -88.6309E+06    -3.35279E+06         48.1700
            1994     3.34736E-03     163.559E-03     854.291E-03    -412.646E-03    -455.913E-03    -425.145E-03     853.700E-03    -442.822E-03     22.9732E-03     364.042E-03    -179.360E-03    -184.886E-03    -183.948E-03     363.103E-03    -179.360E-03     44.7857E-03    -64.0226E+06    -81.0810E+06    -102.466E+06    -83.2701E+06    -100.075E+06    -64.2247E+06    -2.70166E+06         49.2863
            1995     4.17933E-03     163.645E-03     831.770E-03    -406.478E-03    -439.806E-03    -408.919E-03     831.165E-03    -436.760E-03     35.4672E-03     371.995E-03    -180.795E-03    -192.282E-03    -190.584E-03     370.297E-03    -180.795E-03     60.9781E-03    -52.4724E+06    -83.5314E+06    -109.722E+06    -85.4308E+06    -107.823E+06    -52.4724E+06    -2.15373E+06         50.8215
            1996     5.00336E-03     163.752E-03     794.838E-03    -381.286E-03    -428.152E-03    -380.791E-03     794.343E-03    -428.152E-03     41.9406E-03     381.691E-03    -182.470E-03    -198.791E-03    -196.271E-03     379.170E-03    -182.470E-03     76.0487E-03    -37.8266E+06    -80.7672E+06    -105.421E+06    -85.2288E+06    -100.959E+06    -37.8266E+06    -3.45759E+06         52.7658
            1997     5.82605E-03     163.889E-03     767.353E-03    -358.162E-03    -417.775E-03    -357.846E-03     767.037E-03    -417.775E-03     32.3951E-03     390.809E-03    -184.581E-03    -204.837E-03    -201.800E-03     387.772E-03    -184.581E-03     84.7560E-03    -15.6406E+06    -61.7793E+06    -85.5106E+06    -81.5928E+06    -65.6971E+06    -15.6406E+06    -4.73904E+06         55.1116
            1998     6.64268E-03     164.022E-03     743.767E-03    -345.308E-03    -407.497E-03    -344.993E-03     743.453E-03    -407.497E-03     34.1648E-03     401.875E-03    -187.571E-03    -214.325E-03    -210.741E-03     398.291E-03    -187.571E-03     93.6414E-03    -2.56137E+06    -51.5189E+06    -79.3826E+06    -75.7813E+06    -55.1201E+06    -2.56137E+06    -6.82776E+06         58.0073
            1999     7.44991E-03     164.183E-03     702.875E-03    -313.739E-03    -396.941E-03    -313.325E-03     702.461E-03    -396.941E-03     40.3023E-03     414.356E-03    -190.795E-03    -224.858E-03    -220.716E-03     410.213E-03    -190.795E-03     102.563E-03     3.09094E+06    -48.9186E+06    -75.5613E+06    -69.1355E+06    -55.3444E+06     3.09094E+06    -10.5000E+06         61.9732
            2000     8.25379E-03     164.322E-03     650.778E-03    -268.311E-03    -384.557E-03    -268.043E-03     650.510E-03    -384.557E-03     22.7656E-03     427.661E-03    -193.319E-03    -234.710E-03    -230.327E-03     423.278E-03    -193.319E-03     107.394E-03     11.8074E+06    -27.5281E+06    -67.0320E+06    -60.6870E+06    -33.8731E+06     11.8074E+06    -14.0477E+06         67.3714
            2001     9.04582E-03     164.498E-03     605.268E-03    -239.548E-03    -370.928E-03    -239.385E-03     605.105E-03    -370.928E-03     16.0525E-03     442.920E-03    -196.121E-03    -246.669E-03    -241.978E-03     438.229E-03    -196.121E-03     113.328E-03     18.8612E+06    -7.86520E+06    -58.0051E+06    -52.0784E+06    -13.7919E+06     18.8612E+06    -16.1661E+06         74.0138
            2002     9.83427E-03     164.674E-03     564.001E-03    -212.407E-03    -357.134E-03    -212.116E-03     563.711E-03    -357.134E-03     13.0617E-03     457.884E-03    -200.290E-03    -259.390E-03    -254.451E-03     452.944E-03    -200.290E-03     118.550E-03     21.9050E+06     5.99269E+06    -50.9432E+06    -43.9247E+06    -878.106E+03     21.7573E+06    -18.7220E+06         82.4022
            2003     10.6108E-03     164.855E-03     518.567E-03    -177.978E-03    -342.957E-03    -177.748E-03     518.337E-03    -342.957E-03     8.38057E-03     473.406E-03    -204.784E-03    -270.583E-03    -265.855E-03     468.678E-03    -204.784E-03     117.997E-03     34.3901E+06     21.6668E+06    -43.4397E+06    -36.4916E+06     23.5131E+06     25.5957E+06    -21.3100E+06         93.4704
            2004     11.3758E-03     165.046E-03     467.375E-03    -146.873E-03    -328.178E-03    -146.689E-03     467.192E-03    -328.178E-03     2.06692E-03     488.832E-03    -208.833E-03    -279.532E-03    -275.071E-03     484.372E-03    -208.833E-03     116.404E-03     40.7289E+06     30.8565E+06    -37.1266E+06    -31.3278E+06     34.2312E+06     31.5554E+06    -20.3127E+06         106.717
            2005     12.1382E-03     165.234E-03     416.119E-03    -109.378E-03    -312.638E-03    -109.007E-03     415.749E-03    -312.638E-03     5.37334E-03     501.137E-03    -213.245E-03    -286.275E-03    -281.870E-03     496.732E-03    -213.245E-03     117.208E-03     49.3106E+06     33.9678E+06    -30.8765E+06    -26.2270E+06     29.8451E+06     48.7839E+06    -16.4816E+06         120.619
            2006     12.8944E-03     165.464E-03     373.377E-03    -75.9914E-03    -296.463E-03    -75.5250E-03     372.910E-03    -296.463E-03     2.10461E-03     507.502E-03    -217.834E-03    -289.719E-03    -285.029E-03     502.812E-03    -217.834E-03     121.731E-03     89.8937E+06     45.7962E+06    -22.0005E+06    -19.4202E+06     43.2159E+06     89.8937E+06    -11.8604E+06         133.425
            2007     13.6507E-03     165.663E-03     327.400E-03    -46.8763E-03    -280.284E-03    -46.2334E-03     326.757E-03    -280.284E-03     1.99340E-03     509.568E-03    -221.788E-03    -288.581E-03    -283.759E-03     504.745E-03    -221.788E-03     123.578E-03     163.326E+06     87.6037E+06    -12.1894E+06    -11.2617E+06     86.6761E+06     163.326E+06    -6.26109E+06         143.286
            2008     840.461E-06     164.840E-03     931.634E-03    -380.461E-03    -565.457E-03    -546.871E-03     931.065E-03    -398.478E-03    -28.4423E-03     360.135E-03    -178.452E-03    -181.775E-03    -181.683E-03     360.043E-03    -178.452E-03     12.2057E-03    -61.3606E+06    -84.4622E+06    -165.495E+06    -65.2049E+06    -163.965E+06    -82.1475E+06     8.54152E+06         47.5513
            2009     1.66920E-03     164.857E-03     884.556E-03    -422.372E-03    -471.261E-03    -429.462E-03     884.205E-03    -463.820E-03    -15.0911E-03     363.979E-03    -180.386E-03    -183.563E-03    -183.243E-03     363.736E-03    -180.464E-03     22.2948E-03    -88.5656E+06    -120.076E+06    -206.380E+06    -89.6689E+06    -205.277E+06    -120.076E+06     8.16316E+06         47.8253
            2010     2.50355E-03     164.919E-03     833.200E-03    -391.771E-03    -445.274E-03    -391.129E-03     832.559E-03    -445.274E-03    -215.150E-06     364.457E-03    -181.368E-03    -183.510E-03    -183.027E-03     364.051E-03    -181.446E-03     29.5000E-03    -94.6684E+06    -112.446E+06    -159.775E+06    -104.430E+06    -155.126E+06    -107.333E+06     7.46996E+06         48.4581
            2011     3.33765E-03     164.985E-03     783.100E-03    -361.955E-03    -426.672E-03    -361.412E-03     782.557E-03    -426.672E-03     32.5895E-03     368.494E-03    -182.202E-03    -186.887E-03    -186.228E-03     367.834E-03    -182.202E-03     37.7512E-03    -78.6017E+06    -95.2738E+06    -117.187E+06    -108.875E+06    -103.586E+06    -78.6017E+06     9.06884E+06         49.5175
            2012     4.16593E-03     165.089E-03     758.357E-03    -353.269E-03    -410.790E-03    -352.728E-03     757.815E-03    -410.790E-03     32.0359E-03     374.468E-03    -183.323E-03    -191.594E-03    -190.419E-03     373.293E-03    -183.323E-03     50.7183E-03    -62.6212E+06    -94.9363E+06    -117.833E+06    -109.029E+06    -103.740E+06    -62.6212E+06     8.40861E+06         50.9930
            2013     4.99342E-03     165.205E-03     752.833E-03    -359.347E-03    -399.188E-03    -359.020E-03     752.506E-03    -399.188E-03     26.5879E-03     379.025E-03    -184.832E-03    -193.891E-03    -192.161E-03     377.295E-03    -184.832E-03     62.2250E-03    -46.0738E+06    -86.7027E+06    -111.840E+06    -105.869E+06    -92.6735E+06    -46.0738E+06     3.13109E+06         52.8737
            2014     5.82134E-03     165.342E-03     737.575E-03    -349.778E-03    -390.076E-03    -349.636E-03     737.433E-03    -390.076E-03     21.5105E-03     385.254E-03    -186.347E-03    -198.617E-03    -196.281E-03     382.918E-03    -186.347E-03     73.0227E-03    -24.3981E+06    -58.3149E+06    -99.0958E+06    -98.5035E+06    -58.9072E+06    -24.3981E+06    -3.53720E+06         55.1522
            2015     6.64206E-03     165.512E-03     703.629E-03    -327.073E-03    -380.575E-03    -326.902E-03     703.458E-03    -380.575E-03     17.9863E-03     396.838E-03    -187.881E-03    -209.343E-03    -206.357E-03     393.852E-03    -187.881E-03     84.5024E-03    -9.31483E+06    -42.8715E+06    -89.5087E+06    -86.8740E+06    -45.5062E+06    -9.31483E+06    -9.45917E+06         57.9825
            2016     7.45373E-03     165.669E-03     664.705E-03    -297.946E-03    -369.681E-03    -297.678E-03     664.437E-03    -369.681E-03     23.9791E-03     411.006E-03    -190.165E-03    -220.941E-03    -217.427E-03     407.492E-03    -190.165E-03     93.6698E-03    -584.962E+03    -36.1203E+06    -80.5177E+06    -73.5069E+06    -43.1311E+06    -584.962E+03    -15.8788E+06         61.8822
            2017     8.25509E-03     165.854E-03     629.666E-03    -269.290E-03    -357.571E-03    -269.046E-03     629.422E-03    -357.571E-03     12.4033E-03     424.910E-03    -192.897E-03    -231.458E-03    -227.470E-03     420.921E-03    -192.897E-03     101.838E-03     8.69968E+06    -16.6184E+06    -70.7605E+06    -61.1565E+06    -26.2224E+06     8.69968E+06    -20.5014E+06         67.2125
            2018     9.05301E-03     166.041E-03     583.319E-03    -236.040E-03    -344.340E-03    -235.871E-03     583.149E-03    -344.340E-03     7.14945E-03     440.890E-03    -195.935E-03    -244.309E-03    -239.839E-03     436.421E-03    -195.935E-03     110.227E-03     16.3001E+06     1.23108E+06    -59.9916E+06    -49.6031E+06    -9.15738E+06     16.3001E+06    -22.7222E+06         73.8531
            2019     9.83652E-03     166.253E-03     528.769E-03    -197.899E-03    -329.770E-03    -197.422E-03     528.292E-03    -329.770E-03     18.7483E-03     457.351E-03    -200.085E-03    -258.034E-03    -253.432E-03     452.750E-03    -200.085E-03     114.313E-03     20.5363E+06     14.5571E+06    -49.6776E+06    -39.3586E+06     4.38576E+06     20.3887E+06    -23.3592E+06         82.3493
            2020     10.6098E-03     166.470E-03     474.754E-03    -157.573E-03    -313.988E-03    -157.171E-03     474.353E-03    -313.988E-03     11.9972E-03     473.193E-03    -204.701E-03    -270.773E-03    -266.491E-03     468.912E-03    -204.701E-03     112.490E-03     33.9550E+06     24.2120E+06    -40.9526E+06    -33.4993E+06     26.4438E+06     24.2698E+06    -21.8307E+06         93.6276
            2021     11.3764E-03     166.671E-03     426.884E-03    -123.668E-03    -297.603E-03    -123.509E-03     426.725E-03    -297.603E-03     3.04461E-03     489.579E-03    -208.692E-03    -280.993E-03    -277.091E-03     485.676E-03    -208.692E-03     109.329E-03     40.1698E+06     27.5369E+06    -36.1693E+06    -30.0034E+06     31.4352E+06     30.1056E+06    -20.1377E+06         107.176
            2022     12.1327E-03     166.880E-03     390.114E-03    -100.959E-03    -281.328E-03    -100.582E-03     389.737E-03    -281.328E-03     3.93096E-03     500.526E-03    -213.155E-03    -285.740E-03    -281.821E-03     496.608E-03    -213.155E-03     110.694E-03     47.4172E+06     30.4195E+06    -31.3126E+06    -25.3122E+06     24.9457E+06     46.8905E+06    -18.2611E+06         121.501
            2023     12.8904E-03     167.108E-03     350.324E-03    -77.6297E-03    -265.381E-03    -77.1989E-03     349.894E-03    -265.381E-03    -217.179E-06     503.996E-03    -217.844E-03    -285.754E-03    -281.479E-03     499.722E-03    -217.844E-03     115.857E-03     85.5421E+06     37.4301E+06    -22.9913E+06    -18.9549E+06     33.3937E+06     85.5421E+06    -13.9208E+06         134.883
            2024     13.6532E-03     167.308E-03     304.460E-03    -48.6767E-03    -249.515E-03    -48.5053E-03     304.289E-03    -249.515E-03    -7.33079E-03     510.247E-03    -221.640E-03    -288.235E-03    -283.462E-03     505.473E-03    -221.640E-03     122.979E-03     159.900E+06     73.6313E+06    -11.4853E+06    -9.74463E+06     71.8906E+06     159.900E+06    -6.73175E+06         145.223
            2025     833.858E-06     166.275E-03     849.414E-03    -341.590E-03    -517.525E-03    -498.064E-03     847.971E-03    -359.607E-03    -68.2393E-03     370.879E-03    -183.829E-03    -187.073E-03    -186.650E-03     370.836E-03    -184.209E-03     8.52161E-03    -143.942E+06    -173.838E+06    -213.220E+06    -165.413E+06    -185.120E+06    -180.466E+06     6.54366E+06         48.4605
            2026     1.66481E-03     166.311E-03     803.341E-03    -388.475E-03    -419.075E-03    -388.377E-03     803.096E-03    -418.928E-03    -17.4732E-03     374.657E-03    -185.846E-03    -188.877E-03    -188.401E-03     374.561E-03    -186.226E-03     12.6239E-03    -156.385E+06    -181.093E+06    -224.239E+06    -168.973E+06    -203.616E+06    -189.128E+06     3.55253E+06         48.6789
            2027     2.49095E-03     166.358E-03     778.529E-03    -374.018E-03    -403.967E-03    -373.769E-03     778.280E-03    -403.967E-03    -20.5228E-03     376.862E-03    -187.526E-03    -190.159E-03    -189.963E-03     376.666E-03    -187.526E-03     19.5331E-03    -133.398E+06    -158.595E+06    -188.590E+06    -163.875E+06    -157.828E+06    -158.880E+06    -705.095E+03         49.1897
            2028     3.31768E-03     166.441E-03     745.918E-03    -347.669E-03    -390.968E-03    -347.564E-03     745.813E-03    -390.968E-03    -5.13816E-03     379.103E-03    -188.356E-03    -191.694E-03    -191.328E-03     378.737E-03    -188.356E-03     27.4513E-03    -102.602E+06    -123.178E+06    -154.868E+06    -148.655E+06    -113.984E+06    -118.008E+06     1.19066E+06         50.1119
            2029     4.14250E-03     166.548E-03     714.707E-03    -329.305E-03    -377.985E-03    -328.861E-03     714.263E-03    -377.985E-03     22.7167E-03     380.818E-03    -189.016E-03    -192.458E-03    -191.710E-03     380.177E-03    -189.123E-03     37.0166E-03    -81.2764E+06    -101.706E+06    -133.377E+06    -128.438E+06    -102.026E+06    -85.8954E+06     2.54751E+06         51.4617
            2030     4.96938E-03     166.668E-03     690.873E-03    -322.013E-03    -366.414E-03    -321.588E-03     690.448E-03    -366.414E-03     23.0824E-03     383.255E-03    -189.947E-03    -193.350E-03    -192.321E-03     382.332E-03    -190.054E-03     44.9889E-03    -56.9559E+06    -78.5543E+06    -112.462E+06    -108.725E+06    -82.2905E+06    -56.9559E+06    -1.82569E+06         53.2190
            2031     5.79325E-03     166.813E-03     663.705E-03    -306.889E-03    -355.482E-03    -306.674E-03     663.490E-03    -355.482E-03     22.0818E-03     387.772E-03    -190.863E-03    -196.869E-03    -195.544E-03     386.446E-03    -190.863E-03     54.3186E-03    -28.8392E+06    -46.9655E+06    -93.4585E+06    -91.2055E+06    -49.2185E+06    -28.8392E+06    -7.89207E+06         55.3720
            2032     6.61580E-03     166.973E-03     635.793E-03    -291.783E-03    -344.044E-03    -291.581E-03     635.590E-03    -344.044E-03     17.9784E-03     395.821E-03    -191.905E-03    -203.937E-03    -202.052E-03     393.936E-03    -191.905E-03     66.1956E-03    -10.4074E+06    -29.3841E+06    -81.8478E+06    -77.8307E+06    -33.4012E+06    -10.4074E+06    -13.3457E+06         58.0550
            2033     7.43016E-03     167.184E-03     605.829E-03    -270.498E-03    -332.056E-03    -270.186E-03     605.518E-03    -332.056E-03     20.4091E-03     407.334E-03    -193.318E-03    -213.310E-03    -210.961E-03     404.986E-03    -193.318E-03     75.5934E-03    -329.194E+03    -20.4314E+06    -76.3379E+06    -68.3085E+06    -28.4609E+06    -329.194E+03    -19.3027E+06         61.7659
            2034     8.23905E-03     167.369E-03     564.646E-03    -239.493E-03    -318.949E-03    -239.158E-03     564.311E-03    -318.949E-03     14.2727E-03     421.460E-03    -195.368E-03    -225.457E-03    -222.621E-03     418.625E-03    -195.368E-03     84.7757E-03     9.21436E+06    -4.98892E+06    -72.2561E+06    -60.7611E+06    -15.2417E+06     7.97211E+06    -25.4194E+06         66.8964
            2035     9.03569E-03     167.587E-03     515.956E-03    -204.282E-03    -304.116E-03    -204.121E-03     515.795E-03    -304.116E-03     5.72698E-03     439.071E-03    -198.287E-03    -240.214E-03    -236.803E-03     435.659E-03    -198.287E-03     95.4728E-03     18.6396E+06     9.52791E+06    -67.4006E+06    -53.1488E+06    -300.185E+03     14.2159E+06    -30.7712E+06         73.3978
            2036     9.82284E-03     167.818E-03     468.353E-03    -171.488E-03    -287.844E-03    -171.083E-03     467.947E-03    -287.844E-03     29.9173E-03     455.323E-03    -202.115E-03    -253.429E-03    -249.744E-03     451.637E-03    -202.115E-03     101.407E-03     22.9243E+06     14.3084E+06    -61.5544E+06    -45.1112E+06     5.28078E+06     15.5086E+06    -32.9872E+06         81.8396
            2037     10.6010E-03     168.059E-03     425.446E-03    -147.140E-03    -271.182E-03    -146.852E-03     425.158E-03    -271.182E-03     19.4383E-03     470.188E-03    -206.089E-03    -265.100E-03    -261.297E-03     466.385E-03    -206.089E-03     105.160E-03     32.2800E+06     19.5567E+06    -48.5627E+06    -34.3067E+06     17.9662E+06     19.6146E+06    -29.4778E+06         93.2083
            2038     11.3651E-03     168.304E-03     387.249E-03    -121.010E-03    -254.912E-03    -120.795E-03     387.035E-03    -254.912E-03     14.1763E-03     484.533E-03    -209.574E-03    -274.985E-03    -271.031E-03     480.579E-03    -209.574E-03     109.236E-03     37.9077E+06     26.3335E+06    -32.6765E+06    -23.2407E+06     25.3290E+06     29.4765E+06    -22.3451E+06         107.057
            2039     12.1251E-03     168.527E-03     345.101E-03    -93.1241E-03    -239.120E-03    -92.7973E-03     344.774E-03    -239.120E-03     15.0487E-03     494.593E-03    -213.706E-03    -280.858E-03    -276.664E-03     490.399E-03    -213.706E-03     113.652E-03     48.5462E+06     26.5209E+06    -23.1772E+06    -16.8306E+06     20.1743E+06     48.5462E+06    -16.3147E+06         121.849
            2040     12.8890E-03     168.712E-03     300.403E-03    -65.1172E-03    -223.372E-03    -64.6847E-03     299.971E-03    -223.372E-03     12.4207E-03     503.749E-03    -218.135E-03    -285.265E-03    -280.824E-03     499.309E-03    -218.135E-03     118.027E-03     85.7944E+06     26.6983E+06    -18.6203E+06    -14.6368E+06     22.7147E+06     85.7944E+06    -11.2166E+06         135.824
            2041     13.6486E-03     168.957E-03     260.840E-03    -41.8777E-03    -207.490E-03    -41.4931E-03     260.455E-03    -207.490E-03     12.4710E-03     508.184E-03    -221.823E-03    -285.345E-03    -280.634E-03     503.474E-03    -221.823E-03     121.784E-03     156.552E+06     60.2115E+06    -12.4555E+06    -10.6511E+06     58.4070E+06     156.552E+06    -6.14803E+06         146.633
            2042     819.721E-06     167.741E-03     670.446E-03    -238.211E-03    -424.148E-03    -421.532E-03     667.830E-03    -238.211E-03    -64.8774E-03     395.810E-03    -196.228E-03    -199.352E-03    -197.107E-03     395.799E-03    -198.463E-03     958.959E-06    -170.793E+06    -228.922E+06    -237.920E+06    -226.414E+06    -173.683E+06    -237.538E+06    -9.10254E+06         50.0552
            2043     1.64442E-03     167.770E-03     695.402E-03    -333.004E-03    -359.533E-03    -358.714E-03     694.959E-03    -333.381E-03    -9.23002E-03     394.529E-03    -196.196E-03    -198.411E-03    -196.453E-03     394.500E-03    -198.125E-03    -1.44256E-03    -175.796E+06    -230.326E+06    -242.273E+06    -224.878E+06    -184.241E+06    -239.277E+06    -19.9536E+06         50.1428
            2044     2.46711E-03     167.844E-03     689.771E-03    -331.026E-03    -349.409E-03    -342.729E-03     689.344E-03    -337.278E-03    -10.6561E-03     393.569E-03    -195.044E-03    -199.408E-03    -196.306E-03     393.521E-03    -198.098E-03     3.08690E-03    -137.909E+06    -204.888E+06    -224.255E+06    -212.072E+06    -148.686E+06    -206.294E+06    -27.4171E+06         50.4636
            2045     3.28402E-03     167.911E-03     681.353E-03    -324.818E-03    -337.331E-03    -328.210E-03     680.990E-03    -333.576E-03     19.8198E-03     393.242E-03    -195.153E-03    -199.012E-03    -196.286E-03     393.145E-03    -197.782E-03     11.0260E-03    -102.679E+06    -165.218E+06    -201.912E+06    -190.839E+06    -113.753E+06    -165.218E+06    -30.2427E+06         51.1793
            2046     4.10751E-03     168.012E-03     662.844E-03    -314.999E-03    -334.701E-03    -321.035E-03     661.778E-03    -327.600E-03     57.4170E-03     392.658E-03    -195.698E-03    -198.220E-03    -195.715E-03     392.468E-03    -198.014E-03     17.6502E-03    -81.7986E+06    -135.404E+06    -178.426E+06    -164.769E+06    -97.8553E+06    -133.004E+06    -32.2282E+06         52.3276
            2047     4.92846E-03     168.129E-03     624.203E-03    -293.843E-03    -325.142E-03    -297.995E-03     623.119E-03    -319.906E-03     51.5399E-03     393.961E-03    -196.352E-03    -199.005E-03    -196.600E-03     393.661E-03    -198.458E-03     22.7608E-03    -54.6224E+06    -104.454E+06    -152.887E+06    -137.007E+06    -75.4246E+06    -99.5318E+06    -34.8931E+06         53.8820
            2048     5.74820E-03     168.288E-03     586.884E-03    -270.749E-03    -309.718E-03    -270.323E-03     586.454E-03    -309.715E-03     30.5435E-03     397.053E-03    -197.258E-03    -200.517E-03    -198.716E-03     396.584E-03    -198.590E-03     29.5834E-03    -25.1696E+06    -70.1198E+06    -126.816E+06    -111.015E+06    -47.6529E+06    -63.4374E+06    -35.0440E+06         55.8322
            2049     6.56465E-03     168.470E-03     555.663E-03    -248.642E-03    -297.742E-03    -248.339E-03     555.360E-03    -297.742E-03     25.6147E-03     400.677E-03    -198.134E-03    -202.930E-03    -200.778E-03     399.900E-03    -199.510E-03     39.3273E-03    -8.74503E+06    -41.1604E+06    -103.026E+06    -88.3551E+06    -31.4914E+06    -33.0847E+06    -31.8497E+06         58.2682
            2050     7.38239E-03     168.665E-03     514.684E-03    -219.882E-03    -284.066E-03    -219.547E-03     514.349E-03    -284.066E-03     25.1125E-03     407.665E-03    -199.648E-03    -208.322E-03    -206.382E-03     406.601E-03    -200.523E-03     47.8681E-03     2.02458E+06    -16.5920E+06    -83.5570E+06    -68.3734E+06    -21.0167E+06    -8.73436E+06    -30.1630E+06         61.6508
            2051     8.19108E-03     168.884E-03     465.736E-03    -190.848E-03    -268.492E-03    -190.484E-03     465.371E-03    -268.492E-03     23.3113E-03     420.755E-03    -201.677E-03    -218.985E-03    -217.622E-03     419.391E-03    -201.677E-03     56.1242E-03     15.2391E+06     6.41993E+06    -67.5527E+06    -50.5128E+06    -5.74369E+06     10.3628E+06    -31.5864E+06         66.4349
            2052     8.98847E-03     169.131E-03     423.942E-03    -163.897E-03    -251.706E-03    -163.656E-03     423.701E-03    -251.706E-03     16.2292E-03     435.374E-03    -203.943E-03    -230.978E-03    -229.154E-03     433.551E-03    -203.943E-03     67.3966E-03     26.5391E+06     20.2990E+06    -54.5833E+06    -37.6130E+06     7.83786E+06     22.0299E+06    -31.7252E+06         72.6383
            2053     9.77710E-03     169.381E-03     392.563E-03    -140.650E-03    -234.513E-03    -139.894E-03     391.807E-03    -234.513E-03     33.8568E-03     448.291E-03    -206.666E-03    -241.100E-03    -238.790E-03     445.981E-03    -206.666E-03     78.7660E-03     33.4458E+06     21.5771E+06    -46.7485E+06    -29.8859E+06     12.1301E+06     26.0301E+06    -31.2207E+06         80.8557
            2054     10.5583E-03     169.641E-03     362.035E-03    -127.707E-03    -217.733E-03    -126.836E-03     361.165E-03    -217.733E-03     31.8817E-03     460.445E-03    -209.366E-03    -249.700E-03    -246.832E-03     457.577E-03    -209.366E-03     89.8505E-03     31.1833E+06     19.9605E+06    -45.4558E+06    -29.4181E+06     11.7630E+06     23.3431E+06    -30.1345E+06         92.1785
            2055     11.3410E-03     169.898E-03     325.075E-03    -104.479E-03    -201.584E-03    -103.637E-03     324.234E-03    -201.584E-03     31.7290E-03     471.299E-03    -212.021E-03    -258.084E-03    -254.707E-03     467.922E-03    -212.021E-03     98.7615E-03     35.2305E+06     25.2311E+06    -36.5660E+06    -24.0342E+06     16.3053E+06     31.6246E+06    -25.4911E+06         106.305
            2056     12.1205E-03     170.136E-03     284.520E-03    -79.6797E-03    -185.844E-03    -78.9378E-03     283.778E-03    -185.844E-03     31.8610E-03     484.420E-03    -215.310E-03    -269.992E-03    -266.394E-03     480.822E-03    -215.310E-03     103.306E-03     47.4163E+06     19.0403E+06    -29.7623E+06    -20.2678E+06     9.54569E+06     47.4163E+06    -19.1626E+06         121.671
            2057     12.8842E-03     170.372E-03     246.632E-03    -64.3172E-03    -170.699E-03    -63.7896E-03     246.104E-03    -170.699E-03     21.5860E-03     497.866E-03    -219.096E-03    -279.956E-03    -276.055E-03     493.965E-03    -219.096E-03     109.376E-03     79.6565E+06     9.90543E+06    -24.4206E+06    -18.2252E+06     3.71004E+06     79.6565E+06    -10.9427E+06         136.301
            2058     13.6338E-03     170.627E-03     210.119E-03    -37.3921E-03    -156.276E-03    -37.0038E-03     209.731E-03    -156.276E-03     12.7327E-03     496.532E-03    -222.387E-03    -274.410E-03    -270.324E-03     492.446E-03    -222.387E-03     111.922E-03     158.648E+06     50.6186E+06    -7.63358E+06    -4.82152E+06     47.8065E+06     158.648E+06    -3.83964E+06         147.642
            2059     807.627E-06     169.251E-03     520.869E-03    -177.220E-03    -311.996E-03    -294.125E-03     516.889E-03    -191.111E-03    -77.3624E-03     430.778E-03    -213.969E-03    -216.535E-03    -214.661E-03     430.758E-03    -215.823E-03    -1.77995E-03    -120.707E+06    -181.343E+06    -186.188E+06    -177.042E+06    -127.865E+06    -183.331E+06    -16.2989E+06         52.5011
            2060     1.61101E-03     169.279E-03     519.591E-03    -232.158E-03    -280.404E-03    -265.710E-03     518.788E-03    -246.049E-03     10.1882E-03     428.383E-03    -212.196E-03    -215.858E-03    -212.477E-03     428.305E-03    -215.499E-03    -12.8417E-03    -120.329E+06    -186.832E+06    -198.784E+06    -180.157E+06    -138.040E+06    -187.749E+06    -31.7318E+06         52.4595
            2061     2.42228E-03     169.333E-03     538.098E-03    -252.929E-03    -285.128E-03    -284.730E-03     537.701E-03    -252.929E-03     24.0885E-03     421.747E-03    -207.324E-03    -214.604E-03    -207.198E-03     421.621E-03    -214.604E-03    -15.3446E-03    -94.6621E+06    -170.605E+06    -200.881E+06    -178.523E+06    -117.020E+06    -170.605E+06    -42.3579E+06         52.5469
            2062     3.24220E-03     169.410E-03     544.042E-03    -256.382E-03    -277.963E-03    -277.050E-03     543.129E-03    -256.382E-03     43.4866E-03     418.408E-03    -205.762E-03    -213.004E-03    -205.563E-03     418.209E-03    -213.004E-03    -14.6922E-03    -64.3956E+06    -142.731E+06    -194.037E+06    -168.288E+06    -90.1450E+06    -142.731E+06    -50.6315E+06         52.9373
            2063     4.05296E-03     169.514E-03     536.257E-03    -255.717E-03    -278.709E-03    -277.220E-03     534.768E-03    -255.717E-03     64.9147E-03     416.706E-03    -205.072E-03    -212.183E-03    -204.778E-03     416.412E-03    -212.183E-03    -15.8343E-03    -44.4196E+06    -118.716E+06    -184.983E+06    -152.790E+06    -76.6130E+06    -118.716E+06    -57.9647E+06         53.7297
            2064     4.86554E-03     169.653E-03     523.471E-03    -253.023E-03    -272.208E-03    -270.830E-03     522.092E-03    -253.023E-03     63.7270E-03     414.309E-03    -203.910E-03    -211.796E-03    -203.618E-03     414.018E-03    -211.796E-03    -13.7739E-03    -24.6619E+06      -95.22E+06    -172.919E+06    -136.307E+06    -61.2741E+06      -95.22E+06    -62.8834E+06         54.9521
            2065     5.67623E-03     169.793E-03     502.130E-03    -240.110E-03    -252.316E-03    -243.691E-03     500.471E-03    -247.076E-03     64.9150E-03     414.202E-03    -203.828E-03    -211.348E-03    -203.544E-03     413.918E-03    -211.348E-03    -9.84102E-03    -4.89950E+06    -68.2586E+06    -156.819E+06    -118.284E+06    -43.4341E+06    -68.2586E+06    -64.8817E+06         56.5966
            2066     6.48763E-03     169.957E-03     458.462E-03    -207.449E-03    -237.885E-03    -207.204E-03     457.147E-03    -236.815E-03     50.4085E-03     414.863E-03    -203.819E-03    -211.606E-03    -203.505E-03     414.549E-03    -211.606E-03    -4.90155E-03     3.28302E+06    -44.9974E+06    -139.223E+06    -99.8631E+06    -36.0765E+06    -44.9974E+06    -62.5991E+06         58.6853
            2067     7.29615E-03     170.158E-03     406.208E-03    -169.251E-03    -222.670E-03    -168.419E-03     405.375E-03    -222.670E-03     36.8360E-03     417.052E-03    -204.530E-03    -213.301E-03    -205.488E-03     416.730E-03    -212.020E-03     2.04695E-03     12.0354E+06    -22.3403E+06    -116.144E+06    -77.6185E+06    -26.4902E+06    -22.3403E+06    -58.3013E+06         61.6074
            2068     8.10101E-03     170.397E-03     367.646E-03    -149.364E-03    -206.404E-03    -148.562E-03     366.844E-03    -206.404E-03     36.3496E-03     422.417E-03    -205.730E-03    -217.365E-03    -210.320E-03     422.078E-03    -212.436E-03     12.4345E-03     22.8950E+06    -469.580E+03    -90.8142E+06    -57.0217E+06    -10.8975E+06    -469.580E+03    -51.8312E+06         65.8941
            2069     8.90025E-03     170.649E-03     336.876E-03    -135.729E-03    -190.033E-03    -135.102E-03     336.249E-03    -190.033E-03     32.2913E-03     428.667E-03    -206.745E-03    -222.190E-03    -214.792E-03     428.176E-03    -213.652E-03     25.7905E-03     29.4611E+06     13.4627E+06    -71.2797E+06    -44.4568E+06     907.292E+03     15.1936E+06    -43.8797E+06         71.6608
            2070     9.70023E-03     170.911E-03     308.934E-03    -114.829E-03    -173.798E-03    -112.949E-03     307.054E-03    -173.798E-03     51.6772E-03     436.178E-03    -208.555E-03    -226.682E-03    -219.445E-03     435.228E-03    -214.842E-03     43.0624E-03     31.7749E+06     20.9688E+06    -54.8515E+06    -35.2118E+06     7.68210E+06     25.4218E+06    -34.9450E+06         79.5141
            2071     10.4983E-03     171.196E-03     273.009E-03    -94.0936E-03    -157.450E-03    -92.2125E-03     271.128E-03    -157.450E-03     40.6397E-03     445.096E-03    -213.002E-03    -230.548E-03    -226.026E-03     443.631E-03    -216.059E-03     58.0557E-03     33.0924E+06     22.8273E+06    -42.0740E+06    -28.4747E+06     9.63230E+06     32.6881E+06    -26.3754E+06         90.5905
            2072     11.2911E-03     171.454E-03     235.452E-03    -71.3662E-03    -141.498E-03    -70.5659E-03     234.651E-03    -141.498E-03     22.1619E-03     454.584E-03    -217.228E-03    -236.883E-03    -234.910E-03     452.848E-03    -217.465E-03     65.4113E-03     40.0092E+06     18.8863E+06    -36.4064E+06    -26.6090E+06     9.08893E+06     40.0092E+06    -20.4729E+06         104.813
            2073     12.0739E-03     171.721E-03     207.347E-03    -54.6266E-03    -126.212E-03    -53.9793E-03     206.700E-03    -126.212E-03     16.5144E-03     466.508E-03    -219.272E-03    -248.145E-03    -245.934E-03     464.298E-03    -219.272E-03     77.5470E-03     52.7922E+06     11.8594E+06    -32.4406E+06    -24.7627E+06     4.18153E+06     52.7922E+06    -16.1885E+06         120.848
            2074     12.8421E-03     171.983E-03     177.032E-03    -53.9281E-03    -112.233E-03    -53.6877E-03     176.792E-03    -112.233E-03    -99.9740E-06     475.646E-03    -221.523E-03    -255.030E-03    -251.868E-03     472.484E-03    -221.523E-03     95.5512E-03     78.4554E+06     1.23158E+06     -30.428E+06    -21.3173E+06    -7.87907E+06     78.4554E+06    -13.6744E+06         136.559
            2075     13.6271E-03     172.218E-03     144.796E-03    -26.2188E-03    -99.8202E-03    -25.7799E-03     144.357E-03    -99.8202E-03     3.44056E-03     473.023E-03    -223.402E-03    -250.229E-03    -246.732E-03     469.526E-03    -223.402E-03     100.257E-03     149.596E+06     37.0544E+06    -18.4212E+06    -11.7579E+06     30.3911E+06     149.596E+06    -8.47312E+06         148.756
            2076     790.852E-06     170.820E-03     392.472E-03    -154.190E-03    -220.608E-03    -172.958E-03     386.746E-03    -196.114E-03    -100.566E-03     477.929E-03    -236.958E-03    -240.826E-03    -237.417E-03     477.676E-03    -240.114E-03    -19.7530E-03    -61.0573E+06    -84.9112E+06    -99.0535E+06    -83.9005E+06    -76.2103E+06    -84.9112E+06    -13.0302E+06         55.8188
            2077     1.58115E-03     170.855E-03     375.205E-03    -171.750E-03    -207.494E-03    -192.389E-03     373.991E-03    -185.642E-03    -28.1629E-03     472.393E-03    -233.306E-03    -238.594E-03    -233.232E-03     471.961E-03    -238.236E-03    -31.1618E-03    -55.1968E+06    -84.3034E+06    -111.709E+06    -85.5481E+06    -81.3578E+06    -84.3034E+06    -26.2571E+06         55.7197
            2078     2.37539E-03     170.879E-03     370.746E-03    -175.452E-03    -208.895E-03    -195.325E-03     369.069E-03    -187.345E-03    -20.7040E-03     468.088E-03    -230.902E-03    -236.942E-03    -230.168E-03     467.354E-03    -236.942E-03    -42.4179E-03    -34.7611E+06    -73.1411E+06    -119.716E+06    -85.3320E+06    -69.1449E+06    -73.1411E+06    -39.6596E+06         55.6330
            2079     3.16736E-03     170.966E-03     372.707E-03    -171.761E-03    -204.098E-03    -187.727E-03     370.846E-03    -186.272E-03     1.42558E-03     463.052E-03    -226.895E-03    -235.711E-03    -225.754E-03     461.911E-03    -235.711E-03    -52.4389E-03    -15.4270E+06    -54.8103E+06    -119.409E+06    -81.1747E+06    -53.6618E+06    -54.8103E+06    -48.4494E+06         55.6518
            2080     3.96636E-03     171.058E-03     370.323E-03    -181.148E-03    -199.757E-03    -196.276E-03     369.460E-03    -183.766E-03     35.5045E-03     457.872E-03    -222.509E-03    -234.290E-03    -220.723E-03     456.085E-03    -234.290E-03    -65.1400E-03    -2.26420E+06    -34.1956E+06    -116.358E+06    -72.7809E+06    -45.8418E+06    -34.1956E+06    -54.2347E+06         55.9063
            2081     4.76555E-03     171.178E-03     358.554E-03    -166.157E-03    -193.652E-03    -178.589E-03     356.936E-03    -179.603E-03     48.3385E-03     451.832E-03    -218.208E-03    -233.136E-03    -215.910E-03     449.534E-03    -233.136E-03    -71.7067E-03     10.0448E+06    -18.3287E+06    -112.752E+06    -65.3583E+06    -37.3493E+06    -18.3287E+06    -58.8648E+06         56.5475
            2082     5.56706E-03     171.316E-03     337.453E-03    -150.049E-03    -176.333E-03    -152.735E-03     334.903E-03    -171.097E-03     68.5436E-03     447.030E-03    -214.399E-03    -232.152E-03    -211.800E-03     444.431E-03    -232.152E-03    -74.1235E-03     20.4732E+06    -5.74459E+06    -106.688E+06    -60.0353E+06    -26.2345E+06    -5.68972E+06    -60.8754E+06         57.6712
            2083     6.36652E-03     171.493E-03     312.499E-03    -147.968E-03    -161.641E-03    -147.795E-03     310.805E-03    -160.120E-03     54.8683E-03     444.211E-03    -212.006E-03    -231.451E-03    -209.260E-03     441.465E-03    -231.451E-03    -74.6796E-03     24.3720E+06    -1.86944E+06    -106.311E+06    -59.2969E+06    -24.9429E+06     431.281E+03    -61.7148E+06         59.3082
            2084     7.16371E-03     171.678E-03     295.975E-03    -132.635E-03    -150.505E-03    -133.337E-03     294.564E-03    -148.393E-03     48.5917E-03     440.259E-03    -208.546E-03    -230.967E-03    -205.874E-03     437.587E-03    -230.967E-03    -70.8820E-03     27.2471E+06    -2.18653E+06    -105.530E+06    -60.6428E+06    -23.4565E+06     3.63023E+06    -60.5775E+06         61.7222
            2085     7.96230E-03     171.900E-03     275.421E-03    -115.658E-03    -138.770E-03    -117.662E-03     274.308E-03    -135.652E-03     39.7091E-03     432.721E-03    -202.647E-03    -230.213E-03    -200.397E-03     430.472E-03    -230.213E-03    -59.5215E-03     30.5288E+06     1.74896E+06    -97.7978E+06    -59.1499E+06    -17.1686E+06     10.7984E+06    -55.6023E+06         65.3970
            2086     8.76846E-03     172.156E-03     248.954E-03    -102.417E-03    -123.908E-03    -103.099E-03     248.180E-03    -122.452E-03     31.3405E-03     426.685E-03    -197.517E-03    -229.607E-03    -195.828E-03     424.996E-03    -229.607E-03    -44.4939E-03     34.4304E+06     9.44623E+06    -88.8878E+06    -57.4940E+06    -7.76559E+06     20.2484E+06    -50.0725E+06         70.5985
            2087     9.57440E-03     172.407E-03     217.210E-03    -77.0936E-03    -108.292E-03    -75.3468E-03     215.464E-03    -108.292E-03     42.8100E-03     424.851E-03    -195.030E-03    -228.749E-03    -193.774E-03     423.594E-03    -228.749E-03    -27.9434E-03     34.4374E+06     13.7126E+06    -79.2271E+06    -54.4813E+06    -4.68013E+06     28.0843E+06     -42.754E+06         78.0411
            2088     10.3841E-03     172.683E-03     183.957E-03    -59.8977E-03    -97.3995E-03    -61.7033E-03     181.438E-03    -93.0751E-03     36.5634E-03     425.299E-03    -197.068E-03    -227.778E-03    -196.337E-03     424.568E-03    -227.778E-03    -6.54303E-03     36.8071E+06     14.0594E+06    -63.4240E+06    -44.2184E+06    -4.74201E+06     36.4029E+06    -33.3738E+06         88.8143
            2089     11.1845E-03     172.990E-03     157.656E-03    -51.3156E-03    -84.2122E-03    -55.5031E-03     156.247E-03    -78.6162E-03     18.4466E-03     429.378E-03    -200.928E-03    -229.521E-03    -202.935E-03     428.971E-03    -227.107E-03     16.6853E-03     40.6442E+06     10.5052E+06    -52.3676E+06    -39.9901E+06    -1.87232E+06     40.6442E+06    -24.3418E+06         102.989
            2090     11.9814E-03     173.244E-03     124.607E-03    -27.1592E-03    -65.8615E-03    -27.3464E-03     123.523E-03    -64.5899E-03     8.65958E-03     434.360E-03    -203.101E-03    -232.375E-03    -207.796E-03     433.287E-03    -226.607E-03     46.9408E-03     58.8563E+06     14.3103E+06    -37.1683E+06    -26.2142E+06     3.35615E+06     58.8563E+06    -19.9213E+06         119.661
            2091     12.7981E-03     173.578E-03     92.8873E-03    -20.8569E-03    -55.9361E-03    -23.9803E-03     91.6879E-03    -51.6132E-03     4.70173E-03     437.363E-03    -204.510E-03    -233.008E-03    -209.118E-03     435.065E-03    -226.101E-03     75.6857E-03     91.3201E+06     14.2081E+06    -32.7706E+06    -5.73052E+06    -12.8320E+06     91.3201E+06    -15.3944E+06         136.569
            2092     13.6001E-03     173.764E-03     75.4333E-03    -11.3181E-03    -45.5700E-03    -14.7256E-03     74.5180E-03    -41.2471E-03     5.86220E-03     435.618E-03    -204.758E-03    -230.875E-03    -207.301E-03     432.737E-03    -225.451E-03     85.8698E-03     148.155E+06     36.2303E+06    -23.8619E+06    -312.812E+03     12.6812E+06     148.155E+06    -6.34856E+06         149.980
            2093     755.100E-06     172.468E-03     240.384E-03    -66.6313E-03    -197.321E-03    -67.1037E-03     228.835E-03    -185.300E-03    -72.6639E-03     539.645E-03    -266.724E-03    -272.998E-03    -268.802E-03     539.228E-03    -270.503E-03    -35.1493E-03     9.71329E+06     7.27208E+06    -37.8501E+06     6.63484E+06    -35.1223E+06     7.62278E+06    -8.77165E+06         59.0769
            2094     1.53301E-03     172.490E-03     247.998E-03    -126.923E-03    -147.372E-03    -143.917E-03     246.303E-03    -128.684E-03    -7.70197E-03     533.423E-03    -264.377E-03    -268.698E-03    -263.566E-03     532.612E-03    -268.698E-03    -49.9683E-03     15.9670E+06     8.18702E+06    -44.4878E+06     4.38207E+06    -35.3925E+06     10.6767E+06    -16.9544E+06         58.9597
            2095     2.30022E-03     172.531E-03     230.645E-03    -115.916E-03    -135.422E-03    -119.706E-03     227.768E-03    -128.755E-03    -6.49625E-03     534.084E-03    -265.454E-03    -268.380E-03    -264.263E-03     532.303E-03    -267.790E-03    -73.2934E-03     31.8016E+06     12.9479E+06    -44.9523E+06     4.59358E+06    -27.0900E+06     22.2937E+06    -25.4047E+06         58.7983
            2096     3.06892E-03     172.595E-03     216.108E-03    -106.446E-03    -122.227E-03    -99.9989E-03     209.336E-03    -121.903E-03     21.9777E-03     529.672E-03    -261.184E-03    -268.238E-03    -258.490E-03     526.388E-03    -267.647E-03    -99.1850E-03     43.4497E+06     20.3564E+06    -43.5666E+06     4.04970E+06    -19.0798E+06     35.2697E+06    -30.4541E+06         58.5931
            2097     3.84034E-03     172.665E-03     201.035E-03    -104.064E-03    -114.655E-03    -98.8034E-03     195.351E-03    -114.231E-03     42.7903E-03     521.119E-03    -253.318E-03    -266.682E-03    -248.245E-03     516.046E-03    -266.682E-03    -122.422E-03     47.2607E+06     24.1101E+06    -47.2068E+06     803.298E+03    -19.6791E+06     43.0397E+06    -32.8496E+06         58.3926
            2098     4.61626E-03     172.765E-03     175.295E-03    -76.9327E-03    -105.560E-03    -75.0571E-03     173.320E-03    -105.460E-03     33.7115E-03     512.570E-03    -246.577E-03    -265.218E-03    -239.459E-03     505.453E-03    -265.218E-03    -143.284E-03     52.6463E+06     25.3969E+06    -47.5201E+06    -1.76449E+06    -17.6338E+06     49.9214E+06    -33.8257E+06         58.3673
            2099     5.39589E-03     172.886E-03     155.654E-03    -57.0286E-03    -93.8405E-03    -55.1975E-03     153.823E-03    -93.8405E-03     36.0196E-03     502.849E-03    -238.870E-03    -263.733E-03    -229.787E-03     493.766E-03    -263.733E-03    -159.068E-03     57.3550E+06     25.5322E+06    -46.1956E+06    -6.21270E+06    -13.3789E+06     56.2833E+06    -32.9401E+06         58.8163
            2100     6.17891E-03     173.059E-03     146.127E-03    -60.3460E-03    -82.6551E-03    -60.1612E-03     145.492E-03    -82.2042E-03     22.0408E-03     493.316E-03    -230.644E-03    -262.081E-03    -219.816E-03     482.488E-03    -262.081E-03    -169.948E-03     64.9582E+06     25.6990E+06    -42.1041E+06    -7.12491E+06    -9.28019E+06     64.9582E+06    -31.0669E+06         59.9426
            2101     6.96232E-03     173.225E-03     152.487E-03    -58.4710E-03    -74.1676E-03    -57.7452E-03     149.649E-03    -72.0550E-03     35.5299E-03     481.944E-03    -220.644E-03    -260.419E-03    -208.287E-03     469.587E-03    -260.419E-03    -176.627E-03     69.7674E+06     23.0395E+06    -40.2438E+06    -10.1052E+06    -7.09919E+06     69.7674E+06    -29.2348E+06         61.8715
            2102     7.75502E-03     173.428E-03     152.495E-03    -51.5285E-03    -65.1521E-03    -51.3960E-03     149.245E-03    -62.0345E-03     35.0430E-03     465.556E-03    -206.624E-03    -258.236E-03    -193.243E-03     452.175E-03    -258.236E-03    -176.107E-03     68.6218E+06     16.8355E+06    -42.9856E+06    -15.1961E+06    -10.9540E+06     68.6218E+06    -27.3055E+06         64.9797
            2103     8.55538E-03     173.636E-03     134.788E-03    -45.5627E-03    -55.6640E-03    -47.5444E-03     132.262E-03    -51.1562E-03     30.1025E-03     447.004E-03    -191.319E-03    -255.293E-03    -177.780E-03     433.465E-03    -255.293E-03    -168.036E-03     69.6992E+06     16.1807E+06    -39.7919E+06    -16.6996E+06    -6.91163E+06     69.6992E+06    -25.1279E+06         69.7072
            2104     9.36727E-03     173.853E-03     116.452E-03    -28.6583E-03    -46.6640E-03    -30.6590E-03     110.338E-03    -38.5491E-03     42.4658E-03     430.582E-03    -177.503E-03    -252.228E-03    -164.384E-03     417.463E-03    -252.228E-03    -155.810E-03     69.7673E+06     13.7364E+06    -36.4068E+06    -18.5891E+06    -4.08127E+06     69.7673E+06    -22.4427E+06         76.7270
            2105     10.1845E-03     174.189E-03     103.827E-03    -18.5754E-03    -44.7004E-03    -28.5547E-03     94.9256E-03    -25.8193E-03     53.9349E-03     412.739E-03    -163.743E-03    -248.701E-03    -152.401E-03     401.397E-03    -248.701E-03    -130.710E-03     63.3238E+06     6.75497E+06    -40.0152E+06    -23.5443E+06    -9.71597E+06     63.3238E+06    -19.9305E+06         87.0887
            2106     11.0155E-03     174.462E-03     84.6051E-03    -14.0742E-03    -40.7469E-03    -28.8847E-03     72.7428E-03    -14.0742E-03     45.7931E-03     396.573E-03    -151.948E-03    -244.592E-03    -143.561E-03     388.186E-03    -244.592E-03    -93.5636E-03     58.0207E+06     7.30698E+06    -39.2167E+06    -23.9460E+06    -7.96371E+06     58.0207E+06    -18.3618E+06         101.301
            2107     11.8602E-03     174.796E-03     60.5247E-03     4.40969E-03    -24.2417E-03    -5.01538E-03     47.0734E-03    -1.36533E-03     28.8658E-03     385.356E-03    -145.094E-03    -240.341E-03    -139.569E-03     379.831E-03    -240.341E-03    -53.6635E-03     66.4705E+06     16.8688E+06    -34.9288E+06    -21.5477E+06     3.48774E+06     66.4705E+06    -17.8088E+06         118.725
            2108     12.6950E-03     175.070E-03     47.0741E-03     7.47047E-03    -25.7665E-03    -13.4535E-03     32.2219E-03     10.0097E-03     20.4074E-03     373.484E-03    -138.137E-03    -235.709E-03    -135.369E-03     370.716E-03    -235.709E-03    -7.03166E-03     87.2371E+06     9.47336E+06    -49.7743E+06    -14.1975E+06    -26.1034E+06     87.2371E+06    -12.4541E+06         136.806
            2109     13.5532E-03     175.207E-03     43.4145E-03     4.15774E-03    -25.9247E-03    -13.0472E-03     17.3717E-03     17.3230E-03     7.72038E-03     359.618E-03    -129.476E-03    -230.402E-03    -127.719E-03     357.861E-03    -230.402E-03     40.1561E-03     137.791E+06     34.8879E+06    -35.5183E+06    -1.84114E+06     1.21073E+06     137.791E+06    -6.87146E+06         151.244


