********************************************************************************
Field Output Report, written Tue May  6 11:34:17 2025

Source 1
---------

   ODB: D:/AISI_1020/Vel_20/1020_2a_32_rd_500_cal_30_v_20_f_025.odb
   Step: Step-1
   Frame: Increment   4697994: Step Time =   0.5914

Loc 1 : Nodal values from source 1

Output sorted by column "Node Label".

Field Output reported at nodes for region: DIE_2A_32_D0_36-1.Region_1
   Computation algorithm: EXTRAPOLATE_COMPUTE_AVERAGE
   Averaged at nodes
   Averaging regions: ODB_REGIONS

      Node Label     COORD.COOR1     COORD.COOR2
                          @Loc 1          @Loc 1
-------------------------------------------------
               1     21.8134E-03     177.679E-03


Field Output reported at nodes for region: DIE_2A_32_D0_36-1.Region_2
   Computation algorithm: EXTRAPOLATE_COMPUTE_AVERAGE
   Averaged at nodes
   Averaging regions: ODB_REGIONS

      Node Label     COORD.COOR1     COORD.COOR2
                          @Loc 1          @Loc 1
-------------------------------------------------
               1     21.8134E-03     177.679E-03


Field Output reported at nodes for part: WIRE_1-1
   Computation algorithm: EXTRAPOLATE_COMPUTE_AVERAGE
   Averaged at nodes
   Averaging regions: ODB_REGIONS

      Node Label     COORD.COOR1     COORD.COOR2    ER.Max. Prin    ER.Mid. Prin    ER.Min. Prin         ER.ER11         ER.ER22         ER.ER33         ER.ER12    PE.Max. Prin    PE.Mid. Prin    PE.Min. Prin         PE.PE11         PE.PE22         PE.PE33         PE.PE12     S.Max. Prin     S.Mid. Prin     S.Min. Prin           S.S11           S.S22           S.S33           S.S12            TEMP
                          @Loc 1          @Loc 1          @Loc 1          @Loc 1          @Loc 1          @Loc 1          @Loc 1          @Loc 1          @Loc 1          @Loc 1          @Loc 1          @Loc 1          @Loc 1          @Loc 1          @Loc 1          @Loc 1          @Loc 1          @Loc 1          @Loc 1          @Loc 1          @Loc 1          @Loc 1          @Loc 1          @Loc 1
-----------------------------------------------------------------------------------------------------------------------------------------------------------------------------------------------------------------------------------------------------------------------------------------------------------------------------------------------------------------------------------------------------------------
               1     16.9968E-03     62.3708E-03         2.02981    -557.667E-03    -652.685E-03    -557.513E-03         2.02965    -652.685E-03    -33.4016E-03     120.275E-03    -58.1880E-03    -62.1394E-03    -55.0523E-03     113.188E-03    -58.1880E-03     70.4995E-03     151.500E+06     129.879E+06    -4.20356E+06    -4.18188E+06     151.478E+06     129.879E+06     1.33656E+06         56.6564
               2    -235.931E-09     61.6761E-03         2.65429     2.40297E-03        -1.84228        -1.44038         2.25238     2.40297E-03         2.55622     115.956E-03    -57.7509E-03    -58.2076E-03    -58.0102E-03     115.956E-03    -57.9477E-03     115.544E-06    -73.2024E+06    -74.5318E+06    -272.465E+06    -73.2394E+06    -272.428E+06    -74.5318E+06     101.574E+03         28.9762
               3     1.13139E-06     100.583E-09         3.03040    -909.619E-03    -953.403E-03    -952.450E-03         3.02945    -909.619E-03    -123.262E-03     264.956E-03    -132.002E-03    -132.952E-03    -132.950E-03     264.954E-03    -132.002E-03     1.74542E-03    -67.3011E+06    -68.0957E+06    -266.213E+06    -68.1537E+06    -266.155E+06    -67.3011E+06     3.38995E+06         40.6102
               4     16.5154E-03     100.583E-09         3.41444    -908.172E-03    -958.588E-03    -953.003E-03         3.40885    -908.172E-03     312.363E-03     268.756E-03    -79.5487E-03    -189.112E-03    -156.993E-03     236.637E-03    -79.5487E-03     233.876E-03     136.711E+06     133.534E+06     4.06605E+06     9.39429E+06     131.383E+06     133.534E+06     26.0456E+06         48.6508
               5     16.3616E-03     125.303E-03     115.532E-03     81.5077E-03    -128.893E-03     66.6749E-03    -114.060E-03     115.532E-03    -107.719E-03     40.6218E-03     37.0706E-03    -77.6770E-03     40.0478E-03     37.6446E-03    -77.6770E-03     2.61438E-03     70.8769E+06    -19.8748E+06    -40.8306E+06     60.6835E+06    -30.6372E+06    -19.8748E+06     32.1679E+06         45.5695
               6     4.13843E-06     121.963E-03     99.1895E-03     77.7568E-03    -71.6863E-03     98.8748E-03    -71.3715E-03     77.7568E-03    -14.6537E-03     54.7146E-03    -26.4157E-03    -28.2997E-03    -28.2643E-03     54.6792E-03    -26.4157E-03    -3.42943E-03     83.5531E+06     76.9167E+06     3.39351E+06     76.2724E+06     4.03781E+06     83.5531E+06    -6.85243E+06         23.4019
               7     16.0498E-03     62.2857E-03         2.03764    -565.126E-03    -656.122E-03    -565.048E-03         2.03756    -656.122E-03    -16.8546E-03     139.441E-03    -58.1860E-03    -81.3520E-03    -56.7783E-03     114.867E-03    -58.1860E-03     130.809E-03     149.212E+06     125.072E+06    -8.79993E+06    -8.75259E+06     149.165E+06     125.072E+06     1.11748E+06         55.4016
               8     15.1064E-03     62.0741E-03         2.06221    -583.370E-03    -663.043E-03    -583.361E-03         2.06220    -663.043E-03     3.52371E-03     147.600E-03    -58.1094E-03    -89.6188E-03    -57.7667E-03     115.748E-03    -58.1094E-03     160.287E-03     140.195E+06     100.065E+06    -16.6395E+06    -16.5445E+06     140.100E+06     100.065E+06     157.332E+03         52.3089
               9     14.1615E-03     61.9321E-03         2.08935    -603.178E-03    -669.376E-03    -603.164E-03         2.08934    -669.376E-03     6.83562E-03     128.281E-03    -57.9652E-03    -70.4242E-03    -56.4394E-03     114.296E-03    -57.9652E-03     98.0771E-03     128.255E+06     57.2344E+06    -21.6283E+06    -21.5514E+06     128.178E+06     57.2344E+06    -724.757E+03         48.2973
              10     13.2165E-03     61.8566E-03         2.10930    -617.244E-03    -674.648E-03    -617.112E-03         2.10917    -674.648E-03    -22.0280E-03     118.790E-03    -57.8403E-03    -61.0039E-03    -56.2546E-03     114.041E-03    -57.8403E-03     56.8553E-03     116.771E+06     20.2772E+06    -24.4252E+06    -24.3867E+06     116.732E+06     20.2772E+06    -701.936E+03         44.0754
              11     12.2719E-03     61.8072E-03         2.12707    -629.393E-03    -679.228E-03    -629.201E-03         2.12687    -679.228E-03    -6.45760E-03     116.811E-03    -57.8080E-03    -59.0232E-03    -56.7342E-03     114.522E-03    -57.8080E-03     39.0836E-03     65.0720E+06    -4.51341E+06    -26.3497E+06    -26.2866E+06     65.0089E+06    -4.51341E+06     18.0933E+03         40.3015
              12     11.3271E-03     61.7729E-03         2.14321    -643.349E-03    -683.202E-03    -643.213E-03         2.14307    -683.202E-03    -767.095E-06     115.877E-03    -57.8052E-03    -58.1003E-03    -56.8892E-03     114.770E-03    -57.9087E-03     27.4055E-03     7.98857E+06    -21.8954E+06    -38.5254E+06    -28.0282E+06    -15.0789E+06    -9.32520E+06     377.190E+03         37.1858
              13     10.3823E-03     61.7483E-03         2.15589    -651.003E-03    -686.778E-03    -650.928E-03         2.15581    -686.778E-03    -23.3290E-03     116.037E-03    -57.8930E-03    -58.1275E-03    -57.2964E-03     115.338E-03    -58.0253E-03     21.9310E-03    -2.27090E+06    -30.0382E+06    -71.8418E+06    -30.1060E+06    -71.7740E+06    -2.27090E+06     214.512E+03         34.7610
              14     9.43890E-03     61.7269E-03         2.15977    -648.878E-03    -690.737E-03    -648.859E-03         2.15975    -690.737E-03    -6.23371E-03     116.043E-03    -57.8152E-03    -58.2012E-03    -57.4806E-03     115.606E-03    -58.0990E-03     17.1430E-03    -1.36419E+06    -33.0955E+06    -110.515E+06    -33.1152E+06    -110.495E+06    -1.36419E+06     300.974E+03         33.0641
              15     8.49434E-03     61.7114E-03         2.16799    -652.218E-03    -695.415E-03    -652.169E-03         2.16794    -695.415E-03     11.3149E-03     115.787E-03    -57.6348E-03    -58.1706E-03    -57.4078E-03     115.560E-03    -58.1706E-03     12.4299E-03    -3.35336E+06    -36.8737E+06    -142.369E+06    -36.8844E+06    -142.358E+06    -3.35336E+06     237.998E+03         31.9778
              16     7.55013E-03     61.7001E-03         2.19285    -673.520E-03    -700.171E-03    -673.486E-03         2.19222    -699.578E-03    -43.4895E-03     115.920E-03    -57.7128E-03    -58.2390E-03    -57.5722E-03     115.779E-03    -58.2390E-03     9.83196E-03    -7.67580E+06    -40.7584E+06    -168.394E+06    -40.7657E+06    -168.387E+06    -7.67580E+06     202.593E+03         31.2104
              17     6.60623E-03     61.6920E-03         2.22187    -694.967E-03    -708.438E-03    -701.011E-03         2.22080    -701.323E-03    -5.18160E-03     116.073E-03    -57.8080E-03    -58.2949E-03    -57.7217E-03     115.987E-03    -58.2949E-03     7.64223E-03    -14.3730E+06    -45.2199E+06    -193.347E+06    -45.2265E+06    -193.340E+06    -14.3730E+06     207.978E+03         30.5965
              18     5.66215E-03     61.6845E-03         2.22777    -699.941E-03    -708.159E-03    -704.712E-03         2.22548    -701.100E-03    -50.6006E-03     116.223E-03    -57.9148E-03    -58.3388E-03    -57.8708E-03     116.179E-03    -58.3388E-03     5.45540E-03    -22.3087E+06    -50.1067E+06    -216.723E+06    -50.1123E+06    -216.718E+06    -22.3087E+06     72.3114E+03         30.1173
              19     4.71833E-03     61.6807E-03         2.21457    -691.693E-03    -702.883E-03    -687.177E-03         2.20951    -702.346E-03     33.1842E-03     116.408E-03    -58.0641E-03    -58.3697E-03    -58.0420E-03     116.386E-03    -58.3697E-03     3.86891E-03    -30.5679E+06    -55.1081E+06    -237.781E+06    -55.1132E+06    -237.776E+06    -30.5679E+06     345.697E+03         29.7497
              20     3.77462E-03     61.6776E-03         2.21346    -684.624E-03    -708.366E-03    -672.499E-03         2.20133    -708.366E-03    -83.6006E-03     116.523E-03    -58.1675E-03    -58.3723E-03    -58.1582E-03     116.514E-03    -58.3723E-03     2.41413E-03    -40.6623E+06    -60.1788E+06    -253.291E+06    -60.1863E+06    -253.284E+06    -40.6623E+06     929.486E+03         29.4666
              21     2.83087E-03     61.6761E-03         2.25843    -702.106E-03    -733.603E-03    -695.414E-03         2.23448    -716.353E-03     82.1180E-03     116.640E-03    -58.2449E-03    -58.4078E-03    -58.3234E-03     116.637E-03    -58.3264E-03     1.39264E-03    -51.9067E+06    -65.1047E+06    -260.234E+06    -65.1122E+06    -260.227E+06    -51.9067E+06     1.18586E+06         29.2508
              22     1.88752E-03     61.6753E-03         2.32228    -719.346E-03    -787.204E-03    -721.421E-03         2.25650    -719.346E-03    -243.071E-03     116.590E-03    -58.1960E-03    -58.4038E-03    -58.3881E-03     116.589E-03    -58.2103E-03     978.224E-06    -61.4826E+06    -68.6997E+06    -265.602E+06    -68.7052E+06    -265.596E+06    -61.4826E+06     990.951E+03         29.0985
              23     944.455E-06     61.6739E-03         2.50011    -358.220E-03        -1.33117        -1.07950         2.24844    -358.220E-03     733.515E-03     116.205E-03    -57.9270E-03    -58.2819E-03    -58.1684E-03     116.204E-03    -58.0397E-03     443.762E-06    -69.4584E+06    -72.1661E+06    -270.099E+06    -71.5218E+06    -270.079E+06    -70.1231E+06     445.107E+03         29.0073
              24    -150.630E-09     60.5513E-03         2.94214    -15.8068E-03        -2.10577        -1.50730         2.34367    -15.8068E-03         3.25445     116.743E-03    -57.8245E-03    -58.9192E-03    -58.7219E-03     116.742E-03    -58.0212E-03     256.765E-06    -70.4866E+06    -73.0755E+06    -271.628E+06    -71.9116E+06    -271.608E+06    -71.6708E+06     1.67017E+06         28.9859
              25     1.86342E-06     59.4296E-03         3.25535    -14.1645E-03        -2.38962        -1.55144         2.41717    -14.1645E-03         4.00827     116.978E-03    -57.7284E-03    -59.2497E-03    -59.2491E-03     116.977E-03    -57.7284E-03     273.307E-06    -70.2715E+06    -71.7631E+06    -270.192E+06    -71.7648E+06    -270.191E+06    -70.2715E+06    -49.9749E+03         28.9940
              26    -687.746E-09     58.3068E-03         3.51872     62.8834E-03        -2.71981        -1.61285         2.41176     62.8834E-03         4.76014     116.739E-03    -57.9138E-03    -58.8265E-03    -58.5366E-03     116.739E-03    -58.2032E-03     457.380E-06    -68.8916E+06    -69.8625E+06    -267.298E+06    -68.9802E+06    -267.297E+06    -69.7756E+06    -60.8439E+03         28.9912
              27     138.244E-09     57.1836E-03         3.73461     102.386E-03        -2.98918        -1.60402         2.34944     102.386E-03         5.43426     116.529E-03    -57.9874E-03    -58.5407E-03    -58.2513E-03     116.529E-03    -58.2768E-03     20.1865E-06    -69.9537E+06    -71.5549E+06    -268.037E+06    -70.6769E+06    -268.031E+06    -70.8377E+06    -478.131E+03         28.9881
              28     377.146E-09     56.0624E-03         3.98091     114.643E-03        -3.23785        -1.62161         2.36467     114.643E-03         6.01767     116.716E-03    -57.8836E-03    -58.8341E-03    -58.8334E-03     116.715E-03    -57.8836E-03     462.528E-06    -71.4940E+06    -72.3618E+06    -269.277E+06    -72.3734E+06    -269.265E+06    -71.4940E+06     53.9914E+03         28.9895
              29     921.051E-09     54.9380E-03         4.18863     146.740E-03        -3.46594        -1.61715         2.33984     146.740E-03         6.54869     116.811E-03    -58.0085E-03    -58.8028E-03    -58.8013E-03     116.810E-03    -58.0085E-03     1.01104E-03    -70.2312E+06    -71.5644E+06    -266.675E+06    -70.3889E+06    -266.668E+06    -71.4137E+06     1.04508E+06         28.9834
              30    -729.723E-09     53.8152E-03         4.37319     95.3451E-03        -3.59134        -1.62107         2.40292     95.3451E-03         6.87229     115.920E-03    -57.8665E-03    -58.0515E-03    -57.9733E-03     115.919E-03    -57.9437E-03     762.087E-06    -70.7256E+06    -73.6631E+06    -268.373E+06    -72.4896E+06    -268.364E+06    -71.9081E+06     1.16466E+06         28.9674
              31     609.079E-09     52.6961E-03         4.59926    -10.1285E-03        -3.69980        -1.63600         2.53547    -10.1285E-03         7.17317     115.745E-03    -57.5284E-03    -58.2204E-03    -58.1428E-03     115.745E-03    -57.6056E-03    -75.4083E-06    -68.5681E+06    -72.6188E+06    -267.327E+06    -70.3421E+06    -267.308E+06    -70.8639E+06    -133.060E+03         28.9560
              32     523.345E-09     51.5745E-03         4.68894    -5.31066E-03        -3.78406        -1.53255         2.43743    -5.31066E-03         7.48284     116.264E-03    -57.7540E-03    -58.5143E-03    -58.3685E-03     116.264E-03    -57.8995E-03    -353.062E-06    -68.9735E+06    -72.3121E+06    -268.211E+06    -70.0323E+06    -268.195E+06    -71.2693E+06    -1.75373E+06         28.9560
              33    -781.093E-09     50.4513E-03         4.67203     30.1063E-03        -3.81261        -1.47948         2.33890     30.1063E-03         7.57687     116.497E-03    -57.8719E-03    -58.6252E-03    -58.4791E-03     116.496E-03    -58.0174E-03     432.908E-06    -71.5165E+06    -73.4830E+06    -271.223E+06    -72.5797E+06    -271.203E+06    -72.4401E+06     512.567E+03         28.9611
              34     1.91350E-06     49.3267E-03         4.64672    -55.2683E-03        -3.67685        -1.46548         2.43535    -55.2683E-03         7.35114     116.464E-03    -57.6423E-03    -58.8178E-03    -58.8150E-03     116.461E-03    -57.6423E-03     1.35423E-03    -69.1078E+06    -72.2250E+06    -270.012E+06    -71.3226E+06    -269.991E+06    -70.0315E+06     2.00727E+06         28.9651
              35    -815.200E-09     48.2072E-03         4.49950    -92.0023E-03        -3.48020        -1.36188         2.38118    -92.0023E-03         7.04559     116.201E-03    -57.7029E-03    -58.4976E-03    -58.2683E-03     116.199E-03    -57.9300E-03     768.222E-06    -65.5276E+06    -69.4723E+06    -266.335E+06    -67.7311E+06    -266.325E+06    -67.2788E+06     154.521E+03         28.9691
              36     361.036E-09     47.0851E-03         4.27614    -80.4464E-03        -3.27740        -1.27270         2.27145    -80.4464E-03         6.66856     116.351E-03    -57.7636E-03    -58.5900E-03    -58.3627E-03     116.351E-03    -57.9907E-03    -390.446E-06    -67.2311E+06    -69.5669E+06    -266.282E+06    -67.8229E+06    -266.275E+06    -68.9822E+06    -1.18484E+06         28.9722
              37     778.916E-09     45.9628E-03         3.99199    -142.761E-03        -2.91214        -1.22244         2.30229    -142.761E-03         5.93372     116.284E-03    -57.7918E-03    -58.4962E-03    -58.4960E-03     116.284E-03    -57.7918E-03    -296.321E-06    -68.8768E+06    -70.2723E+06    -268.982E+06    -69.4674E+06    -268.976E+06    -69.6876E+06    -1.08703E+06         28.9658
              38    -589.790E-09     44.8407E-03         3.69410    -236.328E-03        -2.51727        -1.09346         2.27029    -236.328E-03         5.22144     115.731E-03    -57.7086E-03    -58.0251E-03    -57.8135E-03     115.731E-03    -57.9201E-03    -180.878E-06    -70.0472E+06    -71.6298E+06    -271.440E+06    -70.0563E+06    -271.431E+06    -71.6298E+06    -1.32231E+06         28.9558
              39     181.908E-09     43.7196E-03         3.44304    -317.032E-03        -2.16608    -995.924E-03         2.27288    -317.032E-03         4.55177     116.304E-03    -57.6750E-03    -58.6315E-03    -58.4198E-03     116.304E-03    -57.8865E-03    -26.8109E-06     -69.586E+06    -71.6653E+06    -271.284E+06    -70.9012E+06    -271.276E+06    -70.3577E+06    -1.15600E+06         28.9583
              40     1.24322E-06     42.5970E-03         3.12845    -387.267E-03        -1.77089    -969.138E-03         2.32670    -387.267E-03         3.60368     116.984E-03    -58.0241E-03    -58.9614E-03    -58.9603E-03     116.983E-03    -58.0241E-03     736.597E-06    -70.1655E+06    -72.2957E+06    -271.342E+06    -71.4875E+06    -271.327E+06    -70.9881E+06     791.210E+03         28.9666
              41    -888.512E-09     41.4707E-03         2.62577    -461.818E-03        -1.19279    -775.494E-03         2.20847    -461.818E-03         2.36052     116.354E-03    -57.9800E-03    -58.3742E-03    -58.3724E-03     116.352E-03    -57.9800E-03     1.13132E-03    -71.4311E+06    -72.7528E+06    -272.560E+06    -71.9473E+06    -272.543E+06    -72.2537E+06     1.77520E+06         28.9685
              42     1.27127E-06     40.3536E-03         2.30466    -540.116E-03    -784.131E-03    -542.201E-03         2.12137    -598.757E-03         1.42251     116.001E-03    -57.7722E-03    -58.2308E-03    -58.2299E-03     116.000E-03    -57.7722E-03     379.105E-06    -70.6892E+06    -71.7358E+06    -271.258E+06    -71.2075E+06    -271.239E+06    -71.2367E+06    -609.725E+03         28.9694
              43    -793.101E-09     39.2298E-03         2.24805    -541.582E-03    -728.595E-03    -484.527E-03         2.19100    -728.595E-03     534.330E-03     116.261E-03    -57.9218E-03    -58.3401E-03    -58.3397E-03     116.260E-03    -57.9218E-03     182.109E-06    -70.6906E+06    -71.4264E+06    -268.354E+06    -70.7260E+06    -268.318E+06    -71.4264E+06     165.068E+03         28.9746
              44     1.09458E-06     38.1073E-03         2.24551    -474.424E-03    -795.241E-03    -380.265E-03         2.15135    -795.241E-03    -713.899E-03     116.658E-03    -58.0345E-03    -58.6248E-03    -58.6244E-03     116.658E-03    -58.0345E-03     298.733E-06    -70.8572E+06    -71.0719E+06    -268.353E+06    -70.9117E+06    -268.325E+06    -71.0455E+06     504.526E+03         28.9807
              45    -281.145E-09     36.9863E-03         2.49755    -561.718E-03    -938.758E-03    -184.618E-03         2.12045    -938.758E-03        -1.95677     116.833E-03    -58.0677E-03    -58.7693E-03    -58.4960E-03     116.833E-03    -58.3408E-03     211.983E-06    -69.5470E+06    -69.5902E+06    -269.086E+06    -69.6008E+06    -269.075E+06    -69.5470E+06    -1.40323E+06         28.9804
              46    -232.589E-09     35.8606E-03         2.87727    -810.210E-03        -1.05515    -73.5167E-03         2.14058        -1.05515        -2.93476     116.483E-03    -57.7339E-03    -58.7548E-03    -58.4808E-03     116.482E-03    -58.0071E-03     758.574E-06    -70.6926E+06    -71.2312E+06    -271.346E+06    -71.2379E+06    -271.339E+06    -70.6926E+06     141.144E+03         28.9742
              47     1.65438E-06     34.7391E-03         3.27041        -1.04171        -1.21321     42.0148E-03         2.07553        -1.10206        -3.90998     116.069E-03    -57.4355E-03    -58.6417E-03    -58.6406E-03     116.068E-03    -57.4355E-03     891.297E-06    -73.0213E+06    -73.7535E+06    -272.130E+06    -73.5600E+06    -272.113E+06    -73.2317E+06     1.76603E+06         28.9724
              48    -789.959E-09     33.6206E-03         3.77531        -1.22162        -1.52636     121.722E-03         2.12723        -1.22162        -4.90719     116.413E-03    -57.9267E-03    -58.4919E-03    -58.4902E-03     116.411E-03    -57.9267E-03    -289.095E-06    -70.5638E+06    -71.2239E+06    -267.734E+06    -71.0395E+06    -267.708E+06    -70.7743E+06    -25.4084E+03         28.9765
              49     986.191E-09     32.4959E-03         4.19570        -1.38909        -1.76294     164.115E-03         2.26865        -1.38909        -5.57398     117.080E-03    -58.2752E-03    -58.8071E-03    -58.8052E-03     117.078E-03    -58.2752E-03    -217.201E-06    -70.9112E+06    -71.4046E+06    -268.437E+06    -71.3750E+06    -268.423E+06    -70.9550E+06    -1.41982E+06         28.9771
              50    -186.786E-09     31.3714E-03         4.39946        -1.39199        -1.97112     287.262E-03         2.14108        -1.39199        -6.08642     116.703E-03    -58.1365E-03    -58.5709E-03    -58.5686E-03     116.701E-03    -58.1365E-03     1.23447E-03    -72.8229E+06    -73.6693E+06    -272.156E+06    -72.8357E+06    -272.144E+06    -73.6693E+06     819.497E+03         28.9698
              51     181.031E-09     30.2486E-03         4.55757        -1.32927        -2.19618     374.456E-03         1.98693        -1.32927        -6.55832     115.876E-03    -57.6876E-03    -58.1908E-03    -58.1890E-03     115.874E-03    -57.6876E-03     873.372E-06    -68.9839E+06    -70.7315E+06    -269.433E+06    -69.9447E+06    -269.417E+06    -69.7865E+06     1.71779E+06         28.9628
              52     769.588E-09     29.1313E-03         4.80387        -1.49982        -2.25357     373.296E-03         2.17700        -1.49982        -6.82123     115.932E-03    -57.7075E-03    -58.2246E-03    -58.2244E-03     115.932E-03    -57.7075E-03     320.248E-06    -66.5165E+06    -68.3306E+06    -266.055E+06    -67.4726E+06    -266.044E+06    -67.3856E+06    -229.638E+03         28.9630
              53    -742.952E-09     28.0062E-03         4.95091        -1.60586        -2.28930     324.559E-03         2.33706        -1.60586        -6.95489     116.344E-03    -58.1190E-03    -58.2253E-03    -58.2248E-03     116.343E-03    -58.1190E-03    -146.798E-06    -68.2931E+06    -69.6781E+06    -267.782E+06    -68.8173E+06    -267.774E+06    -69.1622E+06    -1.17657E+06         28.9667
              54     906.653E-09     26.8856E-03         4.91847        -1.56956        -2.27243     337.303E-03         2.30874        -1.56956        -6.91528     116.507E-03    -57.8042E-03    -58.7021E-03    -58.7016E-03     116.506E-03    -57.8042E-03    -624.333E-06    -71.2338E+06    -72.4077E+06    -270.536E+06    -71.7578E+06    -270.527E+06    -71.8919E+06     -1.1662E+06         28.9654
              55     626.659E-09     25.7638E-03         4.82884        -1.54653        -2.19234     411.031E-03         2.22547        -1.54653        -6.78223     116.194E-03    -57.5622E-03    -58.6328E-03    -58.3769E-03     116.193E-03    -57.8179E-03    -413.560E-06    -72.3212E+06    -74.2497E+06    -271.019E+06    -73.5993E+06    -271.011E+06    -72.9793E+06    -1.08592E+06         28.9552
              56    -1.09597E-06     24.6402E-03         4.66849        -1.49749        -2.08085     386.582E-03         2.20106        -1.49749        -6.49905     115.982E-03    -57.5116E-03    -58.4749E-03    -58.2188E-03     115.981E-03    -57.7673E-03     188.472E-06    -71.8260E+06    -74.2762E+06    -270.282E+06    -73.0975E+06    -270.281E+06    -73.0058E+06    -9.56473E+03         28.9398
              57     2.41357E-06     23.5192E-03         4.62633        -1.59816        -1.90630     264.272E-03         2.45575        -1.59816        -6.14657     115.786E-03    -57.3797E-03    -58.4086E-03    -58.4078E-03     115.785E-03    -57.3797E-03    -32.4281E-06    -69.3704E+06    -72.6056E+06    -269.814E+06    -71.4269E+06    -269.813E+06    -70.5503E+06     4.41489E+03         28.9159
              58    -1.77942E-06     22.3987E-03         4.46643        -1.60514        -1.74763     180.635E-03         2.53817        -1.60514        -5.74948     114.953E-03    -57.1599E-03    -57.7935E-03    -57.4800E-03     114.952E-03    -57.4723E-03     140.038E-06    -69.6128E+06    -74.4813E+06    -272.941E+06    -71.6697E+06    -272.939E+06    -72.4259E+06    -550.189E+03         28.8780
              59     1.14623E-06     21.2765E-03         4.05768        -1.42873        -1.54164     171.882E-03         2.34416        -1.42873        -5.16050     114.852E-03    -56.8963E-03    -57.9552E-03    -57.6411E-03     114.850E-03    -57.2087E-03     1.07986E-03    -72.6199E+06    -76.6196E+06    -272.567E+06    -73.8414E+06    -272.532E+06    -75.4329E+06     1.48813E+06         28.8302
              60     282.698E-09     20.1559E-03         3.84880        -1.32265        -1.41344     22.4053E-03         2.46787        -1.37756        -4.57652     113.904E-03    -56.5067E-03    -57.3983E-03    -57.3969E-03     113.903E-03    -56.5067E-03     135.507E-06    -71.6184E+06    -73.0847E+06    -267.405E+06    -73.1190E+06    -267.370E+06    -71.6184E+06     1.59684E+06         28.7566
              61    -6.97466E-09     19.0400E-03         3.66165        -1.17320        -1.35831    -159.908E-03         2.64836        -1.35831        -3.92930     112.246E-03    -55.8581E-03    -56.3910E-03    -56.3905E-03     112.245E-03    -55.8581E-03    -513.758E-06    -73.7218E+06    -74.3869E+06    -269.051E+06    -74.3874E+06    -269.050E+06    -73.7218E+06    -177.903E+03         28.6345
              62     744.303E-09     17.9214E-03         3.37361    -979.925E-03        -1.25814    -241.583E-03         2.63527        -1.25814        -3.25824     110.799E-03    -55.0779E-03    -55.7217E-03    -55.7211E-03     110.799E-03    -55.0779E-03    -518.513E-06    -72.1804E+06    -72.9819E+06    -269.556E+06    -72.5743E+06    -269.547E+06    -72.5964E+06    -883.965E+03         28.4529
              63    -269.981E-09     16.8068E-03         3.12529    -861.394E-03        -1.15903    -376.295E-03         2.64019        -1.15903        -2.58603     107.577E-03    -53.5948E-03    -53.9786E-03    -53.9747E-03     107.573E-03    -53.5948E-03    -1.45089E-03    -71.1682E+06    -71.8141E+06    -268.999E+06    -71.2027E+06    -268.964E+06    -71.8141E+06     681.812E+03         28.1841
              64     495.778E-09     15.6986E-03         2.94860    -756.320E-03        -1.07256    -486.462E-03         2.67875        -1.07256        -1.89899     103.046E-03    -51.4487E-03    -51.5931E-03    -51.5847E-03     103.038E-03    -51.4487E-03    -2.25710E-03    -71.7726E+06    -72.3829E+06    -268.410E+06      -71.82E+06    -268.363E+06    -72.3829E+06     150.785E+03         27.7995
              65    -491.373E-09     14.5922E-03         2.88247    -715.393E-03        -1.02390    -583.274E-03         2.75035        -1.02390        -1.32901     96.6669E-03    -48.2386E-03    -48.4259E-03    -48.4132E-03     96.6543E-03    -48.2386E-03    -2.69087E-03    -71.1580E+06    -73.4399E+06    -265.069E+06    -71.1829E+06    -265.044E+06    -73.4399E+06    -860.418E+03         27.2912
              66     774.961E-09     13.4959E-03         2.96921    -776.232E-03        -1.06228    -721.741E-03         2.91472        -1.06228    -849.689E-03     88.2443E-03    -43.8709E-03    -44.3733E-03    -44.3541E-03     88.2251E-03    -43.8709E-03    -3.16720E-03    -69.7634E+06    -72.3781E+06    -259.427E+06    -70.5453E+06    -259.358E+06     -71.665E+06     3.05936E+06         26.6759
              67    -157.410E-09     12.4121E-03         2.94550    -792.185E-03        -1.00948    -773.058E-03         2.92638        -1.00948    -531.158E-03     79.3408E-03    -39.3500E-03    -39.9938E-03    -39.9680E-03     79.3149E-03    -39.3500E-03    -3.50195E-03    -60.0779E+06    -62.3167E+06    -249.833E+06    -62.3907E+06    -249.759E+06    -60.0779E+06     3.38338E+06         26.0394
              68     746.992E-09     11.3324E-03         2.81851    -772.728E-03    -892.196E-03    -761.765E-03         2.80755    -892.196E-03    -389.274E-03     69.9176E-03    -34.7621E-03    -35.1579E-03    -35.1348E-03     69.8944E-03    -34.7621E-03    -3.11065E-03    -52.1510E+06    -55.1761E+06    -242.089E+06    -53.6963E+06    -242.069E+06    -53.6504E+06     1.91751E+06         25.5675
              69    -626.323E-09     10.2684E-03         2.92285    -833.820E-03    -939.573E-03    -829.300E-03         2.91833    -939.573E-03    -248.659E-03     60.9019E-03    -30.3587E-03    -30.5429E-03    -30.5116E-03     60.8706E-03    -30.3587E-03    -3.27275E-03    -49.7315E+06    -52.0795E+06    -239.744E+06    -50.6345E+06    -239.690E+06    -51.2309E+06     3.03793E+06         25.4294
              70     786.365E-09     9.21090E-03         3.08512    -897.103E-03    -999.505E-03    -896.033E-03         3.08405    -999.505E-03    -89.9067E-03     55.0620E-03    -27.3581E-03    -27.7017E-03    -27.6714E-03     55.0317E-03    -27.3581E-03    -3.08574E-03    -43.6383E+06    -46.2587E+06    -236.386E+06    -46.3105E+06    -236.334E+06    -43.6383E+06     1.15300E+06         25.6685
              71    -316.586E-09     8.15908E-03         3.01678    -883.908E-03    -946.677E-03    -902.849E-03         3.01593    -926.888E-03    -78.5440E-03     55.0396E-03    -27.3513E-03    -27.6869E-03    -27.6748E-03     55.0275E-03    -27.3513E-03    -1.96825E-03    -37.1534E+06    -41.2369E+06    -233.803E+06    -38.9337E+06    -233.794E+06    -39.4652E+06    -655.496E+03         26.2782
              72     451.989E-09     7.10307E-03         2.98535    -846.143E-03    -979.803E-03    -865.053E-03         2.98447    -960.014E-03    -96.0352E-03     63.6877E-03    -31.7375E-03    -31.9500E-03    -31.9421E-03     63.6798E-03    -31.7375E-03     61.4567E-06    -38.2321E+06    -44.8890E+06    -237.310E+06    -42.5838E+06    -237.303E+06    -40.5439E+06    -541.092E+03         27.2783
              73    -158.309E-09     6.03111E-03         3.10527    -842.475E-03        -1.08928    -842.426E-03         3.10522        -1.08928    -3.90241E-03     84.1852E-03    -41.9088E-03    -42.2762E-03    -42.2501E-03     84.1592E-03    -41.9088E-03     3.45140E-03    -47.7311E+06    -54.1495E+06    -245.754E+06    -52.1809E+06    -245.649E+06    -49.8045E+06    -3.87466E+06         28.7194
              74     612.128E-09     4.93086E-03         3.18122    -919.559E-03        -1.09110    -918.506E-03         3.18017        -1.09110     104.879E-03     118.632E-03    -59.1452E-03    -59.4794E-03    -59.3043E-03     118.543E-03    -59.2319E-03     7.81625E-03    -55.8045E+06    -59.2566E+06    -252.230E+06    -55.9293E+06    -252.105E+06    -59.2566E+06    -1.50464E+06         30.6904
              75    -807.731E-09     3.78108E-03         3.19549    -950.485E-03        -1.04662    -948.775E-03         3.19378        -1.04662     18.8681E-03     164.638E-03    -82.2609E-03    -82.3696E-03    -82.1733E-03     164.529E-03    -82.3476E-03     10.2340E-03    -55.5423E+06    -57.2560E+06    -253.500E+06    -55.9060E+06    -253.471E+06    -56.9210E+06     1.10503E+06         33.3818
              76     867.970E-09     2.57641E-03         3.18867    -935.198E-03        -1.07405    -931.769E-03         3.18524        -1.07405     76.7936E-03     213.798E-03    -106.736E-03    -107.054E-03    -106.978E-03     213.721E-03    -106.736E-03     9.84274E-03    -59.1168E+06    -60.0403E+06    -258.047E+06    -59.4695E+06    -258.030E+06    -59.7053E+06    -1.72838E+06         36.5545
              77    -364.497E-09     1.30430E-03         3.11536    -928.263E-03        -1.03147    -946.922E-03         3.11213        -1.00958     89.4655E-03     251.379E-03    -125.300E-03    -126.072E-03    -126.038E-03     251.345E-03    -125.300E-03     5.74362E-03    -65.5294E+06    -66.5152E+06    -264.167E+06    -65.9709E+06    -264.123E+06    -66.1179E+06     466.751E+03         39.3889
              78     873.988E-06     100.583E-09         3.06824    -930.179E-03    -973.147E-03    -972.042E-03         3.06714    -930.179E-03    -133.350E-03     262.283E-03    -130.223E-03    -132.048E-03    -130.684E-03     262.269E-03    -131.573E-03     4.05122E-03    -63.4119E+06    -67.0669E+06    -264.106E+06    -67.1000E+06    -264.072E+06    -63.4119E+06     1.05825E+06         40.4804
              79     1.74951E-03     100.583E-09         3.12908    -958.615E-03    -991.150E-03    -990.476E-03         3.12840    -958.615E-03    -52.0279E-03     254.759E-03    -124.838E-03    -129.887E-03    -124.779E-03     254.700E-03    -129.887E-03     9.03871E-03    -60.2374E+06    -63.9676E+06    -261.179E+06    -63.5333E+06    -261.141E+06    -60.7100E+06    -2.48048E+06         40.0859
              80     2.63362E-03     100.583E-09         3.16223    -971.222E-03    -999.218E-03    -999.171E-03         3.16218    -971.222E-03     21.8357E-03     243.324E-03    -116.413E-03    -126.879E-03    -116.293E-03     243.204E-03    -126.879E-03     13.0224E-03    -60.0992E+06    -61.6777E+06    -260.519E+06    -61.2481E+06    -260.476E+06    -60.5717E+06    -906.174E+03         39.4145
              81     3.52606E-03     100.583E-09         3.15064    -969.996E-03    -993.703E-03    -986.529E-03         3.15064    -977.167E-03    -1.80523E-03     229.290E-03    -106.265E-03    -122.987E-03    -106.088E-03     229.114E-03    -122.987E-03     15.3009E-03    -58.2717E+06    -61.0530E+06    -259.894E+06    -59.4876E+06    -259.785E+06    -59.9470E+06    -2.25450E+06         38.5175
              82     4.43092E-03     100.583E-09         3.11570    -951.620E-03    -975.893E-03    -951.606E-03         3.11568    -975.893E-03    -13.7068E-03     214.692E-03    -96.0674E-03    -118.558E-03    -95.8243E-03     214.448E-03    -118.558E-03     17.2946E-03    -55.4731E+06    -60.0301E+06    -257.698E+06    -55.5743E+06    -257.596E+06    -60.0301E+06    -3.27813E+06         37.5125
              83     5.34188E-03     100.583E-09         3.10602    -948.656E-03    -971.406E-03    -948.506E-03         3.10587    -971.406E-03    -43.2010E-03     200.051E-03    -86.0770E-03    -113.874E-03    -85.7558E-03     199.730E-03    -113.874E-03     19.0919E-03    -51.0561E+06    -63.7731E+06    -256.766E+06    -51.3659E+06    -256.456E+06    -63.7731E+06    -5.76400E+06         36.5020
              84     6.26427E-03     100.583E-09         3.10044    -952.435E-03    -968.168E-03    -952.068E-03         3.10007    -968.168E-03    -76.4363E-03     185.134E-03    -76.0788E-03    -108.988E-03    -75.7164E-03     184.771E-03    -108.988E-03     19.4402E-03    -45.2313E+06    -77.8230E+06    -246.852E+06    -45.6871E+06    -246.397E+06    -77.8230E+06    -9.44287E+06         35.5976
              85     7.19826E-03     100.583E-09         3.08600    -939.019E-03    -965.201E-03    -938.599E-03         3.08558    -965.201E-03    -3.84155E-03     172.390E-03    -68.3420E-03    -104.113E-03    -67.9680E-03     172.016E-03    -104.113E-03     18.9527E-03    -36.5132E+06    -93.8194E+06    -216.717E+06    -37.2079E+06    -216.022E+06    -93.8194E+06    -10.4900E+06         34.9449
              86     8.13593E-03     100.583E-09         3.07555    -917.823E-03    -960.989E-03    -917.510E-03         3.07524    -960.989E-03     70.2499E-03     162.247E-03    -62.8511E-03    -99.5298E-03    -62.4521E-03     161.848E-03    -99.5298E-03     18.9242E-03    -27.1932E+06    -105.537E+06    -171.488E+06    -27.9472E+06    -170.734E+06    -105.537E+06    -10.2675E+06         34.6817
              87     9.07617E-03     100.583E-09         3.05949    -894.408E-03    -955.347E-03    -894.285E-03         3.05937    -955.347E-03     34.5085E-03     151.973E-03    -56.8005E-03    -95.3002E-03    -56.3627E-03     151.535E-03    -95.3002E-03     19.0776E-03    -18.1039E+06    -101.935E+06    -127.931E+06    -19.9751E+06    -117.590E+06    -110.405E+06    -11.5375E+06         34.8910
              88     10.0268E-03     100.583E-09         3.04821    -883.391E-03    -949.065E-03    -883.275E-03         3.04810    -949.065E-03    -26.5947E-03     142.361E-03    -51.1159E-03    -91.2670E-03    -50.4997E-03     141.745E-03    -91.2670E-03     21.5790E-03    -7.80444E+06    -52.8497E+06    -108.524E+06    -12.0339E+06    -48.6203E+06    -108.524E+06    -10.4983E+06         35.5956
              89     10.9753E-03     100.583E-09         3.04178    -866.213E-03    -942.610E-03    -866.017E-03         3.04159    -942.610E-03    -55.0571E-03     134.942E-03    -47.3711E-03    -87.5227E-03    -46.5960E-03     134.167E-03    -87.5227E-03     23.7213E-03     32.4740E+06    -8.70926E+06    -91.1068E+06    -5.96782E+06     29.7325E+06    -91.1068E+06    -5.76830E+06         36.7861
              90     11.9361E-03     100.583E-09         3.02961    -844.838E-03    -935.631E-03    -844.713E-03         3.02948    -935.631E-03    -43.6091E-03     129.554E-03    -45.2425E-03    -84.3905E-03    -44.3503E-03     128.662E-03    -84.3905E-03     24.8484E-03     90.7485E+06    -4.97371E+06    -40.3615E+06    -4.82298E+06     90.4030E+06    -40.1667E+06    -1.56568E+06         38.4307
              91     12.8877E-03     100.583E-09         3.01587    -822.961E-03    -928.096E-03    -822.672E-03         3.01558    -928.096E-03    -61.7564E-03     129.471E-03    -47.7170E-03    -81.8796E-03    -46.4138E-03     128.167E-03    -81.8796E-03     30.1224E-03     120.749E+06     22.7853E+06    -5.18152E+06    -5.12401E+06     120.692E+06     22.7853E+06     2.47654E+06         40.4621
              92     13.8431E-03     100.583E-09         3.02715    -811.118E-03    -920.464E-03    -810.862E-03         3.02690    -920.464E-03    -52.3009E-03     135.749E-03    -55.9358E-03    -79.9293E-03    -52.7112E-03     132.524E-03    -79.9293E-03     47.8532E-03     136.420E+06     76.7163E+06    -1.70751E+06    -1.45485E+06     136.168E+06     76.7163E+06     4.95571E+06         42.7912
              93     14.7555E-03     100.583E-09         3.07134    -804.638E-03    -913.244E-03    -804.245E-03         3.07095    -913.244E-03    -63.6383E-03     140.041E-03    -61.7688E-03    -78.5681E-03    -56.3259E-03     134.598E-03    -78.5681E-03     65.2883E-03     140.790E+06     118.777E+06     1.66051E+06     3.57210E+06     138.878E+06     118.777E+06    -6.27591E+06         45.2879
              94     15.7206E-03     100.583E-09         3.25552    -850.776E-03    -934.177E-03    -872.809E-03         3.25234    -908.968E-03     101.644E-03     204.429E-03    -71.0271E-03    -133.573E-03    -106.730E-03     185.350E-03    -78.7914E-03     151.392E-03     136.580E+06     134.266E+06     3.06701E+06     7.39919E+06     132.248E+06     134.266E+06     2.56834E+06         47.6037
              95     16.6914E-03     1.40927E-03         3.24552    -914.281E-03    -944.690E-03    -933.273E-03         3.23410    -914.281E-03     418.534E-03     232.602E-03    -76.7871E-03    -155.707E-03    -117.041E-03     193.936E-03    -76.7871E-03     228.147E-03     129.912E+06     122.747E+06    -13.0459E+06    -10.3818E+06     127.248E+06     122.747E+06     13.0271E+06         48.6913
              96     16.7636E-03     2.49104E-03         3.00978    -875.691E-03    -928.450E-03    -867.768E-03         2.99666    -923.249E-03     446.422E-03     178.342E-03    -71.7220E-03    -106.630E-03    -73.2623E-03     144.975E-03    -71.7220E-03     181.515E-03     137.502E+06     127.508E+06    -6.69642E+06    -6.48398E+06     137.290E+06     127.508E+06     3.78692E+06         49.0080
              97     16.8441E-03     3.61190E-03         2.91037    -827.092E-03    -925.756E-03    -819.511E-03         2.90279    -925.756E-03     334.980E-03     158.775E-03    -67.0681E-03    -91.8945E-03    -78.5851E-03     145.466E-03    -67.0681E-03     105.647E-03     148.330E+06     136.325E+06     4.70158E+06     5.32771E+06     147.704E+06     136.325E+06     9.37682E+06         49.6750
              98     16.8981E-03     4.76243E-03         2.84715    -805.370E-03    -922.821E-03    -800.239E-03         2.84202    -922.821E-03     272.372E-03     160.401E-03    -63.1271E-03    -97.4007E-03    -93.9181E-03     156.918E-03    -63.1271E-03     57.5332E-03     142.938E+06     128.150E+06    -3.98556E+06    -3.47932E+06     142.432E+06     128.150E+06     8.15354E+06         50.4590
              99     16.9405E-03     5.95423E-03         2.77885    -763.473E-03    -915.602E-03    -760.320E-03         2.77569    -915.602E-03     209.088E-03     162.042E-03    -60.5153E-03    -101.573E-03    -99.6643E-03     160.134E-03    -60.5153E-03     44.6959E-03     140.186E+06     126.569E+06    -3.16799E+06    -2.97842E+06     139.997E+06     126.569E+06     5.20956E+06         51.2003
             100     16.9681E-03     7.13605E-03         2.75243    -761.560E-03    -905.756E-03    -760.091E-03         2.75096    -905.756E-03     138.519E-03     159.356E-03    -58.8641E-03    -100.592E-03    -98.5746E-03     157.338E-03    -58.8641E-03     45.6124E-03     140.428E+06     126.125E+06    -4.96385E+06    -4.85213E+06     140.316E+06     126.125E+06     3.68535E+06         51.8559
             101     16.9830E-03     8.31599E-03         2.75526    -782.075E-03    -894.141E-03    -781.449E-03         2.75464    -894.141E-03     93.7571E-03     155.331E-03    -57.9626E-03    -97.4645E-03    -95.2440E-03     153.111E-03    -57.9626E-03     47.1357E-03     141.432E+06     125.331E+06    -4.08370E+06    -4.03895E+06     141.387E+06     125.331E+06     2.51193E+06         52.4325
             102     16.9910E-03     9.48946E-03         2.74505    -776.741E-03    -879.444E-03    -776.432E-03         2.74474    -879.444E-03     61.2954E-03     149.921E-03    -57.6152E-03    -92.4367E-03    -89.7395E-03     147.224E-03    -57.6152E-03     50.7068E-03     141.595E+06     125.133E+06    -4.51423E+06    -4.48418E+06     141.565E+06     125.133E+06     1.45663E+06         52.9376
             103     16.9936E-03     10.6453E-03         2.74408    -774.840E-03    -862.273E-03    -774.790E-03         2.74403    -862.273E-03     15.2560E-03     145.170E-03    -57.5376E-03    -87.8005E-03    -84.7795E-03     142.149E-03    -57.5376E-03     52.7122E-03     142.393E+06     126.766E+06    -3.77993E+06    -3.77597E+06     142.389E+06     126.766E+06     516.447E+03         53.3859
             104     16.9959E-03     11.8010E-03         2.74040    -774.555E-03    -844.757E-03    -774.505E-03         2.74035    -844.757E-03     15.3243E-03     140.437E-03    -57.5965E-03    -82.9579E-03    -79.4519E-03     136.930E-03    -57.5965E-03     55.3303E-03     142.686E+06     127.302E+06    -3.30825E+06    -3.30367E+06     142.682E+06     127.302E+06     750.101E+03         53.7882
             105     16.9955E-03     12.9521E-03         2.71343    -764.618E-03    -827.423E-03    -764.529E-03         2.71334    -827.423E-03     35.1700E-03     134.030E-03    -57.7672E-03    -76.2985E-03    -72.0977E-03     129.829E-03    -57.7672E-03     58.8005E-03     143.008E+06     127.539E+06    -1.91134E+06    -1.91000E+06     143.007E+06     127.539E+06    -13.8152E+03         54.1496
             106     16.9964E-03     14.0821E-03         2.68181    -750.369E-03    -809.627E-03    -750.328E-03         2.68177    -809.627E-03     15.1310E-03     128.528E-03    -57.9212E-03    -70.5600E-03    -65.8943E-03     123.862E-03    -57.9212E-03     60.1912E-03     142.438E+06     127.195E+06    -1.53807E+06    -1.53538E+06     142.435E+06     127.195E+06    -604.647E+03         54.4770
             107     16.9967E-03     15.2142E-03         2.68475    -762.310E-03    -791.103E-03    -762.294E-03         2.68473    -791.103E-03     8.81009E-03     125.461E-03    -57.9943E-03    -67.3996E-03    -62.5299E-03     120.592E-03    -57.9943E-03     60.5127E-03     143.516E+06     127.244E+06    -2.66728E+06    -2.65738E+06     143.506E+06     127.244E+06     387.969E+03         54.7715
             108     16.9968E-03     16.3461E-03         2.66689    -771.610E-03    -779.236E-03    -778.517E-03         2.66669    -772.135E-03     45.3093E-03     123.049E-03    -58.0552E-03    -64.9898E-03    -59.7352E-03     117.794E-03    -58.0552E-03     61.9042E-03     144.732E+06     127.138E+06    -3.27327E+06    -3.25843E+06     144.717E+06     127.138E+06     49.5543E+03         55.0283
             109     16.9972E-03     17.4654E-03         2.62880    -753.289E-03    -769.707E-03    -769.523E-03         2.62862    -753.289E-03     29.2608E-03     121.961E-03    -58.0981E-03    -63.8801E-03    -58.0163E-03     116.098E-03    -58.0981E-03     64.9659E-03     145.593E+06     127.443E+06    -3.60305E+06    -3.58382E+06     145.573E+06     127.443E+06     245.680E+03         55.2462
             110     16.9973E-03     18.6004E-03         2.61342    -735.785E-03    -763.214E-03    -763.134E-03         2.61335    -735.785E-03    -28.0865E-03     121.615E-03    -58.1350E-03    -63.4986E-03    -56.9316E-03     115.049E-03    -58.1350E-03     68.4145E-03     145.840E+06     127.222E+06    -3.67994E+06    -3.66745E+06     145.828E+06     127.222E+06     1.07517E+06         55.4252
             111     16.9968E-03     19.7166E-03         2.59894    -719.505E-03    -761.779E-03    -761.601E-03         2.59876    -719.505E-03     3.97599E-03     120.767E-03    -58.1386E-03    -62.6729E-03    -56.6001E-03     114.694E-03    -58.1386E-03     65.3949E-03     146.868E+06     126.941E+06    -5.46063E+06    -5.45761E+06     146.865E+06     126.941E+06     584.362E+03         55.5694
             112     16.9979E-03     20.8300E-03         2.57549    -703.325E-03    -763.862E-03    -763.741E-03         2.57537    -703.325E-03     37.0658E-03     121.048E-03    -58.0822E-03    -63.0108E-03    -58.1521E-03     116.189E-03    -58.0822E-03     58.9993E-03     147.257E+06     127.833E+06    -4.65667E+06    -4.63807E+06     147.238E+06     127.833E+06    -609.210E+03         55.6853
             113     16.9969E-03     21.9686E-03         2.53116    -688.649E-03    -751.575E-03    -751.515E-03         2.53110    -688.649E-03    -5.95360E-03     121.575E-03    -58.1151E-03    -63.5179E-03    -57.7834E-03     115.841E-03    -58.1151E-03     63.8430E-03     146.470E+06     128.089E+06    -2.16677E+06    -2.14059E+06     146.444E+06     128.089E+06    -197.674E+03         55.7734
             114     16.9968E-03     23.0942E-03         2.50485    -676.026E-03    -738.667E-03    -738.622E-03         2.50480    -676.026E-03    -12.1353E-03     119.893E-03    -58.2089E-03    -61.6834E-03    -55.1163E-03     113.326E-03    -58.2089E-03     67.8005E-03     145.395E+06     127.895E+06    -2.49210E+06    -2.45725E+06     145.360E+06     127.895E+06    -455.749E+03         55.8406
             115     16.9976E-03     24.2013E-03         2.50743    -663.823E-03    -757.491E-03    -757.466E-03         2.50740    -663.823E-03     16.3393E-03     118.807E-03    -58.1793E-03    -60.6318E-03    -54.9929E-03     113.169E-03    -58.1793E-03     62.4679E-03     142.780E+06     125.825E+06    -5.36075E+06    -5.33466E+06     142.754E+06     125.825E+06    -983.243E+03         55.8981
             116     16.9982E-03     25.3286E-03         2.48212    -652.898E-03    -751.116E-03    -751.090E-03         2.48210    -652.898E-03     17.1566E-03     119.643E-03    -58.1186E-03    -61.5253E-03    -56.1928E-03     114.310E-03    -58.1186E-03     61.2008E-03     141.616E+06     126.245E+06    -4.35660E+06    -4.34403E+06     141.603E+06     126.245E+06    -525.655E+03         55.9463
             117     16.9978E-03     26.4562E-03         2.45213    -643.901E-03    -728.377E-03    -728.284E-03         2.45203    -643.901E-03     29.0006E-03     120.668E-03    -58.1250E-03    -62.5501E-03    -56.0906E-03     114.209E-03    -58.1250E-03     67.4785E-03     142.879E+06     128.289E+06    -3.17243E+06    -3.15354E+06      142.86E+06     128.289E+06    -106.479E+03         55.9844
             118     16.9979E-03     27.5793E-03         2.44559    -635.529E-03    -742.282E-03    -742.155E-03         2.44546    -635.529E-03     39.4656E-03     121.082E-03    -58.1484E-03    -62.9607E-03    -55.8888E-03     114.010E-03    -58.1484E-03     70.7516E-03     144.431E+06     130.222E+06    -2.67561E+06    -2.66761E+06     144.423E+06     130.222E+06     776.424E+03         56.0159
             119     16.9971E-03     28.7013E-03         2.43567    -628.961E-03    -740.112E-03    -740.058E-03         2.43562    -628.961E-03     25.4155E-03     120.845E-03    -58.1563E-03    -62.7032E-03    -55.8761E-03     114.018E-03    -58.1563E-03     69.4661E-03     144.438E+06     129.607E+06    -3.86305E+06    -3.82515E+06     144.400E+06     129.607E+06     1.70028E+06         56.0431
             120     16.9978E-03     29.8187E-03         2.40349    -625.159E-03    -720.039E-03    -719.939E-03         2.40339    -625.159E-03     32.6644E-03     120.881E-03    -58.1145E-03    -62.8070E-03    -56.4161E-03     114.490E-03    -58.1145E-03     67.3013E-03     146.328E+06     127.922E+06    -5.39870E+06    -5.35881E+06     146.288E+06     127.922E+06     1.31007E+06         56.0683
             121     16.9983E-03     30.9448E-03         2.37815    -622.179E-03    -716.917E-03    -716.758E-03         2.37799    -622.179E-03     44.3753E-03     120.779E-03    -58.1217E-03    -62.6844E-03    -56.2271E-03     114.321E-03    -58.1217E-03     67.5832E-03     149.979E+06     130.974E+06    -1.56368E+06    -1.55164E+06     149.967E+06     130.974E+06     485.803E+03         56.0900
             122     16.9972E-03     32.0710E-03         2.36672    -619.742E-03    -706.609E-03    -706.530E-03         2.36664    -619.742E-03     27.1232E-03     120.174E-03    -58.1782E-03    -62.0333E-03    -55.2452E-03     113.386E-03    -58.1782E-03     69.0146E-03     150.552E+06     131.103E+06    -3.01836E+06    -2.97094E+06     150.505E+06     131.103E+06    -829.716E+03         56.1088
             123     16.9975E-03     33.1816E-03         2.36581    -619.709E-03    -705.383E-03    -705.373E-03         2.36580    -619.709E-03     11.0040E-03     119.642E-03    -58.1539E-03    -61.5104E-03    -55.3860E-03     113.517E-03    -58.1539E-03     65.3923E-03     146.850E+06     128.429E+06    -4.55114E+06    -4.50868E+06     146.808E+06     128.429E+06    -1.08962E+06         56.1296
             124     16.9989E-03     34.3079E-03         2.36154    -622.148E-03    -713.140E-03    -713.029E-03         2.36143    -622.148E-03     30.8123E-03     120.613E-03    -58.1147E-03    -62.5151E-03    -56.5471E-03     114.645E-03    -58.1147E-03     64.9942E-03     146.029E+06     129.034E+06    -3.20860E+06    -3.19902E+06     146.019E+06     129.034E+06      31.845E+03         56.1512
             125     16.9966E-03     35.4361E-03         2.33959    -624.974E-03    -700.620E-03    -700.366E-03         2.33934    -624.974E-03     55.3968E-03     121.107E-03    -58.1178E-03    -63.0498E-03    -56.7940E-03     114.851E-03    -58.1178E-03     66.7164E-03     147.446E+06     128.351E+06    -5.31030E+06    -5.29979E+06     147.436E+06     128.351E+06     100.509E+03         56.1703
             126     16.9986E-03     36.5515E-03         2.32914    -628.364E-03    -692.852E-03    -692.597E-03         2.32888    -628.364E-03     4.25148E-03     120.061E-03    -58.1339E-03    -61.9592E-03    -55.9627E-03     114.064E-03    -58.1339E-03     64.9767E-03     147.379E+06     129.220E+06    -3.60619E+06    -3.58275E+06     147.356E+06     129.220E+06    -450.928E+03         56.1880
             127     16.9974E-03     37.6779E-03         2.33066    -634.075E-03    -695.563E-03    -695.451E-03         2.33054    -634.075E-03    -30.6908E-03     120.148E-03    -58.1566E-03    -61.9490E-03    -55.1959E-03     113.395E-03    -58.1566E-03     68.6912E-03     146.548E+06     129.798E+06    -2.84968E+06    -2.82211E+06     146.520E+06     129.798E+06    -256.645E+03         56.2034
             128     16.9986E-03     38.8064E-03         2.32022    -640.758E-03    -681.470E-03    -681.347E-03         2.32010    -640.758E-03     21.4754E-03     120.887E-03    -58.1800E-03    -62.6598E-03    -54.8695E-03     113.097E-03    -58.1800E-03     73.9997E-03     144.533E+06     128.116E+06    -2.95618E+06    -2.93295E+06     144.510E+06     128.116E+06    -92.4976E+03         56.2156
             129     16.9963E-03     39.9190E-03         2.28972    -646.759E-03    -664.378E-03    -664.169E-03         2.28951    -646.759E-03     49.6244E-03     120.377E-03    -58.1785E-03    -62.1996E-03    -55.3528E-03     113.530E-03    -58.1785E-03     69.1341E-03     143.071E+06     128.338E+06    -3.66904E+06     -3.6445E+06     143.047E+06     128.338E+06    -42.2616E+03         56.2271
             130     16.9989E-03     41.0366E-03         2.28389    -652.940E-03    -663.008E-03    -662.758E-03         2.28364    -652.940E-03    -7.75788E-03     120.192E-03    -58.1269E-03    -62.0773E-03    -56.4703E-03     114.585E-03    -58.1269E-03     62.9412E-03     141.486E+06     127.516E+06    -4.43674E+06    -4.37287E+06     141.422E+06     127.516E+06    -1.00173E+06         56.2394
             131     16.9970E-03     42.1626E-03         2.30402    -660.416E-03    -673.235E-03    -673.054E-03         2.30384    -660.416E-03    -42.0244E-03     120.950E-03    -58.1018E-03    -62.8386E-03    -57.2687E-03     115.380E-03    -58.1018E-03     63.0127E-03     142.135E+06     128.352E+06    -2.70698E+06    -2.61099E+06     142.039E+06     128.352E+06    -135.165E+03         56.2506
             132     16.9984E-03     43.2894E-03         2.29875    -655.925E-03    -676.757E-03    -663.935E-03         2.29855    -668.547E-03     21.1800E-03     120.882E-03    -58.1216E-03    -62.7410E-03    -56.6367E-03     114.777E-03    -58.1216E-03     65.7791E-03     144.212E+06     128.262E+06    -4.10686E+06    -4.06150E+06     144.166E+06     128.262E+06     1.43068E+06         56.2602
             133     16.9973E-03     44.4106E-03         2.27291    -647.198E-03    -676.260E-03    -647.018E-03         2.27273    -676.260E-03     32.4220E-03     120.743E-03    -58.1413E-03    -62.5753E-03    -55.9142E-03     114.082E-03    -58.1413E-03     68.6062E-03     145.361E+06     128.131E+06    -4.36428E+06    -4.35248E+06     145.350E+06     128.131E+06     505.969E+03         56.2695
             134     16.9985E-03     45.5366E-03         2.27832    -665.256E-03    -683.074E-03    -665.180E-03         2.27825    -683.074E-03    -21.2657E-03     120.839E-03    -58.1655E-03    -62.6749E-03    -55.6490E-03     113.813E-03    -58.1655E-03     70.4113E-03     147.113E+06     129.679E+06    -2.70089E+06    -2.69081E+06     147.102E+06     129.679E+06     809.461E+03         56.2778
             135     16.9965E-03     46.6564E-03         2.28017    -658.539E-03    -688.779E-03    -658.463E-03         2.28010    -688.779E-03    -22.9571E-03     120.393E-03    -58.1777E-03    -62.2283E-03    -55.4426E-03     113.607E-03    -58.1777E-03     69.0355E-03     147.578E+06     128.948E+06    -3.86129E+06    -3.85523E+06     147.572E+06     128.948E+06     620.715E+03         56.2855
             136     16.9983E-03     47.7730E-03         2.25651    -631.181E-03    -693.666E-03    -631.179E-03         2.25651    -693.666E-03     1.41079E-03     119.670E-03    -58.1445E-03    -61.4948E-03    -55.5393E-03     113.714E-03    -58.1445E-03     64.5854E-03     146.070E+06     127.219E+06    -4.49896E+06    -4.45708E+06     146.028E+06     127.219E+06    -945.796E+03         56.2947
             137     16.9978E-03     48.8955E-03         2.26219    -644.074E-03    -698.330E-03    -643.948E-03         2.26207    -698.330E-03    -23.7984E-03     120.428E-03    -58.1101E-03    -62.2775E-03    -56.4900E-03     114.640E-03    -58.1101E-03     63.9961E-03     146.449E+06     128.608E+06    -3.85168E+06    -3.81420E+06     146.411E+06     128.608E+06    -1.27266E+06         56.3060
             138     16.9980E-03     50.0223E-03         2.25813    -644.596E-03    -703.352E-03    -644.405E-03         2.25794    -703.352E-03    -46.4727E-03     121.352E-03    -58.1182E-03    -63.2414E-03    -56.8972E-03     115.008E-03    -58.1182E-03     67.2150E-03     147.116E+06     130.005E+06    -4.89111E+06    -4.88296E+06     147.108E+06     130.005E+06    -348.460E+03         56.3180
             139     16.9978E-03     51.1487E-03         2.21733    -616.876E-03    -707.161E-03    -616.810E-03         2.21726    -707.161E-03    -18.5468E-03     121.016E-03    -58.1673E-03    -62.8828E-03    -55.9269E-03     114.060E-03    -58.1673E-03     70.1570E-03     146.497E+06     130.031E+06    -2.74332E+06    -2.71233E+06     146.466E+06     130.031E+06     642.136E+03         56.3312
             140     16.9969E-03     52.2675E-03         2.20720    -612.094E-03    -707.971E-03    -612.047E-03         2.20715    -707.971E-03    -15.2581E-03     120.689E-03    -58.1828E-03    -62.5197E-03    -55.8440E-03     114.014E-03    -58.1828E-03     68.6135E-03     147.458E+06     129.607E+06    -2.78630E+06    -2.76170E+06     147.433E+06     129.607E+06     1.24153E+06         56.3525
             141     16.9980E-03     53.3845E-03         2.21412    -620.379E-03    -707.122E-03    -620.270E-03         2.21401    -707.122E-03    -35.0113E-03     120.536E-03    -58.1405E-03    -62.4338E-03    -56.4149E-03     114.517E-03    -58.1405E-03     65.2618E-03     149.715E+06     128.237E+06    -4.74416E+06    -4.74395E+06     149.715E+06     128.237E+06    -178.830E+03         56.3839
             142     16.9977E-03     54.5141E-03         2.19453    -608.079E-03    -705.717E-03    -608.014E-03         2.19446    -705.717E-03    -14.7114E-03     120.691E-03    -58.1409E-03    -62.5758E-03    -56.3714E-03     114.487E-03    -58.1409E-03     66.2598E-03     149.459E+06     128.398E+06    -4.82003E+06    -4.81193E+06     149.451E+06     128.398E+06    -859.212E+03         56.4197
             143     16.9975E-03     55.6338E-03         2.17222    -596.667E-03    -703.126E-03    -596.664E-03         2.17221    -703.126E-03     3.27660E-03     120.469E-03    -58.1531E-03    -62.3185E-03    -55.8091E-03     113.960E-03    -58.1531E-03     67.7481E-03     149.541E+06     129.394E+06    -2.86281E+06    -2.82919E+06     149.508E+06     129.394E+06     613.343E+03         56.4586
             144     16.9983E-03     56.7569E-03         2.15551    -597.735E-03    -699.162E-03    -597.677E-03         2.15545    -699.162E-03    -18.5502E-03     120.374E-03    -58.1597E-03    -62.2390E-03    -55.4152E-03     113.550E-03    -58.1597E-03     69.2433E-03     151.161E+06     129.944E+06    -2.74943E+06    -2.72079E+06     151.133E+06     129.944E+06     909.004E+03         56.4993
             145     16.9973E-03     57.8819E-03         2.14232    -598.527E-03    -693.809E-03    -598.469E-03         2.14227    -693.809E-03    -19.2887E-03     120.515E-03    -58.1738E-03    -62.3687E-03    -55.3336E-03     113.480E-03    -58.1738E-03     70.3405E-03     150.438E+06     129.346E+06    -4.05477E+06    -4.04900E+06     150.432E+06     129.346E+06    -28.6056E+03         56.5388
             146     16.9982E-03     58.9975E-03         2.12660    -601.591E-03    -686.294E-03    -601.567E-03         2.12657    -686.294E-03     9.73269E-03     119.944E-03    -58.1602E-03    -61.7883E-03    -55.5123E-03     113.668E-03    -58.1602E-03     66.2961E-03     148.827E+06     129.005E+06    -3.49082E+06    -3.47019E+06     148.807E+06     129.005E+06    -704.574E+03         56.5773
             147     16.9975E-03     60.1175E-03         2.09683    -595.933E-03    -675.855E-03    -595.909E-03         2.09680    -675.855E-03     12.9847E-03     120.403E-03    -58.1248E-03    -62.2375E-03    -56.3258E-03     114.491E-03    -58.1248E-03     64.6386E-03     148.320E+06     128.069E+06    -4.55705E+06    -4.51816E+06     148.282E+06     128.069E+06     110.996E+03         56.6130
             148     16.9980E-03     61.2472E-03         2.05926    -570.250E-03    -663.993E-03    -570.101E-03         2.05911    -663.993E-03    -25.9879E-03     121.025E-03    -58.1483E-03    -62.8687E-03    -56.2254E-03     114.382E-03    -58.1483E-03     68.5729E-03     150.612E+06     129.590E+06    -4.38109E+06    -4.36008E+06     150.591E+06     129.590E+06     1.31041E+06         56.6395
             149     16.9986E-03     63.4832E-03         2.01392    -571.772E-03    -640.498E-03    -571.754E-03         2.01390    -640.498E-03    -13.7869E-03     120.415E-03    -58.1391E-03    -62.3203E-03    -55.9387E-03     114.033E-03    -58.1391E-03     66.9891E-03     153.604E+06     130.825E+06    -2.83026E+06    -2.79468E+06     153.568E+06     130.825E+06     255.267E+03         56.6701
             150     16.9978E-03     64.6096E-03         1.97721    -559.621E-03    -625.075E-03    -559.607E-03         1.97720    -625.075E-03    -5.29429E-03     121.149E-03    -58.0870E-03    -63.1078E-03    -57.3049E-03     115.346E-03    -58.0870E-03     64.3593E-03     154.702E+06     131.276E+06    -3.83479E+06    -3.82044E+06     154.688E+06     131.276E+06    -857.502E+03         56.6803
             151     16.9986E-03     65.7352E-03         1.92776    -530.855E-03    -607.832E-03    -530.843E-03         1.92775    -607.832E-03    -4.21577E-03     120.426E-03    -58.1254E-03    -62.3321E-03    -55.8308E-03     113.925E-03    -58.1254E-03     67.5987E-03     153.082E+06     129.825E+06    -4.85613E+06    -4.85456E+06     153.080E+06     129.825E+06    -109.229E+03         56.6850
             152     16.9982E-03     66.8594E-03         1.90800    -536.778E-03    -591.753E-03    -536.734E-03         1.90795    -591.753E-03    -19.9377E-03     120.652E-03    -58.1756E-03    -62.4581E-03    -54.8852E-03     113.079E-03    -58.1756E-03     72.8982E-03     153.065E+06     130.373E+06    -3.21875E+06    -3.19779E+06     153.044E+06     130.373E+06     950.704E+03         56.6888
             153     16.9972E-03     67.9807E-03         1.88934    -542.718E-03    -576.042E-03    -542.613E-03         1.88924    -576.042E-03    -31.4526E-03     120.621E-03    -58.1855E-03    -62.4296E-03    -55.2410E-03     113.433E-03    -58.1855E-03     71.0085E-03     152.686E+06     130.486E+06    -3.02926E+06    -2.98788E+06     152.645E+06     130.486E+06    -43.2501E+03         56.6941
             154     16.9978E-03     69.0943E-03         1.85015    -526.622E-03    -558.253E-03    -526.395E-03         1.84992    -558.253E-03     8.44754E-03     119.267E-03    -58.1564E-03    -61.1318E-03    -55.2624E-03     113.397E-03    -58.1564E-03     63.9549E-03     150.770E+06     128.660E+06    -4.34495E+06    -4.31618E+06     150.742E+06     128.660E+06    -540.938E+03         56.7017
             155     16.9988E-03     70.2135E-03         1.80362    -518.809E-03    -538.827E-03    -518.654E-03         1.80346    -538.827E-03     26.8316E-03     119.783E-03    -58.0900E-03    -61.6641E-03    -56.5031E-03     114.622E-03    -58.0900E-03     60.3069E-03     152.410E+06     129.612E+06    -3.85370E+06    -3.84214E+06     152.398E+06     129.612E+06     165.378E+03         56.7120
             156     16.9984E-03     71.3423E-03         1.74743    -502.346E-03    -519.180E-03    -502.295E-03         1.74738    -519.180E-03    -15.1241E-03     120.990E-03    -58.0691E-03    -62.8713E-03    -57.2487E-03     115.368E-03    -58.0691E-03     63.2014E-03     155.032E+06     131.203E+06    -3.67568E+06    -3.67025E+06     155.026E+06     131.203E+06    -288.013E+03         56.7214
             157     16.9984E-03     72.4702E-03         1.71412    -487.566E-03    -500.275E-03    -488.159E-03         1.71405    -499.611E-03    -24.5179E-03     121.288E-03    -58.1192E-03    -63.1815E-03    -56.2947E-03     114.402E-03    -58.1192E-03     69.8709E-03     155.677E+06     131.178E+06    -4.07823E+06    -4.07700E+06     155.676E+06     131.178E+06     402.410E+03         56.7278
             158     16.9974E-03     73.5941E-03         1.69164    -480.466E-03    -495.316E-03    -495.229E-03         1.69155    -480.466E-03     7.39372E-03     120.646E-03    -58.1737E-03    -62.4777E-03    -54.8901E-03     113.059E-03    -58.1737E-03     72.9860E-03     155.555E+06     131.525E+06    -2.11984E+06    -2.10635E+06     155.542E+06     131.525E+06     1.12802E+06         56.7335
             159     16.9984E-03     74.7108E-03         1.63546    -461.595E-03    -475.926E-03    -475.607E-03         1.63529    -461.740E-03    -4.03795E-03     120.774E-03    -58.1626E-03    -62.5875E-03    -55.3989E-03     113.585E-03    -58.1626E-03     71.1146E-03     155.124E+06     130.929E+06    -3.03337E+06    -3.00737E+06     155.098E+06     130.929E+06     16.0952E+03         56.7409
             160     16.9969E-03     75.8306E-03         1.59285    -443.685E-03    -460.551E-03    -459.898E-03         1.59234    -443.830E-03    -61.5672E-03     120.696E-03    -58.1334E-03    -62.5525E-03    -56.6051E-03     114.748E-03    -58.1334E-03     64.8303E-03     154.994E+06     131.186E+06    -3.56960E+06    -3.55136E+06     154.976E+06     131.186E+06    -342.299E+03         56.7489
             161     16.9986E-03     76.9524E-03         1.57782    -426.328E-03    -475.177E-03    -474.722E-03         1.57736    -426.328E-03    -25.6081E-03     119.530E-03    -58.1401E-03    -61.3922E-03    -55.9240E-03     114.062E-03    -58.1401E-03     61.9275E-03     153.527E+06     129.835E+06    -3.65335E+06    -3.63325E+06     153.507E+06     129.835E+06    -404.076E+03         56.7555
             162     16.9973E-03     78.0744E-03         1.53187    -408.753E-03    -463.290E-03    -463.223E-03         1.53181    -408.753E-03     21.8230E-03     119.573E-03    -58.1390E-03    -61.4032E-03    -55.4475E-03     113.618E-03    -58.1390E-03     64.5618E-03     154.270E+06     129.408E+06    -4.09209E+06    -4.06299E+06     154.241E+06     129.408E+06     11.8473E+03         56.7624
             163     16.9990E-03     79.2008E-03         1.46370    -392.172E-03    -438.126E-03    -438.088E-03         1.46366    -392.172E-03    -2.87097E-03     120.491E-03    -58.1211E-03    -62.3588E-03    -55.9238E-03     114.056E-03    -58.1211E-03     67.3767E-03     156.023E+06     130.314E+06    -4.22163E+06    -4.19280E+06     155.994E+06     130.314E+06     9.26062E+03         56.7698
             164     16.9976E-03     80.3205E-03         1.42647    -376.420E-03    -428.782E-03    -428.688E-03         1.42637    -376.420E-03    -25.6739E-03     121.030E-03    -58.1122E-03    -62.8954E-03    -56.3978E-03     114.532E-03    -58.1122E-03     67.9002E-03     156.736E+06     130.916E+06    -3.31262E+06    -3.28946E+06     156.713E+06     130.916E+06    -226.450E+03         56.7763
             165     16.9987E-03     81.4468E-03         1.39722    -361.918E-03    -418.679E-03    -418.541E-03         1.39708    -361.918E-03    -283.130E-06     120.707E-03    -58.1310E-03    -62.4970E-03    -55.9284E-03     114.139E-03    -58.1310E-03     68.1081E-03     157.627E+06     131.174E+06    -3.52429E+06    -3.51499E+06     157.618E+06     131.174E+06     670.243E+03         56.7807
             166     16.9973E-03     82.5664E-03         1.33796    -348.881E-03    -397.098E-03    -396.895E-03         1.33776    -348.881E-03     36.9112E-03     120.039E-03    -58.1487E-03    -61.8211E-03    -55.0053E-03     113.223E-03    -58.1487E-03     69.0812E-03     159.436E+06     131.220E+06    -3.72046E+06    -3.68608E+06     159.402E+06     131.220E+06     1.49258E+06         56.7836
             167     16.9989E-03     83.6887E-03         1.28931    -336.123E-03    -382.768E-03    -382.600E-03         1.28914    -336.123E-03     10.6674E-03     120.604E-03    -58.1223E-03    -62.4290E-03    -55.7280E-03     113.903E-03    -58.1223E-03     68.7428E-03     160.332E+06     131.105E+06    -3.90083E+06    -3.85096E+06     160.282E+06     131.105E+06     521.425E+03         56.7861
             168     16.9972E-03     84.8079E-03         1.27913    -324.296E-03    -397.544E-03    -397.450E-03         1.27904    -324.296E-03    -24.9111E-03     121.000E-03    -58.0994E-03    -62.8746E-03    -56.8332E-03     114.959E-03    -58.0994E-03     65.4891E-03     162.007E+06     131.980E+06    -4.18664E+06    -4.14569E+06     161.966E+06     131.980E+06     303.934E+03         56.7858
             169     16.9985E-03     85.9337E-03         1.24634    -313.539E-03    -389.456E-03    -389.231E-03         1.24611    -313.539E-03     8.44692E-03     120.074E-03    -58.1166E-03    -61.9115E-03    -55.9181E-03     114.081E-03    -58.1166E-03     64.8852E-03     163.223E+06     132.806E+06    -2.88405E+06    -2.85353E+06     163.192E+06     132.806E+06     779.606E+03         56.7816
             170     16.9982E-03     87.0541E-03         1.16986    -303.256E-03    -342.937E-03    -342.770E-03         1.16969    -303.256E-03     25.5043E-03     120.235E-03    -58.1238E-03    -62.0705E-03    -55.5304E-03     113.695E-03    -58.1238E-03     67.8093E-03     164.330E+06     133.203E+06    -4.34921E+06    -4.32894E+06     164.309E+06     133.203E+06     462.268E+03         56.7766
             171     16.9984E-03     88.1802E-03         1.13246    -294.881E-03    -339.621E-03    -339.389E-03         1.13223    -294.881E-03    -23.4616E-03     120.507E-03    -58.1399E-03    -62.3276E-03    -55.4032E-03     113.582E-03    -58.1399E-03     69.7746E-03     166.748E+06     134.536E+06    -5.08338E+06    -5.06709E+06     166.731E+06     134.536E+06     779.991E+03         56.7707
             172     16.9982E-03     89.3017E-03         1.12116    -287.896E-03    -354.073E-03    -353.841E-03         1.12093    -287.896E-03    -28.5289E-03     119.880E-03    -58.1574E-03    -61.7181E-03    -54.7471E-03     112.909E-03    -58.1574E-03     69.7652E-03     167.695E+06     134.421E+06    -4.28323E+06    -4.26306E+06     167.675E+06     134.421E+06     920.088E+03         56.7648
             173     16.9986E-03     90.4148E-03         1.07090    -280.435E-03    -318.524E-03    -318.509E-03         1.07089    -280.435E-03     3.42559E-03     119.910E-03    -58.1153E-03    -61.8186E-03    -55.9755E-03     114.066E-03    -58.1153E-03     63.9327E-03     169.969E+06     135.970E+06    -3.63308E+06    -3.59720E+06     169.934E+06     135.970E+06      47.354E+03         56.7618
             174     16.9987E-03     91.5374E-03         1.03315    -274.365E-03    -299.741E-03    -299.261E-03         1.03267    -274.365E-03    -29.6627E-03     120.107E-03    -58.0775E-03    -62.0204E-03    -56.8348E-03     114.922E-03    -58.0775E-03     60.5727E-03     170.529E+06     137.334E+06    -3.92653E+06    -3.90326E+06     170.505E+06     137.334E+06    -494.205E+03         56.7586
             175     16.9996E-03     92.6663E-03         1.01316    -270.865E-03    -313.231E-03    -312.658E-03         1.01258    -270.865E-03    -51.9807E-03     119.855E-03    -58.0907E-03    -61.7873E-03    -55.5398E-03     113.607E-03    -58.0907E-03     66.0213E-03     171.172E+06     137.138E+06    -4.75523E+06    -4.74132E+06     171.158E+06     137.138E+06     1.56113E+06         56.7511
             176     16.9992E-03     93.7906E-03     962.437E-03    -265.720E-03    -289.435E-03    -288.266E-03     961.980E-03    -266.432E-03     12.3955E-03     119.799E-03    -58.0873E-03    -61.7474E-03    -54.4671E-03     112.519E-03    -58.0873E-03     71.2343E-03     176.495E+06     139.460E+06    -4.49250E+06    -4.47288E+06     176.475E+06     139.460E+06     1.87550E+06         56.7398
             177     17.0007E-03     94.9066E-03     904.934E-03    -252.035E-03    -259.972E-03    -251.672E-03     904.572E-03    -259.972E-03     24.1879E-03     120.395E-03    -58.0480E-03    -62.4315E-03    -55.3551E-03     113.319E-03    -58.0480E-03     70.5024E-03     181.099E+06     143.472E+06    -1.98237E+06    -1.96886E+06     181.086E+06     143.472E+06     1.43555E+06         56.7238
             178     17.0000E-03     96.0311E-03     866.868E-03    -246.591E-03    -254.921E-03    -245.941E-03     866.218E-03    -254.921E-03    -42.3399E-03     119.179E-03    -58.0150E-03    -61.2304E-03    -54.7472E-03     112.696E-03    -58.0150E-03     67.1563E-03     183.258E+06     144.055E+06    -3.78364E+06    -3.76363E+06     183.238E+06     144.055E+06     1.71873E+06         56.6977
             179     17.0042E-03     97.1460E-03     856.921E-03    -250.068E-03    -252.036E-03    -249.261E-03     856.114E-03    -252.036E-03    -56.7958E-03     117.233E-03    -57.9562E-03    -59.2788E-03    -53.0330E-03     110.987E-03    -57.9562E-03     65.2212E-03     183.205E+06     143.570E+06    -5.60577E+06    -5.55486E+06     183.154E+06     143.570E+06    -410.420E+03         56.6583
             180     17.0039E-03     98.2642E-03     823.929E-03    -230.869E-03    -248.543E-03    -230.306E-03     823.366E-03    -248.543E-03     8.91355E-03     117.139E-03    -57.8426E-03    -59.3750E-03    -53.0689E-03     110.833E-03    -57.8426E-03     65.5235E-03     181.647E+06     143.543E+06    -3.06458E+06    -2.99677E+06     181.579E+06     143.543E+06     62.8526E+03         56.6033
             181     17.0080E-03     99.3887E-03     764.527E-03    -204.418E-03    -243.546E-03    -204.017E-03     764.126E-03    -243.546E-03     31.1644E-03     116.414E-03    -57.6679E-03    -58.8663E-03    -52.0882E-03     109.636E-03    -57.6679E-03     67.5447E-03     180.312E+06     140.556E+06    -4.26941E+06    -4.23333E+06     180.276E+06     140.556E+06     1.51585E+06         56.5298
             182     17.0120E-03     100.497E-03     727.160E-03    -197.462E-03    -238.739E-03    -197.340E-03     727.038E-03    -238.739E-03    -11.5493E-03     115.055E-03    -57.3773E-03    -57.8261E-03    -51.0651E-03     108.294E-03    -57.3773E-03     66.9944E-03     181.888E+06     139.294E+06    -4.12242E+06    -4.11322E+06     181.878E+06     139.294E+06     597.653E+03         56.4411
             183     17.0201E-03     101.615E-03     688.951E-03    -187.193E-03    -234.203E-03    -187.034E-03     688.793E-03    -234.203E-03    -22.9731E-03     114.583E-03    -56.9299E-03    -57.8306E-03    -51.3257E-03     108.079E-03    -56.9299E-03     65.6971E-03     182.270E+06     135.266E+06    -4.32341E+06    -4.27044E+06     182.217E+06     135.266E+06    -1.15598E+06         56.3423
             184     17.0278E-03     102.729E-03     654.884E-03    -173.853E-03    -228.681E-03    -173.809E-03     654.841E-03    -228.681E-03    -9.86188E-03     114.242E-03    -56.3204E-03    -58.0221E-03    -50.8139E-03     107.034E-03    -56.3204E-03     68.9315E-03     177.335E+06     127.237E+06    -4.03500E+06    -3.98430E+06     177.285E+06     127.237E+06    -1.30698E+06         56.2423
             185     17.0421E-03     103.848E-03     612.406E-03    -157.341E-03    -222.211E-03    -157.338E-03     612.403E-03    -222.211E-03    -2.93534E-03     114.774E-03    -55.4980E-03    -59.2645E-03    -50.2624E-03     105.772E-03    -55.4980E-03     76.9119E-03     171.609E+06     120.975E+06    -4.64716E+06    -4.62610E+06     171.588E+06     120.975E+06    -417.610E+03         56.1604
             186     17.0582E-03     104.961E-03     567.294E-03    -140.881E-03    -215.337E-03    -140.878E-03     567.291E-03    -215.337E-03    -2.97748E-03     115.469E-03    -54.4350E-03    -60.9414E-03    -51.6935E-03     106.221E-03    -54.4350E-03     78.4996E-03     167.086E+06     120.042E+06    -2.09413E+06    -2.04794E+06     167.039E+06     120.042E+06      442.34E+03         56.1173
             187     17.0789E-03     106.066E-03     550.572E-03    -149.646E-03    -207.867E-03    -149.610E-03     550.536E-03    -207.867E-03     5.46297E-03     117.765E-03    -53.2293E-03    -64.4052E-03    -57.4560E-03     110.815E-03    -53.2293E-03     69.3529E-03     160.921E+06     118.269E+06    -4.39969E+06    -4.28360E+06     160.804E+06     118.269E+06    -1.08019E+06         56.1238
             188     17.0928E-03     107.187E-03     503.886E-03    -139.520E-03    -198.367E-03    -139.232E-03     503.598E-03    -198.367E-03     24.0971E-03     124.110E-03    -52.1606E-03    -71.8956E-03    -67.5633E-03     119.777E-03    -52.1606E-03     56.6752E-03     155.332E+06     125.197E+06    -1.61041E+06    -1.44870E+06     155.170E+06     125.197E+06    -307.594E+03         56.1773
             189     17.1005E-03     108.325E-03     423.066E-03    -89.2121E-03    -185.993E-03    -88.9496E-03     422.803E-03    -185.993E-03     19.9827E-03     133.720E-03    -51.4003E-03    -82.3661E-03    -79.5249E-03     130.879E-03    -51.4003E-03     49.1568E-03     150.682E+06     133.556E+06    -5.12123E+06    -4.87799E+06     150.439E+06     133.556E+06    -1.34912E+06         56.2746
             190     17.1027E-03     109.469E-03     387.998E-03    -79.1503E-03    -172.887E-03    -78.5346E-03     387.382E-03    -172.887E-03    -21.4630E-03     146.250E-03    -50.8482E-03    -95.4640E-03    -93.1343E-03     143.920E-03    -50.8482E-03     46.9561E-03     144.910E+06     136.623E+06    -3.58583E+06    -3.41643E+06     144.288E+06     137.076E+06    -4.15109E+06         56.4213
             191     17.1046E-03     110.644E-03     398.893E-03    -111.422E-03    -159.787E-03    -110.514E-03     397.985E-03    -159.787E-03    -6.42586E-03     157.150E-03    -50.4811E-03    -106.785E-03    -104.564E-03     154.929E-03    -50.4811E-03     48.1757E-03     134.930E+06     133.626E+06    -7.53217E+06    -6.99362E+06     133.088E+06     134.930E+06    -6.80006E+06         56.6244
             192     17.1039E-03     111.819E-03     353.048E-03    -92.7651E-03    -144.355E-03    -91.9023E-03     352.185E-03    -144.355E-03     37.9648E-03     167.804E-03    -50.1559E-03    -117.772E-03    -115.413E-03     165.445E-03    -50.1559E-03     51.6385E-03     129.929E+06     116.527E+06    -3.46461E+06    -2.74536E+06     115.808E+06     129.929E+06    -9.19501E+06         56.8811
             193     17.1056E-03     113.001E-03     281.443E-03    -62.0414E-03    -126.998E-03    -57.4613E-03     276.863E-03    -126.998E-03    -30.5738E-03     183.490E-03    -49.7266E-03    -133.805E-03    -131.837E-03     181.522E-03    -49.7266E-03     49.5686E-03     129.308E+06     102.483E+06    -3.01912E+06    -2.80977E+06     102.273E+06     129.308E+06    -4.09122E+06         57.1363
             194     17.1047E-03     114.218E-03     253.927E-03    -64.5028E-03    -108.215E-03    -60.2136E-03     249.637E-03    -108.215E-03    -63.5704E-03     201.298E-03    -49.2040E-03    -152.049E-03    -150.429E-03     199.678E-03    -49.2040E-03     47.6900E-03     127.217E+06     90.6140E+06    -7.41857E+06    -7.03192E+06     90.2273E+06     127.217E+06    -4.86580E+06         57.3248
             195     17.1077E-03     115.448E-03     224.862E-03    -62.2476E-03    -85.8116E-03    -59.6647E-03     222.279E-03    -85.8116E-03     21.7392E-03     222.071E-03    -48.5991E-03    -173.398E-03    -171.621E-03     220.293E-03    -48.5991E-03     52.8787E-03     122.942E+06     68.3416E+06    -6.17458E+06    -4.66638E+06     66.8334E+06     122.942E+06    -10.1183E+06         57.4076
             196     17.1068E-03     116.720E-03     170.764E-03    -50.9184E-03    -61.0655E-03    -46.4364E-03     166.282E-03    -61.0655E-03     7.14774E-03     244.703E-03    -48.0638E-03    -196.663E-03    -194.580E-03     242.620E-03    -48.0638E-03     60.4923E-03     131.290E+06     52.6540E+06    -4.93351E+06     289.683E+03     47.4309E+06     131.290E+06     1.41726E+06         57.2504
             197     17.1092E-03     118.023E-03     123.237E-03    -33.4130E-03    -45.4199E-03    -40.5431E-03     120.870E-03    -35.9227E-03    -19.7424E-03     261.916E-03    -47.6758E-03    -214.346E-03    -211.597E-03     259.167E-03    -47.6758E-03     71.8277E-03     138.646E+06     38.6128E+06    -15.5287E+06    -10.5458E+06     33.6299E+06     138.646E+06     2.39578E+06         56.6518
             198     17.1091E-03     119.332E-03     97.6329E-03    -8.60714E-03    -40.5450E-03    -38.6995E-03     95.7874E-03    -8.60714E-03     27.6360E-03     278.911E-03    -47.3007E-03    -231.663E-03    -226.571E-03     273.819E-03    -47.3007E-03     100.220E-03     163.097E+06     58.4910E+06    -5.14074E+06     12.1699E+06     41.1803E+06     163.097E+06     8.83430E+06         55.3928
             199     17.1137E-03     120.708E-03     65.4002E-03     20.4984E-03    -38.4033E-03    -31.9880E-03     58.9849E-03     20.4984E-03    -6.90411E-03     291.510E-03    -47.1118E-03    -244.407E-03    -232.047E-03     279.150E-03    -47.1118E-03     156.575E-03     160.189E+06     69.4193E+06    -35.8336E+06    -14.6728E+06     48.2586E+06     160.189E+06    -4.07787E+06         53.2664
             200     17.1122E-03     122.096E-03     54.9294E-03     21.9090E-03    -38.8395E-03    -31.6455E-03     20.5798E-03     49.0646E-03    -41.3289E-03     275.369E-03    -47.8377E-03    -227.584E-03    -196.366E-03     244.152E-03    -47.8377E-03     233.588E-03     111.626E+06     48.6486E+06    -51.4101E+06    -23.5725E+06     20.8111E+06     111.626E+06    -14.3937E+06         50.5966
             201     17.1199E-03     123.338E-03     76.8938E-03     3.63847E-03    -28.6236E-03    -24.2580E-03    -727.146E-06     76.8938E-03    -7.72424E-03     198.017E-03    -52.4654E-03    -145.625E-03    -96.1700E-03     148.562E-03    -52.4654E-03     232.375E-03     64.3173E+06     9.70619E+06    -36.2956E+06    -10.8976E+06    -15.6918E+06     64.3173E+06    -2.73959E+06         48.1245
             202     16.9381E-03     124.348E-03     103.132E-03     40.0201E-03    -73.1549E-03     26.5682E-03    -59.7029E-03     103.132E-03    -47.0172E-03     89.8919E-03    -9.65823E-03    -80.2582E-03     5.77990E-03     61.2276E-03    -67.0320E-03     96.7640E-03     51.1528E+06    -25.6889E+06    -58.3774E+06    -5.30270E+06    -33.3877E+06     5.77693E+06     9.29394E+06         46.2961
             203     15.5269E-03     124.761E-03     113.115E-03     47.2958E-03    -94.4544E-03     3.46746E-03    -50.6261E-03     113.115E-03    -49.3773E-03     48.7029E-03     29.1406E-03    -77.8400E-03     33.4156E-03     44.4279E-03    -77.8400E-03     14.2373E-03     105.586E+06     50.4085E+06    -28.3553E+06     22.9641E+06     44.4650E+06     60.2096E+06     9.91282E+06         44.5712
             204     14.5631E-03     124.330E-03     108.670E-03     17.8891E-03    -53.5850E-03    -33.3781E-03    -2.31787E-03     108.670E-03     39.0149E-03     88.2241E-03    -11.9010E-03    -76.4323E-03    -5.71235E-03     82.0355E-03    -76.4323E-03    -19.8455E-03     114.213E+06     41.4449E+06    -52.8416E+06    -26.6047E+06     15.2080E+06     114.213E+06    -3.27778E+06         42.5197
             205     13.7560E-03     123.865E-03     103.246E-03     33.4748E-03    -42.3949E-03     10.2933E-03    -19.2134E-03     103.246E-03     67.4931E-03     115.855E-03    -43.8450E-03    -72.1558E-03    -37.6626E-03     109.673E-03    -72.1558E-03    -61.5745E-03     94.6666E+06     23.9022E+06    -63.9031E+06    -21.9483E+06    -18.0526E+06     94.6666E+06    -24.3307E+06         40.2919
             206     12.9170E-03     123.474E-03     97.3654E-03     37.0502E-03    -29.3489E-03     25.8930E-03    -18.1917E-03     97.3654E-03     48.9658E-03     117.278E-03    -49.8491E-03    -67.4461E-03    -43.4258E-03     110.855E-03    -67.4461E-03    -64.2257E-03     89.2965E+06     41.1643E+06    -62.3306E+06    -4.57879E+06    -16.5875E+06     89.2965E+06    -24.2133E+06         37.8964
             207     12.0439E-03     123.164E-03     93.4785E-03     36.3414E-03    -39.3675E-03     20.5170E-03    -23.5431E-03     93.4785E-03     60.0127E-03     131.641E-03    -58.9562E-03    -72.6845E-03    -60.2274E-03     123.395E-03    -63.1669E-03    -79.5526E-03     96.2372E+06     24.8814E+06    -38.4065E+06     6.01420E+06    -19.5394E+06     96.2372E+06    -4.40530E+06         35.4530
             208     11.1855E-03     122.896E-03     90.7860E-03     42.8815E-03    -55.9304E-03     28.5622E-03    -41.6111E-03     90.7860E-03     59.8344E-03     141.625E-03    -58.3441E-03    -83.3456E-03    -74.7228E-03     133.002E-03    -58.3441E-03    -86.2955E-03     107.357E+06     42.2423E+06    -16.9778E+06     23.5937E+06     1.67076E+06     107.357E+06    -7.39733E+06         33.1435
             209     10.3266E-03     122.678E-03     88.4507E-03     56.1012E-03    -55.5602E-03     38.3534E-03    -37.8123E-03     88.4507E-03     71.2032E-03     137.375E-03    -53.3685E-03    -84.1132E-03    -77.6166E-03     130.878E-03    -53.3685E-03    -74.3304E-03     109.364E+06     35.5966E+06    -10.3455E+06     34.0434E+06    -8.79235E+06     109.364E+06    -3.22313E+06         31.1046
             210     9.44544E-03     122.504E-03     86.6371E-03     69.8740E-03    -53.0594E-03     49.0093E-03    -32.1947E-03     86.6371E-03     86.7490E-03     127.228E-03    -48.7355E-03    -78.4913E-03    -74.4444E-03     123.182E-03    -48.7355E-03    -56.8765E-03     111.269E+06     41.2453E+06    -3.82444E+06     39.5261E+06     -2.1052E+06     111.269E+06    -777.062E+03         29.3167
             211     8.54513E-03     122.368E-03     85.1483E-03     73.1761E-03    -51.8334E-03     59.5921E-03    -38.2493E-03     85.1483E-03     76.6399E-03     116.689E-03    -44.5119E-03    -72.0225E-03    -69.4419E-03     114.109E-03    -44.5119E-03    -43.6693E-03     107.396E+06     40.0152E+06    -2.25931E+06     39.8376E+06    -2.08176E+06     107.396E+06     2.21317E+06         27.8340
             212     7.63306E-03     122.257E-03     84.4180E-03     68.3006E-03    -37.6545E-03     56.6531E-03    -26.0069E-03     84.4180E-03     64.8535E-03     105.213E-03    -40.6799E-03    -64.4441E-03    -62.8040E-03     103.573E-03    -40.6799E-03    -33.0701E-03     102.222E+06     36.8238E+06     3.76436E+06     36.8020E+06     3.78612E+06     102.222E+06    -783.394E+03         26.7306
             213     6.70735E-03     122.172E-03     85.5774E-03     72.2917E-03    -41.7116E-03     70.0540E-03    -38.0326E-03     84.1361E-03     38.1549E-03     93.3810E-03    -37.2416E-03    -56.1301E-03    -55.1078E-03     92.3587E-03    -37.2416E-03    -24.5554E-03     87.9035E+06     36.2930E+06    -2.42480E+06     35.8638E+06    -1.99562E+06     87.9035E+06    -2.65524E+06         25.9278
             214     5.76975E-03     122.104E-03     93.3204E-03     82.4451E-03    -67.7329E-03     90.0627E-03    -64.4752E-03     82.4451E-03    -7.94672E-03     82.7128E-03    -34.2671E-03    -48.4788E-03    -47.8337E-03     82.0678E-03    -34.2671E-03    -18.2955E-03     71.6485E+06     38.1559E+06     1.08092E+06     37.5307E+06     1.70618E+06     71.6485E+06    -4.42566E+06         25.2838
             215     4.82257E-03     122.056E-03     89.7624E-03     76.7342E-03    -41.4052E-03     82.3839E-03    -37.6210E-03     80.3285E-03    -42.8986E-03     73.7299E-03    -31.8168E-03    -41.9851E-03    -41.5897E-03     73.3344E-03    -31.8168E-03    -13.4274E-03     65.7882E+06     42.2754E+06    -505.712E+03     41.8985E+06    -128.826E+03     65.7882E+06    -3.99074E+06         24.7319
             216     3.86753E-03     122.017E-03     91.3410E-03     74.9687E-03    -41.4247E-03     84.6456E-03    -38.3235E-03     78.5630E-03    -38.4173E-03     66.0482E-03    -29.8200E-03    -36.2357E-03    -36.0041E-03     65.8166E-03    -29.8200E-03    -9.68437E-03     65.6344E+06     46.5454E+06     -85.423E+03     46.1075E+06     352.440E+03     65.6344E+06    -4.49554E+06         24.2659
             217     2.90495E-03     121.991E-03     91.0448E-03     74.9531E-03    -58.1398E-03     89.5012E-03    -56.5963E-03     74.9531E-03    -27.9162E-03     60.1781E-03    -28.2663E-03    -31.8846E-03    -31.7478E-03     60.0414E-03    -28.2663E-03    -7.03530E-03     60.6047E+06     54.1010E+06    -1.67867E+06     53.4137E+06    -991.333E+03     60.6047E+06    -6.08720E+06         23.8886
             218     1.93927E-03     121.971E-03     77.8275E-03     62.3943E-03    -36.4289E-03     65.5482E-03    -36.2691E-03     74.5138E-03    -7.60498E-03     55.7064E-03    -27.0836E-03    -28.6226E-03    -28.3103E-03     55.6341E-03    -27.3235E-03    -4.87227E-03     63.6790E+06     59.9459E+06    -856.155E+03     62.3390E+06    -193.526E+03     60.6233E+06    -6.29964E+06         23.6152
             219     969.041E-06     121.960E-03     87.9035E-03     65.0675E-03    -50.5873E-03     75.6084E-03    -50.4118E-03     77.1871E-03    -9.04920E-03     54.1517E-03    -26.4869E-03    -27.6689E-03    -27.3874E-03     54.1102E-03    -26.7269E-03    -3.66546E-03     74.9894E+06     68.6154E+06    -2.91035E+06     71.1064E+06    -2.34558E+06     71.9337E+06    -6.44564E+06         23.4544
             220    -2.31799E-06     120.903E-03     136.617E-03     28.6280E-03    -49.7433E-03     44.7809E-03     42.0928E-03     28.6280E-03     50.8948E-03     46.0929E-03    -22.0811E-03    -24.0103E-03    -22.9994E-03     46.0692E-03    -23.0683E-03    -2.52968E-03     53.7167E+06     45.9810E+06    -17.1780E+06     49.4970E+06    -16.2765E+06     49.2992E+06    -7.61147E+06         23.0661
             221     306.835E-09     119.863E-03     146.145E-03    -7.23681E-03    -16.5395E-03     4.60001E-03     125.006E-03    -7.23681E-03     106.933E-03     30.4128E-03    -14.5069E-03    -15.9030E-03    -14.9050E-03     30.4020E-03    -15.4941E-03    -1.39714E-03    -5.60467E+06    -11.4189E+06    -38.8734E+06    -6.94812E+06    -37.5299E+06    -11.4189E+06    -5.32156E+06         22.2866
             222     476.031E-09     118.844E-03     125.480E-03     23.8200E-03    -18.8710E-03     9.15491E-03     97.4545E-03     23.8200E-03     114.194E-03     18.5003E-03    -9.03070E-03    -9.46881E-03    -9.42789E-03     18.4886E-03    -9.05989E-03    -1.11511E-03    -49.6740E+06    -61.7064E+06    -66.9812E+06    -63.8448E+06    -52.8104E+06    -61.7064E+06    -5.54027E+06         21.4910
             223    -518.397E-09     117.828E-03     137.393E-03     50.8673E-03    -34.2115E-03    -15.6926E-03     118.874E-03     50.8673E-03     36.7117E-03     10.8392E-03    -5.39414E-03    -5.44513E-03    -5.37932E-03     10.8243E-03    -5.44513E-03    -967.696E-06    -67.4401E+06    -106.544E+06    -111.965E+06    -108.651E+06    -69.5506E+06    -107.747E+06    -8.70013E+06         20.8925
             224     429.398E-09     116.823E-03     185.502E-03     18.6358E-03    -38.3449E-03    -34.6168E-03     181.774E-03     18.6358E-03    -55.5120E-03     6.21008E-03    -3.07118E-03    -3.13882E-03    -3.06327E-03     6.20217E-03    -3.13882E-03    -410.566E-06    -91.4971E+06    -160.305E+06    -161.858E+06    -159.786E+06    -92.3653E+06    -161.509E+06    -7.17282E+06         20.4804
             225    -522.331E-09     115.815E-03     373.987E-03    -89.8228E-03    -120.421E-03    -116.016E-03     369.583E-03    -89.8228E-03    -92.8550E-03     3.33902E-03    -1.63766E-03    -1.70144E-03    -1.63465E-03     3.33602E-03    -1.70144E-03     166.344E-06    -113.435E+06    -210.488E+06    -212.717E+06    -210.570E+06    -113.702E+06    -212.368E+06    -991.729E+03         20.2400
             226     453.567E-09     114.816E-03     507.381E-03    -137.005E-03    -193.989E-03    -155.054E-03     503.773E-03    -172.331E-03    -40.3238E-03     2.45863E-03    -1.21955E-03    -1.23913E-03    -1.20682E-03     2.44589E-03    -1.23913E-03     418.974E-06    -94.5930E+06    -185.180E+06    -188.774E+06    -182.301E+06    -97.4724E+06    -188.774E+06     11.2381E+06         20.1914
             227    -539.996E-09     113.810E-03     423.610E-03    -100.483E-03    -156.716E-03    -120.633E-03     422.853E-03    -135.809E-03     40.0400E-03     4.11822E-03    -2.03328E-03    -2.08483E-03    -2.05210E-03     4.08712E-03    -2.03492E-03     876.090E-06    -37.3973E+06    -118.483E+06    -126.319E+06    -118.519E+06    -43.4843E+06    -120.196E+06     22.1486E+06         20.3546
             228     635.116E-09     112.809E-03     400.846E-03    -124.188E-03    -150.898E-03    -144.811E-03     400.562E-03    -129.991E-03     23.6284E-03     9.36355E-03    -4.61843E-03    -4.74492E-03    -4.67570E-03     9.29433E-03    -4.61843E-03     1.97149E-03     17.9317E+06    -67.7853E+06    -79.1914E+06    -75.8174E+06     14.5577E+06    -67.7853E+06     14.9240E+06         20.7698
             229    -505.199E-09     111.792E-03     532.373E-03    -171.580E-03    -231.810E-03    -171.304E-03     532.096E-03    -231.810E-03    -8.65402E-03     18.6648E-03    -9.25067E-03    -9.41422E-03    -9.31913E-03     18.5698E-03    -9.25067E-03     3.22346E-03     45.4116E+06    -11.0249E+06    -21.5260E+06    -15.9403E+06     45.0441E+06    -16.2431E+06     4.28738E+06         21.4637
             230     514.405E-09     110.770E-03     615.121E-03    -179.128E-03    -278.742E-03    -224.108E-03     614.915E-03    -233.555E-03    -19.1608E-03     31.3145E-03    -15.4477E-03    -15.8683E-03    -15.7890E-03     31.2352E-03    -15.4477E-03     3.77805E-03     51.8799E+06     32.1048E+06     20.2308E+06     26.5151E+06     48.9686E+06     28.7318E+06     -8.5005E+03         22.4006
             231     189.671E-09     109.729E-03     576.196E-03    -175.650E-03    -243.975E-03    -211.698E-03     543.918E-03    -175.650E-03    -212.179E-03     46.5389E-03    -23.0160E-03    -23.5245E-03    -23.4580E-03     46.4725E-03    -23.0160E-03     4.30265E-03     61.8822E+06     54.5550E+06     32.3083E+06     53.9692E+06     38.3762E+06     56.4001E+06    -4.28251E+06         23.5017
             232     25.3338E-09     108.673E-03     627.087E-03    -182.751E-03    -257.609E-03    -152.831E-03     574.028E-03    -234.470E-03    -401.193E-03     62.1614E-03    -30.9907E-03    -31.1709E-03    -31.1162E-03     62.1067E-03    -30.9907E-03     4.43428E-03     70.9275E+06     61.0417E+06     18.8743E+06     65.3445E+06     20.0536E+06     65.4454E+06    -7.08618E+06         24.6575
             233     25.2915E-09     107.601E-03     793.790E-03    -249.894E-03    -320.447E-03    -200.615E-03     725.677E-03    -301.613E-03    -515.604E-03     76.3808E-03    -37.9149E-03    -38.4633E-03    -38.4263E-03     76.3437E-03    -37.9149E-03     4.10919E-03     67.2984E+06     58.1831E+06    -6.94656E+06     61.7096E+06    -5.76139E+06     62.5867E+06    -8.05084E+06         25.7495
             234     931.998E-09     106.515E-03     893.338E-03    -293.674E-03    -391.691E-03    -219.382E-03     721.030E-03    -293.674E-03    -851.357E-03     88.3863E-03    -43.8411E-03    -44.5440E-03    -44.3578E-03     88.3598E-03    -44.0009E-03     3.69928E-03     65.6785E+06     57.6618E+06    -30.9163E+06     61.9242E+06    -30.4671E+06     60.9668E+06    -6.45603E+06         26.6977
             235    -1.20712E-06     105.416E-03         1.06459    -324.472E-03    -527.744E-03    -197.487E-03     734.329E-03    -324.472E-03        -1.28881     98.0269E-03    -48.8208E-03    -49.2082E-03    -49.0326E-03     98.0110E-03    -48.9805E-03     3.03683E-03     61.1887E+06     52.4803E+06    -53.3747E+06     57.5791E+06    -53.0702E+06     55.7854E+06    -5.52639E+06         27.4706
             236     1.56052E-06     104.309E-03         1.30911    -351.261E-03    -707.902E-03    -172.181E-03     773.393E-03    -351.261E-03        -1.77336     105.757E-03    -52.4790E-03    -53.2802E-03    -53.2705E-03     105.747E-03    -52.4790E-03     2.45094E-03     44.3730E+06     32.9146E+06    -72.0105E+06     38.1903E+06    -71.8829E+06     38.9697E+06    -3.74647E+06         28.0537
             237    -407.275E-09     103.194E-03         1.53882    -340.674E-03    -942.674E-03    -97.0980E-03     693.246E-03    -340.674E-03        -2.34431     111.039E-03    -54.8878E-03    -56.1527E-03    -56.1490E-03     111.035E-03    -54.8878E-03     1.33210E-03     34.3095E+06     24.0282E+06    -89.9455E+06     28.0391E+06    -89.7302E+06     30.0833E+06    -4.95177E+06         28.4449
             238     1.66204E-06     102.075E-03         1.89389    -428.408E-03        -1.19078    -67.2404E-03     770.345E-03    -428.408E-03        -2.96828     113.421E-03    -56.3493E-03    -57.0701E-03    -57.0388E-03     113.420E-03    -56.3788E-03     1.02003E-03     17.3185E+06     11.3413E+06    -111.589E+06     15.2391E+06    -111.261E+06     13.0923E+06    -6.44636E+06         28.6771
             239    -1.69690E-06     100.954E-03         2.21686    -550.174E-03        -1.37594    -46.0671E-03     886.984E-03    -550.174E-03        -3.46821     114.451E-03    -57.1265E-03    -57.3235E-03    -57.1243E-03     114.449E-03    -57.3235E-03     1.18267E-03    -6.74218E+06    -9.41535E+06    -135.931E+06    -8.89107E+06    -135.533E+06    -7.66434E+06    -7.10346E+06         28.8074
             240     1.37119E-06     99.8335E-03         2.43484    -544.455E-03        -1.59952     30.8312E-03     804.494E-03    -544.455E-03        -3.95594     115.837E-03    -57.2839E-03    -58.5552E-03    -58.3871E-03     115.837E-03    -57.4514E-03     590.590E-06    -22.5900E+06    -24.0654E+06    -158.416E+06    -22.8353E+06    -158.171E+06    -24.0654E+06    -4.92219E+06         28.8823
             241     708.143E-09     98.7111E-03         2.67482    -560.265E-03        -1.80040     98.6069E-03     775.808E-03    -560.265E-03        -4.42368     116.557E-03    -57.6498E-03    -58.9111E-03    -58.7535E-03     116.557E-03    -57.8073E-03     197.275E-06    -34.1837E+06    -35.3204E+06    -171.350E+06    -34.8449E+06    -171.273E+06    -34.7369E+06    -3.04771E+06         28.9230
             242    -990.835E-09     97.5879E-03         2.93936    -652.514E-03        -1.93812     133.424E-03     867.814E-03    -652.514E-03        -4.82188     116.321E-03    -57.9383E-03    -58.3861E-03    -58.2283E-03     116.320E-03    -58.0958E-03     401.557E-06    -55.7476E+06    -57.2290E+06    -183.345E+06    -56.5141E+06    -183.162E+06    -56.6455E+06    -4.72377E+06         28.9444
             243     1.53347E-06     96.4634E-03         3.15877    -660.103E-03        -2.12644     172.161E-03     860.167E-03    -660.103E-03        -5.23906     116.741E-03    -57.9411E-03    -58.7989E-03    -58.7973E-03     116.739E-03    -57.9411E-03     1.02212E-03    -72.2902E+06    -73.4076E+06    -201.152E+06    -72.6916E+06    -200.970E+06    -73.1882E+06    -4.73101E+06         28.9587
             244    -456.167E-09     95.3433E-03         3.38506    -722.230E-03        -2.28068     189.490E-03     914.891E-03    -722.230E-03        -5.61823     117.123E-03    -58.2253E-03    -58.9008E-03    -58.7914E-03     117.122E-03    -58.3334E-03     526.637E-06    -72.0625E+06    -72.3410E+06    -218.187E+06    -72.3758E+06    -218.093E+06    -72.1216E+06    -3.62873E+06         28.9613
             245     255.600E-09     94.2167E-03         3.54724    -791.481E-03        -2.35529     210.641E-03     981.309E-03    -791.481E-03        -5.85140     116.571E-03    -57.9552E-03    -58.6219E-03    -58.5122E-03     116.570E-03    -58.0633E-03     586.387E-06    -85.0767E+06    -86.4329E+06    -229.898E+06    -85.1211E+06    -229.854E+06    -86.4329E+06    -2.50547E+06         28.9515
             246     773.410E-09     93.0959E-03         3.54082    -729.078E-03        -2.41754     241.775E-03     881.502E-03    -729.078E-03        -5.92367     115.995E-03    -57.5320E-03    -58.4679E-03    -58.4663E-03     115.994E-03    -57.5320E-03     907.241E-06    -87.0262E+06    -90.5208E+06    -242.505E+06    -89.2675E+06    -242.461E+06    -88.3234E+06    -2.57294E+06         28.9442
             247    -39.9946E-09     91.9743E-03         3.64722    -725.173E-03        -2.51460     218.189E-03     914.424E-03    -725.173E-03        -6.12172     116.097E-03    -57.6617E-03    -58.4381E-03    -58.4379E-03     116.097E-03    -57.6617E-03     50.5334E-06    -81.9479E+06    -85.2333E+06    -255.937E+06    -84.2412E+06    -255.841E+06    -83.0359E+06    -3.99091E+06         28.9472
             248     782.973E-09     90.8537E-03         3.78887    -755.127E-03        -2.58793     188.190E-03         1.01275    -755.127E-03        -6.32325     117.046E-03    -58.2725E-03    -58.7748E-03    -58.7747E-03     117.046E-03    -58.2725E-03    -104.770E-06    -87.5455E+06    -88.9705E+06     -263.99E+06    -87.6421E+06    -263.893E+06    -88.9705E+06    -4.05319E+06         28.9539
             249    -595.437E-09     89.7280E-03         3.78985    -694.789E-03        -2.61948     187.442E-03     982.924E-03    -694.789E-03        -6.35958     117.182E-03    -58.5214E-03    -58.6634E-03    -58.6246E-03     117.182E-03    -58.5601E-03     78.3218E-06    -89.5175E+06    -91.0780E+06    -270.935E+06    -89.5503E+06    -270.902E+06    -91.0780E+06    -1.08862E+06         28.9533
             250     512.778E-09     88.6040E-03         3.81239    -621.778E-03        -2.70682     144.166E-03     961.406E-03    -621.778E-03        -6.46753     116.146E-03    -57.7344E-03    -58.4146E-03    -58.3740E-03     116.144E-03    -57.7731E-03     849.742E-06    -86.8805E+06    -89.1068E+06    -275.761E+06    -87.8902E+06    -275.754E+06    -88.1040E+06     1.13252E+06         28.9425
             251     711.891E-09     87.4842E-03         3.96790    -600.525E-03        -2.85445     44.2039E-03         1.06925    -600.525E-03        -6.74402     115.736E-03    -57.5330E-03    -58.2049E-03    -58.1725E-03     115.734E-03    -57.5634E-03     1.01119E-03    -85.6955E+06    -87.9469E+06    -279.295E+06    -86.7136E+06    -279.280E+06    -86.9440E+06    -446.793E+03         28.9348
             252    -783.731E-09     86.3631E-03         4.06318    -621.126E-03        -2.90551     27.5854E-03         1.13008    -621.126E-03        -6.88073     116.150E-03    -57.9363E-03    -58.2133E-03    -58.1823E-03     116.149E-03    -57.9667E-03    -178.261E-06    -81.9448E+06    -83.2547E+06    -279.198E+06    -82.0190E+06    -279.185E+06    -83.1933E+06    -1.44988E+06         28.9408
             253     1.24859E-06     85.2412E-03         4.04091    -581.563E-03        -2.91336     30.3050E-03         1.09724    -581.563E-03        -6.87191     116.666E-03    -58.0177E-03    -58.6466E-03    -58.6444E-03     116.663E-03    -58.0177E-03     422.183E-06    -83.0772E+06    -83.4166E+06    -279.886E+06    -83.4213E+06    -279.882E+06    -83.0772E+06     159.554E+03         28.9515
             254    -523.217E-09     84.1153E-03         4.07350    -484.186E-03        -3.03159    -21.9170E-03         1.06382    -484.186E-03        -7.02160     116.422E-03    -57.8854E-03    -58.5368E-03    -58.5344E-03     116.420E-03    -57.8854E-03     1.24785E-03    -80.3672E+06    -80.8186E+06    -279.136E+06    -80.6821E+06    -279.099E+06    -80.5407E+06     2.39526E+06         28.9576
             255     1.03241E-06     82.9960E-03         4.23108    -489.708E-03        -3.19024    -78.7158E-03         1.11956    -489.708E-03        -7.32342     116.037E-03    -57.7807E-03    -58.2568E-03    -58.2561E-03     116.036E-03    -57.7807E-03     694.195E-06    -74.8108E+06    -75.0156E+06    -273.958E+06    -74.8770E+06    -273.923E+06    -74.9842E+06     1.52896E+06         28.9640
             256    -641.255E-09     81.8749E-03         4.37035    -587.993E-03        -3.19285    -144.323E-03         1.32182    -587.993E-03        -7.41791     116.558E-03    -58.0618E-03    -58.4971E-03    -58.4968E-03     116.558E-03    -58.0618E-03     352.226E-06    -73.5329E+06    -73.8622E+06    -273.489E+06    -73.8805E+06    -273.471E+06    -73.5329E+06    -1.63476E+06         28.9715
             257     1.07622E-06     80.7497E-03         4.32191    -549.989E-03        -3.15199    -189.639E-03         1.35957    -549.989E-03        -7.31131     116.600E-03    -57.8696E-03    -58.7305E-03    -58.7300E-03     116.599E-03    -57.8696E-03     526.507E-06    -73.5673E+06    -74.4598E+06    -276.524E+06    -73.8884E+06    -276.501E+06    -74.1620E+06    -547.715E+03         28.9743
             258     111.057E-09     79.6290E-03         4.17905    -453.353E-03        -3.10709    -187.568E-03         1.25952    -453.353E-03        -7.14099     116.180E-03    -57.6703E-03    -58.5107E-03    -58.5102E-03     116.179E-03    -57.6703E-03     406.757E-06    -74.7370E+06    -76.4697E+06    -278.058E+06    -75.8809E+06    -278.052E+06    -75.3318E+06     746.161E+03         28.9770
             259     300.165E-09     78.5087E-03         4.14063    -503.554E-03        -2.99366    -233.896E-03         1.38086    -503.554E-03        -6.94607     116.638E-03    -58.0939E-03    -58.5472E-03    -58.5466E-03     116.638E-03    -58.0939E-03    -456.351E-06    -72.7820E+06    -75.3110E+06    -276.756E+06    -73.9413E+06    -276.735E+06    -74.1731E+06    -1.50844E+06         28.9838
             260     145.341E-09     77.3843E-03         4.05413    -557.556E-03        -2.83996    -323.244E-03         1.53741    -557.556E-03        -6.63727     116.627E-03    -58.0325E-03    -58.5962E-03    -58.5956E-03     116.626E-03    -58.0325E-03    -298.699E-06    -71.8517E+06    -73.9707E+06    -276.648E+06    -72.6063E+06    -276.622E+06    -73.2428E+06    -743.478E+03         28.9884
             261     465.525E-09     76.2610E-03         3.88367    -529.376E-03        -2.69149    -310.510E-03         1.50269    -529.376E-03        -6.31979     116.192E-03    -57.7867E-03    -58.4058E-03    -58.4050E-03     116.191E-03    -57.7867E-03     639.769E-06    -73.7409E+06    -74.6677E+06    -278.285E+06    -74.4752E+06    -278.278E+06    -73.9398E+06     387.556E+03         28.9887
             262     100.480E-09     75.1413E-03         3.70741    -537.840E-03        -2.49258    -339.468E-03         1.55429    -537.840E-03        -5.89716     116.800E-03    -57.9569E-03    -58.8444E-03    -58.8434E-03     116.799E-03    -57.9569E-03     171.050E-06    -71.4654E+06    -71.9967E+06    -275.695E+06    -71.4722E+06    -275.688E+06    -71.9967E+06     406.499E+03         28.9858
             263     999.654E-09     74.0170E-03         3.50321    -567.193E-03        -2.23593    -430.166E-03         1.69745    -567.193E-03        -5.32860     116.900E-03    -58.0670E-03    -58.8368E-03    -58.8359E-03     116.899E-03    -58.0670E-03     114.492E-06    -70.4244E+06    -72.0572E+06    -273.684E+06    -71.7330E+06    -273.676E+06    -70.7567E+06     259.190E+03         28.9743
             264    -639.337E-09     72.8932E-03         3.25125    -479.446E-03        -2.06205    -472.321E-03         1.66152    -479.446E-03        -4.86567     116.028E-03    -57.8249E-03    -58.2070E-03    -58.0047E-03     116.025E-03    -58.0237E-03     1.44103E-03    -71.3752E+06    -75.4911E+06    -274.061E+06    -72.7213E+06    -274.016E+06    -74.1906E+06     1.59752E+06         28.9580
             265     217.236E-09     71.7720E-03         3.04491    -477.122E-03        -1.84846    -543.877E-03         1.74033    -477.122E-03        -4.31611     115.613E-03    -57.2549E-03    -58.3616E-03    -58.1599E-03     115.610E-03    -57.4538E-03     924.912E-06    -69.0755E+06    -74.7283E+06    -270.390E+06    -71.9844E+06    -270.319E+06    -71.8909E+06     3.75125E+06         28.9512
             266     1.53832E-06     70.6525E-03         2.85758    -517.420E-03        -1.58825    -656.134E-03         1.92546    -517.420E-03        -3.60483     115.828E-03    -57.4568E-03    -58.3746E-03    -58.3742E-03     115.828E-03    -57.4568E-03     277.074E-06    -68.3260E+06    -72.1087E+06    -268.081E+06    -71.2438E+06    -268.001E+06    -69.2714E+06    -621.309E+03         28.9562
             267    -1.52808E-06     69.5313E-03         2.53575    -382.669E-03        -1.40099    -751.576E-03         1.88633    -382.669E-03        -2.91860     116.603E-03    -58.2545E-03    -58.3486E-03    -58.2640E-03     116.603E-03    -58.3386E-03     159.582E-06    -70.1168E+06    -72.8226E+06    -269.650E+06    -70.1694E+06    -269.597E+06    -72.8226E+06    -2.51318E+06         28.9627
             268     1.35073E-06     68.4053E-03         2.35039    -326.703E-03        -1.25862    -833.208E-03         1.92497    -326.703E-03        -2.29595     116.799E-03    -57.9382E-03    -58.8593E-03    -58.7750E-03     116.799E-03    -58.0223E-03    -144.031E-06    -68.6935E+06    -73.5955E+06    -269.064E+06    -71.8456E+06    -269.053E+06    -70.4540E+06     752.068E+03         28.9609
             269     275.270E-09     67.2861E-03         2.25364    -314.845E-03        -1.16561    -976.871E-03         2.06489    -314.845E-03        -1.49765     115.846E-03    -57.4475E-03    -58.4006E-03    -58.2845E-03     115.846E-03    -57.5636E-03    -21.3313E-06    -68.3238E+06    -74.1644E+06    -270.638E+06    -71.4957E+06    -270.607E+06    -71.0228E+06    -454.654E+03         28.9537
             270    -529.534E-09     66.1631E-03         2.15295    -233.594E-03        -1.15352        -1.10731         2.10674    -233.594E-03    -660.347E-03     115.669E-03    -57.6942E-03    -57.9752E-03    -57.8587E-03     115.668E-03    -57.8103E-03     277.709E-06    -72.2647E+06    -76.3810E+06    -273.880E+06    -73.7038E+06    -273.858E+06    -74.9638E+06    -1.07119E+06         28.9554
             271     866.695E-09     65.0421E-03         2.17202    -181.392E-03        -1.20595        -1.19714         2.16321    -181.392E-03     84.2947E-03     116.638E-03    -58.0114E-03    -58.6247E-03    -58.6241E-03     116.637E-03    -58.0114E-03     674.468E-06    -73.4667E+06    -75.9170E+06    -274.233E+06    -74.8855E+06    -274.231E+06    -74.4998E+06     207.094E+03         28.9676
             272    -31.4489E-09     63.9182E-03         2.25896    -106.433E-03        -1.35761        -1.26377         2.16512    -106.433E-03         1.00063     117.027E-03    -58.1078E-03    -58.9194E-03    -58.9190E-03     117.026E-03    -58.1078E-03     570.591E-06    -71.0281E+06    -72.6579E+06    -271.807E+06    -71.6280E+06    -271.804E+06    -72.0612E+06     385.800E+03         28.9765
             273     723.906E-09     62.7952E-03         2.39266    -27.6290E-03        -1.56092        -1.31843         2.15017    -27.6290E-03         1.88319     116.256E-03    -57.8172E-03    -58.4403E-03    -58.4399E-03     116.256E-03    -57.8172E-03    -49.7321E-06    -71.3996E+06    -72.1414E+06    -269.685E+06    -72.0167E+06    -269.664E+06    -71.5448E+06    -759.374E+03         28.9761
             274     16.0533E-03     61.1663E-03         2.06617    -574.431E-03    -667.449E-03    -574.337E-03         2.06608    -667.449E-03    -5.87193E-03     138.989E-03    -58.1591E-03    -80.8747E-03    -56.2381E-03     114.352E-03    -58.1591E-03     129.616E-03     148.422E+06     125.425E+06    -7.35848E+06    -7.31359E+06     148.377E+06     125.425E+06     1.19143E+06         55.3861
             275     15.1047E-03     60.9505E-03         2.08565    -584.781E-03    -674.568E-03    -584.760E-03         2.08562    -674.568E-03     7.83922E-03     147.021E-03    -58.1231E-03    -88.9900E-03    -57.1333E-03     115.164E-03    -58.1231E-03     159.466E-03     141.068E+06     101.442E+06    -14.0041E+06    -13.8971E+06     140.961E+06     101.442E+06     506.226E+03         52.2970
             276     14.1616E-03     60.8079E-03         2.11074    -604.431E-03    -681.304E-03    -604.428E-03         2.11073    -681.304E-03    -983.939E-06     128.553E-03    -57.9652E-03    -70.6797E-03    -57.0703E-03     114.944E-03    -57.9652E-03     97.0032E-03     129.736E+06     57.7479E+06    -20.9697E+06    -20.8671E+06     129.634E+06     57.7479E+06    -716.454E+03         48.2911
             277     13.2164E-03     60.7367E-03         2.13651    -626.125E-03    -686.868E-03    -626.021E-03         2.13641    -686.868E-03    -17.3417E-03     118.492E-03    -57.8100E-03    -60.7325E-03    -56.0003E-03     113.760E-03    -57.8100E-03     56.8549E-03     116.110E+06     18.5213E+06    -25.6414E+06    -25.5930E+06     116.062E+06     18.5213E+06    -1.03557E+06         44.0730
             278     12.2710E-03     60.6826E-03         2.16143    -644.567E-03    -691.409E-03    -644.202E-03         2.16106    -691.409E-03     18.9136E-03     116.528E-03    -57.8054E-03    -58.7453E-03    -56.4140E-03     114.197E-03    -57.8054E-03     39.1774E-03     64.2213E+06    -6.61851E+06    -28.3457E+06    -28.2677E+06     64.1433E+06    -6.61851E+06    -302.474E+03         40.2993
             279     11.3272E-03     60.6524E-03         2.17081    -650.714E-03    -695.511E-03    -650.424E-03         2.17052    -695.511E-03     22.2692E-03     116.033E-03    -57.8196E-03    -58.2459E-03    -57.0736E-03     114.956E-03    -57.9150E-03     27.1078E-03     7.27348E+06    -22.9105E+06    -39.6923E+06    -29.5396E+06    -14.9634E+06    -10.8264E+06     126.577E+03         37.1842
             280     10.3825E-03     60.6250E-03         2.17937    -653.078E-03    -699.839E-03    -652.911E-03         2.17920    -699.839E-03     6.33256E-03     116.085E-03    -57.8327E-03    -58.2386E-03    -57.3535E-03     115.393E-03    -58.0261E-03     21.8073E-03    -3.39589E+06    -30.7259E+06    -71.9773E+06    -30.7980E+06    -71.9052E+06    -3.39589E+06     118.168E+03         34.7606
             281     9.43861E-03     60.6043E-03         2.20396    -669.984E-03    -703.931E-03    -669.831E-03         2.20380    -703.931E-03     14.5513E-03     115.994E-03    -57.7679E-03    -58.2053E-03    -57.4509E-03     115.575E-03    -58.1031E-03     16.7909E-03    -1.53828E+06    -33.5239E+06    -110.738E+06    -33.5480E+06    -110.714E+06    -1.53828E+06     247.763E+03         33.0641
             282     8.49475E-03     60.5897E-03         2.22193    -682.073E-03    -707.333E-03    -682.062E-03         2.22180    -707.212E-03     19.9471E-03     115.655E-03    -57.4977E-03    -58.1808E-03    -57.2694E-03     115.427E-03    -58.1808E-03     12.4909E-03    -3.37577E+06    -36.6778E+06    -142.165E+06    -36.6886E+06    -142.154E+06    -3.37577E+06     343.479E+03         31.9774
             283     7.54978E-03     60.5784E-03         2.23468    -691.857E-03    -710.565E-03    -691.729E-03         2.23384    -709.852E-03    -40.8981E-03     115.855E-03    -57.6223E-03    -58.2652E-03    -57.4747E-03     115.707E-03    -58.2652E-03     10.0450E-03    -8.06196E+06    -40.4693E+06    -168.836E+06    -40.4759E+06    -168.829E+06    -8.06196E+06     291.425E+03         31.2111
             284     6.60592E-03     60.5687E-03         2.24810    -698.633E-03    -718.621E-03    -703.720E-03         2.24619    -711.625E-03     16.7212E-03     116.215E-03    -57.9158E-03    -58.3249E-03    -57.8313E-03     116.131E-03    -58.3249E-03     7.54229E-03    -14.1161E+06    -44.8249E+06    -193.378E+06    -44.8302E+06    -193.373E+06    -14.1161E+06     436.505E+03         30.5993
             285     5.66221E-03     60.5630E-03         2.24692    -698.410E-03    -719.631E-03    -701.657E-03         2.24376    -713.227E-03    -25.8900E-03     116.272E-03    -57.9375E-03    -58.3606E-03    -57.8940E-03     116.228E-03    -58.3606E-03     5.45356E-03    -21.9612E+06    -49.8125E+06    -216.482E+06    -49.8198E+06    -216.475E+06    -21.9612E+06     523.843E+03         30.1210
             286     4.71793E-03     60.5579E-03         2.25423    -705.080E-03    -721.009E-03    -701.409E-03         2.24524    -715.694E-03     92.4180E-03     116.409E-03    -58.0381E-03    -58.3948E-03    -58.0164E-03     116.387E-03    -58.3948E-03     3.74947E-03    -30.8484E+06    -54.7681E+06    -238.474E+06    -54.7764E+06    -238.466E+06    -30.8484E+06     611.895E+03         29.7527
             287     3.77452E-03     60.5551E-03         2.26555    -707.780E-03    -729.951E-03    -698.385E-03         2.24606    -719.859E-03    -71.2487E-03     116.572E-03    -58.1800E-03    -58.4066E-03    -58.1715E-03     116.564E-03    -58.4066E-03     2.36203E-03    -40.5196E+06    -59.5972E+06    -253.416E+06    -59.6054E+06    -253.408E+06    -40.5196E+06     1.00587E+06         29.4690
             288     2.83084E-03     60.5538E-03         2.29909    -718.008E-03    -751.350E-03    -701.366E-03         2.25791    -726.807E-03     136.990E-03     116.675E-03    -58.2391E-03    -58.4482E-03    -58.3015E-03     116.671E-03    -58.3818E-03     1.62068E-03    -50.4293E+06    -64.2624E+06    -259.339E+06    -64.2693E+06    -259.333E+06    -50.4293E+06     1.09072E+06         29.2544
             289     1.88753E-03     60.5520E-03         2.39374    -737.596E-03    -827.135E-03    -711.415E-03         2.27802    -737.596E-03    -331.502E-03     116.589E-03    -58.1859E-03    -58.4128E-03    -58.2508E-03     116.588E-03    -58.3463E-03     971.232E-06    -59.8272E+06    -68.1910E+06    -264.740E+06    -68.1938E+06    -264.738E+06    -59.8272E+06     460.351E+03         29.1043
             290     943.079E-06     60.5532E-03         2.69746    -379.973E-03        -1.49473        -1.10849         2.31122    -379.973E-03     887.544E-03     116.603E-03    -57.9797E-03    -58.6258E-03    -58.4282E-03     116.603E-03    -58.1768E-03     458.870E-06    -67.6086E+06    -71.5790E+06    -269.547E+06    -70.9976E+06    -269.537E+06    -68.2008E+06     843.506E+03         29.0156
             291     16.0534E-03     60.0494E-03         2.10989    -599.753E-03    -678.936E-03    -599.716E-03         2.10985    -678.936E-03     17.8527E-03     139.716E-03    -58.1181E-03    -81.6336E-03    -56.8640E-03     114.946E-03    -58.1181E-03     129.489E-03     147.837E+06     125.683E+06    -7.08902E+06    -7.05453E+06     147.802E+06     125.683E+06     111.678E+03         55.3634
             292     15.1074E-03     59.8280E-03         2.12664    -605.257E-03    -685.447E-03    -605.149E-03         2.12653    -685.447E-03     28.3065E-03     147.416E-03    -58.0657E-03    -89.4491E-03    -57.1974E-03     115.164E-03    -58.0657E-03     160.610E-03     141.967E+06     101.564E+06    -13.4575E+06    -13.4017E+06     141.912E+06     101.564E+06     762.743E+03         52.2833
             293     14.1613E-03     59.6847E-03         2.13922    -614.046E-03    -692.004E-03    -613.941E-03         2.13911    -692.004E-03     23.1448E-03     127.702E-03    -57.9381E-03    -69.8515E-03    -56.3731E-03     114.224E-03    -57.9381E-03     96.0898E-03     131.142E+06     57.6318E+06    -19.9243E+06    -19.8282E+06     131.046E+06     57.6318E+06     718.315E+03         48.2849
             294     13.2174E-03     59.6145E-03         2.15966    -628.282E-03    -697.918E-03    -628.252E-03         2.15963    -697.918E-03     3.19772E-03     118.356E-03    -57.7987E-03    -60.6032E-03    -55.9021E-03     113.655E-03    -57.7987E-03     56.6305E-03     116.236E+06     16.9637E+06    -25.7903E+06    -25.7279E+06     116.174E+06     16.9637E+06     26.7542E+03         44.0698
             295     12.2716E-03     59.5625E-03         2.18184    -643.757E-03    -703.220E-03    -643.488E-03         2.18157    -703.220E-03     31.7011E-03     116.544E-03    -57.7936E-03    -58.7770E-03    -56.4151E-03     114.183E-03    -57.7936E-03     39.5421E-03     63.6256E+06    -8.56943E+06    -29.2169E+06    -29.1773E+06     63.5860E+06    -8.56943E+06    -310.320E+03         40.2972
             296     11.3265E-03     59.5276E-03         2.20276    -660.278E-03    -707.885E-03    -659.940E-03         2.20243    -707.885E-03     15.6910E-03     116.093E-03    -57.9083E-03    -58.2185E-03    -57.1363E-03     115.011E-03    -57.9083E-03     27.0603E-03     6.12519E+06    -23.5154E+06    -39.7019E+06    -30.4995E+06    -14.6597E+06    -11.9329E+06    -574.009E+03         37.1835
             297     10.3835E-03     59.5041E-03         2.22243    -672.610E-03    -711.945E-03    -672.396E-03         2.22222    -711.945E-03     1.25121E-03     115.954E-03    -57.7745E-03    -58.1613E-03    -57.2311E-03     115.268E-03    -58.0190E-03     21.7546E-03    -6.06022E+06    -32.3294E+06    -72.8406E+06    -32.4721E+06    -72.6979E+06    -6.06022E+06    -317.979E+03         34.7599
             298     9.43846E-03     59.4812E-03         2.24276    -685.634E-03    -715.432E-03    -685.428E-03         2.24255    -715.432E-03     8.02802E-03     115.706E-03    -57.5676E-03    -58.1221E-03    -57.1292E-03     115.268E-03    -58.1221E-03     17.0542E-03    -3.19332E+06    -34.4188E+06    -111.323E+06    -34.4415E+06    -111.300E+06    -3.19332E+06    -13.3821E+03         33.0640
             299     8.49389E-03     59.4685E-03         2.26310    -701.805E-03    -718.097E-03    -701.614E-03         2.26279    -717.977E-03     25.8288E-03     115.866E-03    -57.6939E-03    -58.2056E-03    -57.4659E-03     115.638E-03    -58.2056E-03     12.5227E-03    -4.59602E+06    -37.4981E+06    -141.977E+06    -37.5120E+06    -141.963E+06    -4.59602E+06     187.402E+03         31.9804
             300     7.54995E-03     59.4559E-03         2.26322    -700.650E-03    -720.391E-03    -699.986E-03         2.26243    -720.270E-03    -18.2956E-03     115.998E-03    -57.7649E-03    -58.2687E-03    -57.6151E-03     115.848E-03    -58.2687E-03     10.1088E-03    -9.44661E+06    -41.3122E+06    -168.988E+06    -41.3186E+06    -168.982E+06    -9.44661E+06     326.196E+03         31.2148
             301     6.60587E-03     59.4465E-03         2.26010    -696.393E-03    -723.772E-03    -693.996E-03         2.25771    -723.772E-03     48.4596E-03     116.107E-03    -57.8023E-03    -58.3289E-03    -57.7205E-03     116.025E-03    -58.3289E-03     7.41892E-03    -15.1716E+06    -45.4783E+06    -193.875E+06    -45.4846E+06    -193.868E+06    -15.1716E+06     542.709E+03         30.6023
             302     5.66178E-03     59.4404E-03         2.27594    -709.088E-03    -729.161E-03    -704.440E-03         2.27007    -727.939E-03    -44.8445E-03     116.325E-03    -57.9762E-03    -58.3759E-03    -57.9337E-03     116.283E-03    -58.3759E-03     5.40004E-03    -21.7511E+06    -50.1346E+06    -216.224E+06    -50.1450E+06    -216.214E+06    -21.7511E+06     1.09812E+06         30.1245
             303     4.71859E-03     59.4353E-03         2.29773    -724.366E-03    -737.771E-03    -718.394E-03         2.28522    -731.233E-03     76.5421E-03     116.422E-03    -58.0427E-03    -58.4063E-03    -58.0208E-03     116.400E-03    -58.4063E-03     3.77243E-03    -31.2622E+06    -55.4717E+06    -238.567E+06    -55.4809E+06    -238.558E+06    -31.2622E+06     1.05678E+06         29.7551
             304     3.77420E-03     59.4332E-03         2.31555    -733.555E-03    -747.523E-03    -720.672E-03         2.28939    -734.247E-03    -96.8658E-03     116.543E-03    -58.1462E-03    -58.4134E-03    -58.1373E-03     116.534E-03    -58.4134E-03     2.44071E-03    -41.9247E+06    -60.2231E+06    -252.923E+06    -60.2306E+06    -252.915E+06    -41.9247E+06     496.814E+03         29.4694
             305     2.83073E-03     59.4303E-03         2.36323    -738.842E-03    -785.822E-03    -721.605E-03         2.29902    -738.842E-03     216.302E-03     116.603E-03    -58.1884E-03    -58.4258E-03    -58.1847E-03     116.599E-03    -58.4258E-03     1.44893E-03    -51.2949E+06    -63.7636E+06    -258.827E+06    -63.7709E+06    -258.820E+06    -51.2949E+06     61.5327E+03         29.2548
             306     1.88660E-03     59.4307E-03         2.47065    -749.733E-03    -880.131E-03    -717.732E-03         2.30825    -749.733E-03    -326.319E-03     116.697E-03    -58.2173E-03    -58.4867E-03    -58.2427E-03     116.696E-03    -58.4604E-03     709.877E-06    -59.9919E+06    -66.4862E+06    -264.851E+06    -66.4917E+06    -264.845E+06    -59.9919E+06     137.267E+03         29.1074
             307     943.565E-06     59.4294E-03         2.89572    -385.952E-03        -1.66506        -1.13012         2.36078    -385.952E-03         1.13844     116.910E-03    -58.0198E-03    -58.8911E-03    -58.8062E-03     116.909E-03    -58.1042E-03     432.222E-06    -67.1740E+06    -69.6136E+06    -268.318E+06    -69.6175E+06    -268.314E+06    -67.1740E+06     240.897E+03         29.0221
             308     16.0512E-03     58.9250E-03         2.13801    -605.633E-03    -689.346E-03    -605.604E-03         2.13798    -689.346E-03     3.62533E-03     139.962E-03    -58.1418E-03    -81.8938E-03    -57.1936E-03     115.262E-03    -58.1418E-03     130.296E-03     147.386E+06     125.787E+06    -7.88979E+06    -7.85550E+06     147.352E+06     125.787E+06    -564.490E+03         55.3315
             309     15.1085E-03     58.7052E-03         2.15796    -616.861E-03    -695.602E-03    -616.750E-03         2.15785    -695.602E-03     7.86012E-03     147.997E-03    -58.0568E-03    -90.0607E-03    -57.7159E-03     115.652E-03    -58.0568E-03     161.584E-03     141.640E+06     100.790E+06    -15.4468E+06    -15.3898E+06     141.583E+06     100.790E+06     373.753E+03         52.2629
             310     14.1630E-03     58.5652E-03         2.17640    -630.248E-03    -701.609E-03    -630.125E-03         2.17628    -701.609E-03     12.4637E-03     127.795E-03    -57.9246E-03    -69.9638E-03    -56.0753E-03     113.907E-03    -57.9246E-03     97.4222E-03     130.614E+06     56.1475E+06    -21.2252E+06    -21.1634E+06     130.552E+06     56.1475E+06     1.45613E+06         48.2765
             311     13.2153E-03     58.4913E-03         2.19248    -641.317E-03    -706.971E-03    -641.189E-03         2.19235    -706.971E-03    -17.2369E-03     118.473E-03    -57.7991E-03    -60.7157E-03    -55.9726E-03     113.730E-03    -57.7991E-03     56.8356E-03     117.104E+06     16.6320E+06    -25.4614E+06    -25.4222E+06     117.065E+06     16.6320E+06     1.03008E+06         44.0662
             312     12.2718E-03     58.4408E-03         2.20560    -648.821E-03    -712.101E-03    -648.649E-03         2.20543    -712.101E-03    -337.185E-06     116.743E-03    -57.7854E-03    -58.9770E-03    -56.6008E-03     114.367E-03    -57.7854E-03     39.8395E-03      64.403E+06    -8.41936E+06    -28.1319E+06    -28.0981E+06     64.3693E+06    -8.41936E+06    -34.1301E+03         40.2953
             313     11.3275E-03     58.4053E-03         2.22852    -666.835E-03    -716.847E-03    -666.636E-03         2.22832    -716.847E-03    -6.84674E-03     115.867E-03    -57.7190E-03    -58.1845E-03    -56.8765E-03     114.745E-03    -57.9043E-03     27.4884E-03     5.05051E+06    -23.6589E+06    -39.1876E+06    -29.9616E+06    -15.2298E+06    -12.6046E+06    -377.672E+03         37.1830
             314     10.3823E-03     58.3813E-03         2.25555    -688.377E-03    -720.564E-03    -688.176E-03         2.25535    -720.564E-03    -11.8528E-03     115.749E-03    -57.6654E-03    -58.0676E-03    -57.0120E-03     115.064E-03    -58.0357E-03     21.7091E-03    -6.83837E+06    -32.1716E+06    -73.1638E+06    -32.3447E+06    -72.9907E+06    -6.83837E+06    -552.500E+03         34.7609
             315     9.43791E-03     58.3606E-03         2.26742    -692.883E-03    -723.712E-03    -692.742E-03         2.26728    -723.712E-03     2.23606E-03     115.862E-03    -57.6989E-03    -58.1449E-03    -57.2577E-03     115.420E-03    -58.1449E-03     17.1624E-03    -4.56675E+06    -35.2639E+06    -112.132E+06    -35.3018E+06    -112.095E+06    -4.56675E+06    -442.319E+03         33.0679
             316     8.49372E-03     58.3450E-03         2.26827    -689.444E-03    -727.503E-03    -689.130E-03         2.26796    -727.503E-03     25.2074E-03     116.026E-03    -57.8433E-03    -58.2190E-03    -57.6153E-03     115.798E-03    -58.2190E-03     12.5000E-03    -5.46909E+06    -38.4528E+06    -141.747E+06    -38.4632E+06    -141.736E+06    -5.46909E+06     77.5976E+03         31.9860
             317     7.55032E-03     58.3337E-03         2.28027    -697.884E-03    -731.925E-03    -696.941E-03         2.27933    -731.925E-03    -25.7315E-03     116.120E-03    -57.8926E-03    -58.2659E-03    -57.7496E-03     115.977E-03    -58.2659E-03     9.90358E-03    -10.5950E+06    -42.4472E+06    -169.234E+06    -42.4526E+06    -169.229E+06    -10.5950E+06     287.277E+03         31.2193
             318     6.60581E-03     58.3247E-03         2.30152    -716.509E-03    -735.766E-03    -713.872E-03         2.29888    -735.766E-03     44.5324E-03     116.091E-03    -57.8039E-03    -58.3168E-03    -57.7204E-03     116.007E-03    -58.3168E-03     7.52570E-03    -16.3518E+06    -46.3132E+06    -194.419E+06    -46.3187E+06    -194.413E+06    -16.3518E+06     553.458E+03         30.6049
             319     5.66216E-03     58.3174E-03         2.31481    -726.991E-03    -740.032E-03    -721.787E-03         2.30838    -738.810E-03    -53.8644E-03     116.230E-03    -57.8918E-03    -58.3708E-03    -57.8499E-03     116.189E-03    -58.3708E-03     5.28711E-03    -22.6200E+06    -50.3879E+06    -216.494E+06    -50.3952E+06    -216.486E+06    -22.6200E+06     954.927E+03         30.1263
             320     4.71763E-03     58.3137E-03         2.33208    -735.219E-03    -750.352E-03    -729.160E-03         2.31717    -741.503E-03     87.8798E-03     116.431E-03    -58.0467E-03    -58.4136E-03    -58.0267E-03     116.411E-03    -58.4136E-03     3.67708E-03    -30.6528E+06    -54.7899E+06    -237.457E+06    -54.7966E+06    -237.451E+06    -30.6528E+06     1.05411E+06         29.7569
             321     3.77457E-03     58.3098E-03         2.35208    -744.039E-03    -763.793E-03    -729.002E-03         2.31798    -744.731E-03    -131.715E-03     116.556E-03    -58.1591E-03    -58.4150E-03    -58.1499E-03     116.547E-03    -58.4150E-03     2.43617E-03    -42.0249E+06    -59.4587E+06    -252.100E+06    -59.4630E+06    -252.095E+06    -42.0249E+06     317.163E+03         29.4710
             322     2.83067E-03     58.3089E-03         2.41402    -748.561E-03    -818.117E-03    -737.449E-03         2.33335    -748.561E-03     223.588E-03     116.612E-03    -58.2022E-03    -58.4222E-03    -58.2089E-03     116.609E-03    -58.4128E-03     1.25829E-03    -53.5329E+06    -63.5634E+06    -259.238E+06    -63.5667E+06    -259.234E+06    -53.5329E+06    -377.006E+03         29.2559
             323     1.88717E-03     58.3074E-03         2.55572    -754.311E-03    -952.393E-03    -738.710E-03         2.34204    -754.311E-03    -418.941E-03     116.745E-03    -58.2961E-03    -58.4565E-03    -58.3310E-03     116.744E-03    -58.4209E-03     681.375E-06    -61.5591E+06    -67.2485E+06    -265.408E+06    -67.2535E+06    -265.403E+06    -61.5591E+06     138.208E+03         29.1080
             324     943.516E-06     58.3068E-03         3.08047    -347.662E-03        -1.87897        -1.16880         2.37030    -347.662E-03         1.35559     116.782E-03    -58.1372E-03    -58.6477E-03    -58.4746E-03     116.781E-03    -58.3098E-03     527.563E-06    -67.1618E+06    -69.6962E+06    -267.587E+06    -69.2579E+06    -267.583E+06    -67.6038E+06     285.543E+03         29.0209
             325     16.0519E-03     57.7976E-03         2.15314    -605.195E-03    -696.901E-03    -605.155E-03         2.15310    -696.901E-03    -14.9191E-03     139.449E-03    -58.1709E-03    -81.3599E-03    -56.5070E-03     114.596E-03    -58.1709E-03     131.187E-03     147.394E+06     125.014E+06    -8.05332E+06    -8.02270E+06     147.364E+06     125.014E+06    -113.889E+03         55.2959
             326     15.1056E-03     57.5854E-03         2.17884    -622.126E-03    -702.986E-03    -622.100E-03         2.17882    -702.986E-03    -14.1296E-03     147.627E-03    -58.1020E-03    -89.6437E-03    -57.4748E-03     115.458E-03    -58.1020E-03     160.866E-03     139.652E+06     99.3537E+06    -15.6927E+06    -15.6249E+06     139.584E+06     99.3537E+06     262.916E+03         52.2374
             327     14.1599E-03     57.4405E-03         2.20257    -638.920E-03    -708.564E-03    -638.881E-03         2.20253    -708.564E-03    -6.20930E-03     128.431E-03    -57.9562E-03    -70.5767E-03    -56.7043E-03     114.559E-03    -57.9562E-03     97.5663E-03     129.748E+06     56.1823E+06    -21.6283E+06    -21.5811E+06     129.701E+06     56.1823E+06     713.960E+03         48.2648
             328     13.2178E-03     57.3714E-03         2.21888    -650.613E-03    -713.566E-03    -650.472E-03         2.21874    -713.566E-03    -22.0656E-03     118.818E-03    -57.8124E-03    -61.0437E-03    -56.3140E-03     114.088E-03    -57.8124E-03     56.9796E-03     118.143E+06     18.3534E+06    -24.4561E+06    -24.4417E+06     118.128E+06     18.3534E+06     843.598E+03         44.0624
             329     12.2712E-03     57.3166E-03         2.23512    -661.165E-03    -718.310E-03    -660.808E-03         2.23476    -718.310E-03     10.6127E-03     116.725E-03    -57.7071E-03    -59.0283E-03    -56.5662E-03     114.346E-03    -57.7897E-03     39.6631E-03     65.0365E+06    -7.26716E+06    -26.8298E+06    -26.7501E+06     64.9569E+06    -7.26716E+06     852.561E+03         40.2933
             330     11.3269E-03     57.2844E-03         2.25007    -672.154E-03    -722.840E-03    -671.819E-03         2.24974    -722.840E-03     11.9815E-03     115.584E-03    -57.5319E-03    -58.0914E-03    -56.6156E-03     114.490E-03    -57.9138E-03     27.2059E-03     5.31366E+06    -23.7322E+06    -38.6456E+06    -29.6283E+06    -15.1330E+06    -12.3028E+06     434.797E+03         37.1820
             331     10.3819E-03     57.2590E-03         2.26027    -677.459E-03    -727.396E-03    -677.197E-03         2.26000    -727.396E-03     8.02894E-03     115.791E-03    -57.7179E-03    -58.0567E-03    -57.0267E-03     115.099E-03    -58.0558E-03     21.7873E-03    -6.44405E+06    -32.1251E+06    -72.9307E+06    -32.2445E+06    -72.8114E+06    -6.44405E+06    -193.087E+03         34.7631
             332     9.43808E-03     57.2380E-03         2.27516    -687.072E-03    -732.085E-03    -686.898E-03         2.27499    -732.085E-03     36.2833E-03     116.155E-03    -57.9811E-03    -58.1505E-03    -57.5554E-03     115.728E-03    -58.1496E-03     16.9484E-03    -4.64935E+06    -35.2973E+06    -112.238E+06    -35.3406E+06    -112.195E+06    -4.64935E+06    -382.424E+03         33.0734
             333     8.49422E-03     57.2228E-03         2.29019    -699.443E-03    -736.548E-03    -699.282E-03         2.29002    -736.548E-03     34.7965E-03     116.022E-03    -57.8480E-03    -58.2090E-03    -57.6219E-03     115.796E-03    -58.2090E-03     12.4418E-03    -6.01667E+06    -38.9541E+06    -142.364E+06    -38.9652E+06    -142.353E+06    -6.01667E+06     7.31586E+03         31.9906
             334     7.54951E-03     57.2114E-03         2.30601    -710.878E-03    -740.613E-03    -710.137E-03         2.30526    -740.613E-03    -27.5250E-03     116.098E-03    -57.8805E-03    -58.2599E-03    -57.7421E-03     115.960E-03    -58.2599E-03     9.72859E-03    -10.6046E+06    -42.5072E+06    -169.176E+06    -42.5125E+06    -169.171E+06    -10.6046E+06     191.267E+03         31.2222
             335     6.60636E-03     57.2021E-03         2.32755    -726.451E-03    -743.971E-03    -724.363E-03         2.32547    -743.971E-03     37.8433E-03     116.166E-03    -57.8975E-03    -58.3015E-03    -57.8167E-03     116.085E-03    -58.3015E-03     7.41588E-03    -16.8333E+06    -46.4482E+06    -194.319E+06    -46.4506E+06    -194.317E+06    -16.8333E+06     189.356E+03         30.6072
             336     5.66190E-03     57.1957E-03         2.33770    -731.197E-03    -747.215E-03    -725.576E-03         2.33207    -747.215E-03    -61.6732E-03     116.202E-03    -57.8906E-03    -58.3450E-03    -57.8484E-03     116.160E-03    -58.3450E-03     5.31960E-03    -23.3053E+06    -50.3809E+06    -216.938E+06    -50.3825E+06    -216.937E+06    -23.3053E+06     200.417E+03         30.1272
             337     4.71860E-03     57.1907E-03         2.36156    -740.464E-03    -763.259E-03    -737.718E-03         2.34587    -750.313E-03     111.291E-03     116.384E-03    -58.0231E-03    -58.3876E-03    -58.0039E-03     116.364E-03    -58.3876E-03     3.57005E-03    -30.6959E+06    -54.3074E+06    -237.013E+06    -54.3105E+06    -237.010E+06    -30.6959E+06     486.620E+03         29.7574
             338     3.77427E-03     57.1878E-03         2.39925    -751.000E-03    -794.941E-03    -755.770E-03         2.36008    -751.000E-03    -149.390E-03     116.470E-03    -58.0836E-03    -58.4043E-03    -58.0757E-03     116.462E-03    -58.4043E-03     2.29582E-03    -41.3391E+06    -58.9371E+06    -251.761E+06    -58.9395E+06    -251.759E+06    -41.3391E+06     612.511E+03         29.4720
             339     2.83067E-03     57.1859E-03         2.46081    -748.066E-03    -859.256E-03    -762.136E-03         2.36369    -748.066E-03     256.379E-03     116.631E-03    -58.2369E-03    -58.4080E-03    -58.2431E-03     116.628E-03    -58.3986E-03     1.46426E-03    -53.1005E+06    -63.6809E+06    -259.546E+06    -63.6836E+06    -259.544E+06    -53.1005E+06     618.988E+03         29.2565
             340     1.88724E-03     57.1849E-03         2.60924    -744.789E-03        -1.01003    -748.497E-03         2.34772    -744.789E-03    -475.056E-03     116.737E-03    -58.3280E-03    -58.4188E-03    -58.3832E-03     116.736E-03    -58.3624E-03     822.028E-06    -62.0266E+06    -67.5372E+06    -264.901E+06    -67.5393E+06    -264.899E+06    -62.0266E+06     326.004E+03         29.1071
             341     943.584E-06     57.1845E-03         3.22241    -320.736E-03        -2.05156        -1.16697         2.33782    -320.736E-03         1.56809     116.614E-03    -58.1329E-03    -58.4844E-03    -58.3116E-03     116.613E-03    -58.3054E-03     250.478E-06    -67.6634E+06    -70.2028E+06    -267.171E+06    -69.7639E+06    -267.168E+06    -68.1054E+06    -326.109E+03         29.0184
             342     16.0516E-03     56.6796E-03         2.17053    -607.677E-03    -702.256E-03    -607.647E-03         2.17050    -702.256E-03    -7.11894E-03     139.411E-03    -58.1639E-03    -81.3171E-03    -56.3679E-03     114.462E-03    -58.1639E-03     131.028E-03     147.278E+06     124.636E+06    -7.59848E+06    -7.56727E+06     147.247E+06     124.636E+06     696.743E+03         55.2606
             343     15.1054E-03     56.4606E-03         2.19729    -625.761E-03    -708.335E-03    -625.746E-03         2.19728    -708.335E-03     4.86868E-03     147.210E-03    -58.0974E-03    -89.2266E-03    -57.3674E-03     115.350E-03    -58.0974E-03     159.589E-03     139.223E+06     98.6616E+06    -15.7387E+06    -15.7074E+06     139.191E+06     98.6616E+06    -152.593E+03         52.2146
             344     14.1622E-03     56.3194E-03         2.21731    -638.039E-03    -714.124E-03    -637.999E-03         2.21727    -714.124E-03     14.6757E-03     127.820E-03    -57.9531E-03    -69.9736E-03    -56.6064E-03     114.453E-03    -57.9531E-03     95.8718E-03     129.095E+06     55.0876E+06    -21.8467E+06    -21.8184E+06     129.066E+06     55.0876E+06    -408.413E+03         48.2561
             345     13.2148E-03     56.2472E-03         2.23478    -650.125E-03    -719.586E-03    -650.074E-03         2.23473    -719.586E-03     1.58542E-03     118.697E-03    -57.8204E-03    -60.9276E-03    -56.1947E-03     113.964E-03    -57.8204E-03     56.9404E-03     116.585E+06     16.4402E+06    -26.6035E+06    -26.5625E+06     116.544E+06     16.4402E+06     967.386E+03         44.0594
             346     12.2726E-03     56.1954E-03         2.25441    -665.629E-03    -724.663E-03    -665.149E-03         2.25393    -724.663E-03     41.1302E-03     116.665E-03    -57.7206E-03    -58.9697E-03    -56.5174E-03     114.295E-03    -57.8031E-03     39.5627E-03     65.6430E+06    -7.52762E+06    -28.9860E+06    -28.9014E+06     65.5585E+06    -7.52762E+06     1.60438E+06         40.2904
             347     11.3267E-03     56.1625E-03         2.27073    -677.457E-03    -729.363E-03    -676.967E-03         2.27024    -729.363E-03     43.6459E-03     115.685E-03    -57.7257E-03    -57.9976E-03    -56.7130E-03     114.597E-03    -57.9223E-03     27.1532E-03     6.54336E+06    -23.1284E+06    -38.9343E+06    -29.9947E+06    -13.5632E+06    -11.9615E+06     711.636E+03         37.1800
             348     10.3822E-03     56.1372E-03         2.27756    -680.723E-03    -734.150E-03    -680.593E-03         2.27743    -734.150E-03     10.5386E-03     115.983E-03    -57.8993E-03    -58.0633E-03    -57.2131E-03     115.285E-03    -58.0513E-03     21.9184E-03    -6.55214E+06    -31.8724E+06    -72.6271E+06    -31.9738E+06    -72.5257E+06    -6.55214E+06     193.504E+03         34.7626
             349     9.43805E-03     56.1147E-03         2.28700    -687.555E-03    -739.289E-03    -687.455E-03         2.28690    -739.289E-03     20.5078E-03     116.163E-03    -58.0084E-03    -58.1349E-03    -57.5877E-03     115.741E-03    -58.1340E-03     16.7793E-03    -4.79631E+06    -35.3142E+06    -112.310E+06    -35.3410E+06    -112.283E+06    -4.79631E+06     165.794E+03         33.0739
             350     8.49402E-03     56.1010E-03         2.31656    -714.845E-03    -743.550E-03    -714.729E-03         2.31644    -743.550E-03     27.9478E-03     116.043E-03    -57.8944E-03    -58.1858E-03    -57.6822E-03     115.831E-03    -58.1858E-03     12.0664E-03    -5.98344E+06    -38.8715E+06    -142.500E+06    -38.8883E+06    -142.484E+06    -5.98344E+06     131.471E+03         31.9909
             351     7.55056E-03     56.0886E-03         2.33900    -732.324E-03    -746.097E-03    -731.753E-03         2.33843    -746.097E-03    -26.3760E-03     115.982E-03    -57.7837E-03    -58.2361E-03    -57.6479E-03     115.846E-03    -58.2361E-03     9.64423E-03    -10.8656E+06    -42.6620E+06    -169.252E+06    -42.6670E+06    -169.247E+06    -10.8656E+06     62.3010E+03         31.2225
             352     6.60598E-03     56.0799E-03         2.34577    -733.286E-03    -748.209E-03    -731.649E-03         2.34413    -748.209E-03     32.9090E-03     116.150E-03    -57.9000E-03    -58.2791E-03    -57.8200E-03     116.069E-03    -58.2791E-03     7.35633E-03    -17.4604E+06    -46.9813E+06    -194.430E+06    -46.9837E+06    -194.427E+06    -17.4604E+06    -101.765E+03         30.6081
             353     5.66250E-03     56.0734E-03         2.36128    -739.702E-03    -754.322E-03    -736.742E-03         2.35455    -750.551E-03    -100.809E-03     116.258E-03    -57.9758E-03    -58.3099E-03    -57.9346E-03     116.217E-03    -58.3099E-03     5.28331E-03    -24.2747E+06    -51.3673E+06    -217.076E+06    -51.3691E+06    -217.075E+06    -24.2747E+06    -95.2308E+03         30.1276
             354     4.71816E-03     56.0683E-03         2.38276    -748.041E-03    -767.908E-03    -746.260E-03         2.36537    -752.298E-03     85.3882E-03     116.270E-03    -57.9499E-03    -58.3443E-03    -57.9300E-03     116.250E-03    -58.3443E-03     3.63101E-03    -32.3790E+06    -55.8653E+06    -237.573E+06    -55.8681E+06    -237.570E+06    -32.3790E+06     31.0736E+03         29.7561
             355     3.77479E-03     56.0657E-03         2.41476    -752.447E-03    -800.412E-03    -756.001E-03         2.37035    -752.447E-03    -184.757E-03     116.424E-03    -58.0771E-03    -58.3648E-03    -58.0727E-03     116.416E-03    -58.3611E-03     2.31946E-03    -41.9384E+06    -59.8185E+06    -252.049E+06    -59.8230E+06    -252.045E+06    -41.9384E+06     500.010E+03         29.4695
             356     2.83069E-03     56.0634E-03         2.49277    -748.802E-03    -883.204E-03    -767.986E-03         2.37755    -748.802E-03     285.145E-03     116.533E-03    -58.1782E-03    -58.3668E-03    -58.1789E-03     116.530E-03    -58.3631E-03     1.36076E-03    -51.0524E+06    -63.4365E+06    -258.648E+06    -63.4419E+06    -258.642E+06    -51.0524E+06     504.906E+03         29.2532
             357     1.88709E-03     56.0622E-03         2.66757    -744.252E-03        -1.06708    -749.672E-03         2.35016    -744.252E-03    -539.607E-03     116.592E-03    -58.1861E-03    -58.4140E-03    -58.2320E-03     116.591E-03    -58.3670E-03     790.299E-06    -59.8356E+06    -66.7485E+06    -263.928E+06    -66.7519E+06    -263.925E+06    -59.8356E+06     125.728E+03         29.1038
             358     943.880E-06     56.0619E-03         3.38296    -314.128E-03        -2.21492        -1.17204         2.34007    -314.128E-03         1.72800     116.681E-03    -58.0369E-03    -58.6484E-03    -58.5584E-03     116.680E-03    -58.1262E-03     556.370E-06    -68.1134E+06    -70.3146E+06    -267.697E+06    -70.3207E+06    -267.691E+06    -68.1134E+06     114.632E+03         29.0177
             359     16.0523E-03     55.5594E-03         2.18377    -606.090E-03    -706.303E-03    -606.086E-03         2.18376    -706.303E-03     4.88868E-03     140.056E-03    -58.1556E-03    -81.9437E-03    -56.8241E-03     114.937E-03    -58.1556E-03     131.395E-03     148.083E+06     126.596E+06    -5.96424E+06    -5.92767E+06     148.046E+06     126.596E+06     626.862E+03         55.2249
             360     15.1081E-03     55.3367E-03         2.20479    -619.246E-03    -712.700E-03    -619.231E-03         2.20477    -712.700E-03     10.8500E-03     147.681E-03    -58.0822E-03    -89.6933E-03    -57.4012E-03     115.388E-03    -58.0822E-03     160.905E-03     140.118E+06     100.091E+06    -13.8509E+06    -13.8289E+06     140.096E+06     100.091E+06     681.313E+03         52.1932
             361     14.1614E-03     55.1987E-03         2.22721    -634.962E-03    -718.910E-03    -634.933E-03         2.22718    -718.910E-03     17.1427E-03     127.847E-03    -57.9471E-03    -69.9997E-03    -56.4860E-03     114.333E-03    -57.9471E-03     96.3439E-03     127.932E+06     54.5363E+06    -22.0650E+06    -21.9991E+06     127.866E+06     54.5363E+06     1.29934E+06         48.2491
             362     13.2177E-03     55.1250E-03         2.25274    -656.789E-03    -724.420E-03    -656.709E-03         2.25266    -724.420E-03    -6.10942E-03     118.443E-03    -57.8248E-03    -60.6718E-03    -55.9492E-03     113.721E-03    -57.8248E-03     56.7373E-03     116.202E+06     16.7868E+06    -27.2073E+06    -27.1077E+06     116.103E+06     16.7868E+06     1.38433E+06         44.0572
             363     12.2701E-03     55.0731E-03         2.26974    -667.500E-03    -729.387E-03    -667.176E-03         2.26942    -729.387E-03     12.3843E-03     116.497E-03    -57.8075E-03    -58.7197E-03    -56.4012E-03     114.178E-03    -57.8075E-03     39.1336E-03     65.6116E+06    -7.09776E+06    -29.0743E+06    -29.0339E+06     65.5712E+06    -7.09776E+06     404.468E+03         40.2875
             364     11.3266E-03     55.0405E-03         2.28419    -677.827E-03    -734.231E-03    -677.457E-03         2.28382    -734.231E-03     12.2211E-03     116.105E-03    -57.9179E-03    -58.2169E-03    -57.1472E-03     115.035E-03    -57.9179E-03     26.9460E-03     7.53314E+06    -22.4084E+06    -38.1622E+06    -29.5277E+06    -12.9673E+06    -10.5424E+06     439.633E+03         37.1772
             365     10.3826E-03     55.0144E-03         2.30699    -698.876E-03    -738.455E-03    -698.762E-03         2.30687    -738.455E-03    -15.7534E-03     116.068E-03    -57.9340E-03    -58.1061E-03    -57.3519E-03     115.399E-03    -58.0192E-03     21.4703E-03    -5.59243E+06    -31.7736E+06    -71.9912E+06    -31.8458E+06    -71.9190E+06    -5.59243E+06     718.953E+03         34.7585
             366     9.43849E-03     54.9929E-03         2.31708    -708.287E-03    -741.976E-03    -708.269E-03         2.31707    -741.976E-03    -8.30723E-03     115.919E-03    -57.7991E-03    -58.0978E-03    -57.3891E-03     115.509E-03    -58.0978E-03     16.5463E-03    -4.71385E+06    -35.2528E+06    -112.444E+06    -35.2824E+06    -112.414E+06    -4.71385E+06     524.405E+03         33.0679
             367     8.49476E-03     54.9776E-03         2.32351    -711.830E-03    -745.549E-03    -711.651E-03         2.32333    -745.549E-03     22.9731E-03     115.884E-03    -57.7541E-03    -58.1651E-03    -57.5423E-03     115.673E-03    -58.1651E-03     12.0451E-03    -5.81681E+06    -38.5763E+06    -142.832E+06    -38.5889E+06    -142.820E+06    -5.81681E+06     393.509E+03         31.9866
             368     7.55023E-03     54.9674E-03         2.34593    -729.927E-03    -748.661E-03    -728.968E-03         2.34497    -748.661E-03    -38.5548E-03     116.007E-03    -57.8328E-03    -58.2158E-03    -57.6941E-03     115.868E-03    -58.2158E-03     9.76364E-03    -10.5512E+06    -42.4503E+06    -169.128E+06    -42.4559E+06    -169.122E+06    -10.5512E+06     111.640E+03         31.2210
             369     6.60629E-03     54.9571E-03         2.36614    -745.170E-03    -751.342E-03    -743.137E-03         2.36319    -750.421E-03     43.2819E-03     116.123E-03    -57.9046E-03    -58.2515E-03    -57.8232E-03     116.042E-03    -58.2515E-03     7.39954E-03    -16.9177E+06    -46.7622E+06    -194.575E+06    -46.7643E+06    -194.573E+06    -16.9177E+06    -154.700E+03         30.6072
             370     5.66253E-03     54.9508E-03         2.37990    -749.800E-03    -756.868E-03    -747.636E-03         2.37212    -751.257E-03    -74.5204E-03     116.197E-03    -57.9454E-03    -58.2790E-03    -57.9062E-03     116.158E-03    -58.2790E-03     5.15040E-03    -23.8226E+06    -51.0287E+06    -217.134E+06    -51.0305E+06    -217.132E+06    -23.8226E+06    -196.310E+03         30.1263
             371     4.71886E-03     54.9466E-03         2.39785    -751.423E-03    -773.679E-03    -752.873E-03         2.37704    -751.423E-03     122.289E-03     116.270E-03    -57.9890E-03    -58.3068E-03    -57.9697E-03     116.250E-03    -58.3068E-03     3.59556E-03    -31.7945E+06    -55.2867E+06    -237.558E+06    -55.2888E+06    -237.555E+06    -31.7945E+06    -142.469E+03         29.7534
             372     3.77449E-03     54.9429E-03         2.42784    -751.175E-03    -804.748E-03    -752.043E-03         2.37513    -751.175E-03    -179.137E-03     116.386E-03    -58.0957E-03    -58.3101E-03    -58.0909E-03     116.378E-03    -58.3064E-03     2.36624E-03    -41.4474E+06    -59.7066E+06    -252.374E+06    -59.7107E+06    -252.370E+06    -41.4474E+06    -48.0811E+03         29.4649
             373     2.83146E-03     54.9413E-03         2.51135    -749.273E-03    -889.936E-03    -760.034E-03         2.38144    -749.273E-03     297.176E-03     116.429E-03    -58.1393E-03    -58.3015E-03    -58.1484E-03     116.426E-03    -58.2894E-03     1.36397E-03    -51.2696E+06    -63.6547E+06    -258.235E+06    -63.6616E+06    -258.228E+06    -51.2696E+06     157.884E+03         29.2471
             374     1.88730E-03     54.9401E-03         2.74218    -743.338E-03        -1.13212    -759.890E-03         2.36995    -743.338E-03    -644.121E-03     116.391E-03    -58.0864E-03    -58.3121E-03    -58.0939E-03     116.391E-03    -58.3037E-03     610.825E-06    -60.6860E+06    -67.7548E+06    -264.369E+06    -67.7595E+06    -264.364E+06    -60.6860E+06     50.2845E+03         29.0969
             375     942.863E-06     54.9395E-03         3.54852    -296.229E-03        -2.38669        -1.18246         2.34428    -296.229E-03         1.84392     116.595E-03    -58.0339E-03    -58.5633E-03    -58.4300E-03     116.594E-03    -58.1661E-03     658.395E-06    -67.9472E+06    -70.7892E+06    -267.144E+06    -70.2023E+06    -267.139E+06    -68.5384E+06     472.577E+03         29.0112
             376     16.0524E-03     54.4339E-03         2.19763    -609.766E-03    -708.709E-03    -609.731E-03         2.19760    -708.709E-03    -8.17199E-03     139.934E-03    -58.1388E-03    -81.8495E-03    -56.7851E-03     114.869E-03    -58.1388E-03     130.619E-03     147.275E+06     124.757E+06    -8.21029E+06    -8.18370E+06     147.249E+06     124.757E+06    -220.317E+03         55.1905
             377     15.1054E-03     54.2175E-03         2.20990    -616.770E-03    -714.823E-03    -616.718E-03         2.20985    -714.823E-03    -10.5057E-03     147.593E-03    -58.0920E-03    -89.5837E-03    -57.1648E-03     115.174E-03    -58.0920E-03     161.039E-03     138.683E+06     100.443E+06    -15.2924E+06    -15.2295E+06     138.620E+06     100.443E+06     1.53210E+06         52.1713
             378     14.1611E-03     54.0734E-03         2.23625    -638.467E-03    -720.681E-03    -638.406E-03         2.23619    -720.681E-03    -1.53750E-03     127.933E-03    -57.9773E-03    -70.0595E-03    -56.6033E-03     114.477E-03    -57.9773E-03     96.0348E-03     128.472E+06     58.9358E+06    -21.4126E+06    -21.3008E+06     128.360E+06     58.9358E+06     2.03040E+06         48.2407
             379     13.2163E-03     54.0043E-03         2.26766    -663.669E-03    -725.613E-03    -663.407E-03         2.26740    -725.613E-03    -29.0490E-03     118.546E-03    -57.8242E-03    -60.7711E-03    -56.1294E-03     113.904E-03    -57.8242E-03     56.3502E-03     118.367E+06     20.7518E+06    -24.4628E+06    -24.3734E+06     118.278E+06     20.7518E+06     730.237E+03         44.0548
             380     12.2722E-03     53.9514E-03         2.28703    -676.194E-03    -729.855E-03    -675.894E-03         2.28673    -729.855E-03    -24.7272E-03     116.698E-03    -57.7776E-03    -58.9283E-03    -56.6035E-03     114.374E-03    -57.7776E-03     39.2322E-03     65.5605E+06    -6.21013E+06    -26.6312E+06    -26.6105E+06     65.5398E+06    -6.21013E+06     279.051E+03         40.2859
             381     11.3273E-03     53.9168E-03         2.29657    -681.520E-03    -734.068E-03    -681.279E-03         2.29633    -734.068E-03    -21.4126E-03     116.080E-03    -57.8642E-03    -58.2401E-03    -57.1781E-03     115.030E-03    -57.8764E-03     26.6488E-03     6.53953E+06    -23.3986E+06    -38.0313E+06    -29.6514E+06    -14.3394E+06    -10.8995E+06     835.960E+03         37.1752
             382     10.3836E-03     53.8925E-03         2.31058    -691.728E-03    -738.337E-03    -691.522E-03         2.31038    -738.337E-03    -30.0318E-03     115.938E-03    -57.8596E-03    -58.0536E-03    -57.2731E-03     115.276E-03    -57.9777E-03     21.3835E-03    -5.01293E+06    -31.8491E+06    -71.4505E+06    -31.9450E+06    -71.3547E+06    -5.01293E+06     1.23876E+06         34.7542
             383     9.43932E-03     53.8704E-03         2.33244    -713.208E-03    -741.868E-03    -713.163E-03         2.33239    -741.868E-03    -10.1340E-03     115.728E-03    -57.6365E-03    -58.0659E-03    -57.2116E-03     115.303E-03    -58.0659E-03     16.7954E-03    -4.08999E+06    -34.5171E+06    -112.080E+06    -34.5410E+06    -112.056E+06    -4.08999E+06     876.930E+03         33.0616
             384     8.49413E-03     53.8565E-03         2.34161    -720.147E-03    -744.672E-03    -719.821E-03         2.34128    -744.672E-03     27.9418E-03     115.709E-03    -57.5908E-03    -58.1473E-03    -57.3756E-03     115.494E-03    -58.1473E-03     12.1387E-03    -5.65917E+06    -38.1508E+06    -143.133E+06    -38.1609E+06    -143.123E+06    -5.65917E+06     325.422E+03         31.9816
             385     7.55041E-03     53.8440E-03         2.34344    -717.803E-03    -748.006E-03    -716.548E-03         2.34218    -748.006E-03    -34.8282E-03     116.020E-03    -57.8636E-03    -58.2047E-03    -57.7224E-03     115.879E-03    -58.2047E-03     9.84820E-03    -9.90537E+06    -42.2271E+06    -168.619E+06    -42.2344E+06    -168.611E+06    -9.90537E+06     252.548E+03         31.2181
             386     6.60697E-03     53.8353E-03         2.36267    -732.504E-03    -752.437E-03    -729.772E-03         2.35902    -751.516E-03     52.4527E-03     116.130E-03    -57.9310E-03    -58.2349E-03    -57.8481E-03     116.047E-03    -58.2349E-03     7.47510E-03    -15.9633E+06    -46.3311E+06    -194.171E+06    -46.3342E+06    -194.168E+06    -15.9633E+06     108.376E+03         30.6048
             387     5.66248E-03     53.8286E-03         2.38495    -749.167E-03    -757.315E-03    -743.941E-03         2.37631    -753.905E-03    -63.8896E-03     116.157E-03    -57.9303E-03    -58.2534E-03    -57.8897E-03     116.116E-03    -58.2534E-03     5.23215E-03    -23.6889E+06    -50.3861E+06    -217.134E+06    -50.3882E+06    -217.132E+06    -23.6889E+06    -448.853E+03         30.1237
             388     4.71866E-03     53.8239E-03         2.41093    -754.850E-03    -777.188E-03    -753.839E-03         2.38758    -754.850E-03     139.802E-03     116.307E-03    -58.0596E-03    -58.2713E-03    -58.0398E-03     116.287E-03    -58.2713E-03     3.65423E-03    -31.5854E+06    -54.9863E+06    -237.729E+06    -54.9886E+06    -237.727E+06    -31.5854E+06    -268.368E+03         29.7505
             389     3.77547E-03     53.8212E-03         2.44904    -754.278E-03    -815.968E-03    -759.771E-03         2.39284    -754.278E-03    -167.366E-03     116.314E-03    -58.0758E-03    -58.2567E-03    -58.0668E-03     116.305E-03    -58.2567E-03     2.44797E-03    -41.6314E+06    -60.1019E+06    -252.476E+06    -60.1063E+06    -252.471E+06    -41.6314E+06     286.625E+03         29.4609
             390     2.83077E-03     53.8187E-03         2.53402    -753.302E-03    -899.587E-03    -755.118E-03         2.38955    -753.302E-03     340.381E-03     116.336E-03    -58.1166E-03    -58.2316E-03    -58.1218E-03     116.333E-03    -58.2231E-03     1.40293E-03    -53.3286E+06    -64.7967E+06    -258.634E+06    -64.8043E+06    -258.626E+06    -53.3286E+06     300.150E+03         29.2412
             391     1.88768E-03     53.8181E-03         2.78304    -754.833E-03        -1.14362    -747.552E-03         2.38697    -754.833E-03    -627.586E-03     116.405E-03    -58.1043E-03    -58.3062E-03    -58.2526E-03     116.404E-03    -58.1571E-03     580.356E-06    -61.4576E+06    -67.8850E+06    -264.266E+06    -67.8896E+06    -264.261E+06    -61.4576E+06    -194.764E+03         29.0885
             392     944.434E-06     53.8172E-03         3.67016    -330.657E-03        -2.45835        -1.18282         2.39463    -330.657E-03         1.96791     116.162E-03    -57.9434E-03    -58.2194E-03    -58.1372E-03     116.162E-03    -58.0249E-03     512.223E-06    -67.5754E+06    -71.3224E+06    -267.586E+06    -70.7369E+06    -267.580E+06    -68.1666E+06     230.027E+03         28.9981
             393     16.0537E-03     53.3179E-03         2.21691    -620.781E-03    -709.788E-03    -620.709E-03         2.21684    -709.788E-03    -12.7344E-03     140.175E-03    -58.1233E-03    -82.0857E-03    -57.2043E-03     115.294E-03    -58.1233E-03     130.239E-03     146.627E+06     123.666E+06    -9.59249E+06    -9.54114E+06     146.576E+06     123.666E+06     678.316E+03         55.1594
             394     15.1080E-03     53.0925E-03         2.23345    -633.246E-03    -715.019E-03    -633.145E-03         2.23335    -715.019E-03     3.30882E-03     147.648E-03    -58.0727E-03    -89.6236E-03    -57.3215E-03     115.346E-03    -58.0727E-03     160.910E-03     138.107E+06     101.005E+06    -17.6122E+06    -17.4764E+06     137.971E+06     101.005E+06     720.854E+03         52.1527
             395     14.1626E-03     52.9533E-03         2.25726    -653.331E-03    -719.745E-03    -653.194E-03         2.25713    -719.745E-03     14.1841E-03     127.569E-03    -57.9576E-03    -69.7032E-03    -56.2360E-03     114.102E-03    -57.9576E-03     95.9445E-03     128.879E+06     59.4930E+06    -21.7511E+06    -21.6513E+06     128.779E+06     59.4930E+06    -680.306E+03         48.2342
             396     13.2168E-03     52.8808E-03         2.27007    -660.986E-03    -724.118E-03    -660.691E-03         2.26977    -724.118E-03    -20.3622E-03     118.694E-03    -57.7957E-03    -60.9579E-03    -56.3067E-03     114.043E-03    -57.7957E-03     56.3788E-03     117.877E+06     19.1270E+06    -25.1043E+06    -25.0795E+06     117.852E+06     19.1270E+06     42.6436E+03         44.0529
             397     12.2722E-03     52.8292E-03         2.28721    -671.735E-03    -728.517E-03    -671.134E-03         2.28661    -728.517E-03     6.44663E-03     116.898E-03    -57.7409E-03    -59.1804E-03    -56.8493E-03     114.567E-03    -57.7409E-03     39.4844E-03     65.3048E+06    -7.34128E+06    -28.2958E+06    -28.2238E+06     65.2328E+06    -7.34128E+06     1.67150E+06         40.2847
             398     11.3280E-03     52.7947E-03         2.30784    -686.233E-03    -732.655E-03    -685.750E-03         2.30735    -732.655E-03     15.7938E-03     115.820E-03    -57.7285E-03    -58.1265E-03    -56.9290E-03     114.733E-03    -57.8387E-03     27.0515E-03     6.96387E+06    -23.7683E+06    -38.8392E+06    -29.9032E+06    -14.3030E+06    -11.4375E+06     1.51199E+06         37.1739
             399     10.3833E-03     52.7703E-03         2.31872    -692.959E-03    -736.594E-03    -692.694E-03         2.31846    -736.594E-03    -912.688E-06     115.677E-03    -57.7038E-03    -57.9628E-03    -57.0315E-03     115.005E-03    -57.9628E-03     21.5197E-03    -4.89015E+06    -31.6540E+06    -71.5658E+06    -31.7487E+06    -71.4710E+06    -4.89015E+06     1.13993E+06         34.7523
             400     9.43866E-03     52.7485E-03         2.33689    -706.767E-03    -740.245E-03    -706.561E-03         2.33668    -740.245E-03     6.45825E-03     115.787E-03    -57.7108E-03    -58.0600E-03    -57.2744E-03     115.350E-03    -58.0600E-03     17.0358E-03    -3.56759E+06    -34.3502E+06    -111.379E+06    -34.3713E+06    -111.358E+06    -3.56759E+06     985.329E+03         33.0601
             401     8.49520E-03     52.7341E-03         2.35001    -717.111E-03    -743.376E-03    -716.802E-03         2.34970    -743.376E-03     17.7741E-03     115.809E-03    -57.7162E-03    -58.1283E-03    -57.4956E-03     115.589E-03    -58.1283E-03     12.2865E-03    -5.26411E+06    -38.0859E+06    -142.253E+06    -38.0992E+06    -142.240E+06    -5.26411E+06     617.192E+03         31.9800
             402     7.55060E-03     52.7221E-03         2.35340    -720.067E-03    -746.546E-03    -719.240E-03         2.35257    -746.546E-03    -18.6853E-03     115.867E-03    -57.7302E-03    -58.1819E-03    -57.5875E-03     115.725E-03    -58.1819E-03     9.89284E-03    -10.2148E+06    -42.0238E+06    -168.595E+06    -42.0354E+06    -168.583E+06    -10.2148E+06     358.239E+03         31.2152
             403     6.60614E-03     52.7126E-03         2.36655    -730.064E-03    -749.841E-03    -727.411E-03         2.36390    -749.841E-03     57.5338E-03     116.050E-03    -57.8575E-03    -58.2245E-03    -57.7744E-03     115.967E-03    -58.2245E-03     7.46700E-03    -16.0348E+06    -46.0235E+06    -194.010E+06    -46.0273E+06    -194.007E+06    -16.0348E+06     156.516E+03         30.6016
             404     5.66300E-03     52.7065E-03         2.38131    -741.219E-03    -754.599E-03    -733.737E-03         2.37226    -753.029E-03    -95.2558E-03     116.199E-03    -57.9778E-03    -58.2467E-03    -57.9359E-03     116.157E-03    -58.2467E-03     5.34281E-03    -23.4693E+06    -51.1418E+06    -216.985E+06    -51.1446E+06    -216.982E+06    -23.4693E+06     3.73437E+03         30.1214
             405     4.71900E-03     52.7017E-03         2.40672    -751.522E-03    -771.041E-03    -741.223E-03         2.38148    -756.109E-03     131.825E-03     116.299E-03    -58.0720E-03    -58.2476E-03    -58.0513E-03     116.277E-03    -58.2467E-03     3.79407E-03    -33.0394E+06    -56.6257E+06    -238.352E+06    -56.6283E+06    -238.350E+06    -33.0394E+06    -112.474E+03         29.7485
             406     3.77476E-03     52.6987E-03         2.45295    -758.918E-03    -808.466E-03    -748.338E-03         2.39282    -758.918E-03    -178.482E-03     116.363E-03    -58.1430E-03    -58.2373E-03    -58.1644E-03     116.355E-03    -58.2075E-03     2.31725E-03    -42.9880E+06    -60.7039E+06    -252.598E+06    -60.7072E+06    -252.594E+06    -42.9880E+06     282.620E+03         29.4578
             407     2.83183E-03     52.6969E-03         2.55114    -763.311E-03    -896.954E-03    -744.940E-03         2.39913    -763.311E-03     341.773E-03     116.264E-03    -58.0884E-03    -58.1886E-03    -58.1144E-03     116.261E-03    -58.1598E-03     1.30688E-03    -52.4053E+06    -64.3935E+06    -257.738E+06    -64.3974E+06    -257.734E+06    -52.4053E+06     227.583E+03         29.2359
             408     1.88747E-03     52.6954E-03         2.81870    -777.893E-03        -1.14603    -731.854E-03         2.40452    -777.893E-03    -646.591E-03     116.245E-03    -58.0222E-03    -58.2288E-03    -58.1619E-03     116.244E-03    -58.0881E-03     753.484E-06    -61.3016E+06    -68.3731E+06    -264.317E+06    -68.3748E+06    -264.315E+06    -61.3016E+06    -226.093E+03         29.0803
             409     943.983E-06     52.6954E-03         3.80676    -399.768E-03        -2.51528        -1.17934         2.47082    -399.768E-03         2.07937     116.023E-03    -57.7559E-03    -58.2686E-03    -58.2034E-03     116.022E-03    -57.8205E-03     233.181E-06    -67.1970E+06    -71.4559E+06    -267.905E+06    -70.3183E+06    -267.895E+06    -68.3449E+06    -174.884E+03         28.9876
             410     16.0509E-03     52.1891E-03         2.22802    -628.401E-03    -710.412E-03    -628.334E-03         2.22796    -710.412E-03     8.07409E-03     140.412E-03    -58.1703E-03    -82.2231E-03    -57.3240E-03     115.513E-03    -58.1703E-03     131.472E-03     146.429E+06     127.364E+06    -6.45069E+06    -6.37483E+06     146.353E+06     127.364E+06     1.07064E+06         55.1316
             411     15.1085E-03     51.9734E-03         2.26022    -651.415E-03    -714.829E-03    -651.336E-03         2.26014    -714.829E-03     26.3301E-03     148.193E-03    -58.0913E-03    -90.1052E-03    -57.7720E-03     115.860E-03    -58.0913E-03     161.646E-03     140.458E+06     103.655E+06    -13.8234E+06    -13.6853E+06     140.319E+06     103.655E+06     234.755E+03         52.1354
             412     14.1612E-03     51.8307E-03         2.27110    -659.176E-03    -718.772E-03    -659.030E-03         2.27095    -718.772E-03     36.0656E-03     128.225E-03    -57.9331E-03    -70.3702E-03    -56.5341E-03     114.389E-03    -57.9331E-03     97.3677E-03     128.182E+06     55.7890E+06    -21.5093E+06    -21.4341E+06     128.107E+06     55.7890E+06    -7.91887E+03         48.2279
             413     13.2172E-03     51.7586E-03         2.27712    -662.597E-03    -722.887E-03    -662.421E-03         2.27694    -722.887E-03     7.14253E-03     118.868E-03    -57.7707E-03    -61.1535E-03    -56.4519E-03     114.167E-03    -57.7707E-03     56.7643E-03     115.499E+06     15.6769E+06    -27.4269E+06    -27.4172E+06     115.489E+06     15.6769E+06     876.458E+03         44.0509
             414     12.2727E-03     51.7063E-03         2.29271    -671.699E-03    -727.158E-03    -671.260E-03         2.29227    -727.158E-03     25.6846E-03     116.688E-03    -57.7295E-03    -58.9903E-03    -56.6518E-03     114.350E-03    -57.7295E-03     39.4325E-03     65.5168E+06    -7.42248E+06    -29.6127E+06    -29.5411E+06     65.4452E+06    -7.42248E+06     1.44060E+06         40.2831
             415     11.3280E-03     51.6729E-03         2.31637    -689.483E-03    -730.995E-03    -688.903E-03         2.31579    -730.995E-03     10.5335E-03     115.669E-03    -57.6848E-03    -58.0233E-03    -56.7726E-03     114.571E-03    -57.8379E-03     27.2414E-03     7.33963E+06    -23.7569E+06    -38.8919E+06    -30.3152E+06    -13.4869E+06    -11.5071E+06     1.32198E+06         37.1726
             416     10.3835E-03     51.6484E-03         2.33693    -702.478E-03    -734.125E-03    -702.140E-03         2.33659    -734.125E-03    -13.3676E-03     115.718E-03    -57.7216E-03    -57.9777E-03    -57.0441E-03     115.028E-03    -57.9649E-03     21.7727E-03    -5.35831E+06    -32.0402E+06    -71.6097E+06    -32.1507E+06    -71.4992E+06    -5.35831E+06     1.02454E+06         34.7527
             417     9.43915E-03     51.6266E-03         2.33923    -701.679E-03    -737.302E-03    -701.502E-03         2.33906    -737.302E-03     9.93722E-03     115.884E-03    -57.7947E-03    -58.0668E-03    -57.3711E-03     115.447E-03    -58.0540E-03     17.1205E-03    -4.07220E+06    -34.6021E+06    -111.027E+06    -34.6231E+06    -111.006E+06    -4.07220E+06     872.138E+03         33.0619
             418     8.49443E-03     51.6114E-03         2.34581    -707.778E-03    -740.893E-03    -707.621E-03         2.34565    -740.893E-03     15.9790E-03     115.913E-03    -57.8341E-03    -58.1150E-03    -57.6075E-03     115.686E-03    -58.1150E-03     12.4297E-03    -5.16258E+06    -37.7692E+06    -141.604E+06    -37.7828E+06    -141.591E+06    -5.16258E+06     743.041E+03         31.9810
             419     7.55097E-03     51.6005E-03         2.36508    -726.127E-03    -743.849E-03    -725.508E-03         2.36447    -743.849E-03    -26.9080E-03     115.929E-03    -57.8153E-03    -58.1561E-03    -57.6764E-03     115.790E-03    -58.1561E-03     9.76436E-03    -10.0247E+06    -41.5929E+06    -168.376E+06    -41.6047E+06    -168.364E+06    -10.0247E+06     508.458E+03         31.2142
             420     6.60698E-03     51.5905E-03         2.37288    -734.062E-03    -745.989E-03    -731.598E-03         2.37041    -745.989E-03     57.0436E-03     115.885E-03    -57.7233E-03    -58.1969E-03    -57.6424E-03     115.804E-03    -58.1969E-03     7.36472E-03    -16.5847E+06    -46.5648E+06    -194.239E+06    -46.5707E+06    -194.233E+06    -16.5847E+06     480.833E+03         30.5990
             421     5.66235E-03     51.5842E-03         2.37682    -735.553E-03    -748.796E-03    -727.156E-03         2.36842    -748.796E-03    -89.1922E-03     116.123E-03    -57.9205E-03    -58.2345E-03    -57.8800E-03     116.083E-03    -58.2345E-03     5.23929E-03    -23.2422E+06    -51.8677E+06    -217.065E+06    -51.8715E+06    -217.061E+06    -23.2422E+06     768.136E+03         30.1186
             422     4.71873E-03     51.5796E-03         2.40812    -746.077E-03    -768.056E-03    -737.234E-03         2.38328    -752.063E-03     142.900E-03     116.332E-03    -58.1212E-03    -58.2314E-03    -58.1017E-03     116.312E-03    -58.2304E-03     3.67341E-03    -32.4769E+06    -56.8321E+06    -237.920E+06    -56.8347E+06    -237.918E+06    -32.4769E+06     337.691E+03         29.7458
             423     3.77569E-03     51.5764E-03         2.46409    -754.902E-03    -811.726E-03    -743.890E-03         2.39626    -754.902E-03    -223.126E-03     116.294E-03    -58.1038E-03    -58.2062E-03    -58.1253E-03     116.286E-03    -58.1765E-03     2.32114E-03    -43.9614E+06    -61.7771E+06    -252.327E+06    -61.7793E+06    -252.325E+06    -43.9614E+06    -455.312E+03         29.4538
             424     2.83141E-03     51.5749E-03         2.56356    -758.543E-03    -903.133E-03    -744.824E-03         2.40525    -758.543E-03     292.985E-03     116.218E-03    -58.0661E-03    -58.1673E-03    -58.1013E-03     116.215E-03    -58.1289E-03     1.45305E-03    -53.2138E+06    -65.1417E+06    -257.681E+06    -65.1444E+06    -257.678E+06    -53.2138E+06    -431.100E+03         29.2305
             425     1.88796E-03     51.5739E-03         2.85871    -762.995E-03        -1.19591    -754.245E-03         2.41705    -762.995E-03    -740.719E-03     116.099E-03    -57.9953E-03    -58.1125E-03    -58.0038E-03     116.098E-03    -58.1028E-03     847.647E-06    -61.9328E+06    -68.1289E+06    -264.305E+06    -68.1308E+06    -264.303E+06    -61.9328E+06     216.282E+03         29.0754
             426     943.650E-06     51.5731E-03         3.88660    -385.240E-03        -2.60377        -1.14522         2.42804    -385.240E-03         2.14242     116.145E-03    -57.8456E-03    -58.3033E-03    -58.1526E-03     116.145E-03    -57.9959E-03     109.755E-06    -68.0267E+06    -71.1295E+06    -268.114E+06    -69.9908E+06    -268.105E+06    -69.1746E+06    -571.540E+03         28.9856
             427     16.0517E-03     51.0650E-03         2.23767    -631.466E-03    -709.263E-03    -631.373E-03         2.23757    -709.263E-03     9.40516E-03     139.364E-03    -58.1612E-03    -81.2288E-03    -56.7201E-03     114.856E-03    -58.1612E-03     130.224E-03     145.896E+06     126.541E+06    -6.83071E+06    -6.79086E+06     145.856E+06     126.541E+06    -138.875E+03         55.1123
             428     15.1046E-03     50.8505E-03         2.26351    -648.992E-03    -713.118E-03    -648.866E-03         2.26338    -713.118E-03     5.29347E-03     147.262E-03    -58.1010E-03    -89.2025E-03    -57.5658E-03     115.625E-03    -58.1010E-03     159.362E-03     139.843E+06     102.206E+06    -14.7551E+06    -14.6926E+06     139.780E+06     102.206E+06     73.5085E+03         52.1221
             429     14.1623E-03     50.7075E-03         2.27330    -655.688E-03    -716.746E-03    -655.561E-03         2.27317    -716.746E-03     1.23938E-03     128.438E-03    -57.9455E-03    -70.5722E-03    -56.9918E-03     114.858E-03    -57.9455E-03     96.6129E-03     128.171E+06     56.9124E+06    -21.2004E+06    -21.1162E+06     128.087E+06     56.9124E+06     1.92495E+06         48.2219
             430     13.2173E-03     50.6364E-03         2.29230    -672.263E-03    -720.219E-03    -671.933E-03         2.29197    -720.219E-03    -18.9510E-03     118.632E-03    -57.7691E-03    -60.9034E-03    -56.2691E-03     113.998E-03    -57.7691E-03     56.3878E-03     115.721E+06     17.4059E+06    -25.3641E+06    -25.3093E+06     115.666E+06     17.4059E+06     1.91254E+06         44.0485
             431     12.2724E-03     50.5839E-03         2.31185    -687.634E-03    -723.077E-03    -687.270E-03         2.31148    -723.077E-03    -9.74965E-03     116.467E-03    -57.7339E-03    -58.7509E-03    -56.3862E-03     114.103E-03    -57.7339E-03     39.5770E-03     65.3598E+06    -7.10385E+06    -28.0173E+06    -27.9739E+06     65.3164E+06    -7.10385E+06     1.05707E+06         40.2807
             432     11.3275E-03     50.5516E-03         2.32431    -692.529E-03    -725.631E-03    -692.240E-03         2.32402    -725.631E-03    -7.51297E-03     115.755E-03    -57.7946E-03    -57.9930E-03    -56.8354E-03     114.652E-03    -57.8497E-03     27.3075E-03     7.17371E+06    -23.7974E+06    -38.5767E+06    -30.1379E+06    -13.3443E+06    -11.7181E+06     1.15577E+06         37.1712
             433     10.3829E-03     50.5257E-03         2.32860    -690.831E-03    -728.575E-03    -690.585E-03         2.32835    -728.575E-03    -43.7482E-03     115.945E-03    -57.9130E-03    -58.0095E-03    -57.2633E-03     115.254E-03    -57.9681E-03     21.8118E-03    -5.34251E+06    -32.1700E+06    -71.1557E+06    -32.2722E+06    -71.0535E+06    -5.34251E+06     951.168E+03         34.7538
             434     9.43899E-03     50.5045E-03         2.32818    -687.015E-03    -732.447E-03    -686.958E-03         2.32812    -732.447E-03    -14.0696E-03     115.970E-03    -57.8951E-03    -58.0555E-03    -57.4849E-03     115.544E-03    -58.0399E-03     16.8647E-03    -4.20473E+06    -34.6996E+06    -110.653E+06    -34.7135E+06    -110.639E+06    -4.20473E+06     650.042E+03         33.0643
             435     8.49509E-03     50.4894E-03         2.34775    -704.912E-03    -736.397E-03    -704.732E-03         2.34757    -736.397E-03     30.7295E-03     115.829E-03    -57.7720E-03    -58.0949E-03    -57.5524E-03     115.610E-03    -58.0949E-03     12.2638E-03    -5.51098E+06    -37.8003E+06    -141.759E+06    -37.8110E+06    -141.748E+06    -5.51098E+06     551.349E+03         31.9816
             436     7.55094E-03     50.4774E-03         2.36459    -721.111E-03    -739.278E-03    -720.430E-03         2.36391    -739.278E-03    -20.3048E-03     115.934E-03    -57.8361E-03    -58.1431E-03    -57.6961E-03     115.794E-03    -58.1431E-03     9.77798E-03    -9.51488E+06    -41.9705E+06    -168.568E+06    -41.9790E+06    -168.560E+06    -9.51488E+06     738.383E+03         31.2138
             437     6.60696E-03     50.4691E-03         2.37292    -726.287E-03    -741.706E-03    -723.671E-03         2.37030    -741.706E-03     61.8445E-03     115.985E-03    -57.8511E-03    -58.1709E-03    -57.7697E-03     115.904E-03    -58.1709E-03     7.43102E-03    -15.8237E+06    -46.0840E+06    -193.995E+06    -46.0930E+06    -193.986E+06    -15.8237E+06     1.09209E+06         30.5977
             438     5.66305E-03     50.4618E-03         2.39392    -737.016E-03    -753.182E-03    -737.767E-03         2.38492    -743.435E-03    -92.6002E-03     116.044E-03    -57.8841E-03    -58.1891E-03    -57.8421E-03     116.002E-03    -58.1891E-03     5.30424E-03    -23.2603E+06    -50.3685E+06    -216.626E+06    -50.3747E+06    -216.620E+06    -23.2603E+06     880.390E+03         30.1146
             439     4.71942E-03     50.4569E-03         2.41612    -742.754E-03    -768.861E-03    -741.363E-03         2.39002    -744.154E-03     141.370E-03     116.149E-03    -57.9638E-03    -58.2045E-03    -57.9448E-03     116.130E-03    -58.2045E-03     3.53762E-03    -31.7088E+06    -55.3082E+06    -237.454E+06    -55.3104E+06    -237.452E+06    -31.7088E+06     466.737E+03         29.7409
             440     3.77490E-03     50.4546E-03         2.46101    -745.109E-03    -807.043E-03    -739.496E-03         2.39347    -745.109E-03    -210.806E-03     116.160E-03    -57.9817E-03    -58.1923E-03    -57.9732E-03     116.151E-03    -58.1923E-03     2.40852E-03    -42.5214E+06    -59.7980E+06    -251.594E+06    -59.8011E+06    -251.591E+06    -42.5214E+06    -278.807E+03         29.4505
             441     2.83149E-03     50.4524E-03         2.57186    -745.453E-03    -915.084E-03    -747.516E-03         2.40429    -745.453E-03     340.613E-03     116.233E-03    -58.0693E-03    -58.1769E-03    -58.0753E-03     116.229E-03    -58.1672E-03     1.49926E-03    -53.7941E+06    -64.1645E+06    -258.592E+06    -64.1677E+06    -258.588E+06    -53.7941E+06    -716.675E+03         29.2293
             442     1.88749E-03     50.4520E-03         2.85410    -741.105E-03        -1.20360    -757.077E-03         2.40757    -741.105E-03    -681.705E-03     116.185E-03    -58.0203E-03    -58.1739E-03    -58.0291E-03     116.184E-03    -58.1642E-03     758.246E-06    -61.5736E+06    -67.5715E+06    -264.284E+06    -67.5733E+06    -264.283E+06    -61.5736E+06    -49.1189E+03         29.0772
             443     943.795E-06     50.4516E-03         3.86654    -353.500E-03        -2.61470        -1.12084         2.37268    -353.500E-03         2.20680     116.288E-03    -57.8918E-03    -58.3985E-03    -58.1951E-03     116.287E-03    -58.0946E-03     507.760E-06    -68.0938E+06    -71.1428E+06    -268.401E+06    -70.6922E+06    -268.390E+06    -68.5556E+06     472.245E+03         28.9899
             444     16.0540E-03     49.9461E-03         2.25168    -635.879E-03    -705.006E-03    -635.746E-03         2.25154    -705.006E-03    -17.0596E-03     139.755E-03    -58.0927E-03    -81.6777E-03    -57.1655E-03     115.243E-03    -58.0927E-03     129.530E-03     145.983E+06     125.305E+06    -8.90343E+06    -8.89469E+06     145.974E+06     125.305E+06     95.7994E+03         55.1017
             445     15.1090E-03     49.7280E-03         2.25783    -636.567E-03    -708.408E-03    -636.454E-03         2.25772    -708.408E-03    -12.6500E-03     146.966E-03    -58.0233E-03    -89.0037E-03    -57.3400E-03     115.303E-03    -58.0233E-03     159.052E-03     138.796E+06     100.287E+06    -16.1979E+06    -16.1649E+06     138.764E+06     100.287E+06     605.345E+03         52.1165
             446     14.1622E-03     49.5849E-03         2.28523    -661.556E-03    -711.507E-03    -661.481E-03         2.28515    -711.507E-03    -18.3502E-03     127.470E-03    -57.9083E-03    -69.6561E-03    -56.3110E-03     114.125E-03    -57.9083E-03     95.6042E-03     127.371E+06     57.2215E+06    -22.0442E+06    -21.9618E+06     127.288E+06     57.2215E+06     1.07376E+06         48.2195
             447     13.2176E-03     49.5143E-03         2.29864    -674.459E-03    -714.078E-03    -674.175E-03         2.29835    -714.078E-03    -36.1446E-03     118.100E-03    -57.7683E-03    -60.3736E-03    -55.6995E-03     113.426E-03    -57.7683E-03     56.3917E-03     115.236E+06     17.8256E+06    -25.8965E+06    -25.8115E+06     115.152E+06     17.8256E+06     1.74153E+06         44.0461
             448     12.2718E-03     49.4632E-03         2.30686    -678.406E-03    -716.670E-03    -677.724E-03         2.30617    -716.670E-03     6.59382E-03     116.512E-03    -57.7427E-03    -58.7909E-03    -56.4266E-03     114.147E-03    -57.7427E-03     39.6002E-03     65.2564E+06    -7.60656E+06    -28.4544E+06    -28.3896E+06     65.1916E+06    -7.60656E+06     1.57102E+06         40.2784
             449     11.3275E-03     49.4284E-03         2.31921    -684.240E-03    -719.462E-03    -683.814E-03         2.31878    -719.462E-03     32.8205E-03     115.989E-03    -57.8523E-03    -58.1689E-03    -57.0825E-03     114.903E-03    -57.8523E-03     27.0814E-03     8.85386E+06    -23.1584E+06    -38.3458E+06    -29.8414E+06    -12.4490E+06    -10.3599E+06     1.02048E+06         37.1703
             450     10.3837E-03     49.4043E-03         2.32511    -685.067E-03    -722.541E-03    -684.984E-03         2.32502    -722.541E-03    -19.2000E-03     115.993E-03    -57.9299E-03    -58.0412E-03    -57.3455E-03     115.322E-03    -57.9553E-03     21.5188E-03    -4.29345E+06    -31.6503E+06    -70.5152E+06    -31.7077E+06    -70.4579E+06    -4.29345E+06     708.964E+03         34.7541
             451     9.43931E-03     49.3813E-03         2.33495    -692.686E-03    -725.806E-03    -692.617E-03         2.33488    -725.806E-03    -7.01975E-03     115.902E-03    -57.8581E-03    -58.0288E-03    -57.4338E-03     115.475E-03    -58.0260E-03     16.8742E-03    -3.74410E+06    -34.7273E+06    -110.497E+06    -34.7382E+06    -110.486E+06    -3.74410E+06     455.123E+03         33.0647
             452     8.49540E-03     49.3679E-03         2.34007    -696.386E-03    -729.191E-03    -696.254E-03         2.33993    -729.191E-03     23.6934E-03     115.772E-03    -57.7297E-03    -58.0818E-03    -57.5065E-03     115.548E-03    -58.0818E-03     12.3846E-03    -5.66316E+06    -37.9627E+06    -141.893E+06    -37.9701E+06    -141.885E+06    -5.66316E+06     642.307E+03         31.9810
             453     7.55074E-03     49.3555E-03         2.35000    -705.085E-03    -732.695E-03    -704.442E-03         2.34936    -732.695E-03    -31.3957E-03     115.861E-03    -57.7724E-03    -58.1337E-03    -57.6279E-03     115.717E-03    -58.1337E-03     9.91643E-03    -9.65366E+06    -41.6333E+06    -168.977E+06    -41.6407E+06    -168.970E+06    -9.65366E+06     889.234E+03         31.2125
             454     6.60708E-03     49.3464E-03         2.37810    -725.452E-03    -740.054E-03    -728.111E-03         2.37558    -734.870E-03     58.6952E-03     116.074E-03    -57.9471E-03    -58.1586E-03    -57.8645E-03     115.991E-03    -58.1586E-03     7.50369E-03    -15.1845E+06    -45.5886E+06    -193.624E+06    -45.5958E+06    -193.617E+06    -15.1845E+06     954.054E+03         30.5963
             455     5.66345E-03     49.3398E-03         2.40021    -734.592E-03    -749.881E-03    -740.274E-03         2.39085    -734.840E-03    -102.602E-03     116.038E-03    -57.8987E-03    -58.1634E-03    -57.8534E-03     115.992E-03    -58.1634E-03     5.54442E-03    -23.5047E+06    -49.9281E+06    -215.985E+06    -49.9325E+06    -215.980E+06    -23.5047E+06     660.625E+03         30.1111
             456     4.71889E-03     49.3353E-03         2.40567    -735.381E-03    -751.340E-03    -725.032E-03         2.37936    -735.381E-03     129.067E-03     115.991E-03    -57.8191E-03    -58.1917E-03    -57.7980E-03     115.970E-03    -58.1917E-03     3.70737E-03    -31.1199E+06    -53.6861E+06    -236.743E+06    -53.6905E+06    -236.739E+06    -31.1199E+06    -67.6741E+03         29.7363
             457     3.77543E-03     49.3323E-03         2.44057    -739.043E-03    -778.207E-03    -717.872E-03         2.38023    -739.043E-03    -170.618E-03     116.139E-03    -57.9433E-03    -58.2109E-03    -57.9352E-03     116.131E-03    -58.2109E-03     2.34328E-03    -40.1502E+06    -57.4987E+06    -251.700E+06    -57.5058E+06    -251.693E+06    -40.1502E+06    -6.04897E+03         29.4487
             458     2.83110E-03     49.3305E-03         2.55424    -744.659E-03    -885.515E-03    -726.819E-03         2.39555    -744.659E-03     373.339E-03     116.207E-03    -58.0023E-03    -58.2180E-03    -57.9991E-03     116.204E-03    -58.2180E-03     1.39455E-03    -51.3497E+06    -62.2038E+06    -259.097E+06    -62.2093E+06    -259.092E+06    -51.3497E+06     445.731E+03         29.2313
             459     1.88758E-03     49.3296E-03         2.83205    -751.268E-03        -1.16060    -736.737E-03         2.40818    -751.268E-03    -633.906E-03     116.302E-03    -58.0390E-03    -58.2728E-03    -58.0777E-03     116.301E-03    -58.2334E-03     630.729E-06    -60.6887E+06    -66.7128E+06    -264.118E+06    -66.7157E+06    -264.115E+06    -60.6887E+06     69.0831E+03         29.0816
             460     943.373E-06     49.3301E-03         3.83893    -405.085E-03        -2.51742        -1.10518         2.42669    -405.085E-03         2.15404     116.432E-03    -57.8637E-03    -58.5694E-03    -58.4893E-03     116.430E-03    -57.9423E-03     875.454E-06    -66.8499E+06    -70.4849E+06    -267.895E+06    -70.0342E+06    -267.884E+06    -67.3117E+06     840.818E+03         28.9946
             461     16.0538E-03     48.8254E-03         2.26240    -643.387E-03    -699.667E-03    -643.319E-03         2.26233    -699.667E-03    -15.4288E-03     140.739E-03    -58.0861E-03    -82.6466E-03    -57.4683E-03     115.560E-03    -58.0861E-03     130.904E-03     145.044E+06     125.471E+06    -7.15849E+06    -7.10968E+06     144.995E+06     125.471E+06     293.218E+03         55.0910
             462     15.1085E-03     48.6038E-03         2.26912    -644.067E-03    -702.379E-03    -643.881E-03         2.26893    -702.379E-03     13.9386E-03     148.310E-03    -58.0188E-03    -90.3759E-03    -57.7625E-03     115.697E-03    -58.0188E-03     161.991E-03     138.377E+06     101.818E+06    -14.1495E+06    -14.0984E+06     138.325E+06     101.818E+06     1.98095E+06         52.1096
             463     14.1646E-03     48.4657E-03         2.28497    -656.348E-03    -705.092E-03    -656.161E-03         2.28479    -705.092E-03     20.5813E-03     127.468E-03    -57.9079E-03    -69.6682E-03    -56.1245E-03     113.925E-03    -57.9079E-03     96.5779E-03     127.203E+06     57.5199E+06    -21.6600E+06    -21.5528E+06     127.096E+06     57.5199E+06     2.18334E+06         48.2159
             464     13.2165E-03     48.3928E-03         2.29258    -664.286E-03    -707.849E-03    -664.246E-03         2.29254    -707.849E-03    -10.5082E-03     118.299E-03    -57.7737E-03    -60.5610E-03    -55.7289E-03     113.466E-03    -57.7737E-03     57.1832E-03     115.944E+06     17.6497E+06    -27.5163E+06    -27.3868E+06     115.814E+06     17.6497E+06     1.50794E+06         44.0439
             465     12.2723E-03     48.3404E-03         2.29943    -665.544E-03    -710.942E-03    -664.946E-03         2.29883    -710.942E-03     43.6959E-03     116.634E-03    -57.7434E-03    -58.9147E-03    -56.5667E-03     114.286E-03    -57.7434E-03     39.5822E-03     66.6610E+06    -7.06415E+06    -29.6560E+06    -29.5945E+06     66.5995E+06    -7.06415E+06     771.674E+03         40.2771
             466     11.3280E-03     48.3062E-03         2.31362    -675.139E-03    -714.199E-03    -674.423E-03         2.31291    -714.199E-03     34.3841E-03     116.004E-03    -57.8441E-03    -58.1922E-03    -57.0756E-03     114.888E-03    -57.8441E-03     27.4558E-03     8.94055E+06    -22.8616E+06    -38.8148E+06    -29.9634E+06    -12.5039E+06    -10.2685E+06     449.064E+03         37.1697
             467     10.3836E-03     48.2812E-03         2.33218    -691.453E-03    -716.877E-03    -691.295E-03         2.33202    -716.877E-03    -16.8661E-03     115.941E-03    -57.8824E-03    -58.0334E-03    -57.2853E-03     115.260E-03    -57.9491E-03     21.6779E-03    -3.88384E+06    -30.7292E+06    -70.5918E+06    -30.8199E+06    -70.5010E+06    -3.88384E+06     324.496E+03         34.7531
             468     9.43933E-03     48.2603E-03         2.35115    -708.561E-03    -719.405E-03    -709.552E-03         2.35108    -718.350E-03    -1.11660E-03     115.808E-03    -57.7565E-03    -58.0321E-03    -57.3189E-03     115.370E-03    -58.0321E-03     17.1290E-03    -2.58735E+06    -33.4492E+06    -110.198E+06    -33.4604E+06    -110.187E+06    -2.58735E+06     533.898E+03         33.0634
             469     8.49473E-03     48.2449E-03         2.34776    -703.475E-03    -721.815E-03    -705.805E-03         2.34770    -719.423E-03    -2.60224E-03     115.846E-03    -57.7914E-03    -58.0913E-03    -57.5624E-03     115.617E-03    -58.0913E-03     12.5084E-03    -4.65900E+06    -37.2538E+06    -142.049E+06    -37.2582E+06    -142.045E+06    -4.65900E+06     544.774E+03         31.9804
             470     7.55139E-03     48.2341E-03         2.34708    -702.828E-03    -722.483E-03    -703.640E-03         2.34655    -721.146E-03    -48.6707E-03     115.945E-03    -57.8582E-03    -58.1271E-03    -57.7135E-03     115.801E-03    -58.1271E-03     9.97404E-03    -9.55770E+06    -40.7335E+06    -168.777E+06    -40.7373E+06    -168.773E+06    -9.55770E+06     529.367E+03         31.2110
             471     6.60690E-03     48.2239E-03         2.35939    -711.850E-03    -727.850E-03    -714.974E-03         2.35733    -722.666E-03     43.6853E-03     115.956E-03    -57.8204E-03    -58.1681E-03    -57.7344E-03     115.870E-03    -58.1681E-03     7.60579E-03    -13.9453E+06    -44.5471E+06    -194.236E+06    -44.5528E+06    -194.230E+06    -13.9453E+06     718.731E+03         30.5939
             472     5.66286E-03     48.2180E-03         2.37242    -717.372E-03    -730.109E-03    -715.606E-03         2.36436    -723.814E-03    -103.972E-03     116.025E-03    -57.8559E-03    -58.1934E-03    -57.8130E-03     115.982E-03    -58.1934E-03     5.39344E-03    -21.1381E+06    -48.7101E+06    -215.016E+06    -48.7136E+06    -215.012E+06    -21.1381E+06     579.072E+03         30.1095
             473     4.71935E-03     48.2133E-03         2.39339    -725.447E-03    -737.031E-03    -715.471E-03         2.37183    -725.447E-03     103.349E-03     116.097E-03    -57.9040E-03    -58.2096E-03    -57.8822E-03     116.075E-03    -58.2096E-03     3.82049E-03    -30.2495E+06    -53.1477E+06    -235.599E+06    -53.1518E+06    -235.595E+06    -30.2495E+06    -445.895E+03         29.7345
             474     3.77492E-03     48.2103E-03         2.42706    -728.400E-03    -767.877E-03    -712.476E-03         2.37166    -728.400E-03    -200.262E-03     116.137E-03    -57.9303E-03    -58.2233E-03    -57.9212E-03     116.128E-03    -58.2233E-03     2.39966E-03    -39.3921E+06    -57.6709E+06    -253.182E+06    -57.6780E+06    -253.175E+06    -39.3921E+06    -366.704E+03         29.4473
             475     2.83151E-03     48.2085E-03         2.51973    -733.098E-03    -856.740E-03    -716.659E-03         2.37965    -733.098E-03     307.952E-03     116.168E-03    -57.9300E-03    -58.2530E-03    -57.9266E-03     116.165E-03    -58.2530E-03     1.47327E-03    -49.2691E+06    -61.3971E+06    -259.130E+06    -61.4050E+06    -259.122E+06    -49.2691E+06     860.994E+03         29.2317
             476     1.88700E-03     48.2079E-03         2.80759    -735.152E-03        -1.14499    -737.743E-03         2.40034    -735.152E-03    -711.212E-03     116.455E-03    -58.0958E-03    -58.3713E-03    -58.2017E-03     116.454E-03    -58.2640E-03     893.846E-06    -58.5365E+06    -64.7044E+06    -263.774E+06    -64.7097E+06    -263.769E+06    -58.5365E+06     638.298E+03         29.0839
             477     944.168E-06     48.2066E-03         3.76221    -413.243E-03        -2.42255        -1.05585         2.39551    -413.243E-03         1.99911     116.450E-03    -57.9743E-03    -58.4789E-03    -58.3641E-03     116.448E-03    -58.0878E-03     652.197E-06    -64.3917E+06    -67.9455E+06    -266.440E+06    -67.0756E+06    -266.434E+06    -65.2673E+06     41.4859E+03         28.9981
             478     16.0511E-03     47.7039E-03         2.26944    -644.717E-03    -694.831E-03    -644.715E-03         2.26944    -694.831E-03     744.737E-06     140.243E-03    -58.1361E-03    -82.1545E-03    -56.9513E-03     115.040E-03    -58.1361E-03     130.996E-03     143.655E+06     123.845E+06    -8.71326E+06    -8.64441E+06     143.586E+06     123.845E+06    -241.446E+03         55.0799
             479     15.1062E-03     47.4790E-03         2.28127    -653.885E-03    -696.947E-03    -653.703E-03         2.28109    -696.947E-03     27.7145E-03     148.071E-03    -58.0911E-03    -90.1240E-03    -57.6194E-03     115.566E-03    -58.0911E-03     161.563E-03     136.050E+06     100.405E+06    -16.1211E+06    -16.0585E+06     135.988E+06     100.405E+06     1.12773E+06         52.0999
             480     14.1603E-03     47.3444E-03         2.27884    -647.844E-03    -699.366E-03    -647.647E-03         2.27864    -699.366E-03     37.1731E-03     128.121E-03    -57.9806E-03    -70.2739E-03    -56.7712E-03     114.618E-03    -57.9806E-03     96.6844E-03     127.392E+06     59.4133E+06    -21.1756E+06    -21.0819E+06     127.298E+06     59.4133E+06     2.36802E+06         48.2095
             481     13.2178E-03     47.2699E-03         2.29391    -661.811E-03    -702.103E-03    -661.713E-03         2.29381    -702.103E-03    -10.2640E-03     119.111E-03    -57.8066E-03    -61.3451E-03    -56.4863E-03     114.252E-03    -57.8066E-03     57.6500E-03     118.694E+06     21.2365E+06    -24.3054E+06    -24.1756E+06     118.564E+06     21.2365E+06     1.95793E+06         44.0411
             482     12.2725E-03     47.2189E-03         2.31206    -678.024E-03    -704.234E-03    -677.680E-03         2.31172    -704.234E-03     18.3183E-03     116.724E-03    -57.7408E-03    -58.9966E-03    -56.6066E-03     114.334E-03    -57.7408E-03     39.9876E-03     67.8865E+06    -5.27735E+06    -26.1764E+06    -26.0870E+06     67.7970E+06    -5.27735E+06     471.964E+03         40.2760
             483     11.3275E-03     47.1837E-03         2.31624    -680.376E-03    -706.056E-03    -679.823E-03         2.31568    -706.056E-03    -3.64986E-03     115.926E-03    -57.7689E-03    -58.1939E-03    -56.9833E-03     114.793E-03    -57.8461E-03     27.5969E-03     8.97919E+06    -21.9718E+06    -37.4950E+06    -28.1148E+06    -12.9288E+06    -9.44402E+06    -48.3201E+03         37.1688
             484     10.3834E-03     47.1593E-03         2.32243    -686.124E-03    -707.899E-03    -685.831E-03         2.32213    -707.899E-03    -40.7796E-03     115.814E-03    -57.8062E-03    -57.9890E-03    -57.1582E-03     115.139E-03    -57.9621E-03     21.5628E-03    -3.36493E+06    -30.4793E+06    -71.0679E+06    -30.5498E+06    -70.9974E+06    -3.36493E+06     180.714E+03         34.7527
             485     9.43907E-03     47.1381E-03         2.33591    -695.640E-03    -710.392E-03    -696.613E-03         2.33583    -709.338E-03    -1.77507E-03     115.925E-03    -57.8633E-03    -58.0442E-03    -57.4236E-03     115.486E-03    -58.0442E-03     17.1825E-03    -2.30788E+06    -33.2222E+06    -110.105E+06    -33.2372E+06    -110.090E+06    -2.30788E+06     586.746E+03         33.0637
             486     8.49523E-03     47.1231E-03         2.35135    -705.455E-03    -714.838E-03    -710.382E-03         2.35124    -709.805E-03     7.85871E-03     115.928E-03    -57.8639E-03    -58.0989E-03    -57.6345E-03     115.699E-03    -58.0989E-03     12.5188E-03    -3.87816E+06    -36.9475E+06    -141.893E+06    -36.9549E+06    -141.885E+06    -3.87816E+06     643.942E+03         31.9805
             487     7.55077E-03     47.1111E-03         2.35142    -707.306E-03    -714.756E-03    -712.442E-03         2.35130    -709.498E-03    -4.91549E-03     115.939E-03    -57.8487E-03    -58.1286E-03    -57.7065E-03     115.797E-03    -58.1286E-03     9.88099E-03    -9.48869E+06    -40.9313E+06    -168.389E+06    -40.9340E+06    -168.386E+06    -9.48869E+06     437.419E+03         31.2099
             488     6.60721E-03     47.1025E-03         2.34135    -700.288E-03    -711.205E-03    -700.310E-03         2.34009    -709.926E-03     68.4188E-03     115.920E-03    -57.7823E-03    -58.1712E-03    -57.6967E-03     115.835E-03    -58.1712E-03     7.60167E-03    -15.0383E+06    -44.6312E+06    -194.605E+06    -44.6385E+06    -194.597E+06    -15.0383E+06     154.019E+03         30.5920
             489     5.66301E-03     47.0953E-03         2.34680    -702.599E-03    -712.758E-03    -697.236E-03         2.34043    -711.757E-03    -92.3928E-03     115.975E-03    -57.7925E-03    -58.2116E-03    -57.7493E-03     115.932E-03    -58.2116E-03     5.37700E-03    -20.9205E+06    -48.3463E+06    -214.439E+06    -48.3524E+06    -214.433E+06    -20.9205E+06     50.9220E+03         30.1086
             490     4.71870E-03     47.0915E-03         2.37734    -711.358E-03    -732.067E-03    -711.509E-03         2.35850    -713.071E-03     114.557E-03     116.115E-03    -57.8972E-03    -58.2391E-03    -57.8757E-03     116.094E-03    -58.2391E-03     3.83031E-03    -29.8045E+06    -52.7225E+06    -234.882E+06    -52.7231E+06    -234.881E+06    -29.8045E+06    -73.6916E+03         29.7351
             491     3.77541E-03     47.0878E-03         2.42505    -711.065E-03    -779.271E-03    -728.057E-03         2.37384    -711.065E-03    -196.887E-03     116.195E-03    -57.9505E-03    -58.2605E-03    -57.9407E-03     116.185E-03    -58.2605E-03     2.48229E-03    -39.8129E+06    -57.7356E+06    -254.298E+06    -57.7368E+06    -254.297E+06    -39.8129E+06    -382.777E+03         29.4489
             492     2.83074E-03     47.0873E-03         2.49177    -706.890E-03    -853.652E-03    -719.013E-03         2.35713    -706.890E-03     304.053E-03     116.330E-03    -58.0502E-03    -58.2935E-03    -58.0785E-03     116.327E-03    -58.2617E-03     1.52089E-03    -49.8055E+06    -61.8907E+06    -259.148E+06    -61.8954E+06    -259.144E+06    -49.8055E+06    -179.693E+03         29.2342
             493     1.88754E-03     47.0847E-03         2.72545    -700.200E-03        -1.09369    -718.761E-03         2.35052    -700.200E-03    -631.620E-03     116.440E-03    -58.1029E-03    -58.3455E-03    -58.2011E-03     116.438E-03    -58.2457E-03     940.294E-06    -57.7165E+06    -64.9167E+06    -263.509E+06    -64.9212E+06    -263.504E+06    -57.7165E+06     294.012E+03         29.0858
             494     943.542E-06     47.0849E-03         3.59780    -387.996E-03        -2.28341        -1.00320         2.31759    -387.996E-03         1.91085     116.398E-03    -57.9213E-03    -58.4791E-03    -58.2886E-03     116.397E-03    -58.1115E-03     67.7617E-06    -64.1454E+06    -67.9669E+06    -266.392E+06    -67.0954E+06    -266.388E+06    -65.0209E+06    -365.488E+03         29.0003
             495     16.0522E-03     46.5769E-03         2.27673    -651.642E-03    -689.488E-03    -651.586E-03         2.27668    -689.488E-03    -4.47728E-03     139.593E-03    -58.1776E-03    -81.4483E-03    -56.6025E-03     114.748E-03    -58.1776E-03     130.909E-03     143.151E+06     124.604E+06    -7.67773E+06    -7.62146E+06     143.095E+06     124.604E+06     604.065E+03         55.0714
             496     15.1064E-03     46.3617E-03         2.27996    -651.032E-03    -690.881E-03    -650.996E-03         2.27993    -690.881E-03     6.94281E-03     147.449E-03    -58.1317E-03    -89.4091E-03    -57.4072E-03     115.447E-03    -58.1317E-03     160.225E-03     134.598E+06     99.5063E+06    -15.9635E+06    -15.8899E+06     134.524E+06     99.5063E+06     530.737E+03         52.0937
             497     14.1610E-03     46.2181E-03         2.29201    -662.240E-03    -692.994E-03    -663.055E-03         2.29197    -692.131E-03    -2.03471E-03     128.360E-03    -58.0098E-03    -70.4665E-03    -56.9902E-03     114.883E-03    -58.0098E-03     96.0661E-03     126.591E+06     58.3367E+06    -22.2525E+06    -22.2304E+06     126.569E+06     58.3367E+06     156.367E+03         48.2058
             498     13.2163E-03     46.1482E-03         2.30188    -671.477E-03    -694.009E-03    -671.986E-03         2.30152    -693.146E-03    -44.1479E-03     119.087E-03    -57.8283E-03    -61.2952E-03    -56.6918E-03     114.484E-03    -57.8283E-03     56.3845E-03     119.370E+06     22.0197E+06    -24.4418E+06    -24.3939E+06     119.322E+06     22.0197E+06     534.883E+03         44.0386
             499     12.2719E-03     46.0962E-03         2.30335    -674.292E-03    -694.140E-03    -673.889E-03         2.30294    -694.140E-03    -21.5382E-03     116.855E-03    -57.7532E-03    -59.1123E-03    -56.6987E-03     114.441E-03    -57.7532E-03     40.1293E-03     68.6052E+06    -4.59593E+06    -25.8440E+06    -25.7200E+06     68.4812E+06    -4.59593E+06     963.747E+03         40.2740
             500     11.3281E-03     46.0612E-03         2.30234    -673.714E-03    -695.460E-03    -673.496E-03         2.30212    -695.460E-03     249.250E-06     115.874E-03    -57.7354E-03    -58.1745E-03    -56.9260E-03     114.748E-03    -57.8576E-03     27.5496E-03     8.59184E+06    -22.1416E+06    -37.4577E+06    -27.8817E+06    -13.4707E+06    -9.65506E+06     531.285E+03         37.1674
             501     10.3832E-03     46.0376E-03         2.30683    -674.227E-03    -697.181E-03    -674.086E-03         2.30669    -697.181E-03    -20.7074E-03     115.868E-03    -57.8129E-03    -58.0351E-03    -57.1882E-03     115.180E-03    -57.9725E-03     21.7541E-03    -3.24574E+06    -30.3281E+06    -70.9888E+06    -30.3758E+06    -70.9411E+06    -3.24574E+06     470.592E+03         34.7528
             502     9.43893E-03     46.0153E-03         2.31611    -681.323E-03    -698.923E-03    -681.282E-03         2.31606    -698.923E-03     14.4362E-03     116.056E-03    -57.9248E-03    -58.1084E-03    -57.5507E-03     115.620E-03    -58.0457E-03     17.1062E-03    -2.74704E+06    -33.5397E+06    -110.714E+06    -33.5583E+06    -110.695E+06    -2.74704E+06     684.412E+03         33.0651
             503     8.49500E-03     46.0007E-03         2.33207    -693.480E-03    -702.511E-03    -695.929E-03         2.33188    -699.870E-03     4.04856E-03     115.917E-03    -57.8477E-03    -58.0972E-03    -57.6241E-03     115.693E-03    -58.0972E-03     12.3700E-03    -3.97886E+06    -36.8032E+06    -141.462E+06    -36.8131E+06    -141.453E+06    -3.97886E+06     812.848E+03         31.9812
             504     7.55120E-03     45.9893E-03         2.33945    -696.963E-03    -703.850E-03    -700.623E-03         2.33919    -699.930E-03    -27.2564E-03     115.889E-03    -57.7908E-03    -58.1347E-03    -57.6501E-03     115.748E-03    -58.1347E-03     9.82409E-03    -8.95429E+06    -40.3383E+06    -167.687E+06    -40.3434E+06    -167.682E+06    -8.95429E+06     665.068E+03         31.2103
             505     6.60677E-03     45.9800E-03         2.33332    -694.091E-03    -701.514E-03    -694.218E-03         2.33217    -700.235E-03     62.8800E-03     115.923E-03    -57.7865E-03    -58.1695E-03    -57.7033E-03     115.839E-03    -58.1695E-03     7.48287E-03    -16.3453E+06    -44.7508E+06    -193.815E+06    -44.7554E+06    -193.810E+06    -16.3453E+06    -153.354E+03         30.5925
             506     5.66282E-03     45.9739E-03         2.33459    -693.432E-03    -701.643E-03    -689.275E-03         2.33044    -701.643E-03    -57.4254E-03     115.945E-03    -57.7675E-03    -58.2112E-03    -57.7238E-03     115.901E-03    -58.2112E-03     5.44036E-03    -22.9555E+06    -48.9728E+06    -214.565E+06    -48.9805E+06    -214.557E+06    -22.9555E+06    -771.772E+03         30.1094
             507     4.71907E-03     45.9688E-03         2.36205    -698.914E-03    -721.276E-03    -699.389E-03         2.34425    -703.004E-03     164.454E-03     116.079E-03    -57.8375E-03    -58.2661E-03    -57.8157E-03     116.058E-03    -58.2661E-03     3.76339E-03    -29.3438E+06    -52.8871E+06    -235.575E+06    -52.8928E+06    -235.569E+06    -29.3438E+06    -112.923E+03         29.7374
             508     3.77436E-03     45.9666E-03         2.41045    -700.657E-03    -767.509E-03    -722.186E-03         2.36512    -700.657E-03    -139.424E-03     116.361E-03    -58.0500E-03    -58.3286E-03    -58.0906E-03     116.353E-03    -58.2793E-03     2.41883E-03    -38.8503E+06    -57.5542E+06    -253.632E+06    -57.5559E+06    -253.630E+06    -38.8503E+06     38.6826E+03         29.4524
             509     2.83153E-03     45.9639E-03         2.45936    -696.623E-03    -822.633E-03    -704.666E-03         2.34139    -696.623E-03     298.843E-03     116.498E-03    -58.1813E-03    -58.3310E-03    -58.2887E-03     116.495E-03    -58.2204E-03     1.35073E-03    -49.7188E+06    -62.4023E+06    -259.576E+06    -62.4050E+06    -259.573E+06    -49.7188E+06    -670.651E+03         29.2366
             510     1.88763E-03     45.9634E-03         2.63975    -694.785E-03        -1.00955    -696.790E-03         2.32698    -694.785E-03    -518.467E-03     116.275E-03    -58.0697E-03    -58.2115E-03    -58.1304E-03     116.274E-03    -58.1503E-03     614.750E-06    -58.4074E+06    -66.0109E+06    -263.874E+06    -66.0150E+06    -263.869E+06    -58.4074E+06    -627.247E+03         29.0848
             511     943.696E-06     45.9623E-03         3.39487    -418.523E-03        -2.04055    -970.267E-03         2.32459    -418.523E-03         1.70882     116.183E-03    -57.8765E-03    -58.3093E-03    -58.2285E-03     116.183E-03    -57.9571E-03     107.003E-06    -65.7202E+06    -68.8666E+06    -267.566E+06    -68.4660E+06    -267.561E+06    -66.1256E+06    -717.797E+03         28.9954
             512     16.0507E-03     45.4533E-03         2.28379    -662.391E-03    -683.260E-03    -662.310E-03         2.28371    -683.260E-03    -12.2635E-03     139.207E-03    -58.1750E-03    -81.0510E-03    -56.4200E-03     114.576E-03    -58.1750E-03     130.446E-03     142.429E+06     125.528E+06    -6.86584E+06    -6.80504E+06     142.368E+06     125.528E+06     651.091E+03         55.0646
             513     15.1057E-03     45.2400E-03         2.29524    -665.600E-03    -683.807E-03    -665.900E-03         2.29511    -683.375E-03     8.52231E-03     147.423E-03    -58.1381E-03    -89.3494E-03    -57.4259E-03     115.499E-03    -58.1381E-03     160.146E-03     134.957E+06     101.923E+06    -14.7393E+06    -14.6366E+06     134.855E+06     101.923E+06     991.583E+03         52.0891
             514     14.1616E-03     45.0944E-03         2.30711    -677.201E-03    -684.358E-03    -678.433E-03         2.30700    -683.016E-03     5.21438E-03     128.516E-03    -57.9955E-03    -70.6092E-03    -57.0041E-03     114.911E-03    -57.9955E-03     96.3056E-03     127.892E+06     60.0163E+06    -21.0103E+06    -20.9372E+06     127.819E+06     60.0163E+06    -94.8580E+03         48.2036
             515     13.2168E-03     45.0267E-03         2.29809    -669.870E-03    -683.834E-03    -670.508E-03         2.29781    -682.924E-03    -29.9617E-03     118.599E-03    -57.8116E-03    -60.8201E-03    -56.3606E-03     114.139E-03    -57.8116E-03     55.4225E-03     118.317E+06     20.5785E+06    -25.3121E+06    -25.2771E+06     118.282E+06     20.5785E+06    -1.20569E+06         44.0364
             516     12.2724E-03     44.9727E-03         2.28249    -656.212E-03    -684.050E-03    -655.610E-03         2.28189    -684.050E-03     13.1988E-03     116.694E-03    -57.7653E-03    -58.9415E-03    -56.5455E-03     114.298E-03    -57.7653E-03     39.9634E-03     67.6694E+06    -5.35301E+06    -27.4737E+06    -27.4039E+06     67.5996E+06    -5.35301E+06     245.781E+03         40.2711
             517     11.3269E-03     44.9404E-03         2.29016    -661.872E-03    -685.886E-03    -661.520E-03         2.28980    -685.886E-03     35.7244E-03     115.955E-03    -57.8324E-03    -58.1499E-03    -56.9856E-03     114.835E-03    -57.8775E-03     27.4490E-03     8.90709E+06    -21.7126E+06    -38.0236E+06    -28.5535E+06    -12.8733E+06    -9.40230E+06     1.09312E+06         37.1652
             518     10.3829E-03     44.9143E-03         2.30460    -673.229E-03    -689.403E-03    -675.388E-03         2.30458    -687.229E-03    -7.71640E-03     116.037E-03    -57.8867E-03    -58.1283E-03    -57.3486E-03     115.355E-03    -57.9845E-03     21.6897E-03    -3.47968E+06    -30.7800E+06    -71.4521E+06    -30.8952E+06    -71.3369E+06    -3.47968E+06     852.706E+03         34.7517
             519     9.43934E-03     44.8933E-03         2.31272    -680.299E-03    -690.024E-03    -682.328E-03         2.31258    -687.850E-03     19.1434E-03     116.013E-03    -57.8755E-03    -58.1148E-03    -57.5028E-03     115.577E-03    -58.0521E-03     17.0655E-03    -2.29049E+06    -33.4847E+06    -110.624E+06    -33.5037E+06    -110.605E+06    -2.29049E+06     805.722E+03         33.0647
             520     8.49498E-03     44.8782E-03         2.31672    -683.441E-03    -688.246E-03    -683.161E-03         2.31644    -688.246E-03     12.7817E-03     115.866E-03    -57.7855E-03    -58.1041E-03    -57.5637E-03     115.644E-03    -58.1041E-03     12.3222E-03    -3.89957E+06    -36.3234E+06    -141.358E+06    -36.3361E+06    -141.345E+06    -3.89957E+06     518.816E+03         31.9819
             521     7.55078E-03     44.8672E-03         2.31836    -682.430E-03    -688.822E-03    -682.156E-03         2.31808    -688.822E-03    -36.8471E-03     115.889E-03    -57.7761E-03    -58.1504E-03    -57.6329E-03     115.745E-03    -58.1504E-03     9.92253E-03    -8.25930E+06    -39.7479E+06    -167.546E+06    -39.7553E+06    -167.538E+06    -8.25930E+06     385.233E+03         31.2122
             522     6.60698E-03     44.8577E-03         2.31645    -679.067E-03    -689.985E-03    -678.222E-03         2.31560    -689.985E-03     39.2231E-03     115.967E-03    -57.8154E-03    -58.1899E-03    -57.7314E-03     115.883E-03    -58.1899E-03     7.49415E-03    -14.4698E+06    -43.5395E+06    -192.215E+06    -43.5421E+06    -192.212E+06    -14.4698E+06     113.058E+03         30.5955
             523     5.66294E-03     44.8517E-03         2.32657    -682.247E-03    -698.630E-03    -686.143E-03         2.32301    -691.173E-03    -66.6774E-03     116.020E-03    -57.8281E-03    -58.2238E-03    -57.7863E-03     115.978E-03    -58.2238E-03     5.33849E-03     -22.023E+06    -48.2749E+06    -214.632E+06      -48.28E+06    -214.627E+06     -22.023E+06    -557.483E+03         30.1134
             524     4.71849E-03     44.8471E-03         2.33715    -683.569E-03    -707.934E-03    -684.635E-03         2.32259    -692.303E-03     133.864E-03     116.232E-03    -57.9718E-03    -58.2839E-03    -57.9796E-03     116.211E-03    -58.2553E-03     3.66645E-03    -29.0506E+06    -53.2680E+06    -236.794E+06    -53.2757E+06    -236.786E+06    -29.0506E+06    -446.714E+03         29.7411
             525     3.77542E-03     44.8440E-03         2.36569    -687.564E-03    -729.409E-03    -686.806E-03         2.32945    -693.921E-03    -122.915E-03     116.388E-03    -58.0981E-03    -58.3110E-03    -58.1686E-03     116.380E-03    -58.2331E-03     2.23771E-03    -37.7885E+06    -57.7812E+06    -252.908E+06    -57.7861E+06    -252.903E+06    -37.7885E+06     22.4327E+03         29.4528
             526     2.83133E-03     44.8416E-03         2.42999    -692.594E-03    -788.548E-03    -705.783E-03         2.34723    -692.594E-03     216.049E-03     116.328E-03    -58.0956E-03    -58.2484E-03    -58.1715E-03     116.325E-03    -58.1696E-03     1.30689E-03    -49.4664E+06    -62.6472E+06    -259.774E+06    -62.6507E+06    -259.771E+06    -49.4664E+06    -319.579E+03         29.2327
             527     1.88793E-03     44.8413E-03         2.58935    -684.408E-03    -956.596E-03    -708.310E-03         2.34107    -684.408E-03    -535.503E-03     116.247E-03    -58.0479E-03    -58.2080E-03    -58.1817E-03     116.247E-03    -58.0734E-03     635.633E-06    -59.9761E+06    -66.9546E+06    -264.617E+06    -66.9583E+06    -264.614E+06    -59.9761E+06    -611.601E+03         29.0782
             528     944.120E-06     44.8407E-03         3.20409    -457.377E-03        -1.80140    -899.450E-03         2.30215    -457.377E-03         1.47122     115.970E-03    -57.8539E-03    -58.1213E-03    -58.0114E-03     115.970E-03    -57.9636E-03     137.215E-06    -67.2475E+06    -70.0630E+06    -268.529E+06    -69.2781E+06    -268.523E+06    -68.0387E+06    -853.410E+03         28.9868
             529     16.0539E-03     44.3356E-03         2.28794    -661.388E-03    -676.697E-03    -661.726E-03         2.28777    -676.182E-03    -6.00208E-03     139.656E-03    -58.1385E-03    -81.5431E-03    -56.7749E-03     114.888E-03    -58.1385E-03     130.583E-03     142.382E+06     124.010E+06    -8.50905E+06    -8.45199E+06     142.325E+06     124.010E+06     445.301E+03         55.0574
             530     15.1068E-03     44.1161E-03         2.30288    -673.484E-03    -676.461E-03    -674.107E-03         2.30256    -675.514E-03     14.7523E-03     147.486E-03    -58.0915E-03    -89.4769E-03    -57.4672E-03     115.476E-03    -58.0915E-03     160.276E-03     135.818E+06     101.466E+06    -15.3376E+06    -15.1789E+06     135.659E+06     101.466E+06    -153.427E+03         52.0837
             531     14.1616E-03     43.9729E-03         2.29739    -665.468E-03    -675.360E-03    -665.698E-03         2.29714    -674.881E-03     34.1113E-03     127.790E-03    -57.9705E-03    -69.9140E-03    -56.4173E-03     114.293E-03    -57.9705E-03     95.9572E-03     128.539E+06     61.3337E+06    -20.2648E+06    -20.1161E+06     128.390E+06     61.3337E+06    -566.008E+03         48.1985
             532     13.2171E-03     43.9025E-03         2.28953    -658.636E-03    -675.310E-03    -658.573E-03         2.28942    -675.263E-03    -17.5593E-03     118.426E-03    -57.8176E-03    -60.6547E-03    -56.0667E-03     113.838E-03    -57.8176E-03     56.0388E-03     117.485E+06     21.2102E+06    -24.3573E+06    -24.3101E+06     117.438E+06     21.2102E+06    -463.080E+03         44.0313
             533     12.2714E-03     43.8530E-03         2.29459    -660.503E-03    -680.883E-03    -664.944E-03         2.29411    -675.970E-03     27.8585E-03     116.916E-03    -57.7722E-03    -59.1557E-03    -56.7753E-03     114.536E-03    -57.7722E-03     39.8270E-03     66.2530E+06    -5.64898E+06    -27.6729E+06    -27.6549E+06     66.2351E+06    -5.64898E+06    -147.517E+03         40.2673
             534     11.3275E-03     43.8156E-03         2.30586    -666.659E-03    -686.176E-03    -676.282E-03         2.30541    -676.102E-03     25.1534E-03     115.965E-03    -57.7396E-03    -58.2494E-03    -57.0251E-03     114.877E-03    -57.8760E-03     27.0666E-03     9.54326E+06    -21.8217E+06    -38.0879E+06    -29.4312E+06    -12.2408E+06    -8.69440E+06     670.707E+03         37.1630
             535     10.3838E-03     43.7934E-03         2.30677    -670.705E-03    -683.053E-03    -677.905E-03         2.30663    -675.718E-03    -35.4678E-03     115.932E-03    -57.7971E-03    -58.1169E-03    -57.2501E-03     115.255E-03    -57.9862E-03     21.6361E-03    -2.81893E+06    -30.8110E+06    -70.9783E+06    -30.9233E+06    -70.8660E+06    -2.81893E+06     983.855E+03         34.7499
             536     9.43859E-03     43.7700E-03         2.29965    -668.302E-03    -677.816E-03    -670.294E-03         2.29947    -675.642E-03     2.56858E-03     115.921E-03    -57.7934E-03    -58.1093E-03    -57.4057E-03     115.484E-03    -58.0597E-03     17.0385E-03    -1.98207E+06    -33.4275E+06    -110.745E+06    -33.4530E+06    -110.720E+06    -1.98207E+06     487.039E+03         33.0631
             537     8.49495E-03     43.7566E-03         2.29449    -662.789E-03    -676.507E-03    -662.595E-03         2.29429    -676.507E-03     16.6300E-03     115.818E-03    -57.7247E-03    -58.1220E-03    -57.5051E-03     115.599E-03    -58.1220E-03     12.2778E-03    -3.37948E+06    -36.4522E+06    -141.207E+06    -36.4712E+06    -141.188E+06    -3.37948E+06     230.806E+03         31.9819
             538     7.55070E-03     43.7447E-03         2.29864    -666.274E-03    -677.899E-03    -666.154E-03         2.29852    -677.899E-03    -21.0818E-03     115.928E-03    -57.7970E-03    -58.1711E-03    -57.6534E-03     115.784E-03    -58.1711E-03     9.90918E-03     -8.1387E+06    -40.2350E+06    -167.631E+06    -40.2461E+06    -167.620E+06     -8.1387E+06     142.327E+03         31.2143
             539     6.60660E-03     43.7360E-03         2.31263    -671.731E-03    -688.429E-03    -681.054E-03         2.31188    -678.354E-03     46.8757E-03     116.030E-03    -57.8613E-03    -58.2079E-03    -57.7788E-03     115.948E-03    -58.2079E-03     7.46570E-03    -13.9956E+06    -44.3925E+06    -191.822E+06    -44.3979E+06    -191.817E+06    -13.9956E+06     34.8430E+03         30.5994
             540     5.66264E-03     43.7297E-03         2.32677    -672.895E-03    -704.433E-03    -697.412E-03         2.32318    -676.327E-03    -68.4180E-03     116.233E-03    -57.9976E-03    -58.2684E-03    -58.0021E-03     116.192E-03    -58.2227E-03     5.26470E-03    -20.9221E+06    -48.9943E+06    -214.202E+06    -48.9958E+06    -214.200E+06    -20.9221E+06     68.4948E+03         30.1181
             541     4.71940E-03     43.7248E-03         2.30993    -667.693E-03    -692.332E-03    -676.228E-03         2.30043    -674.300E-03     58.2124E-03     116.319E-03    -58.0625E-03    -58.2796E-03    -58.1174E-03     116.300E-03    -58.2054E-03     3.60537E-03    -30.3094E+06    -54.3892E+06    -236.935E+06    -54.3932E+06    -236.931E+06    -30.3094E+06     2.05406E+03         29.7439
             542     3.77536E-03     43.7213E-03         2.31326    -669.175E-03    -692.395E-03    -661.865E-03         2.28934    -675.782E-03    -131.885E-03     116.188E-03    -58.0123E-03    -58.1968E-03    -58.0328E-03     116.180E-03    -58.1682E-03     2.28694E-03    -40.9481E+06    -59.6644E+06    -253.766E+06    -59.6724E+06    -253.758E+06    -40.9481E+06    -155.729E+03         29.4509
             543     2.83164E-03     43.7204E-03         2.36416    -677.737E-03    -734.732E-03    -676.190E-03         2.30562    -677.737E-03     180.166E-03     116.105E-03    -57.9673E-03    -58.1541E-03    -57.9645E-03     116.102E-03    -58.1541E-03     1.36008E-03    -51.1383E+06    -63.6670E+06    -259.575E+06    -63.6731E+06    -259.569E+06    -51.1383E+06    -195.797E+03         29.2268
             544     1.88733E-03     43.7185E-03         2.50252    -674.519E-03    -870.057E-03    -688.376E-03         2.32084    -674.519E-03    -455.774E-03     116.157E-03    -57.9090E-03    -58.2567E-03    -58.0130E-03     116.156E-03    -58.1516E-03     866.553E-06    -61.5023E+06    -67.1810E+06    -264.719E+06    -67.1488E+06    -264.716E+06    -61.5371E+06    -115.201E+03         29.0729
             545     944.153E-06     43.7194E-03         3.02920    -494.045E-03        -1.57373    -848.193E-03         2.30367    -494.045E-03         1.31747     116.261E-03    -57.7722E-03    -58.4930E-03    -58.2494E-03     116.260E-03    -58.0154E-03     325.195E-06    -68.2919E+06    -70.3977E+06    -269.707E+06    -69.9816E+06    -269.702E+06    -68.7125E+06    -631.420E+03         28.9862
             546     16.0511E-03     43.2124E-03         2.29446    -658.073E-03    -672.776E-03    -662.531E-03         2.29430    -668.156E-03    -3.40211E-03     140.152E-03    -58.0973E-03    -82.0610E-03    -57.4558E-03     115.547E-03    -58.0973E-03     129.761E-03     143.099E+06     124.730E+06    -7.55460E+06    -7.47865E+06     143.024E+06     124.730E+06     858.011E+03         55.0499
             547     15.1083E-03     42.9931E-03         2.28711    -659.306E-03    -667.822E-03    -659.592E-03         2.28688    -667.307E-03     2.19345E-03     147.238E-03    -58.0210E-03    -89.2809E-03    -57.3713E-03     115.328E-03    -58.0210E-03     159.855E-03     136.705E+06     100.119E+06    -14.6903E+06    -14.5636E+06     136.578E+06     100.119E+06    -948.897E+03         52.0780
             548     14.1629E-03     42.8519E-03         2.27853    -652.584E-03    -666.917E-03    -652.372E-03         2.27832    -666.917E-03     675.776E-06     126.859E-03    -57.9161E-03    -69.0289E-03    -55.6626E-03     113.493E-03    -57.9161E-03     95.3027E-03     127.252E+06     57.8400E+06    -20.7872E+06    -20.6729E+06     127.137E+06     57.8400E+06    -1.29827E+06         48.1923
             549     13.2150E-03     42.7819E-03         2.28997    -655.310E-03    -674.570E-03    -662.792E-03         2.28972    -666.843E-03    -50.1089E-03     118.292E-03    -57.8076E-03    -60.5182E-03    -55.8572E-03     113.631E-03    -57.8076E-03     56.3442E-03     117.333E+06     20.0494E+06    -25.2323E+06    -25.1782E+06     117.279E+06     20.0494E+06    -80.3740E+03         44.0255
             550     12.2725E-03     42.7274E-03         2.31149    -664.376E-03    -684.606E-03    -682.885E-03         2.31120    -665.805E-03    -11.1592E-03     117.025E-03    -57.7716E-03    -59.2689E-03    -56.9438E-03     114.700E-03    -57.7716E-03     39.3001E-03     66.1876E+06    -5.44232E+06    -28.1058E+06    -28.0674E+06     66.1492E+06    -5.44232E+06     1.28369E+03         40.2636
             551     11.3283E-03     42.6962E-03         2.30777    -662.700E-03    -680.365E-03    -678.746E-03         2.30758    -664.131E-03     311.667E-06     115.888E-03    -57.7263E-03    -58.1853E-03    -56.9688E-03     114.808E-03    -57.8627E-03     27.1159E-03     8.88605E+06    -22.0476E+06    -38.0064E+06    -29.3333E+06    -13.1540E+06    -8.68062E+06    -7.40105E+03         37.1610
             552     10.3824E-03     42.6696E-03         2.29405    -658.524E-03    -668.373E-03    -663.539E-03         2.29390    -663.213E-03    -32.6482E-03     115.867E-03    -57.7912E-03    -58.0537E-03    -57.1798E-03     115.177E-03    -57.9751E-03     21.7556E-03     -2.2534E+06    -30.7338E+06    -70.3522E+06    -30.7645E+06    -70.3214E+06     -2.2534E+06     260.331E+03         34.7489
             553     9.43963E-03     42.6487E-03         2.28799    -656.459E-03    -663.608E-03    -656.609E-03         2.28785    -663.315E-03     8.58838E-03     115.845E-03    -57.7188E-03    -58.1069E-03    -57.3577E-03     115.434E-03    -58.0573E-03     16.5407E-03    -1.34880E+06    -33.2799E+06    -110.339E+06    -33.3073E+06    -110.312E+06    -1.34880E+06     74.4873E+03         33.0632
             554     8.49447E-03     42.6342E-03         2.28270    -651.060E-03    -664.499E-03    -651.197E-03         2.28254    -664.206E-03     263.035E-06     115.735E-03    -57.6410E-03    -58.1267E-03    -57.4255E-03     115.520E-03    -58.1267E-03     12.1665E-03    -2.94441E+06    -36.6507E+06    -141.243E+06    -36.6658E+06    -141.228E+06    -2.94441E+06     56.3657E+03         31.9825
             555     7.55074E-03     42.6225E-03         2.28577    -653.571E-03    -665.542E-03    -653.464E-03         2.28566    -665.542E-03    -34.1332E-03     115.945E-03    -57.8084E-03    -58.1778E-03    -57.6691E-03     115.806E-03    -58.1778E-03     9.74080E-03    -7.98239E+06    -40.6169E+06    -167.402E+06    -40.6284E+06    -167.390E+06    -7.98239E+06     112.171E+03         31.2153
             556     6.60664E-03     42.6138E-03         2.30371    -663.173E-03    -677.068E-03    -673.783E-03         2.30285    -665.597E-03     53.4697E-03     116.093E-03    -57.9218E-03    -58.2074E-03    -57.8422E-03     116.014E-03    -58.2074E-03     7.36679E-03    -14.4809E+06    -45.0791E+06    -192.154E+06    -45.0841E+06    -192.149E+06    -14.4809E+06     226.389E+03         30.6005
             557     5.66303E-03     42.6069E-03         2.31514    -662.797E-03    -691.209E-03    -688.442E-03         2.31237    -662.797E-03    -36.5086E-03     116.238E-03    -58.0119E-03    -58.2591E-03    -58.0139E-03     116.195E-03    -58.2135E-03     5.43106E-03    -21.6134E+06    -49.6402E+06    -214.522E+06    -49.6429E+06    -214.519E+06    -21.6134E+06     470.465E+03         30.1187
             558     4.71932E-03     42.6023E-03         2.30268    -658.442E-03    -684.764E-03    -677.919E-03         2.29608    -658.693E-03     57.8536E-03     116.269E-03    -58.0363E-03    -58.2545E-03    -58.0681E-03     116.248E-03    -58.2013E-03     3.79988E-03    -30.4582E+06    -54.6973E+06    -236.728E+06    -54.7009E+06    -236.724E+06    -30.4582E+06     560.314E+03         29.7441
             559     3.77540E-03     42.6000E-03         2.28119    -651.597E-03    -673.172E-03    -652.701E-03         2.26644    -657.321E-03    -71.7388E-03     116.153E-03    -57.9930E-03    -58.1774E-03    -57.9919E-03     116.144E-03    -58.1697E-03     2.37187E-03    -41.8948E+06    -59.6920E+06    -253.463E+06    -59.6971E+06    -253.458E+06    -41.8948E+06     85.4631E+03         29.4510
             560     2.83142E-03     42.5975E-03         2.27715    -647.005E-03    -676.160E-03    -614.645E-03         2.23516    -666.531E-03     190.726E-03     116.067E-03    -57.9105E-03    -58.1733E-03    -57.9075E-03     116.065E-03    -58.1733E-03     1.40585E-03    -52.5178E+06    -63.5430E+06    -259.657E+06    -63.5491E+06    -259.651E+06    -52.5178E+06    -390.329E+03         29.2275
             561     1.88765E-03     42.5980E-03         2.41257    -668.782E-03    -782.990E-03    -652.218E-03         2.29585    -682.834E-03    -311.493E-03     116.126E-03    -57.8756E-03    -58.2592E-03    -57.8743E-03     116.125E-03    -58.2592E-03     832.081E-06    -60.4214E+06    -66.5596E+06    -265.038E+06    -66.5282E+06    -265.035E+06    -60.4561E+06    -324.490E+03         29.0753
             562     942.573E-06     42.5961E-03         2.83634    -538.880E-03        -1.32794    -842.228E-03         2.35063    -538.880E-03         1.06376     116.589E-03    -57.9496E-03    -58.6416E-03    -58.4173E-03     116.588E-03    -58.1729E-03     631.317E-06    -67.1977E+06    -70.1086E+06    -269.835E+06    -69.6702E+06    -269.828E+06    -67.6438E+06     218.271E+03         28.9921
             563     16.0564E-03     42.0917E-03         2.29375    -655.991E-03    -667.395E-03    -663.530E-03         2.29365    -659.763E-03    -19.3815E-03     140.674E-03    -58.0792E-03    -82.6226E-03    -57.6227E-03     115.674E-03    -58.0792E-03     129.992E-03     142.941E+06     125.450E+06    -6.22261E+06    -6.10096E+06     142.819E+06     125.450E+06     395.717E+03         55.0411
             564     15.1094E-03     41.8700E-03         2.28132    -652.295E-03    -660.590E-03    -654.339E-03         2.28130    -658.529E-03    -7.48473E-03     147.580E-03    -57.9911E-03    -89.6709E-03    -57.3244E-03     115.233E-03    -57.9911E-03     160.765E-03     138.720E+06     100.894E+06    -13.2894E+06    -13.2055E+06     138.636E+06     100.894E+06     572.901E+03         52.0705
             565     14.1625E-03     41.7330E-03         2.28469    -652.435E-03    -666.001E-03    -661.026E-03         2.28463    -657.355E-03    -15.2573E-03     127.090E-03    -57.8616E-03    -69.3214E-03    -56.0710E-03     113.839E-03    -57.8616E-03     95.3024E-03     127.715E+06     56.8149E+06    -20.9685E+06    -20.9190E+06     127.666E+06     56.8149E+06    -134.705E+03         48.1870
             566     13.2187E-03     41.6589E-03         2.29693    -653.448E-03    -673.545E-03    -670.916E-03         2.29676    -655.907E-03    -32.5520E-03     118.267E-03    -57.7513E-03    -60.5581E-03    -55.7681E-03     113.477E-03    -57.7513E-03     57.0810E-03     116.673E+06     19.0037E+06    -26.0251E+06    -25.9536E+06     116.602E+06     19.0037E+06    -604.794E+03         44.0225
             567     12.2719E-03     41.6058E-03         2.29629    -653.338E-03    -670.267E-03    -668.996E-03         2.29596    -654.276E-03     6.82474E-03     116.435E-03    -57.7483E-03    -58.7087E-03    -56.3801E-03     114.106E-03    -57.7483E-03     39.1138E-03     66.0124E+06    -4.97936E+06    -27.6783E+06    -27.6283E+06     65.9625E+06    -4.97936E+06    -717.842E+03         40.2611
             568     11.3271E-03     41.5735E-03         2.28287    -650.822E-03    -659.398E-03    -656.757E-03         2.28264    -653.237E-03     24.3201E-03     115.853E-03    -57.8575E-03    -58.0215E-03    -56.9520E-03     114.783E-03    -57.8575E-03     27.0026E-03     8.35366E+06    -21.5107E+06    -38.2443E+06    -28.9778E+06    -13.7812E+06    -8.64239E+06    -701.289E+03         37.1588
             569     10.3844E-03     41.5478E-03         2.27873    -650.233E-03    -654.921E-03    -652.215E-03         2.27871    -652.914E-03    -7.52532E-03     115.861E-03    -57.8128E-03    -58.0254E-03    -57.1655E-03     115.158E-03    -57.9699E-03     21.9576E-03    -2.44509E+06    -30.5248E+06    -70.8392E+06    -30.6078E+06    -70.7561E+06    -2.44509E+06    -394.916E+03         34.7486
             570     9.43876E-03     41.5265E-03         2.28118    -651.510E-03    -655.325E-03    -654.004E-03         2.28106    -652.713E-03     26.1160E-03     115.853E-03    -57.7760E-03    -58.0575E-03    -57.3516E-03     115.428E-03    -58.0566E-03     16.8453E-03    -1.12510E+06    -33.0516E+06    -109.976E+06    -33.0676E+06    -109.960E+06    -1.12510E+06    -10.5831E+03         33.0649
             571     8.49540E-03     41.5123E-03         2.28149    -650.160E-03    -657.521E-03    -655.185E-03         2.28135    -652.354E-03     12.3902E-03     115.855E-03    -57.7656E-03    -58.1182E-03    -57.5484E-03     115.637E-03    -58.1173E-03     12.2145E-03    -2.93355E+06    -36.6427E+06    -140.921E+06    -36.6526E+06    -140.911E+06    -2.93355E+06     50.5673E+03         31.9844
             572     7.55057E-03     41.5004E-03         2.28554    -647.698E-03    -664.967E-03    -661.139E-03         2.28548    -651.470E-03    -12.1330E-03     115.861E-03    -57.7353E-03    -58.1624E-03    -57.5984E-03     115.724E-03    -58.1624E-03     9.68383E-03    -8.29803E+06    -40.7593E+06    -167.317E+06    -40.7664E+06    -167.310E+06    -8.29803E+06     175.807E+03         31.2152
             573     6.60697E-03     41.4915E-03         2.27524    -642.470E-03    -660.950E-03    -652.432E-03         2.27487    -650.618E-03     33.1403E-03     116.028E-03    -57.8609E-03    -58.1985E-03    -57.7773E-03     115.945E-03    -58.1985E-03     7.54588E-03    -14.9845E+06    -44.8736E+06    -192.488E+06    -44.8761E+06    -192.486E+06    -14.9845E+06     315.833E+03         30.5980
             574     5.66288E-03     41.4846E-03         2.26351    -636.004E-03    -658.887E-03    -642.381E-03         2.26213    -651.125E-03    -44.9808E-03     116.087E-03    -57.8901E-03    -58.2274E-03    -57.8450E-03     116.041E-03    -58.2274E-03     5.51502E-03    -21.8633E+06    -49.2680E+06    -215.089E+06    -49.2706E+06    -215.086E+06    -21.8633E+06     590.601E+03         30.1156
             575     4.71862E-03     41.4805E-03         2.27233    -636.191E-03    -667.845E-03    -646.958E-03         2.26760    -652.349E-03     61.6271E-03     116.181E-03    -57.9407E-03    -58.2637E-03    -57.9263E-03     116.159E-03    -58.2560E-03     3.85218E-03    -29.0559E+06    -53.2902E+06    -236.421E+06    -53.2928E+06    -236.418E+06    -29.0559E+06     578.582E+03         29.7431
             576     3.77532E-03     41.4773E-03         2.28122    -640.076E-03    -673.251E-03    -650.965E-03         2.27201    -653.157E-03    -40.5613E-03     116.299E-03    -58.0584E-03    -58.2575E-03    -58.0565E-03     116.290E-03    -58.2499E-03     2.48503E-03    -39.5105E+06    -58.1590E+06    -252.656E+06    -58.1596E+06    -252.656E+06    -39.5105E+06     260.009E+03         29.4549
             577     2.83129E-03     41.4770E-03         2.28463    -636.363E-03    -683.932E-03    -641.132E-03         2.26136    -655.889E-03     129.611E-03     116.288E-03    -58.0678E-03    -58.2327E-03    -58.0645E-03     116.285E-03    -58.2327E-03     1.45813E-03    -51.4312E+06    -63.0756E+06    -259.574E+06    -63.0785E+06    -259.571E+06    -51.4312E+06    -67.8227E+03         29.2358
             578     1.88711E-03     41.4746E-03         2.36154    -640.127E-03    -750.783E-03    -670.775E-03         2.29559    -654.179E-03    -235.118E-03     116.349E-03    -58.0548E-03    -58.3016E-03    -58.1243E-03     116.348E-03    -58.2309E-03     773.289E-06    -59.8370E+06    -67.0535E+06    -265.364E+06    -67.0563E+06    -265.361E+06    -59.8370E+06    -304.663E+03         29.0836
             579     944.404E-06     41.4755E-03         2.53186    -555.916E-03        -1.00093    -744.075E-03         2.27500    -555.916E-03     635.425E-03     116.389E-03    -58.0185E-03    -58.3722E-03    -58.2851E-03     116.387E-03    -58.1044E-03     785.894E-06    -67.3529E+06    -70.9832E+06    -270.482E+06    -70.5806E+06    -270.473E+06    -67.7642E+06     772.593E+03         28.9966
             580     16.0511E-03     40.9704E-03         2.28599    -652.054E-03    -666.688E-03    -666.541E-03         2.28585    -652.054E-03    -9.43211E-03     140.448E-03    -58.1126E-03    -82.3966E-03    -57.3410E-03     115.393E-03    -58.1126E-03     130.161E-03     142.527E+06     124.199E+06    -8.52940E+06    -8.36012E+06     142.358E+06     124.199E+06    -948.517E+03         55.0302
             581     15.1064E-03     40.7465E-03         2.28748    -650.025E-03    -666.347E-03    -666.289E-03         2.28742    -650.025E-03     344.290E-06     147.902E-03    -58.0343E-03    -89.9771E-03    -57.5807E-03     115.505E-03    -58.0343E-03     161.108E-03     138.575E+06     100.972E+06    -15.5520E+06    -15.4026E+06     138.426E+06     100.972E+06    -264.814E+03         52.0614
             582     14.1638E-03     40.6105E-03         2.29124    -647.799E-03    -667.747E-03    -667.704E-03         2.29120    -647.799E-03     11.8834E-03     127.731E-03    -57.8822E-03    -69.9602E-03    -56.5683E-03     114.339E-03    -57.8822E-03     96.2819E-03     128.857E+06     58.3642E+06    -20.3743E+06    -20.3448E+06     128.827E+06     58.3642E+06     548.091E+03         48.1808
             583     13.2175E-03     40.5371E-03         2.28648    -645.909E-03    -661.586E-03    -661.554E-03         2.28645    -645.909E-03    -4.22747E-03     118.749E-03    -57.7314E-03    -61.0821E-03    -56.0985E-03     113.766E-03    -57.7314E-03     58.3811E-03     117.503E+06     19.0559E+06    -24.0715E+06    -24.0223E+06     117.454E+06     19.0559E+06    -10.2680E+03         44.0189
             584     12.2729E-03     40.4849E-03         2.27415    -643.852E-03    -649.829E-03    -648.694E-03         2.27395    -644.790E-03     18.3186E-03     116.445E-03    -57.7208E-03    -58.7535E-03    -56.3321E-03     114.024E-03    -57.7208E-03     39.8853E-03     65.4631E+06    -5.84975E+06    -26.4729E+06    -26.3928E+06     65.3830E+06    -5.84975E+06    -1.00216E+06         40.2586
             585     11.3284E-03     40.4503E-03         2.27431    -643.052E-03    -652.863E-03    -651.666E-03         2.27410    -644.037E-03     16.8933E-03     115.627E-03    -57.6545E-03    -58.0049E-03    -56.7154E-03     114.536E-03    -57.8524E-03     27.1959E-03     8.14491E+06    -21.0716E+06    -37.6885E+06    -27.5530E+06    -14.1086E+06    -8.95367E+06    -1.01392E+06         37.1566
             586     10.3825E-03     40.4262E-03         2.27658    -642.990E-03    -653.004E-03    -652.844E-03         2.27647    -643.036E-03    -26.9377E-03     115.759E-03    -57.6776E-03    -58.0649E-03    -57.0386E-03     115.040E-03    -57.9851E-03     22.2372E-03    -2.99733E+06    -29.6742E+06    -71.7031E+06    -29.7551E+06    -71.6222E+06    -2.99733E+06    -499.135E+03         34.7474
             587     9.43894E-03     40.4044E-03         2.27348    -641.863E-03    -652.279E-03    -652.151E-03         2.27335    -641.863E-03     2.71491E-03     116.033E-03    -57.8851E-03    -58.1262E-03    -57.4920E-03     115.586E-03    -58.0720E-03     17.2475E-03    -1.76281E+06    -32.9756E+06    -110.528E+06    -32.9956E+06    -110.508E+06    -1.76281E+06    -4.52992E+03         33.0656
             588     8.49471E-03     40.3894E-03         2.27580    -640.208E-03    -657.741E-03    -657.579E-03         2.27564    -640.208E-03    -4.91464E-03     115.988E-03    -57.8895E-03    -58.1231E-03    -57.6706E-03     115.769E-03    -58.1222E-03     12.2756E-03    -3.18337E+06    -36.5415E+06    -140.746E+06    -36.5515E+06    -140.736E+06    -3.18337E+06     256.077E+03         31.9864
             589     7.55134E-03     40.3791E-03         2.27667    -637.773E-03    -659.147E-03    -659.023E-03         2.27654    -637.773E-03    -13.9341E-03     115.930E-03    -57.8023E-03    -58.1604E-03    -57.6583E-03     115.786E-03    -58.1604E-03     9.95736E-03    -8.40770E+06    -40.6712E+06    -167.621E+06    -40.6762E+06    -167.616E+06    -8.40770E+06     294.863E+03         31.2162
             590     6.60652E-03     40.3689E-03         2.25540    -629.446E-03    -647.045E-03    -640.456E-03         2.25538    -636.016E-03     11.5912E-03     115.915E-03    -57.7401E-03    -58.2021E-03    -57.6545E-03     115.830E-03    -58.2021E-03     7.56018E-03    -14.8851E+06    -44.9297E+06    -192.728E+06    -44.9327E+06    -192.725E+06    -14.8851E+06     426.452E+03         30.5969
             591     5.66272E-03     40.3629E-03         2.23427    -618.201E-03    -637.708E-03    -618.123E-03         2.23369    -637.207E-03    -52.2385E-03     115.975E-03    -57.7497E-03    -58.2521E-03    -57.7060E-03     115.932E-03    -58.2521E-03     5.45445E-03    -22.0567E+06    -49.5136E+06    -214.945E+06    -49.5155E+06    -214.943E+06    -22.0567E+06     543.984E+03         30.1139
             592     4.71900E-03     40.3581E-03         2.23452    -615.116E-03    -641.513E-03    -613.710E-03         2.23311    -641.513E-03     7.87455E-03     116.118E-03    -57.8352E-03    -58.3059E-03    -57.8120E-03     116.095E-03    -58.3059E-03     3.88792E-03    -30.6917E+06    -54.5657E+06    -236.432E+06    -54.5670E+06    -236.431E+06    -30.6917E+06     456.072E+03         29.7438
             593     3.77425E-03     40.3557E-03         2.27268    -629.904E-03    -665.172E-03    -646.909E-03         2.26838    -643.865E-03    -72.9279E-03     116.356E-03    -58.0327E-03    -58.3375E-03    -58.0236E-03     116.346E-03    -58.3375E-03     2.47904E-03    -39.8266E+06    -58.9287E+06    -252.190E+06    -58.9296E+06    -252.189E+06    -39.8266E+06     327.682E+03         29.4602
             594     2.83107E-03     40.3536E-03         2.30259    -636.207E-03    -690.424E-03    -679.666E-03         2.29183    -636.207E-03     71.2255E-03     116.593E-03    -58.2265E-03    -58.3748E-03    -58.2808E-03     116.589E-03    -58.3169E-03     1.49435E-03    -50.4287E+06    -64.0695E+06    -259.326E+06    -64.0707E+06    -259.325E+06    -50.4287E+06     149.337E+03         29.2448
             595     1.88784E-03     40.3537E-03         2.28923    -614.927E-03    -697.744E-03    -670.997E-03         2.26248    -614.927E-03    -111.743E-03     116.566E-03    -58.1994E-03    -58.3713E-03    -58.3564E-03     116.564E-03    -58.2128E-03     1.02781E-03    -61.1248E+06    -68.2885E+06    -265.700E+06    -68.2933E+06    -265.695E+06    -61.1248E+06     369.206E+03         29.0922
             596     943.516E-06     40.3516E-03         2.29260    -570.511E-03    -742.426E-03    -601.997E-03         2.18149    -599.832E-03     392.648E-03     116.236E-03    -57.9545E-03    -58.2844E-03    -58.2831E-03     116.235E-03    -57.9545E-03     728.329E-06    -68.2179E+06    -70.4637E+06    -269.832E+06    -70.2036E+06    -269.818E+06    -68.4916E+06     50.2612E+03         29.0005
             597     16.0528E-03     39.8438E-03         2.29609    -645.522E-03    -674.140E-03    -674.010E-03         2.29596    -645.522E-03     13.1325E-03     139.728E-03    -58.1781E-03    -81.5944E-03    -56.9535E-03     115.087E-03    -58.1781E-03     130.667E-03     143.245E+06     125.023E+06    -7.37141E+06    -7.25587E+06     143.130E+06     125.023E+06    -1.07596E+06         55.0186
             598     15.1086E-03     39.6274E-03         2.30275    -642.514E-03    -681.838E-03    -681.715E-03         2.30263    -642.514E-03     12.1355E-03     147.469E-03    -58.1124E-03    -89.4610E-03    -57.4368E-03     115.445E-03    -58.1124E-03     160.534E-03     136.780E+06     101.090E+06    -14.5332E+06    -14.3898E+06     136.637E+06     101.090E+06    -1.55892E+06         52.0521
             599     14.1600E-03     39.4861E-03         2.29576    -639.309E-03    -671.124E-03    -671.003E-03         2.29564    -639.309E-03     17.9361E-03     128.460E-03    -57.9590E-03    -70.6183E-03    -56.6877E-03     114.529E-03    -57.9590E-03     97.7838E-03     127.500E+06     58.2930E+06    -20.2645E+06    -20.2198E+06     127.455E+06     58.2930E+06    -645.911E+03         48.1738
             600     13.2172E-03     39.4162E-03         2.28224    -636.945E-03    -656.087E-03    -655.915E-03         2.28206    -636.945E-03    -28.3658E-03     119.372E-03    -57.7848E-03    -61.6384E-03    -56.7951E-03     114.529E-03    -57.7848E-03     57.8241E-03     118.729E+06     19.6698E+06    -23.5889E+06    -23.5685E+06     118.708E+06     19.6698E+06    -136.323E+03         44.0136
             601     12.2721E-03     39.3614E-03         2.27516    -635.163E-03    -652.167E-03    -651.995E-03         2.27498    -635.163E-03    -11.7187E-03     116.674E-03    -57.7012E-03    -58.9869E-03    -56.4956E-03     114.228E-03    -57.7461E-03     40.2945E-03     66.1963E+06    -5.65366E+06    -25.3208E+06    -25.2442E+06     66.1197E+06    -5.65366E+06    -314.306E+03         40.2544
             602     11.3273E-03     39.3301E-03         2.27239    -633.376E-03    -652.174E-03    -652.101E-03         2.27231    -633.376E-03    -5.31667E-03     115.740E-03    -57.6303E-03    -58.1424E-03    -56.7631E-03     114.603E-03    -57.8731E-03     27.7178E-03     7.69891E+06    -21.6818E+06    -37.4340E+06    -27.3708E+06    -14.5811E+06    -9.46495E+06    -391.610E+03         37.1531
             603     10.3830E-03     39.3039E-03         2.26714    -631.558E-03    -648.340E-03    -648.175E-03         2.26698    -631.558E-03    -41.7563E-03     115.907E-03    -57.6785E-03    -58.2147E-03    -57.1879E-03     115.197E-03    -57.9958E-03     22.0957E-03    -3.64224E+06    -30.2756E+06    -72.1384E+06    -30.3090E+06    -72.1049E+06    -3.64224E+06    -83.6202E+03         34.7446
             604     9.43869E-03     39.2814E-03         2.26884    -629.399E-03    -653.104E-03    -652.852E-03         2.26859    -629.399E-03     1.64701E-03     115.894E-03    -57.7379E-03    -58.1359E-03    -57.3521E-03     115.455E-03    -58.0825E-03     17.1352E-03    -2.62451E+06    -33.4332E+06    -111.208E+06    -33.4575E+06    -111.183E+06    -2.62451E+06     80.7117E+03         33.0632
             605     8.49479E-03     39.2676E-03         2.26796    -626.603E-03    -652.897E-03    -652.550E-03         2.26762    -626.603E-03    -7.57032E-03     115.937E-03    -57.8109E-03    -58.1512E-03    -57.5840E-03     115.710E-03    -58.1512E-03     12.4638E-03    -3.82542E+06    -37.1411E+06    -141.541E+06    -37.1535E+06    -141.529E+06    -3.82542E+06     338.551E+03         31.9856
             606     7.55021E-03     39.2562E-03         2.24789    -619.075E-03    -636.943E-03    -631.174E-03         2.24766    -624.616E-03    -25.7616E-03     116.093E-03    -57.9301E-03    -58.1955E-03    -57.7822E-03     115.945E-03    -58.1955E-03     10.0989E-03    -8.17197E+06    -40.9128E+06    -167.648E+06    -40.9200E+06    -167.641E+06    -8.17197E+06     581.897E+03         31.2184
             607     6.60722E-03     39.2475E-03         2.23485    -616.288E-03    -626.647E-03    -618.362E-03         2.23483    -624.554E-03     9.65426E-03     116.019E-03    -57.8182E-03    -58.2293E-03    -57.7299E-03     115.931E-03    -58.2293E-03     7.69386E-03    -14.6437E+06    -45.1322E+06    -192.517E+06    -45.1361E+06    -192.513E+06    -14.6437E+06     736.809E+03         30.6009
             608     5.66244E-03     39.2407E-03         2.24522    -617.847E-03    -636.924E-03    -630.179E-03         2.24509    -624.458E-03    -22.4640E-03     115.978E-03    -57.7270E-03    -58.2759E-03    -57.6827E-03     115.934E-03    -58.2759E-03     5.46433E-03    -22.0247E+06    -49.6200E+06    -214.853E+06    -49.6227E+06    -214.851E+06    -22.0247E+06     636.379E+03         30.1180
             609     4.71803E-03     39.2360E-03         2.24456    -612.913E-03    -641.404E-03    -630.914E-03         2.24431    -623.152E-03     622.533E-06     116.152E-03    -57.8319E-03    -58.3388E-03    -57.8098E-03     116.130E-03    -58.3388E-03     3.78450E-03    -30.2028E+06    -54.6831E+06    -236.366E+06    -54.6842E+06    -236.365E+06    -30.2028E+06     429.438E+03         29.7477
             610     3.77495E-03     39.2335E-03         2.24660    -614.114E-03    -642.469E-03    -635.295E-03         2.24578    -620.467E-03    -34.3979E-03     116.378E-03    -58.0192E-03    -58.3740E-03    -58.0104E-03     116.369E-03    -58.3740E-03     2.44741E-03    -40.7062E+06    -59.8621E+06    -251.901E+06    -59.8630E+06    -251.900E+06    -40.7062E+06     405.147E+03         29.4636
             611     2.83051E-03     39.2312E-03         2.23069    -597.928E-03    -648.636E-03    -625.961E-03         2.22717    -617.090E-03     20.0229E-03     116.624E-03    -58.2074E-03    -58.4283E-03    -58.2617E-03     116.621E-03    -58.3705E-03     1.48408E-03    -51.3416E+06    -63.5844E+06    -259.075E+06    -63.5853E+06    -259.074E+06    -51.3416E+06     14.6153E+03         29.2483
             612     1.88705E-03     39.2304E-03         2.21909    -595.954E-03    -642.576E-03    -617.060E-03         2.21274    -615.116E-03    -45.9274E-03     116.686E-03    -58.2744E-03    -58.4168E-03    -58.3885E-03     116.685E-03    -58.3015E-03     836.359E-06    -61.1510E+06    -67.8643E+06    -265.826E+06    -67.8687E+06    -265.821E+06    -61.1510E+06     299.663E+03         29.0968
             613     944.134E-06     39.2304E-03         2.24169    -578.110E-03    -683.245E-03    -557.667E-03         2.20962    -671.616E-03     143.203E-03     116.427E-03    -58.0812E-03    -58.3478E-03    -58.3470E-03     116.426E-03    -58.0812E-03     448.739E-06    -68.5662E+06    -71.0044E+06    -268.408E+06    -70.6582E+06    -268.387E+06    -68.9341E+06     578.730E+03         29.0058
             614     16.0489E-03     38.7143E-03         2.31555    -639.096E-03    -680.054E-03    -679.979E-03         2.31547    -639.096E-03     1.75787E-03     138.856E-03    -58.2100E-03    -80.6523E-03    -55.8499E-03     114.053E-03    -58.2100E-03     131.518E-03     143.760E+06     124.185E+06    -6.29404E+06    -6.18651E+06     143.652E+06     124.185E+06    -1.00005E+06         55.0069
             615     15.1042E-03     38.5084E-03         2.31315    -635.417E-03    -681.470E-03    -681.384E-03         2.31307    -635.417E-03     8.99697E-03     147.178E-03    -58.1833E-03    -89.0874E-03    -57.2679E-03     115.358E-03    -58.1833E-03     159.775E-03     136.513E+06     99.8990E+06    -14.1429E+06    -14.0038E+06     136.374E+06     99.8990E+06    -1.35975E+06         52.0421
             616     14.1600E-03     38.3626E-03         2.30724    -631.496E-03    -677.985E-03    -677.883E-03         2.30713    -631.496E-03     4.93788E-03     129.108E-03    -58.0238E-03    -71.1983E-03    -57.3260E-03     115.236E-03    -58.0238E-03     97.6855E-03     126.870E+06     58.4808E+06    -21.3408E+06    -21.2439E+06     126.773E+06     58.4808E+06    -1.57677E+06         48.1679
             617     13.2162E-03     38.2908E-03         2.29161    -627.958E-03    -667.277E-03    -667.089E-03         2.29142    -627.958E-03    -39.1750E-03     119.029E-03    -57.8410E-03    -61.2250E-03    -56.6534E-03     114.458E-03    -57.8410E-03     56.0876E-03     117.913E+06     20.5786E+06    -25.0300E+06    -24.9672E+06     117.850E+06     20.5786E+06    -1.48873E+06         44.0084
             618     12.2720E-03     38.2418E-03         2.27550    -624.940E-03    -656.365E-03    -656.152E-03         2.27529    -624.940E-03    -10.5632E-03     116.716E-03    -57.7545E-03    -58.9677E-03    -56.5476E-03     114.341E-03    -57.7993E-03     39.9028E-03     66.0042E+06    -5.68182E+06    -26.9867E+06    -26.9636E+06     65.9811E+06    -5.68182E+06    -16.1375E+03         40.2484
             619     11.3265E-03     38.2063E-03         2.26249    -622.458E-03    -645.666E-03    -645.595E-03         2.26242    -622.458E-03     6.13086E-03     116.180E-03    -57.8578E-03    -58.3574E-03    -57.1575E-03     115.025E-03    -57.9027E-03     27.9041E-03     7.25535E+06    -22.7797E+06    -38.5877E+06    -29.2398E+06    -14.6350E+06    -10.2372E+06     522.755E+03         37.1487
             620     10.3835E-03     38.1814E-03         2.25847    -620.180E-03    -643.836E-03    -643.717E-03         2.25835    -620.180E-03    -33.8598E-03     116.017E-03    -57.8050E-03    -58.2023E-03    -57.3115E-03     115.326E-03    -58.0048E-03     21.8372E-03    -4.13333E+06    -31.3443E+06    -72.1206E+06    -31.4111E+06    -72.0538E+06    -4.13333E+06     365.134E+03         34.7414
             621     9.43864E-03     38.1602E-03         2.25452    -617.753E-03    -641.360E-03    -640.886E-03         2.25405    -617.753E-03     20.5830E-03     115.702E-03    -57.5855E-03    -58.0954E-03    -57.1407E-03     115.258E-03    -58.0954E-03     17.2599E-03    -3.26879E+06    -34.1546E+06    -111.628E+06    -34.1749E+06    -111.608E+06    -3.26879E+06     291.771E+03         33.0596
             622     8.49382E-03     38.1449E-03         2.24076    -613.920E-03    -630.253E-03    -627.849E-03         2.24023    -615.789E-03     15.2180E-03     115.845E-03    -57.6885E-03    -58.1841E-03    -57.4561E-03     115.613E-03    -58.1841E-03     12.5929E-03    -4.28849E+06    -37.5034E+06    -141.989E+06    -37.5182E+06    -141.975E+06    -4.28849E+06     322.285E+03         31.9828
             623     7.55064E-03     38.1339E-03         2.22938    -607.351E-03    -626.874E-03    -619.195E-03         2.22911    -614.760E-03    -6.79539E-03     116.075E-03    -57.8674E-03    -58.2470E-03    -57.7215E-03     115.929E-03    -58.2470E-03     10.0217E-03     -8.1033E+06    -41.1821E+06    -167.698E+06    -41.1900E+06    -167.690E+06     -8.1033E+06     504.094E+03         31.2201
             624     6.60570E-03     38.1248E-03         2.22682    -605.776E-03    -627.747E-03    -619.275E-03         2.22661    -614.041E-03     5.30986E-03     116.216E-03    -57.9619E-03    -58.2829E-03    -57.8738E-03     116.127E-03    -58.2829E-03     7.72126E-03    -14.3049E+06    -45.3191E+06    -192.588E+06    -45.3224E+06    -192.585E+06    -14.3049E+06     652.290E+03         30.6078
             625     5.66263E-03     38.1186E-03         2.23727    -609.172E-03    -635.114E-03    -632.282E-03         2.23716    -611.898E-03    -19.0815E-03     116.255E-03    -57.9811E-03    -58.3019E-03    -57.9380E-03     116.212E-03    -58.3019E-03     5.37215E-03    -21.4420E+06    -49.8720E+06    -214.528E+06    -49.8757E+06    -214.524E+06    -21.4420E+06     732.669E+03         30.1264
             626     4.71886E-03     38.1143E-03         2.23772    -607.409E-03    -634.817E-03    -634.727E-03         2.23763    -607.409E-03    -8.70521E-03     116.245E-03    -57.9409E-03    -58.3261E-03    -57.9209E-03     116.225E-03    -58.3261E-03     3.67464E-03    -30.6956E+06    -54.9794E+06    -235.721E+06    -54.9822E+06    -235.718E+06    -30.6956E+06     638.812E+03         29.7536
             627     3.77414E-03     38.1107E-03         2.21961    -602.795E-03    -618.687E-03    -617.566E-03         2.21849    -602.795E-03     29.4539E-03     116.375E-03    -58.0605E-03    -58.3339E-03    -58.0520E-03     116.367E-03    -58.3339E-03     2.29414E-03    -42.4586E+06    -59.5082E+06    -251.460E+06    -59.5103E+06    -251.458E+06    -42.4586E+06     22.2664E+03         29.4651
             628     2.83108E-03     38.1091E-03         2.18073    -575.405E-03    -611.060E-03    -578.573E-03         2.17824    -605.404E-03    -36.9141E-03     116.457E-03    -58.1261E-03    -58.3457E-03    -58.1234E-03     116.454E-03    -58.3457E-03     1.29479E-03    -53.0977E+06    -63.7463E+06    -259.773E+06    -63.7574E+06    -259.762E+06    -53.0977E+06     404.385E+03         29.2463
             629     1.88726E-03     38.1075E-03         2.21729    -581.441E-03    -643.931E-03    -605.155E-03         2.20851    -611.439E-03     44.5202E-03     116.578E-03    -58.1869E-03    -58.3972E-03    -58.2135E-03     116.577E-03    -58.3697E-03     662.401E-06    -61.1218E+06    -67.9308E+06    -265.500E+06    -67.9404E+06    -265.491E+06    -61.1218E+06     686.323E+03         29.0956
             630     943.248E-06     38.1081E-03         2.26541    -543.716E-03    -736.616E-03    -521.802E-03         2.21101    -704.124E-03    -238.760E-03     116.686E-03    -58.1601E-03    -58.5280E-03    -58.4825E-03     116.686E-03    -58.2054E-03     298.924E-06    -67.9887E+06    -70.5192E+06    -267.415E+06    -70.4392E+06    -267.401E+06    -68.0829E+06     327.469E+03         29.0092
             631     16.0537E-03     37.6013E-03         2.31775    -632.141E-03    -682.160E-03    -682.094E-03         2.31769    -632.141E-03    -22.6013E-03     138.733E-03    -58.1864E-03    -80.5744E-03    -55.7058E-03     113.864E-03    -58.1864E-03     130.147E-03     144.466E+06     124.730E+06    -8.06330E+06    -7.92541E+06     144.328E+06     124.730E+06    -547.420E+03         54.9956
             632     15.1037E-03     37.3821E-03         2.30252    -628.417E-03    -668.073E-03    -667.922E-03         2.30237    -628.417E-03     16.5837E-03     147.139E-03    -58.1600E-03    -89.0976E-03    -57.3589E-03     115.401E-03    -58.1600E-03     159.090E-03     137.320E+06     98.5988E+06    -16.9606E+06    -16.7580E+06     137.117E+06     98.5988E+06    -1.35181E+06         52.0330
             633     14.1618E-03     37.2394E-03         2.29926    -624.762E-03    -672.032E-03    -671.878E-03         2.29911    -624.762E-03     15.3999E-03     128.085E-03    -57.9984E-03    -70.1954E-03    -56.9579E-03     114.848E-03    -57.9984E-03     95.6045E-03     126.856E+06     55.2184E+06    -22.7908E+06    -22.6596E+06     126.725E+06     55.2184E+06    -2.25245E+06         48.1604
             634     13.2162E-03     37.1691E-03         2.29262    -620.950E-03    -671.393E-03    -671.371E-03         2.29260    -620.950E-03    -15.2146E-03     118.342E-03    -57.8420E-03    -60.5255E-03    -55.9574E-03     113.774E-03    -57.8420E-03     55.7415E-03     115.319E+06     17.4517E+06    -26.7965E+06    -26.7233E+06     115.246E+06     17.4517E+06    -1.93079E+06         44.0004
             635     12.2704E-03     37.1192E-03         2.27801    -617.283E-03    -659.273E-03    -659.197E-03         2.27793    -617.283E-03     12.0784E-03     117.071E-03    -57.8159E-03    -59.2611E-03    -56.9405E-03     114.750E-03    -57.8159E-03     39.5011E-03     64.7052E+06    -6.91066E+06    -29.3309E+06    -29.2991E+06     64.6734E+06    -6.91066E+06    -337.555E+03         40.2412
             636     11.3276E-03     37.0831E-03         2.26643    -613.920E-03    -651.276E-03    -651.140E-03         2.26630    -613.920E-03     28.0747E-03     116.156E-03    -57.7472E-03    -58.4542E-03    -57.1705E-03     115.034E-03    -57.9094E-03     27.5001E-03     7.36759E+06    -22.9726E+06    -39.9817E+06    -30.1212E+06    -14.8068E+06    -10.6587E+06     364.135E+03         37.1442
             637     10.3824E-03     37.0593E-03         2.25625    -610.793E-03    -641.842E-03    -641.649E-03         2.25606    -610.793E-03    -17.4605E-03     115.853E-03    -57.7843E-03    -58.0741E-03    -57.1576E-03     115.179E-03    -58.0269E-03     21.5522E-03    -4.23693E+06    -31.5380E+06    -72.1785E+06    -31.6209E+06    -72.0956E+06    -4.23693E+06     273.376E+03         34.7395
             638     9.43840E-03     37.0382E-03         2.23895    -608.478E-03    -624.365E-03    -623.767E-03         2.23835    -608.478E-03     25.1188E-03     115.886E-03    -57.7414E-03    -58.1349E-03    -57.3201E-03     115.450E-03    -58.1197E-03     17.1034E-03    -2.99446E+06    -34.3016E+06    -110.728E+06    -34.3250E+06    -110.705E+06    -2.99446E+06     299.655E+03         33.0595
             639     8.49443E-03     37.0228E-03         2.22428    -605.529E-03    -614.114E-03    -610.961E-03         2.22300    -607.398E-03    -6.08472E-03     115.751E-03    -57.5898E-03    -58.1965E-03    -57.3602E-03     115.522E-03    -58.1965E-03     12.5246E-03    -5.04760E+06    -37.6593E+06    -142.181E+06    -37.6714E+06    -142.168E+06    -5.04760E+06     114.018E+03         31.9826
             640     7.54931E-03     37.0113E-03         2.22991    -604.442E-03    -622.034E-03    -618.960E-03         2.22871    -606.311E-03    -12.2969E-03     116.018E-03    -57.7940E-03    -58.2676E-03    -57.6525E-03     115.877E-03    -58.2676E-03     9.82125E-03    -8.98537E+06    -41.8166E+06    -168.243E+06    -41.8207E+06    -168.239E+06    -8.98537E+06     195.462E+03         31.2212
             641     6.60639E-03     37.0024E-03         2.23863    -603.283E-03    -634.176E-03    -633.471E-03         2.23793    -603.283E-03     3.98793E-03     116.257E-03    -57.9766E-03    -58.3131E-03    -57.8960E-03     116.177E-03    -58.3131E-03     7.39793E-03    -14.6507E+06    -46.2415E+06    -192.572E+06    -46.2441E+06    -192.569E+06    -14.6507E+06     474.869E+03         30.6119
             642     5.66207E-03     36.9958E-03         2.22433    -599.023E-03    -624.336E-03    -623.514E-03         2.22350    -599.023E-03    -1.44594E-03     116.392E-03    -58.0999E-03    -58.3211E-03    -58.0579E-03     116.350E-03    -58.3211E-03     5.32981E-03    -22.8950E+06    -50.3562E+06    -214.611E+06    -50.3591E+06    -214.608E+06    -22.8950E+06     617.911E+03         30.1316
             643     4.71849E-03     36.9920E-03         2.19926    -590.258E-03    -607.734E-03    -599.983E-03         2.19786    -596.602E-03    -21.3315E-03     116.480E-03    -58.1734E-03    -58.3344E-03    -58.1809E-03     116.460E-03    -58.3062E-03     3.73407E-03    -32.3789E+06    -54.1595E+06    -234.341E+06    -54.1624E+06    -234.338E+06    -32.3789E+06     651.989E+03         29.7572
             644     3.77540E-03     36.9886E-03         2.19140    -588.669E-03    -601.418E-03    -589.668E-03         2.18817    -597.184E-03     52.1425E-03     116.373E-03    -58.0839E-03    -58.3122E-03    -58.1030E-03     116.364E-03    -58.2840E-03     2.38443E-03    -42.8492E+06    -58.8957E+06    -251.487E+06    -58.9067E+06    -251.475E+06    -42.8492E+06     691.311E+03         29.4656
             645     2.83108E-03     36.9865E-03         2.19723    -587.129E-03    -610.630E-03    -588.035E-03         2.18764    -600.137E-03    -77.1455E-03     116.345E-03    -58.0635E-03    -58.2983E-03    -58.0682E-03     116.342E-03    -58.2905E-03     1.29574E-03    -52.2281E+06    -63.9008E+06    -260.650E+06    -63.9203E+06    -260.631E+06    -52.2281E+06     1.08322E+06         29.2436
             646     1.88696E-03     36.9861E-03         2.24864    -585.875E-03    -665.052E-03    -618.474E-03         2.21290    -596.712E-03     204.023E-03     116.422E-03    -58.0989E-03    -58.3322E-03    -58.1059E-03     116.421E-03    -58.3244E-03     632.459E-06    -60.2819E+06    -67.1659E+06    -264.553E+06    -67.1767E+06    -264.542E+06    -60.2819E+06     459.241E+03         29.0919
             647     943.642E-06     36.9844E-03         2.39822    -576.494E-03    -823.146E-03    -417.584E-03         2.18118    -765.014E-03    -583.586E-03     116.644E-03    -58.0911E-03    -58.5571E-03    -58.3051E-03     116.643E-03    -58.3428E-03     297.345E-06    -66.9836E+06    -68.8923E+06    -267.222E+06    -68.8990E+06    -267.215E+06    -66.9836E+06    -944.870E+03         29.0073
             648     16.0511E-03     36.4840E-03         2.32347    -626.226E-03    -688.258E-03    -688.081E-03         2.32330    -626.226E-03    -12.1788E-03     140.069E-03    -58.1264E-03    -82.0144E-03    -57.2465E-03     115.301E-03    -58.1264E-03     130.039E-03     145.632E+06     125.501E+06    -7.66333E+06    -7.58613E+06     145.554E+06     125.501E+06     208.353E+03         54.9828
             649     15.1088E-03     36.2572E-03         2.30629    -622.045E-03    -672.629E-03    -672.437E-03         2.30610    -622.045E-03     10.0713E-03     147.309E-03    -58.0541E-03    -89.3862E-03    -57.2896E-03     115.213E-03    -58.0541E-03     160.274E-03     138.522E+06     99.1833E+06    -15.2283E+06    -15.0749E+06     138.369E+06     99.1833E+06    -272.061E+03         52.0224
             650     14.1620E-03     36.1188E-03         2.29082    -618.304E-03    -659.525E-03    -659.182E-03         2.29048    -618.304E-03    -2.94311E-03     126.841E-03    -57.9262E-03    -69.0235E-03    -55.6606E-03     113.478E-03    -57.9262E-03     95.2645E-03     127.023E+06     52.2292E+06    -21.6979E+06    -21.5825E+06     126.908E+06     52.2292E+06    -1.63548E+06         48.1477
             651     13.2150E-03     36.0483E-03         2.28678    -614.920E-03    -657.037E-03    -656.803E-03         2.28654    -614.920E-03    -38.7237E-03     118.469E-03    -57.8093E-03    -60.6935E-03    -56.0523E-03     113.828E-03    -57.8093E-03     56.2197E-03     114.006E+06     13.6137E+06    -26.6157E+06    -26.5687E+06     113.959E+06     13.6137E+06    -1.66766E+06         43.9884
             652     12.2721E-03     35.9946E-03         2.28639    -611.209E-03    -660.606E-03    -660.552E-03         2.28633    -611.209E-03    -8.53611E-03     116.949E-03    -57.7794E-03    -59.1913E-03    -56.8915E-03     114.662E-03    -57.7921E-03     39.0401E-03     62.9289E+06    -8.21001E+06    -29.2633E+06    -29.1837E+06     62.8493E+06    -8.21001E+06    -1.10899E+06         40.2333
             653     11.3271E-03     35.9620E-03         2.27235    -607.237E-03    -652.065E-03    -651.982E-03         2.27227    -607.237E-03     15.4803E-03     115.851E-03    -57.7296E-03    -58.1656E-03    -56.9149E-03     114.776E-03    -57.9044E-03     27.0214E-03     6.29596E+06    -23.1323E+06    -39.8825E+06    -30.2347E+06    -15.5284E+06    -10.9557E+06    -282.877E+03         37.1393
             654     10.3825E-03     35.9372E-03         2.24883    -604.023E-03    -630.766E-03    -630.561E-03         2.24862    -604.023E-03    -15.7277E-03     115.827E-03    -57.7748E-03    -58.0537E-03    -57.1151E-03     115.147E-03    -58.0329E-03     21.6268E-03    -5.01419E+06    -31.8472E+06    -72.2898E+06    -31.9388E+06    -72.1982E+06    -5.01419E+06     100.756E+03         34.7384
             655     9.43858E-03     35.9151E-03         2.24116    -601.640E-03    -624.010E-03    -623.117E-03         2.24027    -601.640E-03     35.5876E-03     115.941E-03    -57.7995E-03    -58.1430E-03    -57.3909E-03     115.517E-03    -58.1277E-03     16.8664E-03    -3.35872E+06    -34.5214E+06    -110.535E+06    -34.5511E+06    -110.506E+06    -3.35872E+06     119.021E+03         33.0621
             656     8.49397E-03     35.9019E-03         2.23935    -599.125E-03    -625.227E-03    -623.445E-03         2.23757    -599.125E-03    -10.2882E-03     115.886E-03    -57.7384E-03    -58.1939E-03    -57.5110E-03     115.659E-03    -58.1939E-03     12.4900E-03    -5.35318E+06    -37.8294E+06    -141.629E+06    -37.8409E+06    -141.618E+06    -5.35318E+06     135.149E+03         31.9852
             657     7.55042E-03     35.8888E-03         2.23324    -596.168E-03    -622.192E-03    -620.335E-03         2.23138    -596.168E-03    -6.17906E-03     116.002E-03    -57.7979E-03    -58.2477E-03    -57.6574E-03     115.861E-03    -58.2477E-03     9.77488E-03    -10.6211E+06    -41.6134E+06    -168.849E+06    -41.6159E+06    -168.847E+06    -10.6211E+06     91.3119E+03         31.2209
             658     6.60584E-03     35.8801E-03         2.22291    -590.042E-03    -617.930E-03    -612.808E-03         2.22091    -593.169E-03    -8.02395E-03     116.141E-03    -57.8835E-03    -58.2972E-03    -57.8071E-03     116.064E-03    -58.2972E-03     7.18467E-03    -15.5486E+06    -45.5052E+06    -192.534E+06    -45.5062E+06    -192.533E+06    -15.5486E+06     242.549E+03         30.6098
             659     5.66213E-03     35.8740E-03         2.20540    -583.937E-03    -605.428E-03    -595.580E-03         2.20298    -591.366E-03     6.94276E-03     116.319E-03    -58.0273E-03    -58.3224E-03    -57.9872E-03     116.279E-03    -58.3224E-03     5.20965E-03    -23.3012E+06    -50.0046E+06    -214.495E+06    -50.0055E+06    -214.494E+06    -23.3012E+06     294.567E+03         30.1294
             660     4.71863E-03     35.8688E-03         2.18984    -579.149E-03    -594.383E-03    -578.343E-03         2.18705    -592.408E-03    -8.74128E-03     116.472E-03    -58.1477E-03    -58.3482E-03    -58.1558E-03     116.452E-03    -58.3200E-03     3.67287E-03    -33.1245E+06    -54.5853E+06    -235.109E+06    -54.5889E+06    -235.106E+06    -33.1245E+06     656.628E+03         29.7555
             661     3.77471E-03     35.8666E-03         2.20851    -582.492E-03    -613.393E-03    -595.151E-03         2.20140    -593.620E-03     81.0274E-03     116.464E-03    -58.1480E-03    -58.3422E-03    -58.1737E-03     116.455E-03    -58.3072E-03     2.50008E-03    -40.3227E+06    -58.8697E+06    -251.708E+06    -58.8835E+06    -251.694E+06    -40.3227E+06     1.48782E+06         29.4645
             662     2.83109E-03     35.8646E-03         2.22979    -588.497E-03    -633.418E-03    -607.158E-03         2.20570    -590.668E-03    -144.489E-03     116.448E-03    -58.1695E-03    -58.2986E-03    -58.1798E-03     116.443E-03    -58.2841E-03     1.59609E-03    -48.9858E+06    -62.6870E+06    -259.134E+06    -62.6973E+06    -259.124E+06    -48.9858E+06     959.578E+03         29.2432
             663     1.88798E-03     35.8631E-03         2.26933    -583.240E-03    -676.879E-03    -601.900E-03         2.19436    -583.240E-03     252.972E-03     116.416E-03    -58.1578E-03    -58.2704E-03    -58.1797E-03     116.414E-03    -58.2473E-03     739.120E-06    -59.7241E+06    -65.9189E+06    -263.362E+06    -65.9204E+06    -263.360E+06    -59.7241E+06    -327.040E+03         29.0905
             664     943.480E-06     35.8631E-03         2.59488    -694.389E-03    -887.522E-03    -340.231E-03         2.17006    -816.860E-03    -897.149E-03     116.411E-03    -57.9115E-03    -58.5071E-03    -58.3002E-03     116.411E-03    -58.1179E-03     558.077E-06    -67.7176E+06    -69.3358E+06    -268.831E+06    -69.3406E+06    -268.826E+06    -67.7176E+06    -270.351E+03         29.0030
             665     16.0540E-03     35.3543E-03         2.34209    -622.410E-03    -702.852E-03    -702.653E-03         2.34189    -622.410E-03     7.12512E-03     140.377E-03    -58.1040E-03    -82.3359E-03    -57.4720E-03     115.513E-03    -58.1040E-03     130.651E-03     145.444E+06     124.845E+06    -8.83949E+06    -8.80588E+06     145.411E+06     124.845E+06    -293.714E+03         54.9656
             666     15.1094E-03     35.1395E-03         2.33249    -617.111E-03    -695.054E-03    -694.831E-03         2.33227    -617.111E-03     4.81629E-03     147.381E-03    -58.0252E-03    -89.4633E-03    -57.1219E-03     115.040E-03    -58.0252E-03     160.972E-03     138.741E+06     99.8055E+06    -14.9885E+06    -14.8901E+06     138.643E+06     99.8055E+06    -820.989E+03         52.0050
             667     14.1607E-03     34.9982E-03         2.30582    -612.156E-03    -671.899E-03    -671.536E-03         2.30545    -612.156E-03    -5.17510E-03     127.384E-03    -57.8959E-03    -69.6123E-03    -56.0015E-03     113.773E-03    -57.8959E-03     96.1647E-03     128.746E+06     54.8310E+06    -19.5684E+06    -19.4353E+06     128.613E+06     54.8310E+06    -327.363E+03         48.1309
             668     13.2177E-03     34.9247E-03         2.28281    -608.196E-03    -651.985E-03    -651.727E-03         2.28255    -608.196E-03    -46.8282E-03     118.351E-03    -57.7702E-03    -60.6384E-03    -55.9893E-03     113.702E-03    -57.7702E-03     56.3378E-03     113.836E+06     13.7882E+06    -24.5165E+06    -24.4354E+06     113.755E+06     13.7882E+06    -532.446E+03         43.9756
             669     12.2716E-03     34.8727E-03         2.27082    -604.816E-03    -644.231E-03    -644.152E-03         2.27074    -604.816E-03    -11.1295E-03     116.418E-03    -57.7595E-03    -58.6927E-03    -56.3419E-03     114.080E-03    -57.7721E-03     39.3271E-03     60.9158E+06    -9.65591E+06    -28.0246E+06    -27.9440E+06     60.8351E+06    -9.65591E+06    -1.02962E+06         40.2241
             670     11.3269E-03     34.8401E-03         2.26305    -601.514E-03    -639.773E-03    -639.740E-03         2.26302    -601.514E-03     5.88958E-03     115.871E-03    -57.8918E-03    -58.0070E-03    -56.9076E-03     114.784E-03    -57.9045E-03     27.1277E-03     5.65078E+06    -23.2234E+06    -38.6374E+06    -29.7570E+06    -15.5489E+06    -10.9041E+06    -245.672E+03         37.1333
             671     10.3828E-03     34.8143E-03         2.25655    -598.248E-03    -632.409E-03    -632.198E-03         2.25634    -598.248E-03    -33.6619E-03     115.892E-03    -57.8436E-03    -58.0293E-03    -57.1747E-03     115.218E-03    -58.0236E-03     21.5400E-03    -5.45545E+06    -32.2104E+06    -72.3881E+06    -32.2960E+06    -72.3025E+06    -5.45545E+06    -87.9527E+03         34.7366
             672     9.43810E-03     34.7938E-03         2.24823    -595.064E-03    -626.191E-03    -625.412E-03         2.24745    -595.064E-03     13.5993E-03     115.906E-03    -57.7853E-03    -58.1149E-03    -57.3642E-03     115.485E-03    -58.1149E-03     16.8217E-03    -4.08999E+06    -34.8573E+06    -111.042E+06    -34.8797E+06    -111.019E+06    -4.08999E+06    -114.318E+03         33.0636
             673     8.49445E-03     34.7782E-03         2.24248    -591.605E-03    -625.865E-03    -624.671E-03         2.24128    -591.605E-03    -11.6543E-03     116.005E-03    -57.8682E-03    -58.1797E-03    -57.6437E-03     115.781E-03    -58.1797E-03     12.3989E-03    -5.33798E+06    -37.7424E+06    -141.306E+06    -37.7538E+06    -141.295E+06    -5.33798E+06     26.4433E+03         31.9868
             674     7.55026E-03     34.7672E-03         2.23232    -587.677E-03    -621.335E-03    -619.935E-03         2.23092    -587.677E-03     5.57934E-03     116.005E-03    -57.8308E-03    -58.2241E-03    -57.6901E-03     115.864E-03    -58.2241E-03     9.82352E-03    -10.7921E+06    -40.9875E+06    -168.956E+06    -40.9918E+06    -168.952E+06    -10.7921E+06    -263.060E+03         31.2189
             675     6.60633E-03     34.7575E-03         2.20138    -580.558E-03    -599.620E-03    -592.953E-03         2.19919    -585.043E-03    -21.3202E-03     116.093E-03    -57.8752E-03    -58.2642E-03    -57.7958E-03     116.014E-03    -58.2642E-03     7.28977E-03    -15.6800E+06    -44.2805E+06    -192.476E+06    -44.2835E+06    -192.473E+06    -15.6800E+06    -234.130E+03         30.6044
             676     5.66254E-03     34.7511E-03         2.18301    -574.722E-03    -585.541E-03    -572.317E-03         2.18060    -585.541E-03    -14.8090E-03     116.228E-03    -57.9460E-03    -58.3155E-03    -57.9080E-03     116.190E-03    -58.3155E-03     5.07170E-03    -19.9286E+06     -48.571E+06    -215.387E+06    -48.5816E+06    -215.377E+06    -19.9286E+06     710.426E+03         30.1239
             677     4.71827E-03     34.7469E-03         2.19361    -578.527E-03    -591.658E-03    -578.831E-03         2.18973    -587.474E-03    -50.4773E-03     116.288E-03    -57.9650E-03    -58.3467E-03    -57.9465E-03     116.269E-03    -58.3467E-03     3.50635E-03    -29.2109E+06    -54.5509E+06    -236.314E+06    -54.5671E+06    -236.298E+06    -29.2109E+06     1.46007E+06         29.7509
             678     3.77464E-03     34.7437E-03         2.22621    -583.608E-03    -617.823E-03    -602.928E-03         2.21392    -586.221E-03     109.604E-03     116.437E-03    -58.1194E-03    -58.3434E-03    -58.1183E-03     116.430E-03    -58.3367E-03     2.30150E-03    -40.7774E+06    -59.9764E+06    -250.851E+06    -59.9840E+06    -250.843E+06    -40.7774E+06     948.529E+03         29.4620
             679     2.83122E-03     34.7423E-03         2.24140    -581.547E-03    -637.308E-03    -596.972E-03         2.20106    -581.547E-03    -183.158E-03     116.507E-03    -58.2027E-03    -58.3227E-03    -58.2052E-03     116.502E-03    -58.3160E-03     1.69307E-03    -51.3930E+06    -63.9782E+06    -257.262E+06    -63.9804E+06    -257.260E+06    -51.3930E+06     326.399E+03         29.2432
             680     1.88688E-03     34.7411E-03         2.32143    -571.315E-03    -729.483E-03    -601.961E-03         2.19391    -571.315E-03     345.637E-03     116.563E-03    -58.1955E-03    -58.3793E-03    -58.3118E-03     116.562E-03    -58.2613E-03     925.079E-06    -61.0196E+06    -67.8260E+06    -262.574E+06    -67.8264E+06    -262.573E+06    -61.0196E+06     90.0374E+03         29.0912
             681     944.068E-06     34.7411E-03         2.84042    -802.685E-03        -1.01826    -294.059E-03         2.14640    -832.859E-03        -1.19435     116.368E-03    -57.8268E-03    -58.5480E-03    -58.5473E-03     116.367E-03    -57.8268E-03     614.029E-06    -69.1956E+06    -71.8063E+06    -269.494E+06    -71.7097E+06    -269.485E+06    -69.3008E+06     865.642E+03         29.0022
             682     16.0531E-03     34.2351E-03         2.34971    -619.509E-03    -703.238E-03    -703.113E-03         2.34959    -619.509E-03    -4.69245E-03     139.882E-03    -58.1138E-03    -81.8263E-03    -56.7775E-03     114.834E-03    -58.1138E-03     130.164E-03     145.914E+06     125.456E+06    -6.94073E+06    -6.91069E+06     145.884E+06     125.456E+06    -262.016E+03         54.9457
             683     15.1046E-03     34.0160E-03         2.33333    -614.269E-03    -692.547E-03    -692.288E-03         2.33307    -614.269E-03     12.6126E-03     147.661E-03    -58.0313E-03    -89.7364E-03    -57.4190E-03     115.343E-03    -58.0313E-03     160.734E-03     139.320E+06     99.3654E+06    -14.7056E+06    -14.6200E+06     139.234E+06     99.3654E+06    -996.132E+03         51.9847
             684     14.1642E-03     33.8753E-03         2.32174    -609.118E-03    -684.491E-03    -684.285E-03         2.32154    -609.118E-03     24.3991E-03     127.759E-03    -57.8777E-03    -69.9885E-03    -56.6324E-03     114.403E-03    -57.8777E-03     95.9980E-03     127.298E+06     54.1228E+06    -21.3336E+06    -21.2171E+06     127.182E+06     54.1228E+06    -437.559E+03         48.1135
             685     13.2171E-03     33.8035E-03         2.29882    -604.399E-03    -664.478E-03    -664.436E-03         2.29877    -604.399E-03    -8.74437E-03     118.152E-03    -57.7571E-03    -60.4448E-03    -55.6446E-03     113.352E-03    -57.7571E-03     57.1471E-03     114.146E+06     15.3806E+06    -25.2083E+06    -25.0818E+06     114.019E+06     15.3806E+06     876.400E+03         43.9622
             686     12.2715E-03     33.7519E-03         2.27181    -600.570E-03    -642.790E-03    -642.707E-03         2.27173    -600.570E-03     17.5952E-03     116.471E-03    -57.7665E-03    -58.7322E-03    -56.3486E-03     114.088E-03    -57.7665E-03     39.6218E-03     62.2949E+06    -8.55949E+06    -28.5055E+06    -28.3924E+06     62.1817E+06    -8.55949E+06     385.599E+03         40.2141
             687     11.3272E-03     33.7166E-03         2.26543    -597.085E-03    -639.792E-03    -639.734E-03         2.26537    -597.085E-03     21.6013E-03     115.808E-03    -57.7443E-03    -58.0909E-03    -56.8758E-03     114.743E-03    -57.8949E-03     26.8214E-03     5.96078E+06    -23.9709E+06    -39.9030E+06    -30.9732E+06    -15.6298E+06    -11.3101E+06    -574.416E+03         37.1270
             688     10.3827E-03     33.6933E-03         2.26773    -592.822E-03    -645.556E-03    -645.358E-03         2.26754    -592.822E-03    -29.7345E-03     115.865E-03    -57.7792E-03    -58.0706E-03    -57.1691E-03     115.199E-03    -58.0138E-03     21.4316E-03    -5.20129E+06    -32.4618E+06    -72.2865E+06    -32.5023E+06    -72.2460E+06    -5.20129E+06    -563.932E+03         34.7338
             689     9.43882E-03     33.6710E-03         2.25304    -588.088E-03    -633.433E-03    -632.988E-03         2.25259    -588.088E-03     366.982E-06     116.003E-03    -57.8403E-03    -58.1523E-03    -57.4740E-03     115.580E-03    -58.0957E-03     16.8254E-03    -4.01272E+06    -34.9159E+06    -111.322E+06    -34.9332E+06    -111.305E+06    -4.01272E+06    -393.050E+03         33.0631
             690     8.49441E-03     33.6564E-03         2.22759    -584.003E-03    -610.881E-03    -609.633E-03         2.22668    -584.342E-03    -27.2836E-03     115.878E-03    -57.7565E-03    -58.1555E-03    -57.5373E-03     115.659E-03    -58.1555E-03     12.2518E-03    -5.36067E+06    -38.0910E+06    -141.861E+06    -38.0974E+06    -141.855E+06    -5.36067E+06    -297.311E+03         31.9857
             691     7.55038E-03     33.6447E-03         2.20698    -577.444E-03    -597.962E-03    -591.886E-03         2.20573    -582.269E-03    -3.84851E-03     115.989E-03    -57.8306E-03    -58.2081E-03    -57.6900E-03     115.848E-03    -58.2081E-03     9.82064E-03    -9.81709E+06    -41.7743E+06    -168.336E+06    -41.7795E+06    -168.331E+06    -9.81709E+06    -290.053E+03         31.2156
             692     6.60657E-03     33.6353E-03         2.19767    -575.365E-03    -594.718E-03    -587.240E-03         2.19604    -581.210E-03    -18.9982E-03     116.074E-03    -57.8755E-03    -58.2422E-03    -57.7934E-03     115.992E-03    -58.2422E-03     7.44013E-03    -16.4537E+06    -46.3793E+06    -193.305E+06    -46.3830E+06    -193.301E+06    -16.4537E+06    -355.227E+03         30.5995
             693     5.66238E-03     33.6288E-03         2.20335    -576.115E-03    -600.703E-03    -594.628E-03         2.20066    -579.505E-03     13.4309E-03     116.116E-03    -57.8508E-03    -58.2974E-03    -57.8108E-03     116.076E-03    -58.2974E-03     5.18380E-03    -20.9290E+06    -50.8148E+06    -217.040E+06    -50.8259E+06    -217.029E+06    -20.9290E+06     487.800E+03         30.1189
             694     4.71887E-03     33.6247E-03         2.20212    -574.905E-03    -597.554E-03    -589.750E-03         2.19635    -576.937E-03    -61.7829E-03     116.244E-03    -57.9224E-03    -58.3460E-03    -57.9028E-03     116.224E-03    -58.3460E-03     3.62638E-03    -27.1429E+06    -54.3964E+06    -235.897E+06    -54.4130E+06    -235.880E+06    -27.1429E+06     1.41537E+06         29.7474
             695     3.77467E-03     33.6215E-03         2.19698    -575.709E-03    -589.826E-03    -571.188E-03         2.17889    -576.259E-03     123.750E-03     116.359E-03    -58.0408E-03    -58.3402E-03    -58.0321E-03     116.351E-03    -58.3402E-03     2.37085E-03    -40.2316E+06    -58.8866E+06    -249.431E+06    -58.8933E+06    -249.425E+06    -40.2316E+06     818.722E+03         29.4599
             696     2.83062E-03     33.6197E-03         2.22920    -579.878E-03    -618.238E-03    -559.125E-03         2.17063    -580.428E-03    -223.804E-03     116.493E-03    -58.1704E-03    -58.3368E-03    -58.1673E-03     116.490E-03    -58.3368E-03     1.43138E-03    -52.6938E+06    -63.9177E+06    -256.862E+06    -63.9215E+06    -256.859E+06    -52.6938E+06     556.956E+03         29.2418
             697     1.88750E-03     33.6188E-03         2.39872    -580.754E-03    -789.323E-03    -593.679E-03         2.20308    -580.754E-03     476.190E-03     116.598E-03    -58.1835E-03    -58.4226E-03    -58.2847E-03     116.596E-03    -58.3199E-03     936.806E-06    -61.3018E+06    -68.4473E+06    -263.063E+06    -68.4525E+06    -263.058E+06    -61.3018E+06     859.997E+03         29.0905
             698     943.783E-06     33.6179E-03         3.15749    -899.578E-03        -1.23035    -255.269E-03         2.18242    -899.578E-03        -1.47853     116.531E-03    -58.0374E-03    -58.4982E-03    -58.4212E-03     116.529E-03    -58.1129E-03     227.346E-06    -67.7877E+06    -70.9315E+06    -267.490E+06    -70.8412E+06    -267.475E+06    -67.8930E+06     350.609E+03         29.0042
             699     16.0524E-03     33.1170E-03         2.35006    -617.311E-03    -695.799E-03    -695.712E-03         2.34997    -617.311E-03    -16.7381E-03     140.177E-03    -58.1439E-03    -82.0810E-03    -57.1411E-03     115.237E-03    -58.1439E-03     130.718E-03     146.120E+06     124.678E+06    -7.69762E+06    -7.64685E+06     146.070E+06     124.678E+06    -686.849E+03         54.9252
             700     15.1094E-03     32.8912E-03         2.32808    -612.721E-03    -679.620E-03    -679.382E-03         2.32784    -612.721E-03     7.55409E-03     148.031E-03    -58.0423E-03    -90.0636E-03    -57.8405E-03     115.808E-03    -58.0423E-03     161.059E-03     139.019E+06     98.1522E+06    -15.5777E+06    -15.5330E+06     138.975E+06     98.1522E+06     104.601E+03         51.9666
             701     14.1613E-03     32.7536E-03         2.31588    -608.449E-03    -669.889E-03    -669.648E-03         2.31563    -608.449E-03     12.2378E-03     127.529E-03    -57.8935E-03    -69.7188E-03    -56.3294E-03     114.140E-03    -57.8935E-03     95.7147E-03     125.885E+06     52.5067E+06    -23.3848E+06    -23.3006E+06     125.801E+06     52.5067E+06     718.672E+03         48.0974
             702     13.2166E-03     32.6831E-03         2.30786    -604.087E-03    -668.232E-03    -668.126E-03         2.30775    -604.087E-03    -16.4757E-03     118.585E-03    -57.7725E-03    -60.8502E-03    -56.0798E-03     113.814E-03    -57.7725E-03     57.1713E-03     115.001E+06     15.8598E+06    -28.0035E+06    -27.8626E+06     114.860E+06     15.8598E+06     996.772E+03         43.9489
             703     12.2724E-03     32.6277E-03         2.30235    -599.145E-03    -668.087E-03    -668.029E-03         2.30230    -599.145E-03     15.6354E-03     116.615E-03    -57.7542E-03    -58.8774E-03    -56.4645E-03     114.202E-03    -57.7542E-03     39.8749E-03     64.2693E+06    -7.58052E+06    -29.7877E+06    -29.6826E+06     64.1642E+06    -7.58052E+06     127.564E+03         40.2047
             704     11.3279E-03     32.5962E-03         2.28649    -593.841E-03    -656.521E-03    -656.472E-03         2.28644    -593.841E-03     21.6381E-03     115.718E-03    -57.7290E-03    -58.0204E-03    -56.7887E-03     114.637E-03    -57.8796E-03     27.0506E-03     5.96154E+06    -24.2149E+06    -40.0214E+06    -30.6375E+06    -16.1471E+06    -11.4902E+06    -974.629E+03         37.1203
             705     10.3827E-03     32.5703E-03         2.26223    -588.827E-03    -640.492E-03    -640.185E-03         2.26193    -588.827E-03    -32.3795E-03     115.889E-03    -57.7847E-03    -58.0914E-03    -57.1835E-03     115.199E-03    -58.0024E-03     21.7965E-03    -5.20780E+06    -32.3626E+06    -72.8246E+06    -32.4384E+06    -72.7488E+06    -5.20780E+06    -872.154E+03         34.7299
             706     9.43891E-03     32.5485E-03         2.24376    -584.375E-03    -626.792E-03    -625.803E-03         2.24277    -584.375E-03     22.3427E-03     116.007E-03    -57.8566E-03    -58.1371E-03    -57.4849E-03     115.579E-03    -58.0805E-03     16.9131E-03    -4.02294E+06    -35.2369E+06    -111.741E+06    -35.2510E+06    -111.727E+06    -4.02294E+06    -429.362E+03         33.0609
             707     8.49477E-03     32.5346E-03         2.22019    -580.840E-03    -603.042E-03    -601.285E-03         2.21877    -581.179E-03    -1.56922E-03     115.873E-03    -57.7723E-03    -58.1364E-03    -57.5525E-03     115.653E-03    -58.1364E-03     12.2789E-03    -5.42721E+06    -38.8215E+06    -141.965E+06    -38.8280E+06    -141.958E+06    -5.42721E+06    -122.387E+03         31.9829
             708     7.55053E-03     32.5221E-03         2.19859    -575.010E-03    -590.124E-03    -583.525E-03         2.19682    -579.836E-03     11.7366E-03     115.879E-03    -57.7340E-03    -58.1913E-03    -57.5919E-03     115.737E-03    -58.1913E-03     9.86648E-03    -10.2397E+06    -43.0219E+06    -168.640E+06    -43.0259E+06    -168.636E+06    -10.2397E+06     83.5402E+03         31.2117
             709     6.60647E-03     32.5132E-03         2.20190    -574.320E-03    -597.270E-03    -589.822E-03         2.19894    -578.807E-03    -26.5284E-03     115.925E-03    -57.7211E-03    -58.2427E-03    -57.6382E-03     115.842E-03    -58.2427E-03     7.47665E-03    -17.1556E+06    -47.7153E+06    -194.145E+06    -47.7193E+06    -194.141E+06    -17.1556E+06     273.392E+03         30.5953
             710     5.66260E-03     32.5070E-03         2.21682    -575.730E-03    -608.171E-03    -602.956E-03         2.21161    -575.730E-03     34.6065E-03     116.066E-03    -57.8049E-03    -58.2902E-03    -57.7608E-03     116.022E-03    -58.2902E-03     5.48340E-03    -24.9992E+06    -52.4211E+06    -216.886E+06    -52.4279E+06    -216.879E+06    -24.9992E+06    -209.870E+03         30.1158
             711     4.71820E-03     32.5022E-03         2.21200    -571.023E-03    -605.478E-03    -595.295E-03         2.20182    -571.023E-03    -54.7942E-03     116.338E-03    -58.0260E-03    -58.3327E-03    -58.0032E-03     116.315E-03    -58.3327E-03     3.87716E-03    -31.4409E+06    -56.4697E+06    -235.984E+06    -56.4824E+06    -235.972E+06    -31.4409E+06    -563.162E+03         29.7465
             712     3.77472E-03     32.4993E-03         2.20109    -567.634E-03    -597.295E-03    -571.443E-03         2.17579    -568.183E-03     127.967E-03     116.467E-03    -58.1656E-03    -58.3216E-03    -58.1574E-03     116.459E-03    -58.3216E-03     2.28012E-03    -39.7973E+06    -59.7615E+06    -249.236E+06    -59.7747E+06    -249.223E+06    -39.7973E+06     397.517E+03         29.4591
             713     2.83122E-03     32.4973E-03         2.23823    -571.278E-03    -631.738E-03    -547.447E-03         2.15448    -571.828E-03    -283.808E-03     116.421E-03    -58.1338E-03    -58.3017E-03    -58.1315E-03     116.419E-03    -58.3017E-03     1.21593E-03    -51.0370E+06    -63.7314E+06    -256.791E+06    -63.7389E+06    -256.784E+06    -51.0370E+06     1.07764E+06         29.2393
             714     1.88711E-03     32.4962E-03         2.43515    -585.487E-03    -810.126E-03    -547.050E-03         2.17208    -585.487E-03     512.708E-03     116.367E-03    -58.0343E-03    -58.3394E-03    -58.0331E-03     116.366E-03    -58.3394E-03     874.440E-06    -60.9453E+06    -67.3332E+06    -262.683E+06    -67.3387E+06    -262.677E+06    -60.9453E+06     911.477E+03         29.0872
             715     943.131E-06     32.4958E-03         3.39576    -992.088E-03        -1.35924    -197.963E-03         2.23448    -992.088E-03        -1.67147     116.712E-03    -58.1242E-03    -58.5905E-03    -58.3886E-03     116.710E-03    -58.3246E-03     332.526E-06    -68.0595E+06     -69.969E+06    -266.703E+06    -69.9561E+06    -266.694E+06    -68.0814E+06    -327.388E+03         29.0029
             716     16.0496E-03     31.9848E-03         2.36226    -617.300E-03    -703.358E-03    -703.276E-03         2.36218    -617.300E-03    -1.34416E-03     139.996E-03    -58.1784E-03    -81.8359E-03    -56.9106E-03     115.070E-03    -58.1784E-03     131.484E-03     145.384E+06     125.190E+06    -8.27349E+06    -8.21434E+06     145.324E+06     125.190E+06    -669.755E+03         54.9052
             717     15.1064E-03     31.7726E-03         2.34741    -612.577E-03    -688.497E-03    -688.297E-03         2.34721    -612.577E-03     15.1328E-03     147.772E-03    -58.1069E-03    -89.6959E-03    -57.6923E-03     115.768E-03    -58.1069E-03     160.471E-03     136.432E+06     99.2110E+06    -16.7090E+06    -16.6167E+06     136.339E+06     99.2110E+06     755.191E+03         51.9490
             718     14.1615E-03     31.6305E-03         2.32917    -608.099E-03    -674.495E-03    -674.192E-03         2.32887    -608.099E-03     553.755E-06     128.043E-03    -57.9515E-03    -70.1810E-03    -56.6814E-03     114.544E-03    -57.9515E-03     96.2118E-03     127.131E+06     56.1245E+06    -22.3139E+06    -22.1985E+06     127.015E+06     56.1245E+06     1.73801E+06         48.0833
             719     13.2178E-03     31.5598E-03         2.32201    -603.356E-03    -673.568E-03    -673.393E-03         2.32183    -603.356E-03    -42.2123E-03     118.872E-03    -57.7849E-03    -61.1294E-03    -56.4179E-03     114.161E-03    -57.7849E-03     56.9010E-03     115.694E+06     17.3056E+06    -25.7661E+06    -25.6854E+06     115.613E+06     17.3056E+06     208.741E+03         43.9376
             720     12.2720E-03     31.5067E-03         2.31270    -597.944E-03    -671.419E-03    -671.366E-03         2.31264    -597.944E-03    -13.9269E-03     116.489E-03    -57.7523E-03    -58.7402E-03    -56.3114E-03     114.065E-03    -57.7567E-03     40.1322E-03     64.3369E+06    -7.40844E+06    -27.4422E+06    -27.4079E+06     64.3027E+06    -7.40844E+06    -631.434E+03         40.1949
             721     11.3266E-03     31.4731E-03         2.28874    -592.433E-03    -655.910E-03    -655.820E-03         2.28865    -592.433E-03     16.8636E-03     115.863E-03    -57.8859E-03    -58.0097E-03    -56.8653E-03     114.723E-03    -57.8903E-03     27.7284E-03     6.69315E+06    -23.3655E+06    -39.3967E+06    -29.3159E+06    -15.8338E+06    -10.9194E+06    -394.127E+03         37.1123
             722     10.3834E-03     31.4482E-03         2.25761    -587.942E-03    -629.223E-03    -628.813E-03         2.25720    -587.942E-03    -25.5514E-03     116.047E-03    -57.9228E-03    -58.1121E-03    -57.3346E-03     115.348E-03    -58.0019E-03     21.9473E-03    -5.13601E+06    -32.1306E+06    -73.5394E+06    -32.2147E+06    -73.4553E+06    -5.13601E+06    -417.908E+03         34.7243
             723     9.43848E-03     31.4262E-03         2.22983    -585.135E-03    -606.085E-03    -604.752E-03         2.22850    -585.135E-03     30.9720E-03     115.946E-03    -57.8528E-03    -58.0753E-03    -57.4194E-03     115.513E-03    -58.0753E-03     17.0119E-03    -4.15812E+06    -35.3526E+06    -111.932E+06    -35.3613E+06    -111.923E+06    -4.15812E+06    -175.361E+03         33.0575
             724     8.49477E-03     31.4116E-03         2.22608    -583.141E-03    -603.962E-03    -602.035E-03         2.22415    -583.141E-03     1.64206E-03     115.908E-03    -57.8061E-03    -58.1341E-03    -57.5839E-03     115.686E-03    -58.1341E-03     12.3442E-03    -5.42493E+06    -38.8432E+06    -142.230E+06    -38.8495E+06    -142.224E+06    -5.42493E+06     112.278E+03         31.9808
             725     7.55082E-03     31.4005E-03         2.23651    -579.971E-03    -616.613E-03    -614.240E-03         2.23414    -579.971E-03     17.6412E-03     115.867E-03    -57.7225E-03    -58.1863E-03    -57.5780E-03     115.722E-03    -58.1863E-03     9.96069E-03    -10.6350E+06    -42.7461E+06    -169.006E+06    -42.7495E+06    -169.003E+06    -10.6350E+06     309.334E+03         31.2097
             726     6.60633E-03     31.3910E-03         2.23249    -575.138E-03    -616.728E-03    -612.713E-03         2.22847    -575.138E-03    -30.2606E-03     115.901E-03    -57.6895E-03    -58.2458E-03    -57.6072E-03     115.818E-03    -58.2458E-03     7.39510E-03    -16.4959E+06    -46.2983E+06    -194.022E+06    -46.3088E+06    -194.011E+06    -16.4959E+06     4.17326E+03         30.5938
             727     5.66193E-03     31.3847E-03         2.21404    -570.427E-03    -599.942E-03    -594.385E-03         2.20848    -570.427E-03     6.59091E-03     116.095E-03    -57.8276E-03    -58.2951E-03    -57.7869E-03     116.054E-03    -58.2951E-03     5.26572E-03    -23.4730E+06    -50.0831E+06    -215.839E+06    -50.0962E+06    -215.826E+06    -23.4730E+06    -373.387E+03         30.1156
             728     4.71856E-03     31.3796E-03         2.20682    -567.034E-03    -593.453E-03    -580.660E-03         2.19403    -567.034E-03    -106.544E-03     116.376E-03    -58.0739E-03    -58.3239E-03    -58.0518E-03     116.354E-03    -58.3239E-03     3.82018E-03    -32.0656E+06    -55.0715E+06    -236.012E+06    -55.0821E+06    -236.002E+06    -32.0656E+06    -906.371E+03         29.7458
             729     3.77500E-03     31.3765E-03         2.22638    -563.451E-03    -613.791E-03    -581.052E-03         2.19364    -563.451E-03     124.926E-03     116.488E-03    -58.2044E-03    -58.3030E-03    -58.1959E-03     116.480E-03    -58.3030E-03     2.33835E-03    -40.9614E+06    -60.4326E+06    -250.867E+06    -60.4468E+06    -250.853E+06    -40.9614E+06    -715.263E+03         29.4575
             730     2.83126E-03     31.3753E-03         2.27287    -559.625E-03    -668.978E-03    -569.330E-03         2.17322    -559.625E-03    -303.217E-03     116.409E-03    -58.1423E-03    -58.2817E-03    -58.1498E-03     116.406E-03    -58.2714E-03     1.33300E-03    -50.4360E+06    -64.5459E+06    -257.275E+06    -64.5547E+06    -257.266E+06    -50.4360E+06     312.308E+03         29.2377
             731     1.88746E-03     31.3745E-03         2.46628    -557.396E-03    -867.185E-03    -559.798E-03         2.15889    -557.396E-03     551.622E-03     116.334E-03    -58.0518E-03    -58.2900E-03    -58.0741E-03     116.333E-03    -58.2668E-03     674.772E-06    -60.0242E+06    -67.4707E+06    -261.402E+06    -67.4733E+06    -261.399E+06    -60.0242E+06     667.090E+03         29.0852
             732     943.484E-06     31.3733E-03         3.51427    -974.388E-03        -1.49884    -138.988E-03         2.15442    -974.388E-03        -1.82946     116.506E-03    -58.0773E-03    -58.4321E-03    -58.3061E-03     116.505E-03    -58.2021E-03     808.817E-06    -68.8618E+06    -71.2333E+06    -267.398E+06    -70.8178E+06    -267.390E+06    -69.2850E+06     735.806E+03         28.9979
             733     16.0540E-03     30.8682E-03         2.37589    -619.686E-03    -711.837E-03    -711.748E-03         2.37580    -619.686E-03     14.5795E-03     139.516E-03    -58.1326E-03    -81.4031E-03    -56.4646E-03     114.578E-03    -58.1326E-03     130.397E-03     144.775E+06     124.283E+06    -7.42695E+06    -7.35973E+06     144.707E+06     124.283E+06     513.435E+03         54.8876
             734     15.1052E-03     30.6464E-03         2.36635    -614.616E-03    -705.176E-03    -705.060E-03         2.36624    -614.616E-03     17.9847E-03     146.911E-03    -58.1026E-03    -88.8410E-03    -57.0099E-03     115.080E-03    -58.1026E-03     159.091E-03     135.704E+06     100.005E+06    -16.2604E+06    -16.0979E+06     135.541E+06     100.005E+06     326.584E+03         51.9339
             735     14.1617E-03     30.5096E-03         2.35440    -609.205E-03    -697.868E-03    -697.698E-03         2.35423    -609.205E-03     14.2980E-03     127.855E-03    -57.9737E-03    -69.9600E-03    -56.7138E-03     114.609E-03    -57.9737E-03     95.6744E-03     127.726E+06     59.3448E+06    -21.0798E+06    -20.9629E+06     127.609E+06     59.3448E+06    -97.7696E+03         48.0707
             736     13.2159E-03     30.4356E-03         2.33618    -603.660E-03    -681.356E-03    -681.250E-03         2.33607    -603.660E-03    -10.8183E-03     118.712E-03    -57.8063E-03    -60.9459E-03    -56.2348E-03     114.000E-03    -57.8063E-03     56.6568E-03     116.419E+06     18.9193E+06    -24.2192E+06    -24.1963E+06     116.396E+06     18.9193E+06    -243.264E+03         43.9260
             737     12.2721E-03     30.3870E-03         2.30908    -598.651E-03    -660.031E-03    -659.863E-03         2.30892    -598.651E-03     11.8588E-03     116.683E-03    -57.7712E-03    -58.9209E-03    -56.5566E-03     114.323E-03    -57.7757E-03     39.8214E-03     64.5018E+06    -6.79020E+06    -26.9177E+06    -26.8736E+06     64.4577E+06    -6.79020E+06     173.793E+03         40.1840
             738     11.3272E-03     30.3500E-03         2.28574    -594.514E-03    -640.152E-03    -639.953E-03         2.28554    -594.514E-03     31.6457E-03     115.985E-03    -57.8074E-03    -58.2207E-03    -56.9756E-03     114.833E-03    -57.9003E-03     27.8014E-03     7.53799E+06    -22.6502E+06    -39.6123E+06    -29.2194E+06    -15.5797E+06    -9.92536E+06     453.172E+03         37.1039
             739     10.3825E-03     30.3260E-03         2.26586    -591.163E-03    -625.997E-03    -625.558E-03         2.26542    -591.163E-03    -24.6040E-03     115.967E-03    -57.8840E-03    -58.0906E-03    -57.2874E-03     115.292E-03    -58.0128E-03     21.5764E-03    -4.43867E+06    -31.7964E+06    -73.5976E+06    -31.8217E+06    -73.5723E+06    -4.43867E+06     231.625E+03         34.7184
             740     9.43912E-03     30.3040E-03         2.25128    -588.282E-03    -617.551E-03    -616.351E-03         2.25008    -588.282E-03     23.6863E-03     115.933E-03    -57.8433E-03    -58.0894E-03    -57.4051E-03     115.495E-03    -58.0894E-03     17.1460E-03    -3.61201E+06    -34.6786E+06    -112.075E+06    -34.6909E+06    -112.062E+06    -3.61201E+06     35.1041E+03         33.0542
             741     8.49449E-03     30.2897E-03         2.25038    -585.168E-03    -618.357E-03    -616.702E-03         2.24872    -585.168E-03     514.269E-06     115.896E-03    -57.7864E-03    -58.1495E-03    -57.5614E-03     115.671E-03    -58.1495E-03     12.3744E-03    -4.59650E+06    -37.7241E+06    -142.440E+06    -37.7279E+06    -142.436E+06    -4.59650E+06    -32.7260E+03         31.9800
             742     7.55032E-03     30.2782E-03         2.25587    -580.635E-03    -627.429E-03    -625.271E-03         2.25371    -580.635E-03     19.8406E-03     115.979E-03    -57.8285E-03    -58.1952E-03    -57.6905E-03     115.841E-03    -58.1952E-03     9.73740E-03    -9.52153E+06    -41.5280E+06    -168.416E+06    -41.5304E+06    -168.414E+06    -9.52153E+06     6.49026E+03         31.2105
             743     6.60660E-03     30.2692E-03         2.24815    -574.642E-03    -622.903E-03    -619.619E-03         2.24486    -574.642E-03    -16.2496E-03     116.055E-03    -57.8584E-03    -58.2314E-03    -57.7770E-03     115.974E-03    -58.2314E-03     7.37933E-03    -16.2267E+06    -46.1247E+06    -193.442E+06    -46.1373E+06    -193.430E+06    -16.2267E+06    -53.2048E+03         30.5954
             744     5.66297E-03     30.2625E-03         2.22698    -568.927E-03    -604.913E-03    -599.173E-03         2.22124    -568.927E-03     38.0977E-03     116.140E-03    -57.9075E-03    -58.2591E-03    -57.8678E-03     116.100E-03    -58.2591E-03     5.17804E-03    -23.2835E+06    -50.5171E+06    -215.661E+06    -50.5361E+06    -215.642E+06    -23.2835E+06    -508.993E+03         30.1157
             745     4.71863E-03     30.2576E-03         2.20389    -565.781E-03    -584.847E-03    -572.218E-03         2.19126    -565.781E-03    -77.8524E-03     116.149E-03    -57.8798E-03    -58.2917E-03    -57.8586E-03     116.128E-03    -58.2917E-03     3.80307E-03    -31.9465E+06    -54.2650E+06    -236.072E+06    -54.2741E+06    -236.063E+06    -31.9465E+06    -641.771E+03         29.7429
             746     3.77460E-03     30.2542E-03         2.21977    -564.506E-03    -605.639E-03    -569.671E-03         2.18380    -564.506E-03     171.820E-03     116.321E-03    -58.0319E-03    -58.3102E-03    -58.0223E-03     116.312E-03    -58.3102E-03     2.46097E-03    -41.5879E+06    -58.8922E+06    -251.839E+06    -58.8974E+06    -251.834E+06    -41.5879E+06    -831.623E+03         29.4545
             747     2.83095E-03     30.2532E-03         2.30530    -558.645E-03    -698.678E-03    -589.993E-03         2.19662    -558.645E-03    -302.635E-03     116.545E-03    -58.2386E-03    -58.3204E-03    -58.2631E-03     116.542E-03    -58.2931E-03     1.36379E-03    -50.3001E+06    -63.4921E+06    -258.234E+06    -63.5019E+06    -258.224E+06    -50.3001E+06    -885.318E+03         29.2379
             748     1.88757E-03     30.2518E-03         2.53230    -537.232E-03    -943.923E-03    -602.022E-03         2.19040    -537.232E-03     617.593E-03     116.530E-03    -58.1897E-03    -58.3473E-03    -58.3462E-03     116.529E-03    -58.1897E-03     804.774E-06    -58.7428E+06    -67.0691E+06    -261.807E+06    -67.0760E+06    -261.800E+06    -58.7428E+06     110.747E+03         29.0862
             749     944.169E-06     30.2517E-03         3.62938    -925.153E-03        -1.66217    -116.501E-03         2.08371    -925.153E-03        -1.96704     116.173E-03    -57.8971E-03    -58.2788E-03    -58.2776E-03     116.171E-03    -57.8971E-03     715.167E-06    -66.0830E+06    -69.7251E+06    -266.178E+06    -69.3333E+06    -266.168E+06    -66.4844E+06     1.24195E+06         28.9944
             750     16.0532E-03     29.7475E-03         2.39626    -622.591E-03    -715.334E-03    -715.100E-03         2.39602    -622.591E-03    -10.7500E-03     140.301E-03    -58.1119E-03    -82.2368E-03    -57.1743E-03     115.239E-03    -58.1119E-03     131.209E-03     145.472E+06     124.039E+06    -8.72074E+06    -8.65409E+06     145.406E+06     124.039E+06     1.26805E+06         54.8682
             751     15.1085E-03     29.5266E-03         2.38403    -617.347E-03    -709.196E-03    -708.945E-03         2.38377    -617.347E-03    -9.03700E-03     147.273E-03    -58.0663E-03    -89.2609E-03    -57.0802E-03     115.092E-03    -58.0663E-03     160.328E-03     137.532E+06     100.028E+06    -16.2321E+06    -16.1337E+06     137.433E+06     100.028E+06    -403.592E+03         51.9188
             752     14.1614E-03     29.3856E-03         2.36425    -612.059E-03    -694.856E-03    -694.671E-03         2.36406    -612.059E-03     1.62211E-03     127.260E-03    -57.9614E-03    -69.3678E-03    -55.9323E-03     113.824E-03    -57.9614E-03     95.8538E-03     126.572E+06     57.5361E+06    -22.3362E+06    -22.2552E+06     126.491E+06     57.5361E+06    -1.50244E+06         48.0569
             753     13.2169E-03     29.3151E-03         2.33627    -607.277E-03    -671.771E-03    -671.622E-03         2.33613    -607.277E-03    -12.8541E-03     118.656E-03    -57.8279E-03    -60.8691E-03    -56.1248E-03     113.912E-03    -57.8279E-03     56.8578E-03     116.262E+06     17.9153E+06    -25.7346E+06     -25.695E+06     116.223E+06     17.9153E+06    -442.069E+03         43.9119
             754     12.2712E-03     29.2628E-03         2.32036    -603.120E-03    -657.765E-03    -657.626E-03         2.32022    -603.120E-03     20.9233E-03     117.089E-03    -57.7915E-03    -59.3184E-03    -56.9542E-03     114.725E-03    -57.7915E-03     39.8254E-03     64.6654E+06    -6.71320E+06    -27.9063E+06    -27.8620E+06     64.6212E+06    -6.71320E+06     361.723E+03         40.1718
             755     11.3277E-03     29.2291E-03         2.30579    -599.339E-03    -644.323E-03    -644.181E-03         2.30565    -599.339E-03     18.5158E-03     116.084E-03    -57.7625E-03    -58.3693E-03    -57.1065E-03     114.951E-03    -57.8933E-03     27.6584E-03     7.41416E+06    -22.0193E+06    -39.8688E+06    -29.2675E+06    -15.8262E+06    -9.38017E+06     603.812E+03         37.0947
             756     10.3832E-03     29.2031E-03         2.29154    -595.757E-03    -636.502E-03    -636.042E-03         2.29108    -595.757E-03    -48.6521E-03     115.787E-03    -57.7917E-03    -58.0097E-03    -57.1121E-03     115.107E-03    -58.0097E-03     21.6138E-03    -3.43382E+06    -30.7473E+06    -73.0324E+06    -30.7811E+06    -72.9987E+06    -3.43382E+06     433.345E+03         34.7125
             757     9.43823E-03     29.1823E-03         2.28693    -591.570E-03    -640.949E-03    -640.001E-03         2.28599    -591.570E-03     4.98536E-03     115.920E-03    -57.8327E-03    -58.0984E-03    -57.4053E-03     115.492E-03    -58.0984E-03     16.9256E-03    -2.61323E+06    -33.7120E+06    -111.727E+06    -33.7215E+06    -111.718E+06    -2.61323E+06     126.336E+03         33.0516
             758     8.49455E-03     29.1672E-03         2.27185    -586.830E-03    -630.299E-03    -629.205E-03         2.27076    -586.830E-03    -2.67571E-03     115.914E-03    -57.8117E-03    -58.1562E-03    -57.5902E-03     115.692E-03    -58.1562E-03     12.2864E-03    -4.65263E+06    -37.9090E+06    -142.608E+06    -37.9128E+06    -142.604E+06    -4.65263E+06    -80.1190E+03         31.9794
             759     7.55083E-03     29.1561E-03         2.25212    -582.700E-03    -613.511E-03    -611.544E-03         2.25015    -582.700E-03     31.5010E-03     116.002E-03    -57.8618E-03    -58.1948E-03    -57.7269E-03     115.867E-03    -58.1948E-03     9.61001E-03    -9.55979E+06    -41.8959E+06    -168.528E+06    -41.8980E+06    -168.526E+06    -9.55979E+06    -83.2842E+03         31.2112
             760     6.60655E-03     29.1467E-03         2.23625    -575.843E-03    -601.712E-03    -594.435E-03         2.23303    -579.899E-03    -11.5131E-03     116.069E-03    -57.8903E-03    -58.2213E-03    -57.8063E-03     115.985E-03    -58.2213E-03     7.58621E-03    -16.2539E+06    -45.5231E+06    -193.339E+06    -45.5298E+06    -193.332E+06    -16.2539E+06     194.079E+03         30.5958
             761     5.66264E-03     29.1400E-03         2.23165    -573.513E-03    -596.154E-03    -584.188E-03         2.22461    -578.440E-03     70.9701E-03     116.198E-03    -57.9819E-03    -58.2451E-03    -57.9413E-03     116.153E-03    -58.2399E-03     5.52412E-03    -23.4495E+06    -49.6815E+06    -215.283E+06    -49.6947E+06    -215.270E+06    -23.4495E+06    -403.811E+03         30.1144
             762     4.71911E-03     29.1359E-03         2.23533    -576.244E-03    -600.807E-03    -586.228E-03         2.22163    -577.116E-03    -47.4361E-03     116.184E-03    -57.9359E-03    -58.2685E-03    -57.9213E-03     116.164E-03    -58.2633E-03     3.63846E-03    -31.2577E+06    -54.6473E+06    -236.426E+06    -54.6563E+06    -236.417E+06    -31.2577E+06    -897.247E+03         29.7410
             763     3.77468E-03     29.1323E-03         2.26118    -573.996E-03    -633.601E-03    -592.070E-03         2.21965    -573.996E-03     216.718E-03     116.145E-03    -57.8928E-03    -58.2757E-03    -57.8842E-03     116.136E-03    -58.2757E-03     2.36234E-03    -41.9953E+06    -58.8662E+06    -251.770E+06    -58.8699E+06    -251.767E+06    -41.9953E+06    -771.034E+03         29.4526
             764     2.83108E-03     29.1302E-03         2.33820    -567.371E-03    -716.423E-03    -593.723E-03         2.21550    -567.371E-03    -295.037E-03     116.458E-03    -58.1297E-03    -58.3467E-03    -58.1945E-03     116.455E-03    -58.2791E-03     1.29449E-03    -51.5004E+06    -62.0728E+06    -258.411E+06    -62.0844E+06    -258.399E+06    -51.5004E+06    -1.42953E+06         29.2362
             765     1.88735E-03     29.1300E-03         2.56535    -560.905E-03    -946.276E-03    -569.272E-03         2.18835    -560.905E-03     644.207E-03     116.559E-03    -58.1843E-03    -58.3818E-03    -58.3684E-03     116.558E-03    -58.1969E-03     680.981E-06    -58.2325E+06    -65.2894E+06    -263.144E+06    -65.3018E+06    -263.131E+06    -58.2325E+06    -1.19715E+06         29.0853
             766     944.028E-06     29.1287E-03         3.77296        -1.02932        -1.68889    -88.1173E-03         2.17219        -1.02932        -2.03576     116.181E-03    -57.8972E-03    -58.2856E-03    -58.2726E-03     116.181E-03    -57.9098E-03     450.122E-06    -64.3476E+06    -67.6876E+06    -265.235E+06    -67.2622E+06    -265.226E+06    -64.7822E+06    -378.440E+03         28.9943
             767     16.0509E-03     28.6204E-03         2.42178    -626.172E-03    -731.173E-03    -730.964E-03         2.42158    -626.172E-03    -8.87228E-03     139.939E-03    -58.1648E-03    -81.8089E-03    -56.9516E-03     115.082E-03    -58.1648E-03     131.217E-03     145.236E+06     126.321E+06    -7.30540E+06    -7.25116E+06     145.182E+06     126.321E+06     1.26421E+06         54.8436
             768     15.1075E-03     28.4054E-03         2.39537    -621.070E-03    -707.863E-03    -707.536E-03         2.39504    -621.070E-03     3.43404E-03     147.575E-03    -58.1032E-03    -89.5408E-03    -57.3150E-03     115.349E-03    -58.1032E-03     160.949E-03     140.343E+06     100.943E+06    -14.3734E+06    -14.3351E+06     140.305E+06     100.943E+06     714.847E+03         51.8963
             769     14.1616E-03     28.2653E-03         2.37225    -616.678E-03    -687.588E-03    -687.322E-03         2.37198    -616.678E-03     2.84284E-03     128.030E-03    -57.9592E-03    -70.1565E-03    -56.3261E-03     114.199E-03    -57.9592E-03     97.2130E-03     127.315E+06     54.5272E+06    -22.2282E+06    -22.2013E+06     127.288E+06     54.5272E+06    -573.772E+03         48.0375
             770     13.2150E-03     28.1923E-03         2.35311    -612.500E-03    -675.740E-03    -675.608E-03         2.35298    -612.500E-03    -30.5945E-03     118.778E-03    -57.8077E-03    -61.0138E-03    -56.3065E-03     114.071E-03    -57.8077E-03     56.7859E-03     114.451E+06     13.0213E+06    -27.3973E+06    -27.3508E+06     114.405E+06     13.0213E+06    -1.20147E+06         43.8953
             771     12.2719E-03     28.1400E-03         2.33442    -608.486E-03    -660.812E-03    -660.792E-03         2.33440    -608.486E-03    -4.24959E-03     116.977E-03    -57.7821E-03    -59.2235E-03    -56.8509E-03     114.605E-03    -57.7821E-03     39.7742E-03     63.3632E+06    -9.25778E+06    -28.7532E+06    -28.7191E+06     63.3290E+06    -9.25778E+06    -335.873E+03         40.1575
             772     11.3274E-03     28.1060E-03         2.32160    -604.742E-03    -650.246E-03    -650.224E-03         2.32158    -604.742E-03    -686.525E-06     116.116E-03    -57.8516E-03    -58.3107E-03    -57.1605E-03     115.008E-03    -57.8938E-03     27.4156E-03     6.42780E+06    -21.9872E+06    -39.4321E+06    -29.4241E+06    -15.9149E+06    -9.65251E+06     94.4149E+03         37.0830
             773     10.3828E-03     28.0818E-03         2.31819    -600.621E-03    -652.613E-03    -652.371E-03         2.31794    -600.621E-03    -40.1705E-03     115.951E-03    -57.8964E-03    -58.0500E-03    -57.2628E-03     115.265E-03    -57.9976E-03     21.7371E-03    -3.47222E+06    -30.9695E+06    -72.5023E+06    -31.0219E+06    -72.4500E+06    -3.47222E+06     344.199E+03         34.7047
             774     9.43915E-03     28.0590E-03         2.31044    -595.628E-03    -651.106E-03    -650.465E-03         2.30980    -595.628E-03     14.0184E-03     115.928E-03    -57.8448E-03    -58.0804E-03    -57.4240E-03     115.506E-03    -58.0791E-03     16.7780E-03    -2.40727E+06    -33.9538E+06    -111.578E+06    -33.9658E+06    -111.566E+06    -2.40727E+06     330.564E+03         33.0475
             775     8.49474E-03     28.0454E-03         2.28537    -590.780E-03    -631.165E-03    -630.041E-03         2.28424    -590.780E-03    -14.2941E-03     115.838E-03    -57.7477E-03    -58.1404E-03    -57.5325E-03     115.622E-03    -58.1404E-03     12.1434E-03    -4.59801E+06    -37.6113E+06    -142.647E+06    -37.6140E+06    -142.644E+06    -4.59801E+06     97.7771E+03         31.9773
             776     7.55030E-03     28.0330E-03         2.25718    -586.357E-03    -605.029E-03    -601.260E-03         2.25488    -587.821E-03     31.3911E-03     115.929E-03    -57.7941E-03    -58.1886E-03    -57.6587E-03     115.793E-03    -58.1886E-03     9.61105E-03    -9.30906E+06    -41.3210E+06    -168.903E+06    -41.3250E+06    -168.899E+06    -9.30906E+06    -135.006E+03         31.2099
             777     6.60673E-03     28.0252E-03         2.24293    -581.124E-03    -590.762E-03    -579.999E-03         2.23862    -587.579E-03    -28.2136E-03     116.056E-03    -57.8760E-03    -58.2215E-03    -57.7947E-03     115.975E-03    -58.2215E-03     7.46345E-03    -15.3771E+06    -44.7572E+06    -192.932E+06    -44.7613E+06    -192.928E+06    -15.3771E+06    -398.210E+03         30.5946
             778     5.66251E-03     28.0175E-03         2.24670    -582.882E-03    -595.170E-03    -581.791E-03         2.23918    -588.745E-03     42.0244E-03     116.200E-03    -57.9871E-03    -58.2427E-03    -57.9479E-03     116.156E-03    -58.2375E-03     5.44204E-03    -22.9702E+06    -49.3303E+06    -214.860E+06    -49.3314E+06    -214.859E+06    -22.9702E+06    -338.088E+03         30.1131
             779     4.71891E-03     28.0132E-03         2.26804    -587.453E-03    -617.166E-03    -598.585E-03         2.25033    -588.324E-03    -104.617E-03     116.350E-03    -58.0928E-03    -58.2766E-03    -58.1114E-03     116.331E-03    -58.2397E-03     3.47704E-03    -30.5332E+06    -54.1956E+06    -236.168E+06    -54.2006E+06    -236.163E+06    -30.5332E+06    -729.988E+03         29.7406
             780     3.77560E-03     28.0106E-03         2.29236    -585.562E-03    -648.704E-03    -599.604E-03         2.24326    -585.562E-03     187.887E-03     116.200E-03    -57.9741E-03    -58.2463E-03    -57.9980E-03     116.192E-03    -58.2145E-03     2.33166E-03    -39.9217E+06    -58.2951E+06    -251.601E+06    -58.3022E+06    -251.594E+06    -39.9217E+06    -1.01412E+06         29.4512
             781     2.83094E-03     28.0079E-03         2.34665    -586.487E-03    -703.447E-03    -570.576E-03         2.21378    -586.487E-03    -295.728E-03     116.148E-03    -57.9077E-03    -58.2614E-03    -57.9546E-03     116.145E-03    -58.2108E-03     1.46421E-03    -51.9972E+06    -62.6782E+06    -258.703E+06    -62.6851E+06    -258.696E+06    -51.9972E+06    -956.264E+03         29.2313
             782     1.88777E-03     28.0068E-03         2.60337    -601.151E-03    -941.750E-03    -553.224E-03         2.21485    -601.151E-03     649.375E-03     116.341E-03    -58.0735E-03    -58.2771E-03    -58.1364E-03     116.340E-03    -58.2135E-03     566.583E-06    -61.3647E+06    -66.2446E+06    -264.375E+06    -66.2584E+06    -264.361E+06    -61.3647E+06    -1.53123E+06         29.0806
             783     943.510E-06     28.0078E-03         3.88381        -1.10950        -1.71559    -116.813E-03         2.28503        -1.10950        -2.07459     116.371E-03    -58.1471E-03    -58.2258E-03    -58.2129E-03     116.371E-03    -58.1597E-03     50.3887E-06    -66.6159E+06    -68.5808E+06    -267.103E+06    -68.1595E+06    -267.089E+06    -67.0505E+06    -1.53031E+06         28.9948
             784     16.0530E-03     27.4985E-03         2.44027    -633.073E-03    -737.439E-03    -737.360E-03         2.44020    -633.073E-03     28.3105E-03     139.081E-03    -58.1717E-03    -80.9454E-03    -56.2982E-03     114.434E-03    -58.1717E-03     130.384E-03     144.450E+06     125.513E+06    -6.83054E+06    -6.78819E+06     144.408E+06     125.513E+06     714.626E+03         54.8165
             785     15.1041E-03     27.2842E-03         2.41908    -628.545E-03    -720.348E-03    -720.194E-03         2.41892    -628.545E-03     30.3769E-03     146.873E-03    -58.1192E-03    -88.8410E-03    -57.0740E-03     115.106E-03    -58.1192E-03     159.321E-03     140.652E+06     99.7457E+06    -13.8877E+06    -13.8246E+06     140.589E+06     99.7457E+06     1.26070E+06         51.8701
             786     14.1600E-03     27.1402E-03         2.39434    -624.392E-03    -700.835E-03    -700.681E-03         2.39418    -624.392E-03     24.2644E-03     128.331E-03    -57.9536E-03    -70.4919E-03    -56.9606E-03     114.800E-03    -57.9536E-03     96.1699E-03     129.241E+06     54.5718E+06    -20.3656E+06    -20.3380E+06     129.214E+06     54.5718E+06     1.31435E+06         48.0147
             787     13.2180E-03     27.0706E-03         2.38201    -619.993E-03    -692.134E-03    -692.114E-03         2.38199    -619.993E-03    -1.96964E-03     118.763E-03    -57.7799E-03    -61.0287E-03    -56.4351E-03     114.169E-03    -57.7799E-03     56.2942E-03     114.632E+06     12.3075E+06    -26.0760E+06    -26.0547E+06     114.610E+06     12.3075E+06    -171.455E+03         43.8762
             788     12.2713E-03     27.0172E-03         2.36155    -615.566E-03    -675.152E-03    -675.114E-03         2.36151    -615.566E-03     9.15645E-03     116.860E-03    -57.7569E-03    -59.1334E-03    -56.7448E-03     114.472E-03    -57.7569E-03     39.6687E-03     62.1603E+06    -9.87602E+06    -28.5695E+06    -28.4781E+06     62.0690E+06    -9.87602E+06    -1.16670E+06         40.1407
             789     11.3269E-03     26.9837E-03         2.34071    -611.743E-03    -655.620E-03    -655.554E-03         2.34064    -611.743E-03     24.7235E-03     116.010E-03    -57.8164E-03    -58.2385E-03    -57.1438E-03     114.975E-03    -57.8758E-03     26.4658E-03     5.74411E+06    -22.1191E+06    -39.5287E+06    -29.5781E+06    -16.7614E+06    -9.56429E+06    -686.662E+03         37.0692
             790     10.3834E-03     26.9587E-03         2.33918    -607.847E-03    -657.972E-03    -657.866E-03         2.33907    -607.847E-03    -9.53445E-03     115.877E-03    -57.8349E-03    -58.0298E-03    -57.2307E-03     115.220E-03    -57.9774E-03     21.2873E-03    -3.71245E+06    -31.2899E+06    -72.9784E+06    -31.3259E+06    -72.9424E+06    -3.71245E+06     75.2199E+03         34.6946
             791     9.43885E-03     26.9375E-03         2.33072    -603.049E-03    -657.339E-03    -656.888E-03         2.33027    -603.049E-03     26.5079E-03     115.869E-03    -57.8014E-03    -58.0605E-03    -57.3746E-03     115.441E-03    -58.0592E-03     16.9252E-03    -2.14689E+06    -33.7518E+06    -111.365E+06    -33.7667E+06    -111.350E+06    -2.14689E+06     277.536E+03         33.0409
             792     8.49491E-03     26.9225E-03         2.30560    -598.489E-03    -635.710E-03    -634.492E-03         2.30439    -598.489E-03    -22.8172E-03     115.849E-03    -57.7748E-03    -58.1217E-03    -57.5572E-03     115.631E-03    -58.1217E-03     12.1853E-03    -3.84093E+06    -36.8499E+06    -142.112E+06    -36.8531E+06    -142.109E+06    -3.84093E+06     208.157E+03         31.9732
             793     7.55099E-03     26.9119E-03         2.28203    -594.214E-03    -614.023E-03    -610.218E-03         2.27969    -595.678E-03     22.7003E-03     115.977E-03    -57.8621E-03    -58.1639E-03    -57.7312E-03     115.846E-03    -58.1639E-03     9.46669E-03    -8.69628E+06    -40.7602E+06    -168.438E+06    -40.7633E+06    -168.435E+06    -8.69628E+06    -148.335E+03         31.2074
             794     6.60648E-03     26.9021E-03         2.27269    -591.946E-03    -608.428E-03    -601.188E-03         2.26785    -594.345E-03    -45.8740E-03     116.083E-03    -57.9281E-03    -58.1858E-03    -57.8543E-03     116.009E-03    -58.1858E-03     7.04474E-03    -15.0004E+06    -45.4354E+06    -192.939E+06    -45.4384E+06    -192.936E+06    -15.0004E+06    -393.441E+03         30.5931
             795     5.66317E-03     26.8959E-03         2.26972    -592.357E-03    -609.451E-03    -600.442E-03         2.26165    -593.292E-03     26.1071E-03     116.013E-03    -57.8408E-03    -58.1972E-03    -57.8020E-03     115.975E-03    -58.1972E-03     5.13704E-03    -23.4984E+06    -50.1687E+06    -214.788E+06    -50.1692E+06    -214.788E+06    -23.4984E+06    -183.052E+03         30.1107
             796     4.71889E-03     26.8904E-03         2.26789    -592.753E-03    -610.429E-03    -592.330E-03         2.24979    -592.753E-03    -109.448E-03     116.151E-03    -57.9289E-03    -58.2421E-03    -57.9404E-03     116.131E-03    -58.2103E-03     3.65165E-03    -32.8908E+06    -54.7477E+06    -235.415E+06    -54.7536E+06    -235.409E+06    -32.8908E+06    -751.489E+03         29.7368
             797     3.77518E-03     26.8886E-03         2.28128    -594.457E-03    -627.563E-03    -581.291E-03         2.23501    -594.457E-03     160.440E-03     116.366E-03    -58.0844E-03    -58.3010E-03    -58.1927E-03     116.357E-03    -58.1843E-03     2.38840E-03    -41.3655E+06    -59.4979E+06    -252.258E+06    -59.5041E+06    -252.252E+06    -41.3655E+06    -879.162E+03         29.4473
             798     2.83208E-03     26.8866E-03         2.36688    -600.514E-03    -712.887E-03    -574.127E-03         2.22812    -600.514E-03    -363.825E-03     116.107E-03    -57.8906E-03    -58.2350E-03    -57.9720E-03     116.104E-03    -58.1501E-03     1.46564E-03    -51.3232E+06    -63.8574E+06    -259.109E+06    -63.8594E+06    -259.107E+06    -51.3232E+06    -527.489E+03         29.2266
             799     1.88687E-03     26.8849E-03         2.65394    -609.735E-03    -988.318E-03    -590.463E-03         2.25608    -609.735E-03     626.598E-03     116.071E-03    -57.8869E-03    -58.1946E-03    -57.8991E-03     116.071E-03    -58.1816E-03     623.244E-06    -61.8342E+06    -67.7644E+06    -264.673E+06    -67.7734E+06    -264.664E+06    -61.8342E+06    -660.547E+03         29.0753
             800     943.921E-06     26.8849E-03         3.89310        -1.09206        -1.73330    -136.434E-03         2.29623        -1.09206        -2.03266     116.397E-03    -57.9278E-03    -58.4718E-03    -58.3894E-03     116.397E-03    -58.0098E-03    -172.407E-06    -68.9987E+06    -71.1297E+06    -269.301E+06    -70.8120E+06    -269.289E+06    -69.3277E+06    -859.090E+03         28.9917
             801     16.0516E-03     26.3775E-03         2.44840    -641.961E-03    -726.965E-03    -726.863E-03         2.44830    -641.961E-03     9.39447E-03     139.206E-03    -58.1398E-03    -81.0901E-03    -56.5361E-03     114.652E-03    -58.1398E-03     129.433E-03     144.063E+06     124.380E+06    -7.39878E+06    -7.36414E+06     144.028E+06     124.380E+06    -16.9849E+03         54.7864
             802     15.1082E-03     26.1628E-03         2.43978    -638.039E-03    -724.738E-03    -724.673E-03         2.43972    -638.039E-03    -9.15090E-03     147.226E-03    -58.0786E-03    -89.2112E-03    -57.2892E-03     115.304E-03    -58.0786E-03     159.867E-03     139.614E+06     99.4940E+06    -15.3478E+06    -15.2975E+06     139.564E+06     99.4940E+06     870.014E+03         51.8432
             803     14.1627E-03     26.0172E-03         2.42301    -633.911E-03    -711.843E-03    -711.811E-03         2.42298    -633.911E-03    -4.34405E-03     127.924E-03    -57.9215E-03    -70.0943E-03    -56.6754E-03     114.505E-03    -57.9215E-03     95.5855E-03     129.387E+06     56.5530E+06    -20.5738E+06    -20.5414E+06     129.354E+06     56.5530E+06     1.55894E+06         47.9905
             804     13.2154E-03     25.9488E-03         2.40133    -629.784E-03    -693.038E-03    -692.985E-03         2.40128    -629.784E-03    -10.5720E-03     118.505E-03    -57.7568E-03    -60.7870E-03    -56.2161E-03     113.935E-03    -57.7568E-03     56.1240E-03     117.359E+06     15.2981E+06    -23.2322E+06    -23.2230E+06     117.350E+06     15.2981E+06     803.417E+03         43.8534
             805     12.2726E-03     25.8945E-03         2.38890    -625.697E-03    -686.070E-03    -686.004E-03         2.38883    -625.697E-03     4.34097E-03     117.040E-03    -57.7252E-03    -59.3331E-03    -56.9098E-03     114.616E-03    -57.7252E-03     39.9779E-03     62.7932E+06    -9.18350E+06    -25.9986E+06    -25.9158E+06     62.7105E+06    -9.18350E+06    -419.342E+03         40.1200
             806     11.3289E-03     25.8616E-03         2.37988    -621.251E-03    -680.724E-03    -680.648E-03         2.37981    -621.251E-03     29.3981E-03     115.896E-03    -57.7446E-03    -58.1953E-03    -57.0604E-03     114.856E-03    -57.8397E-03     26.5077E-03     5.17156E+06    -21.4891E+06    -39.2928E+06    -28.0466E+06    -17.7186E+06    -9.84526E+06    -569.141E+03         37.0519
             807     10.3835E-03     25.8377E-03         2.36252    -616.774E-03    -666.101E-03    -665.822E-03         2.36224    -616.774E-03    -18.8711E-03     115.739E-03    -57.7698E-03    -57.9621E-03    -57.1179E-03     115.073E-03    -57.9480E-03     21.4267E-03    -4.26856E+06    -30.3803E+06    -73.5687E+06    -30.4099E+06    -73.5391E+06    -4.26856E+06     13.4228E+03         34.6820
             808     9.43912E-03     25.8148E-03         2.34320    -612.708E-03    -653.341E-03    -652.845E-03         2.34270    -612.708E-03     5.13079E-03     115.876E-03    -57.8293E-03    -58.0465E-03    -57.4198E-03     115.452E-03    -58.0324E-03     16.7344E-03    -2.66750E+06    -33.7914E+06    -111.809E+06    -33.8034E+06    -111.798E+06    -2.66750E+06     236.021E+03         33.0330
             809     8.49497E-03     25.8006E-03         2.32809    -609.152E-03    -640.822E-03    -639.612E-03         2.32688    -609.152E-03    -35.9931E-03     115.849E-03    -57.8111E-03    -58.0882E-03    -57.6090E-03     115.647E-03    -58.0882E-03     11.7550E-03    -3.71877E+06    -37.2287E+06    -141.676E+06    -37.2329E+06    -141.672E+06    -3.71877E+06     327.320E+03         31.9670
             810     7.55088E-03     25.7892E-03         2.31610    -606.254E-03    -630.148E-03    -627.508E-03         2.31346    -606.254E-03     24.3142E-03     115.960E-03    -57.8861E-03    -58.1157E-03    -57.7556E-03     115.830E-03    -58.1157E-03     9.47428E-03    -9.13758E+06    -41.3549E+06    -167.727E+06    -41.3568E+06    -167.725E+06    -9.13758E+06     261.830E+03         31.2012
             811     6.60780E-03     25.7798E-03         2.30862    -603.639E-03    -627.057E-03    -623.048E-03         2.30461    -603.639E-03    -12.9780E-03     116.002E-03    -57.8996E-03    -58.1304E-03    -57.8238E-03     115.926E-03    -58.1304E-03     7.10815E-03    -16.0212E+06    -46.1655E+06    -193.363E+06    -46.1659E+06    -193.363E+06    -16.0212E+06    -42.0112E+03         30.5878
             812     5.66321E-03     25.7736E-03         2.29472    -601.778E-03    -615.807E-03    -608.401E-03         2.28731    -601.778E-03     58.9905E-03     115.925E-03    -57.8044E-03    -58.1437E-03    -57.7676E-03     115.888E-03    -58.1437E-03     5.00033E-03    -23.1794E+06    -50.1501E+06    -214.378E+06    -50.1505E+06    -214.378E+06    -23.1794E+06    -164.289E+03         30.1058
             813     4.71905E-03     25.7692E-03         2.28341    -602.148E-03    -609.576E-03    -593.521E-03         2.26735    -602.148E-03    -79.9088E-03     115.993E-03    -57.8561E-03    -58.1563E-03    -57.8377E-03     115.974E-03    -58.1563E-03     3.44216E-03    -33.4305E+06    -55.0125E+06    -235.088E+06    -55.0151E+06    -235.086E+06    -33.4305E+06    -166.269E+03         29.7297
             814     3.77508E-03     25.7656E-03         2.31282    -603.705E-03    -639.991E-03    -598.448E-03         2.27128    -603.705E-03     173.426E-03     116.130E-03    -57.9169E-03    -58.2346E-03    -57.9952E-03     116.124E-03    -58.1497E-03     2.02658E-03    -43.7954E+06    -60.4106E+06    -252.707E+06    -60.4184E+06    -252.700E+06    -43.7954E+06    -726.665E+03         29.4395
             815     2.83137E-03     25.7646E-03         2.42511    -599.748E-03    -754.803E-03    -627.504E-03         2.29781    -599.748E-03    -354.668E-03     116.196E-03    -57.9242E-03    -58.2899E-03    -58.0886E-03     116.193E-03    -58.1229E-03     1.28584E-03    -51.7138E+06    -64.2530E+06    -259.353E+06    -64.2609E+06    -259.345E+06    -51.7138E+06    -613.068E+03         29.2206
             816     1.88838E-03     25.7639E-03         2.65339    -586.108E-03    -995.231E-03    -622.142E-03         2.28030    -586.108E-03     589.801E-03     116.080E-03    -57.9193E-03    -58.1711E-03    -58.0028E-03     116.079E-03    -58.0866E-03     782.836E-06    -60.3161E+06    -68.0136E+06    -265.248E+06    -68.0191E+06    -265.243E+06    -60.3161E+06    -13.3997E+03         29.0687
             817     943.283E-06     25.7623E-03         3.81365        -1.06181        -1.67014    -92.0911E-03         2.23560        -1.06181        -2.02225     116.080E-03    -57.7324E-03    -58.3522E-03    -58.1420E-03     116.080E-03    -57.9423E-03     34.5079E-06    -68.7622E+06    -72.1079E+06    -269.819E+06    -71.7855E+06    -269.813E+06    -69.0912E+06    -540.423E+03         28.9825
             818     16.0543E-03     25.2601E-03         2.46706    -650.965E-03    -736.842E-03    -736.787E-03         2.46700    -650.965E-03    -3.99389E-03     140.109E-03    -58.1250E-03    -82.0081E-03    -56.9152E-03     115.016E-03    -58.1250E-03     129.526E-03     143.143E+06     123.886E+06    -7.32435E+06    -7.30091E+06      143.12E+06     123.886E+06     66.4863E+03         54.7497
             819     15.1060E-03     25.0368E-03         2.44660    -647.604E-03    -718.894E-03    -718.825E-03         2.44653    -647.604E-03    -10.0793E-03     148.287E-03    -58.0521E-03    -90.2994E-03    -57.5625E-03     115.550E-03    -58.0521E-03     162.077E-03     139.565E+06     100.692E+06    -14.4287E+06    -14.4029E+06     139.539E+06     100.692E+06     750.518E+03         51.8096
             820     14.1622E-03     24.8972E-03         2.43622    -644.471E-03    -711.838E-03    -711.791E-03         2.43618    -644.471E-03     976.278E-06     127.788E-03    -57.8914E-03    -69.9916E-03    -56.5953E-03     114.392E-03    -57.8914E-03     96.0166E-03     129.753E+06     57.2113E+06    -20.1817E+06    -20.1591E+06      129.73E+06     57.2113E+06     239.334E+03         47.9600
             821     13.2183E-03     24.8265E-03         2.42234    -640.938E-03    -701.684E-03    -701.635E-03         2.42229    -640.938E-03    -10.2213E-03     118.756E-03    -57.7166E-03    -61.0745E-03    -56.3244E-03     114.006E-03    -57.7166E-03     56.9901E-03     117.752E+06     13.7729E+06    -23.2618E+06    -23.2397E+06     117.730E+06     13.7729E+06     186.008E+03         43.8251
             822     12.2722E-03     24.7721E-03         2.41469    -637.000E-03    -697.776E-03    -697.700E-03         2.41461    -637.000E-03     7.57377E-03     116.807E-03    -57.6197E-03    -59.1910E-03    -56.7605E-03     114.446E-03    -57.6892E-03     39.6174E-03     62.9764E+06    -10.6589E+06    -25.0723E+06    -25.0383E+06     62.9423E+06    -10.6589E+06     1.09602E+06         40.0934
             823     11.3272E-03     24.7388E-03         2.40956    -632.399E-03    -695.867E-03    -695.800E-03         2.40949    -632.399E-03     27.7659E-03     115.797E-03    -57.7184E-03    -58.1173E-03    -56.9560E-03     114.741E-03    -57.8236E-03     26.6407E-03     4.86129E+06    -21.8121E+06    -37.9047E+06    -27.4189E+06    -17.4010E+06    -10.0355E+06     979.662E+03         37.0285
             824     10.3836E-03     24.7154E-03         2.38234    -628.042E-03    -672.352E-03    -672.112E-03         2.38210    -628.042E-03    -16.5761E-03     116.010E-03    -57.8854E-03    -58.1198E-03    -57.4289E-03     115.355E-03    -57.9211E-03     21.2838E-03    -5.04875E+06    -31.1685E+06    -73.3790E+06    -31.2471E+06    -73.3004E+06    -5.04875E+06     585.053E+03         34.6647
             825     9.43965E-03     24.6922E-03         2.35579    -625.055E-03    -650.841E-03    -649.931E-03         2.35488    -625.055E-03     30.9402E-03     115.917E-03    -57.8504E-03    -58.0636E-03    -57.5173E-03     115.503E-03    -57.9822E-03     16.5421E-03    -3.59906E+06    -34.3633E+06    -111.841E+06    -34.3753E+06    -111.829E+06    -3.59906E+06     612.337E+03         33.0212
             826     8.49596E-03     24.6788E-03         2.35096    -622.647E-03    -648.972E-03    -647.355E-03         2.34934    -622.647E-03    -15.1255E-03     115.726E-03    -57.7403E-03    -58.0286E-03    -57.5430E-03     115.529E-03    -58.0286E-03     11.6257E-03    -4.51725E+06    -37.5991E+06    -141.694E+06    -37.6066E+06    -141.687E+06    -4.51725E+06     539.760E+03         31.9557
             827     7.55167E-03     24.6672E-03         2.34866    -619.998E-03    -645.820E-03    -642.953E-03         2.34580    -619.998E-03     33.4814E-03     115.739E-03    -57.7137E-03    -58.0623E-03    -57.5834E-03     115.608E-03    -58.0623E-03     9.44775E-03    -9.75037E+06    -41.5600E+06    -167.724E+06    -41.5630E+06    -167.721E+06    -9.75037E+06     481.361E+03         31.1888
             828     6.60690E-03     24.6577E-03         2.33910    -617.900E-03    -633.298E-03    -628.955E-03         2.33475    -617.900E-03    -6.69374E-03     115.913E-03    -57.8181E-03    -58.1237E-03    -57.7812E-03     115.839E-03    -58.0861E-03     7.04412E-03    -16.2246E+06    -45.9356E+06    -192.586E+06    -45.9369E+06    -192.584E+06    -16.2246E+06     170.648E+03         30.5764
             829     5.66354E-03     24.6522E-03         2.32940    -617.036E-03    -625.931E-03    -619.055E-03         2.32253    -617.036E-03     47.1011E-03     116.087E-03    -57.9696E-03    -58.1448E-03    -58.0010E-03     116.053E-03    -58.0801E-03     4.71334E-03    -23.1854E+06    -50.9136E+06    -214.817E+06    -50.9143E+06    -214.817E+06    -23.1854E+06     39.8537E+03         30.0962
             830     4.72007E-03     24.6467E-03         2.33249    -616.230E-03    -638.163E-03    -623.256E-03         2.31758    -616.230E-03    -86.5869E-03     115.928E-03    -57.8628E-03    -58.0847E-03    -57.8756E-03     115.913E-03    -58.0576E-03     3.07133E-03    -32.5024E+06    -55.6994E+06    -234.781E+06    -55.7027E+06    -234.778E+06    -32.5024E+06     562.790E+03         29.7192
             831     3.77601E-03     24.6444E-03         2.35960    -613.347E-03    -671.692E-03    -631.075E-03         2.31899    -613.347E-03     178.556E-03     115.773E-03    -57.7491E-03    -58.0450E-03    -57.7441E-03     115.768E-03    -58.0450E-03     1.76799E-03    -44.0099E+06    -60.4895E+06    -251.667E+06    -60.4974E+06    -251.659E+06    -44.0099E+06     64.2214E+03         29.4269
             832     2.83139E-03     24.6424E-03         2.44051    -604.176E-03    -757.210E-03    -646.008E-03         2.32931    -604.176E-03    -288.890E-03     115.915E-03    -57.8051E-03    -58.1298E-03    -57.8856E-03     115.913E-03    -58.0477E-03     939.120E-06    -54.3965E+06    -65.0719E+06    -260.280E+06    -65.0870E+06    -260.265E+06    -54.3965E+06    -814.676E+03         29.2078
             833     1.88744E-03     24.6410E-03         2.63833    -585.194E-03    -963.476E-03    -633.305E-03         2.30816    -585.194E-03     583.009E-03     115.997E-03    -57.8922E-03    -58.1162E-03    -57.9756E-03     115.995E-03    -58.0317E-03     739.048E-06    -62.3720E+06    -68.7203E+06    -265.934E+06    -68.7329E+06    -265.921E+06    -62.3720E+06    -408.363E+03         29.0560
             834     944.711E-06     24.6417E-03         3.72223        -1.03533        -1.59374    -110.869E-03         2.23936        -1.03533        -1.95108     115.969E-03    -57.7293E-03    -58.2461E-03    -58.0849E-03     115.968E-03    -57.8899E-03     488.198E-06    -69.0267E+06    -72.3731E+06    -269.599E+06    -71.7866E+06    -269.596E+06    -69.6166E+06    -7.42641E+03         28.9683
             835     16.0511E-03     24.1418E-03         2.49823    -662.121E-03    -748.896E-03    -748.874E-03         2.49821    -662.121E-03     12.5670E-03     140.800E-03    -58.1832E-03    -82.6611E-03    -57.1632E-03     115.302E-03    -58.1832E-03     131.598E-03     143.063E+06     123.696E+06    -7.79039E+06    -7.75897E+06     143.032E+06     123.696E+06    -136.098E+03         54.7026
             836     15.1077E-03     23.9114E-03         2.47599    -659.331E-03    -729.136E-03    -729.102E-03         2.47596    -659.331E-03     7.80743E-03     148.924E-03    -58.0984E-03    -90.9369E-03    -58.1604E-03     116.148E-03    -58.0984E-03     162.635E-03     139.304E+06     101.579E+06    -13.2916E+06    -13.2446E+06     139.257E+06     101.579E+06     36.6850E+03         51.7670
             837     14.1619E-03     23.7776E-03         2.45595    -656.948E-03    -714.760E-03    -714.728E-03         2.45592    -656.948E-03     6.34732E-03     128.017E-03    -57.9010E-03    -70.2327E-03    -56.9254E-03     114.710E-03    -57.9010E-03     96.0456E-03     129.032E+06     55.7602E+06    -19.8246E+06    -19.7685E+06     128.975E+06     55.7602E+06    -98.4593E+03         47.9223
             838     13.2160E-03     23.7005E-03         2.45699    -653.721E-03    -718.358E-03    -718.348E-03         2.45698    -653.721E-03     1.40880E-03     119.223E-03    -57.6986E-03    -61.5555E-03    -56.7841E-03     114.451E-03    -57.6986E-03     57.0947E-03     116.481E+06     12.1387E+06    -25.1139E+06    -25.0781E+06     116.445E+06     12.1387E+06     890.968E+03         43.7894
             839     12.2737E-03     23.6514E-03         2.45443    -649.521E-03    -715.156E-03    -715.107E-03         2.45438    -649.521E-03     15.0807E-03     116.565E-03    -57.5961E-03    -58.9788E-03    -56.6507E-03     114.307E-03    -57.6655E-03     38.8084E-03     62.9355E+06    -10.9651E+06    -27.9858E+06    -27.9312E+06     62.8809E+06    -10.9651E+06     1.66745E+06         40.0588
             840     11.3282E-03     23.6164E-03         2.42250    -645.705E-03    -687.468E-03    -687.408E-03         2.42243    -645.705E-03     21.9809E-03     115.837E-03    -57.7199E-03    -58.1630E-03    -57.0329E-03     114.777E-03    -57.7894E-03     26.7176E-03     4.54222E+06    -23.3837E+06    -39.6318E+06    -29.7931E+06    -17.2285E+06    -11.4518E+06     1.84069E+06         36.9973
             841     10.3843E-03     23.5925E-03         2.39875    -643.284E-03    -666.377E-03    -666.280E-03         2.39865    -643.284E-03    -13.0312E-03     116.074E-03    -57.8742E-03    -58.1989E-03    -57.5633E-03     115.438E-03    -57.8742E-03     20.9434E-03    -5.12080E+06    -31.4257E+06    -72.5071E+06    -31.5244E+06    -72.4084E+06    -5.12080E+06     1.40613E+06         34.6406
             842     9.44039E-03     23.5708E-03         2.39442    -641.350E-03    -666.315E-03    -665.505E-03         2.39361    -641.350E-03     43.9934E-03     115.837E-03    -57.7456E-03    -58.0754E-03    -57.4996E-03     115.438E-03    -57.9231E-03     16.3331E-03    -4.13308E+06    -34.3681E+06    -111.332E+06    -34.3930E+06    -111.307E+06    -4.13308E+06     979.639E+03         33.0029
             843     8.49576E-03     23.5561E-03         2.39127    -638.900E-03    -667.070E-03    -665.639E-03         2.38984    -638.900E-03    -3.14755E-03     115.692E-03    -57.7335E-03    -57.9895E-03    -57.5570E-03     115.490E-03    -57.9643E-03     11.7146E-03    -5.51572E+06    -38.2210E+06    -141.779E+06    -38.2314E+06    -141.769E+06    -5.51572E+06     821.141E+03         31.9382
             844     7.55188E-03     23.5456E-03         2.38751    -635.966E-03    -664.199E-03    -661.919E-03         2.38523    -635.966E-03     31.9086E-03     115.827E-03    -57.7839E-03    -58.0815E-03    -57.7667E-03     115.711E-03    -57.9819E-03     8.88589E-03    -9.84919E+06    -42.2643E+06    -167.347E+06    -42.2702E+06    -167.341E+06    -9.84919E+06     601.688E+03         31.1703
             845     6.60803E-03     23.5359E-03         2.37704    -633.141E-03    -656.189E-03    -651.798E-03         2.37264    -633.141E-03    -30.9374E-03     115.788E-03    -57.7213E-03    -58.0944E-03    -57.7729E-03     115.728E-03    -57.9824E-03     6.33922E-03    -16.2203E+06    -46.3610E+06    -192.056E+06    -46.3627E+06    -192.054E+06    -16.2203E+06     306.052E+03         30.5564
             846     5.66422E-03     23.5286E-03         2.36666    -631.105E-03    -646.726E-03    -640.553E-03         2.36049    -631.105E-03     13.5240E-03     115.797E-03    -57.7805E-03    -58.0419E-03    -57.8179E-03     115.770E-03    -57.9771E-03     4.28742E-03    -23.1823E+06    -51.2233E+06    -215.126E+06    -51.2252E+06    -215.124E+06    -23.1823E+06     453.212E+03         30.0749
             847     4.72035E-03     23.5258E-03         2.37621    -628.560E-03    -658.883E-03    -646.592E-03         2.36391    -628.560E-03    -91.2587E-03     115.796E-03    -57.7798E-03    -58.0320E-03    -57.8453E-03     115.783E-03    -57.9537E-03     2.92256E-03    -32.2055E+06    -56.0969E+06    -234.870E+06    -56.1003E+06    -234.867E+06    -32.2055E+06     648.298E+03         29.6992
             848     3.77598E-03     23.5221E-03         2.39738    -624.195E-03    -681.636E-03    -644.916E-03         2.36066    -624.195E-03     177.238E-03     115.688E-03    -57.7457E-03    -57.9613E-03    -57.7920E-03     115.683E-03    -57.9101E-03     1.73082E-03    -42.6696E+06    -59.5141E+06    -250.249E+06    -59.5169E+06    -250.246E+06    -42.6696E+06     220.432E+03         29.4072
             849     2.83261E-03     23.5211E-03         2.43408    -623.103E-03    -717.518E-03    -614.265E-03         2.33083    -623.103E-03    -268.579E-03     115.559E-03    -57.6756E-03    -57.9022E-03    -57.6742E-03     115.558E-03    -57.9022E-03     847.452E-06    -53.7161E+06    -63.7752E+06    -260.307E+06    -63.7894E+06    -260.293E+06    -53.7161E+06    -248.270E+03         29.1861
             850     1.88800E-03     23.5199E-03         2.64207    -634.337E-03    -914.618E-03    -595.431E-03         2.32288    -634.337E-03     612.119E-03     115.684E-03    -57.7379E-03    -57.9568E-03    -57.7671E-03     115.683E-03    -57.9267E-03     434.590E-06    -62.4410E+06    -67.7532E+06    -266.736E+06    -67.7701E+06    -266.719E+06    -62.4410E+06    -231.540E+03         29.0332
             851     942.866E-06     23.5189E-03         3.72444        -1.12112        -1.49550    -166.496E-03         2.39543        -1.12112        -1.78218     115.823E-03    -57.6253E-03    -58.2026E-03    -58.1691E-03     115.822E-03    -57.6580E-03     117.661E-06    -67.4950E+06     -70.791E+06    -269.294E+06    -70.2051E+06    -269.290E+06    -68.0849E+06    -63.8826E+03         28.9450
             852     16.0484E-03     23.0087E-03         2.50666    -674.963E-03    -740.010E-03    -739.978E-03         2.50663    -674.963E-03    -1.18060E-03     139.971E-03    -58.2051E-03    -81.8256E-03    -57.0831E-03     115.229E-03    -58.2051E-03     130.869E-03     143.613E+06     123.796E+06    -6.89731E+06    -6.81998E+06     143.536E+06     123.796E+06    -789.020E+03         54.6469
             853     15.1057E-03     22.7934E-03         2.50700    -672.840E-03    -741.926E-03    -741.855E-03         2.50693    -672.840E-03    -12.9431E-03     148.025E-03    -58.0994E-03    -90.0271E-03    -58.2950E-03     116.293E-03    -58.0994E-03     160.025E-03     137.546E+06     99.1129E+06    -14.7932E+06    -14.7060E+06     137.459E+06     99.1129E+06    -925.188E+03         51.7173
             854     14.1607E-03     22.6507E-03         2.49873    -670.217E-03    -736.353E-03    -736.286E-03         2.49866    -670.217E-03    -15.5774E-03     128.250E-03    -57.8877E-03    -70.4548E-03    -57.2152E-03     115.010E-03    -57.8877E-03     95.4957E-03     127.573E+06     54.7791E+06    -20.9943E+06    -20.9442E+06     127.522E+06     54.7791E+06     864.506E+03         47.8782
             855     13.2196E-03     22.5798E-03         2.48648    -666.923E-03    -725.371E-03    -725.362E-03         2.48647    -666.923E-03    -2.90188E-03     118.789E-03    -57.6885E-03    -61.1367E-03    -56.5575E-03     114.210E-03    -57.6885E-03     56.0617E-03     115.765E+06     12.9701E+06    -25.7628E+06    -25.7094E+06     115.712E+06     12.9701E+06     2.39864E+06         43.7443
             856     12.2722E-03     22.5282E-03         2.46723    -663.765E-03    -708.085E-03    -708.069E-03         2.46721    -663.765E-03     958.934E-06     116.801E-03    -57.6437E-03    -59.1703E-03    -56.8546E-03     114.486E-03    -57.6437E-03     39.2596E-03     63.0143E+06    -10.7270E+06    -28.5793E+06    -28.5130E+06     62.9480E+06    -10.7270E+06     1.95231E+06         40.0115
             857     11.3291E-03     22.4956E-03         2.44267    -661.520E-03    -686.534E-03    -686.521E-03         2.44266    -661.520E-03     6.76923E-03     116.267E-03    -57.7334E-03    -58.5850E-03    -57.5152E-03     115.197E-03    -57.7334E-03     26.9139E-03     4.41915E+06    -23.2886E+06    -39.6352E+06    -29.8209E+06    -16.7286E+06    -11.9551E+06     1.63426E+06         36.9533
             858     10.3844E-03     22.4692E-03         2.43444    -659.921E-03    -680.874E-03    -680.789E-03         2.43436    -659.921E-03    -18.3876E-03     115.948E-03    -57.7978E-03    -58.1617E-03    -57.5575E-03     115.344E-03    -57.7978E-03     20.3387E-03    -5.61275E+06    -31.4703E+06    -72.5742E+06    -31.5727E+06    -72.4718E+06    -5.61275E+06     1.56029E+06         34.6055
             859     9.44063E-03     22.4494E-03         2.43707    -657.884E-03    -685.789E-03    -685.467E-03         2.43675    -657.884E-03     19.4996E-03     115.809E-03    -57.7452E-03    -58.0566E-03    -57.6202E-03     115.461E-03    -57.8339E-03     15.2306E-03    -3.77085E+06    -34.4296E+06    -110.514E+06    -34.4726E+06    -110.471E+06    -3.77085E+06     1.46058E+06         32.9762
             860     8.49675E-03     22.4342E-03         2.43006    -655.243E-03    -682.686E-03    -681.795E-03         2.42917    -655.243E-03    -25.1160E-03     115.713E-03    -57.7591E-03    -57.9843E-03    -57.7227E-03     115.540E-03    -57.8478E-03     10.8201E-03    -6.00414E+06    -38.7235E+06    -141.423E+06    -38.7502E+06    -141.396E+06    -6.00414E+06     1.13189E+06         31.9107
             861     7.55309E-03     22.4226E-03         2.41682    -652.704E-03    -674.158E-03    -672.363E-03         2.41503    -652.704E-03     20.0291E-03     115.737E-03    -57.8343E-03    -57.9388E-03    -57.8368E-03     115.638E-03    -57.8374E-03     8.20917E-03    -10.2955E+06    -42.9082E+06    -166.900E+06    -42.9213E+06    -166.887E+06    -10.2955E+06     900.412E+03         31.1378
             862     6.60976E-03     22.4147E-03         2.40968    -650.278E-03    -671.757E-03    -668.999E-03         2.40693    -650.278E-03    -15.5567E-03     115.547E-03    -57.6793E-03    -57.8952E-03    -57.7004E-03     115.494E-03    -57.8209E-03     5.95322E-03    -16.3940E+06    -47.2275E+06    -191.647E+06    -47.2364E+06    -191.638E+06    -16.3940E+06     636.457E+03         30.5205
             863     5.66488E-03     22.4080E-03         2.40882    -647.277E-03    -673.933E-03    -668.626E-03         2.40351    -647.277E-03     51.1016E-03     115.330E-03    -57.5350E-03    -57.8165E-03    -57.5117E-03     115.306E-03    -57.8165E-03     3.89867E-03    -24.0187E+06    -51.5516E+06    -215.260E+06    -51.5538E+06    -215.258E+06    -24.0187E+06     111.577E+03         30.0379
             864     4.72041E-03     22.4041E-03         2.40833    -643.776E-03    -672.227E-03    -661.810E-03         2.39792    -643.776E-03    -49.8429E-03     115.457E-03    -57.6121E-03    -57.8581E-03    -57.6541E-03     115.448E-03    -57.8069E-03     2.41566E-03    -32.6545E+06    -55.2753E+06    -234.449E+06    -55.2774E+06    -234.447E+06    -32.6545E+06    -138.476E+03         29.6643
             865     3.77728E-03     22.4011E-03         2.40923    -642.425E-03    -669.525E-03    -639.200E-03         2.37891    -642.425E-03     178.094E-03     115.457E-03    -57.6540E-03    -57.8209E-03    -57.7021E-03     115.454E-03    -57.7697E-03     1.36225E-03    -42.7911E+06    -59.7007E+06    -249.953E+06    -59.7043E+06    -249.950E+06    -42.7911E+06     43.5608E+03         29.3748
             866     2.83221E-03     22.4003E-03         2.46301    -647.398E-03    -711.407E-03    -620.164E-03         2.37177    -647.398E-03    -271.897E-03     115.437E-03    -57.6096E-03    -57.8448E-03    -57.7305E-03     115.436E-03    -57.7228E-03     758.024E-06    -52.1576E+06    -64.2517E+06    -260.189E+06    -64.2597E+06    -260.180E+06    -52.1576E+06     751.541E+03         29.1539
             867     1.88834E-03     22.3987E-03         2.65580    -664.804E-03    -884.564E-03    -613.461E-03         2.38470    -664.804E-03     521.356E-03     115.367E-03    -57.5797E-03    -57.7977E-03    -57.7479E-03     115.366E-03    -57.6290E-03     171.597E-06    -61.9287E+06    -68.7224E+06    -266.318E+06    -68.7322E+06    -266.308E+06    -61.9287E+06     617.511E+03         28.9986
             868     945.518E-06     22.3979E-03         3.63138        -1.14140        -1.38155    -213.959E-03         2.46378        -1.14140        -1.70320     115.079E-03    -57.3595E-03    -57.7231E-03    -57.5662E-03     115.078E-03    -57.5157E-03    -66.2467E-06    -68.5610E+06    -72.7112E+06    -270.102E+06    -71.3104E+06    -270.096E+06    -69.9675E+06    -231.104E+03         28.9078
             869     16.0552E-03     21.8895E-03         2.52728    -687.846E-03    -743.754E-03    -743.723E-03         2.52725    -687.846E-03    -2.13246E-03     140.098E-03    -58.0929E-03    -82.1209E-03    -57.4797E-03     115.457E-03    -58.0929E-03     128.841E-03     144.426E+06     123.460E+06    -7.22741E+06    -7.15005E+06     144.348E+06     123.460E+06    -545.247E+03         54.5828
             870     15.1072E-03     21.6699E-03         2.52717    -686.440E-03    -740.685E-03    -740.628E-03         2.52711    -686.440E-03    -14.0997E-03     147.221E-03    -57.9881E-03    -89.3575E-03    -57.5699E-03     115.434E-03    -57.9881E-03     159.217E-03     136.170E+06     96.9623E+06    -16.8149E+06    -16.7394E+06     136.095E+06     96.9623E+06    -334.086E+03         51.6593
             871     14.1645E-03     21.5273E-03         2.53306    -684.507E-03    -745.798E-03    -745.689E-03         2.53295    -684.507E-03     1.52731E-03     127.295E-03    -57.8111E-03    -69.5814E-03    -56.6556E-03     114.369E-03    -57.8111E-03     94.1400E-03     125.436E+06     52.5494E+06    -23.2323E+06    -23.2109E+06     125.415E+06     52.5494E+06     972.672E+03         47.8233
             872     13.2162E-03     21.4587E-03         2.51240    -682.103E-03    -725.505E-03    -725.450E-03         2.51234    -682.103E-03     12.9622E-03     118.357E-03    -57.6397E-03    -60.7665E-03    -56.2231E-03     113.814E-03    -57.6397E-03     55.7210E-03     115.253E+06     12.4189E+06    -25.9819E+06    -25.9410E+06     115.212E+06     12.4189E+06     2.04068E+06         43.6854
             873     12.2731E-03     21.4064E-03         2.47820    -680.781E-03    -696.824E-03    -696.714E-03         2.47809    -680.781E-03     14.9125E-03     117.284E-03    -57.5803E-03    -59.7183E-03    -57.4825E-03     115.048E-03    -57.5803E-03     38.3764E-03     63.9650E+06    -9.89748E+06    -27.4764E+06    -27.4035E+06     63.8921E+06    -9.89748E+06     2.03173E+06         39.9482
             874     11.3295E-03     21.3711E-03         2.47995    -679.889E-03    -701.751E-03    -701.549E-03         2.47975    -679.889E-03     37.6133E-03     116.259E-03    -57.6313E-03    -58.6763E-03    -57.7451E-03     115.328E-03    -57.6313E-03     25.1465E-03     5.39349E+06    -22.5120E+06    -39.0751E+06    -29.2915E+06    -15.8128E+06    -11.0894E+06     1.68530E+06         36.8909
             875     10.3867E-03     21.3476E-03         2.49118    -677.751E-03    -715.091E-03    -714.976E-03         2.49107    -677.751E-03     8.58822E-03     115.897E-03    -57.6724E-03    -58.2416E-03    -57.6953E-03     115.350E-03    -57.6724E-03     19.3796E-03    -6.30020E+06    -32.0049E+06    -72.9241E+06    -32.1160E+06    -72.8130E+06    -6.30020E+06     1.67415E+06         34.5494
             876     9.44240E-03     21.3263E-03         2.47625    -674.878E-03    -705.670E-03    -705.385E-03         2.47597    -674.878E-03     30.2325E-03     115.828E-03    -57.6746E-03    -58.1612E-03    -57.8485E-03     115.516E-03    -57.6746E-03     14.4197E-03    -4.41306E+06    -35.0687E+06    -110.132E+06    -35.1282E+06    -110.073E+06    -4.41306E+06     1.89476E+06         32.9274
             877     8.49907E-03     21.3125E-03         2.45949    -672.613E-03    -691.252E-03    -690.524E-03         2.45876    -672.613E-03    -11.9090E-03     115.528E-03    -57.6509E-03    -57.9083E-03    -57.7623E-03     115.382E-03    -57.6509E-03     9.95847E-03    -6.11335E+06    -38.0794E+06    -140.380E+06    -38.1213E+06    -140.338E+06    -6.11335E+06     1.70667E+06         31.8599
             878     7.55464E-03     21.3012E-03         2.45212    -670.596E-03    -679.294E-03    -676.792E-03         2.45051    -671.484E-03     31.8225E-03     115.210E-03    -57.5783E-03    -57.6648E-03    -57.5258E-03     115.124E-03    -57.6312E-03     7.64756E-03    -11.2765E+06    -41.8253E+06    -166.805E+06    -41.8503E+06    -166.780E+06    -11.2765E+06     1.46886E+06         31.0800
             879     6.60993E-03     21.2928E-03         2.45919    -669.975E-03    -680.150E-03    -677.169E-03         2.45709    -670.863E-03     9.09470E-03     115.192E-03    -57.5439E-03    -57.6773E-03    -57.5586E-03     115.149E-03    -57.6189E-03     5.23729E-03    -17.0950E+06    -46.7459E+06    -191.219E+06    -46.7636E+06    -191.201E+06    -17.0950E+06     1.30271E+06         30.4621
             880     5.66651E-03     21.2874E-03         2.47066    -668.897E-03    -692.352E-03    -688.560E-03         2.46687    -668.897E-03     54.1713E-03     115.136E-03    -57.4956E-03    -57.6636E-03    -57.5627E-03     115.120E-03    -57.5806E-03     3.23613E-03    -25.8972E+06    -52.4280E+06    -214.386E+06    -52.4356E+06    -214.378E+06    -25.8972E+06     305.502E+03         29.9827
             881     4.72235E-03     21.2820E-03         2.45465    -666.147E-03    -686.378E-03    -678.167E-03         2.44644    -666.147E-03    -52.3050E-03     114.913E-03    -57.3585E-03    -57.5711E-03    -57.3768E-03     114.907E-03    -57.5464E-03     1.75784E-03    -36.0038E+06    -57.5700E+06    -234.696E+06    -57.5723E+06    -234.693E+06    -36.0038E+06    -94.8009E+03         29.6103
             882     3.77685E-03     21.2801E-03         2.44756    -665.968E-03    -682.402E-03    -658.266E-03         2.42343    -665.968E-03     157.308E-03     114.954E-03    -57.3753E-03    -57.5945E-03    -57.4526E-03     114.953E-03    -57.5160E-03     618.835E-06    -45.2646E+06    -62.4793E+06    -250.237E+06    -62.4839E+06    -250.233E+06    -45.2646E+06     607.765E+03         29.3218
             883     2.83349E-03     21.2788E-03         2.52119    -664.299E-03    -752.103E-03    -680.248E-03         2.44933    -664.299E-03    -249.186E-03     115.028E-03    -57.3996E-03    -57.6470E-03    -57.5999E-03     115.027E-03    -57.4464E-03     227.776E-06    -53.5307E+06    -67.0835E+06    -260.403E+06    -67.0874E+06    -260.399E+06    -53.5307E+06     765.012E+03         29.1025
             884     1.88974E-03     21.2773E-03         2.66419    -652.120E-03    -902.599E-03    -690.225E-03         2.45181    -652.120E-03     454.328E-03     114.669E-03    -57.1806E-03    -57.5022E-03    -57.3192E-03     114.669E-03    -57.3636E-03    -32.9375E-06    -62.4745E+06    -70.3602E+06    -265.503E+06    -70.3637E+06    -265.500E+06    -62.4745E+06     666.868E+03         28.9479
             885     943.662E-06     21.2788E-03         3.40047        -1.03566        -1.26551    -249.462E-03         2.38442        -1.03566        -1.53748     114.613E-03    -56.9595E-03    -57.6574E-03    -57.3485E-03     114.613E-03    -57.2676E-03     516.811E-06    -70.3681E+06    -74.1857E+06    -268.744E+06    -72.7995E+06    -268.724E+06    -71.7746E+06     1.16797E+06         28.8587
             886     16.0553E-03     20.7765E-03         2.57162    -702.620E-03    -762.859E-03    -762.759E-03         2.57152    -702.620E-03     31.4769E-03     141.484E-03    -58.0354E-03    -83.5480E-03    -58.4912E-03     116.428E-03    -58.0354E-03     129.442E-03     144.345E+06     123.795E+06    -9.07263E+06    -9.03699E+06     144.310E+06     123.795E+06     20.2178E+03         54.4978
             887     15.1099E-03     20.5426E-03         2.55721    -701.738E-03    -751.675E-03    -751.623E-03         2.55716    -701.738E-03     17.8536E-03     148.199E-03    -57.9274E-03    -90.4007E-03    -57.6505E-03     115.449E-03    -57.9274E-03     162.110E-03     135.857E+06     99.5468E+06    -16.2766E+06    -16.2195E+06     135.800E+06     99.5468E+06     916.493E+03         51.5817
             888     14.1637E-03     20.4094E-03         2.53699    -699.865E-03    -734.189E-03    -732.583E-03         2.53689    -701.367E-03     29.2315E-03     127.299E-03    -57.7551E-03    -69.6474E-03    -56.5677E-03     114.219E-03    -57.7551E-03     94.4988E-03     124.722E+06     53.9285E+06    -22.3818E+06    -22.3456E+06     124.686E+06     53.9285E+06     986.086E+03         47.7500
             889     13.2193E-03     20.3359E-03         2.52458    -699.535E-03    -722.388E-03    -720.788E-03         2.52448    -701.038E-03     18.9211E-03     119.149E-03    -57.5287E-03    -61.6663E-03    -57.2120E-03     114.695E-03    -57.5287E-03     55.2855E-03     114.909E+06     11.9626E+06    -26.4069E+06    -26.3924E+06     114.894E+06     11.9626E+06     1.10563E+06         43.6090
             890     12.2761E-03     20.2809E-03         2.52353    -700.475E-03    -722.109E-03    -721.990E-03         2.52341    -700.475E-03     16.8846E-03     117.128E-03    -57.4155E-03    -59.7403E-03    -57.6879E-03     115.075E-03    -57.4155E-03     36.8362E-03     64.1298E+06    -10.3642E+06    -28.0059E+06    -27.9499E+06     64.0739E+06    -10.3642E+06     1.68364E+06         39.8657
             891     11.3328E-03     20.2503E-03         2.52635    -699.177E-03    -726.100E-03    -725.891E-03         2.52614    -699.177E-03     43.2740E-03     115.902E-03    -57.4435E-03    -58.5135E-03    -57.6616E-03     115.050E-03    -57.4435E-03     24.0256E-03     5.15996E+06    -22.7337E+06    -39.5002E+06    -29.2053E+06    -16.1595E+06    -11.7090E+06     2.05097E+06         36.8041
             892     10.3874E-03     20.2245E-03         2.52454    -697.280E-03    -724.350E-03    -724.209E-03         2.52440    -697.280E-03     4.39930E-03     115.828E-03    -57.4604E-03    -58.3773E-03    -57.8819E-03     115.333E-03    -57.4604E-03     18.4366E-03    -6.25715E+06    -30.5054E+06    -72.2481E+06    -30.6767E+06    -72.0769E+06    -6.25715E+06     2.03651E+06         34.4619
             893     9.44473E-03     20.2048E-03         2.51596    -695.261E-03    -719.009E-03    -718.541E-03         2.51549    -695.261E-03     35.3300E-03     115.673E-03    -57.4313E-03    -58.2479E-03    -57.9762E-03     115.402E-03    -57.4313E-03     13.2816E-03    -4.80629E+06    -33.3139E+06    -110.323E+06    -33.3729E+06    -110.264E+06    -4.80629E+06     1.97480E+06         32.8415
             894     8.50049E-03     20.1902E-03         2.50305    -693.653E-03    -707.722E-03    -706.934E-03         2.50227    -693.653E-03     4.03203E-03     115.193E-03    -57.3764E-03    -57.8482E-03    -57.7391E-03     115.084E-03    -57.3764E-03     8.46639E-03    -5.88982E+06    -36.6583E+06    -139.844E+06    -36.7062E+06    -139.796E+06    -5.88982E+06     2.17990E+06         31.7732
             895     7.55664E-03     20.1806E-03         2.49868    -691.719E-03    -703.376E-03    -701.032E-03         2.49723    -692.607E-03     35.3679E-03     114.828E-03    -57.2697E-03    -57.5847E-03    -57.4793E-03     114.773E-03    -57.3195E-03     6.00995E-03    -11.4851E+06    -40.9777E+06    -166.335E+06    -41.0196E+06    -166.293E+06    -11.4851E+06     2.17986E+06         30.9897
             896     6.61249E-03     20.1709E-03         2.50305    -690.501E-03    -706.051E-03    -703.291E-03         2.50117    -691.390E-03     13.1032E-03     114.594E-03    -57.1747E-03    -57.4438E-03    -57.3177E-03     114.570E-03    -57.2769E-03     3.71462E-03    -17.7708E+06    -45.2762E+06    -190.808E+06    -45.3017E+06    -190.782E+06    -17.7708E+06     1.68024E+06         30.3713
             897     5.66787E-03     20.1655E-03         2.49365    -684.020E-03    -701.022E-03    -692.300E-03         2.49140    -690.496E-03     26.1533E-03     114.510E-03    -57.1955E-03    -57.3400E-03    -57.2803E-03     114.503E-03    -57.2479E-03     1.97610E-03    -23.2253E+06    -49.5664E+06    -213.073E+06    -49.5945E+06    -213.045E+06    -23.2253E+06     1.63327E+06         29.8950
             898     4.72345E-03     20.1624E-03         2.49359    -684.047E-03    -701.935E-03    -689.487E-03         2.48762    -690.523E-03    -70.1286E-03     114.469E-03    -57.1217E-03    -57.3671E-03    -57.2908E-03     114.466E-03    -57.1950E-03     819.470E-06    -32.3588E+06    -55.7703E+06    -234.897E+06    -55.7966E+06    -234.871E+06    -32.3588E+06     1.64464E+06         29.5251
             899     3.77961E-03     20.1601E-03         2.51916    -689.123E-03    -721.550E-03    -701.567E-03         2.49918    -689.123E-03     150.162E-03     114.288E-03    -56.9847E-03    -57.3179E-03    -57.2014E-03     114.288E-03    -57.1010E-03    -129.283E-06    -43.8909E+06    -61.5656E+06    -250.371E+06    -61.5741E+06    -250.363E+06    -43.8909E+06     1.18653E+06         29.2375
             900     2.83460E-03     20.1576E-03         2.55673    -683.356E-03    -760.333E-03    -708.795E-03         2.50519    -683.356E-03    -168.620E-03     113.942E-03    -56.8339E-03    -57.1274E-03    -56.9117E-03     113.942E-03    -57.0490E-03    -487.776E-06    -54.2474E+06    -66.0264E+06    -259.320E+06    -66.0299E+06    -259.316E+06    -54.2474E+06     647.756E+03         29.0201
             901     1.88895E-03     20.1589E-03         2.64519    -676.130E-03    -859.803E-03    -688.122E-03         2.47351    -676.130E-03     469.603E-03     113.946E-03    -56.7219E-03    -57.2375E-03    -56.9127E-03     113.945E-03    -57.0458E-03    -520.116E-06    -62.0830E+06    -69.7744E+06    -265.775E+06    -69.7772E+06    -265.772E+06    -62.0830E+06    -137.334E+03         28.8699
             902     944.863E-06     20.1576E-03         3.27982    -997.890E-03        -1.17403    -320.484E-03         2.45373        -1.02535        -1.33344     114.034E-03    -56.6240E-03    -57.4133E-03    -57.2605E-03     114.033E-03    -56.7759E-03    -119.716E-06    -68.4184E+06    -72.1710E+06    -267.514E+06    -72.1904E+06    -267.495E+06    -68.4184E+06     525.032E+03         28.7842
             903     16.0512E-03     19.6416E-03         2.59277    -719.493E-03    -758.422E-03    -758.247E-03         2.59259    -719.493E-03     25.9478E-03     140.937E-03    -58.0879E-03    -82.9095E-03    -58.5038E-03     116.532E-03    -58.0879E-03     129.981E-03     143.817E+06     123.415E+06    -8.12642E+06    -8.11059E+06     143.801E+06     123.415E+06     259.350E+03         54.3830
             904     15.1103E-03     19.4270E-03         2.58498    -719.964E-03    -753.970E-03    -753.872E-03         2.58489    -719.964E-03     30.3897E-03     148.554E-03    -57.9331E-03    -90.7132E-03    -58.9530E-03     116.793E-03    -57.9331E-03     160.693E-03     135.353E+06     99.9062E+06    -14.5834E+06    -14.5367E+06     135.307E+06     99.9062E+06     495.060E+03         51.4744
             905     14.1629E-03     19.2846E-03         2.57044    -719.220E-03    -743.543E-03    -741.975E-03         2.57037    -720.722E-03     24.0461E-03     128.773E-03    -57.6766E-03    -71.2033E-03    -58.0268E-03     115.597E-03    -57.6766E-03     95.0731E-03     125.593E+06     56.5349E+06    -20.1463E+06    -20.0987E+06     125.545E+06     56.5349E+06     1.22143E+06         47.6515
             906     13.2228E-03     19.2113E-03         2.56492    -719.412E-03    -740.002E-03    -738.434E-03         2.56486    -720.914E-03     8.72563E-03     119.698E-03    -57.3534E-03    -62.3884E-03    -58.1347E-03     115.444E-03    -57.3534E-03     54.3669E-03     114.974E+06     12.6975E+06    -23.7118E+06    -23.6862E+06     114.948E+06     12.6975E+06     1.48486E+06         43.5083
             907     12.2784E-03     19.1603E-03         2.57587    -719.949E-03    -752.208E-03    -752.184E-03         2.57585    -719.949E-03     25.5965E-06     116.990E-03    -57.1800E-03    -59.8411E-03    -57.8540E-03     115.003E-03    -57.1800E-03     36.1242E-03     62.6874E+06    -12.0736E+06    -26.2778E+06    -26.2050E+06     62.6146E+06    -12.0736E+06     1.84280E+06         39.7567
             908     11.3338E-03     19.1262E-03         2.56600    -718.251E-03    -743.776E-03    -743.637E-03         2.56586    -718.251E-03     32.5467E-03     116.041E-03    -57.1657E-03    -58.9423E-03    -58.1914E-03     115.290E-03    -57.1657E-03     22.3613E-03     4.59078E+06    -22.4430E+06    -37.7870E+06    -27.8443E+06    -15.8523E+06    -11.9426E+06     2.11795E+06         36.6873
             909     10.3921E-03     19.1037E-03         2.54636    -714.771E-03    -724.910E-03    -722.049E-03         2.54616    -717.433E-03     1.99902E-03     115.789E-03    -57.1017E-03    -58.6940E-03    -58.3171E-03     115.412E-03    -57.1017E-03     16.0117E-03    -6.72983E+06    -29.5639E+06    -71.7344E+06    -29.7732E+06    -71.5251E+06    -6.72983E+06     2.39338E+06         34.3381
             910     9.44764E-03     19.0812E-03         2.54337    -712.324E-03    -724.724E-03    -719.000E-03         2.54284    -717.520E-03     32.6856E-03     115.246E-03    -57.0096E-03    -58.2263E-03    -58.0476E-03     115.067E-03    -57.0096E-03     10.3277E-03    -5.22281E+06    -32.2414E+06    -110.576E+06    -32.3433E+06    -110.474E+06    -5.22281E+06     2.47125E+06         32.7117
             911     8.50462E-03     19.0698E-03         2.55365    -714.616E-03    -730.982E-03    -727.702E-03         2.55290    -717.150E-03     12.4781E-03     114.678E-03    -56.9081E-03    -57.7939E-03    -57.7431E-03     114.627E-03    -56.9081E-03     5.61380E-03    -6.44346E+06    -36.4343E+06    -139.871E+06    -36.5221E+06    -139.784E+06    -6.44346E+06     2.85723E+06         31.6392
             912     7.56040E-03     19.0586E-03         2.56098    -715.473E-03    -738.151E-03    -736.476E-03         2.55930    -715.473E-03     52.3074E-03     114.221E-03    -56.7999E-03    -57.4433E-03    -57.4208E-03     114.199E-03    -56.7999E-03     3.42245E-03    -11.4738E+06    -41.1305E+06    -165.397E+06    -41.2164E+06    -165.311E+06    -11.4738E+06     3.05137E+06         30.8527
             913     6.61615E-03     19.0517E-03         2.54217    -713.266E-03    -730.351E-03    -728.143E-03         2.53996    -713.266E-03     21.4509E-03     113.673E-03    -56.6636E-03    -57.0306E-03    -56.9714E-03     113.666E-03    -56.7160E-03     1.50058E-03    -17.9823E+06    -45.8388E+06    -189.732E+06    -45.8921E+06    -189.678E+06    -17.9823E+06     2.47764E+06         30.2317
             914     5.67100E-03     19.0455E-03         2.52121    -706.080E-03    -718.570E-03    -709.769E-03         2.51889    -712.556E-03     25.6679E-03     113.408E-03    -56.6126E-03    -56.8228E-03    -56.7671E-03     113.404E-03    -56.6651E-03    -63.9272E-06    -24.0214E+06    -50.3089E+06    -212.953E+06    -50.3571E+06    -212.905E+06    -24.0214E+06     1.89377E+06         29.7548
             915     4.72610E-03     19.0425E-03         2.53846    -706.150E-03    -726.288E-03    -715.007E-03         2.53366    -712.626E-03    -48.5731E-03     113.341E-03    -56.5427E-03    -56.8217E-03    -56.7526E-03     113.338E-03    -56.6085E-03    -932.233E-06    -31.0438E+06    -53.9816E+06    -234.328E+06    -54.0208E+06    -234.289E+06    -31.0438E+06     1.99511E+06         29.3867
             916     3.78132E-03     19.0394E-03         2.55446    -705.568E-03    -736.100E-03    -713.765E-03         2.53880    -712.241E-03     133.547E-03     113.093E-03    -56.4151E-03    -56.6927E-03    -56.5802E-03     113.089E-03    -56.5240E-03    -1.21655E-03    -41.8783E+06    -58.6953E+06    -249.864E+06    -58.7284E+06    -249.831E+06    -41.8783E+06     2.38256E+06         29.1039
             917     2.83598E-03     19.0403E-03         2.57021    -707.256E-03    -748.234E-03    -702.809E-03         2.53145    -713.930E-03    -135.855E-03     112.883E-03    -56.2703E-03    -56.6316E-03    -56.4435E-03     112.879E-03    -56.4543E-03    -1.53974E-03    -51.8265E+06    -63.5971E+06    -256.818E+06    -63.6129E+06    -256.802E+06    -51.8265E+06     1.18121E+06         28.8933
             918     1.89066E-03     19.0379E-03         2.64857    -723.972E-03    -809.768E-03    -691.297E-03         2.53010    -723.972E-03     365.015E-03     112.846E-03    -56.1528E-03    -56.7072E-03    -56.4888E-03     112.843E-03    -56.3685E-03    -1.29521E-03    -59.9721E+06    -68.0824E+06    -264.565E+06    -68.0848E+06    -264.562E+06    -59.9721E+06    -386.604E+03         28.7479
             919     946.093E-06     19.0382E-03         3.18487    -952.677E-03        -1.11017    -418.887E-03         2.58614        -1.04523        -1.18330     112.548E-03    -56.0097E-03    -56.5426E-03    -56.4666E-03     112.546E-03    -56.0845E-03    -795.351E-06    -69.1484E+06    -72.4817E+06    -269.659E+06    -72.4843E+06    -269.656E+06    -69.1484E+06    -514.704E+03         28.6627
             920     16.0519E-03     18.5135E-03         2.60367    -736.440E-03    -751.038E-03    -750.952E-03         2.60358    -736.440E-03    -1.47590E-03     140.152E-03    -58.0871E-03    -82.1061E-03    -58.2492E-03     116.295E-03    -58.0871E-03     128.970E-03     142.972E+06     122.650E+06    -7.83182E+06    -7.79339E+06     142.934E+06     122.650E+06     57.6442E+03         54.2390
             921     15.1075E-03     18.3043E-03         2.59644    -733.741E-03    -746.018E-03    -741.289E-03         2.59636    -738.391E-03     2.32159E-03     148.581E-03    -57.8857E-03    -90.7899E-03    -60.1779E-03     117.969E-03    -57.8857E-03     157.997E-03     135.395E+06     98.6016E+06    -14.8076E+06    -14.7554E+06     135.343E+06     98.6016E+06    -220.693E+03         51.3355
             922     14.1692E-03     18.1579E-03         2.61032    -735.393E-03    -760.268E-03    -755.570E-03         2.61027    -740.044E-03    -8.43102E-03     129.701E-03    -57.5123E-03    -72.3084E-03    -59.6029E-03     116.996E-03    -57.5123E-03     94.1621E-03     125.061E+06     54.6705E+06    -19.9304E+06    -19.8923E+06     125.023E+06     54.6705E+06     677.917E+03         47.5204
             923     13.2237E-03     18.0886E-03         2.61616    -740.056E-03    -764.457E-03    -764.424E-03         2.61613    -740.056E-03     4.22537E-03     119.835E-03    -57.1023E-03    -62.7789E-03    -58.8281E-03     115.885E-03    -57.1023E-03     52.2472E-03     114.454E+06     12.2432E+06    -23.7120E+06    -23.6519E+06     114.394E+06     12.2432E+06     1.85014E+06         43.3769
             924     12.2817E-03     18.0356E-03         2.60479    -738.216E-03    -757.752E-03    -756.495E-03         2.60475    -739.433E-03     14.5010E-03     117.676E-03    -56.8335E-03    -60.8673E-03    -59.1961E-03     116.005E-03    -56.8335E-03     32.9363E-03     63.1751E+06    -12.0270E+06    -26.0447E+06    -25.9402E+06     63.0706E+06    -12.0270E+06     2.48761E+06         39.6203
             925     11.3406E-03     18.0042E-03         2.59799    -737.730E-03    -751.944E-03    -750.559E-03         2.59782    -738.947E-03     40.9343E-03     116.304E-03    -56.6874E-03    -59.6822E-03    -59.1402E-03     115.762E-03    -56.6874E-03     18.9397E-03     4.62057E+06    -22.9763E+06    -37.5479E+06    -27.4809E+06    -15.4420E+06    -12.9807E+06     2.51922E+06         36.5449
             926     10.3969E-03     17.9794E-03         2.59084    -736.152E-03    -744.761E-03    -741.846E-03         2.59059    -738.814E-03     2.16285E-03     115.660E-03    -56.5084E-03    -59.1613E-03    -58.9326E-03     115.431E-03    -56.5084E-03     12.1570E-03    -7.49799E+06    -29.4836E+06    -71.5561E+06    -29.8598E+06    -71.1799E+06    -7.49799E+06     3.14548E+06         34.1805
             927     9.45493E-03     17.9612E-03         2.58367    -731.679E-03    -739.785E-03    -731.495E-03         2.58314    -739.438E-03     26.1740E-03     114.686E-03    -56.3041E-03    -58.3559E-03    -58.2744E-03     114.605E-03    -56.3041E-03     6.05291E-03    -7.10682E+06    -33.1276E+06    -110.602E+06    -33.3154E+06    -110.414E+06    -7.10682E+06     3.55056E+06         32.5322
             928     8.51033E-03     17.9480E-03         2.59400    -733.415E-03    -746.078E-03    -738.737E-03         2.59341    -740.171E-03     19.9785E-03     113.684E-03    -56.1239E-03    -57.5676E-03    -57.5541E-03     113.670E-03    -56.1239E-03     1.60739E-03    -8.09943E+06    -36.5088E+06    -140.168E+06    -36.6697E+06    -140.007E+06    -8.09943E+06     3.77942E+06         31.4441
             929     7.56660E-03     17.9387E-03         2.60356    -735.400E-03    -753.059E-03    -747.157E-03         2.60225    -739.999E-03     49.2349E-03     112.981E-03    -55.9594E-03    -57.0473E-03    -57.0358E-03     112.969E-03    -55.9594E-03    -442.206E-06    -12.5490E+06    -40.7204E+06    -164.741E+06    -40.8876E+06    -164.574E+06    -12.5490E+06     4.22301E+06         30.6516
             930     6.62131E-03     17.9322E-03         2.59954    -736.530E-03    -747.508E-03    -742.881E-03         2.59786    -739.470E-03     22.2667E-03     112.344E-03    -55.8112E-03    -56.5559E-03    -56.5409E-03     112.329E-03    -55.8112E-03    -2.13590E-03    -19.5199E+06    -46.3040E+06    -187.909E+06    -46.4715E+06    -187.741E+06    -19.5199E+06     4.55507E+06         30.0275
             931     5.67645E-03     17.9269E-03         2.60614    -738.493E-03    -751.298E-03    -748.827E-03         2.60367    -738.493E-03     53.5643E-03     111.752E-03    -55.6841E-03    -56.0919E-03    -56.0723E-03     111.732E-03    -55.6841E-03    -3.01641E-03    -29.0523E+06    -52.5598E+06    -210.714E+06    -52.6425E+06    -210.631E+06    -29.0523E+06     2.79902E+06         29.5476
             932     4.73089E-03     17.9238E-03         2.60933    -735.874E-03    -758.704E-03    -754.277E-03         2.60490    -735.874E-03    -11.1137E-03     111.299E-03    -55.5504E-03    -55.7688E-03    -55.6807E-03     111.277E-03    -55.6163E-03    -3.53367E-03    -37.4030E+06    -58.0797E+06    -235.352E+06    -58.1096E+06    -235.322E+06    -37.4030E+06     1.63863E+06         29.1791
             933     3.78409E-03     17.9226E-03         2.59057    -727.620E-03    -748.690E-03    -732.522E-03         2.58107    -734.294E-03     88.1367E-03     111.143E-03    -55.4975E-03    -55.6576E-03    -55.5689E-03     111.120E-03    -55.5633E-03    -3.58994E-03    -44.4410E+06    -61.6746E+06    -248.794E+06    -61.7052E+06    -248.764E+06    -44.4410E+06     2.21407E+06         28.9005
             934     2.83846E-03     17.9213E-03         2.60207    -729.895E-03    -758.256E-03    -724.346E-03         2.57483    -736.569E-03    -154.644E-03     111.125E-03    -55.4670E-03    -55.6719E-03    -55.6559E-03     111.109E-03    -55.4670E-03    -3.07479E-03    -52.7552E+06    -64.5667E+06    -253.597E+06    -64.5829E+06    -253.581E+06    -52.7552E+06     1.06815E+06         28.6976
             935     1.89338E-03     17.9214E-03         2.66935    -740.847E-03    -813.865E-03    -731.923E-03         2.58741    -740.847E-03     283.703E-03     110.792E-03    -55.2759E-03    -55.5281E-03    -55.4169E-03     110.784E-03    -55.3795E-03    -2.09332E-03    -61.2982E+06    -67.6234E+06    -264.309E+06    -67.6292E+06    -264.303E+06    -61.2982E+06     351.992E+03         28.5590
             936     945.545E-06     17.9219E-03         3.04285    -861.503E-03        -1.05543    -485.451E-03         2.61198        -1.00061    -978.112E-03     110.640E-03    -55.1089E-03    -55.5345E-03    -55.4287E-03     110.638E-03    -55.2126E-03    -1.04589E-03    -69.0804E+06    -71.0681E+06    -269.457E+06    -70.8698E+06    -269.447E+06    -69.2884E+06    -26.9903E+03         28.4788
             937     16.0550E-03     17.4000E-03         2.63243    -754.034E-03    -769.444E-03    -769.349E-03         2.63233    -754.034E-03     11.5070E-03     141.686E-03    -58.0208E-03    -83.7192E-03    -59.4365E-03     117.403E-03    -58.0208E-03     129.906E-03     143.309E+06     123.068E+06    -7.38019E+06    -7.30029E+06     143.229E+06     123.068E+06     444.270E+03         54.0610
             938     15.1118E-03     17.1720E-03         2.62824    -751.174E-03    -763.392E-03    -758.282E-03         2.62814    -756.190E-03     602.581E-06     149.752E-03    -57.7485E-03    -92.0931E-03    -61.3057E-03     118.964E-03    -57.7485E-03     158.834E-03     135.235E+06     97.8565E+06    -15.3149E+06    -15.2172E+06     135.138E+06     97.8565E+06     341.845E+03         51.1606
             939     14.1691E-03     17.0363E-03         2.62613    -747.703E-03    -765.497E-03    -754.394E-03         2.62595    -758.625E-03     16.6898E-03     130.481E-03    -57.2644E-03    -73.3288E-03    -61.3823E-03     118.535E-03    -57.2644E-03     91.7491E-03     123.345E+06     52.2020E+06    -22.2163E+06    -22.1678E+06     123.297E+06     52.2020E+06     511.849E+03         47.3517
             940     13.2295E-03     16.9619E-03         2.63504    -752.667E-03    -770.358E-03    -762.794E-03         2.63493    -760.122E-03     24.1216E-03     121.154E-03    -56.6968E-03    -64.5164E-03    -61.0317E-03     117.669E-03    -56.6968E-03     49.0476E-03     113.734E+06     11.3799E+06    -25.8246E+06    -25.7604E+06     113.670E+06     11.3799E+06     1.33700E+06         43.2149
             941     12.2899E-03     16.9115E-03         2.63957    -758.074E-03    -767.974E-03    -765.131E-03         2.63949    -760.840E-03     30.4743E-03     118.300E-03    -56.2411E-03    -62.0840E-03    -60.8468E-03     117.062E-03    -56.2411E-03     28.3203E-03     64.0979E+06    -12.4017E+06    -27.1746E+06    -27.0224E+06     63.9457E+06    -12.4017E+06     2.22160E+06         39.4619
             942     11.3476E-03     16.8809E-03         2.64112    -757.353E-03    -768.451E-03    -764.425E-03         2.64096    -761.225E-03     43.8797E-03     116.642E-03    -55.9105E-03    -60.7894E-03    -60.4537E-03     116.306E-03    -55.9105E-03     14.2897E-03     4.18279E+06    -23.8113E+06    -38.4555E+06    -27.7590E+06    -15.4322E+06    -14.8928E+06     3.07767E+06         36.3857
             943     10.4073E-03     16.8568E-03         2.64231    -757.234E-03    -765.410E-03    -760.877E-03         2.64215    -761.607E-03     6.82464E-03     115.327E-03    -55.5760E-03    -59.7572E-03    -59.6686E-03     115.238E-03    -55.5760E-03     6.47024E-03    -8.81178E+06    -28.7543E+06    -71.7411E+06    -29.2394E+06     -71.256E+06    -8.81178E+06     3.86106E+06         34.0088
             944     9.46408E-03     16.8400E-03         2.64540    -757.777E-03    -765.684E-03    -760.780E-03         2.64478    -762.059E-03     43.8173E-03     113.811E-03    -55.2330E-03    -58.5565E-03    -58.5258E-03     113.780E-03    -55.2330E-03     283.433E-06    -7.87174E+06    -31.6628E+06    -109.882E+06    -31.9506E+06    -109.594E+06    -7.87174E+06     4.45057E+06         32.3260
             945     8.52120E-03     16.8293E-03         2.63940    -755.059E-03    -765.921E-03    -757.659E-03         2.63873    -762.644E-03     34.5978E-03     112.396E-03    -54.9240E-03    -57.4808E-03    -57.4416E-03     112.357E-03    -54.9240E-03    -3.95666E-03    -9.39978E+06    -35.5327E+06    -139.929E+06    -35.7979E+06    -139.664E+06    -9.39978E+06     4.93425E+06         31.1967
             946     7.57562E-03     16.8210E-03         2.63410    -752.155E-03    -763.861E-03    -751.476E-03         2.63342    -763.861E-03     34.0164E-03     111.216E-03    -54.6412E-03    -56.5964E-03    -56.5280E-03     111.148E-03    -54.6412E-03    -5.92932E-03    -14.2611E+06    -39.8438E+06    -164.886E+06    -40.1116E+06    -164.619E+06    -14.2611E+06     5.40462E+06         30.3818
             947     6.63091E-03     16.8151E-03         2.64719    -758.483E-03    -766.997E-03    -759.336E-03         2.64622    -765.169E-03     7.56312E-03     110.192E-03    -54.3964E-03    -55.8100E-03    -55.7169E-03     110.099E-03    -54.3964E-03    -7.27341E-03    -20.1031E+06    -43.3470E+06    -185.833E+06    -43.5883E+06    -185.592E+06    -20.1031E+06     5.73048E+06         29.7487
             948     5.68438E-03     16.8117E-03         2.65679    -762.460E-03    -775.676E-03    -771.140E-03         2.65497    -765.174E-03     38.4567E-03     109.240E-03    -54.2288E-03    -55.0221E-03    -54.9230E-03     109.141E-03    -54.2288E-03    -7.55058E-03    -25.8412E+06    -47.6635E+06    -208.008E+06    -47.8980E+06    -207.774E+06    -25.8412E+06     5.82552E+06         29.2628
             949     4.73704E-03     16.8086E-03         2.65946    -760.517E-03    -783.626E-03    -778.313E-03         2.65686    -763.231E-03     1.22426E-03     108.644E-03    -54.1185E-03    -54.5382E-03    -54.4454E-03     108.551E-03    -54.1185E-03    -7.35449E-03    -33.9688E+06    -55.4173E+06    -234.129E+06    -55.5907E+06    -233.956E+06    -33.9688E+06     4.78530E+06         28.8917
             950     3.79075E-03     16.8077E-03         2.66167    -759.111E-03    -785.934E-03    -780.313E-03         2.65605    -759.111E-03     82.8513E-03     108.179E-03    -53.9842E-03    -54.2049E-03    -54.1347E-03     108.109E-03    -53.9842E-03    -6.52393E-03    -47.4017E+06    -62.5783E+06    -245.837E+06    -62.6436E+06    -245.771E+06    -47.4017E+06     1.81207E+06         28.6119
             951     2.84300E-03     16.8065E-03         2.65952    -752.883E-03    -791.524E-03    -774.452E-03         2.64244    -752.883E-03    -116.861E-03     107.772E-03    -53.8207E-03    -53.9597E-03    -53.8246E-03     107.725E-03    -53.9087E-03    -5.31235E-03    -58.7516E+06    -65.7456E+06    -252.707E+06    -65.7533E+06    -252.699E+06    -58.7516E+06    -74.8106E+03         28.4113
             952     1.89432E-03     16.8079E-03         2.65885    -750.557E-03    -801.802E-03    -745.489E-03         2.60254    -750.557E-03     247.931E-03     107.824E-03    -53.8006E-03    -54.0324E-03    -53.8899E-03     107.799E-03    -53.9174E-03    -3.74303E-03    -63.1075E+06    -67.9474E+06    -265.016E+06    -67.9565E+06    -265.006E+06    -63.1075E+06     175.230E+03         28.2805
             953     948.183E-06     16.8071E-03         2.89225    -806.608E-03    -983.134E-03    -548.095E-03         2.60603    -955.427E-03    -754.729E-03     107.789E-03    -53.7284E-03    -54.0626E-03    -54.0254E-03     107.781E-03    -53.7572E-03    -2.08277E-03    -67.8353E+06    -70.5274E+06    -268.414E+06    -70.2300E+06    -268.388E+06    -68.1583E+06     474.272E+03         28.2077
             954     16.0527E-03     16.2698E-03         2.66693    -768.692E-03    -783.301E-03    -778.540E-03         2.66679    -773.307E-03     31.7163E-03     142.970E-03    -57.9212E-03    -85.0813E-03    -61.2794E-03     119.168E-03    -57.9212E-03     128.712E-03     143.199E+06     122.954E+06    -7.17252E+06    -7.11068E+06     143.138E+06     122.954E+06     723.001E+03         53.8439
             955     15.1133E-03     16.0482E-03         2.67101    -771.455E-03    -783.247E-03    -778.382E-03         2.67086    -776.173E-03     35.1438E-03     151.099E-03    -57.5293E-03    -93.6635E-03    -63.4517E-03     120.887E-03    -57.5293E-03     158.377E-03     134.918E+06     97.9481E+06    -15.7159E+06    -15.6172E+06     134.819E+06     97.9481E+06     1.06514E+06         50.9469
             956     14.1749E-03     15.9066E-03         2.66962    -771.416E-03    -779.807E-03    -771.829E-03         2.66941    -779.176E-03     53.9200E-03     132.085E-03    -56.8734E-03    -75.3351E-03    -64.2703E-03     121.020E-03    -56.8734E-03     88.2587E-03     123.685E+06     53.9588E+06    -22.4574E+06    -22.3949E+06     123.622E+06     53.9588E+06     1.16177E+06         47.1476
             957     13.2388E-03     15.8337E-03         2.66887    -769.656E-03    -781.485E-03    -769.520E-03         2.66873    -781.485E-03     38.4643E-03     122.582E-03    -56.0464E-03    -66.5995E-03    -63.8775E-03     119.860E-03    -56.0464E-03     43.5094E-03     113.181E+06     10.4101E+06    -25.8148E+06    -25.7920E+06     113.159E+06     10.4101E+06     681.567E+03         43.0263
             958     12.2991E-03     15.7884E-03         2.67834    -774.693E-03    -786.813E-03    -778.386E-03         2.67827    -783.043E-03     30.4228E-03     119.134E-03    -55.3265E-03    -63.8208E-03    -62.9975E-03     118.311E-03    -55.3265E-03     22.2875E-03     63.6278E+06    -15.0665E+06    -26.9928E+06    -26.8820E+06     63.5169E+06    -15.0665E+06     1.20214E+06         39.2869
             959     11.3615E-03     15.7554E-03         2.68121    -772.787E-03    -787.960E-03    -776.375E-03         2.68103    -784.189E-03     48.7396E-03     116.889E-03    -54.7647E-03    -62.1442E-03    -62.0041E-03     116.749E-03    -54.7647E-03     7.41508E-03     3.63129E+06    -23.7109E+06    -38.7602E+06    -27.3963E+06    -14.9469E+06    -16.4967E+06     3.30867E+06         36.2181
             960     10.4208E-03     15.7360E-03         2.68620    -776.120E-03    -786.778E-03    -777.447E-03         2.68608    -785.324E-03     23.3256E-03     114.763E-03    -54.2167E-03    -60.5335E-03    -60.5015E-03     114.731E-03    -54.2167E-03    -734.249E-06    -10.9989E+06    -28.2935E+06    -72.4176E+06    -28.9067E+06    -71.8044E+06    -10.9989E+06     4.43891E+06         33.8461
             961     9.47913E-03     15.7202E-03         2.69690    -783.712E-03    -790.622E-03    -788.009E-03         2.69646    -785.890E-03     47.2498E-03     112.708E-03    -53.6814E-03    -59.0025E-03    -58.8880E-03     112.593E-03    -53.6814E-03    -6.98631E-03    -9.07612E+06    -31.2780E+06    -109.842E+06    -31.6886E+06    -109.431E+06    -9.07612E+06     5.37210E+06         32.1360
             962     8.53480E-03     15.7126E-03         2.69404    -779.558E-03    -789.484E-03    -782.322E-03         2.69353    -786.206E-03     29.2447E-03     110.777E-03    -53.1824E-03    -57.5963E-03    -57.3828E-03     110.564E-03    -53.1824E-03    -11.2040E-03    -10.0142E+06    -34.8717E+06    -139.168E+06    -35.2768E+06    -138.763E+06    -10.0142E+06     6.19558E+06         30.9334
             963     7.59098E-03     15.7050E-03         2.69201    -777.235E-03    -788.124E-03    -777.413E-03         2.69123    -787.167E-03     45.7859E-03     108.846E-03    -52.7262E-03    -56.1211E-03    -55.8478E-03     108.572E-03    -52.7262E-03    -12.7816E-03    -14.2151E+06    -38.4868E+06    -163.880E+06    -38.8377E+06    -163.529E+06    -14.2151E+06     6.37870E+06         30.0580
             964     6.64385E-03     15.7016E-03         2.69854    -784.173E-03    -791.930E-03    -787.145E-03         2.69750    -787.919E-03     20.4767E-03     107.056E-03    -52.3543E-03    -54.6927E-03    -54.3877E-03     106.751E-03    -52.3543E-03    -13.5533E-03    -20.2767E+06    -42.8522E+06    -185.028E+06    -43.1843E+06    -184.695E+06    -20.2767E+06     6.68930E+06         29.3958
             965     5.69645E-03     15.6986E-03         2.69016    -785.308E-03    -791.453E-03    -788.038E-03         2.68946    -788.022E-03    -176.620E-06     105.746E-03    -52.0888E-03    -53.6486E-03    -53.3613E-03     105.459E-03    -52.0888E-03    -13.1471E-03    -25.7959E+06    -47.6112E+06    -207.238E+06    -47.9937E+06    -206.855E+06    -25.7959E+06     7.79496E+06         28.8917
             966     4.74842E-03     15.6977E-03         2.68301    -775.204E-03    -794.860E-03    -780.115E-03         2.68199    -788.929E-03    -12.7322E-03     104.718E-03    -51.8902E-03    -52.8284E-03    -52.5886E-03     104.478E-03    -51.8902E-03    -11.9892E-03    -31.6200E+06    -50.9306E+06    -229.052E+06    -51.2180E+06    -228.765E+06    -31.6200E+06     6.81386E+06         28.5109
             967     3.79861E-03     15.6966E-03         2.70136    -771.883E-03    -807.701E-03    -784.859E-03         2.69716    -790.529E-03     95.9289E-03     103.864E-03    -51.7281E-03    -52.1401E-03    -51.9627E-03     103.687E-03    -51.7281E-03    -10.1951E-03    -42.3417E+06    -54.9725E+06    -241.669E+06    -55.1095E+06    -241.532E+06    -42.3417E+06     3.79388E+06         28.2268
             968     2.84913E-03     15.6970E-03         2.72941    -780.088E-03    -825.785E-03    -808.828E-03         2.72009    -787.722E-03    -38.4281E-03     103.404E-03    -51.5384E-03    -51.8666E-03    -51.6627E-03     103.288E-03    -51.6263E-03    -8.20159E-03    -54.9191E+06    -61.3535E+06    -252.477E+06    -61.4318E+06    -252.399E+06    -54.9191E+06     2.28227E+06         28.0256
             969     1.89982E-03     15.6962E-03         2.72080    -779.983E-03    -825.421E-03    -796.869E-03         2.69225    -779.983E-03     192.489E-03     103.233E-03    -51.4036E-03    -51.8331E-03    -51.6005E-03     103.175E-03    -51.5779E-03    -5.75623E-03    -63.6020E+06    -67.9633E+06    -263.628E+06    -67.6127E+06    -263.590E+06    -63.9905E+06     1.61419E+06         27.8959
             970     949.574E-06     15.6961E-03         2.82396    -766.041E-03    -943.153E-03    -627.342E-03         2.66628    -924.162E-03    -561.159E-03     103.107E-03    -51.4175E-03    -51.6895E-03    -51.5829E-03     103.087E-03    -51.5039E-03    -3.31668E-03    -69.5038E+06    -71.8316E+06    -267.624E+06    -71.1815E+06    -267.580E+06    -70.1974E+06     602.545E+03         27.8233
             971     16.0602E-03     15.1462E-03         2.68392    -767.519E-03    -793.147E-03    -767.458E-03         2.68385    -793.147E-03     22.1814E-03     145.161E-03    -57.7592E-03    -87.3841E-03    -64.4474E-03     122.224E-03    -57.7592E-03     127.618E-03     142.721E+06     124.152E+06    -6.20159E+06    -6.13143E+06     142.651E+06     124.152E+06     1.03044E+06         53.5893
             972     15.1187E-03     14.9195E-03         2.69480    -777.960E-03    -798.127E-03    -778.482E-03         2.69469    -797.495E-03     37.1731E-03     153.433E-03    -57.1485E-03    -96.3952E-03    -67.4431E-03     124.481E-03    -57.1485E-03     156.983E-03     135.904E+06     101.164E+06    -13.6341E+06    -13.5357E+06     135.805E+06     101.164E+06     1.62042E+06         50.6987
             973     14.1854E-03     14.7726E-03         2.71156    -791.316E-03    -802.268E-03    -792.355E-03         2.71144    -801.108E-03     40.5640E-03     133.659E-03    -56.2122E-03    -77.6011E-03    -67.6688E-03     123.727E-03    -56.2122E-03     83.3699E-03     124.082E+06     55.4996E+06    -20.8777E+06    -20.8419E+06     124.047E+06     55.4996E+06     1.06656E+06         46.9143
             974     13.2499E-03     14.7070E-03         2.71137    -792.307E-03    -803.883E-03    -792.711E-03         2.71125    -803.354E-03     40.4882E-03     123.544E-03    -55.0813E-03    -68.5219E-03    -66.5682E-03     121.590E-03    -55.0813E-03     37.0179E-03     112.484E+06     8.63082E+06    -24.6220E+06    -24.6180E+06     112.480E+06     8.63082E+06     565.152E+03         42.8170
             975     12.3166E-03     14.6579E-03         2.70905    -785.119E-03    -805.445E-03    -784.922E-03         2.70885    -805.445E-03     47.4078E-03     120.114E-03    -54.0776E-03    -66.0221E-03    -65.5257E-03     119.617E-03    -54.0776E-03     15.7688E-03     63.2666E+06    -16.9122E+06    -26.3224E+06    -26.1354E+06     63.0796E+06    -16.9122E+06     1.97541E+06         39.1007
             976     11.3790E-03     14.6323E-03         2.71978    -791.808E-03    -809.145E-03    -793.331E-03         2.71956    -807.405E-03     51.8799E-03     116.974E-03    -53.2385E-03    -63.7397E-03    -63.6987E-03     116.933E-03    -53.2385E-03     463.618E-06     2.16266E+06    -24.8069E+06    -38.9626E+06    -28.2572E+06    -14.9111E+06    -18.4385E+06     3.95223E+06         36.0471
             977     10.4398E-03     14.6135E-03         2.73229    -801.760E-03    -811.721E-03    -804.872E-03         2.73221    -808.526E-03     22.6916E-03     114.354E-03    -52.4185E-03    -61.9194E-03    -61.7813E-03     114.216E-03    -52.4185E-03    -8.13012E-03    -13.6208E+06    -29.5769E+06    -72.8407E+06    -30.3468E+06    -72.0708E+06    -13.6208E+06     5.03679E+06         33.6877
             978     9.49870E-03     14.6027E-03         2.73801    -802.393E-03    -810.655E-03    -803.607E-03         2.73777    -809.201E-03     39.9121E-03     111.629E-03    -51.6048E-03    -59.9680E-03    -59.5929E-03     111.254E-03    -51.6048E-03    -15.1487E-03    -11.0414E+06    -32.2350E+06    -109.849E+06    -32.7622E+06    -109.322E+06    -11.0414E+06     6.12854E+06         31.9590
             979     8.55609E-03     14.5961E-03         2.74506    -802.303E-03    -810.890E-03    -802.892E-03         2.74476    -810.001E-03     27.0100E-03     108.610E-03    -50.8482E-03    -57.7362E-03    -57.1598E-03     108.034E-03    -50.8482E-03    -19.0984E-03    -11.1226E+06    -35.2455E+06    -138.554E+06    -35.7646E+06    -138.035E+06    -11.1226E+06     7.07418E+06         30.6747
             980     7.60977E-03     14.5931E-03         2.75327    -807.620E-03    -814.079E-03    -810.728E-03         2.75275    -810.445E-03     41.9896E-03     105.773E-03    -50.1748E-03    -55.5787E-03    -54.8949E-03     105.089E-03    -50.1748E-03    -20.5210E-03    -14.5939E+06    -38.8740E+06    -162.563E+06    -39.3791E+06    -162.058E+06    -14.5939E+06     7.72559E+06         29.7078
             981     6.66264E-03     14.5913E-03         2.74941    -802.821E-03    -815.518E-03    -806.996E-03         2.74879    -810.725E-03     26.9751E-03     103.189E-03    -49.6147E-03    -53.5426E-03    -52.8377E-03     102.484E-03    -49.6147E-03    -20.5910E-03    -21.7116E+06       -43.4E+06    -185.392E+06    -43.9261E+06    -184.866E+06    -21.7116E+06     8.56792E+06         28.9885
             982     5.71301E-03     14.5911E-03         2.74734    -800.644E-03    -814.184E-03    -802.580E-03         2.74685    -811.761E-03     19.2825E-03     101.039E-03    -49.1775E-03    -51.8325E-03    -51.2038E-03     100.410E-03    -49.1775E-03    -19.2015E-03    -29.5761E+06      -47.65E+06    -204.877E+06    -48.1144E+06    -204.412E+06    -29.5761E+06     8.39244E+06         28.4465
             983     4.76212E-03     14.5904E-03         2.74621    -799.507E-03    -816.354E-03    -801.611E-03         2.74569    -813.731E-03     12.3636E-03     99.4043E-03    -48.8654E-03    -50.5178E-03    -50.0113E-03     98.8977E-03    -48.8654E-03    -17.0560E-03    -35.8401E+06    -52.0974E+06    -224.286E+06    -52.3856E+06    -223.998E+06    -35.8401E+06     6.74664E+06         28.0413
             984     3.81078E-03     14.5915E-03         2.74096    -794.657E-03    -820.055E-03    -794.833E-03         2.73889    -817.807E-03     64.9683E-03     98.2211E-03    -48.6423E-03    -49.5642E-03    -49.1968E-03     97.8537E-03    -48.6423E-03    -14.4234E-03    -43.5131E+06    -56.9517E+06    -239.542E+06    -57.1784E+06    -239.315E+06    -43.5131E+06     6.24070E+06         27.7441
             985     2.85824E-03     14.5915E-03         2.77044    -807.209E-03    -834.048E-03    -813.898E-03         2.76511    -822.034E-03    -56.7055E-03     97.4516E-03    -48.4661E-03    -48.9752E-03    -48.7495E-03     97.2259E-03    -48.4661E-03    -11.2188E-03    -53.0750E+06    -61.9441E+06    -249.572E+06    -62.1922E+06    -249.323E+06    -53.0750E+06     6.51910E+06         27.5340
             986     1.90590E-03     14.5925E-03         2.80129    -816.417E-03    -851.571E-03    -836.261E-03         2.78866    -819.103E-03     89.8414E-03     96.8950E-03    -48.2636E-03    -48.6250E-03    -48.4267E-03     96.7830E-03    -48.3499E-03    -7.74271E-03    -62.5574E+06    -67.5956E+06    -259.741E+06    -67.3764E+06    -259.572E+06    -62.9459E+06     5.21181E+06         27.3963
             987     952.726E-06     14.5926E-03         2.84250    -765.104E-03    -939.811E-03    -710.311E-03         2.76725    -919.357E-03    -417.055E-03     96.6289E-03    -48.1857E-03    -48.4393E-03    -48.3150E-03     96.5909E-03    -48.2720E-03    -4.32443E-03    -69.2519E+06    -71.8917E+06    -263.613E+06    -70.4173E+06    -263.558E+06    -70.7814E+06     1.58363E+06         27.3175
             988     16.0572E-03     14.0154E-03         2.69417    -766.360E-03    -812.160E-03    -766.330E-03         2.69414    -812.160E-03     14.8465E-03     149.056E-03    -57.5380E-03    -91.5231E-03    -69.4071E-03     126.940E-03    -57.5380E-03     128.010E-03     142.212E+06     124.397E+06    -6.06750E+06    -5.99014E+06     142.135E+06     124.397E+06     251.692E+03         53.2991
             989     15.1298E-03     13.7838E-03         2.71142    -779.589E-03    -817.426E-03    -779.518E-03         2.71135    -817.426E-03     27.4075E-03     156.782E-03    -56.5871E-03    -100.366E-03    -72.6546E-03     129.070E-03    -56.5871E-03     156.481E-03     135.772E+06     100.484E+06    -14.2933E+06    -14.1786E+06     135.657E+06     100.484E+06     1.42955E+06         50.4193
             990     14.1990E-03     13.6398E-03         2.72940    -791.777E-03    -822.596E-03    -792.167E-03         2.72926    -822.067E-03     43.4031E-03     135.445E-03    -55.3190E-03    -80.3520E-03    -71.2108E-03     126.304E-03    -55.3190E-03     80.4256E-03     124.739E+06     54.7365E+06    -19.7093E+06    -19.6681E+06     124.698E+06     54.7365E+06     1.17681E+06         46.6554
             991     13.2682E-03     13.5743E-03         2.74694    -805.804E-03    -825.695E-03    -806.195E-03         2.74681    -825.166E-03     30.2168E-03     124.877E-03    -53.9006E-03    -71.0547E-03    -69.4979E-03     123.321E-03    -53.9006E-03     33.3077E-03     112.380E+06     8.10102E+06    -23.4558E+06    -23.3808E+06     112.305E+06     8.10102E+06     1.90425E+06         42.5908
             992     12.3338E-03     13.5287E-03         2.75525    -805.636E-03    -827.517E-03    -805.428E-03         2.75504    -827.517E-03     37.3407E-03     120.958E-03    -52.6029E-03    -68.3470E-03    -67.9965E-03     120.608E-03    -52.6029E-03     10.8253E-03     61.9727E+06    -18.4242E+06    -27.6549E+06    -27.3052E+06     61.6230E+06    -18.4242E+06     4.16179E+06         38.9058
             993     11.3996E-03     13.5082E-03         2.76964    -813.508E-03    -831.181E-03    -815.034E-03         2.76942    -829.440E-03     52.4988E-03     117.570E-03    -51.4475E-03    -66.1566E-03    -66.0821E-03     117.496E-03    -51.4475E-03    -5.38332E-03     1.42169E+06    -25.8175E+06    -38.8419E+06    -29.7600E+06    -13.8721E+06    -19.6055E+06     4.98899E+06         35.8735
             994     10.4628E-03     13.4929E-03         2.77737    -816.042E-03    -832.638E-03    -817.714E-03         2.77730    -830.897E-03     24.9651E-03     114.293E-03    -50.2756E-03    -63.9941E-03    -63.6389E-03     113.938E-03    -50.2756E-03    -14.6692E-03    -15.0975E+06    -30.0472E+06    -72.1475E+06    -31.1004E+06    -71.0943E+06    -15.0975E+06     5.25837E+06         33.5233
             995     9.52361E-03     13.4857E-03         2.77932    -814.447E-03    -832.546E-03    -814.062E-03         2.77893    -832.546E-03     54.7740E-03     110.449E-03    -49.1129E-03    -61.2471E-03    -60.4903E-03     109.692E-03    -49.1129E-03    -22.3322E-03    -13.0685E+06    -32.3231E+06    -110.366E+06    -32.9490E+06    -109.740E+06    -13.0685E+06     6.65434E+06         31.7768
             996     8.58008E-03     13.4843E-03         2.79396    -825.794E-03    -836.336E-03    -827.917E-03         2.79358    -833.826E-03     55.7837E-03     106.334E-03    -48.0371E-03    -58.2639E-03    -57.1791E-03     105.250E-03    -48.0371E-03    -26.3124E-03    -12.6367E+06    -35.3959E+06    -138.161E+06    -36.0480E+06    -137.509E+06    -12.6367E+06     7.90211E+06         30.4296
             997     7.63455E-03     13.4851E-03         2.79685    -832.013E-03    -838.299E-03    -836.094E-03         2.79663    -834.000E-03     43.0992E-03     102.338E-03    -47.0739E-03    -55.2448E-03    -53.9866E-03     101.080E-03    -47.0739E-03    -27.7932E-03    -16.0826E+06    -39.1268E+06    -162.196E+06    -39.8030E+06    -161.520E+06    -16.0826E+06     8.94857E+06         29.3719
             998     6.68521E-03     13.4872E-03         2.78477    -819.668E-03    -836.576E-03    -821.226E-03         2.78454    -834.787E-03     28.8132E-03     98.7284E-03    -46.2620E-03    -52.4371E-03    -51.1725E-03     97.4638E-03    -46.2620E-03    -27.2888E-03    -22.4761E+06    -42.1792E+06    -184.466E+06    -42.8570E+06    -183.788E+06    -22.4761E+06     9.63492E+06         28.5730
             999     5.73398E-03     13.4893E-03         2.79086    -818.360E-03    -837.293E-03    -818.120E-03         2.79062    -837.293E-03     22.5795E-03     95.5347E-03    -45.6108E-03    -49.8911E-03    -48.7597E-03     94.4034E-03    -45.6108E-03    -25.2774E-03    -30.2334E+06    -45.9273E+06    -201.677E+06    -46.5355E+06    -201.069E+06    -30.2334E+06     9.49020E+06         27.9699
            1000     4.78031E-03     13.4917E-03         2.81183    -832.631E-03    -848.734E-03    -842.554E-03         2.81146    -838.432E-03     11.5922E-06     93.0403E-03    -45.1379E-03    -47.8709E-03    -46.9696E-03     92.1389E-03    -45.1379E-03    -22.2038E-03    -36.4961E+06    -50.9944E+06    -220.953E+06    -51.5202E+06    -220.427E+06    -36.4961E+06     9.15618E+06         27.5165
            1001     3.82541E-03     13.4931E-03         2.81113    -832.098E-03    -852.964E-03    -847.694E-03         2.81036    -836.602E-03     31.4163E-03     91.2793E-03    -44.7890E-03    -46.4649E-03    -45.8270E-03     90.6415E-03    -44.7890E-03    -18.3936E-03    -44.3730E+06    -57.0506E+06    -237.419E+06    -57.4795E+06    -236.990E+06    -44.3730E+06     8.69424E+06         27.1849
            1002     2.86999E-03     13.4949E-03         2.79222    -820.808E-03    -843.459E-03    -824.129E-03         2.78948    -837.399E-03    -43.4367E-03     89.9042E-03    -44.5259E-03    -45.3577E-03    -44.9750E-03     89.5214E-03    -44.5259E-03    -14.0767E-03    -52.6820E+06    -62.4320E+06    -245.904E+06    -62.8057E+06    -245.530E+06    -52.6820E+06     8.13430E+06         26.9506
            1003     1.91311E-03     13.4953E-03         2.78964    -810.043E-03    -852.564E-03    -806.212E-03         2.78395    -850.703E-03     51.9084E-03     89.1250E-03    -44.3627E-03    -44.7473E-03    -44.5565E-03     88.9342E-03    -44.3627E-03    -9.75636E-03    -57.5170E+06    -65.5382E+06     -253.42E+06    -65.7592E+06    -253.199E+06    -57.5170E+06     6.17688E+06         26.7967
            1004     957.135E-06     13.4968E-03         2.88233    -790.448E-03    -963.903E-03    -761.498E-03         2.85152    -962.042E-03    -265.106E-03     88.5819E-03    -44.0823E-03    -44.4931E-03    -44.4294E-03     88.5182E-03    -44.0823E-03    -5.34518E-03    -64.8999E+06    -69.4508E+06    -257.089E+06    -68.5912E+06    -256.998E+06    -65.8507E+06     3.83819E+06         26.7070
            1005     16.0667E-03     12.8754E-03         2.71968    -773.374E-03    -830.248E-03    -773.322E-03         2.71963    -830.248E-03     24.4857E-03     153.010E-03    -57.2206E-03    -95.8840E-03    -74.6912E-03     131.818E-03    -57.2206E-03     126.963E-03     141.301E+06     122.970E+06    -7.54276E+06    -7.49654E+06     141.255E+06     122.970E+06     75.2371E+03         52.9783
            1006     15.1376E-03     12.6451E-03         2.73311    -783.740E-03    -836.207E-03    -783.646E-03         2.73301    -836.207E-03     31.6106E-03     158.707E-03    -55.9569E-03    -103.023E-03    -76.5214E-03     132.206E-03    -55.9569E-03     154.784E-03     134.674E+06     97.8136E+06    -15.6306E+06    -15.5231E+06     134.566E+06     97.8136E+06     274.388E+03         50.1134
            1007     14.2114E-03     12.5027E-03         2.74961    -791.277E-03    -841.874E-03    -791.044E-03         2.74938    -841.874E-03     56.4710E-03     137.274E-03    -54.4051E-03    -83.1727E-03    -74.6062E-03     128.707E-03    -54.4051E-03     78.8640E-03     124.442E+06     53.4806E+06    -20.2319E+06    -20.1205E+06     124.331E+06     53.4806E+06     1.52088E+06         46.3751
            1008     13.2828E-03     12.4407E-03         2.77212    -807.783E-03    -846.223E-03    -807.565E-03         2.77190    -846.223E-03     40.2529E-03     126.756E-03    -52.7015E-03    -74.1892E-03    -72.7992E-03     125.366E-03    -52.7015E-03     31.1102E-03     110.207E+06     7.84611E+06    -25.4745E+06    -25.3288E+06     110.062E+06     7.84611E+06     3.74212E+06         42.3496
            1009     12.3542E-03     12.4001E-03         2.79539    -823.961E-03    -849.298E-03    -823.383E-03         2.79481    -849.298E-03     60.1912E-03     122.361E-03    -51.0750E-03    -71.3133E-03    -71.0676E-03     122.115E-03    -51.0750E-03     7.24318E-03     62.6126E+06    -17.7890E+06    -28.7413E+06    -28.3754E+06     62.2467E+06    -17.7890E+06     5.05393E+06         38.7041
            1010     11.4218E-03     12.3817E-03         2.80795    -825.450E-03    -851.805E-03    -824.626E-03         2.80712    -851.805E-03     95.1679E-03     118.488E-03    -49.5582E-03    -68.9683E-03    -68.8069E-03     118.326E-03    -49.5582E-03    -9.53970E-03     5.19614E+06    -24.0494E+06    -37.7348E+06    -28.2145E+06    -10.8319E+06    -17.5416E+06     5.00072E+06         35.7011
            1011     10.4877E-03     12.3715E-03         2.82049    -830.177E-03    -854.195E-03    -829.837E-03         2.82015    -854.195E-03     53.8423E-03     114.282E-03    -48.0088E-03    -66.2367E-03    -65.6524E-03     113.697E-03    -48.0088E-03    -19.6567E-03    -13.8569E+06    -28.1036E+06    -72.0744E+06    -29.2153E+06    -70.9627E+06    -13.8569E+06     5.63898E+06         33.3650
            1012     9.54890E-03     12.3716E-03         2.83553    -843.957E-03    -859.412E-03    -847.326E-03         2.83523    -855.738E-03     51.4221E-03     109.449E-03    -46.4651E-03    -62.8889E-03    -61.7438E-03     108.304E-03    -46.4651E-03    -27.6671E-03    -13.8781E+06    -31.0426E+06    -111.014E+06    -31.8213E+06    -110.236E+06    -13.8781E+06     7.56416E+06         31.6114
            1013     8.60745E-03     12.3747E-03         2.83622    -844.698E-03    -861.757E-03    -849.704E-03         2.83593    -856.461E-03     41.4077E-03     104.275E-03    -45.0217E-03    -59.2293E-03    -57.6195E-03     102.665E-03    -45.0217E-03    -32.0981E-03    -12.8678E+06    -34.2438E+06    -137.787E+06    -35.0775E+06    -136.954E+06    -12.8678E+06     9.00405E+06         30.2303
            1014     7.66091E-03     12.3830E-03         2.83509    -845.360E-03    -858.982E-03    -846.881E-03         2.83500    -857.361E-03     23.7305E-03     98.9656E-03    -43.7133E-03    -55.2410E-03    -53.4004E-03     97.1250E-03    -43.7133E-03    -33.3762E-03    -14.4358E+06    -37.9611E+06    -161.357E+06    -38.7537E+06    -160.564E+06    -14.4358E+06     9.56258E+06         29.1072
            1015     6.71093E-03     12.3885E-03         2.84074    -849.115E-03    -862.812E-03    -853.619E-03         2.84063    -858.201E-03     13.9296E-03     94.0844E-03    -42.5905E-03    -51.4746E-03    -49.6272E-03     92.2370E-03    -42.5905E-03    -32.4703E-03    -19.7618E+06    -41.6037E+06    -182.833E+06    -42.3410E+06    -182.096E+06    -19.7618E+06     9.97993E+06         28.2250
            1016     5.75740E-03     12.3956E-03         2.84508    -850.836E-03    -863.595E-03    -855.729E-03         2.84504    -858.651E-03     6.25032E-03     89.7955E-03    -41.6578E-03    -48.1111E-03    -46.4430E-03     88.1274E-03    -41.6578E-03    -30.0113E-03    -26.9053E+06    -44.8922E+06    -199.356E+06    -45.5916E+06    -198.657E+06    -26.9053E+06     10.1605E+06         27.5440
            1017     4.80127E-03     12.4002E-03         2.85305    -851.461E-03    -867.079E-03    -859.764E-03         2.85296    -858.691E-03     2.21802E-03     86.1789E-03    -40.9447E-03    -45.2043E-03    -43.8704E-03     84.8450E-03    -40.9447E-03    -26.1667E-03    -32.3297E+06    -47.2214E+06    -217.615E+06    -47.8407E+06    -216.996E+06    -32.3297E+06     10.1119E+06         27.0238
            1018     3.84279E-03     12.4043E-03         2.85968    -850.596E-03    -871.809E-03    -864.169E-03         2.85913    -857.695E-03     38.5337E-03     83.4309E-03    -40.4438E-03    -42.9580E-03    -42.0040E-03     82.4770E-03    -40.4438E-03    -21.6511E-03    -36.4459E+06    -50.0756E+06    -234.644E+06    -50.6437E+06    -234.076E+06    -36.4459E+06     10.2209E+06         26.6379
            1019     2.88282E-03     12.4069E-03         2.85061    -846.039E-03    -864.022E-03    -851.097E-03         2.84961    -857.962E-03    -8.02185E-03     81.4748E-03    -40.0613E-03    -41.3896E-03    -40.8113E-03     80.8965E-03    -40.0613E-03    -16.5075E-03    -44.1482E+06    -54.2402E+06    -240.824E+06    -54.6988E+06    -240.365E+06    -44.1482E+06     9.10294E+06         26.3644
            1020     1.92279E-03     12.4093E-03         2.84363    -828.067E-03    -878.144E-03    -837.958E-03         2.84148    -866.107E-03     36.0398E-03     80.1624E-03    -39.8071E-03    -40.3392E-03    -40.0667E-03     79.8899E-03    -39.8071E-03    -11.0917E-03    -53.3389E+06    -59.7104E+06    -246.430E+06    -59.3331E+06    -246.203E+06    -53.9432E+06     6.16110E+06         26.1829
            1021     961.216E-06     12.4094E-03         2.89586    -804.089E-03    -953.346E-03    -804.923E-03         2.88466    -941.309E-03    -169.510E-03     79.5006E-03    -39.5347E-03    -39.9602E-03    -39.8724E-03     79.4128E-03    -39.5347E-03    -5.96380E-03    -58.8530E+06    -62.7098E+06    -249.863E+06    -62.1943E+06    -249.774E+06    -59.4573E+06     3.88336E+06         26.0762
            1022     16.0723E-03     11.7374E-03         2.74083    -776.602E-03    -847.954E-03    -776.517E-03         2.74075    -847.954E-03     26.2995E-03     157.689E-03    -56.8878E-03    -101.016E-03    -80.1864E-03     136.859E-03    -56.8878E-03     126.461E-03     141.325E+06     123.466E+06    -6.68100E+06    -6.65237E+06     141.296E+06     123.466E+06     1.13113E+06         52.6262
            1023     15.1485E-03     11.5012E-03         2.76032    -790.782E-03    -854.587E-03    -790.543E-03         2.76008    -854.587E-03     52.9688E-03     160.787E-03    -55.3332E-03    -105.804E-03    -79.8811E-03     134.863E-03    -55.3332E-03     154.354E-03     133.952E+06     96.7811E+06    -14.9139E+06    -14.8011E+06     133.839E+06     96.7811E+06     1.28662E+06         49.7837
            1024     14.2237E-03     11.3663E-03         2.78496    -803.819E-03    -860.690E-03    -803.535E-03         2.78468    -860.690E-03     57.7321E-03     138.789E-03    -53.5336E-03    -85.5607E-03    -77.6619E-03     130.891E-03    -53.5336E-03     76.4410E-03     121.094E+06     51.7951E+06    -23.2526E+06    -23.1114E+06     120.952E+06     51.7951E+06     2.29032E+06         46.0787
            1025     13.2988E-03     11.3022E-03         2.79929    -809.388E-03    -865.720E-03    -809.221E-03         2.79912    -865.720E-03     40.8871E-03     128.335E-03    -51.5833E-03    -76.9737E-03    -75.7731E-03     127.135E-03    -51.5833E-03     28.5867E-03     109.640E+06     12.5148E+06    -27.1809E+06    -27.0800E+06     109.539E+06     12.5148E+06     3.50814E+06         42.0970
            1026     12.3717E-03     11.2693E-03         2.82313    -824.775E-03    -870.012E-03    -824.227E-03         2.82258    -870.012E-03     54.5273E-03     123.689E-03    -49.6484E-03    -74.1428E-03    -73.9735E-03     123.520E-03    -49.6484E-03     4.90564E-03     65.1733E+06    -11.8073E+06    -27.3091E+06    -27.0859E+06     64.9502E+06    -11.8073E+06     3.50153E+06         38.4979
            1027     11.4430E-03     11.2540E-03         2.84342    -837.049E-03    -873.544E-03    -836.278E-03         2.84265    -873.544E-03     65.8586E-03     119.357E-03    -47.7823E-03    -71.6024E-03    -71.3586E-03     119.113E-03    -47.7823E-03    -11.9131E-03     7.85629E+06    -22.4520E+06    -36.7120E+06    -27.3826E+06    -9.63090E+06    -14.2942E+06     4.49665E+06         35.5366
            1028     10.5101E-03     11.2528E-03         2.86736    -855.902E-03    -876.051E-03    -855.578E-03         2.86703    -876.051E-03     45.6942E-03     114.249E-03    -45.8908E-03    -68.3236E-03    -67.5532E-03     113.479E-03    -45.8908E-03    -23.0081E-03    -9.58991E+06    -27.4694E+06    -72.3150E+06    -28.9701E+06    -70.8142E+06    -9.58991E+06     6.25624E+06         33.2318
            1029     9.57420E-03     11.2568E-03         2.88959    -874.099E-03    -880.512E-03    -877.689E-03         2.88951    -876.837E-03     35.2980E-03     108.393E-03    -43.9983E-03    -64.3008E-03    -62.9084E-03     107.001E-03    -43.9983E-03    -30.6390E-03    -10.4288E+06    -30.1138E+06    -112.070E+06    -30.9741E+06    -111.209E+06    -10.4288E+06     8.10889E+06         31.4944
            1030     8.63278E-03     11.2693E-03         2.88122    -865.671E-03    -880.701E-03    -869.295E-03         2.88117    -877.026E-03     18.4836E-03     102.290E-03    -42.2062E-03    -60.0597E-03    -58.1731E-03     100.403E-03    -42.2062E-03    -34.7130E-03    -8.59279E+06    -32.2408E+06    -136.838E+06    -33.1555E+06    -135.923E+06    -8.59279E+06     9.52043E+06         30.1106
            1031     7.68681E-03     11.2820E-03         2.87960    -863.678E-03    -878.107E-03    -863.629E-03         2.87955    -878.107E-03     17.3626E-03     96.0634E-03    -40.5503E-03    -55.5005E-03    -53.3217E-03     93.8846E-03    -40.5503E-03    -36.0437E-03    -6.99633E+06    -34.7993E+06    -158.890E+06    -35.5438E+06    -158.146E+06    -6.99633E+06     9.34520E+06         28.9600
            1032     6.73601E-03     11.2955E-03         2.90213    -874.506E-03    -887.128E-03    -883.138E-03         2.90208    -878.441E-03     9.62942E-03     89.9016E-03    -39.0765E-03    -50.8058E-03    -48.5926E-03     87.6884E-03    -39.0765E-03    -35.0000E-03    -11.8927E+06    -37.6650E+06    -181.339E+06    -38.3122E+06    -180.692E+06    -11.8927E+06     9.45881E+06         28.0251
            1033     5.78087E-03     11.3064E-03         2.90727    -875.604E-03    -886.325E-03    -884.580E-03         2.90723    -877.307E-03    -193.974E-06     84.3337E-03    -37.8144E-03    -46.5011E-03    -44.4969E-03     82.3294E-03    -37.8144E-03    -32.1125E-03    -19.6256E+06    -40.8163E+06    -197.116E+06    -41.4702E+06    -196.462E+06    -19.6256E+06     9.87092E+06         27.2823
            1034     4.82229E-03     11.3168E-03         2.89496    -866.293E-03    -877.965E-03    -866.581E-03         2.89492    -877.632E-03     13.6967E-03     79.6077E-03    -36.8062E-03    -42.7802E-03    -41.1543E-03     77.9818E-03    -36.8062E-03    -27.9545E-03    -26.8628E+06    -45.2383E+06    -215.309E+06    -45.8505E+06    -214.697E+06    -26.8628E+06     10.1094E+06         26.7041
            1035     3.86080E-03     11.3241E-03         2.89507    -864.061E-03    -880.672E-03    -863.979E-03         2.89499    -880.672E-03     29.1923E-03     75.7240E-03    -36.0318E-03    -39.6692E-03    -38.5062E-03     74.5610E-03    -36.0318E-03    -22.9427E-03    -34.6616E+06    -49.1610E+06    -230.685E+06    -49.7233E+06    -230.122E+06    -34.6616E+06     10.0706E+06         26.2664
            1036     2.89712E-03     11.3289E-03         2.92143    -874.867E-03    -893.855E-03    -886.375E-03         2.92099    -881.906E-03    -21.2275E-03     72.8377E-03    -35.4641E-03    -37.3540E-03    -36.6401E-03     72.1238E-03    -35.4641E-03    -17.4636E-03    -42.5439E+06    -51.2161E+06    -234.928E+06    -51.6346E+06    -234.509E+06    -42.5439E+06     8.59537E+06         25.9495
            1037     1.93155E-03     11.3320E-03         2.94039    -870.103E-03    -914.844E-03    -913.934E-03         2.93955    -870.169E-03     15.0760E-03     71.0115E-03    -35.1263E-03    -35.8722E-03    -35.5241E-03     70.6634E-03    -35.1263E-03    -11.8520E-03    -48.6434E+06    -52.9379E+06    -240.376E+06    -52.5561E+06    -240.153E+06    -49.2477E+06     6.12183E+06         25.7356
            1038     965.799E-06     11.3347E-03         2.87839    -815.972E-03    -908.432E-03    -842.743E-03         2.87244    -875.706E-03    -135.360E-03     70.1284E-03    -34.8856E-03    -35.2397E-03    -35.1280E-03     70.0167E-03    -34.8856E-03    -6.12129E-03    -51.7497E+06    -54.5450E+06    -242.670E+06    -53.2586E+06    -242.603E+06    -53.1037E+06     3.27946E+06         25.6099
            1039     16.0768E-03     10.5882E-03         2.76112    -785.142E-03    -865.688E-03    -784.905E-03         2.76089    -865.688E-03     45.2561E-03     161.837E-03    -56.6756E-03    -105.461E-03    -85.5764E-03     141.953E-03    -56.6756E-03     124.983E-03     139.674E+06     121.819E+06    -7.87469E+06    -7.84929E+06     139.648E+06     121.819E+06     949.363E+03         52.2342
            1040     15.1560E-03     10.3572E-03         2.79512    -807.916E-03    -872.497E-03    -807.433E-03         2.79464    -872.497E-03     82.0566E-03     163.608E-03    -54.8305E-03    -109.188E-03    -84.1832E-03     138.603E-03    -54.8305E-03     153.935E-03     132.314E+06     96.7608E+06    -15.3491E+06    -15.2612E+06     132.226E+06     96.7608E+06     2.54702E+06         49.4188
            1041     14.2358E-03     10.2222E-03         2.82099    -821.470E-03    -878.477E-03    -821.164E-03         2.82069    -878.477E-03     59.0783E-03     140.406E-03    -52.7876E-03    -87.9136E-03    -80.3005E-03     132.793E-03    -52.7876E-03     75.6554E-03     121.920E+06     56.3024E+06    -21.6526E+06    -21.5345E+06     121.802E+06     56.3024E+06     3.59763E+06         45.7542
            1042     13.3126E-03     10.1665E-03         2.84122    -827.956E-03    -883.325E-03    -827.714E-03         2.84097    -883.325E-03     45.1691E-03     129.184E-03    -50.6350E-03    -78.8347E-03    -77.6695E-03     128.018E-03    -50.6350E-03     28.8506E-03     111.582E+06     17.7254E+06    -25.2471E+06    -25.1699E+06     111.505E+06     17.7254E+06     2.41357E+06         41.8249
            1043     12.3878E-03     10.1344E-03         2.86382    -841.486E-03    -887.452E-03    -841.147E-03         2.86348    -887.452E-03     47.2003E-03     124.252E-03    -48.4918E-03    -75.9396E-03    -75.7358E-03     124.048E-03    -48.4918E-03     5.62448E-03     64.3620E+06    -9.31081E+06    -27.7921E+06    -27.4967E+06     64.0666E+06    -9.31081E+06     2.76814E+06         38.2852
            1044     11.4602E-03     10.1280E-03         2.88404    -853.595E-03    -890.846E-03    -853.365E-03         2.88381    -890.846E-03     32.6530E-03     119.524E-03    -46.3999E-03    -73.1598E-03    -72.9554E-03     119.319E-03    -46.3999E-03    -11.0096E-03     7.56119E+06    -22.8958E+06    -37.7459E+06    -29.7947E+06    -10.9250E+06    -12.3608E+06     5.30654E+06         35.3840
            1045     10.5301E-03     10.1304E-03         2.89305    -858.831E-03    -893.857E-03    -858.671E-03         2.89289    -893.857E-03     36.6011E-03     113.831E-03    -44.2718E-03    -69.5340E-03    -68.8213E-03     113.118E-03    -44.2718E-03    -21.8104E-03    -5.86999E+06    -30.5036E+06    -72.4242E+06    -32.4018E+06    -70.5260E+06    -5.86999E+06     6.95310E+06         33.1345
            1046     9.59365E-03     10.1470E-03         2.90382    -868.241E-03    -896.584E-03    -868.023E-03         2.90361    -896.584E-03     51.7167E-03     107.251E-03    -42.1148E-03    -65.0413E-03    -63.7502E-03     105.960E-03    -42.1148E-03    -29.4813E-03    -7.57729E+06    -33.7401E+06    -111.874E+06    -34.5917E+06    -111.023E+06    -7.57729E+06     7.25050E+06         31.4433
            1047     8.65227E-03     10.1643E-03         2.93152    -884.864E-03    -905.668E-03    -892.436E-03         2.93135    -897.928E-03     39.2934E-03     100.435E-03    -40.0465E-03    -60.3626E-03    -58.6210E-03     98.6934E-03    -40.0465E-03    -33.1329E-03    -6.50374E+06    -33.3989E+06    -134.562E+06    -33.9124E+06    -134.049E+06    -6.50374E+06     6.38860E+06         30.0921
            1048     7.70701E-03     10.1862E-03         2.94147    -892.808E-03    -905.402E-03    -900.485E-03         2.94141    -897.662E-03     28.2366E-03     93.7032E-03    -38.1154E-03    -55.5812E-03    -53.5304E-03     91.6524E-03    -38.1154E-03    -34.6855E-03    -1.86844E+06    -32.6880E+06    -157.089E+06    -33.0785E+06    -156.698E+06    -1.86844E+06     6.60137E+06         28.9566
            1049     6.75613E-03     10.2069E-03         2.93778    -888.950E-03    -901.508E-03    -892.882E-03         2.93763    -897.433E-03     36.5652E-03     86.6984E-03    -36.3367E-03    -50.3424E-03    -48.2474E-03     84.6033E-03    -36.3367E-03    -33.5908E-03    -4.43219E+06    -34.1829E+06    -180.456E+06    -34.6732E+06    -179.966E+06    -4.43219E+06     8.20342E+06         28.0185
            1050     5.80017E-03     10.2255E-03         2.94079    -890.002E-03    -901.971E-03    -894.188E-03         2.94069    -897.684E-03     7.37922E-03     80.0312E-03    -34.7575E-03    -45.2559E-03    -43.3513E-03     78.1266E-03    -34.7575E-03    -30.6303E-03    -12.1576E+06    -37.2984E+06    -195.516E+06    -37.8697E+06    -194.945E+06    -12.1576E+06     9.38130E+06         27.2578
            1051     4.83968E-03     10.2400E-03         2.93535    -890.571E-03    -898.633E-03    -890.676E-03         2.93524    -898.421E-03     15.2946E-03     74.3214E-03    -33.4537E-03    -40.8539E-03    -39.2948E-03     72.7623E-03    -33.4537E-03    -26.5742E-03    -18.7025E+06    -40.3050E+06    -213.158E+06    -40.8725E+06    -212.590E+06    -18.7025E+06     9.75248E+06         26.6548
            1052     3.87586E-03     10.2519E-03         2.93734    -889.192E-03    -903.455E-03    -892.651E-03         2.93721    -899.857E-03     34.0130E-03     69.5884E-03    -32.3852E-03    -37.1906E-03    -36.0609E-03     68.4586E-03    -32.3852E-03    -21.7676E-03    -26.7978E+06    -43.0097E+06    -225.734E+06    -43.4564E+06    -225.287E+06    -26.7978E+06     8.92971E+06         26.1905
            1053     2.90907E-03     10.2594E-03         2.95551    -893.484E-03    -918.346E-03    -913.764E-03         2.95544    -898.001E-03     7.15205E-03     65.7725E-03    -31.5434E-03    -34.2169E-03    -33.5096E-03     65.0652E-03    -31.5434E-03    -16.6274E-03    -35.0225E+06    -45.8444E+06    -229.079E+06    -46.0962E+06    -228.828E+06    -35.0225E+06     6.48062E+06         25.8478
            1054     1.94059E-03     10.2652E-03         2.94869    -871.967E-03    -928.155E-03    -909.012E-03         2.94830    -890.719E-03     21.2276E-03     63.1540E-03    -30.9664E-03    -32.1793E-03    -31.8220E-03     62.7967E-03    -30.9664E-03    -11.3702E-03    -39.2146E+06    -47.1972E+06    -234.651E+06    -47.3038E+06    -234.544E+06    -39.2146E+06     4.19709E+06         25.6135
            1055     970.769E-06     10.2665E-03         2.92683    -841.210E-03    -933.527E-03    -859.269E-03         2.92420    -912.839E-03    -100.691E-03     61.5262E-03    -30.5460E-03    -30.9781E-03    -30.8618E-03     61.4099E-03    -30.5460E-03    -5.96611E-03    -45.2524E+06    -49.5752E+06    -237.969E+06    -48.8945E+06    -237.900E+06    -46.0021E+06     3.31094E+06         25.4757
            1056     16.0751E-03     9.43018E-03         2.77631    -797.094E-03    -882.881E-03    -796.566E-03         2.77578    -882.881E-03     82.5854E-03     165.597E-03    -56.6383E-03    -109.183E-03    -90.1337E-03     146.547E-03    -56.6383E-03     123.445E-03     138.494E+06     121.463E+06    -8.16339E+06    -8.12564E+06     138.456E+06     121.463E+06     1.49236E+06         51.7948
            1057     15.1628E-03     9.20796E-03         2.81736    -821.323E-03    -889.690E-03    -820.664E-03         2.81670    -889.690E-03     97.4682E-03     165.722E-03    -54.5934E-03    -111.466E-03    -87.2114E-03     141.467E-03    -54.5934E-03     153.481E-03     131.813E+06     100.506E+06    -15.2653E+06    -15.1868E+06     131.734E+06     100.506E+06     2.51519E+06         49.0005
            1058     14.2435E-03     9.07765E-03         2.84039    -829.654E-03    -895.909E-03    -829.046E-03         2.83978    -895.909E-03     88.6448E-03     141.539E-03    -52.3911E-03    -89.4318E-03    -81.6120E-03     133.719E-03    -52.3911E-03     78.3973E-03     123.151E+06     59.6682E+06    -20.4592E+06    -20.3530E+06     123.045E+06     59.6682E+06     2.78776E+06         45.3747
            1059     13.3207E-03     9.02810E-03         2.87455    -846.337E-03    -901.000E-03    -845.555E-03         2.87377    -901.000E-03     101.709E-03     130.063E-03    -50.1164E-03    -80.2393E-03    -78.6818E-03     128.506E-03    -50.1164E-03     33.9063E-03     110.530E+06     16.6401E+06    -25.4594E+06    -25.2139E+06     110.284E+06     16.6401E+06     3.37781E+06         41.5129
            1060     12.3958E-03     8.99971E-03         2.90592    -865.103E-03    -904.869E-03    -864.286E-03         2.90510    -904.869E-03     110.071E-03     124.189E-03    -47.9133E-03    -76.4725E-03    -76.1719E-03     123.888E-03    -47.9133E-03     10.0532E-03     63.1796E+06    -7.09159E+06    -29.4887E+06    -29.0139E+06     62.7048E+06    -7.09159E+06     4.62539E+06         38.0573
            1061     11.4688E-03     9.00097E-03         2.92261    -874.761E-03    -907.813E-03    -874.153E-03         2.92201    -907.813E-03     94.8584E-03     118.416E-03    -45.7852E-03    -72.6759E-03    -72.5989E-03     118.339E-03    -45.7852E-03    -5.58421E-03     8.97283E+06    -20.8151E+06    -41.1577E+06    -31.6634E+06    -12.9531E+06    -8.38355E+06     6.15028E+06         35.2424
            1062     10.5367E-03     9.01151E-03         2.92686    -875.250E-03    -910.586E-03    -874.943E-03         2.92655    -910.586E-03     47.7332E-03     112.845E-03    -43.6139E-03    -69.2182E-03    -68.8149E-03     112.442E-03    -43.6139E-03    -15.4183E-03    -1.82503E+06    -32.9186E+06    -72.5115E+06    -35.1136E+06    -70.3164E+06    -1.82503E+06     7.57594E+06         33.0791
            1063     9.60261E-03     9.03552E-03         2.93056    -876.245E-03    -913.726E-03    -876.044E-03         2.93036    -913.726E-03     29.5543E-03     106.375E-03    -41.3789E-03    -64.9290E-03    -64.1220E-03     105.568E-03    -41.3789E-03    -22.8644E-03    -738.742E+03    -35.7625E+06    -104.988E+06    -36.3175E+06    -104.434E+06    -738.742E+03     4.06087E+06         31.4709
            1064     8.66242E-03     9.06265E-03         2.95974    -891.977E-03    -923.879E-03    -899.566E-03         2.95958    -916.139E-03     31.6423E-03     99.0927E-03    -39.1771E-03    -59.8957E-03    -58.7963E-03     97.9933E-03    -39.1771E-03    -25.6392E-03    -3.25112E+06    -34.7304E+06    -132.124E+06    -34.8606E+06    -131.994E+06    -3.25112E+06    -59.8522E+03         30.1941
            1065     7.71630E-03     9.09128E-03         2.98368    -909.067E-03    -924.370E-03    -916.748E-03         2.98362    -916.630E-03     3.43806E-03     92.0821E-03    -37.1148E-03    -54.9553E-03    -53.6314E-03     90.7582E-03    -37.1148E-03    -27.1647E-03     1.08659E+06    -33.1271E+06    -159.878E+06    -33.2861E+06    -159.719E+06     1.08659E+06     1.56713E+06         29.1186
            1066     6.76591E-03     9.12036E-03         2.97592    -905.080E-03    -917.005E-03    -904.849E-03         2.97569    -917.005E-03     34.1998E-03     85.1286E-03    -35.1735E-03    -49.9274E-03    -48.5637E-03     83.7649E-03    -35.1735E-03    -26.4836E-03     3.55537E+06    -33.2670E+06    -181.004E+06    -33.4936E+06    -180.777E+06     3.55537E+06     4.85866E+06         28.2230
            1067     5.81010E-03     9.14698E-03         2.97774    -905.729E-03    -918.677E-03    -905.605E-03         2.97740    -918.465E-03     7.24789E-03     78.1780E-03    -33.3577E-03    -44.7917E-03    -43.5495E-03     76.9358E-03    -33.3577E-03    -24.1049E-03    -1.35326E+06    -33.8243E+06    -194.311E+06    -34.1456E+06    -193.990E+06    -1.35326E+06     6.38228E+06         27.4881
            1068     4.84945E-03     9.16827E-03         2.99091    -915.564E-03    -926.653E-03    -923.245E-03         2.99064    -918.700E-03    -746.991E-06     71.9391E-03    -31.7685E-03    -40.1452E-03    -39.1050E-03     70.8988E-03    -31.7685E-03    -21.1230E-03    -7.15050E+06    -35.2660E+06    -211.096E+06    -35.5532E+06    -210.809E+06    -7.15050E+06     6.88743E+06         26.8972
            1069     3.88482E-03     9.18463E-03         2.99111    -915.183E-03    -930.787E-03    -929.514E-03         2.99099    -916.336E-03     29.4432E-03     66.4959E-03    -30.4033E-03    -36.0824E-03    -35.2942E-03     65.7076E-03    -30.4033E-03    -17.6292E-03    -13.5598E+06    -37.3156E+06    -221.038E+06    -37.5241E+06    -220.830E+06    -13.5598E+06     5.58531E+06         26.4358
            1070     2.91707E-03     9.19714E-03         2.97610    -906.419E-03    -925.331E-03    -917.902E-03         2.97607    -913.823E-03     12.6633E-03     61.8937E-03    -29.2502E-03    -32.6418E-03    -32.1339E-03     61.3858E-03    -29.2502E-03    -13.5644E-03    -21.4702E+06    -38.6039E+06    -224.165E+06    -38.7007E+06    -224.068E+06    -21.4702E+06     3.35917E+06         26.0919
            1071     1.94634E-03     9.20478E-03         2.96673    -889.543E-03    -924.040E-03    -894.222E-03         2.96662    -919.242E-03    -15.0053E-03     58.3585E-03    -28.3538E-03    -29.9993E-03    -29.7450E-03     58.1043E-03    -28.3538E-03    -9.14432E-03    -30.8595E+06    -42.1045E+06    -230.982E+06    -42.1332E+06    -230.953E+06    -30.8595E+06     2.00186E+06         25.8555
            1072     973.722E-06     9.20937E-03         3.02729    -888.968E-03    -962.465E-03    -888.335E-03         3.02666    -962.465E-03    -72.3849E-03     55.9594E-03    -27.6643E-03    -28.2923E-03    -28.2083E-03     55.8754E-03    -27.6643E-03    -4.96052E-03    -39.8133E+06    -45.6200E+06    -234.517E+06    -45.6536E+06    -234.484E+06    -39.8133E+06     1.41869E+06         25.7158
            1073     16.0768E-03     8.27499E-03         2.78090    -794.786E-03    -897.862E-03    -793.936E-03         2.78005    -897.862E-03     108.885E-03     169.857E-03    -56.9172E-03    -113.101E-03    -93.3600E-03     150.116E-03    -56.9172E-03     124.925E-03     138.300E+06     122.224E+06    -8.12992E+06    -8.07978E+06     138.250E+06     122.224E+06     2.11861E+06         51.2957
            1074     15.1597E-03     8.04911E-03         2.82612    -815.085E-03    -905.402E-03    -814.294E-03         2.82532    -905.402E-03     104.924E-03     167.384E-03    -54.8020E-03    -112.847E-03    -87.6789E-03     142.216E-03    -54.8020E-03     156.701E-03     131.163E+06     101.337E+06    -15.4990E+06    -15.4161E+06     131.081E+06     101.337E+06     1.94148E+06         48.5111
            1075     14.2405E-03     7.93895E-03         2.87150    -836.711E-03    -912.244E-03    -835.965E-03         2.87076    -912.244E-03     103.314E-03     142.688E-03    -52.6160E-03    -90.3010E-03    -81.7960E-03     134.183E-03    -52.6160E-03     84.2786E-03     120.621E+06     58.4479E+06    -23.0203E+06    -22.7683E+06     120.369E+06     58.4479E+06     3.45005E+06         44.9195
            1076     13.3171E-03     7.88411E-03         2.91381    -858.888E-03    -917.557E-03    -858.127E-03         2.91305    -917.557E-03     99.4157E-03     130.898E-03    -50.4002E-03    -80.6659E-03    -78.2527E-03     128.484E-03    -50.4002E-03     42.3022E-03     109.020E+06     17.8184E+06    -28.7820E+06    -28.3897E+06     108.628E+06     17.8184E+06     5.14527E+06         41.1453
            1077     12.3945E-03     7.86869E-03         2.94375    -878.198E-03    -921.531E-03    -877.626E-03         2.94318    -921.531E-03     85.1678E-03     123.035E-03    -48.3223E-03    -74.8401E-03    -74.2733E-03     122.469E-03    -48.3223E-03     18.5532E-03     62.8689E+06    -2.46476E+06    -32.5988E+06    -31.4724E+06     61.7425E+06    -2.46476E+06     6.79186E+06         37.8046
            1078     11.4635E-03     7.87527E-03         2.96838    -899.435E-03    -924.176E-03    -898.951E-03         2.96789    -924.176E-03     59.5717E-03     116.607E-03    -46.3949E-03    -70.2559E-03    -70.0858E-03     116.437E-03    -46.3949E-03     6.24945E-03     11.7239E+06    -20.8644E+06    -42.9800E+06    -35.8746E+06    -13.4659E+06    -2.77997E+06     7.39575E+06         35.1084
            1079     10.5317E-03     7.89363E-03         2.98398    -913.742E-03    -926.577E-03    -914.633E-03         2.98378    -925.489E-03     6.20578E-03     110.986E-03    -44.4625E-03    -66.5197E-03    -66.3576E-03     110.824E-03    -44.4625E-03    -1.86501E-03     4.70981E+06    -34.6778E+06    -67.7611E+06    -36.9860E+06    -65.4529E+06     4.70981E+06     3.63667E+06         33.0705
            1080     9.59446E-03     7.92461E-03         2.98727    -914.107E-03    -927.312E-03    -915.166E-03         2.98724    -926.224E-03     1.47802E-03     105.102E-03    -42.4910E-03    -62.6100E-03    -62.3522E-03     104.844E-03    -42.4910E-03    -7.02187E-03     9.03866E+06    -33.9551E+06    -97.4864E+06    -34.3806E+06    -97.0609E+06     9.03866E+06    -2.23334E+06         31.5918
            1081     8.65385E-03     7.96146E-03         2.97981    -900.717E-03    -927.946E-03    -900.703E-03         2.97980    -927.946E-03     7.97322E-03     98.9275E-03    -40.4943E-03    -58.4487E-03    -58.1231E-03     98.6019E-03    -40.4943E-03    -8.53369E-03     6.72304E+06    -33.5980E+06    -131.687E+06    -33.9662E+06    -131.319E+06     6.72304E+06    -5.18180E+06         30.4396
            1082     7.70849E-03     7.99768E-03         2.98325    -897.541E-03    -931.192E-03    -897.362E-03         2.98307    -931.192E-03    -35.8036E-03     92.7525E-03    -38.5246E-03    -54.2251E-03    -53.8236E-03     92.3510E-03    -38.5246E-03    -9.64704E-03     5.85029E+06    -34.3793E+06    -164.645E+06    -34.6842E+06    -164.340E+06     5.85029E+06    -4.36356E+06         29.4741
            1083     6.75846E-03     8.03452E-03         3.00166    -910.331E-03    -934.600E-03    -909.877E-03         3.00120    -934.600E-03     10.8390E-03     86.8743E-03    -36.6042E-03    -50.2601E-03    -49.8382E-03     86.4524E-03    -36.6042E-03    -10.4148E-03     11.0829E+06    -33.8113E+06    -183.013E+06    -34.0114E+06    -182.813E+06     11.0829E+06    -2.04694E+06         28.6657
            1084     5.80445E-03     8.06814E-03         3.02218    -924.995E-03    -939.215E-03    -927.144E-03         3.02174    -936.635E-03     16.5469E-03     80.7693E-03    -34.6780E-03    -46.0852E-03    -45.7011E-03     80.3852E-03    -34.6780E-03    -10.2788E-03     9.60215E+06    -34.1079E+06    -195.613E+06    -34.1777E+06    -195.543E+06     9.60215E+06     686.498E+03         27.9923
            1085     4.84636E-03     8.09608E-03         3.03828    -934.181E-03    -946.490E-03    -944.266E-03         3.03804    -936.164E-03    -3.22773E-03     74.5120E-03    -32.8356E-03    -41.6658E-03    -41.3252E-03     74.1714E-03    -32.8356E-03    -9.84532E-03     2.16053E+06    -35.4278E+06    -209.694E+06    -35.5197E+06    -209.602E+06     2.16053E+06     1.64446E+06         27.4420
            1086     3.88372E-03     8.11862E-03         3.03462    -931.880E-03    -944.742E-03    -942.648E-03         3.03453    -933.882E-03     31.3754E-03     68.4942E-03    -31.1610E-03    -37.3317E-03    -37.0572E-03     68.2197E-03    -31.1610E-03    -8.78417E-03    -7.14450E+06    -36.3933E+06    -217.362E+06    -36.4692E+06    -217.286E+06    -7.14450E+06    -274.904E+03         27.0079
            1087     2.91680E-03     8.13625E-03         3.01873    -922.845E-03    -942.940E-03    -933.491E-03         3.01868    -932.251E-03     2.36188E-03     63.2398E-03    -29.7164E-03    -33.5209E-03    -33.3350E-03     63.0539E-03    -29.7164E-03    -7.15703E-03    -17.5183E+06    -38.1644E+06    -223.133E+06    -38.2186E+06    -223.079E+06    -17.5183E+06    -1.57970E+06         26.6825
            1088     1.94679E-03     8.14830E-03         3.02249    -918.037E-03    -951.572E-03    -940.520E-03         3.02239    -928.984E-03    -23.2932E-03     59.0523E-03    -28.5666E-03    -30.4780E-03    -30.3795E-03     58.9538E-03    -28.5666E-03    -5.10236E-03    -28.5661E+06    -39.3812E+06    -230.458E+06    -39.4089E+06    -230.430E+06    -28.5661E+06    -914.394E+03         26.4576
            1089     974.249E-06     8.15526E-03         3.02554    -901.447E-03    -951.386E-03    -925.863E-03         3.02505    -926.480E-03    -59.6977E-03     56.1253E-03    -27.7067E-03    -28.4173E-03    -28.3821E-03     56.0901E-03    -27.7067E-03    -2.93859E-03    -36.1205E+06    -40.4066E+06    -232.730E+06    -39.2648E+06    -232.715E+06    -37.2764E+06    -522.201E+03         26.3237
            1090     16.0619E-03     7.11202E-03         2.78369    -776.943E-03    -910.169E-03    -775.361E-03         2.78211    -910.169E-03     146.888E-03     173.211E-03    -57.8209E-03    -115.587E-03    -94.5396E-03     152.163E-03    -57.8209E-03     128.273E-03     138.271E+06     123.624E+06    -8.39921E+06    -8.31586E+06     138.187E+06     123.624E+06     2.94891E+06         50.7214
            1091     15.1461E-03     6.89569E-03         2.85419    -816.934E-03    -918.510E-03    -815.632E-03         2.85289    -918.510E-03     133.596E-03     169.591E-03    -55.7813E-03    -114.106E-03    -86.8541E-03     142.339E-03    -55.7813E-03     163.676E-03     129.848E+06     102.064E+06    -16.9971E+06    -16.8397E+06     129.690E+06     102.064E+06     2.95897E+06         47.9383
            1092     14.2252E-03     6.79323E-03         2.92205    -857.993E-03    -924.988E-03    -857.184E-03         2.92124    -924.988E-03     107.940E-03     143.956E-03    -53.7709E-03    -90.3789E-03    -80.3198E-03     133.897E-03    -53.7709E-03     92.8948E-03     118.725E+06     60.1981E+06    -24.8001E+06    -24.4720E+06     118.396E+06     60.1981E+06     4.84396E+06         44.3812
            1093     13.3031E-03     6.74317E-03         2.96129    -882.243E-03    -929.303E-03    -881.868E-03         2.96091    -929.303E-03     63.8568E-03     129.874E-03    -51.8690E-03    -78.0786E-03    -74.1517E-03     125.947E-03    -51.8690E-03     54.4468E-03     106.603E+06     22.0657E+06    -31.9389E+06    -30.9154E+06     105.580E+06     22.0657E+06     8.47016E+06         40.7144
            1094     12.3715E-03     6.74041E-03         2.98028    -897.384E-03    -932.386E-03    -897.261E-03         2.98015    -932.386E-03     39.6449E-03     120.492E-03    -50.2595E-03    -70.2871E-03    -68.5027E-03     118.708E-03    -50.2595E-03     34.7080E-03     62.0777E+06     2.73510E+06    -40.8398E+06    -39.0335E+06     60.2714E+06     2.73510E+06     10.2165E+06         37.5202
            1095     11.4389E-03     6.75099E-03         2.99550    -907.976E-03    -934.745E-03    -907.844E-03         2.99536    -934.745E-03     15.9022E-03     114.221E-03    -48.9111E-03    -65.3414E-03    -63.9706E-03     112.850E-03    -48.9111E-03     27.7773E-03     17.2758E+06    -17.4510E+06    -43.6757E+06    -41.0059E+06    -7.07805E+06     4.23295E+06     4.06980E+06         34.9776
            1096     10.5008E-03     6.77807E-03         3.01484    -921.094E-03    -937.383E-03    -922.141E-03         3.01480    -936.295E-03    -4.66145E-03     109.141E-03    -47.6609E-03    -61.5033E-03    -60.2674E-03     107.905E-03    -47.6609E-03     23.6791E-03     11.5107E+06    -33.4490E+06    -61.6199E+06    -37.3892E+06    -57.6797E+06     11.5107E+06    -5.33701E+06         33.1068
            1097     9.55979E-03     6.81482E-03         3.02790    -931.370E-03    -937.928E-03    -932.401E-03         3.02785    -936.840E-03     2.18273E-03     105.527E-03    -46.4024E-03    -59.1565E-03    -57.9436E-03     104.314E-03    -46.4024E-03     21.7491E-03     15.8602E+06    -32.9825E+06    -98.0829E+06    -35.0340E+06    -96.0313E+06     15.8602E+06    -9.81295E+06         31.8200
            1098     8.61686E-03     6.85729E-03         3.01631    -912.565E-03    -938.066E-03    -912.464E-03         3.01621    -938.066E-03     7.56766E-03     102.612E-03    -45.0296E-03    -57.6030E-03    -56.4745E-03     101.483E-03    -45.0296E-03     20.4388E-03     17.4360E+06    -33.0754E+06    -134.432E+06    -34.2400E+06    -133.268E+06     17.4360E+06    -10.0992E+06         30.8744
            1099     7.67202E-03     6.90163E-03         3.01326    -899.825E-03    -941.662E-03    -899.574E-03         3.01301    -941.662E-03    -25.4226E-03     99.0353E-03    -43.4739E-03    -55.5657E-03    -54.6190E-03     98.0886E-03    -43.4739E-03     18.3967E-03     14.3163E+06    -33.2574E+06    -167.155E+06    -34.2952E+06    -166.117E+06     14.3163E+06    -11.1118E+06         30.0881
            1100     6.72502E-03     6.94278E-03         3.03255    -917.309E-03    -945.992E-03    -916.927E-03         3.03216    -945.992E-03    -12.8351E-03     95.1926E-03    -41.8003E-03    -53.3961E-03    -52.5891E-03     94.3855E-03    -41.8003E-03     16.0106E-03     17.2260E+06    -33.7617E+06    -188.398E+06    -34.6168E+06    -187.543E+06     17.2260E+06    -10.4646E+06         29.4039
            1101     5.77609E-03     6.98241E-03         3.05202    -936.529E-03    -951.217E-03    -938.615E-03         3.05153    -948.637E-03    -14.8308E-03     90.6667E-03    -39.9572E-03    -50.7201E-03    -50.1441E-03     90.0907E-03    -39.9572E-03     12.4890E-03     18.4758E+06    -34.4465E+06    -199.996E+06    -34.9589E+06    -199.484E+06     18.4758E+06    -7.52390E+06         28.8110
            1102     4.82326E-03     7.01735E-03         3.05754    -945.702E-03    -951.955E-03    -947.921E-03         3.05717    -949.370E-03    -28.7866E-03     84.9055E-03    -37.9925E-03    -46.9223E-03    -46.5488E-03     84.5319E-03    -37.9925E-03     8.93576E-03     8.62673E+06    -34.5044E+06    -209.328E+06    -34.9078E+06    -208.925E+06     8.62673E+06    -6.85379E+06         28.3207
            1103     3.86602E-03     7.04741E-03         3.06167    -945.376E-03    -956.489E-03    -953.016E-03         3.06156    -948.736E-03    -1.26708E-03     78.7868E-03    -36.1039E-03    -42.6889E-03    -42.4690E-03     78.5670E-03    -36.1039E-03     5.91978E-03    -4.55176E+06    -35.4183E+06    -218.080E+06    -35.7495E+06    -217.749E+06    -4.55176E+06    -6.87505E+06         27.9339
            1104     2.90448E-03     7.06991E-03         3.07257    -942.165E-03    -969.765E-03    -967.553E-03         3.07236    -944.168E-03    -45.7198E-03     73.0360E-03    -34.4068E-03    -38.6279E-03    -38.5154E-03     72.9235E-03    -34.4068E-03     3.36810E-03    -20.4670E+06     -37.983E+06    -225.941E+06    -38.1663E+06    -225.758E+06    -20.4670E+06    -5.64215E+06         27.6426
            1105     1.93899E-03     7.08732E-03         3.05681    -930.067E-03    -965.587E-03    -962.742E-03         3.05663    -932.725E-03    -28.7851E-03     68.1931E-03    -33.0463E-03    -35.1453E-03    -35.0990E-03     68.1468E-03    -33.0463E-03     1.59590E-03    -32.2416E+06    -40.4480E+06    -232.438E+06    -40.5696E+06    -232.317E+06    -32.2416E+06    -4.53114E+06         27.4401
            1106     970.347E-06     7.09787E-03         3.01173    -883.016E-03    -967.515E-03    -907.452E-03         3.01126    -942.609E-03    -43.5635E-03     64.8718E-03    -32.1045E-03    -32.7678E-03    -32.7522E-03     64.8562E-03    -32.1045E-03     579.374E-06    -36.7216E+06    -43.0397E+06    -235.742E+06    -41.9446E+06    -235.682E+06    -37.8775E+06    -2.39646E+06         27.3193
            1107     16.0370E-03     5.94464E-03         2.81883    -787.142E-03    -919.730E-03    -784.614E-03         2.81630    -919.730E-03     187.959E-03     175.818E-03    -59.5380E-03    -116.443E-03    -94.3012E-03     153.676E-03    -59.5380E-03     130.976E-03     138.226E+06     124.406E+06    -8.54736E+06    -8.27306E+06     137.951E+06     124.406E+06     5.31959E+06         50.0642
            1108     15.1159E-03     5.74175E-03         2.89556    -833.165E-03    -927.161E-03    -831.687E-03         2.89408    -927.161E-03     145.541E-03     171.001E-03    -57.7255E-03    -113.539E-03    -83.9654E-03     141.428E-03    -57.7255E-03     170.872E-03     130.152E+06     104.792E+06    -18.0399E+06    -17.7315E+06     129.844E+06     104.792E+06     5.13677E+06         47.2702
            1109     14.1949E-03     5.64289E-03         2.95518    -869.345E-03    -932.706E-03    -868.619E-03         2.95446    -932.706E-03     99.5947E-03     142.703E-03    -56.1541E-03    -86.7170E-03    -74.0791E-03     130.065E-03    -56.1541E-03     103.367E-03     114.097E+06     60.9525E+06    -28.1949E+06    -27.4164E+06     113.319E+06     60.9525E+06     7.45578E+06         43.7483
            1110     13.2622E-03     5.61403E-03         2.99562    -898.850E-03    -936.316E-03    -898.622E-03         2.99539    -936.316E-03     50.9052E-03     126.404E-03    -54.9646E-03    -71.5260E-03    -64.7749E-03     119.653E-03    -54.9646E-03     70.5035E-03     101.551E+06     24.7091E+06    -38.7556E+06    -37.0539E+06     99.8490E+06     24.7091E+06     13.1736E+06         40.2224
            1111     12.3254E-03     5.61241E-03         3.01381    -910.817E-03    -938.732E-03    -910.755E-03         3.01375    -938.732E-03     24.1933E-03     117.153E-03    -54.1314E-03    -63.0762E-03    -57.6141E-03     111.870E-03    -54.3098E-03     58.3823E-03     68.7615E+06     14.4675E+06    -42.4015E+06    -41.2850E+06     67.6450E+06     14.4675E+06     9.49827E+06         37.2172
            1112     11.3814E-03     5.63612E-03         3.01529    -906.149E-03    -941.185E-03    -906.089E-03         3.01523    -941.185E-03    -362.124E-06     113.213E-03    -53.5483E-03    -59.7014E-03    -53.7943E-03     107.802E-03    -54.0443E-03     57.2622E-03     25.6848E+06    -4.40544E+06    -44.7696E+06    -40.5070E+06     3.58045E+06     13.4364E+06    -4.55142E+06         34.8574
            1113     10.4346E-03     5.66474E-03         3.02876    -914.380E-03    -943.843E-03    -914.343E-03         3.02872    -943.843E-03    -3.57159E-03     111.382E-03    -53.1732E-03    -58.2519E-03    -52.3507E-03     106.242E-03    -53.9347E-03     55.6398E-03     18.0811E+06    -27.2104E+06    -65.3637E+06    -38.5521E+06    -54.0221E+06     18.0811E+06    -14.1156E+06         33.1827
            1114     9.48803E-03     5.70729E-03         3.04577    -927.916E-03    -945.877E-03    -927.702E-03         3.04555    -945.877E-03    -30.1109E-03     111.624E-03    -53.3184E-03    -58.3184E-03    -52.8094E-03     106.558E-03    -53.7622E-03     55.6110E-03     22.6531E+06    -32.2355E+06    -103.790E+06    -37.6628E+06    -98.3629E+06     22.6531E+06    -17.8916E+06         32.1421
            1115     8.54322E-03     5.74660E-03         3.04797    -926.390E-03    -947.699E-03    -926.129E-03         3.04771    -947.699E-03    -27.7382E-03     112.680E-03    -53.3742E-03    -59.2996E-03    -54.6140E-03     107.995E-03    -53.3742E-03     54.0784E-03     25.4211E+06    -31.9040E+06    -141.542E+06    -36.0040E+06    -137.442E+06     25.4211E+06    -19.5689E+06         31.4875
            1116     7.60172E-03     5.79541E-03         3.06272    -930.529E-03    -952.227E-03    -932.927E-03         3.06254    -949.647E-03    -21.4256E-03     112.980E-03    -52.6383E-03    -60.3348E-03    -56.1999E-03     108.845E-03    -52.6383E-03     51.1257E-03     25.3980E+06    -30.5164E+06    -172.132E+06    -33.3686E+06    -169.280E+06     25.3980E+06    -19.2993E+06         30.9681
            1117     6.65921E-03     5.83845E-03         3.07464    -937.550E-03    -953.867E-03    -939.967E-03         3.07448    -951.288E-03    -20.8626E-03     112.054E-03    -51.5289E-03    -60.5195E-03    -57.0130E-03     108.548E-03    -51.5289E-03     47.1131E-03     20.4530E+06    -30.5290E+06    -195.673E+06    -32.7349E+06    -193.467E+06     20.4530E+06    -18.5787E+06         30.4751
            1118     5.71709E-03     5.88182E-03         3.06754    -934.894E-03    -953.548E-03    -934.483E-03         3.06713    -953.548E-03    -41.1857E-03     109.286E-03    -50.0708E-03    -59.2141E-03    -56.6190E-03     106.691E-03    -50.0708E-03     40.0861E-03     14.7803E+06    -31.6798E+06    -206.595E+06    -33.4363E+06    -204.838E+06     14.7803E+06    -16.9750E+06         30.0025
            1119     4.77339E-03     5.92290E-03         3.07314    -942.713E-03    -956.408E-03    -942.315E-03         3.07274    -956.408E-03    -45.8807E-03     105.059E-03    -48.3274E-03    -56.7334E-03    -54.9113E-03     103.237E-03    -48.3274E-03     32.8067E-03     2.44174E+06    -34.1683E+06    -213.476E+06    -35.4688E+06    -212.176E+06     2.44174E+06    -14.8377E+06         29.5906
            1120     3.82642E-03     5.95919E-03         3.08919    -949.154E-03    -965.485E-03    -956.769E-03         3.08906    -957.738E-03     6.04690E-03     99.7343E-03    -46.5004E-03    -53.2361E-03    -52.0863E-03     98.5845E-03    -46.5004E-03     25.1848E-03    -11.6046E+06    -37.7898E+06    -224.147E+06    -38.5763E+06    -223.361E+06    -11.6046E+06    -11.7051E+06         29.2621
            1121     2.87529E-03     5.98846E-03         3.10047    -946.106E-03    -974.264E-03    -963.837E-03         3.10018    -956.243E-03    -8.21553E-03     93.9218E-03    -44.7764E-03    -49.1486E-03    -48.5229E-03     93.2961E-03    -44.7764E-03     17.7808E-03    -25.3815E+06    -40.7780E+06    -231.477E+06    -41.1245E+06    -231.131E+06    -25.3815E+06    -7.92659E+06         29.0185
            1122     1.91979E-03     6.01066E-03         3.08406    -940.670E-03    -965.971E-03    -950.604E-03         3.08372    -955.697E-03    -22.1804E-03     88.8620E-03    -43.3654E-03    -45.4997E-03    -45.2153E-03     88.5775E-03    -43.3654E-03     11.3384E-03    -37.4691E+06    -44.5699E+06    -236.813E+06    -44.7487E+06    -236.635E+06    -37.4691E+06    -5.71522E+06         28.8526
            1123     960.824E-06     6.02595E-03         3.08501    -889.859E-03        -1.02296    -889.676E-03         3.08483        -1.02296    -15.6577E-03     85.4452E-03    -42.3402E-03    -43.1046E-03    -43.0154E-03     85.3561E-03    -42.3402E-03     5.91299E-03    -44.7271E+06    -50.7222E+06    -242.829E+06    -49.8059E+06    -242.708E+06    -45.7638E+06    -4.40597E+06         28.7533
            1124     15.9950E-03     4.78036E-03         2.89199    -827.870E-03    -925.857E-03    -823.873E-03         2.88800    -925.857E-03     238.217E-03     178.431E-03    -62.3336E-03    -116.214E-03    -90.2469E-03     152.464E-03    -62.3336E-03     145.769E-03     138.189E+06     123.787E+06    -8.59326E+06    -8.14909E+06     137.745E+06     123.787E+06     7.33363E+06         49.3186
            1125     15.0747E-03     4.57899E-03         2.95882    -863.943E-03    -931.159E-03    -862.046E-03         2.95692    -931.159E-03     161.530E-03     174.304E-03    -60.9741E-03    -113.442E-03    -79.0149E-03     139.878E-03    -60.9741E-03     184.380E-03     125.614E+06     103.276E+06    -20.4514E+06    -19.0345E+06     124.198E+06     103.276E+06     10.1085E+06         46.5138
            1126     14.1400E-03     4.51070E-03         2.99585    -880.942E-03    -935.252E-03    -880.421E-03         2.99533    -935.252E-03     79.4015E-03     139.935E-03    -59.9402E-03    -80.0715E-03    -63.2292E-03     123.340E-03    -60.1870E-03     115.322E-03     111.989E+06     67.6511E+06    -34.4740E+06    -32.4101E+06     109.925E+06     67.6511E+06     14.2703E+06         43.0522
            1127     13.1978E-03     4.48326E-03         3.01933    -895.979E-03    -938.624E-03    -895.794E-03         3.01915    -938.624E-03     9.32490E-03     122.295E-03    -57.0861E-03    -65.2747E-03    -50.0258E-03     110.096E-03    -60.1353E-03     90.0134E-03     103.294E+06     33.4069E+06    -39.4782E+06    -38.4117E+06     102.227E+06     33.4069E+06     10.3062E+06         39.7239
            1128     12.2445E-03     4.50525E-03         3.03112    -906.878E-03    -941.526E-03    -906.690E-03         3.03093    -941.526E-03    -26.4016E-03     117.412E-03    -55.6976E-03    -61.7908E-03    -44.6358E-03     105.371E-03    -60.8114E-03     86.5702E-03     78.1460E+06     21.1900E+06    -36.4703E+06    -36.1162E+06     77.7919E+06     21.1900E+06     1.40513E+06         36.9550
            1129     11.2875E-03     4.52000E-03         3.03916    -908.255E-03    -944.407E-03    -908.123E-03         3.03902    -944.407E-03    -39.8508E-03     117.967E-03    -56.1172E-03    -61.8889E-03    -44.7933E-03     106.643E-03    -61.8889E-03     85.0453E-03     35.4238E+06     4.70934E+06    -44.5494E+06    -36.4172E+06     12.6543E+06     19.3465E+06    -11.0304E+06         34.7955
            1130     10.3366E-03     4.55685E-03         3.04236    -906.140E-03    -947.826E-03    -906.062E-03         3.04228    -947.826E-03    -26.2341E-03     119.945E-03    -56.9558E-03    -62.9966E-03    -46.7496E-03     109.739E-03    -62.9966E-03     82.0624E-03     16.2061E+06    -20.0252E+06    -72.1656E+06    -37.5657E+06    -54.6251E+06     16.2061E+06    -21.7625E+06         33.3066
            1131     9.38641E-03     4.59000E-03         3.05714    -919.102E-03    -951.312E-03    -918.812E-03         3.05684    -951.312E-03    -50.0409E-03     123.625E-03    -59.2453E-03    -64.3675E-03    -50.0610E-03     114.093E-03    -64.0200E-03     81.0368E-03     20.6759E+06    -26.3453E+06    -111.135E+06    -36.2429E+06    -101.237E+06     20.6759E+06    -26.3201E+06         32.4874
            1132     8.44167E-03     4.63035E-03         3.07805    -941.334E-03    -954.820E-03    -942.388E-03         3.07774    -953.458E-03    -44.5994E-03     127.156E-03    -61.1498E-03    -66.0172E-03    -53.8963E-03     118.724E-03    -64.8385E-03     77.9751E-03     22.8666E+06    -27.0605E+06    -150.296E+06    -34.9030E+06    -142.454E+06     22.8666E+06    -29.6973E+06         32.1308
            1133     7.49945E-03     4.67224E-03         3.08554    -944.778E-03    -958.264E-03    -948.589E-03         3.08540    -954.323E-03    -26.3124E-03     131.300E-03    -63.4291E-03    -67.9071E-03    -58.4191E-03     123.666E-03    -65.2837E-03     75.9373E-03     20.6309E+06    -27.6682E+06    -183.893E+06    -33.8696E+06    -177.692E+06     20.6309E+06    -29.8103E+06         31.9386
            1134     6.56477E-03     4.71452E-03         3.08228    -938.420E-03    -958.177E-03    -940.850E-03         3.08214    -955.597E-03    -19.1423E-03     134.082E-03    -64.8541E-03    -69.2537E-03    -62.4461E-03     127.635E-03    -65.2143E-03     70.9635E-03     11.0272E+06    -28.6174E+06    -205.653E+06    -32.7340E+06    -201.536E+06     11.0272E+06    -26.3108E+06         31.7462
            1135     5.63061E-03     4.75886E-03         3.08048    -936.425E-03    -958.267E-03    -936.231E-03         3.08029    -958.267E-03    -24.8539E-03     134.134E-03    -64.6505E-03    -69.4875E-03    -64.4961E-03     129.143E-03    -64.6505E-03     62.7433E-03    -1.51893E+06    -30.9575E+06    -215.147E+06    -33.7578E+06    -212.347E+06    -1.51893E+06    -22.4228E+06         31.5205
            1136     4.69697E-03     4.80209E-03         3.08545    -937.756E-03    -962.306E-03    -937.526E-03         3.08522    -962.306E-03    -11.2488E-03     132.678E-03    -63.7456E-03    -68.9287E-03    -65.2320E-03     128.981E-03    -63.7456E-03     53.8298E-03    -13.6240E+06    -35.6519E+06    -223.335E+06    -37.3951E+06    -221.592E+06    -13.6240E+06    -17.6581E+06         31.2804
            1137     3.76320E-03     4.84176E-03         3.08930    -938.985E-03    -968.110E-03    -938.827E-03         3.08914    -968.110E-03     28.2641E-03     129.871E-03    -62.6281E-03    -67.2439E-03    -64.7263E-03     127.354E-03    -62.6281E-03     43.9108E-03    -25.7126E+06    -40.6802E+06    -232.774E+06    -41.5866E+06    -231.868E+06    -25.7126E+06    -12.9771E+06         31.0664
            1138     2.82672E-03     4.87750E-03         3.10170    -944.094E-03    -976.790E-03    -943.940E-03         3.10155    -976.790E-03     9.90831E-03     126.186E-03    -61.4441E-03    -64.7457E-03    -63.2425E-03     124.683E-03    -61.4441E-03     33.2711E-03    -33.3622E+06    -45.6617E+06    -239.446E+06    -46.1125E+06    -238.995E+06    -33.3622E+06    -9.05438E+06         30.9055
            1139     1.88662E-03     4.90454E-03         3.13509    -961.219E-03    -988.646E-03    -960.945E-03         3.13481    -988.646E-03    -34.4929E-03     122.461E-03    -60.3572E-03    -62.1064E-03    -61.3970E-03     121.752E-03    -60.3572E-03     22.1263E-03    -42.5510E+06    -48.9408E+06    -244.231E+06    -49.0786E+06    -244.093E+06    -42.5510E+06    -4.47424E+06         30.7918
            1140     944.273E-06     4.92226E-03         3.17023    -947.716E-03        -1.04319    -946.988E-03         3.16951        -1.04319     12.2932E-03     119.649E-03    -59.5027E-03    -60.1400E-03    -59.8663E-03     119.418E-03    -59.5461E-03     12.1053E-03    -52.0144E+06    -54.3635E+06    -249.334E+06    -52.7176E+06    -249.254E+06    -53.7404E+06    -1.82173E+06         30.7174
            1141     15.9195E-03     3.59419E-03         2.96070    -857.459E-03    -927.928E-03    -851.717E-03         2.95496    -927.928E-03     290.749E-03     180.642E-03    -66.5531E-03    -114.175E-03    -83.0567E-03     149.524E-03    -66.5531E-03     171.807E-03     134.832E+06     122.942E+06    -7.69118E+06    -6.33011E+06     133.471E+06     122.942E+06     11.3237E+06         48.4855
            1142     14.9916E-03     3.42527E-03         3.03571    -900.425E-03    -931.073E-03    -898.141E-03         3.03342    -931.073E-03     144.387E-03     174.400E-03    -65.7744E-03    -108.603E-03    -74.4156E-03     140.213E-03    -65.7744E-03     182.409E-03     120.312E+06     100.728E+06    -25.6480E+06    -23.1325E+06     117.797E+06     100.728E+06     16.2836E+06         45.6790
            1143     14.0593E-03     3.37137E-03         3.04715    -897.720E-03    -933.250E-03    -897.373E-03         3.04680    -933.250E-03     25.6069E-03     134.050E-03    -60.5323E-03    -73.4869E-03    -49.9196E-03     115.818E-03    -65.8668E-03     115.469E-03     117.880E+06     79.5214E+06    -29.4864E+06    -27.7977E+06     116.191E+06     79.5214E+06     13.3639E+06         42.4111
            1144     13.0978E-03     3.38263E-03         3.03311    -885.794E-03    -936.320E-03    -885.588E-03         3.03291    -936.320E-03    -34.1557E-03     121.317E-03    -54.2342E-03    -67.0800E-03    -37.4220E-03     104.505E-03    -67.0800E-03     103.123E-03     111.873E+06     40.8598E+06    -27.5167E+06    -27.2893E+06     111.646E+06     40.8598E+06     3.24612E+06         39.3720
            1145     12.1303E-03     3.38592E-03         3.03459    -891.926E-03    -940.125E-03    -891.665E-03         3.03433    -940.125E-03    -60.6103E-03     122.468E-03    -53.5178E-03    -68.9791E-03    -37.8777E-03     106.827E-03    -68.9791E-03     100.008E-03     83.2432E+06     8.54649E+06    -30.5855E+06    -27.0092E+06     82.5398E+06     5.67361E+06    -5.42994E+06         36.8587
            1146     11.1765E-03     3.40553E-03         3.04117    -897.346E-03    -944.094E-03    -897.027E-03         3.04085    -944.094E-03    -64.0540E-03     125.702E-03    -54.5510E-03    -71.1451E-03    -41.2537E-03     112.404E-03    -71.1451E-03     93.9626E-03     34.1103E+06    -4.23621E+06    -39.8747E+06    -27.2261E+06     17.3762E+06    -150.613E+03    -15.0870E+06         34.8983
            1147     10.2202E-03     3.43377E-03         3.04108    -892.075E-03    -948.784E-03    -891.820E-03         3.04083    -948.784E-03    -47.9214E-03     130.740E-03    -57.4040E-03    -73.3411E-03    -45.6268E-03     118.962E-03    -73.3411E-03     91.0180E-03     3.80008E+06    -18.3147E+06    -72.5351E+06    -29.0108E+06    -53.5389E+06    -4.49998E+06    -26.1990E+06         33.5461
            1148     9.27338E-03     3.46020E-03         3.05707    -902.408E-03    -954.069E-03    -902.279E-03         3.05694    -954.069E-03    -32.3120E-03     136.627E-03    -61.1306E-03    -75.4808E-03    -50.5447E-03     126.042E-03    -75.4808E-03     88.7295E-03     1.65692E+06    -23.5426E+06    -119.094E+06    -29.8550E+06    -106.079E+06    -5.04511E+06    -33.2189E+06         32.8415
            1149     8.32895E-03     3.49702E-03         3.08586    -935.073E-03    -959.220E-03    -936.276E-03         3.08570    -957.858E-03    -9.83414E-03     142.599E-03    -65.0316E-03    -77.5210E-03    -55.7530E-03     133.321E-03    -77.5210E-03     85.6621E-03     628.518E+03    -21.8652E+06    -158.120E+06    -30.2305E+06    -148.310E+06    -816.668E+03    -34.9956E+06         32.6826
            1150     7.39026E-03     3.52946E-03         3.08808    -948.615E-03    -960.891E-03    -949.824E-03         3.08793    -959.529E-03    -13.7502E-03     149.455E-03    -70.1093E-03    -79.3184E-03    -61.7608E-03     141.106E-03    -79.3184E-03     83.7114E-03    -4.77823E+06    -25.1948E+06    -197.398E+06    -32.8050E+06    -189.788E+06    -4.77823E+06    -34.9847E+06         32.7960
            1151     6.45628E-03     3.56519E-03         3.07830    -941.953E-03    -961.353E-03    -941.758E-03         3.07811    -961.353E-03    -14.8074E-03     155.327E-03    -74.2890E-03    -81.0175E-03    -67.6730E-03     148.418E-03    -80.7248E-03     78.1310E-03    -12.1102E+06    -30.5475E+06    -220.043E+06    -35.6727E+06    -214.917E+06    -12.1102E+06    -30.4636E+06         32.9674
            1152     5.52968E-03     3.60661E-03         3.09150    -945.928E-03    -964.132E-03    -945.705E-03         3.09127    -964.132E-03    -18.7112E-03     159.707E-03    -77.1297E-03    -82.5770E-03    -72.4685E-03     154.177E-03    -81.7078E-03     71.3429E-03    -21.8362E+06    -35.6947E+06    -227.233E+06    -38.5925E+06    -224.335E+06    -21.8362E+06    -22.9706E+06         33.1223
            1153     4.60587E-03     3.64760E-03         3.10361    -947.674E-03    -967.561E-03    -947.469E-03         3.10340    -967.561E-03    -25.1310E-03     162.617E-03    -79.0195E-03    -83.6037E-03    -75.9911E-03     158.335E-03    -82.3503E-03     63.5854E-03    -30.9505E+06    -40.2476E+06    -235.307E+06    -41.6435E+06    -233.911E+06    -30.9505E+06    -15.9722E+06         33.2316
            1154     3.68321E-03     3.68844E-03         3.10099    -942.148E-03    -973.472E-03    -942.026E-03         3.10087    -973.472E-03    -13.2343E-03     164.574E-03    -80.5608E-03    -84.0161E-03    -78.8257E-03     161.538E-03    -82.7155E-03     53.9250E-03    -39.2525E+06    -45.0729E+06    -241.926E+06    -45.7154E+06    -241.283E+06    -39.2525E+06    -10.8896E+06         33.3011
            1155     2.76221E-03     3.72435E-03         3.11142    -947.868E-03    -983.464E-03    -947.784E-03         3.11134    -983.464E-03    -34.3955E-03     165.675E-03    -81.6989E-03    -83.9720E-03    -80.9899E-03     163.801E-03    -82.8069E-03     42.3592E-03    -44.5407E+06    -50.1838E+06    -247.944E+06    -49.8515E+06    -247.629E+06    -45.1880E+06    -7.39075E+06         33.3492
            1156     1.84295E-03     3.75402E-03         3.15021    -972.232E-03    -998.262E-03    -976.284E-03         3.15011    -994.112E-03    -34.9332E-03     165.600E-03    -82.2433E-03    -83.3577E-03    -82.0332E-03     164.689E-03    -82.6576E-03     29.1359E-03    -48.7412E+06    -54.5990E+06    -252.129E+06    -54.0447E+06    -252.036E+06    -49.3884E+06    -3.65340E+06         33.3751
            1157     921.592E-06     3.77505E-03         3.18804    -971.936E-03        -1.02682    -975.155E-03         3.18711        -1.02267    -13.4956E-03     164.971E-03    -82.3514E-03    -82.6139E-03    -82.2157E-03     164.666E-03    -82.4442E-03     16.2403E-03    -53.0436E+06    -57.0691E+06    -253.505E+06    -56.4038E+06    -253.481E+06    -53.7329E+06    -270.081E+03         33.3816
            1158     15.8245E-03     2.40096E-03         3.05210    -889.918E-03    -926.563E-03    -884.966E-03         3.04454    -923.963E-03     297.492E-03     184.730E-03    -71.4412E-03    -113.299E-03    -81.3716E-03     152.803E-03    -71.4412E-03     181.004E-03     132.549E+06     120.631E+06    -13.5472E+06    -10.8313E+06     129.833E+06     120.631E+06     15.4886E+06         47.7645
            1159     14.9164E-03     2.25378E-03         3.07814    -891.394E-03    -925.567E-03    -890.349E-03         3.07709    -925.567E-03     54.0767E-03     159.546E-03    -63.2872E-03    -96.2201E-03    -66.3571E-03     137.661E-03    -71.2652E-03     137.912E-03     125.996E+06     109.070E+06    -17.2561E+06    -14.3900E+06     123.130E+06     109.070E+06     17.2762E+06         45.0114
            1160     13.9594E-03     2.26947E-03         3.05107    -872.172E-03    -928.387E-03    -872.111E-03         3.05100    -928.387E-03    -27.0002E-03     125.882E-03    -52.9958E-03    -72.8338E-03    -39.0956E-03     111.430E-03    -72.2825E-03     97.0314E-03     125.291E+06     84.6518E+06    -13.8394E+06    -13.5537E+06     125.005E+06     84.6518E+06     4.60404E+06         42.0675
            1161     12.9878E-03     2.26301E-03         3.03701    -867.151E-03    -932.749E-03    -867.031E-03         3.03689    -932.749E-03    -35.6719E-03     125.114E-03    -50.7297E-03    -74.3813E-03    -36.7718E-03     111.156E-03    -74.3813E-03     93.5558E-03     118.042E+06     34.6844E+06    -15.9309E+06    -15.8592E+06     117.970E+06     34.6844E+06    -563.526E+03         39.3815
            1162     12.0335E-03     2.26787E-03         3.03298    -870.646E-03    -937.872E-03    -870.519E-03         3.03285    -937.872E-03    -35.7435E-03     126.975E-03    -50.1426E-03    -76.8376E-03    -39.1391E-03     115.972E-03    -76.8376E-03     83.7202E-03     86.3998E+06    -8.16785E+06    -32.9224E+06    -18.8610E+06     85.7182E+06    -21.5477E+06    -5.92015E+06         37.1064
            1163     11.0686E-03     2.27947E-03         3.03874    -878.468E-03    -943.382E-03    -878.251E-03         3.03852    -943.382E-03    -38.6803E-03     130.782E-03    -51.1340E-03    -79.6406E-03    -42.2040E-03     121.852E-03    -79.6406E-03     76.8044E-03     32.5118E+06    -23.5887E+06    -50.6846E+06    -19.9221E+06     21.4361E+06    -43.2755E+06    -15.1172E+06         35.3123
            1164     10.1181E-03     2.29756E-03         3.05174    -890.140E-03    -948.978E-03    -889.931E-03         3.05153    -948.978E-03    -31.0795E-03     137.762E-03    -55.1281E-03    -82.7181E-03    -47.3214E-03     129.956E-03    -82.7181E-03     74.0961E-03    -3.75734E+06    -39.5066E+06    -74.5486E+06    -20.7156E+06    -51.2833E+06    -45.8135E+06    -25.2197E+06         34.0490
            1165     9.16724E-03     2.31840E-03         3.06292    -901.384E-03    -954.511E-03    -901.200E-03         3.06274    -954.511E-03    -30.1575E-03     145.388E-03    -59.6158E-03    -85.8691E-03    -52.7138E-03     138.486E-03    -85.8691E-03     71.8736E-03    -12.5163E+06    -47.6241E+06    -121.547E+06    -23.4820E+06    -110.581E+06    -47.6241E+06    -32.1537E+06         33.3630
            1166     8.22476E-03     2.34327E-03         3.07271    -911.978E-03    -960.023E-03    -911.745E-03         3.07247    -960.023E-03    -33.7371E-03     154.381E-03    -65.3109E-03    -89.0635E-03    -59.0163E-03     148.087E-03    -89.0635E-03     71.5145E-03    -19.0970E+06    -41.1316E+06    -166.813E+06    -28.0192E+06    -158.424E+06    -40.5983E+06    -33.1917E+06         33.2390
            1167     7.28880E-03     2.36684E-03         3.09266    -932.693E-03    -964.819E-03    -932.455E-03         3.09242    -964.819E-03    -41.3770E-03     163.770E-03    -71.5325E-03    -92.1753E-03    -65.8335E-03     158.071E-03    -92.1753E-03     70.6583E-03    -25.3162E+06    -39.0565E+06    -207.252E+06    -32.8588E+06    -201.765E+06    -37.0012E+06    -30.3427E+06         33.5284
            1168     6.35920E-03     2.39350E-03         3.10690    -950.804E-03    -968.054E-03    -950.468E-03         3.10656    -968.054E-03    -3.33025E-03     172.080E-03    -76.8860E-03    -95.1357E-03    -72.2491E-03     167.443E-03    -95.1357E-03     65.7545E-03    -32.1316E+06    -42.2118E+06    -233.761E+06    -38.8285E+06    -230.073E+06    -39.2029E+06    -25.9569E+06         34.0210
            1169     5.43400E-03     2.42468E-03         3.11874    -959.670E-03    -973.372E-03    -963.098E-03         3.11853    -969.728E-03     18.9311E-03     180.603E-03    -82.6212E-03    -97.9575E-03    -78.8325E-03     176.814E-03    -97.9575E-03     61.3299E-03    -39.7906E+06    -46.5961E+06    -242.236E+06    -44.7894E+06    -240.257E+06    -43.5764E+06    -19.0031E+06         34.5738
            1170     4.51639E-03     2.45942E-03         3.13263    -964.646E-03    -977.048E-03    -971.614E-03         3.13256    -970.009E-03    -22.4311E-03     189.504E-03    -88.9716E-03    -100.532E-03    -85.9273E-03     186.460E-03    -100.532E-03     56.5331E-03    -45.8545E+06    -48.7837E+06    -246.105E+06    -49.1367E+06    -245.239E+06    -46.3669E+06    -12.4916E+06         35.1204
            1171     3.60479E-03     2.49223E-03         3.12302    -956.701E-03    -974.661E-03    -960.028E-03         3.12295    -971.267E-03    -28.3812E-03     197.585E-03    -94.8721E-03    -102.721E-03    -92.6819E-03     195.395E-03    -102.721E-03     49.0420E-03    -50.0615E+06    -52.4070E+06    -250.237E+06    -52.2213E+06    -249.914E+06    -50.5696E+06    -7.52594E+06         35.6175
            1172     2.69916E-03     2.52211E-03         3.11672    -956.631E-03    -976.078E-03    -956.505E-03         3.11660    -976.078E-03    -9.30418E-03     204.174E-03    -99.6652E-03    -104.505E-03    -98.3119E-03     202.821E-03    -104.505E-03     39.1278E-03    -52.2611E+06    -56.1024E+06    -254.945E+06    -55.0596E+06    -254.832E+06    -53.4164E+06    -4.41703E+06         36.0262
            1173     1.79609E-03     2.54861E-03         3.13101    -959.966E-03    -988.913E-03    -963.874E-03         3.13077    -984.763E-03     32.9496E-03     209.313E-03    -103.469E-03    -105.838E-03    -102.789E-03     208.633E-03    -105.838E-03     27.8033E-03    -53.6273E+06    -58.9078E+06    -257.072E+06    -57.9659E+06    -257.025E+06    -54.6155E+06    -2.82993E+06         36.3187
            1174     897.959E-06     2.56599E-03         3.16462    -945.937E-03        -1.03622    -948.195E-03         3.16273        -1.03207     58.4313E-03     212.679E-03    -105.949E-03    -106.721E-03    -105.871E-03     212.442E-03    -106.562E-03     15.8765E-03    -56.7076E+06    -60.0703E+06    -258.105E+06    -59.4600E+06     -258.08E+06    -57.3429E+06    -2.12633E+06         36.4940
            1175     15.7665E-03     1.14287E-03         3.18402    -881.801E-03    -929.733E-03    -891.062E-03         3.17808    -914.529E-03     195.181E-03     196.011E-03    -72.4352E-03    -123.636E-03    -94.8614E-03     171.118E-03    -76.3173E-03     164.224E-03     134.903E+06     126.824E+06    -8.47770E+06    -4.73808E+06     131.163E+06     126.824E+06     8.88894E+06         47.5419
            1176     14.8440E-03     1.14825E-03         3.07861    -837.168E-03    -917.253E-03    -836.914E-03         3.07836    -917.253E-03    -26.1083E-03     143.908E-03    -59.9032E-03    -84.1402E-03    -58.3132E-03     134.458E-03    -76.2809E-03     85.5099E-03     136.128E+06     118.371E+06    -2.54586E+06    -3.56025E+03     133.586E+06     118.371E+06     5.09646E+06         45.0349
            1177     13.8676E-03     1.14472E-03         3.03188    -827.733E-03    -923.010E-03    -827.587E-03         3.03173    -923.010E-03    -37.7896E-03     129.210E-03    -51.5288E-03    -77.7245E-03    -44.1291E-03     121.810E-03    -77.7245E-03     66.7195E-03     132.829E+06     81.3328E+06    -3.86603E+06    -3.72663E+06     132.689E+06     81.3328E+06     3.04865E+06         42.4017
            1178     12.9194E-03     1.13391E-03         3.02611    -838.579E-03    -929.661E-03    -838.401E-03         3.02593    -929.661E-03    -45.6488E-03     128.747E-03    -48.9491E-03    -79.8854E-03    -43.2289E-03     123.027E-03    -79.8854E-03     56.0649E-03     120.456E+06     25.6854E+06    -8.33635E+06    -8.27133E+06     120.391E+06     25.6854E+06     153.851E+03         39.9833
            1179     11.9566E-03     1.13651E-03         3.02684    -851.547E-03    -936.432E-03    -851.456E-03         3.02675    -936.432E-03    -32.3327E-03     129.001E-03    -46.6588E-03    -82.4020E-03    -42.7015E-03     125.044E-03    -82.4020E-03     46.8592E-03     88.9160E+06    -9.04514E+06    -39.4835E+06    -11.1069E+06     88.6428E+06    -37.1486E+06    -3.02854E+06         37.8856
            1180     11.0055E-03     1.14407E-03         3.04108    -868.534E-03    -943.068E-03    -868.433E-03         3.04098    -943.068E-03    -31.2173E-03     133.710E-03    -48.2148E-03    -85.4790E-03    -45.0681E-03     130.563E-03    -85.4790E-03     42.9331E-03     34.9260E+06    -20.2162E+06    -78.2289E+06    -12.5090E+06     27.2188E+06    -78.2289E+06    -9.67292E+06         36.2014
            1181     10.0477E-03     1.15080E-03         3.05863    -889.135E-03    -949.141E-03    -889.071E-03         3.05857    -949.141E-03    -13.7987E-03     141.048E-03    -52.0568E-03    -89.0646E-03    -49.4640E-03     138.456E-03    -89.0646E-03     40.0794E-03    -5.65472E+06    -55.6265E+06    -93.0623E+06    -14.9503E+06    -49.6228E+06    -89.7705E+06    -17.0396E+06         34.9922
            1182     9.10116E-03     1.16333E-03         3.06745    -903.284E-03    -954.666E-03    -903.045E-03         3.06721    -954.666E-03    -5.85933E-03     150.153E-03    -57.4159E-03    -92.8997E-03    -55.2150E-03     147.952E-03    -92.8997E-03     37.8095E-03    -15.2037E+06    -85.5252E+06    -124.070E+06    -20.3025E+06    -114.737E+06    -89.7599E+06    -19.8973E+06         34.2935
            1183     8.15681E-03     1.17655E-03         3.07183    -910.042E-03    -960.284E-03    -909.677E-03         3.07147    -960.284E-03    -2.92097E-03     160.373E-03    -63.6008E-03    -96.8921E-03    -61.5170E-03     158.289E-03    -96.8921E-03     38.1957E-03    -24.1641E+06    -83.3923E+06    -171.571E+06    -27.7302E+06    -168.005E+06    -83.3923E+06    -20.1179E+06         34.1141
            1184     7.21986E-03     1.18531E-03         3.09105    -925.794E-03    -965.833E-03    -925.444E-03         3.09070    -965.833E-03    -34.2543E-03     170.889E-03    -69.8753E-03    -101.049E-03    -67.8970E-03     168.911E-03    -101.049E-03     38.5662E-03    -33.0492E+06    -73.3873E+06    -213.927E+06    -35.4368E+06    -211.539E+06    -73.3873E+06    -18.4917E+06         34.4110
            1185     6.29032E-03     1.20131E-03         3.11461    -950.805E-03    -969.882E-03    -950.441E-03         3.11425    -969.882E-03    -41.2462E-03     182.090E-03    -76.7088E-03    -105.338E-03    -75.0523E-03     180.434E-03    -105.338E-03     37.0085E-03    -41.3945E+06    -64.7617E+06    -243.229E+06    -42.7702E+06    -241.853E+06    -64.7617E+06    -15.2449E+06         35.0518
            1186     5.36722E-03     1.22065E-03         3.12277    -958.522E-03    -975.808E-03    -962.015E-03         3.12262    -972.165E-03    -4.19364E-03     194.698E-03    -84.9856E-03    -109.642E-03    -83.5964E-03     193.308E-03    -109.642E-03     35.2965E-03    -48.2331E+06    -58.3775E+06    -253.215E+06    -49.0083E+06    -252.440E+06    -58.3775E+06    -10.7736E+06         35.8732
            1187     4.45176E-03     1.23758E-03         3.12837    -961.371E-03    -980.546E-03    -968.402E-03         3.12837    -973.507E-03    -7.89508E-03     208.099E-03    -94.2903E-03    -113.765E-03    -93.1648E-03     206.973E-03    -113.765E-03     32.7804E-03    -53.1062E+06    -56.5791E+06    -254.398E+06    -54.1427E+06    -254.044E+06    -55.8971E+06    -6.84829E+06         36.7591
            1188     3.54789E-03     1.25591E-03         3.13451    -964.856E-03    -985.246E-03    -976.490E-03         3.13448    -973.583E-03    -12.1408E-03     221.024E-03    -103.478E-03    -117.533E-03    -102.658E-03     220.204E-03    -117.533E-03     28.8873E-03    -56.0624E+06    -58.6431E+06    -256.838E+06    -57.4417E+06    -256.694E+06    -57.4081E+06    -4.06709E+06         37.6246
            1189     2.65085E-03     1.27560E-03         3.13531    -965.496E-03    -985.905E-03    -979.382E-03         3.13519    -971.906E-03     16.4641E-03     232.661E-03    -111.842E-03    -120.807E-03    -111.324E-03     232.143E-03    -120.807E-03     23.6451E-03    -57.4349E+06    -60.4647E+06    -259.325E+06    -59.7766E+06    -259.269E+06    -58.1793E+06    -2.11941E+06         38.3808
            1190     1.76265E-03     1.29040E-03         3.12877    -953.244E-03    -987.487E-03    -968.944E-03         3.12820    -971.219E-03     16.1150E-03     242.324E-03    -118.911E-03    -123.391E-03    -118.649E-03     242.062E-03    -123.391E-03     16.8104E-03    -58.0655E+06    -62.0039E+06    -260.006E+06    -61.4560E+06    -259.977E+06    -58.6427E+06    -2.23136E+06         38.9411
            1191     878.550E-06     1.30131E-03         3.11929    -933.323E-03        -1.01217    -952.708E-03         3.11719    -990.685E-03     35.0302E-03     248.950E-03    -123.656E-03    -125.280E-03    -123.950E-03     248.859E-03    -124.894E-03     9.31109E-03    -61.8054E+06    -64.2681E+06    -262.361E+06    -63.6640E+06    -262.330E+06    -62.4406E+06    -675.526E+03         39.2758
            1192     943.645E-06     62.7964E-03         2.28986    -349.480E-03        -1.13705    -993.577E-03         2.14641    -349.506E-03     588.013E-03     116.417E-03    -57.9730E-03    -58.4479E-03    -58.3963E-03     116.417E-03    -58.0242E-03     279.694E-06    -69.4646E+06    -71.1500E+06    -269.727E+06    -71.0898E+06    -269.715E+06    -69.5372E+06    -287.045E+03         29.0047
            1193     1.88740E-03     62.7976E-03         2.21494    -676.708E-03    -730.462E-03    -698.238E-03         2.18274    -676.734E-03    -114.442E-03     116.497E-03    -58.1174E-03    -58.3886E-03    -58.2436E-03     116.496E-03    -58.2615E-03     772.680E-06    -62.8504E+06    -68.5863E+06    -267.076E+06    -68.5907E+06    -267.072E+06    -62.8504E+06     495.145E+03         29.0917
            1194     2.83115E-03     62.7987E-03         2.23344    -682.018E-03    -738.967E-03    -719.876E-03         2.21979    -687.467E-03     94.4698E-03     116.429E-03    -58.1274E-03    -58.3136E-03    -58.1395E-03     116.426E-03    -58.2987E-03     1.33597E-03    -52.4237E+06    -64.3725E+06    -260.572E+06    -64.3781E+06    -260.566E+06    -52.4237E+06     614.357E+03         29.2424
            1195     3.77471E-03     62.7999E-03         2.21453    -682.324E-03    -720.181E-03    -703.222E-03         2.20923    -693.987E-03    -49.8280E-03     116.427E-03    -58.1275E-03    -58.3176E-03    -58.1181E-03     116.418E-03    -58.3176E-03     2.45932E-03    -40.6869E+06    -59.3976E+06    -252.595E+06    -59.4020E+06    -252.591E+06    -40.6869E+06     331.189E+03         29.4596
            1196     4.71870E-03     62.8028E-03         2.18982    -677.408E-03    -702.065E-03    -682.961E-03         2.18731    -694.004E-03     34.5510E-03     116.346E-03    -58.0446E-03    -58.3275E-03    -58.0228E-03     116.324E-03    -58.3275E-03     3.84043E-03    -29.5926E+06    -54.3590E+06    -237.735E+06    -54.3606E+06    -237.733E+06    -29.5926E+06     331.226E+03         29.7451
            1197     5.66223E-03     62.8077E-03         2.16898    -669.026E-03    -691.630E-03    -668.471E-03         2.16777    -690.974E-03    -15.7174E-03     116.166E-03    -57.8981E-03    -58.3009E-03    -57.8523E-03     116.120E-03    -58.3009E-03     5.54363E-03    -21.3395E+06    -49.7891E+06    -216.615E+06    -49.7949E+06    -216.610E+06    -21.3395E+06     331.094E+03         30.1148
            1198     6.60630E-03     62.8132E-03         2.15632    -663.284E-03    -687.378E-03    -662.875E-03         2.15579    -687.259E-03     17.9749E-03     116.022E-03    -57.7994E-03    -58.2543E-03    -57.7132E-03     115.936E-03    -58.2543E-03     7.66152E-03    -14.9963E+06    -45.7524E+06    -193.104E+06    -45.7622E+06    -193.094E+06    -14.9963E+06     84.9245E+03         30.5957
            1199     7.55085E-03     62.8228E-03         2.14894    -659.946E-03    -683.857E-03    -659.736E-03         2.14873    -683.857E-03    -12.1777E-03     116.064E-03    -57.8810E-03    -58.2151E-03    -57.7431E-03     115.926E-03    -58.2151E-03     9.73700E-03    -8.20218E+06    -41.2352E+06    -168.466E+06    -41.2438E+06    -168.457E+06    -8.20218E+06    -27.3922E+03         31.2123
            1200     8.49424E-03     62.8337E-03         2.13780    -648.612E-03    -680.389E-03    -648.533E-03         2.13772    -680.389E-03     28.0121E-03     115.980E-03    -57.8291E-03    -58.1735E-03    -57.6061E-03     115.757E-03    -58.1735E-03     12.3365E-03    -3.03574E+06    -36.9337E+06    -141.937E+06    -36.9458E+06    -141.925E+06    -3.03574E+06     59.4483E+03         31.9803
            1201     9.43836E-03     62.8486E-03         2.12807    -640.306E-03    -676.572E-03    -640.240E-03         2.12801    -676.572E-03     18.7844E-03     115.815E-03    -57.6893E-03    -58.1026E-03    -57.2382E-03     115.364E-03    -58.1026E-03     17.3373E-03    -1.63356E+06    -33.4237E+06    -111.134E+06    -33.4428E+06    -111.115E+06    -1.63356E+06     115.406E+03         33.0644
            1202     10.3834E-03     62.8711E-03         2.12510    -640.931E-03    -673.009E-03    -640.853E-03         2.12502    -673.009E-03    -7.89964E-03     115.822E-03    -57.7916E-03    -58.0101E-03    -57.0952E-03     115.126E-03    -58.0101E-03     21.9160E-03    -2.21593E+06    -30.5426E+06    -71.9246E+06    -30.6124E+06    -71.8549E+06    -2.21593E+06     143.354E+03         34.7615
            1203     11.3272E-03     62.8949E-03         2.10571    -626.037E-03    -669.355E-03    -625.726E-03         2.10540    -669.355E-03     21.1914E-03     115.998E-03    -57.8530E-03    -58.1675E-03    -57.0080E-03     114.877E-03    -57.8917E-03     27.4995E-03     8.23315E+06    -21.6689E+06    -37.9683E+06    -28.3350E+06    -14.6911E+06    -8.37800E+06     210.331E+03         37.1876
            1204     12.2719E-03     62.9291E-03         2.08393    -609.394E-03    -664.856E-03    -609.107E-03         2.08364    -664.856E-03     29.5703E-03     117.027E-03    -57.8020E-03    -59.2492E-03    -56.9263E-03     114.704E-03    -57.8020E-03     39.5082E-03     65.1543E+06    -4.38230E+06    -27.2213E+06    -27.1832E+06     65.1162E+06    -4.38230E+06     208.582E+03         40.3034
            1205     13.2155E-03     62.9807E-03         2.07647    -606.263E-03    -660.022E-03    -606.218E-03         2.07642    -660.022E-03     3.85952E-03     118.982E-03    -57.8605E-03    -61.1746E-03    -56.4987E-03     114.306E-03    -57.8605E-03     56.5346E-03     116.888E+06     19.9521E+06    -25.6519E+06    -25.5839E+06     116.820E+06     19.9521E+06     590.199E+03         44.0768
            1206     14.1609E-03     63.0521E-03         2.06382    -599.624E-03    -655.063E-03    -599.599E-03         2.06380    -655.063E-03     11.4429E-03     127.599E-03    -57.9643E-03    -69.7294E-03    -55.9033E-03     113.773E-03    -57.9643E-03     97.0029E-03     127.860E+06     56.1642E+06    -22.1752E+06    -22.0841E+06     127.769E+06     56.1642E+06     766.503E+03         48.3008
            1207     15.1092E-03     63.1957E-03         2.04428    -587.844E-03    -649.346E-03    -587.816E-03         2.04425    -649.346E-03     9.56076E-03     147.470E-03    -58.0577E-03    -89.5173E-03    -57.0376E-03     114.990E-03    -58.0577E-03     161.396E-03     139.332E+06     99.3930E+06    -16.5448E+06    -16.4833E+06     139.270E+06     99.3930E+06     544.514E+03         52.3181
            1208     16.0520E-03     63.4153E-03         2.02512    -577.403E-03    -643.359E-03    -577.375E-03         2.02510    -643.359E-03    -204.794E-06     140.112E-03    -58.1312E-03    -82.0590E-03    -57.1261E-03     115.180E-03    -58.1312E-03     130.868E-03     149.558E+06     125.914E+06    -7.91289E+06    -7.86583E+06     149.510E+06     125.914E+06     417.081E+03         55.4147
            1209     943.311E-06     63.9191E-03         2.16556    -364.924E-03        -1.00787    -934.148E-03         2.10920    -382.281E-03     290.625E-03     116.757E-03    -58.0922E-03    -58.6669E-03    -58.4976E-03     116.756E-03    -58.2611E-03     516.965E-06    -68.1011E+06    -72.0032E+06    -270.818E+06    -71.4958E+06    -270.809E+06    -68.6176E+06     589.905E+03         29.0027
            1210     1.88698E-03     63.9198E-03         2.11354    -638.890E-03    -678.833E-03    -648.715E-03         2.10078    -656.247E-03    -87.1453E-03     116.331E-03    -57.9849E-03    -58.3534E-03    -57.9839E-03     116.330E-03    -58.3534E-03     757.169E-06    -61.8738E+06    -69.1356E+06    -266.845E+06    -69.1434E+06    -266.837E+06    -61.8738E+06     413.239E+03         29.0852
            1211     2.83114E-03     63.9206E-03         2.16515    -660.631E-03    -703.213E-03    -698.286E-03         2.16022    -660.631E-03     31.2128E-03     116.226E-03    -57.9715E-03    -58.2662E-03    -57.9683E-03     116.222E-03    -58.2662E-03     1.44080E-03    -53.5988E+06    -65.1362E+06    -260.383E+06    -65.1383E+06    -260.381E+06    -53.5988E+06    -390.951E+03         29.2332
            1212     3.77521E-03     63.9223E-03         2.17777    -670.789E-03    -704.543E-03    -702.141E-03         2.17536    -670.789E-03    -23.9814E-03     116.282E-03    -58.0407E-03    -58.2604E-03    -58.0312E-03     116.272E-03    -58.2604E-03     2.49250E-03    -41.5774E+06    -60.4574E+06    -252.952E+06    -60.4605E+06    -252.949E+06    -41.5774E+06    -64.2957E+03         29.4515
            1213     4.71850E-03     63.9254E-03         2.14935    -661.975E-03    -688.415E-03    -674.889E-03         2.14850    -674.657E-03     58.5474E-03     116.213E-03    -57.9682E-03    -58.2732E-03    -57.9459E-03     116.191E-03    -58.2732E-03     3.87165E-03    -30.2143E+06    -55.5272E+06    -237.906E+06    -55.5293E+06    -237.904E+06    -30.2143E+06     557.988E+03         29.7407
            1214     5.66307E-03     63.9291E-03         2.11237    -643.630E-03    -672.168E-03    -643.293E-03         2.11203    -672.168E-03     29.3057E-03     116.160E-03    -57.9434E-03    -58.2510E-03    -57.8997E-03     116.117E-03    -58.2510E-03     5.43756E-03    -21.5687E+06    -50.6269E+06    -215.962E+06    -50.6335E+06    -215.956E+06    -21.5687E+06     285.166E+03         30.1146
            1215     6.60688E-03     63.9361E-03         2.10646    -641.397E-03    -667.727E-03    -641.081E-03         2.10614    -667.727E-03     25.0593E-03     116.144E-03    -57.9470E-03    -58.2306E-03    -57.8651E-03     116.062E-03    -58.2306E-03     7.44847E-03    -14.6424E+06    -45.7511E+06    -193.110E+06    -45.7629E+06    -193.098E+06    -14.6424E+06     113.278E+03         30.5980
            1216     7.55006E-03     63.9447E-03         2.10629    -645.490E-03    -664.472E-03    -645.428E-03         2.10623    -664.472E-03    -11.4308E-03     116.045E-03    -57.8756E-03    -58.2046E-03    -57.7323E-03     115.902E-03    -58.2046E-03     9.89079E-03    -8.36412E+06    -41.7378E+06    -168.460E+06    -41.7467E+06    -168.451E+06    -8.36412E+06     128.417E+03         31.2151
            1217     8.49453E-03     63.9566E-03         2.10723    -646.574E-03    -662.210E-03    -646.453E-03         2.10711    -662.210E-03     24.0144E-03     115.940E-03    -57.8059E-03    -58.1641E-03    -57.5805E-03     115.715E-03    -58.1641E-03     12.4349E-03    -2.77610E+06    -37.6536E+06    -141.695E+06    -37.6619E+06    -141.687E+06    -2.77610E+06     18.9959E+03         31.9836
            1218     9.43868E-03     63.9704E-03         2.09728    -635.221E-03    -659.843E-03    -635.106E-03         2.09717    -659.843E-03     28.2425E-03     115.882E-03    -57.7648E-03    -58.1018E-03    -57.3195E-03     115.437E-03    -58.1018E-03     17.2066E-03    -1.15697E+06    -34.0074E+06    -111.240E+06    -34.0201E+06    -111.227E+06    -1.15697E+06     151.423E+03         33.0673
            1219     10.3831E-03     63.9927E-03         2.07252    -613.820E-03    -656.332E-03    -613.794E-03         2.07250    -656.332E-03     2.12982E-03     115.783E-03    -57.7592E-03    -58.0086E-03    -57.0766E-03     115.100E-03    -58.0086E-03     21.7005E-03    -2.61146E+06    -31.8334E+06    -72.1514E+06    -31.9001E+06    -72.0846E+06    -2.61146E+06     277.102E+03         34.7629
            1220     11.3280E-03     64.0176E-03         2.05849    -605.531E-03    -652.016E-03    -605.300E-03         2.05826    -652.016E-03     24.9919E-03     116.011E-03    -57.7926E-03    -58.2459E-03    -57.0525E-03     114.916E-03    -57.8906E-03     27.1767E-03     7.79422E+06    -22.5118E+06    -39.5765E+06    -30.5132E+06    -14.9906E+06    -8.79025E+06     101.109E+03         37.1885
            1221     12.2717E-03     64.0516E-03         2.05284    -605.097E-03    -647.842E-03    -604.833E-03         2.05258    -647.842E-03     23.1286E-03     116.873E-03    -57.7926E-03    -59.1063E-03    -56.7494E-03     114.516E-03    -57.7926E-03     39.6674E-03     64.7290E+06    -4.42143E+06    -28.4145E+06    -28.3470E+06     64.6615E+06    -4.42143E+06     702.390E+03         40.3044
            1222     13.2168E-03     64.1038E-03         2.04573    -601.798E-03    -643.911E-03    -601.751E-03         2.04568    -643.911E-03     575.889E-06     118.847E-03    -57.8334E-03    -61.0710E-03    -56.3478E-03     114.124E-03    -57.8334E-03     56.8612E-03     116.246E+06     18.5715E+06    -26.4273E+06    -26.3464E+06     116.165E+06     18.5715E+06     1.56804E+06         44.0784
            1223     14.1611E-03     64.1742E-03         2.03146    -591.726E-03    -639.627E-03    -591.609E-03         2.03134    -639.627E-03    -12.2721E-03     127.687E-03    -57.9542E-03    -69.8376E-03    -56.2147E-03     114.064E-03    -57.9542E-03     96.5015E-03     128.208E+06     55.0239E+06    -22.4066E+06    -22.3183E+06     128.120E+06     55.0239E+06     1.34072E+06         48.3028
            1224     15.1051E-03     64.3149E-03         2.00764    -574.594E-03    -634.151E-03    -574.395E-03         2.00744    -634.151E-03     2.13727E-03     147.275E-03    -58.0432E-03    -89.3068E-03    -56.3472E-03     114.315E-03    -58.0432E-03     161.901E-03     139.661E+06     99.9695E+06    -15.4164E+06    -15.3499E+06     139.594E+06     99.9695E+06     896.597E+03         52.3231
            1225     16.0561E-03     64.5366E-03         1.98661    -562.826E-03    -628.044E-03    -562.726E-03         1.98651    -628.044E-03     17.9166E-03     140.298E-03    -58.0854E-03    -82.2551E-03    -56.9277E-03     114.971E-03    -58.0854E-03     130.607E-03     150.004E+06     126.675E+06    -7.81625E+06    -7.78423E+06     149.972E+06     126.675E+06     34.4143E+03         55.4237
            1226     943.307E-06     65.0419E-03         2.12685    -408.288E-03    -938.218E-03    -914.208E-03         2.12017    -425.619E-03     25.7892E-03     116.463E-03    -58.0145E-03    -58.4485E-03    -58.3304E-03     116.463E-03    -58.1323E-03     502.903E-06    -70.5697E+06    -74.3972E+06    -271.996E+06    -73.1186E+06    -271.982E+06    -71.8623E+06     123.108E+03         28.9956
            1227     1.88743E-03     65.0416E-03         2.09357    -644.148E-03    -668.399E-03    -645.074E-03         2.09100    -664.896E-03     7.90275E-03     116.271E-03    -58.0207E-03    -58.2564E-03    -58.0304E-03     116.270E-03    -58.2451E-03     892.844E-06    -62.9044E+06    -70.4092E+06    -266.465E+06    -69.6508E+06    -266.447E+06    -63.6805E+06     411.229E+03         29.0809
            1228     2.83134E-03     65.0425E-03         2.08079    -633.706E-03    -661.225E-03    -637.335E-03         2.07991    -656.714E-03    -31.2300E-03     116.256E-03    -58.0356E-03    -58.2328E-03    -58.0335E-03     116.252E-03    -58.2311E-03     1.62396E-03    -52.6146E+06    -66.1743E+06    -259.823E+06    -66.1817E+06    -259.815E+06    -52.6146E+06     432.712E+03         29.2301
            1229     3.77488E-03     65.0445E-03         2.06903    -624.156E-03    -658.497E-03    -630.720E-03         2.06803    -650.937E-03    -37.7539E-03     116.173E-03    -57.9592E-03    -58.2333E-03    -57.9512E-03     116.165E-03    -58.2333E-03     2.29218E-03    -41.9932E+06    -62.5859E+06    -253.921E+06    -62.5893E+06    -253.918E+06    -41.9932E+06     143.656E+03         29.4487
            1230     4.71958E-03     65.0469E-03         2.08383    -638.838E-03    -658.121E-03    -648.117E-03         2.08332    -648.330E-03     5.18486E-03     116.158E-03    -57.9454E-03    -58.2383E-03    -57.9250E-03     116.138E-03    -58.2383E-03     3.66032E-03    -31.2277E+06    -57.2015E+06    -237.869E+06    -57.2049E+06    -237.865E+06    -31.2277E+06    -7.99715E+03         29.7393
            1231     5.66261E-03     65.0521E-03         2.07940    -640.247E-03    -651.413E-03    -643.613E-03         2.07921    -647.856E-03     9.99136E-03     116.191E-03    -57.9943E-03    -58.2275E-03    -57.9514E-03     116.149E-03    -58.2275E-03     5.38643E-03    -21.6015E+06    -51.3779E+06    -215.431E+06    -51.3846E+06    -215.424E+06    -21.6015E+06    -156.055E+03         30.1154
            1232     6.60628E-03     65.0581E-03         2.06955    -634.465E-03    -646.499E-03    -634.305E-03         2.06939    -646.499E-03     24.7191E-03     116.137E-03    -57.9512E-03    -58.2188E-03    -57.8687E-03     116.055E-03    -58.2188E-03     7.47011E-03    -14.1295E+06    -46.4733E+06    -193.192E+06    -46.4843E+06    -193.181E+06    -14.1295E+06    -51.9468E+03         30.6003
            1233     7.55108E-03     65.0672E-03         2.07210    -634.149E-03    -650.145E-03    -639.125E-03         2.07203    -645.094E-03    -5.08357E-03     115.980E-03    -57.8268E-03    -58.1910E-03    -57.6873E-03     115.840E-03    -58.1910E-03     9.76383E-03    -7.97963E+06    -41.7427E+06    -168.475E+06    -41.7532E+06    -168.465E+06    -7.97963E+06     116.403E+03         31.2172
            1234     8.49471E-03     65.0786E-03         2.07136    -632.907E-03    -649.235E-03    -637.886E-03         2.07129    -644.184E-03     8.80738E-03     115.855E-03    -57.7456E-03    -58.1474E-03    -57.5240E-03     115.634E-03    -58.1474E-03     12.2929E-03    -3.14026E+06    -38.0343E+06    -142.059E+06    -38.0401E+06    -142.053E+06    -3.14026E+06     434.000E+03         31.9858
            1235     9.43898E-03     65.0929E-03         2.04823    -613.447E-03    -642.143E-03    -613.216E-03         2.04800    -642.143E-03    -6.75111E-03     116.018E-03    -57.9138E-03    -58.0959E-03    -57.4794E-03     115.581E-03    -58.0938E-03     17.0844E-03    -1.32773E+06    -35.1214E+06    -111.130E+06    -35.1342E+06    -111.117E+06    -1.32773E+06     592.580E+03         33.0699
            1236     10.3829E-03     65.1149E-03         2.02673    -596.164E-03    -638.439E-03    -595.990E-03         2.02656    -638.439E-03    -26.8705E-03     115.990E-03    -57.9478E-03    -58.0292E-03    -57.2717E-03     115.300E-03    -58.0156E-03     21.8089E-03    -2.53384E+06    -32.0634E+06    -71.9606E+06    -32.1158E+06    -71.9082E+06    -2.53384E+06     496.003E+03         34.7643
            1237     11.3268E-03     65.1396E-03         2.02308    -598.077E-03    -634.587E-03    -598.052E-03         2.02306    -634.587E-03     6.44099E-03     115.833E-03    -57.8105E-03    -58.0564E-03    -56.8448E-03     114.708E-03    -57.8971E-03     27.5254E-03     7.15118E+06    -22.3031E+06    -39.2100E+06    -29.9489E+06    -15.5824E+06    -8.83063E+06     709.682E+03         37.1888
            1238     12.2718E-03     65.1745E-03         2.02007    -599.298E-03    -631.309E-03    -599.239E-03         2.02001    -631.309E-03    -2.45876E-03     116.654E-03    -57.7529E-03    -58.9137E-03    -56.5104E-03     114.270E-03    -57.7722E-03     39.8656E-03     63.4515E+06    -5.40635E+06    -28.4631E+06    -28.3372E+06     63.3257E+06    -5.40635E+06     1.17611E+06         40.3049
            1239     13.2169E-03     65.2248E-03         2.00204    -585.248E-03    -627.799E-03    -585.210E-03         2.00201    -627.799E-03    -12.4356E-03     118.525E-03    -57.8009E-03    -60.7717E-03    -56.0610E-03     113.815E-03    -57.8009E-03     56.7064E-03     116.629E+06     19.1837E+06    -26.1319E+06    -26.0611E+06     116.559E+06     19.1837E+06     1.44437E+06         44.0794
            1240     14.1621E-03     65.2985E-03         1.98302    -573.262E-03    -623.329E-03    -573.128E-03         1.98288    -623.329E-03    -7.30408E-03     127.665E-03    -57.9311E-03    -69.8615E-03    -56.4556E-03     114.259E-03    -57.9311E-03     95.9343E-03     128.898E+06     55.9298E+06    -21.8640E+06    -21.7836E+06     128.817E+06     55.9298E+06     1.15008E+06         48.3041
            1241     15.1095E-03     65.4346E-03         1.96267    -560.122E-03    -617.603E-03    -559.912E-03         1.96246    -617.603E-03     7.64572E-03     147.301E-03    -58.0524E-03    -89.3540E-03    -57.3393E-03     115.286E-03    -58.0524E-03     159.983E-03     140.855E+06     99.7274E+06    -14.7519E+06    -14.6997E+06     140.803E+06     99.7274E+06     366.453E+03         52.3244
            1242     16.0520E-03     65.6583E-03         1.93783    -538.788E-03    -611.104E-03    -538.706E-03         1.93775    -611.104E-03     13.3588E-03     139.646E-03    -58.1228E-03    -81.5744E-03    -56.6528E-03     114.724E-03    -58.1228E-03     130.612E-03     150.503E+06     126.145E+06    -7.83553E+06    -7.82591E+06     150.494E+06     126.145E+06    -74.8252E+03         55.4266
            1243     944.356E-06     66.1642E-03         2.11062    -436.846E-03    -905.709E-03    -869.093E-03         2.08259    -445.429E-03    -179.522E-03     115.955E-03    -57.8425E-03    -58.1144E-03    -58.0559E-03     115.955E-03    -57.9005E-03     400.619E-06    -70.6872E+06    -75.3166E+06    -271.508E+06    -73.2090E+06    -271.490E+06    -72.8128E+06    -1.28984E+06         28.9868
            1244     1.88777E-03     66.1633E-03         2.06248    -639.379E-03    -653.021E-03    -634.470E-03         2.05726    -652.703E-03     118.298E-03     116.363E-03    -58.0861E-03    -58.2833E-03    -58.2820E-03     116.362E-03    -58.0861E-03     803.726E-06    -64.1140E+06    -71.4723E+06    -266.549E+06    -70.7118E+06    -266.534E+06    -64.8901E+06    -731.573E+03         29.0783
            1245     2.83127E-03     66.1652E-03         2.03181    -617.030E-03    -643.530E-03    -615.956E-03         2.03073    -643.530E-03    -23.1245E-03     116.353E-03    -58.0938E-03    -58.2733E-03    -58.1566E-03     116.350E-03    -58.2075E-03     1.38753E-03    -52.4679E+06    -65.7719E+06    -260.749E+06    -65.7831E+06    -260.738E+06    -52.4679E+06     548.939E+03         29.2310
            1246     3.77532E-03     66.1663E-03         2.01213    -603.459E-03    -634.869E-03    -602.612E-03         2.01128    -634.869E-03    -6.38508E-03     116.262E-03    -58.0373E-03    -58.2430E-03    -58.0300E-03     116.255E-03    -58.2430E-03     2.19015E-03    -40.5515E+06    -60.2814E+06    -253.139E+06    -60.2847E+06    -253.135E+06    -40.5515E+06     336.367E+03         29.4503
            1247     4.71842E-03     66.1693E-03         2.02090    -613.417E-03    -633.080E-03    -616.812E-03         2.02074    -629.523E-03    -31.9174E-03     116.178E-03    -57.9499E-03    -58.2481E-03    -57.9296E-03     116.158E-03    -58.2481E-03     3.62807E-03    -30.7062E+06    -55.7974E+06    -237.802E+06    -55.8019E+06    -237.798E+06    -30.7062E+06    -193.094E+03         29.7404
            1248     5.66306E-03     66.1741E-03         2.02580    -620.362E-03    -631.452E-03    -623.654E-03         2.02548    -627.836E-03    -30.9012E-03     116.041E-03    -57.8447E-03    -58.2244E-03    -57.8008E-03     115.997E-03    -58.2244E-03     5.44477E-03    -21.6498E+06    -51.4153E+06    -216.089E+06    -51.4209E+06    -216.083E+06    -21.6498E+06     283.882E+03         30.1146
            1249     6.60724E-03     66.1804E-03         2.02700    -623.843E-03    -627.686E-03    -624.091E-03         2.02673    -627.167E-03    -5.53040E-03     116.067E-03    -57.8955E-03    -58.1998E-03    -57.8107E-03     115.982E-03    -58.1998E-03     7.57372E-03    -14.4383E+06    -47.1364E+06    -192.445E+06    -47.1422E+06    -192.439E+06    -14.4383E+06     60.8940E+03         30.5982
            1250     7.55010E-03     66.1898E-03         2.02915    -619.668E-03    -632.218E-03    -625.074E-03         2.02904    -626.706E-03    -5.68410E-03     116.047E-03    -57.9028E-03    -58.1737E-03    -57.7649E-03     115.909E-03    -58.1737E-03     9.73621E-03    -8.89608E+06    -42.8961E+06    -168.763E+06    -42.9062E+06    -168.753E+06    -8.89608E+06    -258.013E+03         31.2155
            1251     8.49477E-03     66.2003E-03         2.01623    -606.106E-03    -630.649E-03    -611.018E-03         2.01609    -625.598E-03     2.16673E-03     115.950E-03    -57.8372E-03    -58.1365E-03    -57.6191E-03     115.732E-03    -58.1365E-03     12.1973E-03    -3.93257E+06    -38.3189E+06    -142.645E+06    -38.3296E+06    -142.634E+06    -3.93257E+06     383.251E+03         31.9845
            1252     9.43878E-03     66.2158E-03         1.99808    -592.640E-03    -622.972E-03    -592.395E-03         1.99783    -622.972E-03    -1.04095E-03     115.945E-03    -57.8357E-03    -58.0838E-03    -57.4064E-03     115.514E-03    -58.0818E-03     16.9855E-03    -1.40968E+06    -33.8001E+06    -110.797E+06    -33.8256E+06    -110.772E+06    -1.40968E+06     382.356E+03         33.0693
            1253     10.3831E-03     66.2369E-03         1.99255    -590.818E-03    -619.742E-03    -590.630E-03         1.99236    -619.742E-03    -13.0645E-03     115.883E-03    -57.8401E-03    -58.0124E-03    -57.1532E-03     115.183E-03    -57.9989E-03     21.9492E-03    -2.82990E+06    -30.4139E+06    -72.7528E+06    -30.5355E+06    -72.6313E+06    -2.82990E+06     544.061E+03         34.7644
            1254     11.3276E-03     66.2624E-03         1.98303    -587.466E-03    -616.730E-03    -587.282E-03         1.98285    -616.730E-03     30.6956E-03     115.872E-03    -57.7892E-03    -58.1015E-03    -56.8914E-03     114.753E-03    -57.8803E-03     27.5277E-03     6.80321E+06    -21.5996E+06    -39.6968E+06    -28.7868E+06    -16.4976E+06    -9.20881E+06     1.79009E+06         37.1890
            1255     12.2730E-03     66.2948E-03         1.97010    -579.189E-03    -613.532E-03    -578.980E-03         1.96989    -613.532E-03     31.2746E-03     116.720E-03    -57.7438E-03    -58.9758E-03    -56.5849E-03     114.349E-03    -57.7631E-03     39.7030E-03     63.1113E+06    -6.36402E+06    -28.4748E+06    -28.3506E+06     62.9870E+06    -6.36402E+06     1.99598E+06         40.3045
            1256     13.2165E-03     66.3498E-03         1.95384    -567.979E-03    -609.778E-03    -567.939E-03         1.95380    -609.778E-03     5.58250E-03     118.375E-03    -57.7943E-03    -60.6184E-03    -56.0737E-03     113.830E-03    -57.7943E-03     55.7920E-03     116.643E+06     18.3573E+06    -26.4397E+06    -26.3469E+06     116.550E+06     18.3573E+06     1.05901E+06         44.0779
            1257     14.1630E-03     66.4162E-03         1.93652    -558.549E-03    -605.280E-03    -558.513E-03         1.93649    -605.280E-03     4.95714E-03     128.146E-03    -57.9400E-03    -70.3181E-03    -56.9938E-03     114.822E-03    -57.9400E-03     95.6199E-03     131.101E+06     56.6007E+06    -21.3584E+06    -21.2758E+06     131.018E+06     56.6007E+06     408.326E+03         48.3017
            1258     15.1040E-03     66.5629E-03         1.92521    -552.094E-03    -599.906E-03    -551.998E-03         1.92511    -599.906E-03    -5.46504E-03     147.247E-03    -58.1008E-03    -89.2680E-03    -57.8504E-03     115.829E-03    -58.1008E-03     158.801E-03      141.66E+06     99.5750E+06    -14.7883E+06    -14.7375E+06     141.609E+06     99.5750E+06    -261.752E+03         52.3228
            1259     16.0506E-03     66.7747E-03         1.91448    -542.435E-03    -594.371E-03    -542.353E-03         1.91439    -594.371E-03    -20.2819E-03     139.061E-03    -58.1829E-03    -80.9343E-03    -56.1679E-03     114.294E-03    -58.1829E-03     131.410E-03     149.735E+06     125.982E+06    -7.07482E+06    -7.04343E+06     149.704E+06     125.982E+06     81.5964E+03         55.4283
            1260     944.134E-06     67.2841E-03         2.12054    -457.726E-03    -896.333E-03    -769.347E-03         2.00214    -466.310E-03    -422.402E-03     116.088E-03    -57.7327E-03    -58.3609E-03    -58.2725E-03     116.088E-03    -57.8206E-03     378.768E-06    -66.1490E+06    -72.3781E+06    -269.434E+06    -71.0445E+06    -269.418E+06    -67.4985E+06    -409.052E+03         28.9846
            1261     1.88767E-03     67.2871E-03         1.98790    -601.405E-03    -623.717E-03    -585.528E-03         1.95962    -611.311E-03     198.124E-03     116.349E-03    -58.0431E-03    -58.3158E-03    -58.2284E-03     116.349E-03    -58.1298E-03     649.958E-06    -61.8085E+06    -69.0224E+06    -266.655E+06    -69.0286E+06    -266.649E+06    -61.8085E+06    -887.066E+03         29.0758
            1262     2.83113E-03     67.2862E-03         1.98637    -601.901E-03    -619.025E-03    -608.810E-03         1.97965    -605.392E-03    -21.1872E-03     116.304E-03    -58.0604E-03    -58.2574E-03    -58.1212E-03     116.300E-03    -58.1933E-03     1.28748E-03    -54.0296E+06    -65.0487E+06    -261.172E+06    -65.0619E+06    -261.159E+06    -54.0296E+06    -1.02634E+06         29.2291
            1263     3.77494E-03     67.2890E-03         1.98858    -602.121E-03    -620.878E-03    -613.565E-03         1.98590    -606.749E-03     81.5855E-03     116.262E-03    -58.0490E-03    -58.2295E-03    -58.0395E-03     116.252E-03    -58.2295E-03     2.51071E-03    -41.4935E+06    -60.1836E+06    -253.527E+06    -60.1962E+06    -253.515E+06    -41.4935E+06    -2.55248E+03         29.4493
            1264     4.71911E-03     67.2914E-03         1.98576    -599.026E-03    -622.277E-03    -612.200E-03         1.98459    -607.941E-03     23.3579E-03     116.219E-03    -57.9894E-03    -58.2496E-03    -57.9686E-03     116.198E-03    -58.2496E-03     3.72824E-03    -30.4242E+06    -55.6231E+06    -237.915E+06    -55.6308E+06    -237.907E+06    -30.4242E+06     823.447E+03         29.7397
            1265     5.66277E-03     67.2958E-03         1.99151    -602.521E-03    -625.162E-03    -617.482E-03         1.99029    -608.977E-03     11.9687E-03     116.029E-03    -57.8370E-03    -58.2232E-03    -57.7939E-03     115.986E-03    -58.2232E-03     5.38864E-03    -22.4508E+06    -51.1358E+06    -216.161E+06    -51.1401E+06    -216.157E+06    -22.4508E+06     759.133E+03         30.1120
            1266     6.60647E-03     67.3030E-03         1.98706    -601.334E-03    -620.275E-03    -611.530E-03         1.98669    -609.701E-03    -22.1693E-03     115.917E-03    -57.7574E-03    -58.1885E-03    -57.6740E-03     115.833E-03    -58.1885E-03     7.50783E-03    -15.1922E+06    -46.5660E+06    -192.036E+06    -46.5682E+06    -192.033E+06    -15.1922E+06     497.908E+03         30.5933
            1267     7.55164E-03     67.3115E-03         1.95358    -578.716E-03    -608.330E-03    -579.007E-03         1.95341    -607.869E-03    -1.21146E-03     116.004E-03    -57.8786E-03    -58.1557E-03    -57.7348E-03     115.860E-03    -58.1557E-03     9.92078E-03    -9.32200E+06    -42.9089E+06    -168.209E+06    -42.9138E+06    -168.204E+06    -9.32200E+06     68.3796E+03         31.2108
            1268     8.49444E-03     67.3235E-03         1.94013    -567.476E-03    -603.794E-03    -567.151E-03         1.93981    -603.794E-03     18.7637E-03     116.007E-03    -57.9179E-03    -58.1078E-03    -57.6884E-03     115.777E-03    -58.1078E-03     12.5392E-03    -5.86518E+06    -38.7642E+06    -142.478E+06    -38.8121E+06    -142.430E+06    -5.86518E+06    -782.862E+03         31.9806
            1269     9.43862E-03     67.3371E-03         1.95310    -580.638E-03    -601.357E-03    -581.269E-03         1.95283    -600.464E-03     35.7689E-03     115.911E-03    -57.8112E-03    -58.0504E-03    -57.3697E-03     115.469E-03    -58.0504E-03     17.1877E-03    -3.42517E+06    -34.1033E+06    -110.993E+06    -34.1712E+06    -110.925E+06    -3.42517E+06    -572.276E+03         33.0664
            1270     10.3832E-03     67.3595E-03         1.95751    -587.377E-03    -599.499E-03    -588.238E-03         1.95748    -598.606E-03     1.50324E-03     115.839E-03    -57.7795E-03    -58.0055E-03    -57.1155E-03     115.147E-03    -57.9772E-03     21.8363E-03    -3.74587E+06    -31.1531E+06    -74.2083E+06    -31.2773E+06    -74.0842E+06    -3.74587E+06     616.197E+03         34.7634
            1271     11.3280E-03     67.3836E-03         1.93751    -571.885E-03    -596.588E-03    -571.701E-03         1.93733    -596.588E-03     23.1860E-03     115.981E-03    -57.7944E-03    -58.1903E-03    -57.0050E-03     114.868E-03    -57.8663E-03     27.4316E-03     5.58272E+06    -22.2904E+06    -40.3040E+06    -29.0517E+06    -18.0223E+06    -9.93759E+06     1.66988E+06         37.1888
            1272     12.2707E-03     67.4191E-03         1.91676    -555.134E-03    -593.399E-03    -554.930E-03         1.91655    -593.399E-03     26.8515E-03     116.558E-03    -57.7568E-03    -58.8072E-03    -56.4029E-03     114.154E-03    -57.7568E-03     39.9077E-03     62.8588E+06    -5.50394E+06    -26.5414E+06    -26.4312E+06     62.7485E+06    -5.50394E+06     2.54432E+06         40.3047
            1273     13.2173E-03     67.4691E-03         1.91630    -560.390E-03    -589.918E-03    -560.342E-03         1.91626    -589.918E-03     2.74840E-03     118.934E-03    -57.7900E-03    -61.1981E-03    -56.4219E-03     114.158E-03    -57.7900E-03     57.2543E-03     118.194E+06     20.6855E+06    -24.2040E+06    -24.1031E+06     118.093E+06     20.6855E+06     1.86717E+06         44.0773
            1274     14.1600E-03     67.5420E-03         1.91265    -562.114E-03    -586.627E-03    -562.012E-03         1.91255    -586.627E-03    -20.4009E-03     128.820E-03    -57.9474E-03    -70.9839E-03    -57.2022E-03     115.039E-03    -57.9474E-03     97.5658E-03     132.652E+06     58.2179E+06    -21.0230E+06    -20.9317E+06     132.561E+06     58.2179E+06     517.790E+03         48.3008
            1275     15.1068E-03     67.6848E-03         1.89756    -549.553E-03    -582.564E-03    -549.375E-03         1.89738    -582.564E-03    -24.3727E-03     147.402E-03    -58.1057E-03    -89.4155E-03    -57.6040E-03     115.590E-03    -58.1057E-03     159.916E-03     142.096E+06     99.4554E+06    -15.9431E+06    -15.8877E+06     142.040E+06     99.4554E+06    -119.106E+03         52.3245
            1276     16.0526E-03     67.8967E-03         1.89075    -543.923E-03    -578.115E-03    -543.793E-03         1.89062    -578.115E-03    -21.0681E-03     139.353E-03    -58.1840E-03    -81.2329E-03    -56.5146E-03     114.634E-03    -58.1840E-03     131.002E-03     149.448E+06     125.477E+06    -8.02213E+06    -7.97660E+06     149.403E+06     125.477E+06    -246.796E+03         55.4328
            1277     943.217E-06     68.4079E-03         2.17047    -450.274E-03    -956.684E-03    -697.529E-03         1.91131    -450.274E-03    -661.891E-03     116.483E-03    -57.9220E-03    -58.5632E-03    -58.3401E-03     116.483E-03    -58.1448E-03     239.401E-06    -67.0952E+06    -71.1060E+06    -268.735E+06    -70.2313E+06    -268.730E+06    -67.9755E+06     507.050E+03         28.9889
            1278     1.88725E-03     68.4079E-03         1.97436    -574.176E-03    -638.281E-03    -575.538E-03         1.91161    -574.176E-03     208.432E-03     116.143E-03    -57.9234E-03    -58.2278E-03    -57.9223E-03     116.142E-03    -58.2278E-03     783.121E-06    -61.1722E+06    -67.1093E+06    -265.943E+06    -67.1130E+06    -265.940E+06    -61.1722E+06    -446.510E+03         29.0752
            1279     2.83163E-03     68.4092E-03         1.93744    -573.749E-03    -605.116E-03    -582.178E-03         1.91635    -575.597E-03    -123.864E-03     116.210E-03    -58.0365E-03    -58.1846E-03    -58.0328E-03     116.206E-03    -58.1846E-03     1.43644E-03    -52.2229E+06    -64.3731E+06    -260.771E+06    -64.3856E+06    -260.758E+06    -52.2229E+06    -788.313E+03         29.2262
            1280     3.77530E-03     68.4105E-03         1.92985    -576.076E-03    -597.112E-03    -588.012E-03         1.92260    -577.924E-03     55.5362E-03     116.240E-03    -58.0480E-03    -58.2077E-03    -58.0388E-03     116.230E-03    -58.2077E-03     2.44361E-03    -40.9937E+06    -60.6920E+06    -255.094E+06    -60.7056E+06    -255.080E+06    -40.9937E+06     201.668E+03         29.4457
            1281     4.71905E-03     68.4137E-03         1.94618    -581.391E-03    -608.216E-03    -604.077E-03         1.94204    -581.391E-03    -5.68709E-03     116.188E-03    -57.9787E-03    -58.2304E-03    -57.9569E-03     116.166E-03    -58.2304E-03     3.79878E-03    -29.9537E+06    -55.3676E+06    -238.746E+06    -55.3761E+06    -238.737E+06    -29.9537E+06     990.203E+03         29.7362
            1282     5.66265E-03     68.4184E-03         1.94613    -582.704E-03    -608.705E-03    -604.276E-03         1.94414    -585.148E-03     55.0673E-03     116.059E-03    -57.8842E-03    -58.2075E-03    -57.8392E-03     116.014E-03    -58.2075E-03     5.51593E-03    -22.0832E+06    -50.2078E+06    -215.400E+06    -50.2132E+06    -215.394E+06    -22.0832E+06     785.720E+03         30.1092
            1283     6.60727E-03     68.4243E-03         1.92232    -570.026E-03    -596.147E-03    -579.425E-03         1.92167    -586.093E-03     3.03925E-03     115.934E-03    -57.7881E-03    -58.1773E-03    -57.6999E-03     115.846E-03    -58.1773E-03     7.70683E-03    -15.1549E+06    -45.5794E+06    -192.001E+06    -45.5822E+06    -191.998E+06    -15.1549E+06     526.293E+03         30.5911
            1284     7.55040E-03     68.4343E-03         1.89894    -553.963E-03    -585.829E-03    -555.759E-03         1.89855    -583.637E-03     27.7937E-03     115.881E-03    -57.7741E-03    -58.1484E-03    -57.6316E-03     115.738E-03    -58.1484E-03     9.90170E-03    -7.92537E+06    -40.8036E+06    -167.638E+06    -40.8090E+06    -167.632E+06    -7.92537E+06     152.875E+03         31.2088
            1285     8.49549E-03     68.4453E-03         1.90074    -557.789E-03    -582.830E-03    -559.871E-03         1.90048    -580.492E-03     16.6865E-03     115.793E-03    -57.7364E-03    -58.0930E-03    -57.5102E-03     115.566E-03    -58.0930E-03     12.4120E-03    -3.97019E+06    -37.1026E+06    -141.203E+06    -37.1504E+06    -141.155E+06    -3.97019E+06    -765.331E+03         31.9783
            1286     9.43939E-03     68.4600E-03         1.90585    -567.147E-03    -579.567E-03    -567.887E-03         1.90555    -578.527E-03     13.2015E-03     115.941E-03    -57.8264E-03    -58.0750E-03    -57.4302E-03     115.500E-03    -58.0300E-03     17.2038E-03    -3.20729E+06    -35.0767E+06    -112.103E+06    -35.1398E+06    -112.040E+06    -3.20729E+06    -456.190E+03         33.0647
            1287     10.3834E-03     68.4809E-03         1.90741    -570.171E-03    -578.228E-03    -570.966E-03         1.90731    -577.335E-03    -22.6103E-03     115.999E-03    -57.9116E-03    -58.0385E-03    -57.2721E-03     115.287E-03    -57.9653E-03     22.1446E-03    -3.15983E+06    -32.2607E+06    -74.7223E+06    -32.3313E+06    -74.6517E+06    -3.15983E+06     455.568E+03         34.7629
            1288     11.3270E-03     68.5072E-03         1.89869    -563.087E-03    -576.029E-03    -563.036E-03         1.89863    -576.029E-03    -12.6881E-03     115.740E-03    -57.7896E-03    -57.9615E-03    -56.7614E-03     114.597E-03    -57.8471E-03     27.7867E-03     5.17239E+06    -22.8092E+06    -39.6913E+06    -29.2817E+06    -18.5111E+06    -9.53529E+06     524.363E+03         37.1897
            1289     12.2739E-03     68.5395E-03         1.88222    -547.816E-03    -573.869E-03    -547.764E-03         1.88217    -573.869E-03    -9.23047E-03     116.371E-03    -57.6766E-03    -58.7162E-03    -56.2877E-03     113.985E-03    -57.7193E-03     39.7820E-03     61.3824E+06    -6.39924E+06    -26.7358E+06    -26.6295E+06     61.2761E+06    -6.39924E+06     1.07434E+06         40.3067
            1290     13.2183E-03     68.5916E-03         1.87390    -544.079E-03    -571.039E-03    -544.045E-03         1.87386    -571.039E-03    -11.5602E-03     118.974E-03    -57.7532E-03    -61.2855E-03    -56.2604E-03     113.949E-03    -57.7532E-03     58.5003E-03     118.586E+06     21.7596E+06    -23.3874E+06    -23.3309E+06     118.530E+06     21.7596E+06     2.46980E+06         44.0805
            1291     14.1627E-03     68.6678E-03         1.87333    -549.091E-03    -568.012E-03    -548.964E-03         1.87320    -568.012E-03    -18.8492E-03     128.097E-03    -57.8883E-03    -70.3425E-03    -56.4650E-03     114.219E-03    -57.8883E-03     98.0663E-03     133.475E+06     60.0158E+06    -20.1072E+06    -20.0095E+06     133.377E+06     60.0158E+06     2.13947E+06         48.3064
            1292     15.1076E-03     68.8029E-03         1.86790    -547.230E-03    -564.348E-03    -547.086E-03         1.86775    -564.348E-03     3.35686E-03     148.276E-03    -58.0240E-03    -90.4000E-03    -58.0773E-03     115.953E-03    -58.0240E-03     161.647E-03     143.984E+06     100.757E+06    -14.9109E+06    -14.8467E+06     143.920E+06     100.757E+06     751.320E+03         52.3322
            1293     16.0501E-03     69.0257E-03         1.85577    -534.818E-03    -560.245E-03    -534.666E-03         1.85562    -560.245E-03     17.7913E-03     140.212E-03    -58.1321E-03    -82.1632E-03    -57.4152E-03     115.464E-03    -58.1321E-03     130.101E-03     150.099E+06     125.523E+06    -7.85047E+06    -7.82476E+06     150.073E+06     125.523E+06     -50.668E+03         55.4405
            1294     943.450E-06     69.5297E-03         2.27084    -471.814E-03        -1.04425    -650.068E-03         1.87666    -471.814E-03    -868.681E-03     116.383E-03    -58.0798E-03    -58.3052E-03    -58.1119E-03     116.383E-03    -58.2727E-03     299.696E-06    -68.5666E+06    -70.8574E+06    -268.667E+06    -69.5318E+06    -268.639E+06    -69.9195E+06    -1.32209E+06         28.9902
            1295     1.88776E-03     69.5298E-03         1.97045    -560.660E-03    -653.449E-03    -559.478E-03         1.87648    -560.660E-03     240.252E-03     116.160E-03    -57.9413E-03    -58.2254E-03    -57.9676E-03     116.159E-03    -58.1979E-03     839.390E-06    -60.6104E+06    -67.3128E+06    -264.930E+06    -67.3183E+06    -264.924E+06    -60.6104E+06    -28.2311E+03         29.0751
            1296     2.83131E-03     69.5311E-03         1.90898    -558.940E-03    -598.328E-03    -563.417E-03         1.87592    -560.788E-03    -149.000E-03     116.194E-03    -58.0126E-03    -58.1927E-03    -58.0094E-03     116.191E-03    -58.1927E-03     1.46175E-03    -49.5797E+06    -63.8385E+06    -261.308E+06    -63.8467E+06    -261.300E+06    -49.5797E+06     152.685E+03         29.2249
            1297     3.77517E-03     69.5329E-03         1.88226    -559.375E-03    -575.904E-03    -561.393E-03         1.86960    -561.223E-03     59.8069E-03     116.197E-03    -58.0088E-03    -58.2062E-03    -58.0001E-03     116.188E-03    -58.2062E-03     2.34685E-03    -39.4103E+06    -59.1664E+06    -255.971E+06    -59.1755E+06    -255.962E+06    -39.4103E+06     579.841E+03         29.4436
            1298     4.71904E-03     69.5357E-03         1.87081    -551.942E-03    -575.144E-03    -559.652E-03         1.86443    -561.057E-03    -38.9051E-03     116.091E-03    -57.9053E-03    -58.2085E-03    -57.8828E-03     116.069E-03    -58.2085E-03     3.85861E-03    -29.4667E+06    -54.3146E+06    -239.020E+06    -54.3230E+06    -239.011E+06    -29.4667E+06     815.337E+03         29.7338
            1299     5.66355E-03     69.5404E-03         1.84944    -539.990E-03    -566.972E-03    -544.214E-03         1.84624    -559.542E-03     38.7971E-03     116.063E-03    -57.9093E-03    -58.1850E-03    -57.8661E-03     116.020E-03    -58.1850E-03     5.43406E-03    -21.3025E+06    -49.8148E+06    -215.187E+06    -49.8198E+06    -215.182E+06    -21.3025E+06     609.677E+03         30.1087
            1300     6.60665E-03     69.5468E-03         1.84994    -541.587E-03    -562.875E-03    -545.798E-03         1.84856    -557.280E-03    -16.9740E-03     116.006E-03    -57.8777E-03    -58.1647E-03    -57.7920E-03     115.921E-03    -58.1647E-03     7.57587E-03    -14.3059E+06    -45.1102E+06    -191.778E+06    -45.1149E+06    -191.773E+06    -14.3059E+06     214.581E+03         30.5928
            1301     7.55151E-03     69.5561E-03         1.87165    -551.580E-03    -572.161E-03    -566.287E-03         1.87103    -556.835E-03     19.7072E-03     115.818E-03    -57.7207E-03    -58.1390E-03    -57.5769E-03     115.674E-03    -58.1390E-03     9.93259E-03    -7.43851E+06    -40.8353E+06    -167.396E+06    -40.8452E+06    -167.386E+06    -7.43851E+06    -8.58339E+03         31.2109
            1302     8.49483E-03     69.5672E-03         1.87293    -557.721E-03    -568.100E-03    -567.482E-03         1.87231    -557.721E-03     12.5927E-03     115.743E-03    -57.6865E-03    -58.0913E-03    -57.4670E-03     115.524E-03    -58.0913E-03     12.2520E-03    -2.73435E+06    -37.2668E+06    -141.066E+06    -37.2785E+06    -141.054E+06    -2.73435E+06     335.112E+03         31.9798
            1303     9.43970E-03     69.5819E-03         1.85323    -549.176E-03    -558.186E-03    -549.285E-03         1.85269    -557.538E-03     24.5629E-03     115.898E-03    -57.7922E-03    -58.0785E-03    -57.4103E-03     115.472E-03    -58.0335E-03     16.8934E-03    -1.80930E+06    -34.2698E+06    -112.172E+06    -34.2999E+06    -112.142E+06    -1.80930E+06     545.192E+03         33.0655
            1304     10.3836E-03     69.6039E-03         1.84569    -543.999E-03    -556.149E-03    -543.775E-03         1.84546    -556.149E-03     2.04038E-03     115.885E-03    -57.8499E-03    -58.0007E-03    -57.2070E-03     115.197E-03    -57.9557E-03     21.7413E-03    -2.84607E+06    -31.7967E+06    -74.7947E+06    -31.8929E+06    -74.6986E+06    -2.84607E+06     361.565E+03         34.7640
            1305     11.3289E-03     69.6282E-03         1.85414    -550.118E-03    -557.135E-03    -552.119E-03         1.85396    -554.951E-03     3.47826E-03     115.701E-03    -57.7508E-03    -57.9771E-03    -56.8319E-03     114.641E-03    -57.8360E-03     26.7986E-03     6.31709E+06    -22.6452E+06    -40.6964E+06    -29.9470E+06    -17.9361E+06    -9.14140E+06    -127.575E+03         37.1915
            1306     12.2723E-03     69.6614E-03         1.85053    -545.819E-03    -556.090E-03    -547.855E-03         1.85038    -553.906E-03     3.97965E-03     116.547E-03    -57.6808E-03    -58.9048E-03    -56.5606E-03     114.246E-03    -57.7235E-03     38.9886E-03     60.7351E+06    -6.95840E+06    -28.4659E+06    -28.4113E+06     60.6804E+06    -6.95840E+06    -116.355E+03         40.3085
            1307     13.2170E-03     69.7144E-03         1.83001    -528.818E-03    -551.861E-03    -528.686E-03         1.82987    -551.861E-03     6.51715E-03     118.156E-03    -57.7376E-03    -60.4736E-03    -55.6714E-03     113.354E-03    -57.7376E-03     57.0093E-03     115.487E+06     18.7566E+06    -25.5452E+06    -25.5100E+06     115.452E+06     18.7566E+06     1.31976E+06         44.0834
            1308     14.1644E-03     69.7870E-03         1.81782    -520.766E-03    -548.568E-03    -520.704E-03         1.81776    -548.568E-03     1.06698E-03     127.110E-03    -57.8358E-03    -69.3954E-03    -55.7761E-03     113.491E-03    -57.8358E-03     96.5190E-03     133.411E+06     58.2624E+06    -19.9717E+06    -19.9097E+06     133.349E+06     58.2624E+06     2.32431E+06         48.3124
            1309     15.1101E-03     69.9282E-03         1.81846    -527.107E-03    -544.489E-03    -527.048E-03         1.81840    -544.489E-03     15.5819E-03     148.223E-03    -57.9539E-03    -90.4105E-03    -57.7466E-03     115.559E-03    -57.9539E-03     162.198E-03     145.521E+06     101.794E+06    -13.7505E+06    -13.6714E+06     145.442E+06     101.794E+06     1.99475E+06         52.3412
            1310     16.0548E-03     70.1507E-03         1.81179    -524.974E-03    -540.564E-03    -524.871E-03         1.81169    -540.564E-03     16.6999E-03     140.449E-03    -58.0586E-03    -82.4383E-03    -57.6477E-03     115.659E-03    -58.0586E-03     128.988E-03     151.253E+06     126.781E+06    -7.32921E+06    -7.28411E+06     151.208E+06     126.781E+06     945.787E+03         55.4508
            1311     944.289E-06     70.6518E-03         2.42404    -533.822E-03        -1.14566    -566.626E-03         1.84501    -533.822E-03        -1.06161     116.094E-03    -57.7660E-03    -58.3317E-03    -58.3315E-03     116.094E-03    -57.7660E-03     294.458E-06    -66.2048E+06    -71.3316E+06    -268.338E+06    -70.9000E+06    -268.297E+06    -66.6775E+06    -387.413E+03         28.9857
            1312     1.88731E-03     70.6520E-03         1.94226    -542.954E-03    -659.395E-03    -513.904E-03         1.79677    -542.954E-03     345.546E-03     116.287E-03    -58.0624E-03    -58.2307E-03    -58.1681E-03     116.286E-03    -58.1238E-03     764.691E-06    -60.1108E+06    -68.5497E+06    -265.502E+06    -68.5532E+06    -265.498E+06    -60.1108E+06     346.415E+03         29.0736
            1313     2.83141E-03     70.6530E-03         1.87078    -537.447E-03    -594.810E-03    -548.153E-03         1.82412    -537.447E-03    -136.547E-03     116.171E-03    -58.0023E-03    -58.1794E-03    -57.9985E-03     116.167E-03    -58.1794E-03     1.59094E-03    -50.6739E+06    -64.4442E+06    -261.498E+06    -64.4513E+06    -261.491E+06    -50.6739E+06     588.642E+03         29.2248
            1314     3.77534E-03     70.6549E-03         1.83597    -539.729E-03    -562.493E-03    -544.124E-03         1.81760    -539.729E-03     117.597E-03     116.146E-03    -57.9703E-03    -58.1935E-03    -57.9617E-03     116.138E-03    -58.1935E-03     2.40890E-03    -40.2525E+06    -59.9908E+06    -256.409E+06    -60.0012E+06    -256.398E+06    -40.2525E+06     509.512E+03         29.4447
            1315     4.71943E-03     70.6576E-03         1.80450    -527.894E-03    -544.372E-03    -526.477E-03         1.79767    -538.952E-03    -32.1241E-03     116.152E-03    -57.9732E-03    -58.1997E-03    -57.9528E-03     116.131E-03    -58.1997E-03     3.67619E-03    -30.4832E+06    -55.0364E+06    -239.056E+06    -55.0483E+06    -239.044E+06    -30.4832E+06     838.032E+03         29.7354
            1316     5.66276E-03     70.6626E-03         1.78850    -516.843E-03    -538.975E-03    -515.403E-03         1.78399    -535.895E-03     15.8478E-03     116.091E-03    -57.9331E-03    -58.1851E-03    -57.8903E-03     116.048E-03    -58.1851E-03     5.38498E-03    -21.6042E+06    -50.1156E+06    -214.448E+06    -50.1238E+06    -214.440E+06    -21.6042E+06     651.127E+03         30.1107
            1317     6.60721E-03     70.6693E-03         1.80508    -525.893E-03    -542.615E-03    -532.137E-03         1.80265    -533.940E-03    -43.9460E-03     115.971E-03    -57.8418E-03    -58.1654E-03    -57.7629E-03     115.893E-03    -58.1654E-03     7.32772E-03    -14.7432E+06    -45.6756E+06    -191.476E+06    -45.6820E+06    -191.470E+06    -14.7432E+06     203.427E+03         30.5959
            1318     7.55074E-03     70.6777E-03         1.81552    -531.203E-03    -547.348E-03    -543.153E-03         1.81433    -534.213E-03    -3.29061E-03     115.856E-03    -57.7615E-03    -58.1332E-03    -57.6257E-03     115.720E-03    -58.1332E-03     9.62332E-03    -9.09293E+06    -41.7940E+06    -167.958E+06    -41.8021E+06    -167.950E+06    -9.09293E+06     397.595E+03         31.2144
            1319     8.49566E-03     70.6899E-03         1.80643    -530.546E-03    -542.729E-03    -537.338E-03         1.80518    -534.688E-03    -1.79239E-03     115.851E-03    -57.7906E-03    -58.0937E-03    -57.5780E-03     115.638E-03    -58.0937E-03     12.0815E-03    -4.43350E+06    -38.3589E+06    -141.642E+06    -38.3750E+06    -141.626E+06    -4.43350E+06     849.926E+03         31.9833
            1320     9.43893E-03     70.7039E-03         1.79863    -529.600E-03    -538.307E-03    -532.693E-03         1.79783    -534.418E-03     27.5560E-03     115.885E-03    -57.8252E-03    -58.0454E-03    -57.4108E-03     115.470E-03    -58.0454E-03     16.6159E-03    -2.95511E+06    -35.0008E+06    -112.243E+06    -35.0346E+06    -112.209E+06    -2.95511E+06     867.089E+03         33.0684
            1321     10.3837E-03     70.7260E-03         1.79467    -526.755E-03    -537.110E-03    -529.738E-03         1.79426    -533.721E-03     6.05545E-03     115.794E-03    -57.8107E-03    -57.9655E-03    -57.1485E-03     115.132E-03    -57.9655E-03     21.3465E-03    -3.68986E+06    -31.8251E+06    -74.5994E+06    -31.9438E+06    -74.4808E+06    -3.68986E+06     611.148E+03         34.7662
            1322     11.3271E-03     70.7505E-03         1.79364    -524.736E-03    -534.945E-03    -526.702E-03         1.79342    -532.761E-03     18.6871E-03     115.908E-03    -57.7972E-03    -58.1497E-03    -57.0382E-03     114.853E-03    -57.8538E-03     26.7159E-03     6.68410E+06    -22.8954E+06    -41.1388E+06    -30.3834E+06    -17.1880E+06    -9.77876E+06     608.767E+03         37.1933
            1323     12.2723E-03     70.7839E-03         1.79672    -525.520E-03    -534.746E-03    -528.437E-03         1.79654    -531.645E-03     16.4325E-03     116.776E-03    -57.7542E-03    -59.0634E-03    -56.7316E-03     114.444E-03    -57.7542E-03     39.3031E-03     61.0339E+06    -7.85377E+06    -29.7183E+06    -29.6900E+06     61.0056E+06    -7.85377E+06     643.085E+03         40.3101
            1324     13.2173E-03     70.8362E-03         1.79682    -522.759E-03    -534.524E-03    -526.783E-03         1.79665    -530.328E-03     19.2023E-03     118.032E-03    -57.7615E-03    -60.3220E-03    -55.7492E-03     113.460E-03    -57.7615E-03     55.8150E-03     114.563E+06     16.3790E+06    -27.3127E+06    -27.2525E+06     114.503E+06     16.3790E+06     183.015E+03         44.0853
            1325     14.1623E-03     70.9064E-03         1.78464    -513.741E-03    -531.503E-03    -516.984E-03         1.78460    -528.224E-03    -1.03699E-03     127.308E-03    -57.8588E-03    -69.5447E-03    -55.9099E-03     113.673E-03    -57.8588E-03     96.1135E-03     131.395E+06     54.2192E+06    -22.6024E+06    -22.5232E+06     131.316E+06     54.2192E+06     997.222E+03         48.3152
            1326     15.1078E-03     71.0512E-03         1.76910    -507.518E-03    -524.757E-03    -507.468E-03         1.76905    -524.757E-03     10.1106E-03     147.000E-03    -57.9750E-03    -89.1475E-03    -56.8197E-03     114.673E-03    -57.9750E-03     160.644E-03     144.692E+06     99.4972E+06    -16.0179E+06    -15.9443E+06     144.619E+06     99.4972E+06     2.16583E+06         52.3465
            1327     16.0548E-03     71.2702E-03         1.75608    -503.607E-03    -520.915E-03    -503.554E-03         1.75603    -520.915E-03    -4.15315E-03     139.498E-03    -58.0516E-03    -81.4865E-03    -57.0617E-03     115.073E-03    -58.0516E-03     127.978E-03     153.076E+06     127.384E+06    -7.97761E+06    -7.93830E+06     153.037E+06     127.384E+06     930.615E+03         55.4592
            1328     943.867E-06     71.7741E-03         2.55314    -492.800E-03        -1.33760    -524.176E-03         1.73971    -492.800E-03        -1.24952     115.955E-03    -57.6328E-03    -58.3259E-03    -58.2250E-03     115.954E-03    -57.7322E-03     633.188E-06    -66.5319E+06    -72.3299E+06    -269.819E+06    -70.9630E+06    -269.778E+06    -67.9396E+06     2.48010E+06         28.9828
            1329     1.88791E-03     71.7740E-03         1.96824    -510.722E-03    -730.833E-03    -519.720E-03         1.75713    -510.722E-03     419.987E-03     116.288E-03    -58.0561E-03    -58.2375E-03    -58.2140E-03     116.287E-03    -58.0787E-03     652.206E-06    -60.5689E+06    -68.7320E+06    -266.262E+06    -68.7408E+06    -266.253E+06    -60.5689E+06     1.10159E+06         29.0743
            1330     2.83147E-03     71.7750E-03         1.82878    -514.017E-03    -588.632E-03    -520.394E-03         1.76054    -514.017E-03    -199.840E-03     116.236E-03    -58.0619E-03    -58.1851E-03    -58.0777E-03     116.233E-03    -58.1661E-03     1.40557E-03    -51.1292E+06    -64.9335E+06    -261.583E+06    -64.9406E+06    -261.576E+06    -51.1292E+06     943.704E+03         29.2276
            1331     3.77539E-03     71.7769E-03         1.77406    -514.235E-03    -534.501E-03    -507.770E-03         1.74733    -514.235E-03     97.9473E-03     116.242E-03    -58.0540E-03    -58.2053E-03    -58.0458E-03     116.234E-03    -58.2053E-03     2.33020E-03    -39.9140E+06    -60.1903E+06    -256.346E+06    -60.1991E+06    -256.337E+06    -39.9140E+06     769.864E+03         29.4486
            1332     4.71884E-03     71.7800E-03         1.75983    -511.128E-03    -524.152E-03    -510.212E-03         1.74783    -513.072E-03    -67.1143E-03     116.213E-03    -58.0189E-03    -58.2188E-03    -57.9987E-03     116.193E-03    -58.2188E-03     3.65769E-03    -31.1762E+06    -55.4258E+06    -238.986E+06    -55.4401E+06    -238.972E+06    -31.1762E+06     475.506E+03         29.7393
            1333     5.66313E-03     71.7847E-03         1.75765    -510.922E-03    -522.243E-03    -515.074E-03         1.75242    -512.866E-03     37.5853E-03     116.060E-03    -57.8909E-03    -58.1955E-03    -57.8473E-03     116.017E-03    -58.1955E-03     5.42533E-03    -23.3183E+06    -50.1661E+06    -214.299E+06    -50.1795E+06    -214.286E+06    -23.3183E+06     438.224E+03         30.1139
            1334     6.60673E-03     71.7912E-03         1.75403    -511.711E-03    -517.859E-03    -513.319E-03         1.75071    -512.934E-03    -5.56139E-03     116.027E-03    -57.8800E-03    -58.1763E-03    -57.8017E-03     115.949E-03    -58.1763E-03     7.31592E-03    -15.8748E+06    -45.9741E+06    -191.682E+06    -45.9824E+06    -191.674E+06    -15.8748E+06     797.011E+03         30.5990
            1335     7.55109E-03     71.8003E-03         1.74618    -508.226E-03    -513.204E-03    -506.588E-03         1.74374    -512.404E-03     20.4569E-03     116.028E-03    -57.9097E-03    -58.1553E-03    -57.7755E-03     115.893E-03    -58.1553E-03     9.56975E-03    -9.65554E+06    -42.3319E+06    -168.081E+06    -42.3446E+06    -168.068E+06    -9.65554E+06     1.02965E+06         31.2177
            1336     8.49430E-03     71.8120E-03         1.74661    -507.612E-03    -516.398E-03    -510.955E-03         1.74531    -511.754E-03    -14.2541E-03     115.912E-03    -57.8207E-03    -58.1221E-03    -57.6089E-03     115.700E-03    -58.1221E-03     12.0605E-03    -4.49397E+06    -38.4953E+06    -141.954E+06    -38.5166E+06    -141.933E+06    -4.49397E+06     1.13581E+06         31.9871
            1337     9.43918E-03     71.8265E-03         1.75073    -510.567E-03    -520.643E-03    -518.677E-03         1.74995    -511.753E-03     9.72379E-03     115.937E-03    -57.8491E-03    -58.0717E-03    -57.4416E-03     115.529E-03    -58.0717E-03     16.4971E-03    -2.74403E+06    -35.3027E+06    -112.240E+06    -35.3492E+06    -112.194E+06    -2.74403E+06     1.13008E+06         33.0723
            1338     10.3829E-03     71.8477E-03         1.74544    -507.640E-03    -516.777E-03    -512.305E-03         1.74506    -511.731E-03    -17.2593E-03     115.914E-03    -57.8959E-03    -57.9979E-03    -57.2437E-03     115.262E-03    -57.9979E-03     21.1912E-03    -4.04392E+06    -32.7952E+06    -74.5333E+06    -32.9039E+06    -74.4246E+06    -4.04392E+06     1.00732E+06         34.7688
            1339     11.3284E-03     71.8731E-03         1.73406    -499.568E-03    -510.781E-03    -499.470E-03         1.73396    -510.781E-03     11.4092E-03     115.928E-03    -57.8337E-03    -58.1251E-03    -57.0237E-03     114.883E-03    -57.8909E-03     26.5759E-03     5.88264E+06    -23.5986E+06    -41.1029E+06    -30.8770E+06    -17.6982E+06    -10.2437E+06     1.13167E+06         37.1950
            1340     12.2719E-03     71.9062E-03         1.73928    -502.295E-03    -511.331E-03    -504.124E-03         1.73920    -509.416E-03     9.34900E-03     116.597E-03    -57.7775E-03    -58.8578E-03    -56.5702E-03     114.309E-03    -57.7775E-03     38.9104E-03     60.7434E+06    -8.00457E+06    -29.4599E+06    -29.4109E+06     60.6945E+06    -8.00457E+06     1.07468E+06         40.3125
            1341     13.2161E-03     71.9585E-03         1.74788    -507.773E-03    -513.577E-03    -512.874E-03         1.74779    -508.382E-03     6.90131E-03     118.329E-03    -57.7905E-03    -60.5952E-03    -56.0425E-03     113.776E-03    -57.7905E-03     55.7613E-03     115.301E+06     17.1535E+06    -27.7144E+06    -27.6512E+06     115.238E+06     17.1535E+06      484.07E+03         44.0888
            1342     14.1619E-03     72.0277E-03         1.74553    -505.860E-03    -514.743E-03    -513.429E-03         1.74548    -507.123E-03    -2.67114E-03     128.276E-03    -57.9239E-03    -70.4472E-03    -56.7318E-03     114.561E-03    -57.9239E-03     96.8630E-03     131.115E+06     54.8734E+06    -23.8349E+06    -23.7317E+06     131.012E+06     54.8734E+06     417.576E+03         48.3183
            1343     15.1070E-03     72.1741E-03         1.72980    -498.964E-03    -509.479E-03    -503.805E-03         1.72973    -504.567E-03     21.2054E-03     146.662E-03    -58.0608E-03    -88.7147E-03    -56.9116E-03     114.859E-03    -58.0608E-03     159.301E-03     144.120E+06     98.3967E+06    -16.2941E+06    -16.2358E+06     144.062E+06     98.3967E+06     565.884E+03         52.3491
            1344     16.0530E-03     72.3886E-03         1.71548    -490.257E-03    -502.132E-03    -491.080E-03         1.71539    -501.229E-03     1.76745E-03     138.793E-03    -58.1202E-03    -80.7405E-03    -56.2719E-03     114.325E-03    -58.1202E-03     129.473E-03     153.796E+06     126.538E+06    -7.72271E+06    -7.71876E+06     153.792E+06     126.538E+06     396.145E+03         55.4638
            1345     944.262E-06     72.8956E-03         2.67505    -483.503E-03        -1.48397    -491.560E-03         1.68264    -483.503E-03        -1.41888     116.097E-03    -57.9022E-03    -58.1988E-03    -58.0524E-03     116.096E-03    -58.0467E-03     986.924E-06    -69.2112E+06    -72.3804E+06    -272.176E+06    -71.0012E+06    -272.148E+06    -70.6189E+06     1.50071E+06         28.9884
            1346     1.88760E-03     72.8963E-03         1.97600    -491.242E-03    -773.546E-03    -505.969E-03         1.70842    -491.242E-03     441.866E-03     116.294E-03    -58.0747E-03    -58.2258E-03    -58.1804E-03     116.294E-03    -58.1197E-03     519.314E-06    -61.9033E+06    -67.9173E+06    -266.740E+06    -67.9309E+06    -266.726E+06    -61.9033E+06     1.58275E+06         29.0793
            1347     2.83138E-03     72.8970E-03         1.79065    -493.381E-03    -581.819E-03    -484.228E-03         1.69306    -493.381E-03    -228.326E-03     116.359E-03    -58.1253E-03    -58.2439E-03    -58.1685E-03     116.356E-03    -58.1983E-03     1.14516E-03    -51.2905E+06    -64.6101E+06    -261.629E+06    -64.6251E+06    -261.614E+06    -51.2905E+06     1.51106E+06         29.2333
            1348     3.77500E-03     72.8991E-03         1.71486    -489.633E-03    -510.880E-03    -472.248E-03         1.67623    -489.633E-03     124.285E-03     116.269E-03    -58.0436E-03    -58.2409E-03    -58.0349E-03     116.260E-03    -58.2409E-03     2.39470E-03    -40.1062E+06    -60.2082E+06    -256.296E+06    -60.2202E+06    -256.284E+06    -40.1062E+06     1.09468E+06         29.4541
            1349     4.71907E-03     72.9021E-03         1.70123    -487.188E-03    -502.702E-03    -485.281E-03         1.68380    -487.188E-03    -53.8444E-03     116.218E-03    -58.0016E-03    -58.2417E-03    -57.9808E-03     116.197E-03    -58.2417E-03     3.73760E-03    -31.2760E+06    -55.2585E+06    -237.952E+06    -55.2667E+06    -237.943E+06    -31.2760E+06     215.247E+03         29.7444
            1350     5.66269E-03     72.9067E-03         1.70360    -487.584E-03    -504.697E-03    -496.029E-03         1.69494    -487.584E-03     69.5788E-03     116.142E-03    -57.9492E-03    -58.2187E-03    -57.9077E-03     116.100E-03    -58.2187E-03     5.30424E-03    -24.4081E+06    -51.0461E+06    -215.149E+06    -51.0537E+06    -215.141E+06    -24.4081E+06     256.059E+03         30.1182
            1351     6.60698E-03     72.9135E-03         1.69595    -487.174E-03    -496.526E-03    -491.348E-03         1.69194    -488.343E-03    -13.7011E-03     116.092E-03    -57.9113E-03    -58.2066E-03    -57.8331E-03     116.014E-03    -58.2066E-03     7.28692E-03    -16.0782E+06    -46.6459E+06    -192.958E+06    -46.6584E+06    -192.946E+06    -16.0782E+06     1.20249E+06         30.6012
            1352     7.55039E-03     72.9224E-03         1.68796    -487.157E-03    -491.382E-03    -487.882E-03         1.68563    -488.326E-03     29.5859E-03     116.051E-03    -57.9016E-03    -58.1858E-03    -57.7659E-03     115.916E-03    -58.1858E-03     9.63627E-03    -8.68014E+06    -42.1458E+06    -167.564E+06    -42.1638E+06    -167.546E+06    -8.68014E+06     1.38053E+06         31.2188
            1353     8.49493E-03     72.9345E-03         1.69563    -488.493E-03    -497.959E-03    -496.563E-03         1.69423    -488.493E-03     4.73398E-03     115.981E-03    -57.8600E-03    -58.1483E-03    -57.6425E-03     115.763E-03    -58.1483E-03     12.2117E-03    -4.33072E+06    -38.7039E+06    -142.137E+06    -38.7336E+06    -142.107E+06    -4.33072E+06     1.44168E+06         31.9890
            1354     9.43838E-03     72.9484E-03         1.69685    -489.071E-03    -499.267E-03    -498.379E-03         1.69597    -489.071E-03     33.5682E-03     116.088E-03    -57.9427E-03    -58.1179E-03    -57.5471E-03     115.673E-03    -58.0983E-03     16.6963E-03    -2.89571E+06    -35.4855E+06    -112.413E+06    -35.5372E+06    -112.361E+06    -2.89571E+06     1.50646E+06         33.0746
            1355     10.3829E-03     72.9705E-03         1.68909    -486.404E-03    -494.408E-03    -491.424E-03         1.68890    -489.198E-03    -8.32685E-03     116.051E-03    -57.9637E-03    -58.0526E-03    -57.3304E-03     115.398E-03    -58.0330E-03     21.2186E-03    -3.83460E+06    -32.5522E+06    -74.4583E+06    -32.7103E+06    -74.3002E+06    -3.83460E+06     1.44850E+06         34.7702
            1356     11.3257E-03     72.9947E-03         1.68696    -483.533E-03    -493.893E-03    -488.600E-03         1.68689    -488.757E-03     19.1416E-03     115.894E-03    -57.8618E-03    -58.0543E-03    -56.9117E-03     114.811E-03    -57.9212E-03     26.9746E-03     5.66350E+06    -23.5743E+06    -40.8616E+06    -30.4336E+06    -18.0271E+06    -10.3118E+06     1.08402E+06         37.1961
            1357     12.2712E-03     73.0291E-03         1.68890    -485.699E-03    -492.574E-03    -490.045E-03         1.68880    -488.130E-03     21.4388E-03     116.438E-03    -57.7892E-03    -58.6748E-03    -56.3725E-03     114.135E-03    -57.7892E-03     39.1117E-03     60.1900E+06    -7.88765E+06    -28.2630E+06    -28.2082E+06     60.1352E+06    -7.88765E+06     839.499E+03         40.3148
            1358     13.2175E-03     73.0791E-03         1.68844    -486.337E-03    -488.600E-03    -487.590E-03         1.68832    -487.232E-03     6.95671E-03     118.696E-03    -57.8012E-03    -60.9477E-03    -56.3033E-03     114.051E-03    -57.8012E-03     56.3338E-03     115.436E+06     18.1911E+06    -25.7800E+06    -25.7385E+06     115.395E+06     18.1911E+06     1.32907E+06         44.0924
            1359     14.1611E-03     73.1523E-03         1.68854    -484.883E-03    -491.188E-03    -490.238E-03         1.68849    -485.778E-03    -2.77718E-03     128.808E-03    -57.9669E-03    -70.9510E-03    -57.1745E-03     115.031E-03    -57.9669E-03     97.5432E-03     132.351E+06     57.4552E+06    -21.7808E+06    -21.7226E+06     132.293E+06     57.4552E+06     797.902E+03         48.3222
            1360     15.1043E-03     73.2959E-03         1.68654    -483.586E-03    -495.104E-03    -495.026E-03         1.68646    -483.586E-03     7.32319E-03     146.910E-03    -58.1314E-03    -88.9023E-03    -57.4058E-03     115.414E-03    -58.1314E-03     158.877E-03     144.717E+06     99.7060E+06    -16.0144E+06    -15.9434E+06     144.646E+06     99.7060E+06    -934.366E+03         52.3523
            1361     16.0511E-03     73.5081E-03         1.68762    -481.373E-03    -494.906E-03    -494.811E-03         1.68752    -481.373E-03     2.85450E-03     138.637E-03    -58.1854E-03    -80.5181E-03    -55.9497E-03     114.069E-03    -58.1854E-03     130.708E-03     153.393E+06     126.120E+06    -7.55378E+06    -7.50898E+06     153.348E+06     126.120E+06    -295.123E+03         55.4680
            1362     943.115E-06     74.0170E-03         2.81945    -521.478E-03        -1.60145    -429.923E-03         1.64793    -521.478E-03        -1.49593     116.554E-03    -57.9900E-03    -58.5673E-03    -58.3742E-03     116.554E-03    -58.1824E-03     380.395E-06    -69.0755E+06    -71.3529E+06    -272.727E+06    -71.1926E+06    -272.721E+06    -69.2416E+06     120.044E+03         29.0011
            1363     1.88761E-03     74.0187E-03         1.97192    -470.090E-03    -805.387E-03    -447.456E-03         1.61399    -470.090E-03     532.203E-03     116.238E-03    -57.9597E-03    -58.2829E-03    -57.9855E-03     116.237E-03    -58.2562E-03     721.435E-06    -63.3986E+06    -68.1835E+06    -268.323E+06    -68.1900E+06    -268.316E+06    -63.3986E+06     592.062E+03         29.0866
            1364     2.83104E-03     74.0192E-03         1.74104    -462.912E-03    -578.753E-03    -454.021E-03         1.61631    -462.912E-03    -248.812E-03     116.360E-03    -58.0773E-03    -58.2909E-03    -58.1335E-03     116.356E-03    -58.2314E-03     1.36044E-03    -52.9205E+06    -63.8238E+06    -262.376E+06    -63.8391E+06    -262.361E+06    -52.9205E+06     1.61458E+06         29.2392
            1365     3.77508E-03     74.0209E-03         1.66554    -461.002E-03    -506.460E-03    -458.021E-03         1.61711    -461.002E-03     153.703E-03     116.394E-03    -58.1034E-03    -58.3036E-03    -58.1279E-03     116.385E-03    -58.2708E-03     2.36513E-03    -40.3677E+06    -59.3615E+06    -255.223E+06    -59.3724E+06    -255.212E+06    -40.3677E+06     1.09404E+06         29.4601
            1366     4.71881E-03     74.0243E-03         1.65153    -461.859E-03    -494.544E-03    -474.901E-03         1.63188    -461.859E-03    -66.1934E-03     116.322E-03    -58.0554E-03    -58.2887E-03    -58.0355E-03     116.303E-03    -58.2887E-03     3.63187E-03    -29.9502E+06    -54.6753E+06    -237.617E+06    -54.6778E+06    -237.614E+06    -29.9502E+06     487.711E+03         29.7496
            1367     5.66268E-03     74.0292E-03         1.64431    -464.123E-03    -486.826E-03    -476.752E-03         1.63424    -464.123E-03     46.9878E-03     116.213E-03    -57.9669E-03    -58.2724E-03    -57.9280E-03     116.174E-03    -58.2724E-03     5.15842E-03    -22.3314E+06    -50.6110E+06    -215.820E+06    -50.6169E+06    -215.814E+06    -22.3314E+06     872.705E+03         30.1206
            1368     6.60618E-03     74.0355E-03         1.63726    -465.617E-03    -477.716E-03    -473.490E-03         1.63303    -465.617E-03    -62.4934E-03     116.049E-03    -57.8344E-03    -58.2410E-03    -57.7525E-03     115.968E-03    -58.2410E-03     7.38355E-03    -15.8967E+06    -46.4718E+06    -193.621E+06    -46.4823E+06    -193.610E+06    -15.8967E+06     1.04462E+06         30.6003
            1369     7.55064E-03     74.0452E-03         1.63068    -466.218E-03    -471.007E-03    -469.459E-03         1.62913    -466.218E-03     1.96211E-03     116.000E-03    -57.8331E-03    -58.2020E-03    -57.6928E-03     115.860E-03    -58.2020E-03     9.82705E-03    -9.30599E+06    -42.1510E+06    -168.162E+06    -42.1744E+06    -168.139E+06    -9.30599E+06     1.42610E+06         31.2163
            1370     8.49424E-03     74.0561E-03         1.62926    -463.812E-03    -471.512E-03    -467.788E-03         1.62801    -466.290E-03    -13.6194E-03     115.978E-03    -57.8458E-03    -58.1602E-03    -57.6264E-03     115.759E-03    -58.1602E-03     12.2506E-03    -4.16349E+06    -38.2400E+06    -142.376E+06    -38.2769E+06    -142.339E+06    -4.16349E+06     1.65882E+06         31.9862
            1371     9.43864E-03     74.0716E-03         1.62954    -463.686E-03    -471.185E-03    -467.983E-03         1.62882    -466.164E-03     13.1392E-03     116.033E-03    -57.8846E-03    -58.1228E-03    -57.4620E-03     115.591E-03    -58.1032E-03     17.1727E-03    -2.87120E+06    -34.8047E+06    -112.838E+06    -34.8649E+06    -112.777E+06    -2.87120E+06     1.65444E+06         33.0721
            1372     10.3821E-03     74.0926E-03         1.63535    -466.247E-03    -475.265E-03    -475.007E-03         1.63509    -466.247E-03    -18.9500E-03     115.948E-03    -57.8698E-03    -58.0446E-03    -57.1932E-03     115.252E-03    -58.0250E-03     21.9088E-03    -3.70269E+06    -31.5898E+06    -74.4660E+06    -31.7529E+06    -74.3029E+06    -3.70269E+06     1.65875E+06         34.7697
            1373     11.3280E-03     74.1172E-03         1.64148    -466.702E-03    -480.292E-03    -480.249E-03         1.64144    -466.702E-03     15.9215E-03     115.835E-03    -57.8017E-03    -58.0533E-03    -56.8258E-03     114.707E-03    -57.9009E-03     27.5611E-03     6.18787E+06    -23.1424E+06    -40.6176E+06    -29.7260E+06    -17.4950E+06    -10.3510E+06     1.33459E+06         37.1976
            1374     12.2723E-03     74.1504E-03         1.64067    -466.943E-03    -476.391E-03    -476.304E-03         1.64058    -466.943E-03     20.1404E-03     116.816E-03    -57.7820E-03    -59.0497E-03    -56.7262E-03     114.493E-03    -57.7820E-03     39.4726E-03     61.0378E+06    -7.93368E+06    -28.6222E+06    -28.5445E+06     60.9601E+06    -7.93368E+06     652.537E+03         40.3167
            1375     13.2158E-03     74.2019E-03         1.64052    -466.282E-03    -473.447E-03    -473.047E-03         1.64040    -466.568E-03     2.34720E-03     119.166E-03    -57.8062E-03    -61.4075E-03    -56.7010E-03     114.460E-03    -57.8062E-03     56.7818E-03     115.678E+06     16.1078E+06    -25.8724E+06    -25.8396E+06     115.645E+06     16.1078E+06     600.620E+03         44.0934
            1376     14.1607E-03     74.2758E-03         1.64039    -465.276E-03    -473.482E-03    -473.103E-03         1.64030    -465.563E-03    -22.3979E-03     128.218E-03    -57.9611E-03    -70.3818E-03    -56.4815E-03     114.318E-03    -57.9611E-03     97.6267E-03     132.365E+06     55.3554E+06    -21.5042E+06    -21.4700E+06     132.331E+06     55.3554E+06     592.668E+03         48.3244
            1377     15.1072E-03     74.4184E-03         1.64207    -463.931E-03    -480.347E-03    -480.263E-03         1.64198    -463.931E-03    -16.9848E-03     147.333E-03    -58.1098E-03    -89.3715E-03    -57.1272E-03     115.089E-03    -58.1098E-03     160.821E-03     145.437E+06     101.088E+06    -15.3987E+06    -15.3129E+06     145.351E+06     101.088E+06    -53.7156E+03         52.3580
            1378     16.0501E-03     74.6318E-03         1.64045    -462.283E-03    -481.768E-03    -481.579E-03         1.64033    -462.356E-03    -8.78146E-03     139.804E-03    -58.1645E-03    -81.7038E-03    -56.6446E-03     114.745E-03    -58.1645E-03     132.008E-03     153.684E+06     127.110E+06    -7.30469E+06    -7.23108E+06     153.610E+06     127.110E+06    -171.246E+03         55.4753
            1379     943.397E-06     75.1399E-03         2.94322    -483.915E-03        -1.77751    -376.010E-03         1.54172    -483.915E-03        -1.65080     116.665E-03    -58.0078E-03    -58.6586E-03    -58.5105E-03     116.664E-03    -58.1552E-03     352.502E-06    -69.3154E+06    -71.4227E+06    -273.155E+06    -71.1649E+06    -273.147E+06    -69.5810E+06     399.237E+03         29.0125
            1380     1.88698E-03     75.1400E-03         1.98366    -429.843E-03    -866.197E-03    -429.346E-03         1.54681    -429.843E-03     592.033E-03     116.385E-03    -58.0092E-03    -58.3801E-03    -58.0679E-03     116.384E-03    -58.3205E-03     763.435E-06    -63.9030E+06    -69.8996E+06    -268.957E+06    -69.9045E+06    -268.952E+06    -63.9030E+06     260.163E+03         29.0953
            1381     2.83166E-03     75.1414E-03         1.71833    -432.161E-03    -598.828E-03    -447.049E-03         1.56655    -432.161E-03    -297.435E-03     116.359E-03    -58.0573E-03    -58.3115E-03    -58.0870E-03     116.356E-03    -58.2787E-03     1.40507E-03    -54.9221E+06    -66.2341E+06    -262.973E+06    -66.2409E+06    -262.966E+06    -54.9221E+06     131.538E+03         29.2438
            1382     3.77472E-03     75.1436E-03         1.63530    -437.211E-03    -514.593E-03    -458.050E-03         1.57875    -437.211E-03     144.392E-03     116.511E-03    -58.1843E-03    -58.3390E-03    -58.2090E-03     116.503E-03    -58.3062E-03     2.30896E-03    -41.9811E+06    -60.6635E+06    -254.672E+06    -60.6706E+06    -254.665E+06    -41.9811E+06     319.666E+03         29.4626
            1383     4.71834E-03     75.1465E-03         1.60382    -441.454E-03    -481.821E-03    -458.347E-03         1.58034    -441.454E-03    -98.6290E-03     116.357E-03    -58.0403E-03    -58.3374E-03    -58.0192E-03     116.335E-03    -58.3374E-03     3.71945E-03    -29.9337E+06    -55.4889E+06    -239.139E+06    -55.5064E+06    -239.121E+06    -29.9337E+06     1.35684E+06         29.7501
            1384     5.66214E-03     75.1516E-03         1.57910    -442.602E-03    -456.428E-03    -445.939E-03         1.56928    -443.277E-03     55.0412E-03     116.089E-03    -57.8185E-03    -58.3008E-03    -57.7755E-03     116.046E-03    -58.3008E-03     5.40330E-03    -21.9197E+06    -50.6839E+06    -216.375E+06    -50.7049E+06    -216.354E+06    -21.9197E+06     1.64724E+06         30.1189
            1385     6.60656E-03     75.1577E-03         1.57548    -443.056E-03    -454.111E-03    -448.963E-03         1.57100    -443.731E-03    -35.3464E-03     116.022E-03    -57.8054E-03    -58.2484E-03    -57.7185E-03     115.935E-03    -58.2484E-03     7.62782E-03    -15.9015E+06    -46.3286E+06    -192.968E+06    -46.3421E+06    -192.954E+06    -15.9015E+06     1.20236E+06         30.5973
            1386     7.55041E-03     75.1671E-03         1.58072    -444.608E-03    -457.797E-03    -455.800E-03         1.57873    -444.608E-03     29.1548E-03     115.969E-03    -57.8019E-03    -58.2032E-03    -57.6545E-03     115.822E-03    -58.2032E-03     10.0668E-03    -9.66279E+06    -42.2490E+06    -169.070E+06    -42.2741E+06    -169.045E+06    -9.66279E+06     1.43349E+06         31.2122
            1387     8.49451E-03     75.1792E-03         1.57418    -441.981E-03    -451.644E-03    -447.629E-03         1.57339    -445.206E-03    -14.8911E-03     115.879E-03    -57.7497E-03    -58.1533E-03    -57.5215E-03     115.651E-03    -58.1533E-03     12.4977E-03    -3.95919E+06    -37.9927E+06    -142.622E+06    -38.0253E+06    -142.589E+06    -3.95919E+06     1.52005E+06         31.9809
            1388     9.43865E-03     75.1930E-03         1.56954    -441.670E-03    -445.543E-03    -441.888E-03         1.56911    -444.895E-03     11.0122E-03     115.846E-03    -57.7334E-03    -58.0868E-03    -57.2923E-03     115.405E-03    -58.0868E-03     17.1660E-03    -1.85201E+06    -34.0628E+06    -112.601E+06    -34.1194E+06    -112.544E+06    -1.85201E+06     1.51597E+06         33.0678
            1389     10.3839E-03     75.2154E-03         1.58664    -444.916E-03    -457.167E-03    -456.968E-03         1.58644    -444.916E-03    -11.6150E-03     115.758E-03    -57.7371E-03    -57.9971E-03    -57.0609E-03     115.082E-03    -57.9971E-03     21.5773E-03    -2.94774E+06    -31.0467E+06    -74.5280E+06    -31.1904E+06    -74.3843E+06    -2.94774E+06     1.51584E+06         34.7682
            1390     11.3272E-03     75.2384E-03         1.59832    -445.893E-03    -467.489E-03    -467.431E-03         1.59826    -445.893E-03     2.16812E-06     116.041E-03    -57.7777E-03    -58.2874E-03    -57.0966E-03     114.952E-03    -57.8799E-03     27.1200E-03     6.31086E+06    -22.5645E+06    -40.2594E+06    -29.4087E+06    -17.5680E+06    -9.53636E+06     1.54258E+06         37.1980
            1391     12.2719E-03     75.2735E-03         1.59556    -446.790E-03    -463.204E-03    -463.157E-03         1.59551    -446.790E-03    -3.05887E-03     117.100E-03    -57.7871E-03    -59.3251E-03    -56.9985E-03     114.773E-03    -57.7871E-03     39.4694E-03     62.1718E+06    -6.47314E+06    -28.4026E+06    -28.3116E+06     62.0809E+06    -6.47314E+06     1.29004E+06         40.3171
            1392     13.2162E-03     75.3257E-03         1.59687    -447.024E-03    -460.993E-03    -460.947E-03         1.59682    -447.024E-03    -7.11092E-03     119.001E-03    -57.8084E-03    -61.2356E-03    -56.3863E-03     114.151E-03    -57.8084E-03     57.4994E-03     116.203E+06     16.1915E+06    -26.9170E+06    -26.8444E+06     116.130E+06     16.1915E+06     160.433E+03         44.0937
            1393     14.1605E-03     75.3979E-03         1.60181    -446.748E-03    -465.535E-03    -465.425E-03         1.60170    -446.748E-03    -28.7366E-03     127.398E-03    -57.9152E-03    -69.6063E-03    -55.7610E-03     113.553E-03    -57.9152E-03     97.2808E-03     131.841E+06     53.4500E+06    -22.6690E+06    -22.6192E+06     131.791E+06     53.4500E+06    -390.531E+03         48.3267
            1394     15.1077E-03     75.5371E-03         1.60278    -445.744E-03    -467.961E-03    -467.886E-03         1.60271    -445.744E-03    -12.6698E-03     147.330E-03    -58.0358E-03    -89.4341E-03    -56.8413E-03     114.737E-03    -58.0358E-03     161.464E-03     146.003E+06     100.481E+06    -15.6479E+06    -15.5877E+06     145.942E+06     100.481E+06     151.034E+03         52.3643
            1395     16.0557E-03     75.7586E-03         1.59740    -444.337E-03    -463.750E-03    -463.419E-03         1.59714    -444.410E-03    -26.9961E-03     140.381E-03    -58.1144E-03    -82.3278E-03    -57.3706E-03     115.424E-03    -58.1144E-03     130.362E-03     153.929E+06     127.681E+06    -7.67564E+06    -7.62517E+06     153.879E+06     127.681E+06     37.2940E+03         55.4835
            1396     944.177E-06     76.2630E-03         3.02719    -472.811E-03        -1.89240    -359.641E-03         1.49444    -472.811E-03        -1.83153     116.431E-03    -58.0093E-03    -58.4240E-03    -58.4235E-03     116.430E-03    -58.0093E-03     412.578E-06    -71.0136E+06    -72.7495E+06    -274.753E+06    -72.6569E+06    -274.746E+06    -71.1131E+06     503.365E+03         29.0176
            1397     1.88740E-03     76.2623E-03         1.97479    -415.290E-03    -892.000E-03    -411.461E-03         1.49426    -415.290E-03     550.705E-03     116.701E-03    -58.2402E-03    -58.4672E-03    -58.4063E-03     116.700E-03    -58.3000E-03     685.707E-06    -62.9109E+06    -69.3644E+06    -268.348E+06    -69.3729E+06    -268.340E+06    -62.9109E+06     710.481E+03         29.1026
            1398     2.83025E-03     76.2635E-03         1.69735    -415.272E-03    -609.035E-03    -420.970E-03         1.50929    -415.272E-03    -327.729E-03     116.549E-03    -58.1346E-03    -58.4245E-03    -58.1932E-03     116.546E-03    -58.3624E-03     1.49232E-03    -53.0094E+06    -66.8584E+06    -261.955E+06    -66.8668E+06    -261.946E+06    -53.0094E+06     257.078E+03         29.2479
            1399     3.77478E-03     76.2659E-03         1.58621    -417.677E-03    -497.989E-03    -429.622E-03         1.51784    -417.677E-03     178.500E-03     116.325E-03    -57.9851E-03    -58.3528E-03    -57.9758E-03     116.316E-03    -58.3528E-03     2.45507E-03    -42.9214E+06    -63.4051E+06    -255.973E+06    -63.4092E+06    -255.969E+06    -42.9214E+06     23.7130E+03         29.4613
            1400     4.71837E-03     76.2691E-03         1.54220    -419.714E-03    -453.882E-03    -425.871E-03         1.51419    -419.714E-03    -80.2756E-03     116.197E-03    -57.8858E-03    -58.3314E-03    -57.8634E-03     116.175E-03    -58.3314E-03     3.86860E-03    -31.6914E+06    -57.2908E+06    -240.696E+06    -57.3091E+06    -240.678E+06    -31.6914E+06     608.832E+03         29.7468
            1401     5.66278E-03     76.2730E-03         1.52347    -419.676E-03    -436.141E-03    -421.860E-03         1.50986    -420.350E-03     65.6144E-03     116.101E-03    -57.8459E-03    -58.2878E-03    -57.8006E-03     116.056E-03    -58.2878E-03     5.53251E-03    -22.1550E+06    -51.0475E+06    -216.804E+06    -51.0778E+06    -216.774E+06    -22.1550E+06     1.30330E+06         30.1169
            1402     6.60655E-03     76.2801E-03         1.51946    -419.229E-03    -431.556E-03    -424.050E-03         1.51331    -420.583E-03    -37.8080E-03     116.069E-03    -57.8544E-03    -58.2494E-03    -57.7700E-03     115.985E-03    -58.2494E-03     7.57501E-03    -14.7738E+06    -46.2545E+06    -192.932E+06    -46.2784E+06    -192.908E+06    -14.7738E+06     1.70153E+06         30.5961
            1403     7.55042E-03     76.2895E-03         1.52174    -420.430E-03    -431.922E-03    -428.660E-03         1.51916    -421.111E-03     41.0381E-03     115.879E-03    -57.7074E-03    -58.2035E-03    -57.5648E-03     115.736E-03    -58.2035E-03     9.87280E-03    -8.55836E+06    -42.1731E+06    -168.969E+06    -42.1928E+06    -168.949E+06    -8.55836E+06     1.42497E+06         31.2101
            1404     8.49498E-03     76.3009E-03         1.52674    -421.243E-03    -435.967E-03    -433.975E-03         1.52549    -421.990E-03     2.21134E-03     115.811E-03    -57.6868E-03    -58.1441E-03    -57.4590E-03     115.583E-03    -58.1441E-03     12.4799E-03    -3.37833E+06    -37.9391E+06    -142.801E+06    -37.9635E+06    -142.777E+06    -3.37833E+06     1.13288E+06         31.9780
            1405     9.43898E-03     76.3161E-03         1.53423    -422.400E-03    -440.946E-03    -439.512E-03         1.53355    -423.148E-03     38.9242E-03     115.926E-03    -57.8169E-03    -58.0811E-03    -57.4013E-03     115.510E-03    -58.0811E-03     16.7380E-03    -1.09823E+06    -33.9994E+06    -112.442E+06    -34.0352E+06    -112.406E+06    -1.09823E+06     1.07773E+06         33.0652
            1406     10.3826E-03     76.3365E-03         1.54181    -424.477E-03    -444.382E-03    -444.253E-03         1.54168    -424.477E-03     7.31229E-03     115.854E-03    -57.8324E-03    -58.0020E-03    -57.1826E-03     115.204E-03    -58.0020E-03     21.1451E-03    -2.22968E+06    -30.8251E+06    -74.6788E+06    -30.9495E+06    -74.5543E+06    -2.22968E+06     1.21412E+06         34.7662
            1407     11.3282E-03     76.3619E-03         1.54714    -425.789E-03    -447.275E-03    -447.150E-03         1.54702    -425.789E-03     6.80325E-03     116.043E-03    -57.8245E-03    -58.2493E-03    -57.0690E-03     114.928E-03    -57.8902E-03     27.3953E-03     6.28446E+06    -21.7760E+06    -40.2944E+06    -28.7802E+06    -18.2421E+06    -8.76365E+06     1.63325E+06         37.1968
            1408     12.2712E-03     76.3962E-03         1.55045    -426.910E-03    -450.449E-03    -450.200E-03         1.55020    -426.910E-03     12.8581E-03     116.841E-03    -57.7824E-03    -59.0718E-03    -56.6884E-03     114.457E-03    -57.7824E-03     39.9119E-03     62.0886E+06    -5.64985E+06    -27.5984E+06    -27.4905E+06     61.9807E+06    -5.64985E+06     1.94143E+06         40.3175
            1409     13.2167E-03     76.4471E-03         1.55400    -427.643E-03    -449.749E-03    -449.528E-03         1.55378    -427.643E-03     16.9763E-03     118.264E-03    -57.7785E-03    -60.5237E-03    -55.6731E-03     113.413E-03    -57.7785E-03     57.3139E-03     117.644E+06     19.2230E+06    -24.8838E+06    -24.7954E+06     117.555E+06     19.2230E+06     1.21174E+06         44.0967
            1410     14.1632E-03     76.5201E-03         1.55808    -427.855E-03    -454.913E-03    -454.870E-03         1.55804    -427.855E-03    -6.68256E-03     127.308E-03    -57.8731E-03    -69.5405E-03    -55.8902E-03     113.658E-03    -57.8731E-03     96.7832E-03     133.233E+06     56.4661E+06    -21.1842E+06    -21.1023E+06     133.151E+06     56.4661E+06    -27.6752E+03         48.3315
            1411     15.1085E-03     76.6573E-03         1.55901    -427.201E-03    -456.769E-03    -456.704E-03         1.55894    -427.201E-03     10.0029E-03     148.227E-03    -58.0151E-03    -90.3439E-03    -57.8504E-03     115.733E-03    -58.0151E-03     161.845E-03     146.626E+06     100.405E+06    -15.6149E+06    -15.5588E+06     146.570E+06     100.405E+06    -295.273E+03         52.3691
            1412     16.0504E-03     76.8829E-03         1.56806    -426.448E-03    -463.544E-03    -463.284E-03         1.56780    -426.448E-03    -2.49426E-03     140.266E-03    -58.1182E-03    -82.2206E-03    -57.4354E-03     115.481E-03    -58.1182E-03     129.454E-03     153.577E+06     126.548E+06    -7.69957E+06    -7.65946E+06     153.537E+06     126.548E+06    -249.906E+03         55.4890
            1413     943.466E-06     77.3843E-03         3.13050    -487.771E-03        -1.99011    -348.220E-03         1.48861    -487.771E-03        -1.91250     116.531E-03    -58.0476E-03    -58.4875E-03    -58.3743E-03     116.530E-03    -58.1602E-03     70.5571E-06    -69.2247E+06    -72.1159E+06    -274.810E+06    -71.4340E+06    -274.797E+06    -69.9202E+06    -474.870E+03         29.0164
            1414     1.88732E-03     77.3854E-03         1.97093    -410.934E-03    -908.952E-03    -382.775E-03         1.44475    -410.934E-03     627.269E-03     116.577E-03    -58.1620E-03    -58.4218E-03    -58.2679E-03     116.575E-03    -58.3142E-03     897.271E-06    -61.6293E+06    -68.5609E+06    -269.778E+06    -68.5670E+06    -269.772E+06    -61.6293E+06     633.829E+03         29.1015
            1415     2.83103E-03     77.3863E-03         1.64463    -401.347E-03    -586.731E-03    -386.210E-03         1.44411    -401.347E-03    -305.941E-03     116.605E-03    -58.1952E-03    -58.4186E-03    -58.2530E-03     116.601E-03    -58.3566E-03     1.69244E-03    -51.0717E+06    -64.7348E+06    -262.372E+06    -64.7614E+06    -262.346E+06    -51.0717E+06     1.93528E+06         29.2476
            1416     3.77427E-03     77.3878E-03         1.52276    -397.318E-03    -466.887E-03    -385.542E-03         1.44141    -397.318E-03     176.848E-03     116.317E-03    -57.9701E-03    -58.3600E-03    -57.9605E-03     116.307E-03    -58.3600E-03     2.54137E-03    -40.0140E+06    -60.7151E+06    -254.775E+06    -60.7360E+06    -254.754E+06    -40.0140E+06     1.11229E+06         29.4602
            1417     4.71897E-03     77.3910E-03         1.48932    -396.397E-03    -436.314E-03    -402.492E-03         1.45550    -396.397E-03    -97.6942E-03     116.207E-03    -57.8971E-03    -58.3293E-03    -57.8766E-03     116.186E-03    -58.3293E-03     3.72371E-03    -30.5985E+06    -56.7058E+06    -240.762E+06    -56.7112E+06    -240.756E+06    -30.5985E+06    -140.434E+03         29.7459
            1418     5.66244E-03     77.3956E-03         1.48413    -398.186E-03    -429.653E-03    -413.375E-03         1.46786    -398.186E-03     48.7108E-03     116.201E-03    -57.9401E-03    -58.2921E-03    -57.8980E-03     116.159E-03    -58.2921E-03     5.33083E-03    -22.5396E+06    -52.2011E+06    -218.245E+06    -52.2190E+06    -218.227E+06    -22.5396E+06     838.724E+03         30.1171
            1419     6.60624E-03     77.4026E-03         1.46968    -398.974E-03    -412.958E-03    -404.170E-03         1.46158    -399.654E-03    -60.0357E-03     116.014E-03    -57.7896E-03    -58.2579E-03    -57.7075E-03     115.931E-03    -58.2579E-03     7.45588E-03    -14.3463E+06    -47.0594E+06    -193.364E+06    -47.0793E+06    -193.344E+06    -14.3463E+06     1.58045E+06         30.5969
            1420     7.55064E-03     77.4113E-03         1.46038    -399.115E-03    -403.734E-03    -399.415E-03         1.45674    -399.795E-03     17.4183E-03     115.919E-03    -57.7389E-03    -58.2111E-03    -57.6004E-03     115.780E-03    -58.2111E-03     9.74394E-03    -7.51293E+06    -41.8867E+06    -168.623E+06    -41.9018E+06    -168.608E+06    -7.51293E+06     1.19680E+06         31.2104
            1421     8.49446E-03     77.4230E-03         1.47589    -400.568E-03    -420.455E-03    -418.419E-03         1.47385    -400.568E-03    -27.3299E-03     115.825E-03    -57.6950E-03    -58.1532E-03    -57.4728E-03     115.603E-03    -58.1532E-03     12.3199E-03    -3.09939E+06    -37.6516E+06    -142.652E+06    -37.6677E+06    -142.636E+06    -3.09939E+06     884.079E+03         31.9767
            1422     9.43872E-03     77.4381E-03         1.49582    -402.981E-03    -437.314E-03    -436.386E-03         1.49489    -402.981E-03     11.4773E-03     115.900E-03    -57.7844E-03    -58.0868E-03    -57.3602E-03     115.476E-03    -58.0868E-03     16.8701E-03    -1.41604E+06    -34.1238E+06    -112.924E+06    -34.1519E+06    -112.896E+06    -1.41604E+06     867.224E+03         33.0626
            1423     10.3833E-03     77.4589E-03         1.49076    -404.684E-03    -426.362E-03    -425.389E-03         1.49035    -405.239E-03    -21.9846E-03     116.020E-03    -57.9420E-03    -58.0503E-03    -57.3097E-03     115.347E-03    -58.0096E-03     21.5385E-03    -2.36399E+06    -31.0270E+06    -75.1857E+06    -31.1213E+06    -75.0914E+06    -2.36399E+06     1.06554E+06         34.7638
            1424     11.3264E-03     77.4836E-03         1.48359    -405.613E-03    -417.614E-03    -416.969E-03         1.48351    -406.168E-03     3.75019E-03     115.756E-03    -57.8064E-03    -57.9833E-03    -56.7779E-03     114.636E-03    -57.8921E-03     27.4449E-03     5.81380E+06    -22.0308E+06    -40.4225E+06    -28.7634E+06    -19.0001E+06    -8.87593E+06     1.29809E+06         37.1957
            1425     12.2731E-03     77.5183E-03         1.49667    -406.872E-03    -430.009E-03    -429.779E-03         1.49644    -406.872E-03     15.5665E-03     116.324E-03    -57.7038E-03    -58.6433E-03    -56.1883E-03     113.923E-03    -57.7578E-03     39.9075E-03     61.9503E+06    -5.26334E+06    -26.7665E+06    -26.6593E+06     61.8431E+06    -5.26334E+06     1.65049E+06         40.3190
            1426     13.2173E-03     77.5695E-03         1.50489    -407.806E-03    -435.033E-03    -434.820E-03         1.50468    -407.806E-03     19.4363E-03     118.063E-03    -57.7522E-03    -60.3560E-03    -55.7005E-03     113.408E-03    -57.7522E-03     56.3031E-03     119.139E+06     21.7707E+06    -23.7855E+06    -23.7198E+06     119.073E+06     21.7707E+06     1.70752E+06         44.1008
            1427     14.1635E-03     77.6388E-03         1.50870    -408.384E-03    -441.057E-03    -441.024E-03         1.50867    -408.384E-03     7.04950E-03     128.041E-03    -57.8859E-03    -70.2612E-03    -56.7495E-03     114.529E-03    -57.8859E-03     96.3668E-03     135.178E+06     60.4843E+06    -18.9232E+06    -18.8476E+06     135.102E+06     60.4843E+06     862.690E+03         48.3359
            1428     15.1073E-03     77.7842E-03         1.51508    -408.346E-03    -450.291E-03    -450.208E-03         1.51500    -408.346E-03     11.7195E-03     148.218E-03    -58.0545E-03    -90.2909E-03    -58.1258E-03     116.053E-03    -58.0545E-03     161.120E-03     146.380E+06     102.202E+06    -13.2625E+06    -13.2036E+06     146.321E+06     102.202E+06     348.861E+03         52.3726
            1429     16.0537E-03     78.0037E-03         1.52444    -408.455E-03    -457.106E-03    -457.020E-03         1.52435    -408.455E-03     11.7737E-03     139.486E-03    -58.1382E-03    -81.4002E-03    -56.7810E-03     114.866E-03    -58.1382E-03     129.308E-03     153.006E+06     126.247E+06    -7.35016E+06    -7.31534E+06     152.972E+06     126.247E+06     274.294E+03         55.4943
            1430     943.288E-06     78.5067E-03         3.18779    -437.029E-03        -2.11026    -303.952E-03         1.38149    -437.029E-03        -1.98161     116.550E-03    -58.0823E-03    -58.4707E-03    -58.3572E-03     116.549E-03    -58.1950E-03     248.953E-06    -70.8129E+06    -74.2564E+06    -274.695E+06    -73.5729E+06    -274.683E+06    -71.5084E+06    -503.906E+03         29.0106
            1431     1.88733E-03     78.5074E-03         1.97517    -374.125E-03    -962.543E-03    -388.687E-03         1.40131    -374.125E-03     701.614E-03     116.411E-03    -58.0761E-03    -58.3410E-03    -58.1235E-03     116.409E-03    -58.2919E-03     1.09821E-03    -64.5227E+06    -71.5764E+06    -271.308E+06    -71.5797E+06    -271.304E+06    -64.5227E+06     700.732E+03         29.0939
            1432     2.83112E-03     78.5087E-03         1.61305    -379.068E-03    -593.674E-03    -387.087E-03         1.40646    -379.068E-03    -318.032E-03     116.415E-03    -58.1377E-03    -58.2864E-03    -58.1342E-03     116.411E-03    -58.2864E-03     1.52244E-03    -54.2186E+06    -66.4915E+06    -263.733E+06    -66.5207E+06    -263.704E+06    -54.2186E+06     835.866E+03         29.2414
            1433     3.77513E-03     78.5103E-03         1.47992    -379.784E-03    -459.338E-03    -375.053E-03         1.39563    -379.784E-03     168.825E-03     116.517E-03    -58.1807E-03    -58.3499E-03    -58.1980E-03     116.509E-03    -58.3244E-03     2.33694E-03    -39.8016E+06    -60.0255E+06    -253.372E+06    -60.0677E+06    -253.329E+06    -39.8016E+06     1.12371E+06         29.4589
            1434     4.71816E-03     78.5129E-03         1.43186    -376.004E-03    -414.781E-03    -376.494E-03         1.39648    -378.909E-03    -111.636E-03     116.409E-03    -58.0366E-03    -58.3938E-03    -58.0419E-03     116.388E-03    -58.3683E-03     3.66781E-03    -27.0291E+06    -55.3741E+06    -241.180E+06    -55.4025E+06    -241.152E+06    -27.0291E+06     1.75837E+06         29.7471
            1435     5.66227E-03     78.5184E-03         1.41552    -375.388E-03    -395.405E-03    -376.971E-03         1.40017    -378.464E-03     56.6029E-03     116.087E-03    -57.7983E-03    -58.3215E-03    -57.7550E-03     116.044E-03    -58.3215E-03     5.40219E-03    -20.6955E+06    -51.3774E+06    -218.924E+06    -51.3933E+06    -218.908E+06    -20.6955E+06     1.46696E+06         30.1175
            1436     6.60655E-03     78.5240E-03         1.42235    -378.726E-03    -396.056E-03    -388.516E-03         1.41498    -378.898E-03    -43.9927E-03     116.012E-03    -57.7909E-03    -58.2538E-03    -57.7061E-03     115.927E-03    -58.2538E-03     7.57588E-03    -14.9818E+06    -46.5194E+06    -192.927E+06    -46.5275E+06    -192.919E+06    -14.9818E+06     697.752E+03         30.5968
            1437     7.55045E-03     78.5339E-03         1.43214    -380.844E-03    -407.180E-03    -403.605E-03         1.42856    -380.844E-03     23.8515E-03     116.015E-03    -57.8343E-03    -58.2143E-03    -57.6931E-03     115.874E-03    -58.2143E-03     9.84815E-03    -8.11973E+06    -41.5231E+06    -168.857E+06    -41.5315E+06    -168.849E+06    -8.11973E+06     571.199E+03         31.2103
            1438     8.49436E-03     78.5454E-03         1.43528    -383.535E-03    -411.396E-03    -409.570E-03         1.43345    -383.535E-03    -25.3698E-03     115.780E-03    -57.6456E-03    -58.1596E-03    -57.4252E-03     115.560E-03    -58.1596E-03     12.2765E-03    -3.46239E+06    -37.2369E+06    -142.630E+06    -37.2479E+06    -142.618E+06    -3.46239E+06     777.805E+03         31.9753
            1439     9.43908E-03     78.5595E-03         1.43110    -384.738E-03    -406.105E-03    -404.333E-03         1.43027    -385.680E-03     12.8038E-03     115.746E-03    -57.6357E-03    -58.0822E-03    -57.1952E-03     115.306E-03    -58.0822E-03     17.1129E-03    -1.99133E+06    -33.7495E+06    -113.259E+06    -33.7702E+06    -113.239E+06    -1.99133E+06     839.034E+03         33.0601
            1440     10.3830E-03     78.5818E-03         1.42959    -385.432E-03    -403.069E-03    -401.252E-03         1.42927    -386.930E-03    -26.8364E-03     115.909E-03    -57.8448E-03    -58.0331E-03    -57.1894E-03     115.213E-03    -57.9924E-03     21.9118E-03    -3.01808E+06    -30.9444E+06    -75.6438E+06    -31.0314E+06    -75.5568E+06    -3.01808E+06     947.105E+03         34.7620
            1441     11.3281E-03     78.6060E-03         1.43602    -387.382E-03    -406.995E-03    -406.412E-03         1.43599    -387.937E-03    -1.04845E-03     115.717E-03    -57.8092E-03    -57.9364E-03    -56.7922E-03     114.635E-03    -57.8716E-03     27.0386E-03     6.10145E+06    -22.3299E+06    -40.5943E+06    -28.8410E+06    -18.5662E+06    -9.41554E+06     959.541E+03         37.1951
            1442     12.2719E-03     78.6388E-03         1.44268    -388.970E-03    -409.711E-03    -409.670E-03         1.44264    -388.970E-03    -4.07892E-03     116.128E-03    -57.6793E-03    -58.4776E-03    -56.0371E-03     113.741E-03    -57.7334E-03     39.5889E-03     61.6591E+06    -6.40853E+06    -26.1043E+06    -26.0365E+06     61.5912E+06    -6.40853E+06     892.498E+03         40.3197
            1443     13.2186E-03     78.6914E-03         1.44711    -389.796E-03    -412.100E-03    -412.010E-03         1.44702    -389.796E-03    -14.5896E-03     118.658E-03    -57.7356E-03    -60.9809E-03    -56.3722E-03     114.049E-03    -57.7356E-03     56.3478E-03     118.773E+06     19.4581E+06    -23.2752E+06    -23.2197E+06     118.718E+06     19.4581E+06     941.108E+03         44.1025
            1444     14.1617E-03     78.7617E-03         1.45742    -390.516E-03    -425.445E-03    -425.333E-03         1.45731    -390.516E-03    -14.4956E-03     128.767E-03    -57.9115E-03    -70.9777E-03    -57.3594E-03     115.149E-03    -57.9115E-03     96.7262E-03     135.747E+06     58.9495E+06    -19.7427E+06    -19.7020E+06     135.707E+06     58.9495E+06     1.43164E+06         48.3375
            1445     15.1056E-03     78.9085E-03         1.47225    -391.117E-03    -439.331E-03    -439.266E-03         1.47219    -391.117E-03    -5.30796E-03     147.479E-03    -58.0845E-03    -89.5478E-03    -57.2223E-03     115.154E-03    -58.0845E-03     160.912E-03     146.172E+06     101.797E+06    -14.7852E+06    -14.7240E+06     146.111E+06     101.797E+06     1.68179E+06         52.3759
            1446     16.0512E-03     79.1216E-03         1.47137    -391.755E-03    -440.503E-03    -440.457E-03         1.47133    -391.755E-03    -5.67405E-03     139.227E-03    -58.1331E-03    -81.1743E-03    -56.3363E-03     114.389E-03    -58.1331E-03     130.039E-03     153.652E+06     126.456E+06    -8.20712E+06    -8.15287E+06     153.598E+06     126.456E+06     697.354E+03         55.5005
            1447     944.312E-06     79.6294E-03         3.20817    -396.600E-03        -2.18898    -282.917E-03         1.30211    -396.600E-03        -2.04255     116.449E-03    -57.9585E-03    -58.4918E-03    -58.4912E-03     116.448E-03    -57.9585E-03     376.395E-06    -72.2343E+06    -75.0582E+06    -275.573E+06    -74.7652E+06    -275.569E+06    -72.5316E+06     694.380E+03         29.0050
            1448     1.88726E-03     79.6296E-03         1.97381    -348.484E-03        -1.00082    -383.051E-03         1.35604    -348.484E-03     680.453E-03     116.524E-03    -58.1352E-03    -58.3942E-03    -58.2471E-03     116.523E-03    -58.2811E-03     649.528E-06    -64.3392E+06    -71.3537E+06    -271.101E+06    -71.3582E+06    -271.096E+06    -64.3392E+06     169.067E+03         29.0889
            1449     2.83117E-03     79.6307E-03         1.59148    -359.681E-03    -608.344E-03    -375.115E-03         1.35825    -359.681E-03    -371.792E-03     116.356E-03    -58.0732E-03    -58.2946E-03    -58.0694E-03     116.352E-03    -58.2946E-03     1.48224E-03    -54.3397E+06    -67.3102E+06    -263.768E+06    -67.3254E+06    -263.753E+06    -54.3397E+06    -279.018E+03         29.2361
            1450     3.77468E-03     79.6326E-03         1.43710    -362.473E-03    -449.374E-03    -364.498E-03         1.35222    -362.473E-03     189.821E-03     116.450E-03    -58.1350E-03    -58.3292E-03    -58.1513E-03     116.441E-03    -58.3038E-03     2.46857E-03    -42.9270E+06    -63.2553E+06    -255.814E+06    -63.2830E+06    -255.787E+06    -42.9270E+06     910.071E+03         29.4550
            1451     4.71840E-03     79.6361E-03         1.37749    -359.179E-03    -391.625E-03    -356.192E-03         1.34496    -362.084E-03    -107.354E-03     116.360E-03    -58.0131E-03    -58.3693E-03    -58.0176E-03     116.339E-03    -58.3438E-03     3.73336E-03    -29.6251E+06    -57.2746E+06    -241.695E+06    -57.3021E+06    -241.667E+06    -29.6251E+06     1.91917E+06         29.7456
            1452     5.66248E-03     79.6394E-03         1.35380    -357.524E-03    -368.072E-03    -350.710E-03         1.33951    -360.600E-03     50.2403E-03     116.127E-03    -57.8535E-03    -58.3080E-03    -57.8095E-03     116.083E-03    -58.3080E-03     5.45552E-03    -20.8872E+06    -50.6566E+06    -217.297E+06    -50.6699E+06    -217.283E+06    -20.8872E+06     1.05758E+06         30.1171
            1453     6.60655E-03     79.6469E-03         1.37009    -360.341E-03    -378.859E-03    -372.138E-03         1.36354    -360.513E-03    -51.4309E-03     116.027E-03    -57.8150E-03    -58.2459E-03    -57.7294E-03     115.942E-03    -58.2459E-03     7.61256E-03    -16.0297E+06    -45.4009E+06    -192.670E+06    -45.4036E+06    -192.667E+06    -16.0297E+06     154.397E+03         30.5958
            1454     7.55023E-03     79.6559E-03         1.38787    -362.998E-03    -394.154E-03    -391.607E-03         1.38532    -362.998E-03     21.9410E-03     115.890E-03    -57.7197E-03    -58.2004E-03    -57.5753E-03     115.745E-03    -58.2004E-03     9.94775E-03    -9.69549E+06    -41.1128E+06    -169.053E+06    -41.1185E+06    -169.047E+06    -9.69549E+06     55.9900E+03         31.2093
            1455     8.49478E-03     79.6672E-03         1.37877    -365.626E-03    -385.799E-03    -384.253E-03         1.37723    -365.626E-03    -6.48767E-03     115.783E-03    -57.6611E-03    -58.1428E-03    -57.4363E-03     115.558E-03    -58.1428E-03     12.4027E-03    -4.09282E+06    -36.8696E+06    -142.797E+06    -36.8784E+06    -142.789E+06    -4.09282E+06     422.551E+03         31.9758
            1456     9.43869E-03     79.6817E-03         1.36708    -365.749E-03    -374.668E-03    -373.034E-03         1.36639    -366.692E-03     41.8828E-03     115.790E-03    -57.6956E-03    -58.0711E-03    -57.2621E-03     115.357E-03    -58.0711E-03     17.0077E-03    -2.63729E+06    -33.3214E+06    -113.630E+06    -33.3382E+06    -113.613E+06    -2.63729E+06     847.055E+03         33.0611
            1457     10.3838E-03     79.7034E-03         1.38333    -366.723E-03    -391.490E-03    -390.411E-03         1.38319    -367.665E-03     10.0179E-03     115.676E-03    -57.6782E-03    -57.9763E-03    -56.9863E-03     114.984E-03    -57.9763E-03     21.7987E-03    -3.74128E+06    -30.6247E+06    -75.8175E+06    -30.7142E+06    -75.7280E+06    -3.74128E+06     1.07760E+06         34.7618
            1458     11.3274E-03     79.7290E-03         1.40145    -369.843E-03    -408.088E-03    -407.961E-03         1.40132    -369.843E-03     19.9908E-03     115.665E-03    -57.7122E-03    -57.9819E-03    -56.8030E-03     114.623E-03    -57.8497E-03     26.6050E-03     6.12699E+06    -22.3291E+06    -40.7394E+06    -28.9917E+06    -18.0160E+06    -9.93379E+06     984.559E+03         37.1940
            1459     12.2731E-03     79.7598E-03         1.40031    -372.010E-03    -402.043E-03    -401.938E-03         1.40021    -372.010E-03     11.7468E-03     116.733E-03    -57.7374E-03    -59.0302E-03    -56.7145E-03     114.417E-03    -57.7374E-03     39.0537E-03     62.3065E+06    -6.96303E+06    -27.6558E+06    -27.6117E+06     62.2624E+06    -6.96303E+06     364.403E+03         40.3176
            1460     13.2174E-03     79.8134E-03         1.40565    -373.513E-03    -405.641E-03    -405.469E-03         1.40548    -373.513E-03    -2.05000E-03     119.043E-03    -57.7698E-03    -61.3395E-03    -56.6135E-03     114.317E-03    -57.7698E-03     57.0014E-03     117.877E+06     17.8484E+06    -25.8192E+06    -25.7881E+06     117.846E+06     17.8484E+06     475.318E+03         44.1000
            1461     14.1606E-03     79.8888E-03         1.41487    -374.847E-03    -416.006E-03    -415.893E-03         1.41476    -374.847E-03    -11.1972E-03     128.047E-03    -57.9137E-03    -70.2519E-03    -56.5186E-03     114.314E-03    -57.9137E-03     96.9427E-03     134.112E+06     55.2559E+06    -22.4738E+06    -22.3916E+06     134.030E+06     55.2559E+06     2.19907E+06         48.3379
            1462     15.1076E-03     80.0261E-03         1.41803    -375.577E-03    -417.568E-03    -417.515E-03         1.41798    -375.577E-03     5.96976E-03     147.182E-03    -58.0433E-03    -89.2744E-03    -56.8059E-03     114.714E-03    -58.0433E-03     161.036E-03     146.990E+06     99.3990E+06    -15.7079E+06    -15.6058E+06     146.888E+06     99.3990E+06     2.44579E+06         52.3805
            1463     16.0549E-03     80.2468E-03         1.42302    -376.040E-03    -423.176E-03    -423.115E-03         1.42296    -376.040E-03    -6.03782E-03     139.844E-03    -58.1053E-03    -81.7989E-03    -56.7584E-03     114.804E-03    -58.1053E-03     130.923E-03     155.151E+06     126.687E+06    -7.39603E+06    -7.34639E+06     155.101E+06     126.687E+06     652.725E+03         55.5069
            1464     943.285E-06     80.7519E-03         3.27653    -452.851E-03        -2.21308    -258.471E-03         1.32192    -452.851E-03        -2.10018     116.557E-03    -57.9757E-03    -58.5832E-03    -58.4695E-03     116.557E-03    -58.0888E-03     432.294E-06    -70.2529E+06    -72.9836E+06    -275.436E+06    -72.6980E+06    -275.425E+06    -70.5502E+06    -243.112E+03         29.0022
            1465     1.88709E-03     80.7521E-03         1.94614    -351.508E-03    -993.427E-03    -334.708E-03         1.28742    -351.508E-03     694.059E-03     116.557E-03    -58.1305E-03    -58.4336E-03    -58.2374E-03     116.556E-03    -58.3258E-03     563.111E-06    -61.6945E+06    -69.7103E+06    -271.207E+06    -69.7218E+06    -271.196E+06    -61.6945E+06     352.400E+03         29.0872
            1466     2.83094E-03     80.7522E-03         1.53651    -346.148E-03    -588.555E-03    -339.282E-03         1.28723    -346.148E-03    -388.402E-03     116.427E-03    -58.0672E-03    -58.3753E-03    -58.1073E-03     116.423E-03    -58.3314E-03     1.44146E-03    -52.2936E+06    -66.2171E+06    -264.332E+06    -66.2357E+06    -264.313E+06    -52.2936E+06     1.15636E+06         29.2346
            1467     3.77488E-03     80.7556E-03         1.37133    -343.865E-03    -422.963E-03    -335.035E-03         1.28341    -343.865E-03     190.877E-03     116.214E-03    -57.9288E-03    -58.3039E-03    -57.9193E-03     116.205E-03    -58.3039E-03     2.53116E-03    -43.8607E+06    -62.5784E+06    -257.545E+06    -62.5877E+06    -257.536E+06    -43.8607E+06     1.27734E+06         29.4513
            1468     4.71899E-03     80.7573E-03         1.33608    -343.537E-03    -385.278E-03    -351.797E-03         1.30260    -343.537E-03    -101.793E-03     116.275E-03    -58.0147E-03    -58.2840E-03    -57.9943E-03     116.254E-03    -58.2840E-03     3.70408E-03    -34.3816E+06    -57.4451E+06    -240.574E+06    -57.4554E+06    -240.564E+06    -34.3816E+06     40.8742E+03         29.7415
            1469     5.66253E-03     80.7624E-03         1.33712    -345.855E-03    -379.906E-03    -364.467E-03         1.32168    -345.855E-03     39.0618E-03     116.241E-03    -58.0062E-03    -58.2706E-03    -57.9625E-03     116.198E-03    -58.2706E-03     5.42584E-03    -24.0895E+06    -51.2072E+06    -216.083E+06    -51.2175E+06    -216.072E+06    -24.0895E+06    -741.305E+03         30.1146
            1470     6.60603E-03     80.7685E-03         1.32259    -342.995E-03    -364.467E-03    -351.790E-03         1.31455    -347.633E-03    -58.9565E-03     115.960E-03    -57.7587E-03    -58.2373E-03    -57.6721E-03     115.873E-03    -58.2373E-03     7.65346E-03    -16.5099E+06    -45.4709E+06    -192.751E+06    -45.4783E+06    -192.744E+06    -16.5099E+06    -616.088E+03         30.5947
            1471     7.55103E-03     80.7781E-03         1.31241    -339.855E-03    -356.237E-03    -344.564E-03         1.30851    -347.633E-03     7.60082E-03     115.813E-03    -57.6689E-03    -58.1789E-03    -57.5267E-03     115.671E-03    -58.1789E-03     9.87944E-03    -10.6587E+06    -40.6719E+06    -168.971E+06    -40.6788E+06    -168.964E+06    -10.6587E+06    -479.052E+03         31.2099
            1472     8.49474E-03     80.7894E-03         1.31559    -344.382E-03    -357.131E-03    -351.863E-03         1.31346    -347.521E-03    -40.4616E-03     115.834E-03    -57.7302E-03    -58.1249E-03    -57.5102E-03     115.614E-03    -58.1249E-03     12.2660E-03    -4.98586E+06    -36.8031E+06    -143.478E+06    -36.8094E+06    -143.472E+06    -4.98586E+06     8.80564E+03         31.9789
            1473     9.43923E-03     80.8040E-03         1.32911    -348.539E-03    -369.156E-03    -368.402E-03         1.32836    -348.539E-03     6.88504E-03     115.958E-03    -57.8398E-03    -58.0928E-03    -57.4415E-03     115.537E-03    -58.0701E-03     16.7984E-03    -2.50215E+06    -33.1774E+06    -113.593E+06    -33.1916E+06    -113.578E+06    -2.50215E+06     653.418E+03         33.0643
            1474     10.3826E-03     80.8252E-03         1.34339    -350.568E-03    -379.762E-03    -379.250E-03         1.34288    -350.568E-03    -17.2053E-03     115.656E-03    -57.6325E-03    -58.0086E-03    -57.0014E-03     115.002E-03    -57.9859E-03     21.1900E-03    -3.51145E+06    -30.0516E+06    -76.3115E+06    -30.1372E+06    -76.2259E+06    -3.51145E+06     1.10305E+06         34.7614
            1475     11.3288E-03     80.8501E-03         1.35138    -352.859E-03    -385.178E-03    -384.889E-03         1.35109    -352.859E-03    -6.00756E-03     115.766E-03    -57.5630E-03    -58.2444E-03    -56.9059E-03     114.726E-03    -57.8613E-03     26.4988E-03     6.26503E+06    -22.0772E+06    -41.3160E+06    -28.4629E+06    -18.6384E+06    -10.0269E+06     1.56753E+06         37.1905
            1476     12.2719E-03     80.8832E-03         1.36158    -355.136E-03    -393.217E-03    -392.957E-03         1.36132    -355.136E-03     1.28724E-03     117.217E-03    -57.7660E-03    -59.4889E-03    -57.1654E-03     114.894E-03    -57.7660E-03     39.3260E-03     63.0481E+06    -7.11389E+06    -28.6153E+06    -28.4992E+06     62.9320E+06    -7.11389E+06     1.85208E+06         40.3131
            1477     13.2149E-03     80.9377E-03         1.37068    -357.382E-03    -400.952E-03    -400.820E-03         1.37054    -357.382E-03     11.5071E-03     118.685E-03    -57.8061E-03    -60.9333E-03    -56.1327E-03     113.884E-03    -57.8061E-03     57.1945E-03     117.727E+06     18.2642E+06    -27.3690E+06    -27.3241E+06     117.682E+06     18.2642E+06     1.74557E+06         44.0967
            1478     14.1629E-03     81.0077E-03         1.37761    -359.294E-03    -406.575E-03    -406.464E-03         1.37750    -359.294E-03     10.2681E-03     127.402E-03    -57.9155E-03    -69.5938E-03    -55.9389E-03     113.748E-03    -57.9155E-03     96.7063E-03     132.964E+06     55.0685E+06    -23.2520E+06    -23.1025E+06     132.815E+06     55.0685E+06     939.176E+03         48.3386
            1479     15.1079E-03     81.1501E-03         1.37732    -360.393E-03    -408.433E-03    -408.283E-03         1.37717    -360.393E-03     10.2623E-03     147.047E-03    -58.0407E-03    -89.1165E-03    -57.2716E-03     115.202E-03    -58.0407E-03     159.649E-03     147.236E+06     99.3341E+06    -15.4835E+06    -15.3267E+06     147.080E+06     99.3341E+06     926.916E+03         52.3836
            1480     16.0516E-03     81.3666E-03         1.38517    -361.301E-03    -413.521E-03    -413.384E-03         1.38504    -361.301E-03    -6.10340E-03     139.609E-03    -58.1238E-03    -81.4916E-03    -56.8677E-03     114.985E-03    -58.1238E-03     130.138E-03     156.376E+06     127.550E+06    -6.84085E+06    -6.79699E+06     156.332E+06     127.550E+06     1.12293E+06         55.5107
            1481     943.534E-06     81.8738E-03         3.28868    -465.602E-03        -2.23900    -220.818E-03         1.27050    -465.602E-03        -2.13612     116.478E-03    -58.0493E-03    -58.4307E-03    -58.3171E-03     116.478E-03    -58.1623E-03     563.183E-06    -71.2433E+06    -72.9060E+06    -275.001E+06    -72.9152E+06    -274.992E+06    -71.2433E+06    -838.775E+03         28.9992
            1482     1.88772E-03     81.8744E-03         1.88739    -335.024E-03    -975.853E-03    -302.326E-03         1.21386    -335.024E-03     752.113E-03     116.506E-03    -58.1357E-03    -58.3768E-03    -58.2289E-03     116.505E-03    -58.2823E-03     949.834E-06    -63.9127E+06    -70.0205E+06    -273.107E+06    -70.0297E+06    -273.098E+06    -63.9127E+06     733.962E+03         29.0842
            1483     2.83066E-03     81.8756E-03         1.47008    -325.703E-03    -566.011E-03    -318.988E-03         1.22306    -325.703E-03    -341.865E-03     116.473E-03    -58.1328E-03    -58.3543E-03    -58.1771E-03     116.470E-03    -58.3072E-03     1.38382E-03    -53.9185E+06    -66.1692E+06    -265.171E+06    -66.1838E+06    -265.157E+06    -53.9185E+06     1.49098E+06         29.2326
            1484     3.77487E-03     81.8764E-03         1.33529    -325.476E-03    -425.310E-03    -332.868E-03         1.24285    -325.476E-03     192.903E-03     116.294E-03    -57.9963E-03    -58.3150E-03    -57.9909E-03     116.286E-03    -58.3117E-03     2.35427E-03    -42.9619E+06    -60.9526E+06    -256.017E+06    -60.9629E+06    -256.007E+06    -42.9619E+06     576.240E+03         29.4488
            1485     4.71872E-03     81.8805E-03         1.29524    -327.639E-03    -378.182E-03    -340.450E-03         1.25751    -327.639E-03    -83.0208E-03     116.221E-03    -57.9532E-03    -58.2870E-03    -57.9332E-03     116.201E-03    -58.2870E-03     3.67890E-03    -33.9312E+06    -55.2402E+06    -238.531E+06    -55.2578E+06    -238.514E+06    -33.9312E+06    -1.20830E+06         29.7370
            1486     5.66241E-03     81.8843E-03         1.28790    -330.042E-03    -362.189E-03    -344.374E-03         1.27009    -330.042E-03     74.1458E-03     116.086E-03    -57.8692E-03    -58.2457E-03    -57.8270E-03     116.044E-03    -58.2457E-03     5.31656E-03    -26.0325E+06    -50.2887E+06    -215.909E+06    -50.3203E+06    -215.877E+06    -26.0325E+06    -2.14147E+06         30.1105
            1487     6.60706E-03     81.8910E-03         1.27581    -326.729E-03    -349.012E-03    -334.941E-03         1.26637    -331.367E-03    -12.9440E-03     116.006E-03    -57.8282E-03    -58.2121E-03    -57.7436E-03     115.921E-03    -58.2121E-03     7.56652E-03    -17.9045E+06    -45.6194E+06    -192.961E+06    -45.6450E+06    -192.935E+06    -17.9045E+06    -1.75551E+06         30.5937
            1488     7.55025E-03     81.9000E-03         1.26861    -323.649E-03    -344.749E-03    -330.851E-03         1.26249    -331.426E-03     40.8253E-03     115.968E-03    -57.8349E-03    -58.1724E-03    -57.6956E-03     115.829E-03    -58.1724E-03     9.78515E-03    -11.7229E+06    -41.4399E+06    -168.937E+06    -41.4538E+06    -168.923E+06    -11.7229E+06    -1.10759E+06         31.2112
            1489     8.49476E-03     81.9116E-03         1.27938    -328.967E-03    -353.441E-03    -347.995E-03         1.27708    -332.107E-03    -36.6634E-03     115.866E-03    -57.7568E-03    -58.1285E-03    -57.5424E-03     115.651E-03    -58.1285E-03     12.1179E-03    -6.26748E+06    -37.1412E+06    -144.135E+06    -37.1490E+06    -144.128E+06    -6.26748E+06    -629.287E+03         31.9806
            1490     9.43859E-03     81.9259E-03         1.29853    -334.524E-03    -369.797E-03    -368.907E-03         1.29764    -334.524E-03     8.98242E-03     115.942E-03    -57.8103E-03    -58.0943E-03    -57.4041E-03     115.513E-03    -58.0716E-03     16.8990E-03    -3.49914E+06    -33.0211E+06    -114.330E+06    -33.0327E+06    -114.318E+06    -3.49914E+06     28.5533E+03         33.0646
            1491     10.3832E-03     81.9480E-03         1.30075    -337.323E-03    -366.466E-03    -366.062E-03         1.30035    -337.323E-03    -36.6153E-03     115.958E-03    -57.7690E-03    -58.1610E-03    -57.2925E-03     115.320E-03    -57.9988E-03     21.0257E-03    -4.30685E+06    -29.8639E+06    -76.8085E+06    -29.9353E+06    -76.7371E+06    -4.30685E+06     827.156E+03         34.7580
            1492     11.3267E-03     81.9705E-03         1.29746    -339.130E-03    -358.225E-03    -358.043E-03         1.29728    -339.130E-03    -27.1785E-03     116.048E-03    -57.7240E-03    -58.3560E-03    -57.0967E-03     114.958E-03    -57.8932E-03     26.9627E-03     5.10347E+06    -22.4384E+06    -40.6824E+06    -27.3637E+06    -19.8252E+06    -10.8284E+06     1.74354E+06         37.1832
            1493     12.2715E-03     82.0085E-03         1.31024    -340.612E-03    -369.650E-03    -369.466E-03         1.31006    -340.612E-03    -11.9334E-03     116.738E-03    -57.7865E-03    -58.9821E-03    -56.6007E-03     114.357E-03    -57.7865E-03     39.8970E-03     61.0715E+06    -7.24274E+06    -25.4216E+06    -25.2532E+06     60.9031E+06    -7.24274E+06     3.01779E+06         40.3060
            1494     13.2177E-03     82.0573E-03         1.32318    -342.509E-03    -382.284E-03    -382.216E-03         1.32311    -342.509E-03    -4.76586E-03     118.340E-03    -57.7929E-03    -60.6052E-03    -55.8859E-03     113.621E-03    -57.7929E-03     56.6591E-03     118.418E+06     19.1125E+06    -23.7711E+06    -23.6713E+06     118.318E+06     19.1125E+06     3.25374E+06         44.0943
            1495     14.1615E-03     82.1302E-03         1.33498    -344.557E-03    -394.207E-03    -394.095E-03         1.33487    -344.557E-03    -2.26725E-03     128.100E-03    -57.9309E-03    -70.2883E-03    -56.5649E-03     114.377E-03    -57.9309E-03     97.1631E-03     135.700E+06     58.6596E+06    -20.8695E+06    -20.7387E+06     135.570E+06     58.6596E+06     1.24259E+06         48.3396
            1496     15.1063E-03     82.2723E-03         1.34532    -346.403E-03    -406.302E-03    -405.979E-03         1.34500    -346.403E-03    -18.3755E-03     147.446E-03    -58.0913E-03    -89.4688E-03    -57.7513E-03     115.728E-03    -58.0913E-03     159.737E-03     146.867E+06     100.577E+06    -16.1815E+06    -16.0052E+06     146.690E+06     100.577E+06    -240.567E+03         52.3845
            1497     16.0523E-03     82.4898E-03         1.34267    -348.062E-03    -403.720E-03    -403.359E-03         1.34231    -348.062E-03    -10.4213E-03     139.089E-03    -58.1530E-03    -80.9493E-03    -56.4598E-03     114.599E-03    -58.1530E-03     129.984E-03     156.010E+06     125.730E+06    -8.63987E+06    -8.54480E+06     155.915E+06     125.730E+06     628.682E+03         55.5123
            1498     944.129E-06     82.9960E-03         3.18535    -394.261E-03        -2.23101    -203.324E-03         1.15767    -394.261E-03        -2.13573     116.318E-03    -57.9841E-03    -58.3357E-03    -58.3351E-03     116.317E-03    -57.9841E-03     613.554E-06    -72.3200E+06    -74.6567E+06    -275.167E+06    -74.5874E+06    -275.150E+06    -72.4068E+06     767.152E+03         28.9929
            1499     1.88699E-03     82.9970E-03         1.83868    -301.323E-03    -970.353E-03    -311.393E-03         1.17972    -301.323E-03     698.487E-03     116.450E-03    -58.1286E-03    -58.3281E-03    -58.2410E-03     116.449E-03    -58.2146E-03     802.968E-06    -67.5267E+06    -72.9947E+06    -274.930E+06    -72.9953E+06    -274.930E+06    -67.5267E+06     230.719E+03         29.0788
            1500     2.83165E-03     82.9976E-03         1.44343    -304.877E-03    -571.085E-03    -311.188E-03         1.18353    -304.877E-03    -333.242E-03     116.438E-03    -58.1654E-03    -58.2828E-03    -58.1938E-03     116.435E-03    -58.2514E-03     1.39690E-03    -59.1388E+06    -68.7848E+06    -264.672E+06    -68.8034E+06    -264.653E+06    -59.1388E+06    -238.954E+03         29.2272
            1501     3.77456E-03     82.9991E-03         1.31419    -308.975E-03    -432.031E-03    -333.494E-03         1.21565    -308.975E-03     205.990E-03     116.404E-03    -58.0946E-03    -58.3215E-03    -58.1171E-03     116.395E-03    -58.2901E-03     2.38940E-03    -45.5562E+06    -62.8294E+06    -253.731E+06    -62.8603E+06    -253.700E+06    -45.5562E+06    -1.54642E+06         29.4442
            1502     4.71833E-03     83.0021E-03         1.24689    -312.497E-03    -356.786E-03    -317.481E-03         1.20759    -312.497E-03    -85.4380E-03     116.094E-03    -57.8271E-03    -58.2824E-03    -57.8036E-03     116.071E-03    -58.2824E-03     3.92620E-03    -35.2406E+06    -57.3159E+06    -237.534E+06    -57.3386E+06    -237.511E+06    -35.2406E+06    -1.99155E+06         29.7331
            1503     5.66301E-03     83.0065E-03         1.21319    -312.095E-03    -320.857E-03    -302.163E-03         1.19450    -312.095E-03     79.1580E-03     116.050E-03    -57.8514E-03    -58.2218E-03    -57.8085E-03     116.007E-03    -58.2218E-03     5.41341E-03    -28.6566E+06    -52.5806E+06    -214.174E+06    -52.6310E+06    -214.123E+06    -28.6566E+06    -2.67362E+06         30.1085
            1504     6.60626E-03     83.0130E-03         1.22560    -311.985E-03    -331.929E-03    -323.504E-03         1.21717    -311.985E-03    -27.9020E-03     116.096E-03    -57.9283E-03    -58.1973E-03    -57.8469E-03     116.015E-03    -58.1973E-03     7.39984E-03    -21.0026E+06    -47.5037E+06    -193.068E+06    -47.5976E+06    -192.974E+06    -21.0026E+06    -3.34326E+06         30.5935
            1505     7.55083E-03     83.0225E-03         1.24092    -314.228E-03    -343.726E-03    -339.078E-03         1.23627    -314.228E-03     31.9193E-03     115.991E-03    -57.8486E-03    -58.1745E-03    -57.7076E-03     115.850E-03    -58.1745E-03     9.83844E-03    -13.6758E+06    -41.9960E+06    -170.007E+06    -42.0624E+06    -169.940E+06    -13.6758E+06    -2.46211E+06         31.2114
            1506     8.49423E-03     83.0339E-03         1.24615    -317.234E-03    -348.487E-03    -346.305E-03         1.24397    -317.234E-03    -10.4330E-03     115.915E-03    -57.8003E-03    -58.1321E-03    -57.5782E-03     115.693E-03    -58.1321E-03     12.3299E-03    -7.92084E+06    -37.2953E+06    -144.459E+06    -37.3160E+06    -144.438E+06    -7.92084E+06    -1.37749E+06         31.9806
            1507     9.43891E-03     83.0483E-03         1.25291    -320.324E-03    -355.064E-03    -354.161E-03         1.25200    -320.324E-03     51.0717E-03     115.918E-03    -57.8091E-03    -58.0752E-03    -57.3842E-03     115.493E-03    -58.0752E-03     16.8706E-03    -5.58246E+06    -33.7605E+06    -115.365E+06    -33.7721E+06    -115.353E+06    -5.58246E+06    -864.698E+03         33.0626
            1508     10.3831E-03     83.0700E-03         1.25825    -323.199E-03    -355.670E-03    -355.654E-03         1.25824    -323.199E-03    -5.86848E-03     116.063E-03    -57.8895E-03    -58.1443E-03    -57.3625E-03     115.397E-03    -58.0047E-03     21.4429E-03    -5.58906E+06    -29.6131E+06    -77.2708E+06    -29.7521E+06    -77.1318E+06    -5.58906E+06    -502.446E+03         34.7503
            1509     11.3268E-03     83.0950E-03         1.26238    -325.581E-03    -355.999E-03    -355.882E-03         1.26227    -325.581E-03     5.93426E-03     116.098E-03    -57.8896E-03    -58.2327E-03    -57.1098E-03     114.989E-03    -57.9030E-03     27.3322E-03     2.96078E+06    -22.2545E+06    -39.5977E+06    -26.2143E+06    -21.1141E+06    -11.5631E+06     476.920E+03         37.1702
            1510     12.2720E-03     83.1278E-03         1.26908    -327.602E-03    -358.866E-03    -358.738E-03         1.26895    -327.602E-03     8.45115E-03     116.410E-03    -57.7865E-03    -58.6558E-03    -56.3028E-03     114.057E-03    -57.7865E-03     39.5437E-03     57.6976E+06    -8.51238E+06    -24.4361E+06    -24.3376E+06     57.5991E+06    -8.51238E+06     2.35326E+06         40.2929
            1511     13.2165E-03     83.1811E-03         1.28034    -329.694E-03    -370.820E-03    -370.767E-03         1.28028    -329.694E-03    -12.0598E-03     118.405E-03    -57.7814E-03    -60.6859E-03    -56.0334E-03     113.752E-03    -57.7814E-03     56.3428E-03     118.705E+06     18.3236E+06    -22.4161E+06    -22.2766E+06     118.565E+06     18.3236E+06     3.72382E+06         44.0868
            1512     14.1624E-03     83.2512E-03         1.29090    -331.985E-03    -383.491E-03    -383.434E-03         1.29084    -331.985E-03    -5.34571E-03     128.331E-03    -57.9273E-03    -70.5205E-03    -56.6215E-03     114.432E-03    -57.9273E-03     97.5683E-03     138.023E+06     58.1883E+06    -19.0413E+06    -18.9177E+06     137.900E+06     58.1883E+06     3.68392E+06         48.3387
            1513     15.1066E-03     83.3976E-03         1.29753    -333.898E-03    -390.278E-03    -390.056E-03         1.29731    -333.898E-03    -11.6392E-03     147.672E-03    -58.0780E-03    -89.7056E-03    -57.3081E-03     115.275E-03    -58.0780E-03     161.378E-03     148.029E+06     101.033E+06    -14.2504E+06    -14.0977E+06     147.877E+06     101.033E+06     1.97166E+06         52.3866
            1514     16.0505E-03     83.6095E-03         1.29467    -335.392E-03    -388.309E-03    -388.024E-03         1.29438    -335.392E-03    -12.0052E-03     139.643E-03    -58.1244E-03    -81.5376E-03    -56.6574E-03     114.762E-03    -58.1244E-03     130.865E-03     156.949E+06     126.479E+06    -7.75303E+06    -7.62358E+06     156.820E+06     126.479E+06     530.818E+03         55.5148
            1515     943.677E-06     84.1191E-03         3.07439    -381.144E-03        -2.13650    -174.993E-03         1.11289    -381.144E-03        -2.02929     116.369E-03    -57.9333E-03    -58.4371E-03    -58.3205E-03     116.368E-03    -58.0486E-03     699.700E-06    -76.7702E+06    -79.7014E+06    -277.513E+06    -79.6370E+06    -277.491E+06    -76.8569E+06     1.61652E+06         28.9861
            1516     1.88773E-03     84.1187E-03         1.80981    -286.024E-03    -963.364E-03    -317.720E-03         1.16417    -286.024E-03     645.405E-03     116.394E-03    -58.0644E-03    -58.3351E-03    -58.1664E-03     116.393E-03    -58.2322E-03     577.512E-06    -69.3850E+06    -76.9276E+06    -273.703E+06    -76.9337E+06    -273.697E+06    -69.3850E+06     260.827E+03         29.0719
            1517     2.83079E-03     84.1196E-03         1.42885    -295.511E-03    -570.518E-03    -304.926E-03         1.16326    -295.511E-03    -338.737E-03     116.285E-03    -57.9984E-03    -58.2949E-03    -58.0632E-03     116.282E-03    -58.2267E-03     1.46353E-03    -62.0299E+06    -72.6682E+06    -262.085E+06    -72.6961E+06    -262.057E+06    -62.0299E+06    -1.68481E+06         29.2206
            1518     3.77493E-03     84.1221E-03         1.26479    -297.624E-03    -408.075E-03    -302.060E-03         1.15878    -297.624E-03     199.500E-03     116.151E-03    -57.9145E-03    -58.2513E-03    -57.9334E-03     116.142E-03    -58.2232E-03     2.47206E-03    -50.7808E+06    -67.9185E+06    -252.250E+06    -67.9756E+06    -252.193E+06    -50.7808E+06    -3.19458E+06         29.4399
            1519     4.71921E-03     84.1234E-03         1.19821    -298.385E-03    -340.195E-03    -300.723E-03         1.15874    -298.385E-03    -126.742E-03     116.222E-03    -57.9990E-03    -58.2406E-03    -57.9788E-03     116.198E-03    -58.2368E-03     3.95933E-03    -38.7019E+06    -62.1135E+06    -236.592E+06    -62.2091E+06    -236.497E+06    -38.7019E+06    -3.65222E+06         29.7327
            1520     5.66252E-03     84.1296E-03         1.17733    -298.815E-03    -317.127E-03    -301.681E-03         1.16188    -298.815E-03     45.2128E-03     116.138E-03    -57.9447E-03    -58.2169E-03    -57.9043E-03     116.094E-03    -58.2132E-03     5.50279E-03    -30.0827E+06    -54.8904E+06    -211.821E+06    -55.0422E+06    -211.669E+06    -30.0827E+06    -4.48127E+06         30.1094
            1521     6.60666E-03     84.1352E-03         1.17714    -298.824E-03    -316.720E-03    -308.856E-03         1.17012    -299.662E-03    -57.2000E-03     116.048E-03    -57.8842E-03    -58.1932E-03    -57.7992E-03     115.963E-03    -58.1932E-03     7.54783E-03    -23.0996E+06    -48.9996E+06    -192.265E+06    -49.2047E+06    -192.060E+06    -23.0996E+06    -5.30905E+06         30.5938
            1522     7.55021E-03     84.1446E-03         1.18825    -300.660E-03    -325.328E-03    -321.527E-03         1.18529    -301.498E-03     5.52203E-03     115.996E-03    -57.8618E-03    -58.1683E-03    -57.7191E-03     115.853E-03    -58.1683E-03     9.91160E-03    -16.7931E+06    -43.8622E+06    -171.205E+06    -44.0705E+06    -170.997E+06    -16.7931E+06    -4.81187E+06         31.2113
            1523     8.49496E-03     84.1560E-03         1.20045    -304.251E-03    -335.008E-03    -333.213E-03         1.19865    -304.251E-03    -34.0107E-03     115.938E-03    -57.8324E-03    -58.1311E-03    -57.6127E-03     115.718E-03    -58.1311E-03     12.2652E-03    -10.3336E+06    -38.2828E+06    -145.577E+06    -38.4105E+06    -145.449E+06    -10.3336E+06    -3.26031E+06         31.9804
            1524     9.43833E-03     84.1709E-03         1.20016    -306.963E-03    -332.765E-03    -332.053E-03         1.19945    -306.963E-03     12.5694E-03     115.953E-03    -57.8484E-03    -58.0787E-03    -57.4257E-03     115.531E-03    -58.0787E-03     16.8265E-03     -6.5481E+06    -32.6448E+06    -115.037E+06    -32.7735E+06    -114.908E+06     -6.5481E+06    -2.72119E+06         33.0590
            1525     10.3826E-03     84.1921E-03         1.20502    -309.136E-03    -334.403E-03    -334.129E-03         1.20475    -309.136E-03    -25.8419E-03     115.883E-03    -57.8667E-03    -57.9978E-03    -57.1746E-03     115.190E-03    -57.9978E-03     21.8056E-03    -6.98159E+06    -28.5590E+06    -78.4092E+06    -28.7256E+06    -78.2426E+06    -6.98159E+06    -2.17353E+06         34.7378
            1526     11.3276E-03     84.2173E-03         1.22806    -311.757E-03    -354.566E-03    -354.413E-03         1.22791    -311.757E-03     4.63501E-03     115.997E-03    -57.8463E-03    -58.1804E-03    -57.0477E-03     114.902E-03    -57.8847E-03     27.2832E-03     1.45826E+06    -23.0951E+06    -42.1774E+06    -27.0205E+06    -23.2269E+06    -13.5669E+06    -496.685E+03         37.1500
            1527     12.2712E-03     84.2501E-03         1.24269    -315.089E-03    -365.716E-03    -365.579E-03         1.24255    -315.089E-03     3.84341E-03     116.649E-03    -57.7815E-03    -58.8909E-03    -56.5841E-03     114.342E-03    -57.7815E-03     39.1225E-03     55.5201E+06    -9.97668E+06    -25.7985E+06    -25.7003E+06     55.4219E+06    -9.97668E+06     1.79151E+06         40.2712
            1528     13.2174E-03     84.3018E-03         1.24003    -318.061E-03    -362.077E-03    -362.020E-03         1.23997    -318.061E-03    -11.9815E-03     118.679E-03    -57.7827E-03    -60.9408E-03    -56.1482E-03     113.887E-03    -57.7827E-03     57.1291E-03     116.402E+06     15.2142E+06    -23.4039E+06    -23.2613E+06     116.260E+06     15.2142E+06     4.06682E+06         44.0711
            1529     14.1606E-03     84.3756E-03         1.24103    -320.130E-03    -362.474E-03    -362.338E-03         1.24089    -320.130E-03     15.8210E-03     127.640E-03    -57.9082E-03    -69.8291E-03    -56.1351E-03     113.946E-03    -57.9082E-03     96.8685E-03     138.194E+06     54.4686E+06    -20.2870E+06    -20.1146E+06     138.022E+06     54.4686E+06     4.66209E+06         48.3324
            1530     15.1087E-03     84.5154E-03         1.25241    -321.496E-03    -371.575E-03    -371.437E-03         1.25227    -321.496E-03     12.7549E-03     147.028E-03    -58.0382E-03    -89.0969E-03    -56.6799E-03     114.611E-03    -58.0382E-03     160.730E-03     149.951E+06     100.784E+06    -14.5040E+06    -14.3524E+06     149.799E+06     100.784E+06     3.19760E+06         52.3858
            1531     16.0563E-03     84.7369E-03         1.26937    -323.170E-03    -387.910E-03    -387.837E-03         1.26930    -323.170E-03    -17.4779E-03     140.014E-03    -58.0897E-03    -81.9594E-03    -57.0401E-03     115.095E-03    -58.0897E-03     130.069E-03     159.244E+06     128.073E+06    -7.23554E+06    -7.14581E+06     159.154E+06     128.073E+06     1.17906E+06         55.5148
            1532     943.222E-06     85.2402E-03         3.05531    -430.251E-03        -2.07371    -127.525E-03         1.10912    -430.251E-03        -1.94148     116.478E-03    -58.0231E-03    -58.4545E-03    -58.3376E-03     116.476E-03    -58.1384E-03     463.904E-06    -79.8762E+06    -81.6118E+06    -278.556E+06    -81.6183E+06    -278.549E+06    -79.8762E+06     402.360E+03         28.9794
            1533     1.88727E-03     85.2412E-03         1.79614    -283.078E-03    -959.114E-03    -299.647E-03         1.13667    -283.078E-03     670.223E-03     116.266E-03    -57.9746E-03    -58.2945E-03    -58.0149E-03     116.265E-03    -58.2528E-03     822.808E-06    -69.4754E+06    -77.0763E+06    -271.926E+06    -77.0834E+06    -271.919E+06    -69.4754E+06    -207.644E+03         29.0656
            1534     2.83110E-03     85.2425E-03         1.39902    -289.392E-03    -560.661E-03    -302.471E-03         1.14083    -289.392E-03    -346.174E-03     116.153E-03    -57.8756E-03    -58.2858E-03    -57.9441E-03     116.150E-03    -58.2142E-03     1.44376E-03    -58.4402E+06    -72.4872E+06    -259.439E+06    -72.5057E+06    -259.421E+06    -58.4402E+06    -1.69447E+06         29.2172
            1535     3.77562E-03     85.2425E-03         1.22268    -290.488E-03    -387.311E-03    -281.897E-03         1.11727    -290.488E-03     172.619E-03     116.241E-03    -58.0111E-03    -58.2451E-03    -58.0484E-03     116.232E-03    -58.1990E-03     2.38440E-03    -49.5730E+06    -67.8797E+06    -249.227E+06    -67.9697E+06    -249.137E+06    -49.5730E+06    -3.70341E+06         29.4403
            1536     4.71867E-03     85.2472E-03         1.16232    -289.187E-03    -330.272E-03    -287.101E-03         1.11915    -289.187E-03    -130.409E-03     116.294E-03    -58.0716E-03    -58.2392E-03    -58.0695E-03     116.274E-03    -58.2209E-03     3.69904E-03    -40.4058E+06    -61.8717E+06    -233.239E+06    -62.1331E+06    -232.978E+06    -40.4058E+06    -6.35512E+06         29.7349
            1537     5.66246E-03     85.2508E-03         1.15164    -290.001E-03    -318.936E-03    -302.674E-03         1.13538    -290.001E-03     49.6463E-03     116.065E-03    -57.8803E-03    -58.2084E-03    -57.8390E-03     116.020E-03    -58.2046E-03     5.48397E-03    -32.5610E+06    -55.7252E+06    -210.987E+06    -56.0719E+06    -210.640E+06    -32.5610E+06    -7.24168E+06         30.1103
            1538     6.60667E-03     85.2579E-03         1.14036    -290.633E-03    -306.412E-03    -298.020E-03         1.13281    -291.472E-03    -47.6620E-03     116.027E-03    -57.8824E-03    -58.1821E-03    -57.7974E-03     115.942E-03    -58.1821E-03     7.60945E-03    -25.3554E+06    -50.3594E+06    -190.889E+06    -50.7167E+06    -190.531E+06    -25.3554E+06    -6.97730E+06         30.5934
            1539     7.55085E-03     85.2669E-03         1.14518    -291.900E-03    -310.665E-03    -306.606E-03         1.14196    -292.739E-03     20.9354E-03     116.017E-03    -57.8974E-03    -58.1605E-03    -57.7557E-03     115.875E-03    -58.1605E-03     9.84181E-03    -19.3473E+06    -45.3225E+06    -170.894E+06    -45.7319E+06    -170.485E+06    -19.3473E+06    -7.07999E+06         31.2100
            1540     8.49397E-03     85.2785E-03         1.16188    -295.029E-03    -323.301E-03    -322.116E-03         1.16069    -295.029E-03    -43.9260E-03     115.874E-03    -57.7847E-03    -58.1130E-03    -57.5562E-03     115.645E-03    -58.1130E-03     12.5013E-03    -14.9450E+06    -39.3437E+06    -146.475E+06    -39.9183E+06    -145.900E+06    -14.9450E+06    -7.15016E+06         31.9783
            1541     9.43875E-03     85.2928E-03         1.16166    -297.437E-03    -318.204E-03    -317.711E-03         1.16116    -297.437E-03    -21.5204E-03     115.885E-03    -57.7968E-03    -58.0575E-03    -57.3656E-03     115.454E-03    -58.0575E-03     17.0088E-03    -11.0133E+06    -33.6135E+06    -116.373E+06    -34.1179E+06    -115.869E+06    -11.0133E+06    -5.83117E+06         33.0524
            1542     10.3833E-03     85.3143E-03         1.16537    -299.242E-03    -320.251E-03    -319.785E-03         1.16490    -299.242E-03    -47.5110E-03     115.819E-03    -57.8177E-03    -57.9832E-03    -57.1254E-03     115.127E-03    -57.9832E-03     21.8104E-03    -9.79084E+06    -30.0513E+06    -80.9239E+06    -30.3154E+06    -80.6599E+06    -9.79084E+06    -3.16336E+06         34.7205
            1543     11.3272E-03     85.3393E-03         1.18258    -301.462E-03    -336.757E-03    -336.690E-03         1.18252    -301.462E-03    -14.8031E-03     115.830E-03    -57.7778E-03    -58.0861E-03    -56.8799E-03     114.706E-03    -57.8604E-03     27.5696E-03    -609.281E+03    -25.0649E+06    -44.0051E+06    -28.3007E+06    -25.4086E+06    -15.9700E+06    -685.281E+03         37.1233
            1544     12.2724E-03     85.3732E-03         1.19377    -304.248E-03    -346.230E-03    -346.174E-03         1.19372    -304.248E-03    -14.2039E-03     116.856E-03    -57.7579E-03    -59.1214E-03    -56.7993E-03     114.534E-03    -57.7579E-03     39.4263E-03     53.1463E+06    -12.0817E+06    -26.8719E+06    -26.7682E+06     53.0427E+06    -12.0817E+06     1.33229E+06         40.2427
            1545     13.2158E-03     85.4236E-03         1.19719    -306.719E-03    -345.090E-03    -345.029E-03         1.19712    -306.719E-03    -10.9637E-03     118.893E-03    -57.7739E-03    -61.1719E-03    -56.3472E-03     114.068E-03    -57.7739E-03     57.3139E-03     113.798E+06     12.3212E+06    -24.6518E+06    -24.5021E+06     113.648E+06     12.3212E+06     3.66001E+06         44.0487
            1546     14.1626E-03     85.4986E-03         1.20437    -308.678E-03    -351.159E-03    -351.057E-03         1.20427    -308.678E-03     14.6920E-03     127.333E-03    -57.8970E-03    -69.5423E-03    -56.1302E-03     113.921E-03    -57.8970E-03     96.0622E-03     138.669E+06     53.1397E+06    -19.9906E+06    -19.8032E+06     138.482E+06     53.1397E+06     4.96604E+06         48.3190
            1547     15.1065E-03     85.6356E-03         1.21724    -310.348E-03    -359.679E-03    -359.512E-03         1.21708    -310.348E-03    -2.02680E-03     147.192E-03    -58.0375E-03    -89.2561E-03    -57.0626E-03     114.999E-03    -58.0375E-03     160.225E-03     152.528E+06     100.823E+06    -14.1507E+06    -13.9667E+06     152.344E+06     100.823E+06     3.76046E+06         52.3774
            1548     16.0507E-03     85.8578E-03         1.23554    -312.324E-03    -375.168E-03    -374.980E-03         1.23535    -312.324E-03    -10.9533E-03     139.924E-03    -58.1067E-03    -81.8375E-03    -56.8347E-03     114.921E-03    -58.1067E-03     130.288E-03     160.817E+06     127.824E+06    -7.21513E+06    -7.10283E+06     160.705E+06     127.824E+06     1.78058E+06         55.5090
            1549     944.064E-06     86.3627E-03         3.06286    -453.360E-03        -2.06846    -117.768E-03         1.11217    -453.360E-03        -1.93974     116.198E-03    -58.0261E-03    -58.1740E-03    -58.1575E-03     116.196E-03    -58.0413E-03     498.422E-06    -79.1538E+06    -82.1685E+06    -277.559E+06    -81.5515E+06    -277.552E+06    -79.7781E+06    -1.00846E+06         28.9710
            1550     1.88719E-03     86.3633E-03         1.77060    -282.985E-03    -946.799E-03    -272.544E-03         1.09635    -282.985E-03     682.455E-03     116.197E-03    -57.9782E-03    -58.2236E-03    -58.0593E-03     116.195E-03    -58.1410E-03     975.037E-06    -71.8215E+06    -78.9793E+06    -271.177E+06    -78.9840E+06    -271.172E+06    -71.8215E+06    -873.229E+03         29.0620
            1551     2.83192E-03     86.3635E-03         1.36069    -281.075E-03    -546.775E-03    -285.321E-03         1.09924    -281.075E-03    -351.127E-03     116.319E-03    -58.0145E-03    -58.3153E-03    -58.1493E-03     116.316E-03    -58.1773E-03     1.33433E-03    -61.8325E+06    -74.0052E+06    -256.538E+06    -74.0591E+06    -256.485E+06    -61.8325E+06    -2.43747E+06         29.2176
            1552     3.77450E-03     86.3662E-03         1.19639    -281.837E-03    -385.409E-03    -282.444E-03         1.09343    -281.837E-03     166.695E-03     116.380E-03    -58.0999E-03    -58.2965E-03    -58.1706E-03     116.371E-03    -58.2172E-03     2.39098E-03    -51.1444E+06    -67.5511E+06    -243.789E+06    -67.7599E+06    -243.580E+06    -51.1444E+06    -5.52873E+06         29.4418
            1553     4.71851E-03     86.3685E-03         1.13115    -281.536E-03    -323.088E-03    -278.034E-03         1.08610    -281.536E-03    -107.015E-03     116.155E-03    -57.9305E-03    -58.2446E-03    -57.9245E-03     116.134E-03    -58.2301E-03     3.69433E-03    -42.7978E+06    -61.6591E+06    -229.305E+06    -62.0619E+06    -228.903E+06    -42.7978E+06    -8.06860E+06         29.7363
            1554     5.66297E-03     86.3733E-03         1.11147    -281.614E-03    -307.009E-03    -287.167E-03         1.09163    -281.614E-03     59.2379E-03     116.074E-03    -57.9027E-03    -58.2001E-03    -57.8584E-03     116.030E-03    -58.2001E-03     5.45704E-03    -35.3981E+06    -56.6929E+06    -209.242E+06    -57.2833E+06    -208.652E+06    -35.3981E+06    -9.27991E+06         30.1111
            1555     6.60640E-03     86.3800E-03         1.11718    -283.409E-03    -311.488E-03    -302.697E-03         1.10839    -283.409E-03    -51.7584E-03     116.035E-03    -57.8883E-03    -58.1823E-03    -57.8029E-03     115.949E-03    -58.1823E-03     7.59328E-03    -27.6581E+06    -50.7958E+06    -189.962E+06    -51.4757E+06    -189.282E+06    -27.6581E+06    -9.53889E+06         30.5923
            1556     7.55003E-03     86.3890E-03         1.11767    -285.013E-03    -308.521E-03    -303.764E-03         1.11376    -285.855E-03     18.1595E-03     115.898E-03    -57.7836E-03    -58.1502E-03    -57.6405E-03     115.755E-03    -58.1502E-03     9.88916E-03    -20.6406E+06    -44.3854E+06    -169.527E+06    -45.2049E+06    -168.707E+06    -20.6406E+06    -9.81824E+06         31.2078
            1557     8.49516E-03     86.4004E-03         1.10988    -282.477E-03    -300.029E-03    -293.449E-03         1.10807    -287.245E-03    -37.0409E-03     115.811E-03    -57.7413E-03    -58.0938E-03    -57.5135E-03     115.583E-03    -58.0938E-03     12.4740E-03    -16.7026E+06    -39.3653E+06    -146.290E+06    -40.3764E+06    -145.279E+06    -16.7026E+06    -10.0896E+06         31.9764
            1558     9.43883E-03     86.4150E-03         1.12363    -284.358E-03    -309.159E-03    -304.778E-03         1.12317    -288.283E-03     11.7219E-03     115.898E-03    -57.8348E-03    -58.0422E-03    -57.4094E-03     115.473E-03    -58.0422E-03     16.9114E-03    -14.5400E+06    -35.9784E+06    -119.487E+06    -36.8591E+06    -118.606E+06    -14.5400E+06    -8.23242E+06         33.0454
            1559     10.3828E-03     86.4363E-03         1.14199    -290.333E-03    -321.649E-03    -321.389E-03         1.14173    -290.333E-03    -10.3177E-03     115.816E-03    -57.8182E-03    -57.9767E-03    -57.1494E-03     115.147E-03    -57.9767E-03     21.4463E-03    -12.5947E+06    -32.1134E+06    -83.4562E+06    -32.7195E+06    -82.8500E+06    -12.5947E+06    -5.26090E+06         34.7003
            1560     11.3280E-03     86.4609E-03         1.14322    -292.685E-03    -320.960E-03    -320.771E-03         1.14303    -292.685E-03     14.8061E-03     115.697E-03    -57.7386E-03    -57.9892E-03    -56.7804E-03     114.604E-03    -57.8545E-03     27.1400E-03    -4.14177E+06    -26.6959E+06    -44.1677E+06    -28.8530E+06    -28.1268E+06    -18.0255E+06    -2.28734E+06         37.0923
            1561     12.2724E-03     86.4948E-03         1.14645    -294.565E-03    -321.311E-03    -321.107E-03         1.14624    -294.565E-03    -6.68607E-03     116.763E-03    -57.7357E-03    -59.0518E-03    -56.6933E-03     114.404E-03    -57.7357E-03     39.6267E-03     49.4847E+06    -14.8283E+06    -27.3437E+06    -27.1105E+06     49.2515E+06    -14.8283E+06     905.275E+03         40.2104
            1562     13.2171E-03     86.5476E-03         1.16428    -296.562E-03    -336.074E-03    -335.976E-03         1.16418    -296.562E-03    -19.3303E-03     118.885E-03    -57.7470E-03    -61.1987E-03    -56.4358E-03     114.122E-03    -57.7470E-03     57.1099E-03     112.580E+06     9.55796E+06    -25.6158E+06    -25.4651E+06     112.430E+06     9.55796E+06     3.21937E+06         44.0222
            1563     14.1607E-03     86.6182E-03         1.18338    -299.143E-03    -353.359E-03    -353.355E-03         1.18338    -299.143E-03    -2.03498E-03     127.719E-03    -57.8793E-03    -69.9372E-03    -56.5474E-03     114.329E-03    -57.8793E-03     96.0012E-03     138.183E+06     49.1081E+06    -21.6001E+06    -21.4517E+06     138.035E+06     49.1081E+06     4.07242E+06         48.3011
            1564     15.1075E-03     86.7598E-03         1.18140    -301.371E-03    -348.785E-03    -348.704E-03         1.18132    -301.371E-03    -14.5048E-03     147.482E-03    -58.0421E-03    -89.5175E-03    -57.2082E-03     115.172E-03    -58.0421E-03     160.666E-03     153.978E+06     98.3919E+06    -15.0964E+06    -14.9418E+06     153.823E+06     98.3919E+06     4.31045E+06         52.3659
            1565     16.0535E-03     86.9802E-03         1.17161    -302.718E-03    -340.783E-03    -340.620E-03         1.17145    -302.718E-03    -2.65423E-03     139.888E-03    -58.1230E-03    -81.7843E-03    -56.4811E-03     114.585E-03    -58.1230E-03     131.686E-03     163.135E+06     128.468E+06    -7.81977E+06    -7.71895E+06     163.035E+06     128.468E+06     2.44240E+06         55.5019
            1566     943.810E-06     87.4844E-03         2.98844    -438.262E-03        -2.03532    -113.637E-03         1.06676    -438.262E-03        -1.90422     115.911E-03    -57.7505E-03    -58.1648E-03    -58.1481E-03     115.910E-03    -57.7657E-03     758.607E-06    -82.7517E+06    -85.7086E+06    -276.539E+06    -85.1013E+06    -276.523E+06    -83.3759E+06    -1.03787E+06         28.9673
            1567     1.88833E-03     87.4852E-03         1.70165    -272.371E-03    -914.069E-03    -257.891E-03         1.04547    -272.371E-03     691.692E-03     116.338E-03    -58.0582E-03    -58.2864E-03    -58.2850E-03     116.336E-03    -58.0582E-03     733.163E-06    -77.2258E+06    -81.5781E+06    -269.032E+06    -81.6220E+06    -268.988E+06    -77.2258E+06    -2.37604E+06         29.0615
            1568     2.83049E-03     87.4860E-03         1.29983    -267.671E-03    -518.591E-03    -261.312E-03         1.04255    -267.671E-03    -309.225E-03     116.405E-03    -58.0773E-03    -58.3422E-03    -58.2564E-03     116.401E-03    -58.1591E-03     1.53301E-03    -70.5284E+06    -77.0580E+06    -251.287E+06    -77.2569E+06    -251.088E+06    -70.5284E+06    -5.11848E+06         29.2172
            1569     3.77495E-03     87.4885E-03         1.16133    -268.121E-03    -384.389E-03    -280.451E-03         1.05739    -268.121E-03     174.773E-03     116.174E-03    -57.9564E-03    -58.2367E-03    -57.9802E-03     116.165E-03    -58.2035E-03     2.52998E-03    -57.4730E+06    -71.3060E+06    -238.399E+06    -71.7527E+06    -237.953E+06    -57.4730E+06    -8.41009E+06         29.4408
            1570     4.71897E-03     87.4902E-03         1.10010    -270.723E-03    -326.834E-03    -281.719E-03         1.05498    -270.723E-03    -92.7247E-03     116.242E-03    -58.0200E-03    -58.2423E-03    -58.0096E-03     116.220E-03    -58.2304E-03     3.83928E-03    -44.7944E+06    -64.7304E+06    -225.844E+06    -65.3941E+06    -225.180E+06    -44.7944E+06    -10.1034E+06         29.7369
            1571     5.66208E-03     87.4958E-03         1.08093    -272.982E-03    -307.524E-03    -287.399E-03         1.06080    -272.982E-03     77.6489E-03     116.162E-03    -57.9618E-03    -58.2255E-03    -57.9317E-03     116.120E-03    -58.2136E-03     5.36609E-03    -37.2010E+06    -58.2732E+06    -205.619E+06    -59.2263E+06    -204.666E+06    -37.2010E+06    -11.5969E+06         30.1120
            1572     6.60635E-03     87.5018E-03         1.08364    -275.785E-03    -307.819E-03    -298.910E-03         1.07473    -275.785E-03    -24.7331E-03     115.878E-03    -57.7164E-03    -58.1869E-03    -57.6325E-03     115.794E-03    -58.1869E-03     7.48006E-03    -29.7497E+06    -51.5866E+06    -188.157E+06    -52.9434E+06    -186.800E+06    -29.7497E+06    -13.2064E+06         30.5912
            1573     7.55099E-03     87.5113E-03         1.07920    -277.415E-03    -298.581E-03    -292.551E-03         1.07402    -278.257E-03     28.3357E-03     115.881E-03    -57.7701E-03    -58.1415E-03    -57.6258E-03     115.737E-03    -58.1415E-03     9.95337E-03    -22.5909E+06    -45.1702E+06    -168.548E+06    -46.6568E+06    -167.061E+06    -22.5909E+06    -13.2113E+06         31.2063
            1574     8.49404E-03     87.5224E-03         1.06989    -274.304E-03    -286.339E-03    -279.332E-03         1.06766    -279.072E-03    -33.0455E-03     115.883E-03    -57.8102E-03    -58.0961E-03    -57.5947E-03     115.667E-03    -58.0961E-03     12.1658E-03    -17.7348E+06    -40.3398E+06    -146.599E+06    -41.6831E+06    -145.255E+06    -17.7348E+06    -11.7457E+06         31.9756
            1575     9.43869E-03     87.5375E-03         1.08545    -275.734E-03    -297.768E-03    -293.218E-03         1.08482    -279.660E-03     22.2026E-03     115.847E-03    -57.7860E-03    -58.0404E-03    -57.3628E-03     115.424E-03    -58.0404E-03     16.7796E-03    -16.3672E+06    -35.8401E+06    -121.422E+06    -37.1348E+06    -120.127E+06    -16.3672E+06    -10.2981E+06         33.0391
            1576     10.3831E-03     87.5585E-03         1.10513    -281.455E-03    -309.506E-03    -308.972E-03         1.10459    -281.455E-03    -24.7440E-03     115.931E-03    -57.8343E-03    -58.0693E-03    -57.2678E-03     115.264E-03    -57.9688E-03     21.4600E-03    -15.6398E+06    -30.9696E+06    -86.2110E+06    -32.4705E+06    -84.7101E+06    -15.6398E+06    -8.49581E+06         34.6796
            1577     11.3268E-03     87.5827E-03         1.11039    -283.641E-03    -311.044E-03    -310.553E-03         1.10990    -283.641E-03     1.88595E-03     115.807E-03    -57.7966E-03    -58.0279E-03    -56.9016E-03     114.749E-03    -57.8644E-03     26.7321E-03    -8.36387E+06    -27.2677E+06    -46.0270E+06    -28.7343E+06    -32.1884E+06    -20.7360E+06    -5.17586E+06         37.0601
            1578     12.2718E-03     87.6167E-03         1.12029    -285.887E-03    -322.044E-03    -321.738E-03         1.11998    -285.887E-03    -10.5941E-03     116.500E-03    -57.7279E-03    -58.7717E-03    -56.3563E-03     114.094E-03    -57.7373E-03     39.7948E-03     43.4016E+06    -17.4214E+06    -26.6937E+06    -26.1922E+06      43.127E+06    -17.6484E+06     378.612E+03         40.1770
            1579     13.2169E-03     87.6699E-03         1.13200    -288.477E-03    -332.318E-03    -332.086E-03         1.13177    -288.477E-03    -18.3517E-03     118.635E-03    -57.7212E-03    -60.9527E-03    -56.1815E-03     113.864E-03    -57.7212E-03     57.2099E-03     110.054E+06     6.64254E+06    -25.6354E+06    -25.4137E+06     109.833E+06     6.64254E+06     4.53477E+06         43.9961
            1580     14.1626E-03     87.7417E-03         1.13972    -290.903E-03    -335.431E-03    -335.311E-03         1.13960    -290.903E-03     16.4820E-03     128.226E-03    -57.8697E-03    -70.4495E-03    -56.9308E-03     114.707E-03    -57.8697E-03     96.5434E-03     138.565E+06     45.8413E+06    -24.6640E+06    -24.4634E+06     138.364E+06     45.8413E+06     4.07835E+06         48.2844
            1581     15.1053E-03     87.8817E-03         1.14530    -292.659E-03    -338.314E-03    -338.148E-03         1.14514    -292.659E-03    -3.94906E-03     147.111E-03    -58.0582E-03    -89.1439E-03    -57.3380E-03     115.305E-03    -58.0582E-03     159.478E-03     154.746E+06     95.8904E+06    -18.3533E+06    -18.2847E+06     154.678E+06     95.8904E+06     2.46407E+06         52.3548
            1582     16.0528E-03     88.0990E-03         1.13939    -294.113E-03    -339.152E-03    -338.960E-03         1.13920    -294.113E-03    -26.6983E-03     139.100E-03    -58.1386E-03    -80.9984E-03    -56.1984E-03     114.300E-03    -58.1386E-03     130.601E-03     165.337E+06     128.365E+06    -9.23161E+06    -9.21094E+06     165.317E+06     128.365E+06     1.34788E+06         55.4943
            1583     944.209E-06     88.6066E-03         2.85924    -436.901E-03        -1.93836    -67.0526E-03     987.927E-03    -436.901E-03        -1.83823     116.295E-03    -57.9400E-03    -58.3595E-03    -58.3302E-03     116.294E-03    -57.9682E-03     557.238E-06    -85.0075E+06    -87.2257E+06    -272.846E+06    -86.6468E+06    -272.813E+06    -85.6192E+06    -1.04094E+06         28.9731
            1584     1.88684E-03     88.6072E-03         1.63235    -254.542E-03    -893.488E-03    -264.627E-03         1.00349    -254.542E-03     627.911E-03     116.374E-03    -58.0478E-03    -58.3325E-03    -58.1937E-03     116.373E-03    -58.1853E-03     741.105E-06    -80.4622E+06    -83.2328E+06    -263.743E+06    -83.4424E+06    -263.533E+06    -80.4622E+06    -5.31943E+06         29.0633
            1585     2.83145E-03     88.6090E-03         1.25724    -257.514E-03    -514.337E-03    -260.228E-03         1.00313    -257.514E-03    -317.584E-03     116.158E-03    -57.9227E-03    -58.2499E-03    -57.9958E-03     116.155E-03    -58.1733E-03     1.51298E-03    -73.5902E+06    -78.5549E+06    -244.909E+06    -79.0825E+06    -244.382E+06    -73.5902E+06    -8.83238E+06         29.2160
            1586     3.77490E-03     88.6096E-03         1.13156    -260.026E-03    -384.359E-03    -276.503E-03         1.02371    -260.026E-03     131.480E-03     116.214E-03    -58.0118E-03    -58.2215E-03    -58.0410E-03     116.204E-03    -58.1818E-03     2.57468E-03    -60.4615E+06    -73.1494E+06    -233.269E+06    -73.9075E+06    -232.511E+06    -60.4615E+06    -10.8869E+06         29.4396
            1587     4.71843E-03     88.6138E-03         1.08686    -264.334E-03    -335.463E-03    -286.805E-03         1.03820    -264.334E-03    -142.843E-03     116.307E-03    -58.0411E-03    -58.2817E-03    -58.0696E-03     116.284E-03    -58.2303E-03     3.94962E-03    -47.1442E+06    -67.3782E+06    -221.944E+06      -68.44E+06    -220.882E+06    -47.1442E+06    -12.5705E+06         29.7361
            1588     5.66233E-03     88.6179E-03         1.05991    -268.276E-03    -307.484E-03    -288.646E-03         1.04107    -268.276E-03     42.3839E-03     116.075E-03    -57.8697E-03    -58.2275E-03    -57.8380E-03     116.032E-03    -58.2157E-03     5.42640E-03    -39.0507E+06    -60.6560E+06    -201.314E+06    -62.2192E+06    -199.751E+06    -39.0507E+06    -14.5242E+06         30.1110
            1589     6.60626E-03     88.6240E-03         1.04241    -266.353E-03    -290.266E-03    -276.652E-03         1.03285    -270.407E-03    -54.8927E-03     115.983E-03    -57.8242E-03    -58.1859E-03    -57.7418E-03     115.901E-03    -58.1859E-03     7.47196E-03    -32.2464E+06    -53.8462E+06    -184.149E+06    -56.0345E+06    -181.961E+06    -32.2464E+06    -16.5254E+06         30.5904
            1590     7.55009E-03     88.6332E-03         1.04203    -267.012E-03    -283.853E-03    -275.038E-03         1.03727    -271.066E-03     3.53993E-03     115.922E-03    -57.7990E-03    -58.1511E-03    -57.6572E-03     115.780E-03    -58.1511E-03     9.84912E-03    -26.3585E+06    -47.5232E+06    -168.130E+06    -50.0643E+06    -165.589E+06    -26.3585E+06    -17.0613E+06         31.2045
            1591     8.49454E-03     88.6459E-03         1.06164    -272.407E-03    -295.517E-03    -293.005E-03         1.05913    -272.407E-03    -46.8871E-03     115.794E-03    -57.7056E-03    -58.1001E-03    -57.4888E-03     115.578E-03    -58.1001E-03     12.2025E-03    -21.7118E+06    -40.6635E+06    -148.415E+06    -43.0589E+06    -146.020E+06    -21.7118E+06    -15.6111E+06         31.9728
            1592     9.43835E-03     88.6588E-03         1.06487    -274.559E-03    -296.300E-03    -295.730E-03         1.06430    -274.559E-03     3.13437E-03     115.893E-03    -57.7717E-03    -58.0883E-03    -57.3945E-03     115.463E-03    -58.0360E-03     16.8898E-03    -19.3664E+06    -34.1276E+06    -122.276E+06    -36.5239E+06    -119.880E+06    -19.3664E+06    -14.0765E+06         33.0314
            1593     10.3829E-03     88.6813E-03         1.06250    -276.229E-03    -291.546E-03    -290.864E-03         1.06182    -276.229E-03    -59.0423E-03     115.895E-03    -57.7454E-03    -58.1148E-03    -57.2176E-03     115.214E-03    -57.9620E-03     21.6711E-03    -19.4509E+06    -29.6743E+06    -90.2279E+06    -32.1161E+06    -87.7861E+06    -19.4509E+06    -11.5903E+06         34.6600
            1594     11.3269E-03     88.7057E-03         1.07119    -277.651E-03    -298.108E-03    -297.652E-03         1.07073    -277.651E-03    -36.1319E-03     115.971E-03    -57.7022E-03    -58.2789E-03    -57.0503E-03     114.903E-03    -57.8630E-03     26.8951E-03    -12.5557E+06    -28.6098E+06    -50.9248E+06    -29.7516E+06    -37.5907E+06    -24.7479E+06    -6.82537E+06         37.0311
            1595     12.2720E-03     88.7374E-03         1.08370    -279.532E-03    -310.743E-03    -310.589E-03         1.08355    -279.532E-03    -19.8108E-03     116.683E-03    -57.7440E-03    -58.9363E-03    -56.5929E-03     114.349E-03    -57.7534E-03     39.3033E-03     36.4034E+06    -21.4947E+06    -29.3698E+06    -28.7705E+06     36.0312E+06    -21.7217E+06    -771.731E+03         40.1463
            1596     13.2174E-03     88.7922E-03         1.09122    -281.640E-03    -315.372E-03    -315.152E-03         1.09100    -281.640E-03    -19.0396E-03     118.059E-03    -57.7135E-03    -60.3632E-03    -55.6476E-03     113.343E-03    -57.7135E-03     56.5540E-03     104.907E+06     322.758E+03    -26.6974E+06    -26.5049E+06     104.714E+06     322.758E+03     4.50077E+06         43.9721
            1597     14.1617E-03     88.8633E-03         1.09106    -283.314E-03    -313.201E-03    -313.039E-03         1.09090    -283.314E-03     9.59166E-03     127.970E-03    -57.8149E-03    -70.2525E-03    -56.2487E-03     113.967E-03    -57.8149E-03     97.8702E-03     140.895E+06     42.3376E+06    -22.3308E+06    -22.1005E+06     140.665E+06     42.3376E+06     4.93881E+06         48.2721
            1598     15.1074E-03     89.0069E-03         1.10141    -284.675E-03    -324.812E-03    -324.477E-03         1.10107    -284.675E-03    -14.3066E-03     148.013E-03    -58.0212E-03    -90.1296E-03    -58.1052E-03     115.989E-03    -58.0212E-03     161.048E-03     157.776E+06     96.9669E+06    -16.0451E+06    -15.9558E+06     157.687E+06     96.9669E+06     1.55346E+06         52.3480
            1599     16.0503E-03     89.2190E-03         1.11667    -286.636E-03    -344.788E-03    -344.426E-03         1.11631    -286.636E-03    -39.3626E-03     139.448E-03    -58.1450E-03    -81.3783E-03    -56.8027E-03     114.873E-03    -58.1450E-03     130.747E-03     166.687E+06     129.148E+06    -8.23151E+06    -8.19649E+06     166.652E+06     129.148E+06     390.343E+03         55.4879
            1600     942.842E-06     89.7285E-03         2.81687    -476.024E-03        -1.87231    -38.5176E-03     983.075E-03    -476.024E-03        -1.83276     116.777E-03    -58.2464E-03    -58.5330E-03    -58.2976E-03     116.776E-03    -58.4814E-03     440.846E-06    -86.9835E+06    -89.4009E+06    -267.064E+06    -88.6939E+06    -266.991E+06    -87.7638E+06    -2.75252E+06         28.9808
            1601     1.88726E-03     89.7302E-03         1.59980    -257.947E-03    -878.422E-03    -260.682E-03     982.060E-03    -257.947E-03     569.672E-03     116.231E-03    -57.9098E-03    -58.3259E-03    -57.9088E-03     116.230E-03    -58.3259E-03     830.353E-06    -80.6483E+06    -85.2824E+06    -254.949E+06    -85.6463E+06    -254.585E+06    -80.6483E+06    -7.21137E+06         29.0669
            1602     2.83080E-03     89.7298E-03         1.25034    -259.178E-03    -525.344E-03    -262.417E-03     987.411E-03    -259.178E-03    -315.504E-03     116.159E-03    -57.9630E-03    -58.2093E-03    -57.9594E-03     116.155E-03    -58.2093E-03     1.43642E-03    -73.7651E+06    -80.9039E+06    -236.827E+06    -81.7557E+06    -235.975E+06    -73.7651E+06    -11.2998E+06         29.2183
            1603     3.77498E-03     89.7330E-03         1.11748    -261.548E-03    -387.731E-03    -276.135E-03         1.00588    -261.548E-03     148.457E-03     116.250E-03    -58.0295E-03    -58.2389E-03    -58.0585E-03     116.239E-03    -58.1992E-03     2.62641E-03    -63.7176E+06    -76.3412E+06    -228.534E+06    -77.5223E+06    -227.353E+06    -63.7176E+06    -13.2481E+06         29.4396
            1604     4.71829E-03     89.7356E-03         1.06584    -264.942E-03    -328.592E-03    -280.582E-03         1.01783    -264.942E-03    -140.254E-03     116.131E-03    -57.8850E-03    -58.2625E-03    -57.9020E-03     116.108E-03    -58.2228E-03     3.90266E-03    -50.9708E+06    -69.2375E+06    -216.890E+06    -70.9865E+06    -215.141E+06    -50.9708E+06    -15.5518E+06         29.7333
            1605     5.66254E-03     89.7399E-03         1.03079    -267.071E-03    -292.806E-03    -273.909E-03         1.01189    -267.071E-03     41.8851E-03     116.049E-03    -57.8768E-03    -58.1990E-03    -57.8334E-03     116.005E-03    -58.1990E-03     5.42975E-03    -41.3783E+06    -61.1949E+06    -196.496E+06    -63.7047E+06    -193.986E+06    -41.3783E+06    -18.0568E+06         30.1086
            1606     6.60631E-03     89.7465E-03         1.01488    -263.548E-03    -280.243E-03    -267.295E-03         1.00599    -267.602E-03    -62.8083E-03     116.141E-03    -57.9915E-03    -58.1825E-03    -57.9058E-03     116.056E-03    -58.1825E-03     7.60920E-03    -34.4413E+06    -53.9013E+06    -179.989E+06    -57.1091E+06    -176.781E+06    -34.4413E+06    -19.6635E+06         30.5898
            1607     7.54975E-03     89.7557E-03         1.01540    -262.797E-03    -276.441E-03    -267.856E-03         1.01160    -267.580E-03     1.94709E-03     115.898E-03    -57.7692E-03    -58.1586E-03    -57.6272E-03     115.756E-03    -58.1586E-03     9.87860E-03    -29.2300E+06    -47.1872E+06    -166.395E+06    -51.0726E+06    -162.510E+06    -29.2300E+06    -21.0546E+06         31.2039
            1608     8.49414E-03     89.7666E-03         1.02829    -267.628E-03    -285.719E-03    -282.549E-03         1.02585    -268.357E-03    -32.5536E-03     115.708E-03    -57.6300E-03    -58.0914E-03    -57.4039E-03     115.482E-03    -58.0914E-03     12.4069E-03    -26.4372E+06    -40.2481E+06    -149.623E+06    -44.8547E+06    -145.016E+06    -26.4372E+06    -21.4986E+06         31.9713
            1609     9.43868E-03     89.7819E-03         1.03292    -270.044E-03    -290.089E-03    -289.407E-03         1.03223    -270.044E-03     17.1199E-03     115.975E-03    -57.8590E-03    -58.0817E-03    -57.4781E-03     115.542E-03    -58.0294E-03     17.0577E-03    -24.2485E+06    -34.2689E+06    -125.307E+06    -38.6826E+06    -120.893E+06    -24.2485E+06    -19.1903E+06         33.0254
            1610     10.3822E-03     89.8029E-03         1.03181    -271.648E-03    -288.384E-03    -288.093E-03         1.03151    -271.648E-03    -21.9918E-03     115.868E-03    -57.8035E-03    -58.0284E-03    -57.2032E-03     115.210E-03    -57.9706E-03     21.3038E-03    -23.0852E+06    -30.4484E+06    -95.5888E+06    -33.9774E+06    -92.0598E+06    -23.0852E+06    -14.5365E+06         34.6447
            1611     11.3280E-03     89.8271E-03         1.03798    -273.034E-03    -291.847E-03    -291.641E-03         1.03777    -273.034E-03    -2.60084E-03     116.002E-03    -57.7164E-03    -58.3032E-03    -57.0693E-03     114.920E-03    -57.8679E-03     27.0053E-03    -17.4880E+06    -29.9425E+06    -56.0311E+06    -31.0460E+06    -43.8266E+06    -28.5890E+06    -8.61566E+06         37.0091
            1612     12.2704E-03     89.8622E-03         1.04238    -274.347E-03    -292.944E-03    -292.890E-03         1.04232    -274.347E-03    -5.63012E-03     116.900E-03    -57.7668E-03    -59.1596E-03    -56.8456E-03     114.586E-03    -57.7668E-03     39.3283E-03     29.9390E+06    -24.0031E+06    -31.0414E+06    -28.9003E+06     29.0690E+06    -25.2742E+06    -1.95714E+06         40.1233
            1613     13.2149E-03     89.9112E-03         1.05071    -275.694E-03    -300.554E-03    -300.478E-03         1.05063    -275.694E-03    -18.9676E-03     118.029E-03    -57.7188E-03    -60.3550E-03    -55.7149E-03     113.389E-03    -57.7188E-03     56.0609E-03     100.871E+06    -5.43487E+06    -25.5882E+06    -25.5407E+06     100.824E+06    -5.43487E+06     2.21803E+06         43.9530
            1614     14.1638E-03     89.9847E-03         1.06183    -277.310E-03    -310.897E-03    -310.839E-03         1.06177    -277.310E-03    -7.94777E-03     126.976E-03    -57.7697E-03    -69.2961E-03    -55.3267E-03     113.007E-03    -57.7697E-03     97.0963E-03     142.169E+06     36.5804E+06    -19.9022E+06    -19.8043E+06     142.072E+06     36.5804E+06     3.02128E+06         48.2609
            1615     15.1100E-03     90.1291E-03         1.06098    -278.741E-03    -310.051E-03    -309.807E-03         1.06074    -278.741E-03    -20.8446E-03     147.817E-03    -57.9395E-03    -89.9722E-03    -57.2966E-03     115.142E-03    -57.9395E-03     162.247E-03     159.494E+06     95.0926E+06    -14.7676E+06    -14.6322E+06     159.358E+06     95.0926E+06     2.28527E+06         52.3436
            1616     16.0532E-03     90.3478E-03         1.06418    -279.864E-03    -312.510E-03    -312.267E-03         1.06394    -279.864E-03    -21.9580E-03     140.137E-03    -58.0816E-03    -82.1127E-03    -57.4426E-03     115.467E-03    -58.0816E-03     129.617E-03     167.455E+06     129.449E+06    -8.42746E+06    -8.33930E+06     167.367E+06     129.449E+06     844.340E+03         55.4853
            1617     943.133E-06     90.8515E-03         2.81102    -514.675E-03        -1.85164    -33.6505E-03     993.032E-03    -514.675E-03        -1.82151     116.702E-03    -58.1043E-03    -58.5996E-03    -58.3924E-03     116.702E-03    -58.3110E-03     302.883E-06    -86.1136E+06    -87.7763E+06    -258.490E+06    -87.0106E+06    -258.276E+06    -87.0932E+06    -5.56091E+06         28.9830
            1618     1.88699E-03     90.8516E-03         1.58498    -270.599E-03    -868.782E-03    -256.091E-03     972.287E-03    -270.599E-03     577.121E-03     116.396E-03    -58.0395E-03    -58.3614E-03    -58.0756E-03     116.395E-03    -58.3240E-03     906.951E-06    -79.7331E+06    -84.0009E+06    -244.255E+06    -84.3196E+06    -243.670E+06    -80.0002E+06    -9.15628E+06         29.0719
            1619     2.83107E-03     90.8529E-03         1.22932    -265.570E-03    -514.245E-03    -257.132E-03     972.207E-03    -265.570E-03    -310.166E-03     116.394E-03    -58.1200E-03    -58.2870E-03    -58.1161E-03     116.390E-03    -58.2870E-03     1.55200E-03    -70.2556E+06    -78.8779E+06    -229.056E+06    -79.9441E+06    -227.990E+06    -70.2556E+06    -12.4651E+06         29.2232
            1620     3.77402E-03     90.8550E-03         1.07770    -263.313E-03    -361.333E-03    -256.500E-03     972.870E-03    -263.313E-03     172.957E-03     116.164E-03    -57.9189E-03    -58.2623E-03    -57.9094E-03     116.154E-03    -58.2623E-03     2.50818E-03    -61.0146E+06    -73.3663E+06    -221.927E+06    -75.0346E+06    -220.258E+06    -61.0146E+06    -15.5060E+06         29.4406
            1621     4.71874E-03     90.8579E-03         1.01897    -262.024E-03    -301.207E-03    -257.797E-03     975.557E-03    -262.024E-03    -100.861E-03     116.039E-03    -57.8292E-03    -58.2267E-03    -57.8070E-03     116.016E-03    -58.2267E-03     3.84616E-03    -52.3754E+06    -66.8582E+06    -209.840E+06    -69.4776E+06    -207.221E+06    -52.3754E+06    -18.9122E+06         29.7307
            1622     5.66215E-03     90.8625E-03     996.462E-03    -261.508E-03    -278.545E-03    -260.816E-03     978.733E-03    -261.508E-03     69.8130E-03     116.104E-03    -57.9380E-03    -58.1939E-03    -57.8923E-03     116.058E-03    -58.1939E-03     5.56501E-03    -43.5516E+06    -59.6603E+06    -191.498E+06    -63.3997E+06    -187.758E+06    -43.5516E+06    -21.6785E+06         30.1057
            1623     6.60587E-03     90.8692E-03     990.399E-03    -261.788E-03    -275.005E-03    -267.270E-03     982.663E-03    -261.788E-03    -23.1352E-03     116.020E-03    -57.8734E-03    -58.1792E-03    -57.7871E-03     115.934E-03    -58.1792E-03     7.64900E-03    -35.7371E+06    -52.2000E+06    -176.256E+06    -56.8971E+06    -171.558E+06    -35.7371E+06    -23.4917E+06         30.5897
            1624     7.55030E-03     90.8782E-03     989.543E-03    -262.037E-03    -277.449E-03    -273.151E-03     985.974E-03    -262.765E-03     46.2208E-03     115.946E-03    -57.8193E-03    -58.1573E-03    -57.6839E-03     115.811E-03    -58.1573E-03     9.65992E-03    -29.5983E+06    -44.7311E+06    -163.511E+06    -50.4068E+06    -157.836E+06    -29.5983E+06    -25.1388E+06         31.2072
            1625     8.49433E-03     90.8887E-03     985.901E-03    -263.111E-03    -274.606E-03    -272.665E-03     984.688E-03    -263.840E-03    -5.74909E-03     115.877E-03    -57.7887E-03    -58.1058E-03    -57.5649E-03     115.653E-03    -58.1058E-03     12.3172E-03    -26.8687E+06    -38.6814E+06    -148.267E+06    -45.2798E+06    -141.669E+06    -26.8687E+06    -25.8636E+06         31.9751
            1626     9.43804E-03     90.9040E-03     991.658E-03    -264.880E-03    -278.056E-03    -277.249E-03     990.851E-03    -264.880E-03     11.9574E-03     115.886E-03    -57.8058E-03    -58.0493E-03    -57.3750E-03     115.455E-03    -58.0493E-03     17.0352E-03    -26.4468E+06    -34.2485E+06    -129.157E+06    -40.7451E+06    -122.660E+06    -26.4468E+06    -23.8155E+06         33.0246
            1627     10.3829E-03     90.9250E-03         1.00312    -266.337E-03    -287.043E-03    -286.531E-03         1.00261    -266.337E-03    -31.4645E-03     116.063E-03    -57.9191E-03    -58.1159E-03    -57.3880E-03     115.406E-03    -57.9903E-03     21.2982E-03    -25.3219E+06    -30.3409E+06    -102.533E+06    -35.3900E+06    -96.8504E+06    -25.9555E+06    -19.3219E+06         34.6360
            1628     11.3256E-03     90.9495E-03         1.00839    -268.024E-03    -289.233E-03    -288.920E-03         1.00807    -268.024E-03    -7.44806E-03     115.890E-03    -57.7905E-03    -58.1259E-03    -56.9467E-03     114.806E-03    -57.8856E-03     27.0068E-03    -19.5598E+06    -30.8036E+06    -60.8959E+06    -29.4619E+06    -50.7763E+06    -31.0211E+06    -13.1062E+06         36.9949
            1629     12.2725E-03     90.9835E-03         1.01293    -269.520E-03    -289.457E-03    -289.337E-03         1.01281    -269.520E-03    -12.2207E-03     116.390E-03    -57.6619E-03    -58.7688E-03    -56.3053E-03     114.021E-03    -57.7570E-03     39.6167E-03     24.4593E+06    -26.5290E+06    -30.7582E+06    -25.1508E+06     20.1231E+06    -27.8002E+06    -4.91155E+06         40.1096
            1630     13.2173E-03     91.0351E-03         1.01983    -270.900E-03    -293.735E-03    -293.641E-03         1.01974    -270.900E-03    -18.0000E-03     118.589E-03    -57.7196E-03    -60.9455E-03    -56.2324E-03     113.876E-03    -57.7196E-03     56.7875E-03     98.3912E+06    -5.17442E+06    -23.3441E+06    -23.3302E+06     98.3774E+06    -5.17442E+06     851.260E+03         43.9419
            1631     14.1592E-03     91.1044E-03         1.02744    -272.258E-03    -299.702E-03    -299.665E-03         1.02740    -272.258E-03     4.74101E-03     127.448E-03    -57.8175E-03    -69.7265E-03    -56.1092E-03     113.831E-03    -57.8175E-03     96.3119E-03     142.410E+06     35.8235E+06    -21.0247E+06    -20.9705E+06     142.356E+06     35.8235E+06     2.07091E+06         48.2505
            1632     15.1077E-03     91.2476E-03         1.03308    -273.282E-03    -300.400E-03    -300.248E-03         1.03293    -273.282E-03    -9.00746E-03     147.084E-03    -57.9634E-03    -89.1734E-03    -56.2189E-03     114.129E-03    -57.9634E-03     161.789E-03     159.550E+06     92.3662E+06    -16.0254E+06    -15.9273E+06     159.451E+06     92.3662E+06     2.57074E+06         52.3354
            1633     16.0557E-03     91.4731E-03         1.03356    -274.006E-03    -298.466E-03    -298.104E-03         1.03320    -274.006E-03    -32.4799E-03     139.703E-03    -58.0558E-03    -81.6570E-03    -56.6689E-03     114.714E-03    -58.0558E-03     128.599E-03     169.331E+06     130.003E+06    -8.34587E+06    -8.27739E+06     169.262E+06     130.003E+06     1.20304E+06         55.4807
            1634     944.157E-06     91.9746E-03         2.72417    -491.639E-03        -1.81488    -24.3590E-03     933.655E-03    -491.639E-03        -1.73640     116.406E-03    -57.9297E-03    -58.4799E-03    -58.4797E-03     116.406E-03    -57.9297E-03     173.682E-06    -82.0052E+06    -84.3491E+06    -247.574E+06    -83.7982E+06    -247.314E+06    -82.8164E+06    -6.04584E+06         28.9806
            1635     1.88715E-03     91.9740E-03         1.54316    -261.646E-03    -853.866E-03    -275.830E-03     965.126E-03    -261.646E-03     630.512E-03     116.686E-03    -58.2564E-03    -58.4365E-03    -58.4287E-03     116.684E-03    -58.2622E-03     958.834E-06    -79.9196E+06    -82.9312E+06    -232.931E+06    -83.3803E+06    -232.215E+06    -80.1868E+06    -10.0580E+06         29.0749
            1636     2.83005E-03     91.9758E-03         1.19006    -266.563E-03    -491.265E-03    -274.825E-03     973.617E-03    -266.563E-03    -282.438E-03     116.442E-03    -58.1326E-03    -58.3247E-03    -58.1410E-03     116.438E-03    -58.3124E-03     1.65794E-03    -72.5527E+06    -79.4055E+06    -220.641E+06    -80.9187E+06    -219.127E+06    -72.5527E+06    -14.1028E+06         29.2270
            1637     3.77463E-03     91.9770E-03         1.04299    -265.287E-03    -339.098E-03    -244.053E-03     947.941E-03    -265.287E-03     130.492E-03     116.178E-03    -57.9077E-03    -58.2897E-03    -57.8985E-03     116.169E-03    -58.2897E-03     2.42088E-03    -61.4778E+06    -72.9408E+06    -212.952E+06    -75.3471E+06    -210.546E+06    -61.4778E+06    -17.9157E+06         29.4440
            1638     4.71795E-03     91.9802E-03     978.912E-03    -260.191E-03    -277.901E-03    -235.696E-03     936.707E-03    -260.191E-03    -127.735E-03     116.116E-03    -57.8769E-03    -58.2562E-03    -57.8533E-03     116.092E-03    -58.2562E-03     3.96848E-03    -52.5352E+06    -65.8814E+06    -201.591E+06    -69.6321E+06    -197.841E+06    -52.5352E+06    -21.8046E+06         29.7324
            1639     5.66219E-03     91.9848E-03     966.938E-03    -257.456E-03    -270.674E-03    -253.958E-03     950.221E-03    -257.456E-03     22.7106E-03     116.033E-03    -57.8484E-03    -58.2099E-03    -57.8027E-03     115.987E-03    -58.2099E-03     5.57182E-03    -44.7114E+06    -58.4873E+06    -185.671E+06    -63.8096E+06    -180.349E+06    -44.7114E+06    -25.2401E+06         30.1050
            1640     6.60620E-03     91.9916E-03     963.661E-03    -257.584E-03    -272.228E-03    -263.409E-03     954.842E-03    -257.584E-03    -69.7174E-03     115.989E-03    -57.8346E-03    -58.1857E-03    -57.7523E-03     115.907E-03    -58.1857E-03     7.47307E-03    -36.6710E+06    -50.9442E+06    -172.172E+06    -57.6967E+06    -165.420E+06    -36.6710E+06    -27.5583E+06         30.5896
            1641     7.54986E-03     92.0001E-03     967.681E-03    -259.007E-03    -278.389E-03    -275.070E-03     964.362E-03    -259.007E-03     3.02584E-03     116.027E-03    -57.8891E-03    -58.1664E-03    -57.7553E-03     115.893E-03    -58.1664E-03     9.58980E-03    -30.0588E+06    -43.6295E+06    -159.827E+06    -51.6221E+06    -151.835E+06    -30.0588E+06    -29.2388E+06         31.2100
            1642     8.49351E-03     92.0118E-03     971.263E-03    -260.996E-03    -280.302E-03    -278.708E-03     969.669E-03    -260.996E-03    -52.3307E-03     115.926E-03    -57.8046E-03    -58.1308E-03    -57.5867E-03     115.708E-03    -58.1308E-03     12.1873E-03    -26.4865E+06    -36.9043E+06    -147.073E+06    -45.4461E+06    -138.532E+06    -26.4865E+06    -29.3290E+06         31.9790
            1643     9.43811E-03     92.0253E-03     967.551E-03    -262.542E-03    -274.089E-03    -273.797E-03     967.259E-03    -262.542E-03    -16.0333E-03     115.897E-03    -57.7905E-03    -58.0709E-03    -57.3521E-03     115.459E-03    -58.0709E-03     17.1086E-03    -26.5894E+06    -32.0431E+06    -131.610E+06    -39.9156E+06    -123.006E+06    -27.3210E+06    -27.9734E+06         33.0256
            1644     10.3820E-03     92.0479E-03     973.112E-03    -263.764E-03    -279.074E-03    -278.492E-03     972.530E-03    -263.764E-03    -51.0789E-03     115.987E-03    -57.8478E-03    -58.1136E-03    -57.2775E-03     115.297E-03    -57.9935E-03     21.8285E-03    -25.6046E+06    -30.2688E+06    -108.644E+06    -35.4113E+06    -99.7895E+06    -29.3166E+06    -25.1833E+06         34.6311
            1645     11.3271E-03     92.0720E-03     977.547E-03    -265.120E-03    -282.606E-03    -282.232E-03     977.173E-03    -265.120E-03    -36.5958E-03     115.861E-03    -57.7146E-03    -58.1717E-03    -56.9513E-03     114.811E-03    -57.8847E-03     26.7066E-03    -18.6141E+06    -35.2736E+06    -69.7733E+06    -30.0759E+06    -58.3114E+06    -35.2736E+06    -19.7236E+06         36.9854
            1646     12.2708E-03     92.1032E-03     980.495E-03    -266.379E-03    -282.235E-03    -282.079E-03     980.339E-03    -266.379E-03    -25.6209E-03     116.302E-03    -57.6605E-03    -58.6595E-03    -56.2781E-03     114.016E-03    -57.7556E-03     38.7930E-03     18.4139E+06    -31.0848E+06    -35.8775E+06    -24.7478E+06     8.50478E+06    -32.3053E+06    -10.2092E+06         40.0989
            1647     13.2172E-03     92.1571E-03     983.518E-03    -267.348E-03    -281.222E-03    -281.032E-03     983.328E-03    -267.348E-03    -27.5100E-03     118.269E-03    -57.7101E-03    -60.6051E-03    -55.9254E-03     113.590E-03    -57.7101E-03     56.4490E-03     92.2931E+06    -8.13733E+06    -23.5415E+06    -21.9812E+06     91.9533E+06    -9.35784E+06     157.020E+03         43.9336
            1648     14.1636E-03     92.2293E-03     982.647E-03    -267.999E-03    -280.490E-03    -280.415E-03     982.571E-03    -267.999E-03    -4.25451E-03     128.077E-03    -57.8285E-03    -70.3324E-03    -56.8046E-03     114.549E-03    -57.8285E-03     96.5224E-03     142.960E+06     32.2896E+06    -20.3559E+06    -20.2156E+06     142.820E+06     32.2896E+06     3.47134E+06         48.2435
            1649     15.1052E-03     92.3678E-03     992.453E-03    -268.680E-03    -291.541E-03    -291.214E-03     992.126E-03    -268.680E-03    -22.6861E-03     147.455E-03    -58.0219E-03    -89.4866E-03    -56.8641E-03     114.832E-03    -58.0219E-03     161.239E-03     160.705E+06     92.2110E+06    -14.0562E+06    -13.9983E+06     160.647E+06     92.2110E+06     1.94639E+06         52.3260
            1650     16.0530E-03     92.5903E-03         1.00770    -269.990E-03    -307.031E-03    -306.440E-03         1.00711    -269.990E-03    -53.3600E-03     139.138E-03    -58.0997E-03    -81.0666E-03    -55.7938E-03     113.865E-03    -58.0997E-03     130.477E-03     170.720E+06     131.269E+06    -6.77923E+06    -6.75483E+06     170.696E+06     131.269E+06     1.50047E+06         55.4716
            1651     943.650E-06     93.0964E-03         2.62471    -490.780E-03        -1.73574    -13.8392E-03     902.810E-03    -490.780E-03        -1.71638     116.324E-03    -57.8534E-03    -58.4745E-03    -58.4733E-03     116.323E-03    -57.8534E-03     754.698E-06    -84.7035E+06    -88.2405E+06    -235.913E+06    -87.8120E+06    -235.693E+06    -85.3521E+06    -5.02821E+06         28.9787
            1652     1.88700E-03     93.0975E-03         1.46457    -255.486E-03    -802.849E-03    -267.494E-03     929.218E-03    -255.486E-03     594.229E-03     116.601E-03    -58.2076E-03    -58.4010E-03    -58.3713E-03     116.599E-03    -58.2355E-03     939.968E-06    -78.8452E+06    -83.1518E+06    -221.282E+06    -83.9966E+06    -220.437E+06    -78.8452E+06    -10.1956E+06         29.0752
            1653     2.83092E-03     93.0979E-03         1.14984    -260.245E-03    -472.919E-03    -270.812E-03     947.737E-03    -260.245E-03    -251.666E-03     116.435E-03    -58.1474E-03    -58.3026E-03    -58.1559E-03     116.431E-03    -58.2902E-03     1.57861E-03    -70.6626E+06    -77.5327E+06    -208.900E+06    -79.5650E+06    -206.868E+06    -70.6626E+06    -15.8363E+06         29.2300
            1654     3.77399E-03     93.0998E-03         1.03597    -262.026E-03    -350.516E-03    -262.326E-03     947.776E-03    -262.026E-03     131.040E-03     116.394E-03    -58.1046E-03    -58.3079E-03    -58.1052E-03     116.384E-03    -58.2974E-03     2.54047E-03    -60.2930E+06    -71.3236E+06    -203.719E+06    -74.7156E+06    -200.327E+06    -60.2930E+06    -20.7658E+06         29.4499
            1655     4.71817E-03     93.1025E-03     968.591E-03    -260.544E-03    -286.393E-03    -245.476E-03     927.673E-03    -260.544E-03    -102.060E-03     116.314E-03    -58.0217E-03    -58.3110E-03    -58.0104E-03     116.292E-03    -58.3006E-03     3.82924E-03    -50.9236E+06    -64.1781E+06    -192.501E+06    -69.2012E+06    -187.478E+06    -50.9236E+06    -24.5870E+06         29.7377
            1656     5.66170E-03     93.1076E-03     950.886E-03    -258.811E-03    -274.844E-03    -256.083E-03     932.124E-03    -258.811E-03     35.7662E-03     116.012E-03    -57.7824E-03    -58.2565E-03    -57.7411E-03     115.971E-03    -58.2565E-03     5.27969E-03    -44.2265E+06    -56.5606E+06    -178.251E+06    -63.6748E+06    -171.137E+06    -44.2265E+06    -28.3508E+06         30.1064
            1657     6.60562E-03     93.1138E-03     954.490E-03    -259.422E-03    -278.993E-03    -270.901E-03     946.397E-03    -259.422E-03    -82.0333E-03     115.908E-03    -57.7340E-03    -58.2054E-03    -57.6503E-03     115.825E-03    -58.2054E-03     7.48760E-03    -37.9531E+06    -49.0130E+06    -167.137E+06    -58.0174E+06    -158.132E+06    -37.9531E+06    -31.1695E+06         30.5876
            1658     7.54950E-03     93.1234E-03     947.787E-03    -254.668E-03    -274.285E-03    -265.688E-03     945.106E-03    -260.586E-03    -11.4480E-03     115.929E-03    -57.7919E-03    -58.1630E-03    -57.6499E-03     115.787E-03    -58.1630E-03     9.87315E-03    -32.4507E+06    -42.2742E+06    -156.018E+06    -52.6669E+06    -145.625E+06    -32.4507E+06    -32.6688E+06         31.2074
            1659     8.49399E-03     93.1333E-03     944.801E-03    -254.693E-03    -271.084E-03    -262.990E-03     943.040E-03    -261.025E-03    -50.8264E-03     115.932E-03    -57.8173E-03    -58.1222E-03    -57.5969E-03     115.711E-03    -58.1222E-03     12.2862E-03    -29.7883E+06    -36.0177E+06    -146.232E+06    -47.4236E+06    -134.826E+06    -29.7883E+06    -33.4466E+06         31.9780
            1660     9.43768E-03     93.1480E-03     945.274E-03    -260.988E-03    -267.752E-03    -267.171E-03     945.108E-03    -261.403E-03     510.069E-06     115.990E-03    -57.8810E-03    -58.0678E-03    -57.4453E-03     115.554E-03    -58.0678E-03     17.0536E-03    -28.0793E+06    -32.4237E+06    -133.349E+06    -41.8549E+06    -121.282E+06    -30.7149E+06    -33.0377E+06         33.0238
            1661     10.3823E-03     93.1693E-03     943.893E-03    -261.432E-03    -269.068E-03    -268.382E-03     943.713E-03    -261.937E-03    -26.4602E-03     115.742E-03    -57.7212E-03    -57.9883E-03    -57.0396E-03     115.060E-03    -57.9883E-03     21.6626E-03    -23.0822E+06    -32.2202E+06    -113.306E+06    -35.6435E+06    -100.745E+06    -32.2202E+06    -31.0040E+06         34.6253
            1662     11.3265E-03     93.1944E-03     947.081E-03    -262.075E-03    -273.648E-03    -272.855E-03     946.793E-03    -262.581E-03    -8.49764E-03     115.868E-03    -57.6613E-03    -58.2339E-03    -56.9566E-03     114.803E-03    -57.8737E-03     26.8495E-03    -15.5182E+06    -39.6538E+06    -79.5618E+06    -31.1411E+06    -63.9390E+06    -39.6538E+06    -26.2882E+06         36.9760
            1663     12.2712E-03     93.2261E-03     953.527E-03    -263.425E-03    -277.579E-03    -277.368E-03     953.316E-03    -263.425E-03     2.82772E-03     116.993E-03    -57.7710E-03    -59.2332E-03    -56.9607E-03     114.721E-03    -57.7710E-03     38.9355E-03     9.64252E+06    -36.5707E+06    -45.5091E+06    -27.3185E+06    -5.60792E+06    -39.5108E+06    -16.1095E+06         40.0869
            1664     13.2153E-03     93.2777E-03     955.831E-03    -264.314E-03    -278.733E-03    -278.529E-03     955.627E-03    -264.314E-03    -24.4354E-03     118.251E-03    -57.7219E-03    -60.5641E-03    -55.9735E-03     113.660E-03    -57.7219E-03     55.8606E-03     81.4694E+06    -17.0347E+06    -25.4867E+06    -21.5966E+06     80.5194E+06    -19.9749E+06    -3.64017E+06         43.9214
            1665     14.1610E-03     93.3501E-03     954.539E-03    -265.077E-03    -278.614E-03    -278.478E-03     954.403E-03    -265.077E-03    -17.1407E-03     127.381E-03    -57.7931E-03    -69.6687E-03    -56.0051E-03     113.717E-03    -57.7931E-03     96.4242E-03      143.46E+06     23.3202E+06    -16.7562E+06    -16.5502E+06     143.254E+06     23.3202E+06     2.73165E+06         48.2342
            1666     15.1075E-03     93.4940E-03     953.568E-03    -265.634E-03    -280.265E-03    -280.029E-03     953.332E-03    -265.634E-03    -11.6560E-03     147.178E-03    -57.9810E-03    -89.2586E-03    -57.0220E-03     114.941E-03    -57.9810E-03     160.558E-03     160.338E+06     87.4568E+06    -13.1529E+06    -13.0424E+06     160.227E+06     87.4568E+06     3.32881E+06         52.3169
            1667     16.0523E-03     93.7069E-03     958.200E-03    -265.786E-03    -285.992E-03    -285.174E-03     957.738E-03    -266.142E-03    -6.39111E-03     139.092E-03    -58.0821E-03    -81.0544E-03    -55.8395E-03     113.877E-03    -58.0821E-03     132.067E-03     171.139E+06     129.957E+06    -8.06472E+06    -8.02761E+06     171.102E+06     129.957E+06     2.48234E+06         55.4606
            1668     943.666E-06     94.2196E-03         2.61870    -536.453E-03        -1.68898    -26.2729E-03     955.997E-03    -536.453E-03        -1.70777     116.465E-03    -58.0082E-03    -58.4619E-03    -58.3144E-03     116.463E-03    -58.1541E-03     826.533E-06    -82.1119E+06    -84.2818E+06    -222.673E+06    -83.9305E+06    -222.347E+06    -82.7900E+06    -5.70771E+06         28.9832
            1669     1.88721E-03     94.2199E-03         1.44582    -273.598E-03    -779.778E-03    -242.271E-03     908.312E-03    -273.598E-03     547.986E-03     116.390E-03    -58.1191E-03    -58.2771E-03    -58.1462E-03     116.388E-03    -58.2486E-03     959.175E-06    -75.6784E+06    -79.9515E+06    -208.369E+06    -81.1966E+06    -207.123E+06    -75.6784E+06    -11.9873E+06         29.0769
            1670     2.83049E-03     94.2207E-03         1.10798    -260.330E-03    -448.654E-03    -227.665E-03     886.994E-03    -260.330E-03    -272.915E-03     116.521E-03    -58.2082E-03    -58.3233E-03    -58.2572E-03     116.517E-03    -58.2707E-03     1.46179E-03    -67.7171E+06    -74.7174E+06    -197.088E+06    -77.3897E+06    -194.416E+06    -67.7171E+06    -17.5311E+06         29.2327
            1671     3.77457E-03     94.2221E-03         1.00257    -254.945E-03    -347.170E-03    -255.435E-03     910.835E-03    -254.945E-03     128.529E-03     116.613E-03    -58.2454E-03    -58.3824E-03    -58.2988E-03     116.603E-03    -58.3194E-03     2.53446E-03    -58.4573E+06    -68.9865E+06    -192.860E+06    -73.1828E+06    -188.663E+06    -58.4573E+06    -22.2314E+06         29.4527
            1672     4.71722E-03     94.2259E-03     967.879E-03    -256.471E-03    -311.098E-03    -271.260E-03     928.041E-03    -256.471E-03    -103.619E-03     116.367E-03    -58.0425E-03    -58.3453E-03    -58.0316E-03     116.346E-03    -58.3348E-03     3.74977E-03    -50.5843E+06    -61.9725E+06    -182.749E+06    -68.4057E+06    -176.316E+06    -50.5843E+06    -26.6769E+06         29.7394
            1673     5.66124E-03     94.2294E-03     940.835E-03    -258.798E-03    -284.407E-03    -269.103E-03     925.531E-03    -258.798E-03     68.6731E-03     116.007E-03    -57.7551E-03    -58.2832E-03    -57.7092E-03     115.961E-03    -58.2832E-03     5.53697E-03    -43.9860E+06    -53.6742E+06    -169.376E+06    -62.8458E+06    -160.205E+06    -43.9860E+06    -31.0285E+06         30.1065
            1674     6.60543E-03     94.2363E-03     933.535E-03    -259.929E-03    -275.801E-03    -270.336E-03     928.502E-03    -260.361E-03    -47.8319E-03     115.851E-03    -57.6621E-03    -58.2196E-03    -57.5732E-03     115.762E-03    -58.2196E-03     7.76029E-03    -38.3252E+06    -45.9508E+06    -161.346E+06    -57.2957E+06    -150.001E+06    -38.3252E+06    -34.2300E+06         30.5845
            1675     7.54995E-03     94.2449E-03     921.044E-03    -254.611E-03    -267.543E-03    -259.395E-03     919.246E-03    -260.960E-03     6.78666E-03     115.892E-03    -57.7457E-03    -58.1664E-03    -57.6033E-03     115.749E-03    -58.1664E-03     9.89602E-03    -33.3314E+06    -39.0695E+06    -152.564E+06    -51.9869E+06    -139.646E+06    -33.3314E+06    -35.9514E+06         31.2023
            1676     8.49342E-03     94.2564E-03     916.149E-03    -253.891E-03    -262.104E-03    -254.579E-03     915.251E-03    -260.518E-03    -35.0950E-03     115.907E-03    -57.7911E-03    -58.1233E-03    -57.5748E-03     115.690E-03    -58.1233E-03     12.1784E-03    -29.1354E+06    -33.4999E+06    -143.691E+06    -47.2356E+06    -129.107E+06    -29.9840E+06    -37.3845E+06         31.9734
            1677     9.43767E-03     94.2700E-03     918.465E-03    -257.107E-03    -261.893E-03    -258.433E-03     917.994E-03    -260.095E-03    -15.5566E-03     115.873E-03    -57.7747E-03    -58.0608E-03    -57.3267E-03     115.425E-03    -58.0608E-03     17.2105E-03    -25.3866E+06    -31.8978E+06    -133.217E+06    -42.1964E+06    -117.201E+06    -31.1046E+06    -38.0930E+06         33.0185
            1678     10.3814E-03     94.2917E-03     911.170E-03    -254.670E-03    -261.608E-03    -255.809E-03     910.511E-03    -259.810E-03    -46.4209E-03     115.789E-03    -57.7359E-03    -58.0188E-03    -57.0870E-03     115.097E-03    -57.9753E-03     21.8503E-03    -19.8643E+06    -34.6183E+06    -117.554E+06    -36.8800E+06    -100.538E+06    -34.6183E+06    -36.8458E+06         34.6164
            1679     11.3272E-03     94.3150E-03     910.478E-03    -255.507E-03    -263.005E-03    -258.499E-03     910.003E-03    -259.537E-03    -9.72406E-03     115.892E-03    -57.7308E-03    -58.1867E-03    -56.9514E-03     114.795E-03    -57.8682E-03     27.2011E-03    -12.6074E+06    -43.2599E+06    -88.3097E+06    -32.2554E+06    -68.6617E+06    -43.2599E+06     -32.306E+06         36.9632
            1680     12.2711E-03     94.3500E-03     924.198E-03    -258.681E-03    -272.931E-03    -271.596E-03     924.032E-03    -259.850E-03     11.7118E-03     117.056E-03    -57.7642E-03    -59.3095E-03    -56.9615E-03     114.708E-03    -57.7642E-03     39.6548E-03     4.20461E+06    -42.1720E+06    -55.0516E+06    -27.9545E+06    -19.5408E+06    -45.5237E+06    -23.0428E+06         40.0722
            1681     13.2151E-03     94.3998E-03     932.540E-03    -260.782E-03    -279.135E-03    -279.021E-03     932.427E-03    -260.782E-03    -14.5840E-03     118.956E-03    -57.6989E-03    -61.3128E-03    -56.6231E-03     114.266E-03    -57.6989E-03     56.7017E-03     70.8588E+06    -25.8308E+06    -33.0497E+06    -22.6891E+06     66.5095E+06    -31.8421E+06    -10.6375E+06         43.9060
            1682     14.1605E-03     94.4708E-03     928.776E-03    -261.481E-03    -273.954E-03    -273.428E-03     928.250E-03    -261.481E-03     12.5426E-03     127.152E-03    -57.7536E-03    -69.5052E-03    -55.7927E-03     113.439E-03    -57.7536E-03     96.4185E-03     137.496E+06     11.3666E+06    -21.4401E+06    -18.6248E+06     137.340E+06       8.707E+06     536.832E+03         48.2187
            1683     15.1078E-03     94.6139E-03     922.141E-03    -261.303E-03    -266.675E-03    -266.193E-03     921.659E-03    -261.303E-03     33.8146E-03     146.324E-03    -57.9154E-03    -88.4828E-03    -55.8519E-03     113.693E-03    -57.9154E-03     160.685E-03     159.175E+06     78.4384E+06    -15.4303E+06    -15.2387E+06     158.984E+06     78.4384E+06     5.26814E+06         52.3022
            1684     16.0538E-03     94.8322E-03     911.590E-03    -256.501E-03    -262.110E-03    -257.920E-03     911.369E-03    -260.470E-03     21.7118E-03     139.323E-03    -58.0209E-03    -81.3720E-03    -55.8518E-03     113.803E-03    -58.0209E-03     132.369E-03     174.636E+06     130.134E+06    -7.52262E+06    -7.42035E+06     174.534E+06     130.134E+06     3.37992E+06         55.4454
            1685     943.007E-06     95.3411E-03         2.53511    -496.961E-03        -1.65504    -46.4041E-03     926.477E-03    -496.961E-03        -1.59704     116.752E-03    -58.1253E-03    -58.6329E-03    -58.4080E-03     116.751E-03    -58.3492E-03     557.741E-06    -71.9900E+06    -72.6107E+06    -209.146E+06    -72.5737E+06    -208.808E+06    -72.3650E+06    -6.07412E+06         28.9903
            1686     1.88712E-03     95.3433E-03         1.43379    -269.612E-03    -781.696E-03    -261.334E-03     913.424E-03    -269.612E-03     566.707E-03     116.387E-03    -58.0712E-03    -58.3237E-03    -58.0701E-03     116.386E-03    -58.3237E-03     789.243E-06    -70.0291E+06    -72.2425E+06    -194.411E+06    -73.1906E+06    -193.117E+06    -70.3746E+06    -11.8527E+06         29.0793
            1687     2.83094E-03     95.3429E-03         1.08843    -263.210E-03    -443.187E-03    -237.265E-03     882.513E-03    -263.210E-03    -265.070E-03     116.535E-03    -58.1985E-03    -58.3498E-03    -58.2462E-03     116.531E-03    -58.2972E-03     1.68935E-03    -63.5573E+06    -69.8571E+06    -184.664E+06    -72.5825E+06    -181.938E+06    -63.5573E+06    -17.2300E+06         29.2313
            1688     3.77341E-03     95.3459E-03     967.879E-03    -257.072E-03    -331.750E-03    -242.476E-03     878.605E-03    -257.072E-03     112.134E-03     116.468E-03    -58.1118E-03    -58.3766E-03    -58.1534E-03     116.457E-03    -58.3241E-03     2.71797E-03    -54.0377E+06    -65.0874E+06    -180.190E+06    -69.6618E+06    -175.616E+06    -54.0377E+06    -22.2417E+06         29.4483
            1689     4.71782E-03     95.3479E-03     938.328E-03    -256.448E-03    -306.423E-03    -268.291E-03     900.197E-03    -256.448E-03    -129.230E-03     116.206E-03    -57.9202E-03    -58.3089E-03    -57.8946E-03     116.181E-03    -58.3089E-03     4.08341E-03    -46.8836E+06    -57.4418E+06    -171.233E+06    -65.2189E+06    -163.456E+06    -46.8836E+06    -28.2972E+06         29.7353
            1690     5.66172E-03     95.3526E-03     923.178E-03    -259.007E-03    -287.376E-03    -275.359E-03     911.161E-03    -259.007E-03     43.5906E-03     116.117E-03    -57.8882E-03    -58.2570E-03    -57.8393E-03     116.068E-03    -58.2570E-03     5.78720E-03    -41.3769E+06    -48.7629E+06    -159.837E+06    -60.1405E+06    -148.459E+06    -41.3769E+06    -33.5301E+06         30.1051
            1691     6.60551E-03     95.3581E-03     897.892E-03    -253.978E-03    -266.410E-03    -255.979E-03     893.566E-03    -260.083E-03    -72.3236E-03     116.020E-03    -57.8226E-03    -58.2259E-03    -57.7344E-03     115.932E-03    -58.2259E-03     7.72062E-03    -35.5383E+06    -41.0191E+06    -154.479E+06    -55.0768E+06    -140.422E+06    -35.5383E+06    -37.2674E+06         30.5822
            1692     7.54908E-03     95.3676E-03     894.963E-03    -253.424E-03    -262.172E-03    -255.376E-03     894.272E-03    -259.529E-03    -3.21390E-03     115.840E-03    -57.6728E-03    -58.1812E-03    -57.5222E-03     115.689E-03    -58.1812E-03     10.1453E-03    -30.2016E+06    -34.9320E+06    -148.800E+06    -49.4802E+06    -132.970E+06    -31.4840E+06    -39.5929E+06         31.1956
            1693     8.49337E-03     95.3787E-03     905.247E-03    -259.140E-03    -263.329E-03    -262.565E-03     904.778E-03    -259.434E-03    -26.5415E-03     115.716E-03    -57.6029E-03    -58.1153E-03    -57.3707E-03     115.484E-03    -58.1153E-03     12.6025E-03    -25.8933E+06    -29.9170E+06    -139.946E+06    -44.3936E+06    -122.722E+06    -28.6404E+06    -40.4974E+06         31.9662
            1694     9.43805E-03     95.3921E-03     896.996E-03    -252.780E-03    -260.562E-03    -253.650E-03     896.615E-03    -259.310E-03    -23.8168E-03     115.759E-03    -57.6859E-03    -58.0417E-03    -57.2413E-03     115.315E-03    -58.0417E-03     17.1982E-03    -21.9795E+06    -29.7319E+06    -130.747E+06    -41.1117E+06    -111.615E+06    -29.7319E+06    -41.3081E+06         33.0114
            1695     10.3831E-03     95.4134E-03     891.034E-03    -250.005E-03    -258.854E-03    -249.521E-03     890.291E-03    -258.596E-03    -53.1017E-03     115.857E-03    -57.8313E-03    -58.0007E-03    -57.1722E-03     115.154E-03    -57.9563E-03     21.9929E-03    -15.3540E+06    -35.0625E+06    -119.277E+06    -37.6206E+06    -97.0108E+06    -35.0625E+06    -42.4233E+06         34.6036
            1696     11.3259E-03     95.4377E-03     892.379E-03    -254.562E-03    -260.060E-03    -256.111E-03     891.954E-03    -258.086E-03    -24.6555E-03     115.959E-03    -57.8552E-03    -58.1293E-03    -57.0164E-03     114.846E-03    -57.8552E-03     27.4565E-03    -7.73886E+06    -44.9802E+06    -97.4613E+06    -32.1481E+06    -73.0521E+06    -44.9802E+06    -39.7643E+06         36.9436
            1697     12.2714E-03     95.4705E-03     889.790E-03    -251.981E-03    -263.695E-03    -257.622E-03     889.709E-03    -257.973E-03    -7.55749E-03     116.725E-03    -57.7347E-03    -59.0069E-03    -56.5990E-03     114.317E-03    -57.7347E-03     39.9767E-03     4.15759E+06    -46.2055E+06    -64.4108E+06    -26.5516E+06    -31.2928E+06    -48.6144E+06    -30.5193E+06         40.0502
            1698     13.2172E-03     95.5231E-03     887.341E-03    -248.138E-03    -265.085E-03    -254.951E-03     886.852E-03    -257.783E-03    -35.5110E-03     118.926E-03    -57.6456E-03    -61.3398E-03    -56.5099E-03     114.096E-03    -57.6456E-03     57.5877E-03     57.0053E+06    -32.8962E+06    -39.3358E+06    -24.5540E+06     48.6631E+06    -39.3358E+06    -15.6582E+06         43.8856
            1699     14.1601E-03     95.5940E-03     882.562E-03    -247.019E-03    -260.663E-03    -249.632E-03     881.690E-03    -257.177E-03    -4.11906E-03     127.103E-03    -57.6748E-03    -69.5372E-03    -56.0374E-03     113.603E-03    -57.6748E-03     95.9489E-03     124.786E+06    -1.49220E+06    -26.3898E+06    -22.0498E+06     124.476E+06    -5.52289E+06    -1.08355E+06         48.1986
            1700     15.1064E-03     95.7310E-03     877.606E-03    -250.042E-03    -257.330E-03    -250.574E-03     877.026E-03    -256.219E-03     13.8802E-03     146.613E-03    -57.8506E-03    -88.8359E-03    -55.8548E-03     113.632E-03    -57.8506E-03     161.407E-03     160.401E+06     68.5714E+06    -16.3922E+06    -16.2284E+06     160.237E+06     68.5714E+06     4.04400E+06         52.2789
            1701     16.0567E-03     95.9526E-03     871.694E-03    -250.306E-03    -256.234E-03    -250.777E-03     871.242E-03    -255.311E-03    -26.1859E-03     139.305E-03    -57.9911E-03    -81.3734E-03    -55.5143E-03     113.446E-03    -57.9911E-03     132.358E-03     177.914E+06     129.401E+06    -8.61473E+06    -8.51748E+06     177.816E+06     129.401E+06     2.53339E+06         55.4196
            1702     943.418E-06     96.4661E-03         2.34169    -456.544E-03        -1.51255    -49.2114E-03     878.357E-03    -456.544E-03        -1.55787     116.723E-03    -58.0741E-03    -58.6522E-03    -58.5734E-03     116.722E-03    -58.1521E-03     625.527E-06    -69.4937E+06    -71.0647E+06    -194.976E+06    -70.8226E+06    -194.424E+06    -70.2882E+06    -7.35777E+06         28.9884
            1703     1.88659E-03     96.4641E-03         1.32818    -255.163E-03    -704.302E-03    -263.897E-03     887.776E-03    -255.163E-03     469.181E-03     116.596E-03    -58.1670E-03    -58.4381E-03    -58.2361E-03     116.594E-03    -58.3669E-03     912.281E-06    -62.0986E+06    -65.2297E+06    -180.779E+06    -66.4044E+06    -179.258E+06    -62.4440E+06    -12.5609E+06         29.0765
            1704     2.83021E-03     96.4673E-03         1.06772    -258.871E-03    -444.326E-03    -268.061E-03     891.457E-03    -258.871E-03    -235.018E-03     116.313E-03    -57.9892E-03    -58.3389E-03    -57.9834E-03     116.307E-03    -58.3389E-03     1.91442E-03    -51.6875E+06    -58.6585E+06    -172.063E+06    -61.3830E+06    -169.339E+06    -51.6875E+06    -17.2172E+06         29.2246
            1705     3.77473E-03     96.4683E-03     964.391E-03    -261.191E-03    -341.213E-03    -267.507E-03     890.685E-03    -261.191E-03     122.491E-03     116.147E-03    -57.8860E-03    -58.2824E-03    -57.8747E-03     116.136E-03    -58.2824E-03     2.74680E-03    -42.0088E+06    -52.0775E+06    -167.312E+06    -56.7419E+06    -162.648E+06    -42.0088E+06    -22.4091E+06         29.4393
            1706     4.71832E-03     96.4707E-03     912.023E-03    -261.986E-03    -293.218E-03    -261.944E-03     880.749E-03    -261.986E-03    -103.467E-03     116.216E-03    -57.9878E-03    -58.2489E-03    -57.9621E-03     116.190E-03    -58.2489E-03     4.13590E-03    -36.3900E+06    -45.3607E+06    -157.032E+06    -53.4774E+06    -148.916E+06    -36.3900E+06    -28.6303E+06         29.7286
            1707     5.66173E-03     96.4752E-03     889.267E-03    -258.943E-03    -275.599E-03    -259.706E-03     876.253E-03    -261.820E-03     19.4427E-03     116.172E-03    -57.9769E-03    -58.2169E-03    -57.9262E-03     116.122E-03    -58.2169E-03     5.86084E-03    -33.5496E+06    -39.3373E+06    -148.645E+06    -51.2706E+06    -136.712E+06    -33.5496E+06    -33.9727E+06         30.1020
            1708     6.60527E-03     96.4811E-03     876.301E-03    -252.366E-03    -265.262E-03    -250.609E-03     870.199E-03    -260.917E-03    -81.4224E-03     115.967E-03    -57.8007E-03    -58.1895E-03    -57.7017E-03     115.868E-03    -58.1895E-03     8.14981E-03    -30.6437E+06    -33.9003E+06    -144.879E+06    -49.1083E+06    -129.535E+06    -30.7796E+06    -38.2387E+06         30.5777
            1709     7.54965E-03     96.4896E-03     876.497E-03    -250.125E-03    -261.636E-03    -251.058E-03     875.444E-03    -259.650E-03     2.95936E-03     115.717E-03    -57.5853E-03    -58.1434E-03    -57.4218E-03     115.554E-03    -58.1434E-03     10.5904E-03    -26.9435E+06    -29.8985E+06    -142.188E+06    -46.7700E+06    -123.898E+06    -28.3617E+06    -41.7110E+06         31.1855
            1710     8.49439E-03     96.5004E-03     874.338E-03    -248.127E-03    -260.928E-03    -249.747E-03     873.649E-03    -258.620E-03    -35.5274E-03     115.731E-03    -57.6509E-03    -58.0785E-03    -57.4031E-03     115.483E-03    -58.0785E-03     13.0238E-03    -22.4953E+06    -27.4124E+06    -136.758E+06    -43.2080E+06    -116.495E+06    -26.9630E+06    -43.4430E+06         31.9544
            1711     9.43823E-03     96.5149E-03     868.866E-03    -247.054E-03    -259.507E-03    -248.596E-03     868.552E-03    -257.652E-03    -23.4486E-03     115.913E-03    -57.8534E-03    -58.0392E-03    -57.4340E-03     115.481E-03    -58.0268E-03     17.0951E-03    -15.3164E+06    -26.7651E+06    -127.135E+06    -38.0816E+06    -104.370E+06    -26.7651E+06    -44.9066E+06         32.9987
            1712     10.3816E-03     96.5346E-03     874.408E-03    -253.130E-03    -259.699E-03    -255.450E-03     874.115E-03    -257.087E-03    -34.9781E-03     115.699E-03    -57.7507E-03    -57.9616E-03    -57.0595E-03     114.994E-03    -57.9482E-03     21.9440E-03    -7.62040E+06    -32.0205E+06    -116.928E+06    -34.0470E+06    -90.5010E+06    -32.0205E+06    -46.7073E+06         34.5822
            1713     11.3280E-03     96.5602E-03     878.883E-03    -257.198E-03    -262.672E-03    -262.498E-03     878.709E-03    -257.198E-03    -17.3199E-03     115.810E-03    -57.7019E-03    -58.1528E-03    -56.8824E-03     114.675E-03    -57.8371E-03     27.7773E-03    -3.12621E+06    -43.6468E+06    -103.539E+06    -31.7875E+06    -74.8780E+06    -43.6468E+06    -45.2633E+06         36.9127
            1714     12.2714E-03     96.5913E-03     863.254E-03    -246.320E-03    -260.555E-03    -249.589E-03     863.057E-03    -257.089E-03    -17.3398E-03     116.778E-03    -57.6995E-03    -59.0803E-03    -56.6915E-03     114.389E-03    -57.6995E-03     39.8435E-03     2.18332E+06    -51.9712E+06    -76.1134E+06    -29.9891E+06    -43.1642E+06    -52.7480E+06    -36.6208E+06         40.0156
            1715     13.2164E-03     96.6441E-03     848.211E-03    -235.918E-03    -255.993E-03    -235.309E-03     847.603E-03    -255.993E-03    -42.6712E-03     118.229E-03    -57.5909E-03    -60.6715E-03    -55.7392E-03     113.296E-03    -57.5909E-03     57.8114E-03     41.6019E+06    -39.6918E+06    -46.5296E+06    -27.0375E+06     27.8786E+06    -45.4606E+06    -20.2554E+06         43.8532
            1716     14.1633E-03     96.7168E-03     848.246E-03    -238.104E-03    -254.581E-03    -237.625E-03     847.767E-03    -254.581E-03    -34.0817E-03     126.385E-03    -57.5423E-03    -68.9296E-03    -55.5475E-03     113.003E-03    -57.5423E-03     95.6528E-03     111.170E+06    -10.9719E+06    -28.5274E+06    -22.8803E+06     110.515E+06    -15.9640E+06    -4.76949E+06         48.1696
            1717     15.1103E-03     96.8499E-03     843.834E-03    -238.967E-03    -253.372E-03    -238.802E-03     843.669E-03    -253.372E-03    -23.7401E-03     147.549E-03    -57.7048E-03    -89.9261E-03    -56.7894E-03     114.412E-03    -57.7048E-03     162.361E-03     160.732E+06     54.9419E+06    -17.5836E+06    -17.4230E+06     160.571E+06     54.9419E+06     1.87538E+06         52.2456
            1718     16.0520E-03     97.0768E-03     847.989E-03    -244.196E-03    -252.414E-03    -243.686E-03     847.480E-03    -252.414E-03    -41.3284E-03     139.309E-03    -57.9197E-03    -81.4296E-03    -55.2967E-03     113.176E-03    -57.9197E-03     132.987E-03     179.725E+06     124.737E+06    -9.81317E+06    -9.72405E+06     179.636E+06     124.737E+06     1.21025E+06         55.3810
            1719     943.855E-06     97.5880E-03         2.18621    -455.196E-03        -1.38097    -60.5790E-03     865.819E-03    -455.196E-03        -1.43080     116.444E-03    -58.0672E-03    -58.3818E-03    -58.2826E-03     116.443E-03    -58.1654E-03     645.240E-06    -53.7785E+06    -56.0717E+06    -178.816E+06    -56.2712E+06    -178.168E+06    -54.2275E+06    -8.02293E+06         28.9747
            1720     1.88704E-03     97.5889E-03         1.25861    -257.257E-03    -650.006E-03    -254.800E-03     863.402E-03    -257.257E-03     436.465E-03     116.512E-03    -58.1835E-03    -58.3377E-03    -58.2660E-03     116.509E-03    -58.2521E-03     1.31420E-03    -49.3660E+06    -53.2581E+06    -166.179E+06    -54.5210E+06    -164.215E+06    -50.0678E+06    -14.2354E+06         29.0635
            1721     2.83055E-03     97.5890E-03         1.02412    -258.044E-03    -416.853E-03    -266.456E-03     873.725E-03    -258.044E-03    -229.758E-03     116.185E-03    -57.9459E-03    -58.2564E-03    -57.9545E-03     116.180E-03    -58.2420E-03     1.95396E-03    -43.0085E+06    -48.4613E+06    -160.015E+06    -51.2549E+06    -156.519E+06    -43.7103E+06    -19.4001E+06         29.2121
            1722     3.77463E-03     97.5906E-03     940.105E-03    -261.240E-03    -333.911E-03    -275.560E-03     881.754E-03    -261.240E-03     103.944E-03     116.034E-03    -57.8443E-03    -58.2059E-03    -57.8313E-03     116.021E-03    -58.2059E-03     2.88943E-03    -34.2779E+06    -40.7548E+06    -154.973E+06    -46.4169E+06    -149.311E+06    -34.2779E+06    -24.3999E+06         29.4274
            1723     4.71828E-03     97.5937E-03     893.129E-03    -262.993E-03    -289.451E-03    -262.681E-03     866.358E-03    -262.993E-03    -74.0847E-03     116.116E-03    -57.9416E-03    -58.1897E-03    -57.9141E-03     116.089E-03    -58.1897E-03     4.30650E-03    -25.3182E+06    -31.8494E+06    -143.730E+06    -40.4150E+06    -135.164E+06    -25.3182E+06    -29.5150E+06         29.7178
            1724     5.66228E-03     97.5975E-03     863.961E-03    -259.161E-03    -266.638E-03    -251.103E-03     851.304E-03    -262.039E-03     37.4482E-03     115.934E-03    -57.7919E-03    -58.1620E-03    -57.7382E-03     115.880E-03    -58.1620E-03     6.01726E-03    -19.6161E+06    -24.7577E+06    -136.715E+06    -36.0471E+06    -125.426E+06    -19.6161E+06    -33.6281E+06         30.0923
            1725     6.60673E-03     97.6035E-03     860.016E-03    -257.204E-03    -263.408E-03    -254.803E-03     854.904E-03    -260.697E-03    -60.6339E-03     115.769E-03    -57.6574E-03    -58.1261E-03    -57.5569E-03     115.668E-03    -58.1261E-03     8.24854E-03    -16.4233E+06    -20.2055E+06    -132.748E+06    -34.0965E+06    -118.721E+06    -16.5592E+06    -37.0311E+06         30.5674
            1726     7.55077E-03     97.6115E-03     850.149E-03    -249.812E-03    -260.564E-03    -249.490E-03     848.899E-03    -259.634E-03     5.20381E-03     115.850E-03    -57.7572E-03    -58.1053E-03    -57.6053E-03     115.686E-03    -58.0932E-03     10.6037E-03    -14.1450E+06    -16.7088E+06    -130.349E+06    -33.5307E+06    -113.391E+06    -14.2809E+06    -40.2891E+06         31.1700
            1727     8.49433E-03     97.6228E-03     839.872E-03    -240.345E-03    -257.969E-03    -239.555E-03     839.082E-03    -257.969E-03    -37.8387E-03     115.783E-03    -57.7350E-03    -58.0533E-03    -57.4894E-03     115.525E-03    -58.0411E-03     13.2736E-03    -10.8849E+06    -17.0771E+06    -127.968E+06    -32.7952E+06    -106.814E+06    -16.3213E+06    -44.6996E+06         31.9317
            1728     9.43854E-03     97.6369E-03     848.995E-03    -248.216E-03    -259.449E-03    -250.368E-03     848.330E-03    -256.632E-03    -35.5843E-03     115.786E-03    -57.7781E-03    -58.0201E-03    -57.3383E-03     115.307E-03    -57.9804E-03     17.9421E-03    -5.26267E+06    -20.6468E+06    -122.228E+06    -30.9037E+06    -96.5871E+06    -20.6468E+06    -48.3135E+06         32.9698
            1729     10.3833E-03     97.6571E-03     852.440E-03    -253.811E-03    -260.950E-03    -257.601E-03     851.664E-03    -256.383E-03    -55.9858E-03     115.803E-03    -57.7860E-03    -58.0674E-03    -57.2081E-03     115.078E-03    -57.9211E-03     22.3338E-03    -1.71657E+06    -24.8518E+06    -112.883E+06    -29.3061E+06    -85.2930E+06    -24.8518E+06    -47.9806E+06         34.5430
            1730     11.3271E-03     97.6805E-03     842.290E-03    -245.562E-03    -259.621E-03    -248.727E-03     841.955E-03    -256.121E-03    -27.6017E-03     115.766E-03    -57.6916E-03    -58.1129E-03    -56.8148E-03     114.603E-03    -57.8267E-03     27.9739E-03    -1.99491E+06    -36.0989E+06    -103.253E+06    -30.6756E+06    -74.5722E+06    -36.0989E+06    -45.5191E+06         36.8634
            1731     12.2726E-03     97.7152E-03     832.314E-03    -238.485E-03    -256.913E-03    -240.000E-03     832.079E-03    -255.163E-03    -24.0677E-03     116.626E-03    -57.6621E-03    -58.9448E-03    -56.5121E-03     114.193E-03    -57.6621E-03     40.2942E-03     1.68724E+06    -51.9104E+06    -84.3618E+06    -30.6923E+06    -51.9824E+06    -51.9104E+06    -41.1039E+06         39.9630
            1732     13.2171E-03     97.7640E-03     828.496E-03    -238.323E-03    -253.891E-03    -238.069E-03     828.242E-03    -253.891E-03    -28.3903E-03     117.708E-03    -57.5081E-03    -60.2211E-03    -55.3532E-03     112.840E-03    -57.5081E-03     57.2923E-03     30.8761E+06    -43.5936E+06    -57.0761E+06    -25.7072E+06     7.42657E+06    -51.5130E+06    -28.1185E+06         43.8035
            1733     14.1649E-03     97.8354E-03     826.975E-03    -238.946E-03    -252.677E-03    -238.838E-03     826.867E-03    -252.677E-03    -19.8736E-03     126.395E-03    -57.3758E-03    -69.0820E-03    -55.5226E-03     112.835E-03    -57.3758E-03     96.1712E-03     96.1276E+06    -18.8681E+06    -36.1765E+06    -20.7949E+06     93.3148E+06    -31.4370E+06    -10.0571E+06         48.1226
            1734     15.1090E-03     97.9739E-03     819.979E-03    -230.799E-03    -251.221E-03    -230.697E-03     819.877E-03    -251.221E-03    -12.8899E-03     146.972E-03    -57.5065E-03    -89.5315E-03    -56.5641E-03     114.004E-03    -57.5065E-03     161.708E-03     158.750E+06     42.5344E+06    -20.2603E+06    -15.4516E+06     158.591E+06     37.8850E+06    -952.623E+03         52.1951
            1735     16.0597E-03     98.1957E-03     819.150E-03    -227.038E-03    -249.442E-03    -226.741E-03     818.854E-03    -249.442E-03     5.16060E-03     138.170E-03    -57.7806E-03    -80.4754E-03    -54.7196E-03     112.414E-03    -57.7806E-03     131.476E-03     181.229E+06     119.168E+06    -7.54132E+06    -7.38290E+06     181.071E+06     119.168E+06     23.5274E+03         55.3267
            1736     943.471E-06     98.7104E-03         2.02713    -407.244E-03        -1.30199    -101.114E-03     826.257E-03    -407.244E-03        -1.29482     116.303E-03    -57.7807E-03    -58.5270E-03    -58.3318E-03     116.302E-03    -57.9751E-03     544.681E-06    -33.4155E+06    -35.8677E+06    -162.544E+06    -35.0915E+06    -162.046E+06    -34.6904E+06    -6.72141E+06         28.9513
            1737     1.88773E-03     98.7116E-03         1.21984    -260.710E-03    -634.901E-03    -286.660E-03     871.597E-03    -260.710E-03     408.957E-03     116.003E-03    -57.8980E-03    -58.1158E-03    -57.9101E-03     116.001E-03    -58.1014E-03     1.15206E-03    -31.1710E+06    -34.7125E+06    -149.546E+06    -34.8233E+06    -147.736E+06    -32.8709E+06    -13.7872E+06         29.0381
            1738     2.83143E-03     98.7116E-03     990.233E-03    -266.934E-03    -393.588E-03    -265.311E-03     861.956E-03    -266.934E-03    -236.113E-03     116.084E-03    -57.9521E-03    -58.1494E-03    -58.0197E-03     116.077E-03    -58.0751E-03     2.05317E-03    -26.9424E+06    -30.1291E+06    -146.555E+06    -33.1778E+06    -142.804E+06    -27.6442E+06    -20.3704E+06         29.1878
            1739     3.77485E-03     98.7130E-03     896.532E-03    -264.643E-03    -301.214E-03    -250.003E-03     845.502E-03    -264.823E-03     62.9532E-03     116.018E-03    -57.8892E-03    -58.1437E-03    -57.9316E-03     116.001E-03    -58.0839E-03     3.40241E-03    -21.6868E+06    -24.4463E+06    -140.873E+06    -31.0699E+06    -134.249E+06    -21.6868E+06    -26.5902E+06         29.4030
            1740     4.71913E-03     98.7161E-03     865.305E-03    -261.609E-03    -275.362E-03    -249.921E-03     840.044E-03    -261.790E-03    -99.3537E-03     115.725E-03    -57.6728E-03    -58.0667E-03    -57.6396E-03     115.691E-03    -58.0667E-03     4.74630E-03    -14.1216E+06    -18.2178E+06    -132.238E+06    -27.7838E+06    -122.672E+06    -14.1216E+06    -31.5313E+06         29.6908
            1741     5.66315E-03     98.7200E-03     857.420E-03    -260.701E-03    -271.242E-03    -261.848E-03     848.026E-03    -260.701E-03     17.8868E-03     115.609E-03    -57.5971E-03    -58.0354E-03    -57.5381E-03     115.550E-03    -58.0354E-03     6.30962E-03    -7.13940E+06    -12.3329E+06    -126.749E+06    -23.9127E+06    -115.169E+06    -7.13940E+06    -34.4408E+06         30.0640
            1742     6.60713E-03     98.7254E-03     842.752E-03    -254.907E-03    -266.778E-03    -257.202E-03     838.830E-03    -260.561E-03    -77.1074E-03     115.637E-03    -57.6537E-03    -57.9979E-03    -57.5445E-03     115.528E-03    -57.9979E-03     8.56612E-03    -3.96932E+06    -8.08814E+06    -122.168E+06    -20.9353E+06    -109.202E+06    -4.08820E+06    -36.2194E+06         30.5381
            1743     7.55126E-03     98.7340E-03     826.998E-03    -248.511E-03    -259.574E-03    -247.526E-03     826.013E-03    -259.574E-03    -23.1137E-03     115.638E-03    -57.6733E-03    -57.9769E-03    -57.4952E-03     115.447E-03    -57.9647E-03     11.3528E-03    -1.69216E+06    -4.28243E+06    -118.706E+06    -18.6486E+06    -103.728E+06    -2.30389E+06    -38.6363E+06         31.1360
            1744     8.49536E-03     98.7454E-03     830.276E-03    -251.220E-03    -259.041E-03    -250.676E-03     829.095E-03    -258.404E-03    -48.0488E-03     115.469E-03    -57.5626E-03    -57.9245E-03    -57.2830E-03     115.177E-03    -57.9123E-03     14.1196E-03     943.299E+03    -3.68949E+06    -114.160E+06    -18.3993E+06    -95.1237E+06    -3.38303E+06    -42.5477E+06         31.8890
            1745     9.44048E-03     98.7578E-03     829.909E-03    -247.020E-03    -260.414E-03    -248.960E-03     828.999E-03    -257.564E-03    -44.2836E-03     115.565E-03    -57.6440E-03    -57.9409E-03    -57.1999E-03     115.022E-03    -57.8428E-03     19.0188E-03     2.21804E+06    -9.79867E+06    -111.430E+06    -21.2077E+06    -88.0046E+06    -9.79867E+06    -45.8445E+06         32.9166
            1746     10.3842E-03     98.7806E-03     818.249E-03    -237.104E-03    -258.539E-03    -238.494E-03     817.426E-03    -256.326E-03    -54.5101E-03     115.881E-03    -57.7885E-03    -58.1134E-03    -57.3195E-03     115.087E-03    -57.7885E-03     23.4152E-03     1.01661E+06    -17.9773E+06    -108.543E+06    -24.5861E+06    -82.9398E+06    -17.9773E+06    -46.2995E+06         34.4779
            1747     11.3284E-03     98.8023E-03     803.894E-03    -227.973E-03    -254.360E-03    -227.685E-03     803.606E-03    -254.360E-03    -24.7042E-03     115.711E-03    -57.7106E-03    -58.0000E-03    -56.7568E-03     114.468E-03    -57.7106E-03     28.8735E-03     2.73591E+06    -27.7639E+06    -99.3622E+06    -24.7030E+06    -71.9233E+06    -27.7639E+06    -45.1551E+06         36.7895
            1748     12.2735E-03     98.8357E-03     803.500E-03    -232.037E-03    -252.371E-03    -231.937E-03     803.400E-03    -252.371E-03    -14.7003E-03     116.285E-03    -57.5478E-03    -58.7445E-03    -56.0995E-03     113.640E-03    -57.5478E-03     41.8911E-03     7.88253E+06    -43.7008E+06    -84.8482E+06    -24.0595E+06    -52.9062E+06    -43.7008E+06    -43.7575E+06         39.8874
            1749     13.2196E-03     98.8855E-03     806.341E-03    -240.259E-03    -251.053E-03    -239.966E-03     806.047E-03    -251.053E-03    -28.6255E-03     118.012E-03    -57.3741E-03    -60.7058E-03    -55.8569E-03     113.163E-03    -57.3741E-03     57.6097E-03     21.6105E+06    -44.7947E+06    -67.2697E+06    -23.3126E+06    -11.9131E+06    -55.2281E+06    -34.9624E+06         43.7312
            1750     14.1649E-03     98.9537E-03     793.432E-03    -227.613E-03    -249.639E-03    -227.174E-03     792.993E-03    -249.639E-03    -10.9591E-03     127.319E-03    -57.2133E-03    -70.1628E-03    -55.9977E-03     113.154E-03    -57.2133E-03     97.8976E-03     80.4199E+06    -26.5105E+06    -48.1273E+06    -18.9263E+06     72.8358E+06    -48.1273E+06    -17.5772E+06         48.0522
            1751     15.1117E-03     99.0985E-03     785.675E-03    -219.117E-03    -247.415E-03    -218.860E-03     785.418E-03    -247.415E-03     13.9375E-03     146.454E-03    -57.3153E-03    -89.1701E-03    -56.0273E-03     113.311E-03    -57.3153E-03     162.200E-03     154.366E+06     31.9044E+06    -24.9288E+06    -13.1456E+06     153.766E+06      20.721E+06    -5.23242E+06         52.1227
            1752     16.0562E-03     99.3100E-03     775.397E-03    -212.607E-03    -244.837E-03    -212.384E-03     775.174E-03    -244.837E-03     22.3576E-03     136.793E-03    -57.5889E-03    -79.2909E-03    -53.9015E-03     111.404E-03    -57.5889E-03     130.557E-03     180.492E+06     110.572E+06    -7.49099E+06    -7.40281E+06     180.404E+06     110.572E+06    -390.451E+03         55.2529
            1753     943.609E-06     99.8337E-03         1.86427    -407.194E-03        -1.15894    -132.531E-03     837.857E-03    -407.194E-03        -1.15857     115.778E-03    -57.4811E-03    -58.3003E-03    -58.1194E-03     115.777E-03    -57.6610E-03     709.858E-06    -21.7397E+06    -23.5853E+06    -146.527E+06    -22.3976E+06    -145.869E+06    -23.5853E+06    -7.95146E+06         28.9113
            1754     1.88757E-03     99.8325E-03         1.14620    -271.337E-03    -568.901E-03    -276.954E-03     854.252E-03    -271.337E-03     369.595E-03     115.612E-03    -57.6727E-03    -57.9484E-03    -57.7570E-03     115.609E-03    -57.8610E-03     1.31486E-03    -18.4101E+06    -20.5896E+06    -132.978E+06    -21.2405E+06    -131.103E+06    -19.6336E+06    -14.0355E+06         28.9974
            1755     2.83225E-03     99.8344E-03     947.809E-03    -270.615E-03    -368.011E-03    -257.883E-03     837.681E-03    -270.615E-03    -189.175E-03     115.578E-03    -57.6738E-03    -57.9204E-03    -57.7250E-03     115.570E-03    -57.8606E-03     2.36936E-03    -12.4248E+06    -14.7618E+06    -130.631E+06    -18.8584E+06    -126.419E+06    -12.5404E+06    -21.2243E+06         29.1424
            1756     3.77606E-03     99.8357E-03     877.256E-03    -266.176E-03    -295.932E-03    -249.309E-03     830.813E-03    -266.356E-03     68.4047E-03     115.487E-03    -57.5988E-03    -57.9050E-03    -57.6382E-03     115.466E-03    -57.8452E-03     3.67914E-03    -6.76998E+06    -8.57175E+06    -126.334E+06    -15.3631E+06    -119.543E+06    -6.76998E+06    -27.2944E+06         29.3511
            1757     4.71993E-03     99.8382E-03     844.372E-03    -259.644E-03    -270.185E-03    -245.211E-03     822.250E-03    -262.496E-03    -89.2704E-03     115.193E-03    -57.4047E-03    -57.8072E-03    -57.3594E-03     115.147E-03    -57.8072E-03     5.45109E-03    -1.24999E+06    -3.72521E+06    -119.702E+06    -13.1896E+06    -110.238E+06    -1.24999E+06    -31.5767E+06         29.6330
            1758     5.66470E-03     99.8419E-03     829.828E-03    -255.843E-03    -266.897E-03    -254.710E-03     822.096E-03    -260.298E-03     29.7898E-03     115.131E-03    -57.3810E-03    -57.7746E-03    -57.2976E-03     115.048E-03    -57.7746E-03     7.47632E-03     4.33436E+06     557.764E+03    -116.977E+06    -11.0829E+06    -105.336E+06     4.33436E+06    -35.0803E+06         30.0016
            1759     6.60903E-03     99.8477E-03     829.419E-03    -253.216E-03    -272.501E-03    -263.030E-03     826.769E-03    -260.038E-03    -68.3841E-03     115.198E-03    -57.4756E-03    -57.7353E-03    -57.3263E-03     115.049E-03    -57.7353E-03     10.0034E-03     7.20071E+06     4.39330E+06    -114.186E+06    -8.08221E+06    -101.592E+06     7.08183E+06    -36.4983E+06         30.4706
            1760     7.55325E-03     99.8564E-03     826.931E-03    -254.636E-03    -268.373E-03    -261.847E-03     826.115E-03    -260.346E-03    -32.2293E-03     115.035E-03    -57.3437E-03    -57.6999E-03    -57.1063E-03     114.797E-03    -57.6999E-03     12.7129E-03     9.79772E+06     7.06678E+06    -108.615E+06    -6.45747E+06    -94.4793E+06     9.18599E+06    -37.8889E+06         31.0623
            1761     8.49865E-03     99.8664E-03     810.774E-03    -247.640E-03    -260.385E-03    -247.135E-03     809.632E-03    -259.748E-03    -49.4875E-03     115.040E-03    -57.3913E-03    -57.6669E-03    -57.0454E-03     114.684E-03    -57.6573E-03     15.5268E-03     11.4638E+06     8.73494E+06    -102.587E+06    -6.10336E+06    -86.2886E+06     10.0034E+06    -39.5008E+06         31.8097
            1762     9.44218E-03     99.8807E-03     791.893E-03    -230.163E-03    -258.301E-03    -230.235E-03     791.328E-03    -257.664E-03    -31.0805E-03     115.308E-03    -57.5674E-03    -57.7464E-03    -57.0832E-03     114.672E-03    -57.5942E-03     20.6285E-03     10.9545E+06     4.69539E+06    -98.9001E+06    -7.28441E+06    -80.6612E+06     4.69539E+06    -40.7060E+06         32.8284
            1763     10.3874E-03     99.9013E-03     785.751E-03    -225.556E-03    -254.881E-03    -224.602E-03     784.797E-03    -254.881E-03    -49.0831E-03     115.368E-03    -57.5278E-03    -57.8441E-03    -56.8926E-03     114.417E-03    -57.5278E-03     25.5311E-03     10.4673E+06    -5.14468E+06    -98.5171E+06    -10.0202E+06    -78.0296E+06    -5.14468E+06    -42.2936E+06         34.3786
            1764     11.3319E-03     99.9249E-03     782.502E-03    -227.475E-03    -252.388E-03    -226.442E-03     781.470E-03    -252.388E-03    -50.8163E-03     115.546E-03    -57.4421E-03    -58.1080E-03    -56.7432E-03     114.182E-03    -57.4421E-03     30.4522E-03     11.8042E+06    -17.2707E+06    -91.8006E+06    -13.0360E+06    -66.9604E+06    -17.2707E+06    -43.7858E+06         36.6846
            1765     12.2776E-03     99.9544E-03     775.573E-03    -227.148E-03    -250.363E-03    -226.744E-03     775.170E-03    -250.363E-03    -30.7857E-03     116.518E-03    -57.3242E-03    -59.2317E-03    -56.4448E-03     113.731E-03    -57.3242E-03     42.9907E-03     12.8955E+06    -32.2355E+06    -80.3184E+06    -16.2774E+06    -51.1455E+06    -32.2355E+06    -43.0547E+06         39.7828
            1766     13.2227E-03     100.008E-03     768.397E-03    -221.108E-03    -248.366E-03    -220.466E-03     767.755E-03    -248.366E-03    -42.5691E-03     118.347E-03    -57.1704E-03    -61.2470E-03    -56.1432E-03     113.243E-03    -57.1704E-03     59.2676E-03     17.6573E+06    -44.3042E+06    -69.1389E+06    -19.3255E+06    -24.7992E+06    -51.6611E+06    -37.8860E+06         43.6298
            1767     14.1670E-03     100.075E-03     759.499E-03    -211.091E-03    -245.931E-03    -210.332E-03     758.740E-03    -245.931E-03    -23.0846E-03     127.640E-03    -56.9667E-03    -70.7074E-03    -56.1110E-03     113.043E-03    -56.9667E-03     99.5341E-03     68.4413E+06    -33.6766E+06    -62.8288E+06    -18.6663E+06     53.4310E+06    -62.8288E+06    -25.7308E+06         47.9549
            1768     15.1143E-03     100.217E-03     748.240E-03    -205.487E-03    -243.058E-03    -205.174E-03     747.927E-03    -243.058E-03     4.01636E-03     146.592E-03    -57.0040E-03    -89.6065E-03    -55.5565E-03     112.542E-03    -57.0040E-03     164.254E-03     142.902E+06     16.0628E+06    -37.7705E+06    -14.7322E+06     141.658E+06    -5.73243E+06    -9.89123E+06         52.0279
            1769     16.0632E-03     100.434E-03     734.785E-03    -201.080E-03    -240.147E-03    -200.922E-03     734.627E-03    -240.147E-03    -10.7918E-03     136.191E-03    -57.2657E-03    -79.0132E-03    -53.0275E-03     110.206E-03    -57.2657E-03     131.461E-03     176.864E+06     95.2615E+06    -8.48474E+06    -8.40128E+06     176.781E+06     95.2615E+06    -899.756E+03         55.1615
            1770     945.147E-06     100.955E-03         1.70291    -415.901E-03    -996.331E-03    -147.398E-03     853.977E-03    -415.901E-03        -1.00724     114.691E-03    -57.2345E-03    -57.4582E-03    -57.3573E-03     114.689E-03    -57.3330E-03     1.27125E-03    -6.22834E+06    -8.01015E+06    -128.606E+06    -7.96194E+06    -127.748E+06    -7.13464E+06    -9.67254E+06         28.8374
            1771     1.88894E-03     100.955E-03         1.05153    -273.212E-03    -486.782E-03    -239.566E-03     804.311E-03    -273.212E-03     346.520E-03     114.988E-03    -57.3942E-03    -57.6004E-03    -57.5899E-03     114.982E-03    -57.3986E-03     1.93850E-03    -3.17531E+06    -3.78184E+06    -116.744E+06    -5.62606E+06    -114.339E+06    -3.73614E+06    -15.8264E+06         28.9214
            1772     2.83251E-03     100.956E-03     900.459E-03    -263.361E-03    -342.088E-03    -254.785E-03     813.155E-03    -263.361E-03    -145.268E-03     114.751E-03    -57.2212E-03    -57.5416E-03    -57.2825E-03     114.736E-03    -57.4651E-03     3.11941E-03     4.54725E+06     2.60721E+06    -112.790E+06    -2.09791E+06    -107.970E+06     4.43165E+06    -22.8910E+06         29.0571
            1773     3.77761E-03     100.957E-03     869.331E-03    -262.740E-03    -309.719E-03    -269.267E-03     828.879E-03    -262.740E-03     45.0884E-03     114.342E-03    -56.9362E-03    -57.4207E-03    -56.9034E-03     114.309E-03    -57.4207E-03     4.59593E-03     11.5491E+06     8.64317E+06    -113.407E+06     1.75053E+06    -106.514E+06     11.5491E+06    -28.1243E+06         29.2540
            1774     4.72278E-03     100.959E-03     822.479E-03    -255.533E-03    -276.539E-03    -249.364E-03     802.033E-03    -262.263E-03    -104.546E-03     114.240E-03    -56.9328E-03    -57.3226E-03    -56.8620E-03     114.169E-03    -57.3226E-03     6.78755E-03     15.4832E+06     11.8839E+06    -107.068E+06     4.55270E+06    -98.0640E+06     13.8106E+06    -31.5412E+06         29.5257
            1775     5.66733E-03     100.964E-03     795.456E-03    -249.713E-03    -259.668E-03    -244.028E-03     789.771E-03    -259.668E-03     27.8078E-03     114.222E-03    -56.9564E-03    -57.2834E-03    -56.8295E-03     114.095E-03    -57.2834E-03     9.20028E-03     19.8751E+06     14.8648E+06    -106.154E+06     6.06753E+06    -95.6841E+06     18.2024E+06    -34.2129E+06         29.8848
            1776     6.61221E-03     100.969E-03     805.996E-03    -253.078E-03    -266.462E-03    -259.483E-03     804.374E-03    -258.435E-03    -54.1662E-03     114.106E-03    -56.8797E-03    -57.2349E-03    -56.6630E-03     113.889E-03    -57.2349E-03     11.9751E-03     20.9104E+06     16.2173E+06    -106.260E+06     6.17812E+06    -94.9166E+06     19.6062E+06    -35.5944E+06         30.3439
            1777     7.55741E-03     100.977E-03     801.710E-03    -249.907E-03    -266.469E-03    -257.778E-03     801.555E-03    -258.442E-03    -13.7682E-03     114.145E-03    -56.9104E-03    -57.2362E-03    -56.6309E-03     113.801E-03    -57.1719E-03     15.1223E-03     20.8656E+06     15.9360E+06     -99.307E+06     6.10754E+06    -86.6681E+06     18.0552E+06    -36.4764E+06         30.9254
            1778     8.50168E-03     100.988E-03     782.660E-03    -239.559E-03    -258.449E-03    -240.331E-03     782.382E-03    -257.400E-03    -21.6966E-03     114.332E-03    -57.0422E-03    -57.2934E-03    -56.6912E-03     113.818E-03    -57.1305E-03     18.5142E-03     21.1770E+06     16.1136E+06    -93.8657E+06     6.02157E+06    -79.9787E+06     17.3820E+06    -37.1908E+06         31.6645
            1779     9.44754E-03     101.002E-03     776.393E-03    -236.057E-03    -256.508E-03    -236.615E-03     775.902E-03    -255.458E-03    -27.1694E-03     114.527E-03    -57.0739E-03    -57.4502E-03    -56.6127E-03     113.689E-03    -57.0739E-03     23.6398E-03     20.1652E+06     12.3221E+06    -90.1073E+06     5.39502E+06    -75.3371E+06     12.3221E+06    -37.5160E+06         32.6795
            1780     10.3921E-03     101.022E-03     770.853E-03    -233.205E-03    -253.496E-03    -231.599E-03     769.248E-03    -253.496E-03    -72.3425E-03     114.725E-03    -57.0159E-03    -57.7199E-03    -56.5350E-03     113.540E-03    -57.0159E-03     28.3912E-03     20.1900E+06     3.91171E+06    -87.5944E+06     3.89983E+06    -71.3042E+06     3.91171E+06    -38.4851E+06         34.2324
            1781     11.3381E-03     101.046E-03     759.042E-03    -224.582E-03    -251.304E-03    -223.020E-03     757.480E-03    -251.304E-03    -62.7177E-03     115.531E-03    -56.9578E-03    -58.6070E-03    -56.9339E-03     113.858E-03    -56.9578E-03     33.6930E-03     19.3144E+06    -9.10587E+06    -81.3142E+06    -450.993E+03    -61.5488E+06    -9.10587E+06    -39.6207E+06         36.5453
            1782     12.2809E-03     101.077E-03     742.632E-03    -211.396E-03    -248.614E-03    -210.942E-03     742.177E-03    -248.614E-03    -28.9950E-03     116.924E-03    -56.9266E-03    -60.0608E-03    -56.9633E-03     113.827E-03    -56.9266E-03     45.6227E-03     17.6472E+06    -21.5387E+06    -72.4762E+06    -5.30977E+06    -49.5193E+06    -21.5387E+06    -38.9229E+06         39.6484
            1783     13.2263E-03     101.127E-03     730.390E-03    -201.239E-03    -245.426E-03    -200.740E-03     729.891E-03    -245.426E-03    -35.5597E-03     118.773E-03    -56.8212E-03    -62.0075E-03    -56.3410E-03     113.107E-03    -56.8212E-03     62.4212E-03     21.0846E+06    -36.1312E+06    -62.1148E+06    -9.08937E+06    -26.6326E+06    -41.4395E+06    -36.8087E+06         43.4971
            1784     14.1736E-03     101.197E-03     727.529E-03    -203.686E-03    -242.269E-03    -203.290E-03     727.132E-03    -242.269E-03    -28.0497E-03     127.627E-03    -56.5876E-03    -71.0566E-03    -56.0381E-03     112.608E-03    -56.5876E-03     101.650E-03     57.6922E+06    -33.1010E+06    -67.6689E+06    -13.0203E+06     37.6116E+06    -67.6689E+06    -28.6950E+06         47.8263
            1785     15.1186E-03     101.336E-03     713.993E-03    -197.495E-03    -239.184E-03    -197.352E-03     713.850E-03    -239.184E-03    -12.7611E-03     146.260E-03    -56.5298E-03    -89.7615E-03    -54.7288E-03     111.227E-03    -56.5298E-03     165.852E-03     125.225E+06     174.451E+03    -45.1077E+06    -13.2513E+06     122.628E+06    -29.0852E+06    -13.4552E+06         51.9099
            1786     16.0688E-03     101.549E-03     695.232E-03    -187.909E-03    -235.885E-03    -187.725E-03     695.048E-03    -235.885E-03    -15.8498E-03     135.909E-03    -56.7677E-03    -79.2557E-03    -52.4027E-03     109.056E-03    -56.7677E-03     132.572E-03     171.248E+06     77.7629E+06    -8.05429E+06    -7.94016E+06     171.134E+06     77.7629E+06    -3.17731E+06         55.0567
            1787     944.637E-06     102.075E-03         1.48943    -345.155E-03    -871.014E-03    -178.659E-03     797.076E-03    -345.155E-03    -889.170E-03     113.349E-03    -56.4371E-03    -56.9129E-03    -56.8156E-03     113.344E-03    -56.5294E-03     1.61602E-03     17.4592E+06     13.4219E+06    -108.570E+06     14.9826E+06    -107.682E+06     15.0105E+06    -9.81468E+06         28.7012
            1788     1.89018E-03     102.076E-03     981.696E-03    -262.610E-03    -446.480E-03    -265.450E-03     800.667E-03    -262.610E-03     260.297E-03     113.194E-03    -56.4399E-03    -56.7589E-03    -56.5407E-03     113.180E-03    -56.6445E-03     2.86631E-03     18.3303E+06     15.8459E+06    -99.1478E+06     14.9042E+06    -96.4805E+06     16.6047E+06    -16.8234E+06         28.7735
            1789     2.83535E-03     102.076E-03     855.489E-03    -261.498E-03    -320.288E-03    -250.564E-03     785.764E-03    -261.498E-03    -129.834E-03     112.940E-03    -56.2821E-03    -56.6671E-03    -56.3280E-03     112.909E-03    -56.5905E-03     4.40599E-03     21.1020E+06     17.8924E+06    -96.0860E+06     15.3812E+06    -91.1406E+06     18.6678E+06    -23.3693E+06         28.8981
            1790     3.78074E-03     102.076E-03     833.375E-03    -260.512E-03    -300.624E-03    -267.192E-03     799.943E-03    -260.512E-03     30.6382E-03     112.652E-03    -56.1313E-03    -56.5303E-03    -56.0634E-03     112.585E-03    -56.5303E-03     6.52392E-03     25.6739E+06     21.3655E+06    -99.8285E+06     16.7366E+06    -92.4646E+06     22.9389E+06    -29.1452E+06         29.0831
            1791     4.72640E-03     102.079E-03     823.239E-03    -258.286E-03    -291.504E-03    -272.270E-03     808.063E-03    -262.344E-03    -127.720E-03     112.465E-03    -56.0443E-03    -56.4268E-03    -55.9113E-03     112.332E-03    -56.4268E-03     9.18797E-03     28.2668E+06     22.5192E+06    -96.7893E+06     18.5037E+06    -87.8699E+06     23.3630E+06    -31.9672E+06         29.3395
            1792     5.67212E-03     102.083E-03     792.385E-03    -247.396E-03    -271.161E-03    -252.522E-03     788.871E-03    -262.521E-03    -23.8401E-03     112.346E-03    -56.0014E-03    -56.3537E-03    -55.7748E-03     112.119E-03    -56.3537E-03     12.0765E-03     30.1587E+06     22.8141E+06    -96.3827E+06     18.9023E+06    -87.0308E+06     24.7186E+06    -32.7677E+06         29.6827
            1793     6.61810E-03     102.088E-03     761.020E-03    -231.326E-03    -259.510E-03    -228.761E-03     758.455E-03    -259.510E-03    -78.6996E-03     112.287E-03    -55.9945E-03    -56.3008E-03    -55.6422E-03     111.917E-03    -56.2827E-03     15.4684E-03     31.7479E+06     24.1765E+06    -97.4001E+06     19.6421E+06    -87.1988E+06     26.0809E+06    -34.4160E+06         30.1283
            1794     7.56420E-03     102.096E-03     761.396E-03    -233.111E-03    -259.011E-03    -235.137E-03     760.424E-03    -256.014E-03    -46.2247E-03     112.510E-03    -56.1000E-03    -56.4091E-03    -55.7352E-03     111.936E-03    -56.2006E-03     19.3785E-03     31.4805E+06     23.0854E+06    -92.0458E+06     20.2705E+06    -80.8358E+06     23.0854E+06    -35.3343E+06         30.6974
            1795     8.51043E-03     102.107E-03     775.272E-03    -248.537E-03    -258.567E-03    -251.148E-03     773.836E-03    -254.520E-03    -69.1581E-03     112.864E-03    -56.1628E-03    -56.6967E-03    -55.8891E-03     112.057E-03    -56.1628E-03     23.1313E-03     31.9706E+06     22.8341E+06    -86.8910E+06     19.9699E+06    -74.8903E+06     22.8341E+06    -35.6442E+06         31.4282
            1796     9.45538E-03     102.121E-03     761.621E-03    -239.926E-03    -254.688E-03    -239.922E-03     760.568E-03    -253.639E-03    -62.7154E-03     113.448E-03    -56.1417E-03    -57.3084E-03    -56.0703E-03     112.210E-03    -56.1417E-03     28.5808E-03     31.1762E+06     19.8205E+06    -83.4936E+06      19.092E+06    -71.4094E+06     19.8205E+06    -35.0265E+06         32.4552
            1797     10.4016E-03     102.142E-03     736.490E-03    -221.152E-03    -251.479E-03    -220.002E-03     735.340E-03    -251.479E-03    -63.6955E-03     114.286E-03    -56.1313E-03    -58.1655E-03    -56.5067E-03     112.627E-03    -56.1313E-03     33.4748E-03     29.2983E+06     10.5286E+06    -78.4994E+06     16.1930E+06    -65.3941E+06     10.5286E+06    -34.8707E+06         34.0408
            1798     11.3457E-03     102.166E-03     721.023E-03    -210.265E-03    -248.335E-03    -209.600E-03     720.358E-03    -248.335E-03    -31.7041E-03     115.299E-03    -56.1344E-03    -59.1862E-03    -56.9046E-03     113.017E-03    -56.1344E-03     39.2657E-03     26.1285E+06    -2.27060E+06    -72.5604E+06     11.7052E+06    -58.1372E+06    -2.27060E+06    -34.5636E+06         36.3805
            1799     12.2916E-03     102.200E-03     709.641E-03    -200.444E-03    -244.849E-03    -200.149E-03     709.346E-03    -244.849E-03    -19.6334E-03     117.077E-03    -56.1744E-03    -60.9624E-03    -57.2116E-03     113.326E-03    -56.1744E-03     50.6670E-03     22.4750E+06    -15.4468E+06    -63.6166E+06     5.73544E+06    -46.8770E+06    -15.4468E+06    -33.6453E+06         39.4940
            1800     13.2362E-03     102.247E-03     700.604E-03    -198.503E-03    -241.379E-03    -198.201E-03     700.302E-03    -241.379E-03    -27.2393E-03     119.439E-03    -56.1632E-03    -63.3293E-03    -56.8333E-03     112.943E-03    -56.1632E-03     67.0031E-03     24.2305E+06    -29.7825E+06    -52.2546E+06     428.601E+03    -24.3664E+06    -33.8688E+06    -33.1491E+06         43.3415
            1801     14.1791E-03     102.319E-03     690.036E-03    -196.233E-03    -238.091E-03    -196.118E-03     689.921E-03    -238.091E-03    -17.9093E-03     128.314E-03    -55.9961E-03    -72.3403E-03    -56.2534E-03     112.227E-03    -55.9961E-03     106.008E-03     47.9776E+06    -26.4338E+06    -61.9926E+06    -4.76197E+06     26.1141E+06    -61.8008E+06    -27.1205E+06         47.6720
            1802     15.1289E-03     102.452E-03     674.422E-03    -186.428E-03    -234.517E-03    -186.329E-03     674.323E-03    -234.517E-03    -7.44439E-03     146.217E-03    -55.8955E-03    -90.3864E-03    -54.9101E-03     110.740E-03    -55.8955E-03     167.174E-03     109.740E+06    -6.99730E+06    -43.9095E+06    -8.21162E+06     106.341E+06    -39.2960E+06    -15.2229E+06         51.7752
            1803     16.0797E-03     102.667E-03     660.290E-03    -177.251E-03    -230.624E-03    -177.207E-03     660.247E-03    -230.624E-03    -1.48520E-03     135.354E-03    -56.1194E-03    -79.3357E-03    -52.2009E-03     108.219E-03    -56.1194E-03     133.885E-03     163.948E+06     63.6777E+06    -7.58959E+06    -6.19075E+06     163.567E+06     62.6597E+06    -5.06146E+06         54.9467
            1804     946.260E-06     103.194E-03         1.26775    -295.815E-03    -713.189E-03    -206.053E-03     760.615E-03    -295.815E-03    -702.948E-03     110.683E-03    -54.9423E-03    -55.7423E-03    -55.5649E-03     110.673E-03    -55.1099E-03     2.28549E-03     32.8842E+06     25.6215E+06    -87.9495E+06     28.3053E+06    -87.1113E+06     29.3622E+06    -8.92638E+06         28.4622
            1805     1.89242E-03     103.195E-03     925.976E-03    -258.542E-03    -409.997E-03    -288.887E-03     804.865E-03    -258.542E-03     183.075E-03     109.968E-03    -54.7684E-03    -55.2034E-03    -54.7380E-03     109.938E-03    -55.2034E-03     4.25234E-03     31.4680E+06     27.0207E+06    -80.6444E+06     28.1214E+06    -78.0108E+06     27.7338E+06    -16.3489E+06         28.5200
            1806     2.83981E-03     103.194E-03     820.581E-03    -264.080E-03    -303.233E-03    -251.791E-03     769.139E-03    -264.080E-03    -116.163E-03     109.684E-03    -54.6777E-03    -55.0139E-03    -54.6074E-03     109.613E-03    -55.0139E-03     6.50736E-03     33.3480E+06     26.7366E+06    -79.4261E+06     27.9858E+06    -74.0640E+06     26.7366E+06    -23.7893E+06         28.6315
            1807     3.78650E-03     103.195E-03     796.303E-03    -261.413E-03    -279.470E-03    -256.455E-03     773.288E-03    -261.413E-03     35.9463E-03     109.716E-03    -54.7853E-03    -54.9387E-03    -54.6399E-03     109.570E-03    -54.9387E-03     9.43957E-03     36.9145E+06     29.1547E+06    -85.3056E+06     28.9855E+06    -77.3767E+06     29.1547E+06    -30.0263E+06         28.8039
            1808     4.73330E-03     103.196E-03     804.146E-03    -262.209E-03    -285.275E-03    -276.398E-03     795.269E-03    -262.209E-03    -100.359E-03     109.465E-03    -54.5955E-03    -54.8740E-03    -54.3282E-03     109.197E-03    -54.8740E-03     12.9049E-03     39.3283E+06     31.5243E+06    -88.8190E+06     30.4330E+06    -79.9237E+06     31.5243E+06    -32.5396E+06         29.0422
            1809     5.68098E-03     103.200E-03     774.078E-03    -247.050E-03    -271.914E-03    -253.465E-03     771.413E-03    -262.834E-03    -29.1511E-03     109.269E-03    -54.4958E-03    -54.7764E-03    -54.0672E-03     108.834E-03    -54.7698E-03     16.5253E-03     42.7685E+06     31.7080E+06    -87.6750E+06     32.9799E+06    -77.8864E+06     31.7080E+06    -34.3084E+06         29.3649
            1810     6.62850E-03     103.205E-03     743.503E-03    -228.646E-03    -259.643E-03    -226.190E-03     741.046E-03    -259.643E-03    -54.7191E-03     109.554E-03    -54.6229E-03    -54.9310E-03    -54.1734E-03     108.876E-03    -54.7029E-03     20.6848E-03     45.9355E+06     35.3293E+06    -89.5592E+06     35.5420E+06    -79.1658E+06     35.3293E+06    -36.0281E+06         29.7931
            1811     7.57568E-03     103.213E-03     745.704E-03    -233.211E-03    -258.930E-03    -234.942E-03     744.437E-03    -255.932E-03    -31.3371E-03     110.003E-03    -54.6571E-03    -55.3419E-03    -54.3412E-03     109.002E-03    -54.6571E-03     25.2562E-03     47.1012E+06     34.9720E+06    -86.3574E+06     36.9176E+06    -76.1738E+06     34.9720E+06    -35.3882E+06         30.3506
            1812     8.52249E-03     103.225E-03     735.722E-03    -229.202E-03    -256.349E-03    -230.816E-03     734.339E-03    -253.352E-03    -63.9271E-03     110.650E-03    -54.6469E-03    -56.0023E-03    -54.6475E-03     109.295E-03    -54.6469E-03     29.5541E-03     46.0285E+06     34.8465E+06    -80.9830E+06     36.2680E+06    -71.2225E+06     34.8465E+06    -33.7346E+06         31.1020
            1813     9.47013E-03     103.239E-03     710.188E-03    -210.858E-03    -250.035E-03    -210.189E-03     709.520E-03    -250.035E-03    -43.3494E-03     111.873E-03    -54.6825E-03    -57.2130E-03    -55.2516E-03     109.912E-03    -54.6825E-03     35.7205E-03     43.8887E+06     32.6933E+06    -78.4721E+06     34.1586E+06    -68.7420E+06     32.6933E+06    -32.9944E+06         32.1908
            1814     10.4152E-03     103.261E-03     700.822E-03    -209.955E-03    -246.245E-03    -209.444E-03     700.311E-03    -246.245E-03    -41.7366E-03     113.446E-03    -54.7476E-03    -58.7204E-03    -56.1128E-03     110.838E-03    -54.7476E-03     41.7072E-03     41.2924E+06     24.2505E+06    -71.9688E+06     31.7443E+06    -62.4207E+06     24.2505E+06    -31.2964E+06         33.8355
            1815     11.3610E-03     103.285E-03     696.332E-03    -212.358E-03    -243.132E-03    -211.831E-03     695.805E-03    -243.132E-03    -40.5101E-03     115.077E-03    -54.8573E-03    -60.2356E-03    -56.9304E-03     111.772E-03    -54.8573E-03     47.3073E-03     36.0887E+06     13.6523E+06    -65.8279E+06     27.2457E+06    -56.9849E+06     13.6523E+06    -28.1900E+06         36.2093
            1816     12.3052E-03     103.319E-03     684.358E-03    -201.615E-03    -240.181E-03    -201.041E-03     683.785E-03    -240.181E-03    -41.7343E-03     117.480E-03    -54.9852E-03    -62.5360E-03    -57.4911E-03     112.435E-03    -54.9852E-03     58.7202E-03     31.2025E+06    -1.16295E+06    -54.0637E+06     20.2917E+06    -43.1528E+06    -1.16295E+06    -27.4600E+06         39.3397
            1817     13.2484E-03     103.370E-03     672.375E-03    -191.231E-03    -236.841E-03    -190.792E-03     671.936E-03    -236.841E-03    -37.0288E-03     120.312E-03    -55.0791E-03    -65.2571E-03    -57.5244E-03     112.579E-03    -55.0791E-03     73.6715E-03     28.3876E+06    -18.5827E+06    -40.9969E+06     12.4040E+06    -22.2356E+06    -21.3603E+06    -27.3278E+06         43.1858
            1818     14.1972E-03     103.435E-03     657.649E-03    -182.047E-03    -233.130E-03    -181.786E-03     657.388E-03    -233.130E-03    -29.0830E-03     130.236E-03    -55.0530E-03    -75.1832E-03    -57.7923E-03     112.845E-03    -55.0530E-03     111.557E-03     41.8752E+06    -17.1570E+06    -50.8231E+06     5.14194E+06     19.3845E+06    -50.6313E+06    -22.7482E+06         47.5160
            1819     15.1399E-03     103.577E-03     637.454E-03    -170.964E-03    -228.926E-03    -170.767E-03     637.256E-03    -228.926E-03    -22.2403E-03     146.894E-03    -55.0275E-03    -91.9122E-03    -56.0576E-03     111.039E-03    -55.0275E-03     169.152E-03     97.9067E+06    -5.04354E+06    -43.5353E+06    -1.18048E+06     94.0437E+06    -43.5353E+06    -12.9951E+06         51.6455
            1820     16.0882E-03     103.777E-03     619.491E-03    -161.064E-03    -224.443E-03    -161.027E-03     619.454E-03    -224.443E-03    -7.54927E-03     134.823E-03    -55.2750E-03    -79.5836E-03    -52.0386E-03     107.277E-03    -55.2750E-03     136.526E-03     155.589E+06     58.0877E+06    -12.5186E+06    -4.37326E+06     155.239E+06     50.2926E+06    -3.74133E+06         54.8512
            1821     948.090E-06     104.309E-03         1.09147    -305.604E-03    -539.676E-03    -214.255E-03     766.045E-03    -305.604E-03    -526.260E-03     105.597E-03    -52.5428E-03    -53.0563E-03    -52.9463E-03     105.577E-03    -52.6328E-03     3.35459E-03     43.4580E+06     36.2366E+06    -67.9991E+06     39.3692E+06    -66.9379E+06     39.2642E+06    -9.04578E+06         28.0704
            1822     1.89740E-03     104.308E-03     842.051E-03    -260.264E-03    -342.893E-03    -261.516E-03     760.674E-03    -260.264E-03     136.713E-03     105.202E-03    -52.4734E-03    -52.7312E-03    -52.4320E-03     105.138E-03    -52.7084E-03     5.98992E-03     45.1245E+06     38.7822E+06    -62.1528E+06     41.7934E+06    -58.8216E+06     38.7822E+06    -18.0955E+06         28.1229
            1823     2.84638E-03     104.307E-03     807.509E-03    -262.557E-03    -305.700E-03    -274.388E-03     776.197E-03    -262.557E-03    -97.0404E-03     104.905E-03    -52.3369E-03    -52.5716E-03    -52.1818E-03     104.750E-03    -52.5716E-03     9.51676E-03     49.0597E+06     38.6068E+06    -62.1853E+06     42.8775E+06    -56.0031E+06     38.6068E+06    -25.2485E+06         28.2222
            1824     3.79566E-03     104.308E-03     781.472E-03    -253.868E-03    -282.438E-03    -259.363E-03     768.487E-03    -263.958E-03     23.5055E-03     104.838E-03    -52.3631E-03    -52.4803E-03    -52.0655E-03     104.539E-03    -52.4793E-03     13.3024E-03     50.2656E+06     39.3601E+06    -71.4033E+06     42.1254E+06    -63.2631E+06     39.3601E+06    -30.3902E+06         28.3783
            1825     4.74505E-03     104.309E-03     744.757E-03    -236.551E-03    -263.321E-03    -233.535E-03     739.085E-03    -260.667E-03    -94.9738E-03     104.769E-03    -52.3004E-03    -52.4748E-03    -51.8607E-03     104.248E-03    -52.3941E-03     17.6220E-03     52.5278E+06     39.3656E+06    -78.8485E+06     42.4710E+06    -68.7918E+06     39.3656E+06    -34.7587E+06         28.5979
            1826     5.69446E-03     104.312E-03     741.026E-03    -236.220E-03    -259.781E-03    -238.078E-03     739.507E-03    -256.404E-03    -43.4120E-03     104.869E-03    -52.2277E-03    -52.6444E-03    -51.7322E-03     104.024E-03    -52.2949E-03     22.5031E-03     54.8929E+06     37.5667E+06    -80.3388E+06     43.6958E+06    -69.1416E+06     37.5667E+06    -37.1630E+06         28.9003
            1827     6.64416E-03     104.318E-03     748.888E-03    -245.463E-03    -257.232E-03    -246.723E-03     747.211E-03    -254.295E-03    -26.4869E-03     105.398E-03    -52.2447E-03    -53.1504E-03    -51.8684E-03     104.116E-03    -52.2447E-03     27.8399E-03     54.1421E+06     38.1003E+06    -83.4949E+06     43.2672E+06    -72.6201E+06     38.1003E+06    -37.1069E+06         29.3094
            1828     7.59338E-03     104.327E-03     721.468E-03    -227.394E-03    -252.098E-03    -226.571E-03     720.645E-03    -252.098E-03    -2.85755E-03     106.221E-03    -52.2290E-03    -53.9881E-03    -52.1711E-03     104.404E-03    -52.2290E-03     33.3932E-03     52.2131E+06     36.7308E+06    -83.5438E+06     42.1103E+06    -73.4410E+06     36.7308E+06    -35.5915E+06         29.8768
            1829     8.54293E-03     104.338E-03     686.884E-03    -202.780E-03    -247.871E-03    -202.101E-03     686.205E-03    -247.871E-03    -44.2111E-03     107.513E-03    -52.2613E-03    -55.2559E-03    -52.7977E-03     105.055E-03    -52.2613E-03     39.1036E-03     49.9558E+06     35.4561E+06    -78.3344E+06     41.1425E+06    -69.5211E+06     35.4561E+06    -32.4180E+06         30.7142
            1830     9.49006E-03     104.354E-03     681.834E-03    -207.173E-03    -243.360E-03    -206.073E-03     680.735E-03    -243.360E-03    -50.3412E-03     109.552E-03    -52.3786E-03    -57.1849E-03    -53.8198E-03     106.187E-03    -52.3786E-03     46.2283E-03     48.1516E+06     35.2138E+06    -73.4206E+06     39.6814E+06    -64.9504E+06     35.2138E+06    -30.8742E+06         31.9240
            1831     10.4387E-03     104.376E-03     682.615E-03    -214.835E-03    -240.179E-03    -213.544E-03     681.324E-03    -240.179E-03    -60.4384E-03     111.906E-03    -52.5375E-03    -59.3644E-03    -55.0759E-03     107.617E-03    -52.5375E-03     53.0316E-03     43.5404E+06     26.4282E+06    -71.6238E+06     36.2909E+06    -64.3744E+06     26.4282E+06    -27.7837E+06         33.6430
            1832     11.3838E-03     104.405E-03     675.341E-03    -210.647E-03    -237.686E-03    -209.973E-03     674.667E-03    -237.686E-03    -47.8865E-03     114.614E-03    -52.7773E-03    -61.8471E-03    -56.5676E-03     109.334E-03    -52.7773E-03     59.5500E-03     38.7378E+06     17.4714E+06    -62.7986E+06     32.6421E+06    -56.7029E+06     17.4714E+06    -23.9786E+06         36.0568
            1833     12.3282E-03     104.438E-03     660.745E-03    -200.069E-03    -234.981E-03    -199.553E-03     660.229E-03    -234.981E-03    -41.2583E-03     118.291E-03    -53.0798E-03    -65.2543E-03    -57.9415E-03     110.978E-03    -53.0798E-03     71.1720E-03     36.4813E+06     8.41328E+06    -47.0329E+06     29.8278E+06    -40.3794E+06     8.41328E+06    -22.3581E+06         39.2169
            1834     13.2743E-03     104.490E-03     637.797E-03    -183.390E-03    -231.617E-03    -182.931E-03     637.338E-03    -231.617E-03    -38.2135E-03     122.930E-03    -53.3914E-03    -69.5546E-03    -59.5693E-03     112.945E-03    -53.3914E-03     85.0864E-03     30.6380E+06    -5.29600E+06    -32.2548E+06     23.1947E+06    -22.0338E+06    -8.07366E+06    -18.9458E+06         43.0693
            1835     14.2125E-03     104.558E-03     617.802E-03    -168.868E-03    -227.489E-03    -168.489E-03     617.423E-03    -227.489E-03    -33.6115E-03     133.397E-03    -53.6500E-03    -79.7352E-03    -60.1958E-03     113.857E-03    -53.6500E-03     120.430E-03     36.3339E+06    -6.48837E+06    -35.3240E+06     11.3067E+06     15.2382E+06    -32.0234E+06    -12.7736E+06         47.4029
            1836     15.1587E-03     104.698E-03     599.683E-03    -159.305E-03    -222.762E-03    -159.051E-03     599.429E-03    -222.762E-03    -27.3119E-03     149.007E-03    -53.7956E-03    -95.2120E-03    -57.7431E-03     111.538E-03    -53.7956E-03     174.818E-03     88.8470E+06    -3.48952E+06    -37.4124E+06    -919.409E+03     86.2768E+06    -37.4124E+06    -7.07933E+06         51.5599
            1837     16.1100E-03     104.892E-03     578.211E-03    -147.605E-03    -217.806E-03    -147.500E-03     578.106E-03    -217.806E-03    -13.6953E-03     136.070E-03    -54.1396E-03    -81.8906E-03    -53.7148E-03     107.894E-03    -54.1396E-03     139.276E-03     149.101E+06     56.6993E+06    -15.5343E+06    -4.15787E+06     148.890E+06     45.5338E+06    -2.27669E+06         54.7970
            1838     952.812E-06     105.416E-03     947.454E-03    -294.236E-03    -431.185E-03    -233.769E-03     750.038E-03    -294.236E-03    -388.892E-03     98.1002E-03    -48.9078E-03    -49.1948E-03    -49.0760E-03     98.0613E-03    -48.9877E-03     4.48520E-03     59.1742E+06     50.8704E+06    -47.0427E+06     56.0870E+06    -45.6081E+06     52.5229E+06    -10.5624E+06         27.4890
            1839     1.90418E-03     105.415E-03     803.108E-03    -262.432E-03    -308.208E-03    -261.497E-03     757.459E-03    -263.495E-03     90.2715E-03     98.1717E-03    -48.9944E-03    -49.1791E-03    -49.0492E-03     98.0463E-03    -48.9990E-03     8.16071E-03     57.4517E+06     47.2217E+06    -41.8336E+06     52.9876E+06    -37.3696E+06     47.2217E+06    -19.9759E+06         27.5424
            1840     2.85644E-03     105.414E-03     761.597E-03    -245.847E-03    -284.706E-03    -251.517E-03     743.913E-03    -261.352E-03    -73.1187E-03     97.9663E-03    -48.9004E-03    -49.0669E-03    -48.7064E-03     97.6677E-03    -48.9622E-03     12.8080E-03     58.0644E+06     44.3816E+06    -46.5341E+06     50.6497E+06    -39.1194E+06     44.3816E+06    -26.7136E+06         27.6339
            1841     3.80916E-03     105.414E-03     723.496E-03    -223.642E-03    -270.504E-03    -231.281E-03     717.180E-03    -256.550E-03     36.9592E-03     97.7701E-03    -48.8122E-03    -48.9590E-03    -48.3266E-03     97.1951E-03    -48.8695E-03     17.8516E-03     59.7621E+06     43.2603E+06    -58.4162E+06     50.2692E+06    -48.9232E+06     43.2603E+06    -32.0240E+06         27.7747
            1842     4.76193E-03     105.415E-03     709.392E-03    -218.062E-03    -258.203E-03    -222.382E-03     706.062E-03    -250.553E-03    -23.4664E-03     97.9698E-03    -48.7548E-03    -49.2189E-03    -48.2354E-03     96.9863E-03    -48.7548E-03     23.4384E-03     61.2389E+06     40.4196E+06    -66.8698E+06     49.9267E+06    -55.5576E+06     40.4196E+06    -36.2256E+06         27.9805
            1843     5.71497E-03     105.418E-03     735.122E-03    -233.789E-03    -265.444E-03    -249.153E-03     732.856E-03    -247.814E-03    -10.0080E-03     98.5225E-03    -48.6742E-03    -49.8540E-03    -48.2794E-03     96.9479E-03    -48.6742E-03     29.8024E-03     59.0282E+06     36.4303E+06    -73.4740E+06     47.3853E+06    -61.8311E+06     36.4303E+06    -37.4451E+06         28.2695
            1844     6.66738E-03     105.424E-03     728.320E-03    -235.712E-03    -257.601E-03    -243.853E-03     726.480E-03    -247.620E-03    -59.9198E-03     99.4738E-03    -48.6497E-03    -50.8238E-03    -48.4679E-03     97.1180E-03    -48.6497E-03     36.7008E-03     55.0456E+06     34.0890E+06    -79.0034E+06     44.5460E+06    -68.5038E+06     34.0890E+06    -35.9470E+06         28.6835
            1845     7.62029E-03     105.433E-03     685.908E-03    -209.960E-03    -244.958E-03    -207.465E-03     683.412E-03    -244.958E-03    -68.4226E-03     101.015E-03    -48.6830E-03    -52.3287E-03    -49.0568E-03     97.7432E-03    -48.6830E-03     43.6544E-03     50.6931E+06     32.7558E+06    -80.6617E+06     41.3822E+06    -71.3508E+06     32.7558E+06    -33.6566E+06         29.3255
            1846     8.57136E-03     105.446E-03     670.065E-03    -207.807E-03    -240.625E-03    -205.997E-03     668.255E-03    -240.625E-03    -69.1595E-03     103.158E-03    -48.7791E-03    -54.3746E-03    -50.0518E-03     98.8351E-03    -48.7791E-03     50.8251E-03     46.4178E+06     29.1797E+06    -77.2022E+06     38.0064E+06    -68.7908E+06     29.1797E+06    -31.1183E+06         30.3069
            1847     9.52330E-03     105.463E-03     669.872E-03    -218.671E-03    -237.589E-03    -216.958E-03     668.158E-03    -237.589E-03    -70.0563E-03     106.405E-03    -49.0038E-03    -57.3972E-03    -51.6590E-03     100.667E-03    -49.0038E-03     59.5554E-03     42.1294E+06     29.0093E+06    -70.9665E+06     34.1663E+06    -63.9307E+06     29.9365E+06    -27.1211E+06         31.6563
            1848     10.4706E-03     105.489E-03     649.505E-03    -203.798E-03    -234.950E-03    -201.890E-03     647.597E-03    -234.950E-03    -77.3323E-03     109.996E-03    -49.3266E-03    -60.6593E-03    -53.7082E-03     103.045E-03    -49.3266E-03     66.9499E-03     35.0604E+06     23.1363E+06    -72.1120E+06     29.0347E+06    -67.0136E+06     24.0636E+06    -22.5752E+06         33.4689
            1849     11.4191E-03     105.518E-03     630.077E-03    -187.168E-03    -231.424E-03    -186.634E-03     629.543E-03    -231.424E-03    -39.8310E-03     113.784E-03    -49.7414E-03    -64.0384E-03    -55.9184E-03     105.664E-03    -49.7414E-03     73.8349E-03     27.6277E+06     13.5416E+06    -61.5322E+06     22.5965E+06    -56.7745E+06     13.8151E+06    -19.7091E+06         35.9474
            1850     12.3649E-03     105.557E-03     625.732E-03    -187.377E-03    -227.733E-03    -187.114E-03     625.468E-03    -227.733E-03    -28.7156E-03     119.659E-03    -50.3019E-03    -69.3761E-03    -59.1447E-03     109.428E-03    -50.3019E-03     85.2030E-03     22.0197E+06     6.41596E+06    -44.8605E+06     15.6282E+06    -38.7425E+06     6.68942E+06    -18.6733E+06         39.1554
            1851     13.3048E-03     105.610E-03     610.882E-03    -180.626E-03    -224.198E-03    -180.242E-03     610.499E-03    -224.198E-03    -33.6432E-03     126.243E-03    -50.9824E-03    -75.2706E-03    -62.2930E-03     113.266E-03    -50.9824E-03     98.6822E-03     13.7793E+06    -3.93002E+06    -33.0530E+06     9.35972E+06    -28.6335E+06    -3.93002E+06    -12.4849E+06         43.0343
            1852     14.2468E-03     105.687E-03     581.898E-03    -160.922E-03    -220.033E-03    -160.634E-03     581.610E-03    -220.033E-03    -23.0061E-03     136.114E-03    -51.6144E-03    -84.4989E-03    -62.7446E-03     114.360E-03    -51.6144E-03     129.888E-03     24.6662E+06    -4.42001E+06    -26.0077E+06     2.63160E+06     8.57803E+06    -16.9712E+06    -2.92080E+06         47.3834
            1853     15.1890E-03     105.814E-03     560.720E-03    -150.258E-03    -215.011E-03    -150.136E-03     560.598E-03    -215.011E-03    -11.7963E-03     152.648E-03    -52.0644E-03    -100.586E-03    -61.6108E-03     113.673E-03    -52.0644E-03     181.717E-03     88.7677E+06    -3.03992E+06    -20.8552E+06    -3.57538E+06     88.4275E+06    -19.9795E+06    -7.21358E+03         51.5568
            1854     16.1307E-03     106.017E-03     552.800E-03    -149.844E-03    -210.108E-03    -149.757E-03     552.714E-03    -210.108E-03    -4.59067E-03     140.018E-03    -52.7463E-03    -87.2065E-03    -59.3025E-03     112.114E-03    -52.7463E-03     139.155E-03     148.607E+06     56.5510E+06    -10.0472E+06    -5.29097E+06     148.239E+06     52.1627E+06    -990.966E+03         54.8028
            1855     956.401E-06     106.514E-03     845.619E-03    -277.805E-03    -349.752E-03    -250.622E-03     747.997E-03    -279.312E-03    -270.724E-03     88.3707E-03    -43.9696E-03    -44.4013E-03    -44.2379E-03     88.2970E-03    -44.0593E-03     5.77496E-03     64.8057E+06     56.5482E+06    -24.0460E+06     60.8854E+06    -22.1610E+06     58.5834E+06    -11.1189E+06         26.7144
            1856     1.91386E-03     106.514E-03     756.389E-03    -247.125E-03    -283.542E-03    -250.714E-03     738.547E-03    -262.111E-03     52.8544E-03     88.4187E-03    -44.1010E-03    -44.3203E-03    -44.0812E-03     88.1895E-03    -44.1108E-03     10.5174E-03     64.4811E+06     53.8159E+06    -20.6272E+06     58.8690E+06    -15.3978E+06     54.1986E+06    -19.9836E+06         26.7652
            1857     2.87029E-03     106.512E-03     689.250E-03    -216.556E-03    -252.012E-03    -208.412E-03     681.107E-03    -252.012E-03    -48.9541E-03     88.4297E-03    -44.0535E-03    -44.3822E-03    -43.8484E-03     87.8958E-03    -44.0535E-03     16.2680E-03     66.0156E+06     47.3365E+06    -30.5074E+06     56.8737E+06    -21.3655E+06     47.3365E+06    -28.0394E+06         26.8529
            1858     3.82749E-03     106.511E-03     671.327E-03    -210.497E-03    -243.948E-03    -209.643E-03     667.376E-03    -240.851E-03    -3.66168E-03     88.4838E-03    -43.9566E-03    -44.5332E-03    -43.5081E-03     87.4587E-03    -43.9566E-03     22.7012E-03     65.1183E+06     39.8589E+06    -45.7450E+06     53.8602E+06    -34.4870E+06     39.8589E+06    -33.3391E+06         26.9868
            1859     4.78526E-03     106.512E-03     701.454E-03    -229.381E-03    -257.801E-03    -245.894E-03     697.923E-03    -237.757E-03    -26.3827E-03     88.9727E-03    -43.8542E-03    -45.1206E-03    -43.3836E-03     87.2357E-03    -43.8542E-03     29.7122E-03     60.8856E+06     33.2619E+06    -57.3468E+06     49.0386E+06    -45.4998E+06     33.2619E+06    -35.4064E+06         27.1864
            1860     5.74230E-03     106.515E-03     716.929E-03    -238.544E-03    -264.171E-03    -259.716E-03     714.110E-03    -240.181E-03    -17.9903E-03     90.0006E-03    -43.7966E-03    -46.2061E-03    -43.5017E-03     87.2962E-03    -43.7966E-03     37.3621E-03     54.8018E+06     28.5704E+06    -67.0482E+06     43.6362E+06    -55.8826E+06     28.5704E+06    -34.9403E+06         27.4899
            1861     6.70000E-03     106.521E-03     686.495E-03    -223.779E-03    -247.883E-03    -227.859E-03     683.531E-03    -240.840E-03    -99.3175E-03     91.7681E-03    -43.8137E-03    -47.9509E-03    -43.9698E-03     87.7869E-03    -43.8137E-03     45.8252E-03     46.2369E+06     24.5653E+06    -76.1459E+06     37.2007E+06    -67.1097E+06     24.5653E+06    -31.9301E+06         27.9833
            1862     7.65611E-03     106.532E-03     657.436E-03    -207.870E-03    -237.796E-03    -205.111E-03     654.677E-03    -237.796E-03    -90.0194E-03     94.3909E-03    -43.9244E-03    -50.4560E-03    -45.0249E-03     88.9599E-03    -43.9244E-03     54.4267E-03     37.2473E+06     20.9626E+06    -76.9515E+06     29.5920E+06    -69.2962E+06     20.9626E+06    -28.5552E+06         28.7764
            1863     8.61211E-03     106.546E-03     648.026E-03    -206.793E-03    -234.064E-03    -205.456E-03     646.689E-03    -234.064E-03    -50.2740E-03     97.8564E-03    -44.1685E-03    -53.6754E-03    -46.7432E-03     90.9241E-03    -44.1685E-03     62.7771E-03     29.4885E+06     16.1102E+06    -76.1224E+06     20.9094E+06    -69.8828E+06     18.4497E+06    -24.4605E+06         29.9207
            1864     9.56478E-03     106.566E-03     639.472E-03    -206.810E-03    -231.058E-03    -205.678E-03     638.340E-03    -231.058E-03    -53.1615E-03     102.474E-03    -44.5740E-03    -57.8881E-03    -49.0853E-03     93.6713E-03    -44.5740E-03     72.5574E-03     24.9785E+06     11.6039E+06    -70.6541E+06     11.6367E+06    -65.8652E+06     20.1568E+06    -19.7047E+06         31.4052
            1865     10.5176E-03     106.596E-03     623.514E-03    -195.788E-03    -228.039E-03    -193.933E-03     621.659E-03    -228.039E-03    -76.7649E-03     107.763E-03    -45.1500E-03    -62.6088E-03    -52.4324E-03     97.5863E-03    -45.1500E-03     80.4534E-03     20.0353E+06     5.80043E+06    -73.3145E+06     4.46981E+06    -69.9161E+06     17.9675E+06    -15.8866E+06         33.3278
            1866     11.4642E-03     106.628E-03     596.675E-03    -173.360E-03    -224.115E-03    -172.326E-03     595.641E-03    -224.115E-03    -52.5253E-03     113.748E-03    -45.8968E-03    -67.8467E-03    -56.7049E-03     102.606E-03    -45.8968E-03     86.9649E-03     13.5051E+06     182.092E+03    -59.5909E+06    -1.22990E+06    -56.1111E+06     11.4373E+06    -12.6392E+06         35.8935
            1867     12.4084E-03     106.672E-03     577.822E-03    -161.187E-03    -219.427E-03    -160.703E-03     577.338E-03    -219.427E-03    -35.0932E-03     121.346E-03    -46.8664E-03    -74.4799E-03    -61.3099E-03     108.176E-03    -46.8664E-03     97.9401E-03     8.71150E+06    -5.30690E+06    -41.1498E+06    -8.50419E+06    -36.4678E+06     7.22673E+06    -11.2397E+06         39.1690
            1868     13.3486E-03     106.736E-03     567.997E-03    -159.166E-03    -214.720E-03    -158.437E-03     567.267E-03    -214.720E-03    -41.2495E-03     128.511E-03    -47.9636E-03    -80.5699E-03    -65.1144E-03     113.056E-03    -47.9636E-03     109.345E-03    -3.66404E+06    -14.0609E+06    -42.2564E+06    -14.6209E+06    -38.5316E+06    -6.82885E+06    -8.59836E+06         43.1018
            1869     14.2843E-03     106.808E-03     549.941E-03    -153.788E-03    -210.059E-03    -153.293E-03     549.446E-03    -210.059E-03    -20.0289E-03     139.322E-03    -49.0395E-03    -90.3177E-03    -67.8195E-03     116.824E-03    -49.0395E-03     135.604E-03     15.6198E+06    -14.0468E+06    -29.2628E+06    -14.5179E+06     4.08307E+06    -17.2549E+06    -3.30975E+06         47.4786
            1870     15.2227E-03     106.941E-03     533.901E-03    -150.138E-03    -205.196E-03    -150.113E-03     533.876E-03    -205.196E-03     6.54206E-03     156.324E-03    -50.0772E-03    -106.261E-03    -69.0575E-03     119.121E-03    -50.0772E-03     182.116E-03     93.6747E+06    -2.73121E+06    -13.3722E+06    -9.85562E+06     93.3663E+06    -5.93938E+06    -920.562E+03         51.6434
            1871     16.1623E-03     107.145E-03     516.617E-03    -145.030E-03    -200.538E-03    -144.873E-03     516.459E-03    -200.538E-03     14.6988E-03     144.770E-03    -51.3758E-03    -93.3639E-03    -68.2941E-03     119.701E-03    -51.3758E-03     131.823E-03     148.849E+06     65.3624E+06    -4.61318E+06    -4.23003E+06     148.466E+06     65.3624E+06    -671.695E+03         54.8668
            1872     962.841E-06     107.600E-03     740.895E-03    -240.635E-03    -280.171E-03    -208.946E-03     699.789E-03    -270.754E-03    -145.146E-03     76.2846E-03    -37.9798E-03    -38.3042E-03    -38.1701E-03     76.1603E-03    -37.9896E-03     6.89834E-03     67.2036E+06     57.9887E+06    -952.899E+03     61.8561E+06     1.81003E+06     60.5732E+06    -11.8224E+06         25.7625
            1873     1.92501E-03     107.599E-03     681.098E-03    -219.852E-03    -249.140E-03    -222.948E-03     671.580E-03    -236.526E-03     46.3593E-03     76.1590E-03    -37.9861E-03    -38.1764E-03    -37.7775E-03     75.7699E-03    -37.9959E-03     12.7612E-03     67.5956E+06     52.8683E+06    -1.27368E+06     60.2347E+06     5.70452E+06     53.2511E+06    -20.0494E+06         25.8076
            1874     2.88847E-03     107.598E-03     677.633E-03    -213.518E-03    -258.711E-03    -235.311E-03     674.185E-03    -233.470E-03    -70.7680E-03     76.3894E-03    -37.8701E-03    -38.5243E-03    -37.6426E-03     75.5077E-03    -37.8701E-03     19.4739E-03     64.6360E+06     40.2827E+06    -14.6695E+06     54.0728E+06    -4.10635E+06     40.2827E+06    -26.5845E+06         25.8953
            1875     3.85137E-03     107.597E-03     682.797E-03    -227.387E-03    -254.668E-03    -244.040E-03     679.705E-03    -234.923E-03    -59.3680E-03     77.0404E-03    -37.7895E-03    -39.2526E-03    -37.5909E-03     75.3787E-03    -37.7895E-03     27.0189E-03     56.4487E+06     26.2143E+06    -33.9452E+06     44.6243E+06    -22.1208E+06     26.2143E+06    -30.2815E+06         26.0344
            1876     4.81406E-03     107.597E-03     674.453E-03    -224.538E-03    -252.718E-03    -238.672E-03     672.173E-03    -236.304E-03    -50.3768E-03     78.0304E-03    -37.7356E-03    -40.2943E-03    -37.5127E-03     75.2488E-03    -37.7356E-03     35.2346E-03     45.5087E+06     13.4256E+06    -50.0525E+06     34.3170E+06    -38.8608E+06     13.4256E+06    -30.4791E+06         26.2559
            1877     5.77765E-03     107.601E-03     644.727E-03    -204.494E-03    -243.888E-03    -211.379E-03     642.315E-03    -234.591E-03    -56.0160E-03     79.8453E-03    -37.7471E-03    -42.0977E-03    -37.8590E-03     75.6066E-03    -37.7471E-03     44.0772E-03     30.6985E+06     3.82220E+06    -62.8280E+06     21.9717E+06    -54.1011E+06     3.82220E+06    -26.9944E+06         26.6428
            1878     6.73966E-03     107.608E-03     627.447E-03    -201.397E-03    -230.307E-03    -198.483E-03     624.533E-03    -230.307E-03    -86.6260E-03     82.7613E-03    -37.8780E-03    -44.8762E-03    -38.8398E-03     76.7249E-03    -37.8780E-03     53.6354E-03     15.3049E+06     -1.0634E+06    -73.5122E+06     8.89208E+06    -67.0993E+06     -1.0634E+06    -22.9426E+06         27.2981
            1879     7.70157E-03     107.619E-03     634.908E-03    -210.413E-03    -229.067E-03    -211.693E-03     634.049E-03    -226.928E-03    -43.6762E-03     86.7112E-03    -38.1562E-03    -48.5521E-03    -40.5526E-03     78.7117E-03    -38.1562E-03     63.3697E-03     6.68788E+06    -6.87468E+06    -75.1152E+06    -3.40580E+06    -70.4990E+06    -1.39721E+06    -18.0188E+06         28.2760
            1880     8.66028E-03     107.637E-03     626.401E-03    -204.834E-03    -226.906E-03    -206.568E-03     625.996E-03    -224.767E-03    -34.8266E-03     91.9078E-03    -38.6428E-03    -53.2609E-03    -43.3343E-03     81.9812E-03    -38.6428E-03     72.9133E-03     4.86422E+06    -13.8071E+06    -75.5694E+06    -14.3754E+06    -72.5398E+06     2.40302E+06    -13.4414E+06         29.5795
            1881     9.61718E-03     107.661E-03     607.234E-03    -192.407E-03    -221.993E-03    -191.185E-03     606.012E-03    -221.993E-03    -56.9007E-03     98.4583E-03    -39.3382E-03    -59.1176E-03    -47.1416E-03     86.4823E-03    -39.3382E-03     83.2562E-03     7.61211E+06      -19.47E+06    -69.3972E+06    -21.7424E+06    -67.1248E+06     7.61211E+06    -10.0488E+06         31.1974
            1882     10.5690E-03     107.695E-03     596.539E-03    -187.156E-03    -218.655E-03    -185.311E-03     594.694E-03    -218.655E-03    -75.2470E-03     105.926E-03    -40.3064E-03    -65.6316E-03    -52.3435E-03     92.6376E-03    -40.3064E-03     91.5623E-03     8.98480E+06    -23.9699E+06    -73.0725E+06    -25.9604E+06    -71.0820E+06     8.98480E+06    -9.12110E+06         33.2339
            1883     11.5172E-03     107.737E-03     574.424E-03    -172.492E-03    -214.963E-03    -171.396E-03     573.328E-03    -214.963E-03    -54.2300E-03     114.279E-03    -41.5312E-03    -72.7445E-03    -58.7411E-03     100.276E-03    -41.5312E-03     98.3422E-03     6.11254E+06    -23.4272E+06    -59.3323E+06    -27.3409E+06    -55.4186E+06     6.11254E+06    -8.01904E+06         35.8968
            1884     12.4565E-03     107.789E-03     541.789E-03    -148.517E-03    -210.332E-03    -147.988E-03     541.259E-03    -210.332E-03    -36.9555E-03     123.313E-03    -43.0339E-03    -80.2712E-03    -64.7612E-03     107.803E-03    -43.0339E-03     107.968E-03     7.44787E+06    -22.0756E+06    -39.9495E+06    -26.5711E+06    -35.4539E+06     7.44787E+06    -6.12289E+06         39.2559
            1885     13.3940E-03     107.857E-03     522.522E-03    -138.653E-03    -205.023E-03    -136.543E-03     520.412E-03    -205.023E-03    -65.1752E-03     131.708E-03    -44.6752E-03    -87.0521E-03    -70.3718E-03     115.028E-03    -44.6752E-03     116.089E-03    -4.53305E+06    -23.1839E+06    -44.2629E+06    -24.6466E+06    -40.7383E+06    -6.59492E+06    -7.57197E+06         43.2621
            1886     14.3274E-03     107.938E-03     510.936E-03    -140.576E-03    -199.894E-03    -138.343E-03     508.704E-03    -199.894E-03    -59.8954E-03     144.447E-03    -46.3717E-03    -98.1112E-03    -75.9516E-03     122.287E-03    -46.3717E-03     139.083E-03     17.0525E+06    -15.8008E+06    -31.9635E+06    -20.8784E+06     5.96737E+06    -15.8008E+06    -8.87591E+06         47.6717
            1887     15.2514E-03     108.078E-03     485.279E-03    -130.970E-03    -194.732E-03    -130.338E-03     484.647E-03    -194.732E-03    -20.7343E-03     161.958E-03    -48.1952E-03    -113.776E-03    -79.3570E-03     127.538E-03    -48.1952E-03     181.578E-03     95.6068E+06     5.63123E+06    -17.3928E+06    -16.2900E+06     94.5040E+06     5.63123E+06    -7.46209E+06         51.8062
            1888     16.1737E-03     108.279E-03     445.323E-03    -105.050E-03    -189.001E-03    -104.681E-03     444.954E-03    -189.001E-03     2.28904E-03     152.151E-03    -50.2578E-03    -101.910E-03    -79.8113E-03     130.052E-03    -50.2578E-03     126.356E-03     144.217E+06     76.4694E+06    -9.83906E+06    -9.53176E+06     143.909E+06     76.4694E+06    -3.75614E+06         54.9825
            1889     969.254E-06     108.672E-03     626.781E-03    -189.388E-03    -243.933E-03    -185.015E-03     596.474E-03    -218.000E-03    -137.468E-03     62.0160E-03    -30.9277E-03    -31.0884E-03    -30.9069E-03     61.8345E-03    -30.9277E-03     7.50974E-03     68.4220E+06     54.0949E+06     20.5798E+06     61.6936E+06     25.1065E+06     56.2967E+06    -11.3512E+06         24.6712
            1890     1.93959E-03     108.671E-03     649.659E-03    -205.947E-03    -245.996E-03    -237.365E-03     643.780E-03    -208.699E-03     2.65137E-03     62.0532E-03    -30.8122E-03    -31.2418E-03    -30.6669E-03     61.4783E-03    -30.8122E-03     14.0467E-03     62.1419E+06     40.9284E+06     14.8910E+06     52.9799E+06     24.0530E+06     40.9284E+06    -18.0635E+06         24.7196
            1891     2.90920E-03     108.669E-03     673.083E-03    -221.625E-03    -258.828E-03    -256.125E-03     670.380E-03    -221.625E-03    -77.7850E-03     62.6876E-03    -30.7348E-03    -31.9501E-03    -30.6509E-03     61.3884E-03    -30.7348E-03     21.4630E-03     52.8082E+06     27.0421E+06    -2.18430E+06     42.3817E+06     8.24220E+06     27.0421E+06    -21.4311E+06         24.8168
            1892     3.87896E-03     108.669E-03     659.609E-03    -225.642E-03    -247.366E-03    -242.615E-03     658.290E-03    -229.074E-03    -8.53807E-03     63.8733E-03    -30.7069E-03    -33.1586E-03    -30.7506E-03     61.4653E-03    -30.7069E-03     29.6487E-03     38.7337E+06     9.56437E+06    -23.6793E+06     29.3954E+06    -14.3410E+06     9.56437E+06    -21.7809E+06         24.9894
            1893     4.84872E-03     108.669E-03     620.918E-03    -205.921E-03    -232.795E-03    -209.074E-03     620.050E-03    -228.774E-03     22.8260E-03     65.8493E-03    -30.7375E-03    -35.1076E-03    -31.1476E-03     61.8893E-03    -30.7375E-03     38.6758E-03     17.8723E+06    -10.5171E+06    -44.5429E+06     11.6862E+06    -38.3568E+06    -10.5171E+06    -17.8903E+06         25.3033
            1894     5.81739E-03     108.673E-03     587.112E-03    -182.452E-03    -223.173E-03    -180.445E-03     585.105E-03    -223.173E-03    -38.6946E-03     68.9002E-03    -30.9058E-03    -37.9921E-03    -32.0759E-03     62.9840E-03    -30.9058E-03     48.4353E-03    -4.45598E+06    -23.4636E+06    -60.1078E+06    -8.07472E+06    -56.4891E+06    -23.4636E+06    -11.9702E+06         25.8510
            1895     6.78557E-03     108.681E-03     589.875E-03    -191.574E-03    -217.497E-03    -189.335E-03     587.636E-03    -217.497E-03    -72.3670E-03     73.2432E-03    -31.2775E-03    -41.9619E-03    -33.7852E-03     65.0665E-03    -31.2775E-03     58.7872E-03    -16.8134E+06    -30.2232E+06    -71.4140E+06    -26.1725E+06    -68.8139E+06    -23.4642E+06    -7.46338E+06         26.6933
            1896     7.75078E-03     108.695E-03     604.665E-03    -208.492E-03    -217.109E-03    -208.942E-03     602.976E-03    -214.970E-03    -60.5166E-03     78.8780E-03    -31.8555E-03    -47.0312E-03    -36.5062E-03     68.3530E-03    -31.8555E-03     69.4237E-03    -15.4338E+06    -38.6074E+06    -74.5724E+06    -39.1570E+06    -73.2229E+06    -16.2338E+06    -4.38311E+06         27.8419
            1897     8.71417E-03     108.718E-03     595.559E-03    -201.499E-03    -215.873E-03    -202.024E-03     593.946E-03    -213.733E-03    -62.6524E-03     85.8853E-03    -32.6723E-03    -53.2176E-03    -40.5392E-03     73.2070E-03    -32.6723E-03     79.8935E-03    -7.32449E+06    -44.3265E+06     -73.157E+06    -45.1612E+06    -72.3223E+06    -7.32449E+06    -4.11522E+06         29.2917
            1898     9.67218E-03     108.748E-03     570.425E-03    -179.431E-03    -211.116E-03    -178.085E-03     569.078E-03    -211.116E-03    -60.4699E-03     94.7982E-03    -33.7677E-03    -61.0369E-03    -46.2489E-03     80.0102E-03    -33.7677E-03     91.2224E-03     821.756E+03    -44.9752E+06    -68.9462E+06    -45.7938E+06    -68.1275E+06     821.756E+03    -4.03215E+06         31.0363
            1899     10.6251E-03     108.791E-03     549.343E-03    -164.958E-03    -207.052E-03    -163.525E-03     547.910E-03    -207.052E-03    -61.9615E-03     104.830E-03    -35.2270E-03    -69.6098E-03    -53.4978E-03     88.7180E-03    -35.2270E-03     100.907E-03     6.58665E+06    -42.0102E+06    -69.0134E+06    -43.5032E+06    -67.5204E+06     6.58665E+06    -5.75509E+06         33.1850
            1900     11.5692E-03     108.842E-03     535.346E-03    -162.581E-03    -202.803E-03    -161.783E-03     534.548E-03    -202.803E-03    -45.1910E-03     115.035E-03    -37.0081E-03    -78.0135E-03    -61.4645E-03     98.4863E-03    -37.0081E-03     108.019E-03     6.72208E+06    -33.0627E+06    -58.8946E+06    -38.6747E+06    -53.2826E+06     6.72208E+06    -8.49571E+06         35.9493
            1901     12.5090E-03     108.905E-03     516.267E-03    -151.692E-03    -198.585E-03    -151.222E-03     515.797E-03    -198.585E-03    -27.7008E-03     126.191E-03    -39.1164E-03    -87.0696E-03    -69.7731E-03     108.894E-03    -39.1164E-03     116.419E-03     11.5817E+06    -23.6828E+06    -42.8865E+06    -31.0601E+06    -35.5092E+06     11.5817E+06    -8.89308E+06         39.4007
            1902     13.4386E-03     108.982E-03     497.168E-03    -141.509E-03    -194.038E-03    -139.991E-03     495.651E-03    -194.038E-03    -40.2185E-03     137.637E-03    -41.4454E-03    -96.1893E-03    -78.4336E-03     119.881E-03    -41.4454E-03     123.838E-03     1.74710E+06    -18.9951E+06    -42.7084E+06    -23.9892E+06    -37.2083E+06     1.24108E+06    -9.99219E+06         43.4904
            1903     14.3590E-03     109.076E-03     473.465E-03    -130.453E-03    -189.078E-03    -128.483E-03     471.495E-03    -189.078E-03    -41.3699E-03     151.680E-03    -43.9354E-03    -107.746E-03    -85.8384E-03     129.773E-03    -43.9354E-03     143.853E-03     25.2676E+06    -1.85724E+06    -33.2683E+06    -20.7141E+06     12.1443E+06    -1.28806E+06    -11.5808E+06         47.9355
            1904     15.2805E-03     109.221E-03     433.337E-03    -103.708E-03    -183.033E-03    -102.952E-03     432.581E-03    -183.033E-03    -20.1937E-03     168.940E-03    -46.5487E-03    -122.409E-03    -90.0588E-03     136.590E-03    -46.5487E-03     182.392E-03     95.9721E+06     21.4177E+06    -19.2669E+06    -17.0596E+06     93.7649E+06     21.4177E+06    -12.6609E+06         52.0314
            1905     16.1959E-03     109.433E-03     399.573E-03    -83.6032E-03    -176.241E-03    -83.0570E-03     399.027E-03    -176.241E-03    -24.0204E-03     161.939E-03    -49.3415E-03    -112.639E-03    -92.1917E-03     141.491E-03    -49.3415E-03     125.214E-03     135.767E+06     83.1186E+06    -9.75395E+06    -8.56029E+06     134.347E+06     83.3452E+06    -8.51717E+06         55.1511
            1906     977.380E-06     109.729E-03     599.930E-03    -192.536E-03    -242.614E-03    -226.397E-03     583.714E-03    -192.536E-03    -97.7361E-03     46.6700E-03    -23.1056E-03    -23.5647E-03    -23.3287E-03     46.4340E-03    -23.1056E-03     7.42504E-03     60.8858E+06     48.8657E+06     33.8034E+06     50.8126E+06     42.9541E+06     49.7883E+06    -7.06929E+06         23.5226
            1907     1.95439E-03     109.726E-03     606.859E-03    -192.868E-03    -237.400E-03    -218.152E-03     605.910E-03    -211.167E-03    -28.6541E-03     47.2270E-03    -23.1922E-03    -24.0346E-03    -23.2707E-03     46.4631E-03    -23.1922E-03     14.1083E-03     50.7293E+06     32.9180E+06     24.3709E+06     40.1189E+06     35.7695E+06     32.1297E+06    -10.7639E+06         23.5892
            1908     2.93148E-03     109.725E-03     595.483E-03    -190.608E-03    -223.270E-03    -201.604E-03     594.516E-03    -211.308E-03    -36.9729E-03     48.3041E-03    -23.1873E-03    -25.1154E-03    -23.4113E-03     46.5999E-03    -23.1873E-03     21.6030E-03     32.1453E+06     12.7812E+06    -2.94058E+06     22.3197E+06     13.2322E+06     6.43403E+06    -9.93410E+06         23.7239
            1909     3.90843E-03     109.723E-03     597.840E-03    -203.743E-03    -215.208E-03    -208.552E-03     597.016E-03    -209.576E-03     9.38173E-03     50.2059E-03    -23.2577E-03    -26.9449E-03    -23.8446E-03     47.1056E-03    -23.2577E-03     29.8705E-03      7.4727E+06    -13.2880E+06    -30.2127E+06    -840.341E+03    -15.6922E+06    -19.4953E+06    -4.90647E+06         23.9860
            1910     4.88460E-03     109.725E-03     584.940E-03    -197.654E-03    -214.524E-03    -201.978E-03     583.480E-03    -208.740E-03    -10.4703E-03     53.3899E-03    -23.4857E-03    -29.9030E-03    -24.9008E-03     48.3877E-03    -23.4857E-03     39.1946E-03    -17.1640E+06    -37.0348E+06    -51.9991E+06    -25.0224E+06    -43.4922E+06    -37.6832E+06     1.27905E+06         24.4541
            1911     5.85932E-03     109.730E-03     581.343E-03    -195.107E-03    -214.280E-03    -199.996E-03     579.319E-03    -207.367E-03    -64.3432E-03     57.9027E-03    -23.9188E-03    -33.9758E-03    -26.6277E-03     50.5546E-03    -23.9188E-03     49.5420E-03    -32.9602E+06    -45.5684E+06    -68.9507E+06    -43.9247E+06    -60.7790E+06    -42.7756E+06     5.64066E+06         25.1814
            1912     6.83171E-03     109.742E-03     579.164E-03    -198.883E-03    -211.442E-03    -202.123E-03     577.285E-03    -206.323E-03    -74.2918E-03     63.9168E-03    -24.6040E-03    -39.3028E-03    -29.2849E-03     53.8990E-03    -24.6040E-03     60.8805E-03    -32.9844E+06    -49.9041E+06    -76.6686E+06    -54.7225E+06    -71.0543E+06    -33.7803E+06     7.15700E+06         26.1874
            1913     7.80174E-03     109.762E-03     557.813E-03    -190.726E-03    -204.826E-03    -188.805E-03     555.892E-03    -204.826E-03    -70.3966E-03     71.4520E-03    -25.5391E-03    -45.9161E-03    -33.2582E-03     58.7941E-03    -25.5391E-03     72.6632E-03    -20.0049E+06    -55.3923E+06    -74.0501E+06    -58.1682E+06    -71.2742E+06    -20.0049E+06     4.69633E+06         27.4783
            1914     8.76647E-03     109.790E-03     537.061E-03    -172.175E-03    -201.777E-03    -170.565E-03     535.451E-03    -201.777E-03    -60.0131E-03     80.5150E-03    -26.7594E-03    -53.7732E-03    -38.7687E-03     65.5106E-03    -26.7594E-03     84.5062E-03    -7.48321E+06    -56.0594E+06    -69.1128E+06    -56.5623E+06    -68.6100E+06    -7.48321E+06     555.639E+03         29.0549
            1915     9.72642E-03     109.829E-03     522.597E-03    -159.323E-03    -197.576E-03    -158.065E-03     521.340E-03    -197.576E-03    -55.6382E-03     91.7031E-03    -28.3175E-03    -63.3942E-03    -46.0363E-03     74.3452E-03    -28.3175E-03     97.7048E-03     2.35191E+06    -50.9210E+06    -67.6296E+06    -51.7041E+06    -66.8465E+06     2.35191E+06    -3.10593E+06         30.9142
            1916     10.6782E-03     109.883E-03     508.357E-03    -152.218E-03    -193.031E-03    -151.021E-03     507.160E-03    -193.031E-03    -52.8675E-03     103.950E-03    -30.2650E-03    -73.6622E-03    -54.9155E-03     85.2032E-03    -30.2650E-03     109.034E-03     9.74558E+06    -41.7462E+06    -64.1059E+06    -44.6906E+06    -61.1615E+06     9.74558E+06    -7.25744E+06         33.1693
            1917     11.6228E-03     109.947E-03     494.663E-03    -148.924E-03    -188.650E-03    -147.988E-03     493.727E-03    -188.650E-03    -46.8811E-03     116.417E-03    -32.5924E-03    -83.8101E-03    -64.8642E-03     97.4714E-03    -32.5924E-03     117.116E-03     11.2127E+06    -29.2625E+06    -56.1451E+06    -37.6881E+06    -47.7195E+06     11.2127E+06    -11.7684E+06         36.0335
            1918     12.5557E-03     110.022E-03     474.753E-03    -142.742E-03    -184.410E-03    -141.878E-03     473.889E-03    -184.410E-03    -38.3906E-03     130.208E-03    -35.3249E-03    -94.8887E-03    -75.4827E-03     110.802E-03    -35.3249E-03     126.302E-03     16.0626E+06    -18.1339E+06    -47.2611E+06    -30.5846E+06    -34.8104E+06     16.0626E+06    -14.2827E+06         39.5798
            1919     13.4809E-03     110.115E-03     449.313E-03    -127.515E-03    -179.782E-03    -127.132E-03     448.930E-03    -179.782E-03    -22.6079E-03     144.965E-03    -38.3614E-03    -106.604E-03    -86.9316E-03     125.293E-03    -38.3614E-03     134.994E-03     5.72082E+06    -15.7756E+06    -46.4570E+06    -24.7068E+06    -37.5258E+06     5.72082E+06    -13.0909E+06         43.7599
            1920     14.3964E-03     110.222E-03     427.063E-03    -112.810E-03    -174.348E-03    -112.363E-03     426.616E-03    -174.348E-03    -12.2184E-03     161.395E-03    -41.6802E-03    -119.719E-03    -97.2283E-03     138.904E-03    -41.6802E-03     152.376E-03     38.0124E+06     8.76148E+06    -34.8629E+06    -20.4893E+06     20.6024E+06     11.7980E+06    -13.4140E+06         48.2445
            1921     15.2994E-03     110.377E-03     408.084E-03    -101.238E-03    -168.113E-03    -100.704E-03     407.549E-03    -168.113E-03    -12.8835E-03     177.503E-03    -45.1258E-03    -132.397E-03    -102.169E-03     147.274E-03    -45.1258E-03     183.393E-03     99.4768E+06     37.6407E+06    -17.6467E+06    -14.9940E+06     96.8241E+06     37.6407E+06    -16.6295E+06         52.2993
            1922     16.2042E-03     110.590E-03     399.306E-03    -103.352E-03    -162.302E-03    -102.570E-03     398.524E-03    -162.302E-03    -18.3642E-03     170.871E-03    -48.6413E-03    -122.302E-03    -103.692E-03     152.261E-03    -48.6413E-03     124.311E-03     123.185E+06     86.9116E+06    -11.1853E+06    -9.48017E+06     120.828E+06     87.5634E+06    -12.5034E+06         55.3684
            1923     984.852E-06     110.768E-03     590.648E-03    -188.020E-03    -250.534E-03    -212.054E-03     590.539E-03    -226.390E-03    -7.37055E-03     31.7504E-03    -15.5846E-03    -16.1670E-03    -15.8901E-03     31.4736E-03    -15.5846E-03     6.62945E-03     51.3270E+06     23.8771E+06     16.7216E+06     21.1590E+06     49.4411E+06     21.3257E+06     781.313E+03         22.4307
            1924     1.96920E-03     110.767E-03     550.025E-03    -179.568E-03    -213.065E-03    -180.617E-03     549.524E-03    -211.515E-03    -23.1620E-03     32.8050E-03    -15.7856E-03    -17.0200E-03    -16.1276E-03     31.9127E-03    -15.7856E-03     12.7513E-03     39.6837E+06     3.02994E+06     993.015E+03     6.02815E+06     36.3319E+06     1.34657E+06     3.63574E+06         22.5315
            1925     2.95329E-03     110.765E-03     543.249E-03    -172.483E-03    -199.212E-03    -171.608E-03     542.374E-03    -199.212E-03    -46.8922E-03     34.5531E-03    -15.9438E-03    -18.6094E-03    -16.6469E-03     32.5905E-03    -15.9438E-03     19.6868E-03     13.5277E+06    -19.1676E+06    -28.5917E+06    -16.0155E+06     7.32881E+06    -25.5450E+06     9.43453E+06         22.7467
            1926     3.93657E-03     110.765E-03     554.243E-03    -184.632E-03    -197.777E-03    -187.154E-03     552.777E-03    -193.788E-03    -58.7231E-03     37.5187E-03    -16.2429E-03    -21.2750E-03    -17.7081E-03     33.9518E-03    -16.2429E-03     27.7525E-03    -13.4366E+06    -39.9930E+06    -56.3939E+06    -38.6038E+06    -25.0193E+06    -46.2003E+06     16.4686E+06         23.1417
            1927     4.91817E-03     110.768E-03     552.924E-03    -187.881E-03    -198.603E-03    -191.847E-03     551.107E-03    -192.820E-03    -64.2639E-03     41.8536E-03    -16.7536E-03    -25.1011E-03    -19.3648E-03     36.1173E-03    -16.7536E-03     37.2164E-03    -32.5334E+06    -51.8816E+06    -74.6172E+06    -56.4875E+06    -50.0147E+06    -52.5301E+06     20.4457E+06         23.7638
            1928     5.89808E-03     110.777E-03     552.158E-03    -191.238E-03    -200.350E-03    -197.461E-03     550.991E-03    -192.960E-03    -48.4589E-03     47.7071E-03    -17.4798E-03    -30.2285E-03    -21.8616E-03     39.3402E-03    -17.4798E-03     48.0606E-03    -41.8258E+06    -52.1302E+06    -85.1103E+06    -67.6133E+06    -63.2313E+06    -48.2217E+06     19.5431E+06         24.6360
            1929     6.87513E-03     110.792E-03     537.630E-03    -183.268E-03    -198.305E-03    -187.863E-03     536.630E-03    -192.709E-03    -48.9528E-03     55.3001E-03    -18.4458E-03    -36.8461E-03    -25.4852E-03     43.9393E-03    -18.4458E-03     60.4526E-03    -37.5172E+06    -55.3226E+06    -83.3817E+06    -70.4583E+06    -68.2460E+06    -37.5172E+06     13.6563E+06         25.7709
            1930     7.84779E-03     110.818E-03     510.499E-03    -166.128E-03    -190.356E-03    -165.379E-03     509.751E-03    -190.356E-03    -34.2671E-03     64.5879E-03    -19.6994E-03    -44.8817E-03    -30.4896E-03     50.1958E-03    -19.6994E-03     73.8805E-03    -22.1637E+06    -58.7197E+06    -72.9697E+06    -66.1388E+06    -65.5506E+06    -22.1637E+06     6.42807E+06         27.1772
            1931     8.81567E-03     110.854E-03     494.624E-03    -154.266E-03    -186.367E-03    -153.381E-03     493.739E-03    -186.367E-03    -35.2322E-03     75.6719E-03    -21.2915E-03    -54.3922E-03    -37.2180E-03     58.4977E-03    -21.2915E-03     87.9696E-03    -7.06403E+06    -56.0641E+06    -65.9398E+06    -59.0745E+06    -62.9295E+06    -7.06403E+06     328.582E+03         28.8595
            1932     9.77594E-03     110.904E-03     481.701E-03    -146.325E-03    -181.944E-03    -144.722E-03     480.098E-03    -181.944E-03    -61.8124E-03     89.0962E-03    -23.2592E-03    -65.8532E-03    -45.8144E-03     69.0574E-03    -23.2592E-03     103.903E-03     4.01265E+06    -47.1147E+06     -64.383E+06    -50.8224E+06    -60.6753E+06     4.01265E+06    -5.91700E+06         30.8183
            1933     10.7287E-03     110.971E-03     469.636E-03    -142.403E-03    -177.547E-03    -141.190E-03     468.422E-03    -177.547E-03    -52.1225E-03     103.496E-03    -25.6386E-03    -77.8552E-03    -56.1748E-03     81.8152E-03    -25.6386E-03     117.514E-03     11.0151E+06    -34.9008E+06    -61.8003E+06    -41.7195E+06    -54.9816E+06     11.0151E+06    -11.2302E+06         33.1693
            1934     11.6703E-03     111.049E-03     457.246E-03    -138.538E-03    -173.352E-03    -137.487E-03     456.195E-03    -173.352E-03    -48.2120E-03     118.394E-03    -28.4457E-03    -89.9362E-03    -68.0329E-03     96.4909E-03    -28.4457E-03     127.653E-03     12.4552E+06    -24.9407E+06    -53.7689E+06    -35.4888E+06    -43.2208E+06     12.4552E+06    -13.5017E+06         36.1278
            1935     12.6024E-03     111.142E-03     433.016E-03    -125.162E-03    -168.907E-03    -123.807E-03     431.662E-03    -168.907E-03    -53.6607E-03     134.812E-03    -31.7331E-03    -103.075E-03    -80.7818E-03     112.519E-03    -31.7331E-03     138.555E-03     16.4352E+06    -16.2047E+06    -47.8557E+06    -33.0967E+06    -30.9637E+06     16.4352E+06    -15.4972E+06         39.7668
            1936     13.5218E-03     111.250E-03     402.411E-03    -103.419E-03    -163.582E-03    -102.463E-03     401.455E-03    -163.582E-03    -42.2657E-03     153.268E-03    -35.4051E-03    -117.873E-03    -95.1588E-03     130.554E-03    -35.4051E-03     150.102E-03     10.3916E+06    -13.3344E+06    -53.4218E+06    -27.2314E+06    -34.6397E+06     5.50659E+06    -20.6488E+06         44.0371
            1937     14.4257E-03     111.381E-03     383.368E-03    -95.0639E-03    -157.621E-03    -94.4385E-03     382.743E-03    -157.621E-03    -33.8038E-03     172.030E-03    -39.4608E-03    -132.583E-03    -108.068E-03     147.515E-03    -39.4608E-03     165.677E-03     46.0887E+06     14.5184E+06    -35.3202E+06    -15.0811E+06     23.3823E+06     16.9857E+06    -21.1142E+06         48.5650
            1938     15.3226E-03     111.548E-03     372.381E-03    -100.459E-03    -151.758E-03    -99.8254E-03     371.747E-03    -151.758E-03    -32.2582E-03     189.255E-03    -43.7179E-03    -145.568E-03    -115.127E-03     158.814E-03    -43.7179E-03     192.238E-03     100.145E+06     50.3632E+06    -9.69948E+06    -7.30974E+06     97.7556E+06     50.3632E+06    -15.5377E+06         52.5873
            1939     16.2123E-03     111.763E-03     359.652E-03    -97.7058E-03    -146.637E-03    -96.9248E-03     358.871E-03    -146.637E-03     2.54116E-03     182.724E-03    -47.9857E-03    -134.826E-03    -116.291E-03     164.189E-03    -47.9857E-03     130.348E-03     118.888E+06     86.6229E+06    -5.58602E+06    -4.52121E+06     111.122E+06     93.3238E+06    -10.9362E+06         55.6251
            1940     991.151E-06     111.793E-03     519.714E-03    -171.614E-03    -216.390E-03    -174.973E-03     519.568E-03    -212.885E-03    -3.07156E-03     19.0513E-03    -9.30179E-03    -9.75002E-03    -9.46740E-03     18.7687E-03    -9.30179E-03     5.27973E-03     41.8419E+06    -21.7172E+06    -28.0329E+06    -22.2608E+06     39.7440E+06    -25.3915E+06     9.57113E+06         21.5089
            1941     1.98189E-03     111.792E-03     523.774E-03    -178.827E-03    -200.434E-03    -186.498E-03     523.486E-03    -192.475E-03    -19.0605E-03     20.4043E-03    -9.49609E-03    -10.9073E-03    -10.0303E-03     19.5273E-03    -9.49609E-03     10.0300E-03     29.1247E+06    -38.9449E+06    -45.3636E+06    -37.2341E+06     22.0906E+06    -40.0403E+06     20.3059E+06         21.6644
            1942     2.97171E-03     111.791E-03     533.470E-03    -177.795E-03    -194.102E-03    -181.632E-03     532.852E-03    -189.647E-03    -38.0592E-03     22.9367E-03    -9.87409E-03    -13.0627E-03    -11.0846E-03     20.9586E-03    -9.87409E-03     16.1564E-03     7.27029E+06    -49.9298E+06    -68.9706E+06    -53.9873E+06    -7.68276E+06    -49.9600E+06     29.4979E+06         21.9781
            1943     3.95997E-03     111.793E-03     512.538E-03    -162.432E-03    -185.225E-03    -160.747E-03     510.853E-03    -185.225E-03    -59.2436E-03     26.7116E-03    -10.4136E-03    -16.2978E-03    -12.5945E-03     23.0083E-03    -10.4136E-03     23.9124E-03    -14.6208E+06    -57.0618E+06    -89.5645E+06    -67.5371E+06    -36.6482E+06    -57.0618E+06     33.7761E+06         22.4915
            1944     4.94680E-03     111.799E-03     494.485E-03    -155.246E-03    -179.511E-03    -153.855E-03     493.094E-03    -179.511E-03    -48.9357E-03     31.9863E-03    -11.1307E-03    -20.8584E-03    -14.7809E-03     25.9088E-03    -11.1307E-03     33.5540E-03    -30.6075E+06    -56.4744E+06    -99.2059E+06    -74.6337E+06    -55.1796E+06    -56.4744E+06     32.6089E+06         23.2269
            1945     5.93073E-03     111.811E-03     491.086E-03    -162.542E-03    -176.131E-03    -162.950E-03     491.017E-03    -175.654E-03    -13.2696E-03     38.9074E-03    -12.0642E-03    -26.8543E-03    -17.8729E-03     29.9260E-03    -12.0642E-03     45.0423E-03    -39.1112E+06    -48.3586E+06    -94.6599E+06    -74.7221E+06    -60.1646E+06    -47.2430E+06     25.7822E+06         24.2021
            1946     6.91129E-03     111.832E-03     489.091E-03    -164.785E-03    -177.235E-03    -166.849E-03     487.597E-03    -173.677E-03    -47.9311E-03     47.6995E-03    -13.2407E-03    -34.4602E-03    -22.0808E-03     35.3200E-03    -13.2407E-03     58.6756E-03    -34.6690E+06    -48.8242E+06    -81.9157E+06    -70.8687E+06    -59.6366E+06    -34.9036E+06     15.3087E+06         25.4317
            1947     7.88748E-03     111.865E-03     478.339E-03    -154.428E-03    -174.687E-03    -155.896E-03     476.726E-03    -171.606E-03    -46.8741E-03     58.4483E-03    -14.7147E-03    -43.7200E-03    -27.7581E-03     42.4864E-03    -14.7147E-03     74.0997E-03    -21.8292E+06    -54.4075E+06    -69.9855E+06    -65.9288E+06    -58.4642E+06    -21.8292E+06     5.39076E+06         26.9259
            1948     8.85762E-03     111.911E-03     468.252E-03    -149.976E-03    -168.741E-03    -148.556E-03     466.832E-03    -168.741E-03    -44.1985E-03     71.1638E-03    -16.5412E-03    -54.6151E-03    -35.2035E-03     51.7523E-03    -16.5412E-03     90.7821E-03    -8.62651E+06    -50.1644E+06    -62.4567E+06    -58.1211E+06       -54.5E+06    -8.62651E+06    -3.24378E+06         28.6918
            1949     9.82052E-03     111.973E-03     453.814E-03    -141.074E-03    -165.329E-03    -138.909E-03     451.648E-03    -165.329E-03    -71.2084E-03     86.6553E-03    -18.7714E-03    -67.8862E-03    -44.7873E-03     63.5565E-03    -18.7714E-03     110.091E-03     2.06640E+06    -40.6210E+06    -61.3525E+06    -48.9573E+06    -53.0162E+06     2.06640E+06    -10.0101E+06         30.7325
            1950     10.7734E-03     112.054E-03     430.920E-03    -125.668E-03    -161.149E-03    -124.411E-03     429.663E-03    -161.149E-03    -51.6234E-03     103.530E-03    -21.4562E-03    -82.0781E-03    -56.7131E-03     78.1649E-03    -21.4562E-03     127.298E-03     8.66341E+06    -30.9460E+06    -60.7558E+06    -42.0561E+06    -49.6457E+06     8.66341E+06    -14.2926E+06         33.1658
            1951     11.7159E-03     112.150E-03     410.577E-03    -117.578E-03    -156.392E-03    -116.673E-03     409.672E-03    -156.392E-03    -43.2324E-03     120.674E-03    -24.6382E-03    -96.0271E-03    -70.2298E-03     94.8762E-03    -24.6382E-03     140.154E-03     11.2389E+06    -23.0258E+06    -54.9692E+06    -35.8322E+06    -42.1628E+06     11.2389E+06    -15.4745E+06         36.2083
            1952     12.6443E-03     112.261E-03     389.939E-03    -107.046E-03    -151.251E-03    -105.849E-03     388.742E-03    -151.251E-03    -47.9388E-03     139.833E-03    -28.3637E-03    -111.462E-03    -85.1119E-03     113.482E-03    -28.3637E-03     153.785E-03     19.0882E+06    -9.93895E+06    -43.5626E+06    -28.5762E+06    -24.9253E+06     19.0882E+06    -16.0508E+06         39.9331
            1953     13.5601E-03     112.392E-03     372.004E-03    -99.2512E-03    -145.757E-03    -98.4619E-03     371.215E-03    -145.757E-03    -32.9644E-03     162.090E-03    -32.5328E-03    -129.568E-03    -101.986E-03     134.508E-03    -32.5328E-03     170.497E-03     20.5669E+06    -2.05183E+06    -48.2486E+06    -23.5252E+06    -17.6056E+06     11.3973E+06    -26.5038E+06         44.2892
            1954     14.4601E-03     112.551E-03     352.279E-03    -96.7045E-03    -140.278E-03    -96.0146E-03     351.589E-03    -140.278E-03    -30.1809E-03     182.602E-03    -37.1515E-03    -145.460E-03    -116.844E-03     153.986E-03    -37.1515E-03     185.014E-03     44.3750E+06     14.6070E+06    -42.9091E+06    -17.8106E+06     19.2765E+06     14.6070E+06    -32.8268E+06         48.8631
            1955     15.3481E-03     112.725E-03     329.745E-03    -92.4485E-03    -134.807E-03    -91.8482E-03     329.145E-03    -134.807E-03    -24.0748E-03     201.765E-03    -42.0824E-03    -159.698E-03    -126.878E-03     168.945E-03    -42.0824E-03     207.548E-03     89.9773E+06     48.5305E+06    -15.0753E+06    -8.28482E+06     83.1868E+06     48.5305E+06    -19.8664E+06         52.8644
            1956     16.2289E-03     112.962E-03     300.636E-03    -76.5573E-03    -129.508E-03    -74.2260E-03     298.305E-03    -129.508E-03    -17.6025E-03     197.931E-03    -47.1421E-03    -150.822E-03    -131.429E-03     178.538E-03    -47.1421E-03     137.225E-03     117.437E+06     83.1759E+06    -3.68221E+06    -3.08207E+06     103.424E+06     96.5886E+06    -7.07441E+06         55.8789
            1957     995.439E-06     112.805E-03     451.220E-03    -140.237E-03    -173.946E-03    -169.439E-03     449.615E-03    -143.138E-03     42.8780E-03     9.88695E-03    -4.73896E-03    -5.14811E-03    -4.91803E-03     9.65687E-03    -4.73896E-03     3.44215E-03     16.8011E+06    -70.4619E+06    -85.7129E+06    -79.4501E+06     10.7386E+06    -70.6622E+06     22.1606E+06         20.8346
            1958     1.99071E-03     112.806E-03     500.398E-03    -162.116E-03    -187.597E-03    -185.525E-03     498.326E-03    -162.116E-03     37.5508E-03     11.4613E-03    -5.06079E-03    -6.40027E-03    -5.66075E-03     10.7218E-03    -5.06079E-03     6.94621E-03     9.81028E+06    -72.8070E+06    -99.3064E+06    -86.1842E+06    -3.11163E+06    -73.0073E+06     34.6575E+06         21.0446
            1959     2.98454E-03     112.806E-03     483.788E-03    -156.385E-03    -171.960E-03    -160.481E-03     482.757E-03    -166.833E-03     19.2199E-03     14.1647E-03    -5.52705E-03    -8.63720E-03    -6.86298E-03     12.3905E-03    -5.52705E-03     12.0487E-03    -5.06473E+06    -72.3676E+06    -109.697E+06    -88.7202E+06    -26.0410E+06    -72.3676E+06     41.3385E+06         21.4307
            1960     3.97715E-03     112.812E-03     465.987E-03    -142.627E-03    -166.493E-03    -144.738E-03     464.895E-03    -163.291E-03     8.56157E-03     18.3004E-03    -6.13804E-03    -12.1607E-03    -8.59851E-03     14.7382E-03    -6.13804E-03     19.4355E-03    -20.0196E+06    -70.0412E+06    -113.091E+06    -86.9119E+06    -46.1985E+06    -70.0412E+06     41.5724E+06         22.0175
            1961     4.96741E-03     112.820E-03     458.033E-03    -139.922E-03    -164.673E-03    -144.623E-03     457.309E-03    -159.248E-03    -12.1953E-03     24.1785E-03    -6.93605E-03    -17.2451E-03    -11.1059E-03     18.0394E-03    -6.93605E-03     29.3253E-03    -31.3762E+06    -62.8716E+06    -107.671E+06    -82.9278E+06    -56.1198E+06    -62.8716E+06     35.6229E+06         22.8233
            1962     5.95512E-03     112.838E-03     447.417E-03    -140.478E-03    -158.498E-03    -142.246E-03     446.962E-03    -156.275E-03    -25.5633E-03     31.6848E-03    -7.94884E-03    -23.7417E-03    -14.4027E-03     22.3458E-03    -7.94884E-03     41.4013E-03    -36.9587E+06    -50.8399E+06    -93.0080E+06    -76.8293E+06    -53.1375E+06    -50.8399E+06     25.1364E+06         23.8652
            1963     6.93922E-03     112.864E-03     449.578E-03    -147.258E-03    -157.272E-03    -148.240E-03     447.479E-03    -154.191E-03    -62.8021E-03     41.2594E-03    -9.21490E-03    -32.0491E-03    -18.7805E-03     27.9908E-03    -9.21490E-03     56.3620E-03    -32.7248E+06    -45.9038E+06    -77.2368E+06    -69.4465E+06    -50.3767E+06    -36.0422E+06     13.8559E+06         25.1574
            1964     7.91877E-03     112.905E-03     444.300E-03    -144.686E-03    -155.679E-03    -145.933E-03     442.466E-03    -152.598E-03    -56.4403E-03     53.1149E-03    -10.7714E-03    -42.3385E-03    -24.7372E-03     35.5135E-03    -10.7714E-03     73.9387E-03    -21.4116E+06    -46.0074E+06    -64.1560E+06    -61.4622E+06    -48.7012E+06    -21.4116E+06     3.49132E+06         26.7118
            1965     8.89189E-03     112.960E-03     424.202E-03    -130.409E-03    -149.983E-03    -129.539E-03     423.331E-03    -149.983E-03    -33.8808E-03     67.1093E-03    -12.6630E-03    -54.4392E-03    -32.4864E-03     45.1565E-03    -12.6630E-03     93.4014E-03    -10.0414E+06    -40.3747E+06    -58.8558E+06    -54.5901E+06    -44.6404E+06    -10.0414E+06    -6.17070E+06         28.5373
            1966     9.85755E-03     113.035E-03     413.500E-03    -124.412E-03    -146.228E-03    -123.122E-03     412.210E-03    -146.228E-03    -44.4457E-03     84.5460E-03    -14.9864E-03    -69.5502E-03    -42.8146E-03     57.8105E-03    -14.9864E-03     116.575E-03    -495.359E+03    -32.7857E+06    -60.8911E+06    -47.5332E+06    -46.1436E+06    -495.359E+03    -13.5649E+06         30.6390
            1967     10.8137E-03     113.133E-03     394.598E-03    -114.990E-03    -141.928E-03    -114.287E-03     393.896E-03    -141.928E-03    -28.9545E-03     103.649E-03    -17.8163E-03    -85.8143E-03    -55.9356E-03     73.7702E-03    -17.8163E-03     137.852E-03     8.44149E+06    -23.6300E+06    -59.6682E+06    -39.2806E+06    -44.0176E+06     8.44149E+06    -17.7040E+06         33.1370
            1968     11.7556E-03     113.248E-03     365.310E-03    -97.4947E-03    -136.835E-03    -96.5025E-03     364.317E-03    -136.835E-03    -32.9805E-03     122.813E-03    -21.2038E-03    -101.614E-03    -70.8186E-03     92.0177E-03    -21.2038E-03     154.163E-03     13.5105E+06    -13.5472E+06      -56.04E+06    -29.7476E+06    -39.8397E+06     13.5105E+06    -20.5280E+06         36.2498
            1969     12.6857E-03     113.379E-03     344.629E-03    -90.7842E-03    -131.165E-03    -89.6732E-03     343.518E-03    -131.165E-03    -40.6414E-03     145.137E-03    -25.1805E-03    -119.972E-03    -87.7470E-03     112.912E-03    -25.1805E-03     173.005E-03     22.8190E+06     3.00471E+06    -42.8255E+06    -19.1418E+06    -20.6790E+06     22.8190E+06    -21.9383E+06         40.0502
            1970     13.5990E-03     113.538E-03     333.997E-03    -96.9517E-03    -125.758E-03    -96.6836E-03     333.729E-03    -125.758E-03    -14.6761E-03     170.472E-03    -29.6893E-03    -140.792E-03    -106.773E-03     136.452E-03    -29.6893E-03     193.985E-03     27.3880E+06     14.6101E+06    -32.4692E+06    -13.4886E+06     270.557E+03     22.7468E+06    -24.8935E+06         44.4823
            1971     14.4966E-03     113.721E-03     322.774E-03    -100.350E-03    -120.877E-03    -99.5561E-03     321.980E-03    -120.877E-03    -25.2976E-03     193.041E-03    -34.7440E-03    -158.305E-03    -124.498E-03     159.234E-03    -34.7440E-03     206.963E-03     40.4949E+06     20.1968E+06    -34.6950E+06    -17.1073E+06     22.9072E+06     20.1968E+06    -30.1053E+06         49.0942
            1972     15.3781E-03     113.920E-03     294.771E-03    -86.9701E-03    -115.750E-03    -86.1535E-03     293.954E-03    -115.750E-03    -21.4950E-03     215.825E-03    -40.2960E-03    -175.504E-03    -139.584E-03     179.905E-03    -40.2960E-03     225.921E-03     73.4545E+06     44.0978E+06    -30.2923E+06    -20.6282E+06     63.7904E+06     44.0978E+06    -26.2113E+06         53.0753
            1973     16.2470E-03     114.172E-03     264.245E-03    -69.7457E-03    -110.590E-03    -67.5760E-03     262.075E-03    -110.590E-03    -27.7857E-03     215.122E-03    -46.1850E-03    -168.889E-03    -148.607E-03     194.840E-03    -46.1850E-03     144.798E-03     108.503E+06     76.5017E+06    -16.1966E+06    -13.5454E+06     87.5502E+06     94.8034E+06    -12.3707E+06         56.0681
            1974     998.310E-06     113.813E-03     427.244E-03    -104.500E-03    -161.053E-03    -129.621E-03     425.061E-03    -133.749E-03     39.5762E-03     4.67437E-03    -2.18102E-03    -2.49334E-03    -2.32597E-03     4.50782E-03    -2.18184E-03     1.96498E-03    -24.2871E+06    -108.209E+06    -129.967E+06    -117.073E+06    -36.3238E+06    -109.066E+06     31.8627E+06         20.4262
            1975     1.99510E-03     113.813E-03     421.275E-03    -120.631E-03    -149.930E-03    -134.378E-03     417.309E-03    -132.216E-03     8.08030E-03     6.15695E-03    -2.51066E-03    -3.64701E-03    -3.02077E-03     5.53072E-03    -2.51066E-03     4.66478E-03    -11.9877E+06    -93.8991E+06    -131.877E+06    -112.319E+06    -31.5454E+06    -93.8991E+06     43.2094E+06         20.6579
            1976     2.99168E-03     113.817E-03     403.705E-03    -127.216E-03    -134.372E-03    -126.810E-03     400.768E-03    -131.842E-03    -9.62794E-03     8.68837E-03    -2.92489E-03    -5.76395E-03    -4.13600E-03     7.06042E-03    -2.92489E-03     9.01480E-03    -19.0986E+06    -89.4669E+06    -129.272E+06    -106.747E+06    -41.6242E+06    -89.4669E+06     44.1561E+06         21.0762
            1977     3.98691E-03     113.821E-03     411.192E-03    -126.886E-03    -142.801E-03    -137.138E-03     410.155E-03    -131.512E-03     9.80255E-03     12.8271E-03    -3.49088E-03    -9.33448E-03    -5.90147E-03     9.39410E-03    -3.49088E-03     15.9479E-03    -28.7537E+06    -84.3058E+06    -122.139E+06    -99.4075E+06    -51.4856E+06    -84.3058E+06     39.3731E+06         21.6983
            1978     4.98035E-03     113.835E-03     432.377E-03    -133.920E-03    -154.859E-03    -154.444E-03     431.962E-03    -133.920E-03    -4.70811E-03     18.7050E-03    -4.25425E-03    -14.4507E-03    -8.31273E-03     12.5670E-03    -4.25425E-03     25.6826E-03    -34.3238E+06    -72.3634E+06    -103.428E+06    -86.6482E+06    -51.1035E+06    -72.3634E+06     28.4274E+06         22.5396
            1979     5.97075E-03     113.856E-03     424.615E-03    -131.659E-03    -148.190E-03    -143.243E-03     424.076E-03    -136.067E-03    -27.5605E-03     26.2750E-03    -5.22347E-03    -21.0527E-03    -11.4119E-03     16.6343E-03    -5.22347E-03     38.0556E-03    -37.0094E+06    -55.4541E+06    -79.7590E+06    -70.8109E+06    -45.9576E+06    -55.4541E+06     16.6855E+06         23.6150
            1980     6.95818E-03     113.889E-03     401.242E-03    -121.840E-03    -135.776E-03    -120.891E-03     399.486E-03    -134.969E-03    -51.7196E-03     36.3080E-03    -6.43427E-03    -29.8743E-03    -15.7145E-03     22.1482E-03    -6.43427E-03     54.2099E-03    -33.0743E+06    -42.5317E+06    -63.1899E+06    -57.8517E+06    -43.7493E+06    -37.1950E+06     9.13448E+06         24.9390
            1981     7.94080E-03     113.936E-03     383.255E-03    -110.457E-03    -131.522E-03    -109.073E-03     381.872E-03    -131.522E-03    -38.7476E-03     48.6324E-03    -7.91643E-03    -40.7205E-03    -21.4333E-03     29.3451E-03    -7.91643E-03     73.4384E-03    -21.9465E+06    -37.1713E+06    -54.0456E+06    -51.5112E+06    -39.7057E+06    -21.9465E+06     2.38254E+06         26.5243
            1982     8.91813E-03     114.003E-03     368.520E-03    -103.357E-03    -127.224E-03    -103.236E-03     368.399E-03    -127.224E-03     2.73249E-03     63.5670E-03    -9.73123E-03    -53.8347E-03    -29.1361E-03     38.8684E-03    -9.73123E-03     95.5917E-03     -8.6262E+06    -30.7819E+06    -51.0839E+06    -47.9760E+06    -33.8898E+06     -8.6262E+06    -6.11672E+06         28.3822
            1983     9.88754E-03     114.088E-03     361.769E-03    -106.016E-03    -122.898E-03    -105.861E-03     361.614E-03    -122.898E-03    -556.134E-06     82.8710E-03    -11.9929E-03    -70.8727E-03    -39.9743E-03     51.9725E-03    -11.9929E-03     123.074E-03     1.70280E+06    -23.5786E+06    -56.7788E+06    -43.6847E+06    -36.6726E+06     1.70280E+06    -15.5174E+06         30.5199
            1984     10.8456E-03     114.206E-03     354.964E-03    -107.808E-03    -118.890E-03    -107.464E-03     354.621E-03    -118.890E-03    -15.2865E-03     103.635E-03    -14.7824E-03    -88.8457E-03    -53.5388E-03     68.3283E-03    -14.7824E-03     148.704E-03     9.59179E+06    -13.9940E+06    -59.8912E+06    -36.5439E+06    -37.3413E+06     9.59179E+06    -22.8018E+06         33.0600
            1985     11.7928E-03     114.340E-03     333.710E-03    -97.0928E-03    -114.650E-03    -95.7195E-03     332.337E-03    -114.650E-03    -39.4485E-03     124.702E-03    -18.1702E-03    -106.541E-03    -69.4730E-03     87.6340E-03    -18.1702E-03     169.339E-03     15.8668E+06    -2.25717E+06    -58.8900E+06    -27.1131E+06    -34.0341E+06     15.8668E+06    -27.7481E+06         36.2246
            1986     12.7238E-03     114.496E-03     307.787E-03    -84.2652E-03    -109.701E-03    -82.9525E-03     306.474E-03    -109.701E-03    -42.4382E-03     149.891E-03    -22.2071E-03    -127.700E-03    -88.4457E-03     110.636E-03    -22.2071E-03     193.180E-03     24.1512E+06     12.2535E+06    -48.9006E+06    -18.5926E+06    -18.0545E+06     24.1512E+06    -29.8039E+06         40.0848
            1987     13.6392E-03     114.681E-03     287.922E-03    -83.2188E-03    -104.412E-03    -82.8930E-03     287.596E-03    -104.412E-03    -6.87822E-03     178.310E-03    -26.9081E-03    -151.405E-03    -109.929E-03     136.833E-03    -26.9081E-03     218.365E-03     30.8717E+06     24.8425E+06    -32.0865E+06    -10.7863E+06     3.89885E+06     30.5150E+06    -27.6510E+06         44.5698
            1988     14.5337E-03     114.897E-03     273.325E-03    -85.9597E-03    -99.1728E-03    -85.4283E-03     272.793E-03    -99.1728E-03    -7.31553E-03     204.642E-03    -32.3075E-03    -172.338E-03    -131.819E-03     164.123E-03    -32.3075E-03     233.043E-03     40.5242E+06     30.7207E+06    -18.1192E+06    -6.03208E+06     24.1695E+06     34.9883E+06    -20.8848E+06         49.1963
            1989     15.4092E-03     115.124E-03     248.806E-03    -76.3752E-03    -93.4727E-03    -75.9061E-03     248.337E-03    -93.4727E-03    -12.6494E-03     233.017E-03    -38.4324E-03    -194.571E-03    -153.323E-03     191.769E-03    -38.4324E-03     252.396E-03     69.2607E+06     56.1474E+06    -10.2216E+06    -5.30346E+06     61.4015E+06     59.0885E+06    -15.1043E+06         53.1497
            1990     16.2611E-03     115.410E-03     227.616E-03    -64.8332E-03    -88.0929E-03    -63.5144E-03     226.297E-03    -88.0929E-03     11.7192E-03     235.775E-03    -45.1386E-03    -190.586E-03    -167.874E-03     213.064E-03    -45.1386E-03     160.767E-03     105.920E+06     73.6266E+06    -8.19292E+06    -5.06422E+06     75.4908E+06     100.927E+06    -12.3285E+06         56.1364
            1991     998.282E-06     114.814E-03     427.385E-03    -97.5407E-03    -161.100E-03    -106.177E-03     425.192E-03    -150.271E-03    -36.5637E-03     2.62074E-03    -1.24977E-03    -1.37105E-03    -1.26839E-03     2.52986E-03    -1.26156E-03     1.02856E-03    -73.9751E+06    -169.500E+06    -183.055E+06    -170.111E+06    -81.8552E+06    -174.564E+06     19.2560E+06         20.2558
            1992     1.99739E-03     114.818E-03     338.948E-03    -72.1690E-03    -116.789E-03    -70.2570E-03     336.845E-03    -116.598E-03    -42.1928E-03     3.42992E-03    -1.36970E-03    -2.06047E-03    -1.61102E-03     2.98247E-03    -1.37170E-03     2.90060E-03    -43.1790E+06    -139.819E+06    -164.358E+06    -143.730E+06    -56.2699E+06    -147.357E+06     29.7471E+06         20.4778
            1993     2.99516E-03     114.821E-03     355.197E-03    -96.2251E-03    -120.999E-03    -109.556E-03     353.116E-03    -105.588E-03    -37.5999E-03     5.79990E-03    -1.67300E-03    -4.12808E-03    -2.61617E-03     4.28799E-03    -1.67300E-03     7.06826E-03    -37.8704E+06    -112.329E+06    -139.263E+06    -116.614E+06    -52.0253E+06    -120.823E+06     30.7792E+06         20.8957
            1994     3.99158E-03     114.830E-03     376.354E-03    -108.852E-03    -132.121E-03    -130.907E-03     375.140E-03    -108.852E-03    -35.3385E-03     10.0573E-03    -2.17868E-03    -7.87815E-03    -4.34885E-03     6.52804E-03    -2.17868E-03     14.2133E-03    -39.5530E+06    -88.4006E+06    -114.447E+06    -93.1303E+06    -51.9165E+06    -97.3537E+06     25.1763E+06         21.5232
            1995     4.98583E-03     114.845E-03     367.931E-03    -101.289E-03    -129.007E-03    -117.459E-03     366.957E-03    -111.864E-03    -31.5858E-03     15.7292E-03    -2.85605E-03    -12.8720E-03    -6.54854E-03     9.40581E-03    -2.85605E-03     23.7024E-03    -37.1555E+06    -72.7457E+06    -90.7143E+06    -76.8199E+06    -43.8111E+06    -79.9845E+06     15.8822E+06         22.3703
            1996     5.97884E-03     114.870E-03     368.514E-03    -101.417E-03    -125.312E-03    -114.502E-03     368.279E-03    -111.992E-03    -1.34283E-03     23.0175E-03    -3.72995E-03    -19.2863E-03    -9.37471E-03     13.1059E-03    -3.72995E-03     35.8143E-03    -38.3285E+06    -62.5962E+06    -74.8596E+06    -69.8848E+06    -40.7938E+06    -65.1056E+06     8.52090E+06         23.4488
            1997     6.96862E-03     114.907E-03     359.674E-03    -102.399E-03    -116.997E-03    -107.150E-03     358.302E-03    -110.874E-03    -26.3332E-03     32.8143E-03    -4.81305E-03    -28.0040E-03    -13.1683E-03     17.9785E-03    -4.81305E-03     52.2013E-03    -35.2861E+06    -51.0359E+06    -69.2076E+06    -66.0984E+06    -39.3506E+06    -50.0806E+06     3.41266E+06         24.7724
            1998     7.95453E-03     114.963E-03     329.064E-03    -81.8505E-03    -109.518E-03    -81.9932E-03     327.310E-03    -107.621E-03    -45.4204E-03     45.0504E-03    -6.13765E-03    -38.9171E-03    -18.2497E-03     24.3830E-03    -6.13765E-03     72.2867E-03    -22.0913E+06    -36.0930E+06    -59.6067E+06    -55.8636E+06    -30.9770E+06    -30.9504E+06    -3.87594E+06         26.3563
            1999     8.93526E-03     115.036E-03     310.309E-03    -77.3942E-03    -102.829E-03    -76.0636E-03     308.979E-03    -102.829E-03    -21.6145E-03     60.7190E-03    -7.79067E-03    -52.9359E-03    -25.6967E-03     33.4799E-03    -7.79067E-03     96.9557E-03    -5.70711E+06    -21.8279E+06    -48.5725E+06    -41.1211E+06    -25.7388E+06    -9.24760E+06    -10.9259E+06         28.2143
            2000     9.90846E-03     115.138E-03     309.795E-03    -88.8059E-03    -99.0339E-03    -88.3380E-03     308.912E-03    -98.6186E-03    -13.6711E-03     81.0854E-03    -9.86933E-03    -71.2230E-03    -36.2429E-03     46.1053E-03    -9.86933E-03     128.009E-03     7.16931E+06    -13.2505E+06    -45.9687E+06    -31.8872E+06    -27.3319E+06     7.16931E+06    -15.4105E+06         30.3570
            2001     10.8724E-03     115.269E-03     308.503E-03    -93.4121E-03    -97.4754E-03    -93.8177E-03     306.679E-03    -95.2457E-03    -38.9053E-03     103.060E-03    -12.4585E-03    -90.5927E-03    -49.7433E-03     62.2104E-03    -12.4585E-03     157.768E-03     15.8303E+06    -5.66047E+06    -50.6289E+06    -29.6293E+06    -26.6601E+06     15.8303E+06    -22.3345E+06         32.9116
            2002     11.8230E-03     115.425E-03     294.115E-03    -89.7428E-03    -93.5618E-03    -88.1365E-03     290.694E-03    -91.7474E-03    -67.5094E-03     126.217E-03    -15.6816E-03    -110.525E-03    -66.8555E-03     82.5469E-03    -15.6816E-03     183.319E-03     20.9203E+06     3.93425E+06    -57.4295E+06    -28.9885E+06    -24.5068E+06     20.9203E+06    -30.3407E+06         36.1007
            2003     12.7587E-03     115.606E-03     268.895E-03    -79.4045E-03    -88.4448E-03    -78.1876E-03     266.720E-03    -87.4866E-03    -51.1994E-03     153.770E-03    -19.6420E-03    -134.124E-03    -87.7526E-03     107.399E-03    -19.6420E-03     211.382E-03     26.6883E+06     16.0194E+06    -55.9799E+06    -26.1855E+06    -13.7749E+06     26.6883E+06    -35.1111E+06         39.9934
            2004     13.6749E-03     115.823E-03     237.639E-03    -63.0094E-03    -83.1294E-03    -63.3436E-03     237.015E-03    -82.1712E-03    -12.0372E-03     184.871E-03    -24.3964E-03    -160.477E-03    -111.621E-03     136.015E-03    -24.3964E-03     240.417E-03     33.0726E+06     23.4215E+06    -46.9602E+06    -22.4392E+06    -1.09962E+06     33.0726E+06    -33.3863E+06         44.4972
            2005     14.5729E-03     116.072E-03     208.910E-03    -53.9244E-03    -75.8981E-03    -53.1338E-03     208.119E-03    -75.8981E-03    -5.92556E-03     215.799E-03    -30.0072E-03    -185.793E-03    -137.971E-03     167.976E-03    -30.0072E-03     259.585E-03     42.1714E+06     31.3780E+06    -32.2554E+06    -16.0492E+06     15.1717E+06     42.1714E+06    -27.2120E+06         49.1025
            2006     15.4419E-03     116.343E-03     193.415E-03    -52.2179E-03    -69.0792E-03    -51.1394E-03     192.336E-03    -69.0792E-03    -22.1318E-03     250.009E-03    -36.5764E-03    -213.431E-03    -165.959E-03     202.537E-03    -36.5764E-03     280.920E-03     67.1927E+06     62.4196E+06    -13.5204E+06    -4.79010E+06     54.1732E+06     66.7088E+06    -19.2493E+06         53.0128
            2007     16.2903E-03     116.665E-03     180.115E-03    -50.4363E-03    -63.3218E-03    -47.8168E-03     177.495E-03    -63.3218E-03    -6.50454E-03     257.007E-03    -44.0911E-03    -212.929E-03    -187.391E-03     231.469E-03    -44.0911E-03     178.646E-03     108.856E+06     69.0538E+06    -4.32746E+06     909.010E+03     64.3013E+06     108.372E+06    -6.23739E+06         55.9787
            2008     998.075E-06     115.819E-03     347.932E-03    -67.3897E-03    -119.180E-03    -93.1257E-03     345.358E-03    -90.8709E-03    -62.1762E-03     3.25834E-03    -1.59717E-03    -1.66124E-03    -1.57871E-03     3.23987E-03    -1.66124E-03     309.795E-06    -96.1404E+06    -199.346E+06    -206.396E+06    -201.333E+06    -96.9961E+06    -203.553E+06    -2.74530E+06         20.2936
            2009     1.99581E-03     115.819E-03     315.218E-03    -55.3831E-03    -106.916E-03    -73.6786E-03     314.824E-03    -88.2268E-03    -14.5819E-03     3.43417E-03    -1.61067E-03    -1.82353E-03    -1.63108E-03     3.27389E-03    -1.64285E-03     1.27314E-03    -65.7016E+06    -173.971E+06    -187.497E+06    -177.165E+06    -68.4963E+06    -181.508E+06    -2.13060E+06         20.4892
            2010     2.99454E-03     115.825E-03     324.751E-03    -76.0824E-03    -105.175E-03    -94.9009E-03     324.337E-03    -85.9426E-03     14.4534E-03     4.93217E-03    -1.77990E-03    -3.15190E-03    -2.25535E-03     4.03562E-03    -1.77990E-03     4.61141E-03    -52.2880E+06    -146.788E+06    -158.709E+06    -146.545E+06    -55.8516E+06    -155.388E+06    -324.128E+03         20.8820
            2011     3.99210E-03     115.834E-03     332.740E-03    -88.4627E-03    -105.149E-03    -103.431E-03     331.519E-03    -88.9604E-03    -4.19465E-03     8.32498E-03    -2.06819E-03    -6.25757E-03    -3.58630E-03     5.65372E-03    -2.06819E-03     11.0858E-03     -43.838E+06    -121.997E+06    -136.836E+06    -117.008E+06    -48.8267E+06    -136.836E+06    -3.01044E+06         21.4909
            2012     4.98827E-03     115.854E-03     305.583E-03    -78.3367E-03    -91.9803E-03    -80.1282E-03     304.740E-03    -89.3456E-03    -19.2088E-03     13.4517E-03    -2.54723E-03    -10.9060E-03    -5.50256E-03     8.04829E-03    -2.54723E-03     20.1859E-03    -35.0592E+06    -96.3461E+06    -120.445E+06    -91.6635E+06    -39.7419E+06    -120.445E+06    -5.25136E+06         22.3177
            2013     5.98115E-03     115.881E-03     287.997E-03    -67.7359E-03    -89.8041E-03    -70.6489E-03     287.490E-03    -86.3846E-03    -4.86470E-03     20.7340E-03    -3.31075E-03    -17.4249E-03    -8.14680E-03     11.4559E-03    -3.31075E-03     32.7241E-03    -32.8997E+06    -73.7750E+06    -96.0227E+06    -70.4237E+06    -40.2356E+06    -92.0380E+06    -4.24954E+06         23.3713
            2014     6.97145E-03     115.924E-03     299.586E-03    -76.2890E-03    -93.2721E-03    -83.1783E-03     297.132E-03    -83.9288E-03    -40.7812E-03     30.4418E-03    -4.29866E-03    -26.1504E-03    -11.5881E-03     15.8794E-03    -4.29866E-03     49.4733E-03    -25.5676E+06    -51.6842E+06    -71.4087E+06    -53.8756E+06    -35.0038E+06    -59.7811E+06    -5.16778E+06         24.6623
            2015     7.95927E-03     115.983E-03     299.510E-03    -75.2046E-03    -97.7482E-03    -87.3168E-03     296.508E-03    -82.6339E-03    -65.4878E-03     42.4894E-03    -5.48147E-03    -37.0095E-03    -16.1918E-03     21.6717E-03    -5.48147E-03     69.9021E-03    -16.4012E+06    -30.7856E+06    -55.3443E+06    -45.7354E+06    -22.5867E+06    -34.2089E+06    -10.1329E+06         26.2048
            2016     8.94287E-03     116.066E-03     275.701E-03    -66.7077E-03    -89.8953E-03    -73.7380E-03     273.541E-03    -80.7048E-03    -54.6087E-03     58.1322E-03    -6.94954E-03    -51.1841E-03    -22.8459E-03     29.7939E-03    -6.94954E-03     95.7940E-03    -9.51999E+06    -17.8965E+06    -54.5810E+06    -45.8449E+06    -21.0314E+06    -15.1212E+06    -14.0669E+06         28.0214
            2017     9.91974E-03     116.176E-03     256.626E-03    -61.1014E-03    -77.6890E-03    -60.0978E-03     255.208E-03    -77.2737E-03    -38.6329E-03     78.5270E-03    -8.77572E-03    -69.7500E-03    -32.2219E-03     40.9989E-03    -8.77572E-03     128.890E-03     4.03298E+06    -6.28392E+06    -55.6464E+06    -41.9826E+06    -18.5670E+06     2.65231E+06    -19.7504E+06         30.1311
            2018     10.8882E-03     116.324E-03     250.006E-03    -60.8277E-03    -75.1866E-03    -60.9521E-03     247.901E-03    -72.9569E-03    -44.3047E-03     101.536E-03    -11.0869E-03    -90.4367E-03    -45.4845E-03     56.5841E-03    -11.0869E-03     162.406E-03     20.0392E+06     1.63597E+06    -50.8088E+06    -30.7339E+06    -17.5546E+06     19.1549E+06    -25.2992E+06         32.6636
            2019     11.8449E-03     116.500E-03     242.670E-03    -64.8520E-03    -71.5560E-03    -64.9198E-03     239.568E-03    -68.3861E-03    -56.9017E-03     126.455E-03    -14.0531E-03    -112.392E-03    -63.3021E-03     77.3660E-03    -14.0531E-03     192.753E-03     30.3543E+06     8.04958E+06    -47.3606E+06    -22.5457E+06    -16.7653E+06     30.3543E+06    -27.3552E+06         35.8422
            2020     12.7833E-03     116.709E-03     227.179E-03    -62.4828E-03    -69.4231E-03    -66.6262E-03     225.391E-03    -63.4921E-03    -29.8460E-03     156.494E-03    -17.8353E-03    -138.648E-03    -86.0585E-03     103.905E-03    -17.8353E-03     225.586E-03     38.8735E+06     18.2342E+06    -45.9911E+06    -22.6287E+06    -5.12827E+06     38.8735E+06    -30.1554E+06         39.7255
            2021     13.7041E-03     116.955E-03     202.017E-03    -48.6140E-03    -67.8028E-03    -58.0197E-03     201.447E-03    -57.8274E-03    -322.722E-06     190.857E-03    -22.5730E-03    -168.273E-03    -113.567E-03     136.150E-03    -22.5730E-03     257.732E-03     45.6461E+06     25.2964E+06    -46.6429E+06    -21.3471E+06         619.531     45.6461E+06    -33.4343E+06         44.1904
            2022     14.5992E-03     117.246E-03     175.108E-03    -37.0473E-03    -62.5093E-03    -47.4705E-03     174.309E-03    -51.2876E-03    -4.75936E-03     224.727E-03    -28.3101E-03    -196.408E-03    -142.927E-03     171.246E-03    -28.3101E-03     279.982E-03     53.7032E+06     32.8878E+06    -38.2897E+06    -14.7932E+06     9.39143E+06     53.7032E+06    -32.4371E+06         48.7196
            2023     15.4694E-03     117.564E-03     152.422E-03    -34.3272E-03    -54.4593E-03    -43.4978E-03     151.300E-03    -44.1664E-03    -20.6026E-03     266.336E-03    -35.1447E-03    -231.186E-03    -177.070E-03     212.220E-03    -35.1447E-03     309.574E-03      66.724E+06     52.3311E+06    -24.0451E+06    -12.4426E+06     41.0999E+06     66.3526E+06    -22.1014E+06         52.5495
            2024     16.2973E-03     117.943E-03     131.967E-03    -32.1356E-03    -47.4226E-03    -39.7705E-03     130.382E-03    -38.2028E-03    -20.6561E-03     276.812E-03    -43.2695E-03    -233.594E-03    -204.092E-03     247.310E-03    -43.2695E-03     201.583E-03     106.482E+06     52.2304E+06    -16.8888E+06    -11.7900E+06     47.5030E+06     106.110E+06    -6.01564E+06         55.4295
            2025     996.456E-06     116.821E-03     241.165E-03    -9.61652E-03    -70.3807E-03    -66.2017E-03     236.986E-03    -9.61652E-03    -66.5856E-03     6.25559E-03    -3.07821E-03    -3.17723E-03    -3.10553E-03     6.24788E-03    -3.14220E-03    -422.114E-06    -79.4687E+06    -155.418E+06    -161.483E+06    -158.625E+06    -81.7242E+06    -156.020E+06    -12.3503E+06         20.5236
            2026     1.99342E-03     116.825E-03     301.170E-03    -49.4576E-03    -98.5065E-03    -96.0669E-03     298.730E-03    -49.4576E-03    -33.4061E-03     6.65820E-03    -3.19436E-03    -3.46363E-03    -3.41483E-03     6.63957E-03    -3.22454E-03     51.4330E-06    -60.6144E+06    -145.447E+06    -158.262E+06    -154.535E+06    -64.3413E+06    -145.447E+06    -18.4165E+06         20.6875
            2027     2.98920E-03     116.829E-03     278.660E-03    -52.2750E-03    -78.7720E-03    -68.4495E-03     278.059E-03    -61.9969E-03     21.7413E-03     7.64980E-03    -3.41574E-03    -4.23349E-03    -4.01530E-03     7.43162E-03    -3.41574E-03     2.07043E-03    -45.8957E+06    -138.077E+06    -151.921E+06    -146.901E+06    -50.8102E+06    -138.183E+06    -21.0005E+06         21.0398
            2028     3.98512E-03     116.841E-03     253.811E-03    -51.8213E-03    -62.6744E-03    -52.3020E-03     253.161E-03    -61.5432E-03     11.7606E-03     9.40036E-03    -3.65699E-03    -5.74445E-03    -4.72316E-03     8.37907E-03    -3.65699E-03     6.40911E-03    -31.7991E+06    -129.238E+06    -149.132E+06    -135.615E+06    -39.4301E+06    -135.123E+06    -26.4765E+06         21.6088
            2029     4.98011E-03     116.860E-03     254.811E-03    -59.8054E-03    -65.9602E-03    -65.3028E-03     254.587E-03    -60.2393E-03    -9.98590E-03     12.6350E-03    -3.98115E-03    -8.65557E-03    -5.79309E-03     9.77251E-03    -3.98115E-03     13.6607E-03    -23.3232E+06    -111.998E+06    -147.392E+06    -118.968E+06    -34.8882E+06    -128.858E+06    -31.6932E+06         22.3915
            2030     5.97494E-03     116.892E-03     239.049E-03    -51.3419E-03    -65.2292E-03    -54.9764E-03     236.870E-03    -59.4155E-03     5.60054E-03     18.4712E-03    -4.49528E-03    -13.9768E-03    -7.73200E-03     12.2264E-03    -4.49528E-03     25.0919E-03    -22.0423E+06    -94.3977E+06    -128.895E+06    -95.2125E+06    -39.9716E+06    -110.151E+06    -32.3537E+06         23.3936
            2031     6.96721E-03     116.937E-03     227.852E-03    -49.7243E-03    -63.3662E-03    -52.0190E-03     224.144E-03    -57.3641E-03    -16.6876E-03     27.1503E-03    -5.18278E-03    -21.9684E-03    -10.6474E-03     15.8293E-03    -5.18278E-03     41.1502E-03    -13.0483E+06    -78.9931E+06    -96.1452E+06    -66.4866E+06    -33.5619E+06    -88.1381E+06    -29.8021E+06         24.6223
            2032     7.95524E-03     117.003E-03     246.301E-03    -56.5497E-03    -80.3842E-03    -78.2212E-03     244.138E-03    -56.5497E-03    -39.0698E-03     39.0008E-03    -6.14941E-03    -32.8524E-03    -14.8097E-03     20.9581E-03    -6.14941E-03     62.2571E-03    -8.95732E+06    -51.6867E+06    -62.9062E+06    -42.1948E+06    -25.1973E+06    -56.1582E+06    -21.3299E+06         26.0819
            2033     8.93857E-03     117.091E-03     250.470E-03    -55.5847E-03    -82.9552E-03    -80.7215E-03     249.462E-03    -56.8108E-03    -25.7539E-03     54.7835E-03    -7.45169E-03    -47.3265E-03    -20.8221E-03     28.2790E-03    -7.45169E-03     89.5175E-03    -2.78223E+06    -16.5408E+06    -43.4584E+06    -27.3360E+06    -18.9047E+06    -16.5408E+06    -14.1840E+06         27.7879
            2034     9.91767E-03     117.211E-03     214.537E-03    -39.0461E-03    -61.5646E-03    -43.9590E-03     212.362E-03    -54.4767E-03    -5.62123E-03     75.0988E-03    -9.05157E-03    -66.0338E-03    -29.5352E-03     38.6002E-03    -9.05157E-03     123.586E-03     15.5773E+06     3.05959E+06    -39.3975E+06    -23.2540E+06    -7.44985E+06     9.94327E+06    -17.2637E+06         29.8009
            2035     10.8900E-03     117.370E-03     186.672E-03    -27.1213E-03    -48.8413E-03    -24.3958E-03     183.947E-03    -48.8413E-03     9.61412E-03     98.3730E-03    -11.1082E-03    -87.2641E-03    -41.8278E-03     52.9367E-03    -11.1082E-03     159.554E-03     26.1197E+06     2.81786E+06    -44.2047E+06    -28.4537E+06    -12.0488E+06     25.2353E+06    -22.1362E+06         32.2897
            2036     11.8494E-03     117.568E-03     186.776E-03    -35.1224E-03    -49.5117E-03    -40.7549E-03     185.534E-03    -42.6378E-03    -10.0525E-03     124.252E-03    -13.7711E-03    -110.482E-03    -58.8802E-03     72.6507E-03    -13.7711E-03     194.239E-03     37.2658E+06     10.0393E+06    -50.6623E+06    -31.3312E+06    -9.29186E+06     37.2658E+06    -26.6604E+06         35.4344
            2037     12.7956E-03     117.800E-03     180.015E-03    -37.1699E-03    -54.7409E-03    -53.7067E-03     178.981E-03    -37.1699E-03    -16.4442E-03     157.397E-03    -17.3032E-03    -140.085E-03    -83.7337E-03     101.046E-03    -17.3032E-03     232.809E-03     53.0817E+06     24.5684E+06    -46.4070E+06    -22.0738E+06     235.125E+03     53.0817E+06    -31.0998E+06         39.2327
            2038     13.7163E-03     118.087E-03     160.336E-03    -31.4631E-03    -48.8785E-03    -47.8546E-03     159.313E-03    -31.4631E-03    -6.27200E-03     195.447E-03    -21.9475E-03    -173.493E-03    -115.119E-03     137.073E-03    -21.9475E-03     268.818E-03     64.4303E+06     31.0059E+06    -38.3911E+06    -11.4418E+06     4.05668E+06     64.4303E+06    -32.0912E+06         43.5639
            2039     14.6105E-03     118.414E-03     140.810E-03    -24.9966E-03    -45.8421E-03    -45.5528E-03     140.521E-03    -24.9966E-03     2.60127E-03     230.494E-03    -27.6987E-03    -202.791E-03    -145.445E-03     173.148E-03    -27.6987E-03     293.302E-03     70.1848E+06     30.7321E+06    -33.5026E+06    -10.2560E+06     7.48547E+06     70.1848E+06    -30.1031E+06         47.9389
            2040     15.4795E-03     118.776E-03     119.134E-03    -17.6224E-03    -45.1032E-03    -44.8131E-03     118.844E-03    -17.6224E-03    -4.39562E-03     280.818E-03    -34.4623E-03    -246.353E-03    -182.393E-03     216.858E-03    -34.4623E-03     343.920E-03     69.6935E+06     31.7068E+06    -22.5409E+06    -7.44923E+06     16.6151E+06     69.6935E+06    -17.6111E+06         51.5766
            2041     16.3136E-03     119.245E-03     102.226E-03    -11.1164E-03    -40.4387E-03    -39.2564E-03     101.044E-03    -11.1164E-03     6.10638E-03     296.969E-03    -42.6948E-03    -254.299E-03    -216.034E-03     258.705E-03    -42.6948E-03     242.636E-03     114.486E+06     47.0448E+06    -9.17226E+06     4.25784E+06     33.6147E+06     114.486E+06     997.003E+03         54.2578
            2042     994.829E-06     117.831E-03     184.150E-03     20.4222E-03    -56.2757E-03    -40.5672E-03     168.442E-03     20.4222E-03     22.6688E-03     11.2987E-03    -5.51816E-03    -5.77868E-03    -5.73013E-03     11.2756E-03    -5.54365E-03    -1.22544E-03    -57.6821E+06    -106.156E+06    -112.627E+06    -109.243E+06    -60.4642E+06    -106.758E+06    -11.6212E+06         20.9344
            2043     1.98862E-03     117.832E-03     237.465E-03    -20.3277E-03    -69.7119E-03    -61.9502E-03     229.703E-03    -20.3277E-03    -5.16087E-03     12.5536E-03    -5.87714E-03    -6.67490E-03    -6.64513E-03     12.5238E-03    -5.87714E-03    -1.39465E-03    -43.6565E+06    -100.498E+06    -114.177E+06    -108.147E+06    -49.6867E+06    -100.498E+06    -17.9831E+06         21.0786
            2044     2.98163E-03     117.840E-03     223.213E-03    -22.4966E-03    -49.9254E-03    -39.2644E-03     221.776E-03    -31.7207E-03    -7.79181E-03     14.0593E-03    -6.36964E-03    -7.68816E-03    -7.65154E-03     14.0227E-03    -6.36964E-03    -472.831E-06    -28.0247E+06    -88.4720E+06    -112.086E+06    -102.469E+06    -37.6418E+06    -88.4720E+06    -25.4013E+06         21.3851
            2045     3.97293E-03     117.851E-03     192.945E-03    -19.6211E-03    -34.5304E-03    -22.3441E-03     192.564E-03    -31.4266E-03    -1.10008E-03     15.4511E-03    -6.86819E-03    -8.58018E-03    -8.40523E-03     15.2762E-03    -6.86819E-03     2.11641E-03    -12.6699E+06    -77.2547E+06    -109.222E+06    -96.6225E+06    -25.2691E+06    -77.2547E+06    -32.2164E+06         21.8962
            2046     4.96469E-03     117.872E-03     185.431E-03    -25.4574E-03    -34.3058E-03    -29.1224E-03     184.382E-03    -29.5912E-03    -16.4368E-03     17.3467E-03    -7.34214E-03    -10.0033E-03    -9.22570E-03     16.5691E-03    -7.34214E-03     6.87436E-03    -7.46107E+06    -73.0471E+06    -113.383E+06    -97.1436E+06    -23.7007E+06    -73.0471E+06    -37.8224E+06         22.6124
            2047     5.95504E-03     117.904E-03     186.705E-03    -27.5651E-03    -40.8206E-03    -36.3986E-03     183.835E-03    -29.1175E-03    -354.733E-06     20.5693E-03    -7.82457E-03    -12.7422E-03    -10.3809E-03     18.2081E-03    -7.82457E-03     14.8506E-03    -7.48737E+06    -76.2682E+06    -122.679E+06    -99.9670E+06    -30.1990E+06    -76.2682E+06    -44.9336E+06         23.5368
            2048     6.94437E-03     117.953E-03     177.371E-03    -28.8915E-03    -40.3586E-03    -37.8311E-03     174.844E-03    -28.8915E-03     618.108E-06     25.8822E-03    -8.32800E-03    -17.5502E-03    -11.9505E-03     20.2825E-03    -8.32800E-03     27.3089E-03    -1.44741E+06    -81.4826E+06    -125.880E+06    -97.2642E+06    -29.0148E+06    -82.5307E+06    -50.9085E+06         24.6749
            2049     7.93333E-03     118.020E-03     175.552E-03    -28.3011E-03    -43.5501E-03    -41.2067E-03     173.209E-03    -28.3011E-03     7.05177E-03     34.7878E-03    -9.00903E-03    -25.7722E-03    -14.6028E-03     23.6184E-03    -9.00903E-03     45.8375E-03    -2.11838E+06    -71.8954E+06    -112.982E+06    -80.3743E+06    -33.6784E+06    -72.9435E+06    -48.2663E+06         26.0255
            2050     8.91958E-03     118.116E-03     180.926E-03    -27.1864E-03    -48.7492E-03    -46.3748E-03     178.551E-03    -27.1864E-03     24.3758E-03     48.6908E-03    -9.97710E-03    -38.7079E-03    -19.4209E-03     29.4038E-03    -9.97710E-03     71.9458E-03     5.46676E+06    -42.3275E+06    -82.9215E+06    -51.4009E+06    -26.0538E+06    -42.3275E+06    -37.5180E+06         27.5687
            2051     9.89898E-03     118.242E-03     174.813E-03    -20.2121E-03    -47.3449E-03    -39.9580E-03     172.026E-03    -24.8122E-03     34.6154E-03     68.3164E-03    -11.3252E-03    -56.9866E-03    -27.1699E-03     38.4997E-03    -11.3252E-03     106.535E-03     21.2218E+06    -12.8456E+06    -47.9220E+06    -27.3294E+06    -10.6374E+06    -1.57891E+06    -23.2173E+06         29.4201
            2052     10.8690E-03     118.414E-03     153.022E-03    -11.0365E-03    -37.1763E-03    -24.4583E-03     149.894E-03    -20.6271E-03     35.0766E-03     91.9443E-03    -13.1402E-03    -78.7989E-03    -38.2101E-03     51.3555E-03    -13.1402E-03     145.317E-03     36.1652E+06     1.91364E+06    -26.8618E+06    -15.2408E+06    -9.70734E+06     36.1652E+06    -13.3337E+06         31.8367
            2053     11.8333E-03     118.623E-03     135.238E-03    -10.4158E-03    -29.8738E-03    -23.6147E-03     133.969E-03    -15.4064E-03     4.00744E-03     119.523E-03    -15.5090E-03    -104.011E-03    -55.3224E-03     70.8337E-03    -15.5090E-03     184.330E-03     60.0257E+06     17.0307E+06    -24.7422E+06    -11.8633E+06     4.15176E+06     60.0257E+06    -16.2509E+06         34.9016
            2054     12.7799E-03     118.884E-03     133.163E-03    -10.1570E-03    -40.0898E-03    -38.8162E-03     131.889E-03    -10.1570E-03    -17.5817E-03     154.874E-03    -18.8080E-03    -136.066E-03    -81.6610E-03     100.469E-03    -18.8080E-03     226.521E-03     69.8247E+06     27.8715E+06    -38.2625E+06    -18.4970E+06     8.10603E+06     69.8247E+06    -24.0776E+06         38.5089
            2055     13.7036E-03     119.205E-03     119.712E-03    -4.50175E-03    -39.9070E-03    -38.1636E-03     117.968E-03    -4.50175E-03    -11.4176E-03     193.182E-03    -23.2685E-03    -169.902E-03    -112.019E-03     135.300E-03    -23.2685E-03     265.517E-03     77.8227E+06     30.7148E+06    -48.3833E+06    -28.4220E+06     10.7535E+06     77.8227E+06    -30.0368E+06         42.5442
            2056     14.5994E-03     119.577E-03     97.8188E-03     2.12646E-03    -31.3228E-03    -30.2633E-03     96.7594E-03     2.12646E-03     2.68963E-03     228.101E-03    -28.7223E-03    -199.367E-03    -139.928E-03     168.661E-03    -28.7223E-03     295.567E-03     89.2211E+06     32.7032E+06    -49.0777E+06    -26.3817E+06     10.0073E+06     89.2211E+06    -35.8741E+06         46.6130
            2057     15.4762E-03     119.971E-03     85.6760E-03     10.0680E-03    -27.8077E-03    -27.4215E-03     85.2898E-03     10.0680E-03    -6.69121E-03     285.303E-03    -34.8816E-03    -250.422E-03    -178.180E-03     213.061E-03    -34.8816E-03     365.830E-03     62.6405E+06     11.0805E+06    -49.3487E+06    -20.5006E+06    -17.7677E+06     62.6405E+06    -28.0441E+06         49.9710
            2058     16.3265E-03     120.523E-03     74.4070E-03     17.4829E-03    -31.6503E-03    -28.2001E-03     70.9568E-03     17.4829E-03    -7.76464E-03     308.663E-03    -42.6106E-03    -266.057E-03    -217.662E-03     260.268E-03    -42.6106E-03     289.589E-03     96.0905E+06     30.4988E+06    -42.2559E+06    -17.2474E+06     5.49028E+06     96.0905E+06    -10.7806E+06         52.3193
            2059     991.167E-06     118.843E-03     132.922E-03     18.7883E-03    -19.8081E-03     1.64630E-03     113.823E-03     16.4324E-03     95.2026E-03     19.3880E-03    -9.36685E-03    -10.0187E-03    -9.97117E-03     19.3550E-03    -9.38144E-03    -1.84709E-03    -38.0427E+06    -57.8025E+06    -67.5887E+06    -61.9576E+06    -43.6738E+06    -57.8025E+06    -9.25825E+06         21.5399
            2060     1.98099E-03     118.850E-03     141.145E-03     9.34210E-03    -12.2559E-03    -2.79229E-03     134.255E-03     6.76853E-03     15.7071E-03     21.2741E-03    -10.0253E-03    -11.2476E-03    -11.1728E-03     21.1993E-03    -10.0253E-03    -3.08395E-03    -20.8615E+06    -50.5262E+06    -67.8518E+06    -57.5636E+06    -31.1497E+06    -50.5262E+06    -17.6022E+06         21.6806
            2061     2.96901E-03     118.857E-03     144.182E-03     3.81289E-03    -6.43515E-03    -3.17672E-03     141.141E-03     3.59525E-03    -14.9006E-03     23.2858E-03    -10.6901E-03    -12.5868E-03    -12.4899E-03     23.1889E-03    -10.6901E-03    -3.59261E-03    -8.35760E+06    -44.2207E+06     -69.082E+06    -55.2764E+06    -22.1632E+06    -44.2207E+06    -24.7998E+06         21.9445
            2062     3.95662E-03     118.872E-03     136.285E-03     5.06547E-03    -5.98003E-03    -2.06933E-03     134.956E-03     2.48409E-03     11.1034E-03     25.5173E-03    -11.4224E-03    -14.0934E-03    -14.0065E-03     25.4304E-03    -11.4224E-03    -2.85515E-03        -26.9375    -37.5916E+06     -70.653E+06    -56.2938E+06    -14.3592E+06    -37.5916E+06    -27.7648E+06         22.3847
            2063     4.94157E-03     118.893E-03     126.523E-03     6.18345E-03    -10.1517E-03    -4.81436E-03     125.320E-03     2.04961E-03     65.6024E-06     27.9489E-03    -12.2313E-03    -15.7275E-03    -15.6201E-03     27.8415E-03    -12.2313E-03    -366.377E-06     2.98870E+06    -30.5043E+06    -72.1539E+06    -56.9051E+06    -12.2602E+06    -30.5043E+06    -29.3274E+06         23.0150
            2064     5.92498E-03     118.928E-03     126.760E-03     2.70970E-03    -17.2019E-03    -14.0696E-03     125.180E-03     1.15724E-03    -15.1061E-03     30.4178E-03    -13.0791E-03    -17.3320E-03    -16.9405E-03     30.0263E-03    -13.0791E-03     4.43134E-03     6.58231E+06    -23.3033E+06    -79.3023E+06    -59.2328E+06    -13.4873E+06    -23.3033E+06    -35.0878E+06         23.8357
            2065     6.90781E-03     118.975E-03     122.055E-03     518.518E-06    -12.0700E-03    -10.9444E-03     120.929E-03     518.518E-06    -15.2272E-03     33.4502E-03    -13.8987E-03    -19.5425E-03    -18.1521E-03     32.0598E-03    -13.8987E-03     12.3994E-03     8.16686E+06    -22.2549E+06    -91.9887E+06    -67.2077E+06    -16.6142E+06    -22.2549E+06    -42.7062E+06         24.8555
            2066     7.88868E-03     119.046E-03     110.122E-03     3.91702E-03    -3.11118E-03     1.60108E-03     107.541E-03     1.78593E-03     14.4063E-03     38.2377E-03    -14.6942E-03    -23.5339E-03    -19.7739E-03     34.4777E-03    -14.6942E-03     24.8613E-03     5.97391E+06    -34.0236E+06    -111.568E+06    -80.1028E+06    -25.4910E+06    -34.0236E+06    -51.4258E+06         26.0811
            2067     8.86817E-03     119.140E-03     107.068E-03     6.74387E-03    -2.23842E-03     2.27663E-03     104.684E-03     4.61277E-03     25.0052E-03     46.5468E-03    -15.5951E-03    -30.9318E-03    -22.4189E-03     38.0339E-03    -15.5951E-03     44.4075E-03     4.37119E+06    -42.5403E+06    -122.940E+06    -86.8431E+06    -31.7253E+06    -42.5403E+06    -55.5330E+06         27.4967
            2068     9.84568E-03     119.274E-03     121.780E-03     7.19327E-03    -19.8389E-03    -18.4527E-03     120.394E-03     7.19327E-03     16.8032E-03     59.9726E-03    -16.7745E-03    -43.2013E-03    -26.7438E-03     43.5151E-03    -16.7745E-03     72.7391E-03     7.49920E+06    -27.2134E+06    -106.364E+06    -76.3868E+06    -26.8607E+06    -22.8303E+06    -46.6560E+06         29.1960
            2069     10.8211E-03     119.448E-03     123.328E-03     9.31770E-03    -30.0594E-03    -28.6066E-03     121.875E-03     9.31770E-03     11.7033E-03     79.3421E-03    -18.3372E-03    -61.0183E-03    -34.7356E-03     53.0594E-03    -18.3372E-03     107.935E-03     24.3824E+06    -1.10274E+06    -74.5566E+06    -49.8930E+06    -18.7302E+06     17.3464E+06    -35.4709E+06         31.4354
            2070     11.7834E-03     119.675E-03     103.761E-03     12.5146E-03    -22.7893E-03    -21.3725E-03     102.344E-03     12.5146E-03     15.4100E-03     106.797E-03    -20.4876E-03    -86.3125E-03    -50.3348E-03     70.8197E-03    -20.4876E-03     149.646E-03     61.3804E+06     16.2641E+06    -43.0673E+06    -25.2182E+06    -1.58507E+06     61.3804E+06    -22.2361E+06         34.3000
            2071     12.7268E-03     119.957E-03     86.4770E-03     17.3175E-03    -21.8564E-03    -20.7846E-03     85.4052E-03     17.3175E-03     7.70053E-03     144.268E-03    -23.5672E-03    -120.704E-03    -75.6667E-03     99.2313E-03    -23.5672E-03     198.741E-03     94.2791E+06     20.7648E+06    -24.3445E+06    -15.5294E+06     11.9496E+06     94.2791E+06    -8.00772E+06         37.6160
            2072     13.6449E-03     120.311E-03     79.2634E-03     23.1688E-03    -26.6427E-03    -25.6418E-03     78.2625E-03     23.1688E-03     1.66056E-03     180.750E-03    -27.6203E-03    -153.104E-03    -101.799E-03     129.445E-03    -27.6203E-03     240.654E-03     115.810E+06     41.2093E+06    -22.5968E+06    -13.3694E+06     31.9819E+06     115.810E+06      -9.911E+06         41.1892
            2073     14.5538E-03     120.704E-03     71.2545E-03     29.7151E-03    -26.6965E-03    -25.2496E-03     69.8077E-03     29.7151E-03     10.2361E-03     212.909E-03    -32.3632E-03    -180.518E-03    -125.357E-03     157.747E-03    -32.3632E-03     273.081E-03     112.664E+06     43.3333E+06    -33.7866E+06    -18.2438E+06     27.7906E+06     112.664E+06    -22.9303E+06         44.7852
            2074     15.4445E-03     121.145E-03     63.7311E-03     27.6091E-03    -21.5768E-03    -20.5903E-03     52.6959E-03     37.6578E-03     7.43182E-03     271.947E-03    -37.7676E-03    -234.180E-03    -164.198E-03     201.966E-03    -37.7676E-03     349.363E-03     76.1967E+06     6.06186E+06    -55.0904E+06    -23.6463E+06    -25.3823E+06     76.1967E+06    -26.1637E+06         47.8373
            2075     16.3004E-03     121.746E-03     59.2452E-03     21.9873E-03    -28.9362E-03    -24.9793E-03     31.6618E-03     45.6137E-03    -15.9367E-03     294.710E-03    -44.2557E-03    -250.482E-03    -193.456E-03     237.683E-03    -44.2557E-03     321.234E-03     83.1052E+06     18.6757E+06    -59.2482E+06    -23.6663E+06    -16.9062E+06     83.1052E+06    -18.7807E+06         49.8601
            2076     985.517E-06     119.869E-03     125.182E-03     9.82071E-03    -10.0016E-03     36.8018E-03     80.7347E-03     7.46478E-03     59.6456E-03     31.1254E-03    -15.0337E-03    -16.0895E-03    -15.5566E-03     31.0861E-03    -15.5273E-03    -2.49979E-03    -757.375E+03    -7.04230E+06    -33.2048E+06    -6.87768E+06    -27.0845E+06    -7.04230E+06    -9.29467E+06         22.3369
            2077     1.96946E-03     119.875E-03     95.8571E-03     32.9344E-03    -1.91483E-03     62.6425E-03     33.8733E-03     30.3609E-03     5.02117E-03     32.9502E-03    -15.8606E-03    -17.0877E-03    -16.9808E-03     32.8433E-03    -15.8606E-03    -4.54706E-03     6.80199E+06    -4.24113E+06    -30.1755E+06    -8.48065E+06    -14.8928E+06    -4.24113E+06    -15.1863E+06         22.4806
            2078     2.95246E-03     119.887E-03     84.0686E-03     38.6917E-03     6.87777E-03     41.9769E-03     48.4042E-03     39.2569E-03     127.624E-06     35.7982E-03    -16.6004E-03    -19.1853E-03    -19.0061E-03     35.6190E-03    -16.6004E-03    -6.24821E-03     10.5388E+06    -5.59483E+06    -32.0923E+06    -11.9146E+06    -9.63888E+06    -5.59483E+06    -18.9197E+06         22.7285
            2079     3.93233E-03     119.902E-03     80.5342E-03     37.8102E-03     8.21262E-03     24.7639E-03     63.2000E-03     38.5931E-03    -14.1030E-03     39.3992E-03    -17.6173E-03    -21.7675E-03    -21.5415E-03     39.1731E-03    -17.6173E-03    -7.39598E-03     12.2673E+06    -2.49045E+06    -34.1428E+06    -15.1980E+06    -7.23539E+06    -1.93261E+06    -20.7207E+06         23.1150
            2080     4.90972E-03     119.929E-03     84.2294E-03     35.5854E-03    -1.90620E-03     13.9655E-03     68.3578E-03     35.5854E-03     4.47054E-03     43.1101E-03    -18.8359E-03    -24.2812E-03    -24.0637E-03     42.8927E-03    -18.8359E-03    -7.36468E-03     16.6996E+06     3.06835E+06    -35.8542E+06    -18.2575E+06    -4.87656E+06     7.04782E+06    -21.4356E+06         23.6558
            2081     5.88469E-03     119.963E-03     80.3122E-03     31.4724E-03     285.332E-06     8.99108E-03     70.3738E-03     32.7050E-03     8.63229E-03     46.9878E-03    -20.1661E-03    -26.8278E-03    -26.6469E-03     46.8070E-03    -20.1661E-03    -6.00654E-03     22.4416E+06     6.01518E+06    -38.2968E+06    -22.3674E+06    -3.37834E+06     15.9058E+06    -21.6835E+06         24.3469
            2082     6.85625E-03     120.016E-03     68.4351E-03     29.8637E-03     12.5964E-03     20.0905E-03     59.1801E-03     31.6246E-03    -2.01806E-03     51.1107E-03    -21.5767E-03    -29.5319E-03    -29.3155E-03     50.8942E-03    -21.5767E-03    -3.08718E-03     24.8576E+06     7.12042E+06    -44.5392E+06    -28.5715E+06    -4.87605E+06     20.8863E+06    -23.1265E+06         25.2035
            2083     7.82543E-03     120.084E-03     62.2263E-03     33.1825E-03     22.6400E-03     29.7390E-03     55.4556E-03     32.8543E-03     11.3116E-03     55.6391E-03    -23.0903E-03    -32.5518E-03    -32.0211E-03     55.1083E-03    -23.0903E-03     2.49566E-03     30.1508E+06     2.95188E+06    -54.9808E+06    -36.4470E+06    -8.15727E+06     22.7262E+06    -28.1203E+06         26.2713
            2084     8.79060E-03     120.183E-03     68.6512E-03     35.8446E-03     15.2542E-03     24.9854E-03     59.7766E-03     34.9881E-03     17.0432E-03     60.8866E-03    -24.7191E-03    -36.1398E-03    -34.4940E-03     59.2408E-03    -24.7191E-03     11.7868E-03     28.8294E+06    -3.12334E+06    -75.2459E+06    -48.4486E+06    -19.1055E+06     18.0142E+06    -37.0375E+06         27.5940
            2085     9.75316E-03     120.312E-03     74.6074E-03     33.5265E-03     2.15170E-03     14.5878E-03     58.6447E-03     37.0531E-03     15.9070E-03     66.8556E-03    -26.4095E-03    -40.4578E-03    -36.3931E-03     62.7909E-03    -26.4095E-03     25.9624E-03     21.2658E+06    -6.95601E+06    -94.0187E+06    -60.5326E+06    -28.6599E+06     9.48363E+06    -44.0329E+06         29.1973
            2086     10.7109E-03     120.487E-03     76.2213E-03     30.6099E-03    -6.51504E-03     3.15814E-03     57.8496E-03     39.3084E-03     16.2280E-03     75.7727E-03    -28.2885E-03    -47.5352E-03    -39.3619E-03     67.5993E-03    -28.2885E-03     47.5916E-03     21.7380E+06     4.15755E+06    -99.9346E+06    -66.9443E+06    -21.7967E+06     14.7020E+06    -47.7141E+06         31.2038
            2087     11.6659E-03     120.716E-03     75.8855E-03     29.0620E-03    -13.8842E-03    -6.36883E-03     55.0455E-03     42.3866E-03     30.5755E-03     92.9262E-03    -30.6483E-03    -62.2866E-03    -47.8731E-03     78.5128E-03    -30.6483E-03     79.1332E-03     41.9913E+06     13.5451E+06    -93.6544E+06    -60.0906E+06    -20.0187E+06     41.9913E+06    -43.4414E+06         33.7303
            2088     12.6108E-03     121.017E-03     60.7813E-03     38.4475E-03    -20.5180E-03    -14.4272E-03     46.5378E-03     46.6002E-03     33.4040E-03     118.164E-03    -33.6993E-03    -84.4666E-03    -62.0797E-03     95.7772E-03    -33.6993E-03     119.557E-03     80.9620E+06     15.7651E+06    -61.9762E+06    -34.1459E+06    -12.0652E+06     80.9620E+06    -28.2868E+06         36.6461
            2089     13.5383E-03     121.393E-03     57.1015E-03     49.1603E-03    -23.2355E-03    -15.8325E-03     46.9959E-03     51.8629E-03     31.8308E-03     141.889E-03    -37.2848E-03    -104.600E-03    -75.2974E-03     112.586E-03    -37.2848E-03     156.094E-03     113.780E+06     31.1661E+06    -16.7160E+06    -6.70881E+06     21.1590E+06     113.780E+06    -7.18702E+06         39.7380
            2090     14.4465E-03     121.803E-03     64.3672E-03     41.1616E-03    -21.7968E-03    -16.9294E-03     42.5565E-03     58.1049E-03     23.3660E-03     170.439E-03    -41.3640E-03    -129.078E-03    -94.8190E-03     136.180E-03    -41.3640E-03     188.615E-03     133.421E+06     54.2338E+06    -2.45180E+06     3.34535E+06     48.4366E+06     133.421E+06     7.43930E+06         42.8206
            2091     15.3361E-03     122.269E-03     67.2261E-03     25.9669E-03    -25.8904E-03    -24.4741E-03     26.1539E-03     65.6228E-03     17.0790E-03     220.718E-03    -46.2070E-03    -174.564E-03    -126.334E-03     172.487E-03    -46.2070E-03     257.178E-03     131.217E+06     47.3717E+06    -23.6808E+06     10.2930E+06     13.3979E+06     131.217E+06    -4.57013E+06         45.4913
            2092     16.2053E-03     122.897E-03     73.3337E-03     11.2907E-03    -28.2076E-03    -25.4017E-03     8.48482E-03     73.3337E-03     3.59207E-03     225.172E-03    -50.6526E-03    -174.599E-03    -119.929E-03     170.502E-03    -50.6526E-03     270.052E-03     92.9833E+06     17.9212E+06    -37.9513E+06     3.35977E+06    -23.3898E+06     92.9833E+06    -10.5971E+06         47.3872
            2093     977.697E-06     120.906E-03     114.476E-03     33.9828E-03    -38.4845E-03     62.4871E-03     7.44418E-03     40.0426E-03     24.1269E-03     46.0250E-03    -22.4081E-03    -23.6175E-03    -22.9616E-03     45.9826E-03    -23.0217E-03    -3.27676E-03     50.1904E+06     43.3350E+06    -12.0525E+06     46.8965E+06    -10.4177E+06     44.9941E+06    -8.00816E+06         23.1162
            2094     1.95554E-03     120.915E-03     87.9460E-03     51.5320E-03    -30.1553E-03     81.5793E-03    -29.8484E-03     57.5918E-03     717.002E-06     47.6182E-03    -23.1382E-03    -24.4779E-03    -24.2638E-03     47.5242E-03    -23.2582E-03    -5.03156E-03     43.0642E+06     38.5794E+06    -7.28290E+06     39.6664E+06    -4.22378E+06     38.9181E+06    -9.61100E+06         23.2696
            2095     2.93061E-03     120.929E-03     82.0077E-03     64.9202E-03    -30.3004E-03     76.5892E-03    -25.6647E-03     65.7031E-03    -17.9869E-03     51.5703E-03    -24.1211E-03    -27.4307E-03    -27.2615E-03     51.4010E-03    -24.1211E-03    -7.14769E-03     40.8044E+06     34.7256E+06    -7.99782E+06     32.1197E+06    -2.56493E+06     37.9775E+06    -10.5326E+06         23.5320
            2096     3.90185E-03     120.952E-03     74.3618E-03     64.5939E-03    -17.7151E-03     60.6705E-03    -6.60389E-03     67.1740E-03    -43.4337E-03     56.6674E-03    -25.4851E-03    -31.1703E-03    -30.9081E-03     56.4052E-03    -25.4851E-03    -9.46149E-03     42.7509E+06     30.9801E+06    -8.88484E+06     25.7036E+06    -1.93988E+06     41.0824E+06    -10.9278E+06         23.9061
            2097     4.86967E-03     120.979E-03     74.4836E-03     64.4953E-03    -19.8647E-03     57.5488E-03    -4.72698E-03     66.2925E-03    -23.6958E-03     62.7258E-03    -27.2024E-03    -35.5558E-03    -35.1858E-03     62.3558E-03    -27.2024E-03    -11.9788E-03     45.3574E+06     29.6215E+06    -10.8439E+06     19.7289E+06    -951.332E+03     45.3574E+06    -10.4621E+06         24.3883
            2098     5.83264E-03     121.022E-03     74.1580E-03     64.8124E-03    -28.9940E-03     58.1161E-03    -14.1848E-03     66.0450E-03     1.39212E-03     69.7643E-03    -29.2287E-03    -40.5636E-03    -40.0714E-03     69.2720E-03    -29.2287E-03    -14.6438E-03     52.0331E+06     25.3962E+06    -9.12064E+06     16.3112E+06    -35.6085E+03     52.0331E+06    -9.25953E+06         24.9742
            2099     6.79016E-03     121.076E-03     66.9061E-03     58.5023E-03    -12.6701E-03     50.2670E-03    -3.71414E-03     66.1854E-03     16.2783E-03     77.8450E-03    -31.6061E-03    -46.2376E-03    -45.5773E-03     77.1847E-03    -31.6061E-03    -17.6799E-03     64.6032E+06     25.0321E+06    -11.5945E+06     14.4735E+06    -1.03593E+06     64.6032E+06    -8.48111E+06         25.6759
            2100     7.74054E-03     121.153E-03     66.5017E-03     56.6401E-03    -4.48371E-03     47.2697E-03     4.88667E-03     66.5017E-03     37.5948E-03     86.5490E-03    -34.3215E-03    -52.1870E-03    -51.2642E-03     85.6262E-03    -34.3215E-03    -21.1662E-03     77.1471E+06     24.6734E+06    -11.0881E+06     12.5426E+06     1.04274E+06     77.1471E+06    -8.76968E+06         26.5656
            2101     8.68420E-03     121.251E-03     69.7425E-03     60.2180E-03    -18.5039E-03     44.7220E-03    -744.113E-06     67.4786E-03     54.8179E-03     94.9687E-03    -37.3190E-03    -57.5596E-03    -56.2231E-03     93.6323E-03    -37.3190E-03    -24.9527E-03     79.3512E+06     24.5231E+06    -21.3714E+06     8.10236E+06    -4.95074E+06     79.3512E+06    -9.65456E+06         27.7536
            2102     9.61914E-03     121.384E-03     71.3872E-03     57.2153E-03    -24.0388E-03     39.2926E-03    -3.85229E-03     69.1234E-03     64.0500E-03     102.215E-03    -40.5344E-03    -61.6888E-03    -59.6417E-03     100.168E-03    -40.5344E-03    -28.2568E-03     74.6320E+06     23.1805E+06    -33.5825E+06     2.21583E+06    -12.6179E+06     74.6320E+06    -15.7916E+06         29.2789
            2103     10.5499E-03     121.551E-03     71.4203E-03     46.5471E-03    -23.5807E-03     32.5731E-03    -9.60665E-03     71.4203E-03     48.5580E-03     108.958E-03    -44.0075E-03    -65.0384E-03    -61.5091E-03     105.429E-03    -44.0075E-03    -30.0218E-03     71.4394E+06     24.7806E+06    -43.5399E+06    -5.87596E+06    -12.8833E+06     71.4394E+06    -20.7326E+06         31.1230
            2104     11.4719E-03     121.775E-03     74.3407E-03     37.0638E-03    -28.9333E-03     19.8299E-03    -11.6994E-03     74.3407E-03     45.4926E-03     115.246E-03    -47.8214E-03    -67.4641E-03    -61.9619E-03     109.744E-03    -47.8214E-03    -25.6013E-03     74.4081E+06     30.2504E+06    -54.1564E+06    -12.3259E+06    -11.5800E+06     74.4081E+06    -27.3687E+06         33.3066
            2105     12.3756E-03     122.068E-03     77.7519E-03     40.9304E-03    -34.0502E-03     1.33450E-03     5.64587E-03     77.6516E-03     55.6638E-03     115.980E-03    -49.7015E-03    -66.2803E-03    -56.9666E-03     108.772E-03    -51.8069E-03    -9.48782E-03     75.7353E+06     20.2987E+06    -65.7280E+06    -19.6440E+06    -25.7853E+06     75.7353E+06    -27.4426E+06         35.8031
            2106     13.2779E-03     122.424E-03     82.0202E-03     49.0598E-03    -33.7312E-03     1.19999E-03     14.2288E-03     81.9200E-03     59.2728E-03     114.491E-03    -46.8579E-03    -67.6448E-03    -49.5523E-03     105.197E-03    -55.6564E-03     12.6627E-03     84.6178E+06     25.3956E+06    -54.4347E+06    -18.9094E+06    -10.1297E+06     84.6178E+06    -23.1676E+06         38.4607
            2107     14.1939E-03     122.836E-03     87.8721E-03     36.0434E-03    -32.2636E-03    -1.63293E-03     5.41273E-03     87.8721E-03     53.4068E-03     127.421E-03    -45.7897E-03    -81.7174E-03    -55.4208E-03     115.280E-03    -59.9451E-03     31.1677E-03     119.055E+06     42.4613E+06    -29.8273E+06    -5.27527E+06     17.9093E+06     119.055E+06    -2.98266E+06         41.0762
            2108     15.0678E-03     123.335E-03     94.2168E-03     19.2189E-03    -39.8773E-03    -29.1954E-03     8.53690E-03     94.2168E-03     26.7274E-03     134.984E-03    -32.1137E-03    -102.980E-03    -51.9649E-03     116.235E-03    -64.3793E-03     83.0122E-03     141.737E+06     65.3949E+06    -24.8578E+06     8.43649E+06     32.1006E+06     141.737E+06     4.94884E+06         43.4168
            2109     15.9415E-03     123.894E-03     100.147E-03     28.8208E-03    -59.6597E-03    -9.45141E-03    -21.3875E-03     100.147E-03    -17.4172E-03     110.033E-03    -13.2151E-03    -96.8731E-03    -17.1323E-03     83.7829E-03    -66.7053E-03     112.009E-03     96.2884E+06     29.2189E+06    -38.2303E+06     5.21210E+06     8.46447E+06     73.6005E+06    -809.538E+03         45.3912


