********************************************************************************
Field Output Report, written Mon May  5 22:44:25 2025

Source 1
---------

   ODB: D:/AISI_1020/Vel_20/1020_2a_16_rd_2500_cal_10_v_20_f_025.odb
   Step: Step-1
   Frame: Increment   9760928: Step Time =    1.103

Loc 1 : Nodal values from source 1

Output sorted by column "Node Label".

Field Output reported at nodes for region: DIE_2A_16_D0_36-1.Region_1
   Computation algorithm: EXTRAPOLATE_COMPUTE_AVERAGE
   Averaged at nodes
   Averaging regions: ODB_REGIONS

      Node Label     COORD.COOR1     COORD.COOR2
                          @Loc 1          @Loc 1
-------------------------------------------------
               1     15.3788E-03     259.645E-03


Field Output reported at nodes for region: DIE_2A_16_D0_36-1.Region_2
   Computation algorithm: EXTRAPOLATE_COMPUTE_AVERAGE
   Averaged at nodes
   Averaging regions: ODB_REGIONS

      Node Label     COORD.COOR1     COORD.COOR2
                          @Loc 1          @Loc 1
-------------------------------------------------
               1     15.3788E-03     259.645E-03


Field Output reported at nodes for part: WIRE_1-1
   Computation algorithm: EXTRAPOLATE_COMPUTE_AVERAGE
   Averaged at nodes
   Averaging regions: ODB_REGIONS

      Node Label     COORD.COOR1     COORD.COOR2    ER.Max. Prin    ER.Mid. Prin    ER.Min. Prin         ER.ER11         ER.ER22         ER.ER33         ER.ER12    PE.Max. Prin    PE.Mid. Prin    PE.Min. Prin         PE.PE11         PE.PE22         PE.PE33         PE.PE12     S.Max. Prin     S.Mid. Prin     S.Min. Prin           S.S11           S.S22           S.S33           S.S12            TEMP
                          @Loc 1          @Loc 1          @Loc 1          @Loc 1          @Loc 1          @Loc 1          @Loc 1          @Loc 1          @Loc 1          @Loc 1          @Loc 1          @Loc 1          @Loc 1          @Loc 1          @Loc 1          @Loc 1          @Loc 1          @Loc 1          @Loc 1          @Loc 1          @Loc 1          @Loc 1          @Loc 1          @Loc 1
-----------------------------------------------------------------------------------------------------------------------------------------------------------------------------------------------------------------------------------------------------------------------------------------------------------------------------------------------------------------------------------------------------------------
               1     13.4102E-03     99.8992E-03         1.15952    -332.644E-03    -342.799E-03    -332.563E-03         1.15944    -342.799E-03    -11.6637E-03     589.417E-03    -294.353E-03    -295.531E-03    -293.349E-03     587.236E-03    -294.353E-03     87.7650E-03     75.6476E+06     39.6832E+06    -1.76856E+06    -1.72898E+06     39.6437E+06     75.6476E+06    -326.966E+03         82.9474
               2     186.746E-09     99.1951E-03         1.18276    -185.329E-03    -508.012E-03    -487.134E-03         1.16188    -185.329E-03    -371.669E-03     588.864E-03    -293.928E-03    -294.562E-03    -293.927E-03     588.862E-03    -294.562E-03    -2.00635E-03    -99.0756E+06    -103.373E+06    -154.655E+06    -101.241E+06    -154.539E+06    -101.324E+06     2.18075E+06         67.6972
               3     5.85031E-06     163.913E-09         1.46289    -427.700E-03    -434.897E-03    -434.459E-03         1.46245    -427.700E-03    -57.6866E-03     651.535E-03    -325.733E-03    -325.777E-03    -325.733E-03     651.535E-03    -325.777E-03     161.594E-06    -35.7468E+06    -42.0323E+06    -62.0246E+06    -42.5962E+06    -55.1752E+06    -42.0323E+06     11.5357E+06         71.5326
               4     13.2345E-03     163.913E-09    -267.666E-03        -3.71812        -679.411        -677.942        -1.73703        -3.71812         63.1117     819.258E-03    -297.298E-03    -522.525E-03    -519.937E-03     816.670E-03    -297.298E-03     117.745E-03     57.8995E+06     45.7225E+06    -38.7165E+06    -18.5162E+06     25.5222E+06     57.8995E+06    -36.0228E+06         89.6692
               5     13.5096E-03     198.714E-03     24.9525E-03     7.77002E-03    -2.22266E-03     11.2353E-03     21.4872E-03    -2.22266E-03     13.7890E-03     442.765E-03    -151.006E-03    -291.977E-03    -150.698E-03     442.457E-03    -291.977E-03    -27.0366E-03     106.995E+06     58.7316E+06    -40.4027E+06    -37.9769E+06     56.3057E+06     106.995E+06    -15.3166E+06         84.5189
               6     37.7852E-06     196.458E-03     126.048E-03     46.8461E-03    -178.556E-03    -177.711E-03     46.0021E-03     126.048E-03    -27.5346E-03     544.829E-03    -254.021E-03    -290.981E-03    -290.431E-03     544.279E-03    -254.021E-03     42.8732E-03     3.73725E+06    -474.572E+03    -25.7835E+06    -4.03210E+06    -18.0142E+06    -474.572E+03    -12.9998E+06         70.2973
               7     12.6651E-03     99.7657E-03         1.16096    -332.628E-03    -343.188E-03    -332.587E-03         1.16091    -343.188E-03    -5.35337E-03     589.924E-03    -294.660E-03    -296.438E-03    -293.837E-03     587.324E-03    -294.660E-03     95.5698E-03     73.6691E+06     38.7709E+06    -4.13286E+06    -3.99983E+06     38.6379E+06     73.6691E+06     611.469E+03         81.5668
               8     11.9217E-03     99.5786E-03         1.16542    -333.922E-03    -345.503E-03    -335.476E-03         1.16541    -343.940E-03    -4.29207E-03     589.394E-03    -294.409E-03    -296.004E-03    -293.363E-03     587.160E-03    -294.815E-03     87.4134E-03     69.7315E+06     35.0432E+06    -9.48225E+06    -9.29428E+06     34.8552E+06     69.7315E+06     825.311E+03         78.4043
               9     11.1724E-03     99.4634E-03         1.16957    -337.307E-03    -346.165E-03    -338.804E-03         1.16951    -344.602E-03     5.34818E-03     589.334E-03    -293.959E-03    -295.217E-03    -293.504E-03     588.028E-03    -294.365E-03     67.7953E-03     66.8667E+06     31.0759E+06    -14.5574E+06    -14.4755E+06     30.9940E+06     66.8667E+06     204.901E+03         75.0669
              10     10.4263E-03     99.3723E-03         1.17023    -336.139E-03    -347.967E-03    -338.783E-03         1.17014    -345.233E-03     19.7149E-03     588.291E-03    -293.536E-03    -294.525E-03    -293.568E-03     587.351E-03    -293.553E-03     57.1881E-03     64.0878E+06     27.3051E+06    -19.7844E+06    -19.7743E+06     27.2950E+06     64.0878E+06     60.9177E+03         72.4423
              11     9.68209E-03     99.2768E-03         1.17319    -336.393E-03    -350.469E-03    -340.953E-03         1.17310    -345.812E-03     5.60892E-03     585.692E-03    -292.960E-03    -293.962E-03    -292.489E-03     585.100E-03    -293.840E-03     45.3505E-03     57.9123E+06     21.3477E+06    -26.2887E+06    -26.2801E+06     21.3391E+06     57.9123E+06    -162.885E+03         70.7691
              12     8.93627E-03     99.2177E-03         1.17937    -340.958E-03    -351.889E-03    -346.713E-03         1.17929    -346.051E-03     1.93788E-03     586.407E-03    -293.313E-03    -295.117E-03    -292.943E-03     586.037E-03    -295.117E-03     35.7381E-03     48.1543E+06     14.0376E+06    -33.2057E+06    -33.1982E+06     14.0300E+06     48.1543E+06    -216.809E+03         69.8463
              13     8.19094E-03     99.1749E-03         1.17918    -341.787E-03    -351.094E-03    -346.725E-03         1.17907    -346.045E-03    -8.58067E-03     588.134E-03    -293.438E-03    -295.756E-03    -293.236E-03     587.931E-03    -295.756E-03     26.2938E-03     36.6571E+06     5.65120E+06    -40.3205E+06    -40.3043E+06     5.63498E+06     36.6571E+06    -140.156E+03         69.3274
              14     7.44854E-03     99.1132E-03         1.17593    -339.853E-03    -349.625E-03    -343.119E-03         1.17580    -346.226E-03    -3.66702E-03     588.933E-03    -293.760E-03    -295.322E-03    -293.694E-03     588.842E-03    -295.297E-03     17.5006E-03     24.3513E+06    -3.05524E+06    -47.2010E+06    -47.1812E+06    -3.07507E+06     24.3513E+06    -42.7309E+03         68.9873
              15     6.70302E-03     99.0992E-03         1.17500    -337.668E-03    -350.615E-03    -341.530E-03         1.17494    -346.696E-03     4.10131E-03     589.393E-03    -293.737E-03    -295.339E-03    -293.730E-03     589.362E-03    -295.314E-03     9.76717E-03     12.0828E+06    -11.6063E+06    -54.1478E+06    -54.1350E+06    -11.6191E+06     12.0828E+06    -152.795E+03         68.7669
              16     5.95756E-03     99.1082E-03         1.17404    -337.138E-03    -349.188E-03    -338.677E-03         1.17393    -347.535E-03     10.4061E-03     589.951E-03    -293.671E-03    -295.207E-03    -293.752E-03     589.946E-03    -295.121E-03     3.11834E-03    -989.000E+03    -20.9317E+06    -62.0343E+06    -62.0222E+06    -20.9438E+06    -989.000E+03    -413.220E+03         68.5760
              17     5.21278E-03     99.1161E-03         1.17838    -338.907E-03    -352.089E-03    -342.243E-03         1.17815    -348.530E-03     1.12363E-03     589.428E-03    -294.382E-03    -294.727E-03    -294.465E-03     589.424E-03    -294.641E-03    -2.39369E-03    -16.0201E+06    -31.1191E+06    -70.0218E+06    -70.0155E+06    -31.1253E+06    -16.0201E+06    -456.943E+03         68.3415
              18     4.46759E-03     99.1175E-03         1.18792    -341.705E-03    -360.091E-03    -352.914E-03         1.18766    -348.623E-03    -23.1123E-03     588.417E-03    -294.227E-03    -294.791E-03    -294.253E-03     588.404E-03    -294.751E-03    -6.65027E-03    -33.5028E+06    -42.0085E+06    -77.4347E+06    -77.4276E+06    -42.0157E+06    -33.5028E+06    -423.773E+03         68.1371
              19     3.72216E-03     99.1259E-03         1.19222    -344.340E-03    -361.882E-03    -358.816E-03         1.19194    -347.128E-03    -20.4181E-03     588.288E-03    -293.835E-03    -294.351E-03    -294.030E-03     588.263E-03    -294.131E-03    -9.27907E-03    -51.3317E+06    -60.1912E+06    -84.3198E+06    -84.2936E+06    -60.2173E+06    -51.3317E+06    -398.376E+03         67.9742
              20     2.97834E-03     99.1426E-03         1.18520    -339.573E-03    -359.781E-03    -354.365E-03         1.18504    -344.826E-03    -5.76082E-03     587.968E-03    -294.117E-03    -294.331E-03    -294.267E-03     587.938E-03    -294.151E-03    -10.2512E-03    -67.9648E+06    -83.1744E+06    -92.7071E+06    -90.6456E+06    -85.2359E+06    -67.9648E+06    -377.292E+03         67.8258
              21     2.23352E-03     99.1623E-03         1.17698    -334.805E-03    -355.989E-03    -347.751E-03         1.17677    -342.835E-03     13.1938E-03     588.228E-03    -294.390E-03    -294.770E-03    -294.421E-03     588.201E-03    -294.712E-03    -9.71870E-03    -82.4758E+06    -95.6268E+06    -106.611E+06    -95.6864E+06    -106.551E+06    -82.4758E+06    -269.836E+03         67.7286
              22     1.48968E-03     99.1811E-03         1.17513    -337.915E-03    -351.919E-03    -345.719E-03         1.17171    -340.692E-03     104.807E-03     589.060E-03    -294.450E-03    -294.850E-03    -294.541E-03     589.045E-03    -294.744E-03    -7.14171E-03    -92.9883E+06    -99.4523E+06    -121.953E+06    -98.7995E+06    -121.892E+06    -93.7018E+06     662.462E+03         67.6936
              23     745.553E-06     99.1891E-03         1.17889    -262.355E-03    -429.879E-03    -416.205E-03         1.16522    -262.355E-03    -86.6569E-03     589.141E-03    -294.264E-03    -294.635E-03    -294.307E-03     589.137E-03    -294.587E-03    -3.59043E-03    -98.1945E+06    -102.384E+06    -141.615E+06    -100.637E+06    -141.523E+06    -100.032E+06     1.76638E+06         67.6936
              24    -1.02428E-06     97.3891E-03         1.21307    -285.923E-03    -437.751E-03    -425.667E-03         1.20099    -285.923E-03    -276.105E-03     590.082E-03    -294.301E-03    -295.385E-03    -294.300E-03     590.080E-03    -295.385E-03    -1.90231E-03    -98.4494E+06    -103.538E+06    -143.812E+06    -101.394E+06    -143.708E+06    -100.698E+06     1.54068E+06         67.6430
              25    -7.53618E-09     95.5814E-03         1.17261    -308.964E-03    -377.054E-03    -320.723E-03         1.16827    -360.961E-03    -152.326E-03     590.028E-03    -294.472E-03    -295.672E-03    -294.470E-03     590.026E-03    -295.672E-03    -2.71460E-03    -100.398E+06    -105.985E+06    -145.561E+06    -103.335E+06    -145.465E+06    -103.144E+06    -1.52626E+06         67.6440
              26     60.2309E-09     93.7714E-03         1.21153    -282.028E-03    -433.304E-03    -280.759E-03         1.21026    -433.304E-03    -3.48889E-03     589.967E-03    -294.619E-03    -295.171E-03    -294.678E-03     589.965E-03    -295.110E-03    -2.58577E-03    -99.2636E+06    -103.025E+06    -143.609E+06    -100.665E+06    -143.223E+06    -102.009E+06     871.843E+03         67.7230
              27     138.239E-09     91.9652E-03         1.24971    -228.709E-03    -524.271E-03    -225.616E-03         1.24662    -524.271E-03     124.693E-03     589.449E-03    -294.249E-03    -294.561E-03    -294.308E-03     589.448E-03    -294.500E-03    -1.70967E-03    -99.6486E+06    -101.744E+06    -139.647E+06    -101.304E+06    -139.008E+06    -100.728E+06    -194.438E+03         67.7512
              28    -1.22398E-06     90.1673E-03         1.15391    -137.725E-03    -519.878E-03    -127.169E-03         1.14335    -519.878E-03     222.180E-03     588.730E-03    -293.566E-03    -294.808E-03    -293.564E-03     588.728E-03    -294.808E-03    -1.80268E-03    -101.796E+06    -103.421E+06    -141.321E+06    -102.722E+06    -140.942E+06    -102.875E+06    -1.80385E+06         67.7303
              29    -415.521E-09     88.3591E-03         1.22090    -151.739E-03    -559.083E-03    -134.858E-03         1.20402    -559.083E-03     302.435E-03     589.058E-03    -293.734E-03    -294.729E-03    -293.735E-03     589.054E-03    -294.724E-03    -3.60414E-03    -100.305E+06    -101.625E+06    -140.254E+06    -100.885E+06    -140.221E+06    -101.079E+06     502.465E+03         67.7212
              30     999.652E-09     86.5575E-03         1.28268    -238.486E-03    -526.372E-03    -210.711E-03         1.25491    -526.372E-03     400.132E-03     588.660E-03    -293.528E-03    -294.756E-03    -293.531E-03     588.657E-03    -294.751E-03    -2.36469E-03    -102.845E+06    -104.355E+06    -140.831E+06    -103.626E+06    -140.788E+06    -103.619E+06     574.843E+03         67.7226
              31    -1.64022E-06     84.7528E-03         1.22411    -307.456E-03    -395.410E-03    -293.651E-03         1.18876    -373.867E-03     462.750E-03     589.485E-03    -293.786E-03    -295.628E-03    -293.785E-03     589.483E-03    -295.628E-03    -2.05814E-03    -100.706E+06    -102.015E+06    -138.475E+06    -102.065E+06    -138.425E+06    -100.706E+06     408.613E+03         67.7244
              32     579.020E-09     82.9416E-03         1.24965    -272.979E-03    -454.808E-03    -418.715E-03         1.21356    -272.979E-03     490.758E-03     590.463E-03    -294.623E-03    -295.498E-03    -294.878E-03     590.462E-03    -295.241E-03    -1.56707E-03    -98.9749E+06    -100.911E+06    -135.932E+06    -99.6974E+06    -135.782E+06    -100.339E+06     1.13629E+06         67.7284
              33    -278.165E-09     81.1329E-03         1.26516    -152.279E-03    -589.406E-03    -550.010E-03         1.22576    -152.279E-03     534.813E-03     589.535E-03    -293.994E-03    -294.872E-03    -294.250E-03     589.534E-03    -294.615E-03    -1.04695E-03    -101.017E+06    -103.387E+06    -138.282E+06    -102.361E+06    -137.943E+06    -102.381E+06    -348.027E+03         67.7284
              34    -437.854E-09     79.3356E-03         1.31715    -100.454E-03    -679.937E-03    -640.961E-03         1.27817    -100.454E-03     552.175E-03     587.965E-03    -293.079E-03    -294.146E-03    -293.523E-03     587.962E-03    -293.699E-03    -3.13341E-03    -101.941E+06    -104.100E+06    -141.978E+06    -103.222E+06    -141.703E+06    -103.094E+06    -658.029E+03         67.7157
              35     1.01539E-06     77.5372E-03         1.27560    -69.3119E-03    -668.221E-03    -636.892E-03         1.24428    -69.3119E-03     488.236E-03     588.865E-03    -293.699E-03    -294.487E-03    -294.143E-03     588.863E-03    -294.040E-03    -2.32978E-03    -98.3723E+06    -100.784E+06    -135.947E+06    -99.8110E+06    -135.767E+06    -99.5253E+06    -20.7449E+03         67.7137
              36    -1.73183E-06     75.7285E-03         1.23538    -92.9573E-03    -608.397E-03    -589.354E-03         1.21634    -92.9573E-03     368.268E-03     590.673E-03    -294.079E-03    -296.040E-03    -294.076E-03     590.670E-03    -296.040E-03    -2.56185E-03    -99.5358E+06    -103.149E+06    -135.469E+06    -101.117E+06    -135.146E+06    -101.890E+06     742.889E+03         67.7352
              37    -274.639E-09     73.9198E-03         1.31879    -197.513E-03    -582.887E-03    -575.921E-03         1.31183    -197.513E-03     172.472E-03     590.713E-03    -294.006E-03    -296.046E-03    -294.422E-03     590.709E-03    -295.625E-03    -3.89317E-03    -98.2483E+06    -102.836E+06    -129.937E+06    -100.728E+06    -129.690E+06    -100.603E+06     1.49266E+06         67.7573
              38     1.39349E-06     72.1110E-03         1.25821    -227.542E-03    -488.695E-03    -488.651E-03         1.25817    -227.542E-03     3.23493E-03     590.237E-03    -294.074E-03    -295.482E-03    -295.480E-03     590.235E-03    -294.074E-03    -1.39344E-03    -95.0439E+06    -99.6878E+06    -129.385E+06    -97.3679E+06    -129.294E+06    -97.4545E+06    -1.70132E+06         67.7574
              39     113.533E-09     70.3052E-03         1.26590    -298.012E-03    -420.548E-03    -418.550E-03         1.26390    -298.012E-03    -90.9195E-03     590.010E-03    -294.076E-03    -295.583E-03    -295.063E-03     590.010E-03    -294.595E-03    -832.086E-06    -99.7725E+06    -104.706E+06    -139.537E+06    -102.438E+06    -139.395E+06    -102.183E+06     -68.419E+03         67.7333
              40    -938.030E-09     68.5033E-03         1.32764    -360.361E-03    -413.316E-03    -407.225E-03         1.32155    -360.361E-03    -201.946E-03     588.848E-03    -294.032E-03    -294.616E-03    -294.093E-03     588.844E-03    -294.551E-03    -3.43030E-03    -97.7944E+06    -102.394E+06    -131.299E+06    -100.415E+06    -131.201E+06    -99.8714E+06     1.66697E+06         67.7020
              41     742.769E-09     66.7050E-03         1.35757    -376.909E-03    -424.136E-03    -417.089E-03         1.35053    -376.909E-03    -222.445E-03     588.642E-03    -293.886E-03    -294.282E-03    -293.948E-03     588.639E-03    -294.217E-03    -2.48217E-03    -96.4974E+06    -100.387E+06    -124.620E+06    -98.3314E+06    -124.599E+06    -98.5744E+06     476.509E+03         67.6889
              42    -1.80658E-06     64.8946E-03         1.37383    -357.753E-03    -452.062E-03    -440.619E-03         1.36238    -357.753E-03    -278.220E-03     590.252E-03    -294.387E-03    -295.340E-03    -294.386E-03     590.250E-03    -295.340E-03    -1.98223E-03    -97.1272E+06    -100.346E+06    -125.569E+06    -98.9512E+06    -125.558E+06     -98.533E+06    -493.411E+03         67.6942
              43     1.16055E-06     63.0845E-03         1.30701    -265.064E-03    -480.031E-03    -459.139E-03         1.28612    -265.064E-03    -382.368E-03     590.221E-03    -294.533E-03    -295.228E-03    -294.605E-03     590.218E-03    -295.155E-03    -2.78932E-03    -95.7815E+06    -97.6591E+06    -125.525E+06    -96.2850E+06    -125.493E+06    -97.1874E+06     126.025E+03         67.7012
              44    -946.467E-09     61.2840E-03         1.36522    -231.217E-03    -571.914E-03    -546.526E-03         1.33983    -231.217E-03    -440.422E-03     588.833E-03    -293.507E-03    -294.458E-03    -293.579E-03     588.832E-03    -294.385E-03    -2.35152E-03    -100.462E+06    -101.546E+06    -127.190E+06    -101.609E+06    -127.127E+06    -100.462E+06    -165.077E+03         67.7070
              45    -86.2709E-09     59.4821E-03         1.43740    -221.023E-03    -646.170E-03    -622.196E-03         1.41343    -221.023E-03    -444.071E-03     589.055E-03    -293.739E-03    -294.732E-03    -293.738E-03     589.054E-03    -294.732E-03    -2.40113E-03    -97.2815E+06    -99.6678E+06    -126.045E+06    -97.9362E+06    -126.003E+06    -99.0549E+06    -694.839E+03         67.7149
              46    -1.02026E-06     57.6765E-03         1.42868    -225.667E-03    -630.152E-03    -608.829E-03         1.40736    -225.667E-03    -416.842E-03     590.265E-03    -294.851E-03    -295.185E-03    -294.849E-03     590.262E-03    -295.185E-03    -3.09411E-03    -92.8221E+06    -97.2303E+06    -123.037E+06    -95.5743E+06     -122.92E+06    -94.5956E+06     1.14771E+06         67.7259
              47     1.31676E-06     55.8681E-03         1.42622    -279.259E-03    -576.496E-03    -554.331E-03         1.40406    -279.259E-03    -418.627E-03     589.754E-03    -294.521E-03    -295.014E-03    -294.519E-03     589.752E-03    -295.014E-03    -2.12935E-03    -95.8634E+06    -101.723E+06    -121.875E+06    -98.8184E+06    -121.555E+06    -99.0883E+06    -416.844E+03         67.7308
              48    -2.15297E-06     54.0637E-03         1.41492    -342.691E-03    -501.955E-03    -480.459E-03         1.39342    -342.691E-03    -403.385E-03     589.915E-03    -294.111E-03    -295.493E-03    -294.110E-03     589.914E-03    -295.493E-03    -1.58741E-03    -93.3471E+06    -99.3047E+06    -118.700E+06    -96.4328E+06    -118.347E+06    -96.5720E+06    -314.734E+03         67.7223
              49     1.11454E-06     52.2577E-03         1.44885    -407.869E-03    -461.920E-03    -444.214E-03         1.43114    -407.869E-03    -365.574E-03     590.837E-03    -294.164E-03    -295.708E-03    -294.600E-03     590.836E-03    -295.271E-03    -2.10441E-03    -93.8031E+06    -99.5136E+06    -117.659E+06    -96.7122E+06    -117.483E+06    -96.7809E+06     714.544E+03         67.7198
              50    -1.08546E-06     50.4555E-03         1.44464    -412.155E-03    -451.410E-03    -441.867E-03         1.43510    -412.155E-03    -250.780E-03     590.949E-03    -294.686E-03    -295.239E-03    -295.122E-03     590.947E-03    -294.802E-03    -2.07662E-03    -94.7816E+06    -100.623E+06    -118.234E+06    -97.8483E+06    -118.031E+06    -97.7593E+06     783.804E+03         67.7351
              51     1.34360E-06     48.6462E-03         1.39395    -351.284E-03    -457.280E-03    -455.743E-03         1.39242    -351.284E-03    -65.6859E-03     590.449E-03    -294.824E-03    -295.167E-03    -295.049E-03     590.447E-03    -294.940E-03    -2.32153E-03    -94.0036E+06    -100.077E+06    -120.140E+06    -97.4907E+06    -119.517E+06    -97.2133E+06    -1.08855E+06         67.7516
              52    -1.22014E-06     46.8403E-03         1.43268    -331.897E-03    -512.772E-03    -507.121E-03         1.42702    -331.897E-03     159.932E-03     590.002E-03    -294.438E-03    -295.381E-03    -294.663E-03     590.000E-03    -295.155E-03    -2.06558E-03    -94.7740E+06    -99.0572E+06    -121.869E+06    -97.3035E+06    -120.413E+06    -97.9837E+06     1.02902E+06         67.7630
              53     629.645E-09     45.0349E-03         1.47968    -322.094E-03    -568.366E-03    -548.219E-03         1.45954    -322.094E-03     393.879E-03     590.719E-03    -294.729E-03    -295.674E-03    -294.956E-03     590.717E-03    -295.446E-03    -2.38755E-03    -93.7235E+06    -96.1823E+06    -119.261E+06    -96.8854E+06    -117.173E+06    -95.1087E+06     29.2568E+03         67.7840
              54    -942.683E-09     43.2315E-03         1.47128    -283.156E-03    -596.400E-03    -541.405E-03         1.41628    -283.156E-03     644.552E-03     591.129E-03    -294.900E-03    -295.722E-03    -295.127E-03     591.128E-03    -295.494E-03    -2.36144E-03    -95.6837E+06    -97.2142E+06    -123.458E+06    -97.1015E+06    -122.186E+06    -97.0690E+06    -1.66092E+06         67.8190
              55     244.988E-09     41.4223E-03         1.50198    -257.786E-03    -652.763E-03    -547.322E-03         1.39654    -257.786E-03     924.744E-03     591.469E-03    -294.923E-03    -296.391E-03    -294.922E-03     591.468E-03    -296.391E-03    -1.65657E-03    -93.1216E+06    -93.5932E+06    -126.706E+06    -94.0954E+06    -125.878E+06    -93.4480E+06    -1.54291E+06         67.8615
              56    -766.674E-09     39.6162E-03         1.59766    -264.288E-03    -740.431E-03    -567.299E-03         1.42452    -264.288E-03         1.21670     592.169E-03    -295.319E-03    -296.873E-03    -295.997E-03     592.166E-03    -296.193E-03    -2.56907E-03    -92.8693E+06    -95.7002E+06    -122.161E+06    -93.9655E+06    -121.065E+06    -95.7002E+06    -1.00776E+06         67.9038
              57     1.30037E-06     37.8016E-03         1.67128    -300.910E-03    -776.150E-03    -513.534E-03         1.40867    -300.910E-03         1.50777     592.438E-03    -295.271E-03    -296.809E-03    -296.806E-03     592.435E-03    -295.271E-03    -2.80285E-03    -94.6805E+06    -99.8094E+06    -120.337E+06    -97.7789E+06    -119.863E+06    -97.1850E+06     1.89368E+06         67.9530
              58    -642.194E-09     35.9936E-03         1.74718    -361.018E-03    -795.701E-03    -422.948E-03         1.37443    -361.018E-03         1.79296     593.731E-03    -296.222E-03    -297.321E-03    -297.078E-03     593.731E-03    -296.463E-03    -1.08565E-03    -93.4402E+06    -99.0633E+06    -118.572E+06    -96.1298E+06    -118.507E+06    -96.4389E+06     381.365E+03         68.0363
              59     260.099E-09     34.1750E-03         1.85649    -455.528E-03    -806.411E-03    -349.201E-03         1.39928    -455.528E-03         2.00805     594.947E-03    -296.901E-03    -298.042E-03    -297.799E-03     594.946E-03    -297.143E-03    -2.02066E-03    -95.3827E+06    -101.016E+06    -115.452E+06    -98.1785E+06    -115.290E+06    -98.3814E+06     1.58234E+06         68.1511
              60     388.186E-09     32.3617E-03         1.94934    -498.972E-03    -855.735E-03    -313.825E-03         1.40743    -498.972E-03         2.21221     596.040E-03    -297.466E-03    -299.105E-03    -298.363E-03     596.038E-03    -298.206E-03    -1.44578E-03    -92.2084E+06    -96.9120E+06    -115.046E+06    -94.9520E+06    -114.937E+06    -94.2774E+06     872.194E+03         68.2734
              61    -700.364E-09     30.5442E-03         1.99581    -479.835E-03    -922.900E-03    -324.088E-03         1.39700    -479.835E-03         2.35719     598.171E-03    -299.077E-03    -300.028E-03    -299.286E-03     598.169E-03    -299.816E-03    -1.40665E-03    -94.4817E+06    -98.0834E+06    -119.852E+06    -96.1868E+06    -119.679E+06    -96.5508E+06    -1.24253E+06         68.3942
              62     470.555E-09     28.7160E-03         1.97529    -401.352E-03    -976.949E-03    -348.887E-03         1.34723    -401.352E-03         2.41526     599.803E-03    -299.941E-03    -300.216E-03    -300.214E-03     599.801E-03    -299.941E-03    -1.12634E-03    -94.6671E+06    -98.7023E+06    -120.529E+06    -96.6294E+06    -120.099E+06    -97.1696E+06     614.025E+03         68.5039
              63    -255.370E-09     26.8916E-03         2.01278    -354.745E-03        -1.05652    -427.892E-03         1.38415    -354.745E-03         2.47373     602.487E-03    -300.874E-03    -301.784E-03    -300.937E-03     602.487E-03    -301.721E-03     118.984E-06    -92.9884E+06    -98.8232E+06    -118.389E+06    -97.2185E+06    -117.491E+06    -95.4909E+06    -209.629E+03         68.6000
              64    -1.18411E-06     25.0526E-03         1.99236    -326.119E-03        -1.06411    -498.661E-03         1.42691    -326.119E-03         2.37354     605.711E-03    -302.101E-03    -303.588E-03    -302.101E-03     605.711E-03    -303.588E-03    -790.496E-06    -92.0931E+06    -100.659E+06    -120.604E+06    -96.2664E+06    -119.763E+06    -97.3263E+06    -254.914E+03         68.6906
              65    -46.1031E-09     23.2145E-03         1.86157    -277.190E-03    -989.327E-03    -496.459E-03         1.36870    -277.190E-03         2.15491     607.519E-03    -302.416E-03    -304.966E-03    -302.416E-03     607.519E-03    -304.966E-03    -542.762E-06    -89.3412E+06    -99.2995E+06    -117.893E+06    -94.4643E+06    -117.495E+06    -94.5744E+06     766.342E+03         68.7456
              66    -2.03320E-06     21.3732E-03         1.76720    -316.474E-03    -859.026E-03    -488.084E-03         1.39625    -316.474E-03         1.82112     607.065E-03    -301.635E-03    -305.306E-03    -301.633E-03     607.063E-03    -305.306E-03    -1.79696E-03    -90.0363E+06    -98.8747E+06    -119.231E+06    -94.9626E+06    -119.030E+06    -94.1496E+06    -839.126E+03         68.6559
              67    -270.238E-09     19.5296E-03         1.61865    -337.984E-03    -693.503E-03    -452.825E-03         1.37797    -337.984E-03         1.40785     602.255E-03    -298.956E-03    -303.240E-03    -298.954E-03     602.253E-03    -303.240E-03    -2.75258E-03    -92.3552E+06    -100.693E+06    -122.986E+06    -96.6342E+06    -122.932E+06    -96.4684E+06    -384.540E+03         68.2862
              68    -2.79141E-06     17.7044E-03         1.55988    -363.799E-03    -609.429E-03    -465.226E-03         1.41568    -363.799E-03         1.06442     593.305E-03    -295.456E-03    -298.042E-03    -295.450E-03     593.299E-03    -298.042E-03    -4.13325E-03    -94.8000E+06    -103.550E+06    -122.736E+06    -99.1053E+06    -122.656E+06    -99.3252E+06     37.0759E+03         67.5972
              69     2.42311E-06     15.9042E-03         1.47476    -344.668E-03    -547.196E-03    -477.858E-03         1.40542    -344.668E-03     721.662E-03     579.552E-03    -289.397E-03    -290.402E-03    -290.329E-03     579.541E-03    -289.459E-03    -6.19234E-03    -97.6285E+06    -104.059E+06    -118.604E+06    -102.594E+06    -113.638E+06    -104.059E+06     2.34736E+06         66.6773
              70    -957.533E-09     14.1271E-03         1.42161    -308.283E-03    -524.134E-03    -490.895E-03         1.38837    -308.283E-03     501.994E-03     560.754E-03    -279.397E-03    -281.453E-03    -280.327E-03     560.740E-03    -280.510E-03    -6.76826E-03    -87.0442E+06    -93.3004E+06    -97.5639E+06    -92.9004E+06    -91.7077E+06    -93.3004E+06     3.61008E+06         65.6278
              71    -495.947E-09     12.3891E-03         1.52278    -321.406E-03    -602.311E-03    -586.979E-03         1.50745    -321.406E-03     301.203E-03     541.230E-03    -269.871E-03    -271.362E-03    -269.854E-03     541.213E-03    -271.362E-03    -7.36038E-03    -63.0796E+06     -70.846E+06    -74.9101E+06    -70.3484E+06    -67.6413E+06     -70.846E+06     3.65432E+06         64.5987
              72     195.520E-09     10.6897E-03         1.46456    -272.995E-03    -593.188E-03    -589.756E-03         1.46113    -272.995E-03     158.965E-03     527.637E-03    -263.340E-03    -264.322E-03    -263.931E-03     527.624E-03    -263.718E-03    -6.32565E-03    -45.9449E+06    -51.8916E+06    -58.7867E+06    -52.3578E+06    -52.3738E+06    -51.8916E+06     1.09070E+06         63.8271
              73     754.991E-09     8.99558E-03         1.45826    -276.587E-03    -586.200E-03    -583.200E-03         1.45525    -276.587E-03     138.954E-03     524.352E-03    -261.023E-03    -263.219E-03    -263.215E-03     524.347E-03    -261.023E-03    -3.06451E-03    -36.1451E+06    -40.9501E+06    -46.8508E+06    -40.0758E+06    -42.9200E+06    -40.9501E+06     1.14609E+06         63.5480
              74     1.84629E-06     7.30494E-03         1.48838    -303.620E-03    -590.328E-03    -589.388E-03         1.48744    -303.620E-03     87.0136E-03     535.580E-03    -264.276E-03    -271.349E-03    -265.857E-03     535.568E-03    -269.756E-03     3.85643E-03    -33.5921E+06    -37.9737E+06    -46.0739E+06    -38.3127E+06    -41.3533E+06    -37.9737E+06    -670.680E+03         64.0447
              75    -10.1702E-06     5.57835E-03         1.44819    -300.140E-03    -546.844E-03    -546.083E-03         1.44743    -300.140E-03     25.8061E-03     563.781E-03    -278.673E-03    -285.182E-03    -278.661E-03     563.770E-03    -285.182E-03     4.44731E-03    -38.6922E+06    -42.6424E+06    -51.3207E+06    -41.8548E+06    -48.1581E+06    -42.6424E+06    -29.6152E+03         65.5177
              76     8.54771E-06     3.78492E-03         1.47956    -352.709E-03    -517.874E-03    -517.604E-03         1.47929    -352.709E-03    -1.37928E-03     600.927E-03    -299.033E-03    -301.887E-03    -300.838E-03     600.907E-03    -300.061E-03     6.24050E-03    -47.9939E+06    -49.9337E+06    -61.8276E+06    -52.5967E+06    -57.2249E+06    -49.9337E+06    -1.51846E+06         67.7634
              77    -5.86057E-06     1.92262E-03         1.48587    -412.597E-03    -466.728E-03    -466.383E-03         1.48553    -412.597E-03    -6.34470E-03     635.848E-03    -317.019E-03    -318.867E-03    -318.824E-03     635.828E-03    -317.041E-03     6.21843E-03    -43.3043E+06    -46.5439E+06    -65.4566E+06    -49.0236E+06    -59.7373E+06    -46.5439E+06     1.84140E+06         70.2767
              78     718.312E-06     163.913E-09         1.46610    -427.480E-03    -432.066E-03    -430.802E-03         1.46583    -428.468E-03    -43.5961E-03     647.805E-03    -322.858E-03    -324.924E-03    -322.851E-03     647.797E-03    -324.924E-03     3.93293E-03    -36.9482E+06    -43.0688E+06    -57.2038E+06    -43.2457E+06    -50.9063E+06    -43.0688E+06     2.27618E+06         71.3792
              79     1.44514E-03     163.913E-09         1.47872    -429.821E-03    -438.997E-03    -437.908E-03         1.47862    -430.809E-03    -27.7431E-03     638.003E-03    -315.605E-03    -322.389E-03    -315.585E-03     637.983E-03    -322.389E-03     8.83462E-03    -33.1067E+06    -43.1917E+06    -48.3776E+06    -43.2628E+06    -38.2216E+06    -43.1917E+06    -973.097E+03         70.9610
              80     2.17517E-03     163.913E-09         1.48744    -434.203E-03    -446.173E-03    -445.847E-03         1.48711    -434.203E-03    -46.0195E-03     624.152E-03    -305.695E-03    -318.546E-03    -305.660E-03     624.117E-03    -318.546E-03     11.2253E-03    -23.7997E+06    -40.3985E+06    -44.2808E+06    -41.8732E+06    -26.2074E+06    -40.3985E+06    -1.55348E+06         70.3525
              81     2.91527E-03     163.913E-09         1.48077    -430.106E-03    -439.459E-03    -433.578E-03         1.48046    -435.676E-03    -43.3268E-03     608.209E-03    -294.819E-03    -313.920E-03    -294.771E-03     608.161E-03    -313.920E-03     13.1244E-03    -17.8894E+06    -33.9112E+06    -42.6338E+06    -40.1532E+06    -20.3701E+06    -33.9112E+06    -781.081E+03         69.6177
              82     3.66370E-03     163.913E-09         1.47555    -426.281E-03    -434.478E-03    -426.243E-03         1.47551    -434.478E-03    -4.11136E-03     592.606E-03    -283.918E-03    -308.812E-03    -283.863E-03     592.551E-03    -308.812E-03     13.9392E-03    -12.0282E+06    -24.6116E+06    -40.1472E+06    -37.5722E+06    -14.6031E+06    -24.6116E+06    -1.49948E+06         68.8109
              83     4.41988E-03     163.913E-09         1.47155    -423.973E-03    -432.890E-03    -423.959E-03         1.47154    -432.890E-03     9.93755E-03     577.233E-03    -273.041E-03    -303.503E-03    -272.980E-03     577.173E-03    -303.503E-03     14.3727E-03    -4.69380E+06    -15.0035E+06    -34.6825E+06    -32.9352E+06    -6.44113E+06    -15.0035E+06    -3.50633E+06         67.9984
              84     5.18517E-03     163.913E-09         1.46008    -413.259E-03    -430.871E-03    -413.254E-03         1.46008    -430.871E-03     1.52920E-03     561.775E-03    -263.930E-03    -298.635E-03    -263.870E-03     561.714E-03    -298.635E-03     14.1118E-03     5.24413E+06    -4.76884E+06    -28.0442E+06    -26.0113E+06     3.21129E+06    -4.76884E+06    -4.43795E+06         67.2474
              85     5.95648E-03     163.913E-09         1.45739    -413.706E-03    -428.612E-03    -413.704E-03         1.45739    -428.612E-03    -3.72231E-03     549.146E-03    -256.698E-03    -294.168E-03    -256.645E-03     549.093E-03    -294.168E-03     13.0669E-03     14.4722E+06     5.66633E+06    -19.9941E+06    -18.0697E+06     12.5479E+06     5.66633E+06    -6.07056E+06         66.6119
              86     6.73473E-03     163.913E-09         1.46676    -419.031E-03    -427.149E-03    -418.975E-03         1.46671    -427.149E-03    -15.9352E-03     540.059E-03    -251.376E-03    -289.437E-03    -251.328E-03     540.011E-03    -289.437E-03     12.3338E-03     23.1379E+06     16.3356E+06    -11.5470E+06    -9.46189E+06     21.0528E+06     16.3356E+06    -6.31580E+06         66.3003
              87     7.51462E-03     163.913E-09         1.47059    -390.828E-03    -424.885E-03    -390.705E-03         1.47047    -424.885E-03    -30.2068E-03     534.163E-03    -248.883E-03    -284.741E-03    -248.838E-03     534.118E-03    -284.741E-03     11.8704E-03     33.2117E+06     28.7084E+06    -4.24357E+06    -1.98379E+06     30.2016E+06     29.4587E+06    -4.19006E+06         66.6796
              88     8.29597E-03     163.913E-09         1.47064    -402.399E-03    -649.771E-03    -620.155E-03         1.47055    -431.923E-03    -26.4849E-03     531.073E-03    -249.530E-03    -281.425E-03    -249.500E-03     531.043E-03    -281.425E-03     9.46126E-03     50.6202E+06     43.9370E+06     2.47520E+06     5.62979E+06     40.7824E+06     50.6202E+06    -6.12378E+06         67.9865
              89     9.07686E-03     163.913E-09         1.47718     306.611E-03    -637.085E-03     88.7898E-03         1.47715    -419.237E-03    -12.3815E-03     533.308E-03    -254.449E-03    -279.419E-03    -254.436E-03     533.295E-03    -279.419E-03     6.33187E-03     77.1885E+06     61.0551E+06     3.13475E+06     11.2396E+06     52.9502E+06     77.1885E+06     4.25968E+06         70.2466
              90     9.84942E-03     163.913E-09         1.49379     273.935E-03        -2.59931        -1.87328         1.49361    -451.912E-03     45.4225E-03     545.864E-03    -266.501E-03    -278.010E-03    -266.495E-03     545.857E-03    -278.010E-03     4.45854E-03     92.1328E+06      58.943E+06     5.28414E+06     10.8315E+06     53.3956E+06     92.1328E+06     9.33214E+06         73.3886
              91     10.6120E-03     163.913E-09         8.34798     437.676E-03        -2.46437         5.19166         1.44661    -316.971E-03    -257.125E-03     569.731E-03    -276.714E-03    -291.208E-03    -289.888E-03     569.725E-03    -278.027E-03    -1.08536E-03     88.3674E+06     55.7253E+06    -20.5058E+06    -1.08441E+06     36.3039E+06     88.3674E+06     23.8722E+06         77.2907
              92     11.3559E-03     163.913E-09         8.85423    -128.615E-03        -33.5840        -25.8737         1.89852    -883.261E-03         2.44730     607.234E-03    -279.558E-03    -325.560E-03    -325.506E-03     607.179E-03    -279.558E-03    -12.7086E-03     63.8114E+06     20.1898E+06    -51.8778E+06    -28.7033E+06    -2.98475E+06     63.8114E+06     33.5888E+06         81.7026
              93     12.0724E-03     163.913E-09         156.310         1.34257        -35.2432         119.422         1.64482         1.34257        -33.8268     673.476E-03    -284.151E-03    -387.455E-03    -387.399E-03     673.419E-03    -284.151E-03    -13.7766E-03     30.7515E+06    -25.2309E+06    -90.6779E+06    -37.5179E+06    -78.3909E+06     30.7515E+06     235.803E+03         85.8270
              94     12.7165E-03     163.913E-09         154.917     302.846E-03        -341.429        -186.083    -428.146E-03     302.846E-03        -5.02244     768.101E-03    -292.509E-03    -475.605E-03    -474.305E-03     766.800E-03    -292.509E-03     54.9378E-03     37.2075E+06     9.10531E+06    -83.0097E+06    -23.9173E+06    -49.9871E+06     37.2075E+06    -24.6636E+06         88.6657
              95     13.3455E-03     2.38693E-03         17.8919     356.025E-03        -339.548        -321.772         2.17343        -1.70190         24.5161     740.944E-03    -296.506E-03    -445.214E-03    -441.677E-03     737.407E-03    -296.506E-03     126.717E-03     35.8096E+06     24.1053E+06    -57.2806E+06    -8.33664E+06    -24.8387E+06     35.8096E+06    -14.4716E+06         89.0021
              96     13.3939E-03     4.27992E-03         18.6930         2.36865    -32.3630E-03         17.5104         3.55124    -32.3630E-03        -7.51384     635.122E-03    -294.755E-03    -340.017E-03    -336.333E-03     631.438E-03    -294.755E-03     119.250E-03     22.1396E+06    -2.03022E+06    -51.8876E+06    -12.5598E+06     -22.804E+06     3.58558E+06     7.27043E+06         87.9747
              97     13.4207E-03     6.07879E-03         1.42589    -57.6499E-03        -1.38024    -878.643E-03         1.26739    -400.739E-03    -539.405E-03     602.859E-03    -293.953E-03    -308.957E-03    -306.865E-03     600.767E-03    -293.953E-03     85.6829E-03     42.4316E+06     22.9912E+06     2.14805E+06     13.5964E+06     30.9832E+06     22.9912E+06     2.82893E+06         87.2791
              98     13.4079E-03     7.89947E-03         1.43977    -423.312E-03        -2.66871        -2.66816         1.43921    -423.312E-03    -59.8687E-03     597.461E-03    -294.446E-03    -305.167E-03    -303.988E-03     596.281E-03    -294.446E-03     65.1234E-03     39.4226E+06     37.9169E+06    -4.34691E+06     6.62183E+06     28.4538E+06     37.9169E+06    -526.599E+03         86.5969
              99     13.4089E-03     9.72311E-03         1.39519    -423.870E-03        -2.63101        -2.63000         1.39418    -423.870E-03    -80.9777E-03     593.031E-03    -294.829E-03    -300.299E-03    -299.095E-03     591.827E-03    -294.829E-03     65.4069E-03     42.8782E+06     27.6743E+06    -7.00636E+06    -5.39642E+06     26.6836E+06     42.2590E+06     1.61889E+06         85.9120
             100     13.4082E-03     11.5297E-03         1.45565    -422.397E-03        -1.43490        -1.43375         1.45450    -422.397E-03    -111.209E-03     586.721E-03    -293.168E-03    -295.739E-03    -292.344E-03     585.313E-03    -295.155E-03     70.3426E-03     49.0769E+06     30.9613E+06    -668.293E+03     946.395E+03     29.3466E+06     49.0769E+06     731.059E+03         85.2569
             101     13.4089E-03     13.3371E-03         1.45507    -286.867E-03    -489.443E-03    -357.950E-03         1.45488    -418.170E-03    -13.7081E-03     583.959E-03    -291.018E-03    -295.245E-03    -289.459E-03     582.401E-03    -295.245E-03     73.7601E-03     51.9389E+06     31.7414E+06    -2.29899E+06    -2.10363E+06     31.5461E+06     51.9389E+06     432.369E+03         84.6716
             102     13.4098E-03     15.1322E-03         1.42262    -276.639E-03    -413.789E-03    -276.599E-03         1.42258    -413.789E-03     8.53521E-03     583.673E-03    -290.879E-03    -295.152E-03    -289.190E-03     581.983E-03    -295.152E-03     76.8004E-03     59.0428E+06     33.6622E+06     389.949E+03     598.046E+03     33.4541E+06     59.0428E+06     160.357E+03         84.1982
             103     13.4099E-03     16.9276E-03         1.42366    -405.366E-03    -415.891E-03    -410.020E-03         1.42363    -411.213E-03     6.79329E-03     583.690E-03    -290.956E-03    -295.173E-03    -289.154E-03     581.887E-03    -295.173E-03     79.3102E-03     62.0926E+06     34.3482E+06    -3.06827E+06    -3.00018E+06     34.2801E+06     62.0926E+06    -136.310E+03         83.8362
             104     13.4084E-03     18.7236E-03         1.42139    -408.348E-03    -413.500E-03    -412.978E-03         1.42134    -408.821E-03    -209.264E-06     583.537E-03    -290.256E-03    -295.151E-03    -288.343E-03     581.624E-03    -295.151E-03     81.6703E-03     67.3282E+06     34.6428E+06    -546.839E+03    -481.813E+03     34.5778E+06     67.3282E+06    -49.7946E+03         83.5647
             105     13.4107E-03     20.5239E-03         1.41031    -406.389E-03    -408.627E-03    -408.118E-03         1.41028    -406.862E-03    -3.14602E-03     582.953E-03    -289.798E-03    -295.211E-03    -287.801E-03     580.956E-03    -295.211E-03     83.3878E-03     68.8188E+06     35.0518E+06    -2.65377E+06    -2.60731E+06     35.0053E+06     68.8188E+06    -130.545E+03         83.3839
             106     13.4103E-03     22.3194E-03         1.41084    -404.094E-03    -410.056E-03    -410.043E-03         1.41083    -404.094E-03     3.65811E-03     583.586E-03    -290.627E-03    -295.192E-03    -288.565E-03     581.524E-03    -295.192E-03     84.8075E-03     70.2636E+06     34.6090E+06    -1.61202E+06    -1.56958E+06     34.5665E+06     70.2636E+06    -33.1224E+03         83.3012
             107     13.4093E-03     24.1154E-03         1.40676    -399.175E-03    -406.130E-03    -403.343E-03         1.40673    -401.933E-03    -12.6007E-03     585.696E-03    -292.564E-03    -295.094E-03    -290.490E-03     583.622E-03    -295.094E-03     85.2431E-03     69.8163E+06     33.4100E+06    -5.09198E+06    -5.07279E+06     33.3908E+06     69.8163E+06    -350.456E+03         83.2846
             108     13.4081E-03     25.9144E-03         1.40803    -398.758E-03    -412.591E-03    -409.792E-03         1.40799    -401.516E-03    -2.69603E-03     586.669E-03    -293.391E-03    -295.169E-03    -291.346E-03     584.623E-03    -295.169E-03     84.7515E-03     70.9520E+06     33.8658E+06    -3.26608E+06    -3.25161E+06     33.8513E+06     70.9520E+06    -230.778E+03         83.2754
             109     13.4085E-03     27.7130E-03         1.40831    -400.817E-03    -415.333E-03    -415.195E-03         1.40818    -400.817E-03    -14.0352E-03     585.331E-03    -292.028E-03    -295.256E-03    -289.973E-03     583.275E-03    -295.256E-03     84.8272E-03     69.8624E+06     35.0334E+06    -3.40151E+06     -3.3862E+06     35.0181E+06     69.8624E+06    -196.282E+03         83.2508
             110     13.4088E-03     29.5122E-03         1.39801    -400.210E-03    -408.245E-03    -408.121E-03         1.39789    -400.210E-03    -20.9512E-03     583.731E-03    -290.663E-03    -295.199E-03    -288.493E-03     581.561E-03    -295.199E-03     86.9936E-03     71.2253E+06     36.9123E+06    -59.7935E+03    -54.2073E+03     36.9067E+06     71.2253E+06     359.454E+03         83.2260
             111     13.4106E-03     31.3055E-03         1.40025    -400.320E-03    -409.754E-03    -409.670E-03         1.40016    -400.320E-03    -17.1790E-03     584.561E-03    -291.540E-03    -295.189E-03    -289.369E-03     582.390E-03    -295.189E-03     87.1060E-03     70.3705E+06     36.1241E+06    -1.99453E+06    -1.99224E+06     36.1218E+06     70.3705E+06     257.097E+03         83.2138
             112     13.4092E-03     33.1043E-03         1.39784    -400.668E-03    -406.560E-03    -405.353E-03         1.39768    -401.720E-03    -33.4992E-03     586.510E-03    -293.358E-03    -295.168E-03    -291.255E-03     584.407E-03    -295.168E-03     85.9281E-03     71.2201E+06     35.4312E+06    -1.58096E+06    -1.57803E+06     35.4283E+06     71.2201E+06     46.2673E+03         83.2063
             113     13.4108E-03     34.9036E-03         1.39800    -402.553E-03    -404.891E-03    -403.752E-03         1.39791    -403.605E-03    -23.5553E-03     587.236E-03    -293.910E-03    -295.149E-03    -291.767E-03     585.093E-03    -295.149E-03     86.7923E-03     69.3850E+06     34.6374E+06    -2.73073E+06    -2.70938E+06     34.6161E+06     69.3850E+06    -720.733E+03         83.1912
             114     13.4119E-03     36.7022E-03         1.40349    -404.825E-03    -406.742E-03    -406.615E-03         1.40336    -404.825E-03    -27.5565E-03     587.948E-03    -294.537E-03    -295.435E-03    -292.665E-03     585.837E-03    -295.196E-03     86.2165E-03     72.5950E+06     37.4703E+06    -742.506E+03    -609.304E+03     37.3371E+06     72.5950E+06     967.807E+03         83.1654
             115     13.4092E-03     38.5131E-03         1.40721    -406.084E-03    -408.413E-03    -408.267E-03         1.40707    -406.084E-03    -31.2888E-03     589.114E-03    -295.235E-03    -295.809E-03    -293.724E-03     587.030E-03    -295.235E-03     85.7950E-03     70.3360E+06     36.4459E+06    -2.22890E+06    -1.74293E+06     35.9600E+06     70.3360E+06     4.05753E+06         83.1285
             116     13.4082E-03     40.3136E-03         1.40598    -405.613E-03    -409.754E-03    -407.271E-03         1.40594    -408.056E-03    -15.6637E-03     588.826E-03    -294.947E-03    -295.512E-03    -293.145E-03     586.688E-03    -295.177E-03     86.8365E-03     68.0404E+06     33.6539E+06    -3.99041E+06    -3.61680E+06     33.2803E+06     68.0404E+06     2.59428E+06         83.0807
             117     13.4098E-03     42.1160E-03         1.40587    -407.957E-03    -412.487E-03    -410.020E-03         1.40585    -410.400E-03    -12.6378E-03     588.391E-03    -294.857E-03    -295.318E-03    -292.946E-03     586.249E-03    -295.087E-03     86.8998E-03     71.6435E+06     36.0533E+06    -1.96826E+06    -1.96771E+06     36.0527E+06     71.6435E+06     142.234E+03         83.0218
             118     13.4099E-03     43.9228E-03         1.40490    -405.675E-03    -414.285E-03    -407.706E-03         1.40485    -412.198E-03    -19.7343E-03     588.833E-03    -295.032E-03    -295.751E-03    -293.652E-03     586.734E-03    -295.032E-03     86.0754E-03     70.5501E+06     35.6335E+06    -1.85884E+06    -1.85788E+06     35.6326E+06     70.5501E+06     178.878E+03         82.9587
             119     13.4111E-03     45.7280E-03         1.39962    -400.737E-03    -412.912E-03    -400.689E-03         1.39957    -412.912E-03    -5.23823E-03     588.925E-03    -295.044E-03    -295.901E-03    -293.833E-03     586.857E-03    -295.044E-03     85.4568E-03     70.7832E+06     35.5662E+06    -2.23961E+06    -2.23809E+06     35.5647E+06     70.7832E+06     11.3131E+03         82.8998
             120     13.4102E-03     47.5366E-03         1.40591    -406.299E-03    -412.364E-03    -406.269E-03         1.40588    -412.364E-03    -1.83734E-03     588.934E-03    -295.059E-03    -295.836E-03    -293.746E-03     586.843E-03    -295.059E-03     85.9146E-03     70.1975E+06     35.7978E+06    -1.60253E+06    -1.59842E+06     35.7937E+06     70.1975E+06     141.993E+03         82.8471
             121     13.4103E-03     49.3392E-03         1.40331    -404.378E-03    -411.861E-03    -404.331E-03         1.40326    -411.861E-03    -18.3575E-03     588.860E-03    -295.021E-03    -295.751E-03    -293.634E-03     586.743E-03    -295.021E-03     86.4319E-03     72.0498E+06      36.517E+06    -1.94036E+06    -1.93658E+06     36.5132E+06     72.0498E+06     345.338E+03         82.7998
             122     13.4100E-03     51.1457E-03         1.39266    -398.845E-03    -412.213E-03    -398.816E-03         1.39263    -412.213E-03    -9.11747E-03     589.151E-03    -294.984E-03    -295.890E-03    -293.744E-03     587.005E-03    -294.984E-03     87.0500E-03     71.1339E+06     36.3738E+06      -1.858E+06    -1.85340E+06     36.3692E+06     71.1339E+06    -195.227E+03         82.7577
             123     13.4111E-03     52.9550E-03         1.39145    -401.924E-03    -412.534E-03    -401.894E-03         1.39142    -412.534E-03    -9.17084E-03     589.656E-03    -294.944E-03    -296.223E-03    -294.066E-03     587.499E-03    -294.944E-03     87.3159E-03     69.8413E+06     36.2239E+06    -1.89975E+06    -1.89306E+06     36.2172E+06     69.8413E+06    -67.0278E+03         82.7219
             124     13.4112E-03     54.7625E-03         1.39143    -403.869E-03    -411.172E-03    -403.835E-03         1.39139    -411.172E-03    -6.35549E-03     589.865E-03    -294.896E-03    -296.468E-03    -294.323E-03     587.721E-03    -294.896E-03     87.0872E-03     71.7896E+06     36.6959E+06    -2.09932E+06    -2.09671E+06     36.6933E+06     71.7896E+06     262.682E+03         82.6965
             125     13.4111E-03     56.5647E-03         1.37769    -397.395E-03    -407.426E-03    -397.377E-03         1.37768    -407.426E-03    -2.91365E-03     590.087E-03    -294.879E-03    -296.669E-03    -294.573E-03     587.990E-03    -294.879E-03     86.1318E-03     72.1041E+06     37.3396E+06    -1.93274E+06    -1.93221E+06     37.3390E+06     72.1041E+06     135.838E+03         82.6844
             126     13.4109E-03     58.3719E-03         1.36576    -391.764E-03    -403.040E-03    -391.742E-03         1.36573    -403.040E-03    -12.5610E-03     589.878E-03    -294.888E-03    -296.458E-03    -294.360E-03     587.781E-03    -294.888E-03     86.1199E-03     71.4940E+06     37.2707E+06    -1.91714E+06    -1.91021E+06     37.2638E+06     71.4940E+06    -269.311E+03         82.6812
             127     13.4111E-03     60.1773E-03         1.36086    -390.244E-03    -399.996E-03    -390.231E-03         1.36085    -399.996E-03    -9.09231E-03     589.638E-03    -294.895E-03    -296.346E-03    -294.197E-03     587.489E-03    -294.895E-03     87.1718E-03     70.6490E+06     37.2202E+06    -2.18030E+06    -2.16254E+06     37.2024E+06     70.6490E+06     108.964E+03         82.6816
             128     13.4117E-03     61.9861E-03         1.35668    -391.666E-03    -400.037E-03    -394.502E-03         1.35666    -397.183E-03    -10.6969E-03     589.818E-03    -294.884E-03    -296.683E-03    -294.552E-03     587.688E-03    -294.884E-03     86.8175E-03     72.7894E+06     38.0309E+06    -2.37563E+06    -2.36310E+06     38.0184E+06     72.7894E+06     305.312E+03         82.6844
             129     13.4109E-03     63.7916E-03         1.34604    -388.640E-03    -395.279E-03    -391.401E-03         1.34595    -392.425E-03    -23.7010E-03     589.897E-03    -294.881E-03    -296.792E-03    -294.696E-03     587.801E-03    -294.881E-03     86.1146E-03     72.6718E+06     38.5332E+06    -1.92630E+06    -1.92368E+06     38.5306E+06     72.6718E+06         -980.25         82.6898
             130     13.4109E-03     65.5970E-03         1.32683    -380.636E-03    -387.072E-03    -380.553E-03         1.32675    -387.072E-03    -20.2967E-03     589.519E-03    -294.870E-03    -296.463E-03    -294.352E-03     587.407E-03    -294.870E-03     86.3971E-03     71.3696E+06     38.6471E+06    -1.93275E+06    -1.93085E+06     38.6452E+06     71.3696E+06     270.241E+03         82.6976
             131     13.4110E-03     67.4020E-03         1.32227    -379.332E-03    -390.127E-03    -387.401E-03         1.32220    -381.983E-03    -19.5210E-03     589.461E-03    -294.857E-03    -296.464E-03    -294.320E-03     587.318E-03    -294.857E-03     87.0522E-03     73.1804E+06     39.4434E+06    -2.05530E+06    -2.05436E+06     39.4425E+06     73.1804E+06     196.091E+03         82.7049
             132     13.4116E-03     69.2070E-03         1.31178    -373.835E-03    -384.898E-03    -381.861E-03         1.31166    -376.754E-03    -28.1796E-03     589.986E-03    -294.844E-03    -296.774E-03    -294.636E-03     587.848E-03    -294.844E-03     86.9697E-03     74.8825E+06     39.8709E+06    -2.18259E+06    -2.18196E+06     39.8703E+06     74.8825E+06     13.6332E+03         82.7072
             133     13.4110E-03     71.0162E-03         1.29814    -369.527E-03    -377.786E-03    -374.802E-03         1.29808    -372.447E-03    -20.2199E-03     590.083E-03    -294.848E-03    -296.807E-03    -294.666E-03     587.942E-03    -294.848E-03     87.0526E-03     72.3269E+06     39.3255E+06    -2.30040E+06    -2.29931E+06     39.3244E+06     72.3269E+06    -204.076E+03         82.7049
             134     13.4108E-03     72.8203E-03         1.29578    -368.663E-03    -380.975E-03    -380.951E-03         1.29576    -368.663E-03    -12.4561E-03     589.651E-03    -294.869E-03    -296.516E-03    -294.389E-03     587.523E-03    -294.869E-03     86.7351E-03     72.1336E+06     39.2879E+06    -2.23934E+06    -2.23419E+06     39.2827E+06     72.1336E+06     174.825E+03         82.7029
             135     13.4116E-03     74.6253E-03         1.28008    -364.375E-03    -371.878E-03    -371.312E-03         1.28005    -364.905E-03    -14.4781E-03     589.350E-03    -294.871E-03    -296.255E-03    -294.132E-03     587.228E-03    -294.871E-03     86.6037E-03     75.9973E+06     40.6654E+06    -1.99643E+06    -1.99081E+06     40.6598E+06     75.9973E+06     138.937E+03         82.7033
             136     13.4115E-03     76.4294E-03         1.26558    -361.417E-03    -368.279E-03    -367.720E-03         1.26555    -361.947E-03    -9.82377E-03     589.656E-03    -294.863E-03    -296.454E-03    -294.330E-03     587.532E-03    -294.863E-03     86.6559E-03     75.1907E+06     40.5080E+06    -1.84391E+06    -1.84246E+06     40.5066E+06     75.1907E+06    -107.309E+03         82.7070
             137     13.4111E-03     78.2357E-03         1.25758    -358.994E-03    -368.440E-03    -368.385E-03         1.25752    -358.994E-03    -13.5172E-03     589.893E-03    -294.852E-03    -296.584E-03    -294.483E-03     587.792E-03    -294.852E-03     86.2112E-03     74.2476E+06     40.0658E+06    -2.25669E+06    -2.25653E+06     40.0656E+06     74.2476E+06     57.6916E+03         82.7124
             138     13.4101E-03     80.0411E-03         1.24887    -355.684E-03    -363.301E-03    -363.246E-03         1.24882    -355.684E-03    -14.4752E-03     589.800E-03    -294.861E-03    -296.512E-03    -294.396E-03     587.684E-03    -294.861E-03     86.4995E-03     75.9554E+06     41.0070E+06    -1.76788E+06    -1.76781E+06     41.0070E+06     75.9554E+06     38.2627E+03         82.7167
             139     13.4098E-03     81.8475E-03         1.23839    -353.490E-03    -359.611E-03    -359.601E-03         1.23838    -353.490E-03    -6.56014E-03     589.765E-03    -294.873E-03    -296.448E-03    -294.333E-03     587.650E-03    -294.873E-03     86.4799E-03     75.6019E+06     40.6736E+06    -2.10441E+06    -2.10431E+06     40.6736E+06     75.6019E+06     16.2495E+03         82.7203
             140     13.4103E-03     83.6528E-03         1.22769    -352.521E-03    -356.382E-03    -356.367E-03         1.22767    -352.521E-03    -9.44474E-03     589.548E-03    -294.872E-03    -296.195E-03    -294.083E-03     587.436E-03    -294.872E-03     86.4030E-03     74.7101E+06     40.3511E+06    -2.22789E+06    -2.22631E+06     40.3495E+06     74.7101E+06     159.903E+03         82.7225
             141     13.4109E-03     85.4567E-03         1.22323    -351.707E-03    -355.019E-03    -355.014E-03         1.22323    -351.707E-03    -5.13011E-03     589.664E-03    -294.860E-03    -296.365E-03    -294.223E-03     587.522E-03    -294.860E-03     87.0303E-03     76.0264E+06     40.7368E+06    -2.11310E+06    -2.11093E+06     40.7347E+06     76.0264E+06     67.0786E+03         82.7230
             142     13.4110E-03     87.2635E-03         1.22166    -350.514E-03    -356.452E-03    -356.425E-03         1.22163    -350.514E-03    -10.3619E-03     590.061E-03    -294.835E-03    -296.610E-03    -294.489E-03     587.941E-03    -294.835E-03     86.6075E-03     75.9937E+06     40.9189E+06    -2.15516E+06    -2.15210E+06     40.9158E+06     75.9937E+06     114.409E+03         82.7277
             143     13.4114E-03     89.0684E-03         1.21158    -345.657E-03    -354.319E-03    -350.464E-03         1.21152    -349.450E-03    -19.5724E-03     589.717E-03    -294.851E-03    -295.817E-03    -293.712E-03     587.612E-03    -294.851E-03     86.2506E-03     75.5720E+06     40.9092E+06    -2.07877E+06    -2.07120E+06     40.9017E+06     75.5720E+06    -101.261E+03         82.7454
             144     13.4118E-03     90.8725E-03         1.19971    -345.009E-03    -349.058E-03    -344.962E-03         1.19966    -349.058E-03    -16.4269E-03     589.559E-03    -294.301E-03    -295.246E-03    -293.116E-03     587.429E-03    -294.301E-03     86.7235E-03     75.0218E+06     40.2354E+06    -2.02526E+06    -2.02011E+06     40.2302E+06     75.0218E+06    -353.296E+03         82.7716
             145     13.4104E-03     92.6760E-03         1.19481    -345.559E-03    -348.856E-03    -345.453E-03         1.19470    -348.856E-03    -23.1374E-03     590.274E-03    -293.845E-03    -296.152E-03    -294.025E-03     588.147E-03    -293.845E-03     86.7368E-03     75.8155E+06     40.2285E+06    -2.26571E+06    -2.26027E+06     40.2230E+06     75.8155E+06     319.494E+03         82.7944
             146     13.4104E-03     94.4817E-03         1.18574    -342.019E-03    -348.328E-03    -341.917E-03         1.18564    -348.328E-03    -21.5425E-03     590.333E-03    -293.728E-03    -296.780E-03    -294.716E-03     588.269E-03    -293.728E-03     85.4835E-03     75.5476E+06     40.6740E+06    -2.29305E+06    -2.28226E+06     40.6632E+06     75.5476E+06     2.56884E+03         82.8133
             147     13.4087E-03     96.2916E-03         1.18271    -342.982E-03    -346.545E-03    -342.930E-03         1.18266    -346.545E-03    -16.3609E-03     589.569E-03    -293.682E-03    -296.510E-03    -294.431E-03     587.490E-03    -293.682E-03     85.7143E-03     74.7628E+06     39.5930E+06    -2.33566E+06    -2.32217E+06     39.5796E+06     74.7628E+06     68.7657E+03         82.8376
             148     13.4104E-03     98.0951E-03         1.17309    -336.827E-03    -344.325E-03    -336.704E-03         1.17296    -344.325E-03    -26.9810E-03     589.061E-03    -294.077E-03    -295.860E-03    -293.680E-03     586.881E-03    -294.077E-03     87.7330E-03     77.2163E+06     39.8800E+06    -2.18866E+06    -2.15164E+06     39.8430E+06     77.2163E+06    -380.219E+03         82.8802
             149     13.4105E-03     101.702E-03         1.15544    -335.665E-03    -340.790E-03    -335.605E-03         1.15538    -340.790E-03    -9.47176E-03     590.187E-03    -294.457E-03    -295.803E-03    -293.701E-03     588.085E-03    -294.457E-03     86.2060E-03     75.5443E+06     39.9239E+06    -2.29372E+06    -2.28197E+06     39.9122E+06     75.5443E+06     615.754E+03         83.0339
             150     13.4106E-03     103.501E-03         1.14451    -329.738E-03    -338.033E-03    -329.681E-03         1.14445    -338.033E-03    -13.6063E-03     590.583E-03    -294.475E-03    -295.988E-03    -293.917E-03     588.512E-03    -294.475E-03     85.5884E-03     76.2055E+06     40.4447E+06    -2.69362E+06    -2.67240E+06     40.4234E+06     76.2055E+06    -493.393E+03         83.1206
             151     13.4104E-03     105.303E-03         1.12641    -322.177E-03    -334.901E-03    -322.175E-03         1.12641    -334.901E-03    -3.33165E-03     590.356E-03    -294.477E-03    -296.104E-03    -293.972E-03     588.224E-03    -294.477E-03     86.8459E-03     76.1080E+06     40.6938E+06    -2.28891E+06    -2.23684E+06     40.6417E+06     76.1080E+06     191.914E+03         83.1923
             152     13.4111E-03     107.105E-03         1.10988    -320.043E-03    -331.040E-03    -320.000E-03         1.10983    -331.040E-03    -13.3730E-03     589.868E-03    -294.450E-03    -295.884E-03    -293.711E-03     587.695E-03    -294.450E-03     87.6467E-03     78.2583E+06     41.7529E+06    -1.27670E+06    -1.23142E+06     41.7076E+06     78.2583E+06     311.487E+03         83.2529
             153     13.4106E-03     108.909E-03         1.09219    -312.824E-03    -325.318E-03    -312.777E-03         1.09215    -325.318E-03    -15.3158E-03     590.327E-03    -294.484E-03    -295.862E-03    -293.718E-03     588.183E-03    -294.484E-03     87.0852E-03     75.1064E+06     39.1752E+06    -2.29380E+06    -2.28036E+06     39.1618E+06     75.1064E+06    -568.145E+03         83.3037
             154     13.4107E-03     110.715E-03         1.07916    -308.274E-03    -318.492E-03    -308.230E-03         1.07912    -318.492E-03    -14.5759E-03     590.659E-03    -294.407E-03    -296.252E-03    -294.142E-03     588.549E-03    -294.407E-03     86.4091E-03     74.7772E+06     38.3023E+06    -2.53687E+06    -2.52543E+06     38.2909E+06     74.7772E+06     440.015E+03         83.3449
             155     13.4098E-03     112.521E-03         1.06637    -307.736E-03    -312.903E-03    -307.667E-03         1.06630    -312.903E-03    -19.5430E-03     590.057E-03    -294.402E-03    -296.200E-03    -294.062E-03     587.919E-03    -294.402E-03     86.9546E-03     77.7407E+06     39.9500E+06    -2.06391E+06    -2.04892E+06     39.9350E+06     77.7407E+06     199.040E+03         83.3882
             156     13.4107E-03     114.323E-03         1.04275    -301.321E-03    -307.208E-03    -301.284E-03         1.04271    -307.208E-03    -12.2976E-03     589.777E-03    -294.398E-03    -295.620E-03    -293.488E-03     587.645E-03    -294.398E-03     86.7703E-03     78.3539E+06     39.9784E+06    -1.70433E+06    -1.70048E+06     39.9745E+06     78.3539E+06    -347.698E+03         83.4452
             157     13.4111E-03     116.125E-03         1.02319    -294.311E-03    -299.576E-03    -294.298E-03         1.02318    -299.576E-03    -7.99181E-03     590.035E-03    -294.319E-03    -295.466E-03    -293.353E-03     587.922E-03    -294.319E-03     86.3970E-03     78.7942E+06     39.2899E+06    -1.99349E+06    -1.99014E+06     39.2866E+06     78.7942E+06     191.437E+03         83.5148
             158     13.4114E-03     117.929E-03         1.00558    -289.707E-03    -293.466E-03    -291.016E-03         1.00555    -292.130E-03    -11.7947E-03     590.508E-03    -294.362E-03    -296.054E-03    -293.968E-03     588.422E-03    -294.362E-03     85.8888E-03     78.3200E+06     39.5235E+06    -2.38591E+06    -2.38250E+06     39.5201E+06     78.3200E+06     182.153E+03         83.5883
             159     13.4098E-03     119.737E-03     983.769E-03    -285.082E-03    -287.145E-03    -287.128E-03     983.753E-03    -285.082E-03    -7.06081E-03     590.413E-03    -294.366E-03    -296.163E-03    -294.116E-03     588.366E-03    -294.366E-03     85.1013E-03     77.6186E+06     39.8729E+06    -2.06589E+06    -2.06560E+06     39.8726E+06     77.6186E+06    -87.2013E+03         83.6609
             160     13.4102E-03     121.543E-03     962.099E-03    -277.195E-03    -278.335E-03    -278.262E-03     962.025E-03    -277.195E-03    -13.9215E-03     589.825E-03    -294.398E-03    -295.933E-03    -293.816E-03     587.708E-03    -294.398E-03     86.4933E-03     78.1346E+06     39.1193E+06    -2.54074E+06    -2.53973E+06     39.1183E+06     78.1346E+06     131.717E+03         83.7402
             161     13.4113E-03     123.349E-03     939.331E-03    -270.037E-03    -272.334E-03    -272.246E-03     939.243E-03    -270.037E-03    -19.3236E-03     589.629E-03    -294.357E-03    -295.750E-03    -293.626E-03     587.505E-03    -294.357E-03     86.6243E-03     80.6276E+06     39.9525E+06    -2.15759E+06    -2.15339E+06     39.9483E+06     80.6276E+06    -121.317E+03         83.8429
             162     13.4109E-03     125.150E-03     921.187E-03    -263.398E-03    -269.953E-03    -269.913E-03     921.146E-03    -263.398E-03    -13.7074E-03     589.744E-03    -294.168E-03    -295.860E-03    -293.766E-03     587.650E-03    -294.168E-03     86.0384E-03     81.5886E+06     40.2821E+06    -2.31692E+06    -2.30488E+06     40.2700E+06     81.5886E+06     164.665E+03         83.9684
             163     13.4120E-03     126.917E-03     908.150E-03    -256.221E-03    -267.687E-03    -267.626E-03     908.089E-03    -256.221E-03    -16.8166E-03     590.053E-03    -294.055E-03    -296.686E-03    -294.542E-03     587.910E-03    -294.055E-03     87.0897E-03     82.8548E+06     42.4225E+06    -2.33928E+06    -2.31208E+06     42.3953E+06     82.8548E+06     1.09197E+06         84.0791
             164     13.4131E-03     128.711E-03     882.714E-03    -248.853E-03    -256.936E-03    -255.589E-03     882.653E-03    -250.140E-03    -16.5458E-03     590.238E-03    -294.097E-03    -297.170E-03    -295.000E-03     588.068E-03    -294.097E-03     87.6611E-03     85.5725E+06     45.2745E+06    -3.35338E+06    -3.31223E+06     45.2333E+06     85.5725E+06    -85.8962E+03         84.1652
             165     13.4125E-03     130.526E-03     856.053E-03    -243.408E-03    -250.538E-03    -249.199E-03     856.001E-03    -244.695E-03     79.0302E-06     590.110E-03    -294.097E-03    -297.247E-03    -295.080E-03     587.943E-03    -294.097E-03     87.5768E-03     87.0685E+06     46.9238E+06    -2.67746E+06    -2.59686E+06     46.8432E+06     87.0685E+06     450.579E+03         84.2823
             166     13.4140E-03     132.328E-03     838.833E-03    -238.030E-03    -245.267E-03    -245.240E-03     838.807E-03    -238.030E-03     8.82876E-03     589.862E-03    -294.083E-03    -296.973E-03    -294.797E-03     587.686E-03    -294.083E-03     87.7483E-03     89.6099E+06     49.0420E+06    -3.83210E+06    -3.76500E+06     48.9749E+06     89.6099E+06     690.509E+03         84.4364
             167     13.4142E-03     134.147E-03     821.410E-03    -232.607E-03    -240.013E-03    -240.004E-03     821.402E-03    -232.607E-03     5.28694E-03     589.319E-03    -294.080E-03    -295.684E-03    -293.463E-03     587.098E-03    -294.080E-03     88.5506E-03     90.6624E+06     49.9230E+06    -1.98085E+06    -1.96972E+06     49.9119E+06     90.6624E+06    -298.990E+03         84.5379
             168     13.4164E-03     135.961E-03     806.837E-03    -228.827E-03    -241.627E-03    -241.618E-03     806.828E-03    -228.827E-03     5.42029E-03     588.960E-03    -294.102E-03    -295.839E-03    -293.659E-03     586.780E-03    -294.102E-03     87.7031E-03     93.8375E+06     51.8342E+06    -2.23848E+06    -2.20769E+06     51.8034E+06     93.8375E+06     1.14300E+06         84.5401
             169     13.4146E-03     137.764E-03     787.189E-03    -223.553E-03    -231.265E-03    -230.318E-03     787.166E-03    -224.477E-03    -5.32630E-03     589.412E-03    -294.187E-03    -297.279E-03    -295.217E-03     587.350E-03    -294.187E-03     85.4219E-03     97.4476E+06     56.1312E+06    -3.15029E+06    -3.11513E+06     56.0961E+06     97.4476E+06     506.721E+03         84.5161
             170     13.4149E-03     139.561E-03     769.314E-03    -219.269E-03    -224.838E-03    -223.891E-03     769.291E-03    -220.193E-03    -7.11907E-03     589.421E-03    -294.220E-03    -296.530E-03    -294.430E-03     587.320E-03    -294.220E-03     86.1603E-03     95.0907E+06     57.1814E+06    -2.87625E+06    -2.85392E+06     57.1590E+06     95.0907E+06     279.003E+03         84.5383
             171     13.4183E-03     141.363E-03     755.091E-03    -216.301E-03    -222.870E-03    -222.741E-03     754.961E-03    -216.301E-03    -16.1804E-03     588.987E-03    -294.182E-03    -295.616E-03    -293.386E-03     586.757E-03    -294.182E-03     88.6968E-03     98.3475E+06     58.6560E+06    -2.33254E+06    -2.31642E+06     58.6399E+06     98.3475E+06     721.526E+03         84.5646
             172     13.4197E-03     143.168E-03     735.320E-03    -210.472E-03    -214.876E-03    -212.267E-03     735.191E-03    -212.952E-03    -16.1240E-03     589.210E-03    -294.145E-03    -296.170E-03    -293.960E-03     587.000E-03    -294.145E-03     88.3465E-03     102.003E+06     62.7328E+06    -2.33772E+06    -2.31952E+06     62.7146E+06     102.003E+06     813.610E+03         84.5133
             173     13.4215E-03     144.974E-03     719.969E-03    -206.987E-03    -212.245E-03    -209.746E-03     719.951E-03    -209.468E-03     5.43098E-03     588.921E-03    -294.086E-03    -295.996E-03    -293.854E-03     586.780E-03    -294.086E-03     86.9550E-03     103.549E+06     67.9615E+06    -3.86892E+06    -3.82855E+06     67.9211E+06     103.549E+06     1.70116E+06         84.3795
             174     13.4228E-03     146.769E-03     702.098E-03    -199.225E-03    -207.482E-03    -201.956E-03     702.053E-03    -204.705E-03    -1.21757E-03     587.779E-03    -294.090E-03    -295.273E-03    -293.074E-03     585.580E-03    -294.090E-03     88.0012E-03     106.614E+06     74.1828E+06    -3.20209E+06    -3.17758E+06     74.1582E+06     106.614E+06     1.21178E+06         84.2089
             175     13.4255E-03     148.555E-03     682.099E-03    -193.765E-03    -200.494E-03    -193.737E-03     682.070E-03    -200.494E-03    -6.06649E-03     586.722E-03    -293.914E-03    -294.564E-03    -292.135E-03     584.444E-03    -294.064E-03     89.5023E-03     109.235E+06     78.7039E+06    -3.41961E+06    -3.40866E+06     78.6929E+06     109.235E+06     906.705E+03         84.0311
             176     13.4306E-03     150.325E-03     667.552E-03    -195.883E-03    -199.418E-03    -198.169E-03     667.551E-03    -197.131E-03     689.327E-06     585.866E-03    -293.228E-03    -293.799E-03    -290.912E-03     583.551E-03    -293.799E-03     90.1175E-03     113.445E+06     84.5401E+06    -3.18072E+06    -3.16579E+06     84.5252E+06     113.445E+06     1.13800E+06         83.8771
             177     13.4361E-03     152.089E-03     647.308E-03    -185.068E-03    -194.568E-03    -187.354E-03     647.308E-03    -192.282E-03    -65.4933E-06     585.387E-03    -292.714E-03    -293.145E-03    -290.353E-03     583.016E-03    -293.136E-03     91.1227E-03     116.764E+06     90.9110E+06    -3.21365E+06    -3.16833E+06     90.8657E+06     116.764E+06     1.90755E+06         83.7903
             178     13.4418E-03     153.853E-03     621.037E-03    -174.966E-03    -187.298E-03    -174.934E-03     621.005E-03    -187.298E-03     7.21723E-03     584.933E-03    -292.594E-03    -292.630E-03    -290.181E-03     582.511E-03    -292.620E-03     92.0752E-03     118.123E+06     95.6918E+06    -3.88777E+06    -3.84642E+06     95.6504E+06     118.123E+06     1.02195E+06         83.7720
             179     13.4494E-03     155.610E-03     600.685E-03    -172.541E-03    -182.822E-03    -172.475E-03     600.620E-03    -182.822E-03     14.2134E-03     583.814E-03    -292.370E-03    -292.489E-03    -289.935E-03     581.380E-03    -292.489E-03     92.2423E-03     119.742E+06     97.7685E+06    -3.29681E+06    -3.27426E+06     97.7459E+06     119.742E+06     653.994E+03         83.7770
             180     13.4568E-03     157.375E-03     587.003E-03    -167.757E-03    -176.535E-03    -167.716E-03     586.963E-03    -176.535E-03     10.3140E-03     581.858E-03    -291.808E-03    -292.355E-03    -289.390E-03     579.439E-03    -292.355E-03     91.8063E-03     121.921E+06     100.153E+06    -3.80279E+06    -3.78237E+06     100.132E+06     121.921E+06     1.10156E+06         83.7819
             181     13.4633E-03     159.139E-03     558.706E-03    -155.425E-03    -169.653E-03    -155.403E-03     558.684E-03    -169.653E-03    -1.43281E-03     578.970E-03    -290.579E-03    -291.954E-03    -288.177E-03     576.568E-03    -291.954E-03     91.2812E-03     125.626E+06     107.925E+06    -2.78202E+06    -2.72349E+06     107.867E+06     125.626E+06     1.91187E+06         83.8063
             182     13.4708E-03     160.900E-03     527.476E-03    -147.866E-03    -162.651E-03    -147.849E-03     527.460E-03    -162.651E-03    -5.76679E-03     577.438E-03    -289.676E-03    -290.938E-03    -287.326E-03     575.089E-03    -290.938E-03     90.1476E-03     127.755E+06     116.193E+06    -3.93286E+06    -3.87437E+06     116.135E+06     127.755E+06     1.71325E+06         83.8668
             183     13.4743E-03     162.666E-03     505.653E-03    -146.017E-03    -154.334E-03    -145.981E-03     505.617E-03    -154.334E-03     5.45846E-03     577.672E-03    -288.963E-03    -289.955E-03    -286.644E-03     575.353E-03    -289.955E-03     89.5362E-03     129.083E+06     123.183E+06    -3.25710E+06    -3.17427E+06     123.100E+06     129.083E+06     2.17569E+06         83.9570
             184     13.4822E-03     164.421E-03     479.229E-03    -140.351E-03    -145.428E-03    -140.290E-03     479.168E-03    -145.428E-03     1.01744E-03     577.737E-03    -288.220E-03    -289.596E-03    -285.887E-03     575.404E-03    -289.596E-03     89.7680E-03     133.513E+06     130.754E+06    -3.20577E+06    -3.11992E+06     130.668E+06     133.513E+06     1.79804E+06         84.0778
             185     13.4859E-03     166.170E-03     454.588E-03    -131.914E-03    -135.912E-03    -131.888E-03     454.562E-03    -135.912E-03    -5.77099E-03     577.695E-03    -288.511E-03    -289.455E-03    -286.285E-03     575.470E-03    -289.455E-03     87.6804E-03     139.111E+06     135.372E+06    -2.35535E+06    -2.33525E+06     135.352E+06     139.111E+06     584.917E+03         84.2543
             186     13.4903E-03     167.947E-03     423.315E-03    -118.490E-03    -127.283E-03    -118.463E-03     423.289E-03    -127.283E-03     5.07218E-03     578.177E-03    -289.113E-03    -290.418E-03    -288.072E-03     576.048E-03    -289.330E-03     85.8891E-03     142.556E+06     139.160E+06    -3.86589E+06    -3.84886E+06     139.143E+06     142.556E+06     1.14263E+06         84.4969
             187     13.4944E-03     169.666E-03     397.359E-03    -112.801E-03    -124.240E-03    -118.479E-03     397.328E-03    -118.530E-03     7.40809E-03     580.357E-03    -289.043E-03    -293.037E-03    -290.751E-03     578.071E-03    -289.043E-03     89.2056E-03     146.991E+06     143.156E+06    -4.50970E+06    -4.50920E+06     143.155E+06     146.991E+06     254.859E+03         84.7767
             188     13.4990E-03     171.483E-03     365.787E-03    -97.0392E-03    -112.685E-03    -102.698E-03     365.736E-03    -106.975E-03    -4.00933E-03     582.861E-03    -288.695E-03    -295.204E-03    -292.829E-03     580.485E-03    -288.695E-03     91.2087E-03     149.752E+06     143.393E+06    -5.09466E+06    -5.09392E+06     143.392E+06     149.752E+06     332.311E+03         85.0624
             189     13.5004E-03     173.274E-03     332.789E-03    -86.2417E-03    -100.821E-03    -90.8045E-03     332.709E-03    -96.1775E-03    -743.860E-06     585.566E-03    -288.665E-03    -297.359E-03    -295.155E-03     583.362E-03    -288.665E-03     88.0964E-03     150.659E+06     140.794E+06    -5.94208E+06    -5.91633E+06     140.768E+06     150.659E+06    -1.16666E+06         85.3780
             190     13.5027E-03     175.031E-03     313.448E-03    -87.3336E-03    -92.2943E-03    -92.2535E-03     313.407E-03    -87.3336E-03     3.32621E-03     589.445E-03    -288.602E-03    -300.918E-03    -298.828E-03     587.355E-03    -288.602E-03     86.1766E-03     159.818E+06     136.362E+06    -3.18436E+06    -3.14740E+06     136.326E+06     159.818E+06    -426.067E+03         85.8334
             191     13.5047E-03     176.783E-03     285.648E-03    -78.0681E-03    -81.6637E-03    -81.6561E-03     285.641E-03    -78.0681E-03    -1.05858E-03     594.503E-03    -288.470E-03    -306.069E-03    -303.891E-03     592.325E-03    -288.470E-03     88.4441E-03     168.561E+06     130.818E+06    -6.17382E+06    -6.13420E+06     130.778E+06     168.561E+06    -467.595E+03         86.4899
             192     13.5055E-03     178.610E-03     257.129E-03    -68.3972E-03    -78.9520E-03    -78.7953E-03     256.973E-03    -68.3972E-03     11.0582E-03     600.400E-03    -288.408E-03    -312.415E-03    -310.083E-03     598.069E-03    -288.408E-03     92.1510E-03     166.582E+06     118.996E+06    -4.42713E+06    -4.34012E+06     118.909E+06     166.582E+06    -3.19578E+06         87.1868
             193     13.5068E-03     180.443E-03     226.241E-03    -58.9642E-03    -68.4037E-03    -67.7993E-03     225.636E-03    -58.9642E-03     25.4651E-03     607.743E-03    -288.228E-03    -319.912E-03    -317.559E-03     605.390E-03    -288.228E-03     93.3131E-03     166.574E+06     100.795E+06    -3.95395E+06    -3.84760E+06     100.689E+06     166.574E+06    -3.33573E+06         87.6924
             194     13.5077E-03     182.277E-03     197.158E-03    -50.3514E-03    -60.0719E-03    -59.6225E-03     196.709E-03    -50.3514E-03     15.7546E-03     617.256E-03    -288.025E-03    -329.510E-03    -327.239E-03     614.984E-03    -288.025E-03     92.6168E-03     174.208E+06     84.1736E+06    -5.14184E+06    -4.91338E+06     83.9451E+06     174.208E+06    -4.23662E+06         87.9610
             195     13.5082E-03     184.113E-03     169.053E-03    -42.2209E-03    -54.1226E-03    -54.1149E-03     169.045E-03    -42.2209E-03     2.00484E-03     626.224E-03    -287.717E-03    -339.491E-03    -337.212E-03     623.945E-03    -287.717E-03     93.7082E-03     172.310E+06     63.1250E+06    -5.21099E+06    -5.00456E+06     62.9185E+06     172.310E+06    -3.55677E+06         88.0765
             196     13.5080E-03     185.989E-03     144.073E-03    -34.3063E-03    -51.1010E-03    -51.0933E-03     144.066E-03    -34.3063E-03     1.47848E-03     635.169E-03    -287.419E-03    -348.674E-03    -346.349E-03     632.845E-03    -287.419E-03     95.5282E-03     161.697E+06     34.9506E+06    -11.0627E+06    -6.64997E+06     30.5379E+06     161.697E+06    -8.83062E+06         88.1176
             197     13.5085E-03     187.861E-03     127.476E-03    -27.1641E-03    -50.6536E-03    -50.5239E-03     127.346E-03    -27.1641E-03    -6.79755E-03     640.850E-03    -287.287E-03    -353.941E-03    -351.831E-03     638.740E-03    -287.287E-03     91.4189E-03     156.268E+06     25.6667E+06    -12.1316E+06     1.21917E+06     12.3159E+06     156.268E+06     1.39435E+06         88.1004
             198     13.5072E-03     189.733E-03     104.464E-03    -21.0186E-03    -38.1954E-03    -37.4044E-03     103.673E-03    -21.0186E-03    -19.0633E-03     640.411E-03    -287.139E-03    -353.544E-03    -351.699E-03     638.566E-03    -287.139E-03     85.5457E-03     114.069E+06     16.2216E+06    -50.9954E+06    -12.7750E+06    -21.9989E+06     114.069E+06    -14.2705E+06         87.9555
             199     13.5068E-03     191.547E-03     70.5773E-03    -12.9297E-03    -22.3002E-03    -18.3974E-03     69.9072E-03    -16.1625E-03    -13.5326E-03     636.764E-03    -287.380E-03    -349.576E-03    -347.986E-03     635.175E-03    -287.380E-03     78.9953E-03     146.713E+06     66.4164E+06    -47.4684E+06     19.6877E+06     -739.67E+03     146.713E+06     8.66503E+06         87.5439
             200     13.5054E-03     193.388E-03     54.2645E-03    -5.59589E-03    -11.9062E-03    -5.37467E-03     54.0433E-03    -11.9062E-03     4.03201E-03     614.764E-03    -287.796E-03    -327.514E-03    -326.442E-03     613.692E-03    -287.796E-03     62.9639E-03     149.429E+06     45.3798E+06    -49.8814E+06    -11.9036E+06     7.40194E+06     149.429E+06     30.8032E+06         86.7050
             201     13.5111E-03     195.197E-03     48.2938E-03    -2.64996E-03    -7.37675E-03    -2.43705E-03     48.0809E-03    -7.37675E-03     4.88287E-03     584.018E-03    -286.213E-03    -298.317E-03    -295.454E-03     583.074E-03    -288.131E-03     57.2256E-03     142.212E+06     22.5081E+06    -22.4433E+06    -12.1736E+06     12.2383E+06     142.212E+06    -8.65414E+06         85.6756
             202     13.5175E-03     197.007E-03     32.4076E-03     3.00226E-03    -3.64328E-03     4.73522E-03     30.6747E-03    -3.64328E-03     6.73334E-03     507.769E-03    -217.772E-03    -290.175E-03    -217.048E-03     507.045E-03    -290.175E-03     17.7266E-03     157.152E+06     72.5639E+06     7.82426E+06     19.2282E+06     61.1600E+06     157.152E+06    -14.7834E+06         84.8547
             203     12.5556E-03     198.500E-03     20.8500E-03     2.56812E-03    -8.56643E-03     347.977E-06     16.9320E-03    -2.42822E-03     17.8154E-03     441.235E-03    -145.357E-03    -296.259E-03    -141.567E-03     437.444E-03    -296.259E-03    -78.0286E-03     108.610E+06     21.3696E+06    -60.5964E+06    -31.2381E+06    -7.98872E+06     108.610E+06    -18.5997E+06         82.7607
             204     11.6590E-03     198.315E-03     14.3960E-03    -2.45278E-03    -14.5028E-03    -12.3172E-03     12.2104E-03    -2.45278E-03     10.8154E-03     445.816E-03    -141.907E-03    -304.487E-03    -130.606E-03     434.514E-03    -304.487E-03    -158.859E-03     122.295E+06    -1.21638E+06    -48.7782E+06    -19.7353E+06    -30.2593E+06     122.295E+06    -14.5196E+06         78.7964
             205     10.8006E-03     197.997E-03     18.2453E-03    -2.09969E-03    -11.8398E-03    -11.1315E-03     17.5369E-03    -2.09969E-03     6.69082E-03     464.157E-03    -152.499E-03    -311.933E-03    -131.566E-03     443.224E-03    -311.933E-03    -221.657E-03     124.601E+06     978.586E+03    -18.3763E+06    -14.7041E+06    -2.69367E+06     124.601E+06    -5.56118E+06         74.7371
             206     9.96809E-03     197.716E-03     19.3465E-03    -2.00282E-03    -12.3137E-03    -4.54052E-03     11.5733E-03    -2.00282E-03     21.4323E-03     493.044E-03    -174.435E-03    -318.393E-03    -143.406E-03     462.015E-03    -318.393E-03    -280.674E-03     116.732E+06    -3.54039E+06    -12.0919E+06    -9.31544E+06    -6.31687E+06     116.732E+06    -2.06964E+06         71.5271
             207     9.18181E-03     197.424E-03     13.2803E-03    -2.41357E-03    -9.76644E-03     1.18921E-03     2.32468E-03    -2.41357E-03     23.0148E-03     526.859E-03    -203.112E-03    -324.075E-03    -164.749E-03     488.497E-03    -324.075E-03    -325.731E-03     115.825E+06     7.84725E+06    -2.20071E+06     1.31005E+06     4.33649E+06     115.825E+06    -2.85202E+06         69.4554
             208     8.42100E-03     197.159E-03     16.0592E-03    -2.79223E-03    -11.0564E-03    -6.82105E-03     11.8239E-03    -2.79223E-03     13.4116E-03     562.902E-03    -234.690E-03    -327.900E-03    -192.969E-03     521.182E-03    -327.900E-03    -355.114E-03     104.968E+06     11.3960E+06    -4.17181E+06     3.88313E+06     3.34107E+06     104.968E+06    -7.68938E+06         68.7485
             209     7.69366E-03     196.931E-03     16.1074E-03    -2.79604E-03    -13.2588E-03    -11.9873E-03     14.8360E-03    -2.79604E-03     11.0371E-03     594.802E-03    -264.788E-03    -329.555E-03    -224.542E-03     554.556E-03    -329.555E-03    -362.859E-03     89.0868E+06     4.10531E+06    -13.8917E+06    -6.65937E+06    -3.12701E+06     89.0868E+06    -8.74373E+06         69.1886
             210     6.98709E-03     196.733E-03     21.7145E-03    -2.95564E-03    -7.21768E-03    -5.96318E-03     20.4600E-03    -2.95564E-03     10.8558E-03     619.190E-03    -289.950E-03    -330.313E-03    -255.023E-03     584.264E-03    -330.313E-03    -348.786E-03     80.6394E+06     6.04990E+06    -17.9582E+06    -11.2891E+06    -619.246E+03     80.6394E+06    -10.7064E+06         70.0671
             211     6.29821E-03     196.547E-03     25.4871E-03    -3.04164E-03    -7.23375E-03    -6.82508E-03     25.0784E-03    -3.04164E-03     2.69588E-03     639.322E-03    -310.850E-03    -329.663E-03    -282.953E-03     611.425E-03    -329.663E-03    -319.815E-03     74.3145E+06     11.0271E+06    -25.9867E+06    -17.0823E+06     2.12271E+06     74.3145E+06    -15.8163E+06         70.8967
             212     5.61167E-03     196.422E-03     15.0433E-03     139.147E-06    -6.04540E-03    -948.343E-06     13.1319E-03    -3.04644E-03    -5.61218E-03     654.633E-03    -322.742E-03    -331.708E-03    -306.713E-03     633.921E-03    -327.025E-03    -280.983E-03     65.4150E+06     5.39925E+06    -33.4630E+06    -23.3440E+06    -4.71974E+06     65.4150E+06    -17.0033E+06         71.5643
             213     4.93484E-03     196.289E-03     12.0573E-03     68.2607E-06    -10.2137E-03    -2.91421E-03     7.94344E-03    -3.11733E-03    -14.4945E-03     663.906E-03    -323.314E-03    -339.920E-03    -325.812E-03     649.797E-03    -323.314E-03    -234.716E-03     56.9922E+06     8.96312E+06    -32.6670E+06    -19.6501E+06    -4.05378E+06     56.9922E+06    -19.2840E+06         71.9962
             214     4.26134E-03     196.216E-03     20.5631E-03    -2.82337E-03    -10.2249E-03    -1.81338E-03     12.4567E-03    -3.12858E-03    -25.5460E-03     665.530E-03    -318.305E-03    -347.393E-03    -339.163E-03     657.300E-03    -318.305E-03    -179.158E-03     44.9717E+06     16.5293E+06    -34.0795E+06    -15.0763E+06    -2.47390E+06     44.9717E+06    -24.3909E+06         72.1868
             215     3.59333E-03     196.145E-03     20.4920E-03    -1.92955E-03    -4.71322E-03     11.2342E-03     7.32832E-03    -4.71322E-03    -11.9589E-03     659.284E-03    -312.105E-03    -347.052E-03    -343.611E-03     655.843E-03    -312.105E-03    -111.778E-03     27.2805E+06     13.5716E+06    -39.0797E+06    -14.8206E+06    -10.6875E+06     27.2805E+06    -26.1469E+06         72.1616
             216     2.92316E-03     196.116E-03     15.7741E-03    -6.45805E-03    -18.3092E-03     13.4088E-03    -13.4653E-03    -8.93651E-03     16.2534E-03     643.116E-03    -304.728E-03    -338.193E-03    -337.467E-03     642.390E-03    -304.728E-03    -43.8875E-03     18.7208E+06     6.56793E+06    -37.8294E+06    -9.82134E+06    -13.5987E+06     10.8794E+06    -25.9979E+06         71.9368
             217     2.23319E-03     196.162E-03     34.1092E-03    -3.74070E-03    -24.8799E-03     9.25653E-03     11.7393E-03    -15.5072E-03     7.16269E-03     618.322E-03    -296.334E-03    -322.726E-03    -322.537E-03     618.133E-03    -296.334E-03     11.1502E-03     15.5776E+06    -1.71322E+06    -35.7260E+06    -5.07339E+06    -15.0750E+06    -1.71322E+06    -25.1087E+06         71.5283
             218     1.52480E-03     196.197E-03     42.6087E-03    -7.05157E-03    -21.9511E-03    -6.54055E-03     42.0977E-03    -21.9511E-03    -4.48740E-03     588.457E-03    -287.355E-03    -301.951E-03    -301.370E-03     587.876E-03    -287.355E-03     44.2274E-03     21.3480E+06    -3.50795E+06    -27.0739E+06     168.334E+03    -5.89417E+06    -3.50795E+06    -23.7873E+06         70.9752
             219     788.460E-06     196.386E-03     80.3771E-03     14.2956E-03    -101.538E-03    -97.9433E-03     40.3141E-03     50.7636E-03    -11.7131E-03     558.598E-03    -268.266E-03    -290.634E-03    -289.946E-03     557.910E-03    -268.266E-03     48.1184E-03     18.1693E+06     656.827E+03    -20.0144E+06     2.38339E+06    -4.22852E+06     656.827E+03      -18.21E+06         70.4856
             220    -5.83441E-06     194.772E-03     132.990E-03     50.4706E-03    -179.136E-03    -177.868E-03     49.2031E-03     132.990E-03     6.04432E-03     575.749E-03    -275.841E-03    -300.030E-03    -293.993E-03     575.420E-03    -281.550E-03     11.6011E-03    -14.2427E+06    -17.7241E+06    -71.6916E+06    -18.6822E+06    -67.2522E+06    -17.7241E+06    -11.3347E+06         68.9865
             221    -3.92145E-06     192.892E-03     128.197E-03     50.1792E-03    -160.588E-03    -155.715E-03     45.3056E-03     128.197E-03    -18.2336E-03     588.514E-03    -288.830E-03    -299.630E-03    -288.771E-03     588.455E-03    -299.630E-03    -12.8175E-03    -93.8491E+06    -105.955E+06    -153.702E+06    -111.445E+06    -136.106E+06    -105.955E+06    -3.38685E+06         65.9992
             222    -4.60795E-06     191.119E-03     104.248E-03     59.2870E-03    -133.088E-03    -110.618E-03     46.6781E-03     94.3866E-03     43.4053E-03     557.700E-03    -275.073E-03    -282.501E-03    -275.067E-03     557.694E-03    -282.501E-03    -4.42439E-03    -174.211E+06    -229.155E+06    -237.574E+06    -236.139E+06    -175.647E+06    -229.155E+06    -6.22778E+06         63.2194
             223     609.118E-09     189.402E-03     131.365E-03     58.9163E-03    -148.183E-03    -127.754E-03     110.936E-03     58.9163E-03     118.127E-03     536.920E-03    -266.849E-03    -270.051E-03    -266.848E-03     536.919E-03    -270.051E-03    -2.06921E-03    -229.919E+06    -297.344E+06    -299.831E+06    -297.884E+06    -231.364E+06    -297.846E+06    -9.42706E+06         61.5510
             224    -2.39588E-06     187.695E-03     143.855E-03     20.1349E-03    -118.652E-03    -103.582E-03     128.784E-03     20.1349E-03     100.668E-03     522.228E-03    -260.354E-03    -261.935E-03    -260.353E-03     522.227E-03    -261.935E-03     582.376E-06    -198.625E+06    -227.848E+06    -275.595E+06    -222.352E+06    -251.366E+06    -228.350E+06     4.08715E+06         60.6393
             225     695.551E-09     186.015E-03     111.054E-03    -261.036E-06    -57.1552E-03    -40.2038E-03     43.9200E-03     49.9213E-03     82.7851E-03     508.644E-03    -253.713E-03    -255.188E-03    -254.467E-03     508.638E-03    -254.428E-03     3.84319E-03    -125.436E+06    -137.604E+06    -227.153E+06    -132.353E+06    -226.393E+06    -131.447E+06     3.66798E+06         60.0099
             226     74.1796E-09     184.356E-03     172.939E-03    -15.3736E-03    -91.3964E-03    -86.7089E-03     118.069E-03     34.8088E-03     43.5227E-03     497.641E-03    -247.899E-03    -250.072E-03    -250.062E-03     497.631E-03    -247.899E-03     5.60806E-03    -114.446E+06    -127.771E+06    -218.622E+06    -120.742E+06    -218.483E+06    -121.614E+06    -943.775E+03         59.4904
             227     1.80313E-06     182.720E-03     242.404E-03    -27.8693E-03    -135.824E-03    -130.199E-03     236.779E-03    -27.8693E-03    -35.0613E-03     490.598E-03    -243.676E-03    -247.137E-03    -247.128E-03     490.588E-03    -243.676E-03     5.38394E-03    -123.940E+06    -138.157E+06    -221.723E+06    -131.093E+06    -221.618E+06    -131.108E+06    -423.049E+03         59.1550
             228     1.36102E-06     181.094E-03     222.497E-03    -15.3426E-03    -109.568E-03    -97.4311E-03     210.360E-03    -15.3426E-03     2.88483E-03     486.953E-03    -242.361E-03    -244.874E-03    -244.858E-03     486.936E-03    -242.361E-03     6.75041E-03    -140.712E+06    -153.946E+06    -233.193E+06    -147.902E+06    -233.050E+06    -146.897E+06    -3.44897E+06         59.1556
             229    -500.905E-09     179.469E-03     214.744E-03    -14.6563E-03    -93.4929E-03    -79.4862E-03     200.737E-03    -14.6563E-03    -2.74368E-03     490.248E-03    -244.442E-03    -246.035E-03    -246.013E-03     490.226E-03    -244.442E-03     7.96603E-03    -146.387E+06    -158.737E+06    -249.568E+06    -152.616E+06    -249.503E+06    -152.572E+06    -1.86407E+06         59.5847
             230     2.59120E-06     177.832E-03     246.579E-03    -22.7832E-03    -115.297E-03    -105.659E-03     236.940E-03    -22.7832E-03    -17.7206E-03     498.047E-03    -247.749E-03    -250.773E-03    -250.753E-03     498.027E-03    -247.749E-03     7.73717E-03    -152.709E+06    -165.207E+06    -266.742E+06    -159.079E+06    -266.537E+06    -159.042E+06    -3.60241E+06         60.3529
             231     1.04754E-06     176.183E-03     294.127E-03    -41.2273E-03    -137.175E-03    -129.976E-03     286.927E-03    -41.2273E-03    -15.0186E-03     508.955E-03    -252.827E-03    -256.438E-03    -254.699E-03     508.931E-03    -254.542E-03     8.56819E-03    -166.506E+06    -178.029E+06    -293.037E+06    -171.913E+06    -292.820E+06    -172.839E+06    -4.36426E+06         61.2206
             232    -3.20292E-06     174.506E-03     306.379E-03    -43.9358E-03    -129.560E-03    -121.612E-03     298.431E-03    -43.9358E-03    -8.79701E-03     523.830E-03    -259.860E-03    -263.580E-03    -259.840E-03     523.811E-03    -263.580E-03     7.60976E-03    -171.453E+06    -181.302E+06    -305.296E+06    -176.728E+06    -305.212E+06    -176.112E+06     1.40497E+06         62.0383
             233     651.193E-12     172.812E-03     384.634E-03    -94.1746E-03    -136.323E-03    -125.046E-03     373.357E-03    -94.1746E-03    -43.5327E-03     538.623E-03    -267.520E-03    -270.352E-03    -267.509E-03     538.612E-03    -270.352E-03     5.93412E-03    -164.689E+06    -174.369E+06    -300.694E+06    -169.836E+06    -300.568E+06    -169.348E+06     402.002E+03         62.8605
             234    -760.329E-09     171.091E-03     391.749E-03    -72.2632E-03    -162.289E-03    -67.7810E-03     384.072E-03    -159.095E-03    -89.4251E-03     550.095E-03    -274.520E-03    -275.685E-03    -274.511E-03     550.085E-03    -275.685E-03     5.51741E-03    -165.483E+06    -175.089E+06    -302.814E+06    -170.558E+06    -302.760E+06    -170.068E+06    -1.91552E+06         63.7577
             235    -112.143E-09     169.345E-03     360.349E-03    -28.3408E-03    -175.901E-03    -19.9562E-03     351.965E-03    -175.901E-03    -80.0863E-03     559.733E-03    -279.149E-03    -281.349E-03    -279.140E-03     559.725E-03    -281.349E-03     5.30070E-03    -162.109E+06    -170.612E+06    -308.918E+06    -166.045E+06    -308.900E+06    -166.695E+06    -1.21725E+06         64.5382
             236    -2.25504E-06     167.587E-03     462.408E-03    -92.6823E-03    -204.996E-03    -82.7876E-03     452.514E-03    -204.996E-03    -132.987E-03     568.300E-03    -282.883E-03    -285.783E-03    -282.878E-03     568.296E-03    -285.783E-03     3.17933E-03    -157.210E+06    -165.034E+06    -317.575E+06    -161.145E+06    -317.558E+06    -161.116E+06    -1.16563E+06         65.0509
             237     341.168E-09     165.816E-03     511.347E-03    -122.125E-03    -208.036E-03    -147.587E-03     502.483E-03    -173.711E-03    -145.331E-03     573.401E-03    -285.094E-03    -288.168E-03    -285.092E-03     573.400E-03    -288.168E-03     1.89360E-03    -152.649E+06    -161.014E+06    -320.253E+06    -157.123E+06    -320.238E+06    -156.555E+06     1.05856E+06         65.4597
             238    -3.48712E-06     164.043E-03     534.017E-03    -113.176E-03    -225.951E-03    -216.414E-03     524.480E-03    -113.176E-03    -161.201E-03     576.435E-03    -286.292E-03    -289.601E-03    -286.291E-03     576.434E-03    -289.601E-03     541.522E-06    -151.863E+06    -158.724E+06    -317.992E+06    -156.373E+06    -317.940E+06    -154.266E+06    -649.722E+03         65.8248
             239     1.64140E-06     162.259E-03     513.134E-03    -40.5027E-03    -256.930E-03    -244.863E-03     501.067E-03    -40.5027E-03    -178.696E-03     578.522E-03    -288.478E-03    -289.970E-03    -288.478E-03     578.521E-03    -289.970E-03    -495.316E-06    -149.951E+06    -152.937E+06    -316.312E+06    -150.660E+06    -316.186E+06    -152.354E+06     981.540E+03         66.0741
             240    -1.73203E-06     160.470E-03     545.295E-03     36.4943E-03    -359.683E-03    -348.838E-03     534.450E-03     36.4943E-03    -165.999E-03     579.997E-03    -289.409E-03    -290.923E-03    -289.408E-03     579.997E-03    -290.923E-03    -760.586E-06    -138.999E+06    -140.344E+06    -306.120E+06    -140.439E+06    -306.025E+06    -138.999E+06     2.00330E+06         66.2842
             241     424.101E-09     158.684E-03     638.760E-03     54.8367E-03    -471.778E-03    -461.506E-03     628.488E-03     54.8367E-03    -191.860E-03     583.567E-03    -290.561E-03    -293.101E-03    -290.561E-03     583.567E-03    -293.101E-03    -1.70511E-03    -135.412E+06    -137.098E+06    -303.506E+06    -136.190E+06    -303.490E+06    -136.337E+06    -1.61093E+06         66.5029
             242    -2.25627E-06     156.889E-03     592.333E-03     119.870E-03    -476.072E-03    -466.790E-03     583.051E-03     119.870E-03    -131.040E-03     585.422E-03    -291.402E-03    -293.820E-03    -291.401E-03     585.421E-03    -293.820E-03    -1.93198E-03    -134.777E+06    -136.470E+06    -303.834E+06    -135.589E+06    -303.790E+06    -135.701E+06     790.176E+03         66.6902
             243     222.941E-09     155.096E-03     654.784E-03     103.078E-03    -502.374E-03    -501.060E-03     653.471E-03     103.078E-03    -44.1912E-03     585.433E-03    -290.957E-03    -293.821E-03    -290.956E-03     585.432E-03    -293.821E-03    -1.27471E-03    -133.013E+06    -134.718E+06    -291.776E+06    -134.764E+06    -291.729E+06    -133.013E+06     2.63064E+06         66.7917
             244    -1.70513E-06     153.307E-03     669.240E-03     66.9055E-03    -473.403E-03    -472.050E-03     667.888E-03     66.9055E-03    -72.2615E-03     586.858E-03    -291.913E-03    -294.190E-03    -291.912E-03     586.857E-03    -294.190E-03    -1.25880E-03    -136.660E+06    -138.542E+06    -283.026E+06    -137.608E+06    -283.014E+06    -137.607E+06     915.572E+03         66.8308
             245     1.01412E-06     151.505E-03     628.459E-03     25.7513E-03    -378.680E-03    -377.760E-03     627.539E-03     25.7513E-03    -56.2035E-03     587.986E-03    -293.483E-03    -294.172E-03    -293.482E-03     587.985E-03    -294.172E-03    -462.511E-06    -130.911E+06    -132.444E+06    -274.589E+06    -131.523E+06    -274.563E+06    -131.858E+06     1.32794E+06         66.8817
             246    -1.19444E-06     149.713E-03     720.555E-03    -146.500E-03    -290.392E-03    -289.575E-03     719.739E-03    -146.500E-03    -35.0252E-03     589.435E-03    -293.340E-03    -295.318E-03    -293.339E-03     589.434E-03    -295.318E-03    -275.542E-06    -120.121E+06    -120.859E+06    -263.956E+06    -120.885E+06    -263.929E+06    -120.121E+06     1.20388E+06         66.9353
             247    -1.52870E-06     147.909E-03     690.950E-03    -172.401E-03    -223.103E-03    -173.801E-03     690.506E-03    -221.259E-03     31.2792E-03     590.113E-03    -293.328E-03    -295.678E-03    -293.327E-03     590.112E-03    -295.678E-03    -1.86393E-03    -117.373E+06    -117.590E+06    -257.101E+06    -117.533E+06    -257.093E+06    -117.439E+06     592.069E+03         66.9835
             248     1.11258E-06     146.107E-03     655.591E-03    -77.0465E-03    -266.847E-03    -74.6223E-03     653.167E-03    -266.847E-03     78.4292E-03     590.497E-03    -294.094E-03    -295.847E-03    -294.094E-03     590.497E-03    -295.847E-03    -761.399E-06    -118.929E+06    -119.065E+06    -255.797E+06    -119.026E+06    -255.770E+06    -118.995E+06    -386.426E+03         67.0356
             249    -2.51525E-06     144.302E-03     736.555E-03    -94.2998E-03    -340.103E-03    -88.3819E-03     730.637E-03    -340.103E-03     139.155E-03     591.206E-03    -293.844E-03    -297.079E-03    -293.843E-03     591.205E-03    -297.079E-03    -1.28353E-03    -114.405E+06    -114.950E+06    -255.443E+06    -114.974E+06    -255.419E+06    -114.405E+06    -508.508E+03         67.0679
             250    -532.975E-09     142.497E-03     807.342E-03    -173.193E-03    -328.035E-03    -165.219E-03     799.369E-03    -328.035E-03     176.124E-03     590.974E-03    -293.776E-03    -296.617E-03    -293.775E-03     590.973E-03    -296.617E-03    -1.74354E-03    -112.409E+06    -113.069E+06    -258.419E+06    -113.090E+06    -258.398E+06    -112.409E+06    -445.980E+03         67.0819
             251    -638.628E-09     140.693E-03     761.290E-03    -197.619E-03    -258.397E-03    -189.158E-03     742.033E-03    -247.600E-03     255.595E-03     590.324E-03    -293.329E-03    -296.118E-03    -293.329E-03     590.324E-03    -296.118E-03    -505.938E-06    -113.810E+06    -114.491E+06    -259.998E+06    -114.059E+06    -259.935E+06    -114.305E+06     783.083E+03         67.1191
             252    -2.26849E-06     138.893E-03     777.526E-03    -196.930E-03    -263.705E-03    -228.689E-03     742.510E-03    -196.930E-03     375.375E-03     590.873E-03    -293.239E-03    -296.731E-03    -293.239E-03     590.873E-03    -296.731E-03    -572.723E-06    -111.852E+06    -112.358E+06    -242.043E+06    -111.987E+06    -241.919E+06    -112.348E+06     3.96287E+06         67.1917
             253     158.172E-09     137.087E-03     857.073E-03    -219.319E-03    -305.963E-03    -263.644E-03     814.754E-03    -219.319E-03     435.395E-03     591.486E-03    -294.100E-03    -296.521E-03    -294.934E-03     591.484E-03    -295.685E-03    -2.27905E-03    -110.662E+06    -112.121E+06    -219.540E+06    -112.202E+06    -219.458E+06    -110.662E+06     2.56764E+06         67.2677
             254     775.296E-09     135.289E-03     824.610E-03    -211.091E-03    -270.663E-03    -206.144E-03     760.090E-03    -211.091E-03     505.259E-03     590.445E-03    -293.955E-03    -295.615E-03    -295.612E-03     590.443E-03    -293.955E-03    -3.03885E-03    -109.450E+06    -112.733E+06    -207.161E+06    -110.904E+06    -207.156E+06    -111.285E+06     710.896E+03         67.3255
             255     315.153E-09     133.484E-03     878.338E-03    -197.087E-03    -317.953E-03    -148.150E-03     800.494E-03    -289.047E-03     563.239E-03     589.962E-03    -293.822E-03    -295.059E-03    -294.645E-03     589.961E-03    -294.235E-03    -1.83441E-03    -109.350E+06    -112.241E+06    -198.614E+06    -110.435E+06    -198.585E+06    -111.185E+06     1.32455E+06         67.3644
             256    -1.23421E-06     131.681E-03     936.700E-03    -158.323E-03    -412.525E-03    -95.2961E-03     873.674E-03    -412.525E-03     509.914E-03     590.167E-03    -294.089E-03    -294.666E-03    -294.086E-03     590.165E-03    -294.666E-03    -2.59988E-03    -106.704E+06    -108.472E+06    -188.599E+06    -107.795E+06    -188.565E+06    -107.416E+06     1.58592E+06         67.3658
             257     1.59868E-06     129.879E-03     878.734E-03    -80.8495E-03    -430.524E-03    -19.9091E-03     817.793E-03    -430.524E-03     466.617E-03     590.471E-03    -294.127E-03    -295.130E-03    -294.125E-03     590.468E-03    -295.130E-03    -1.97821E-03    -104.445E+06    -105.807E+06    -179.423E+06    -105.109E+06    -179.409E+06    -105.156E+06     14.1893E+03         67.3410
             258    -2.14093E-06     128.072E-03     904.698E-03    -68.8213E-03    -460.115E-03    -27.6542E-03     863.530E-03    -460.115E-03     362.694E-03     591.596E-03    -294.107E-03    -296.366E-03    -294.106E-03     591.594E-03    -296.366E-03    -1.46087E-03    -105.673E+06    -107.938E+06    -177.156E+06    -106.358E+06    -177.121E+06    -107.288E+06     502.551E+03         67.3455
             259     56.3885E-09     126.266E-03     950.127E-03    -135.715E-03    -433.823E-03    -119.819E-03     934.231E-03    -433.823E-03     260.824E-03     591.865E-03    -294.360E-03    -296.222E-03    -294.358E-03     591.863E-03    -296.222E-03    -2.71394E-03    -102.589E+06    -106.615E+06    -171.055E+06    -105.058E+06    -170.997E+06    -104.203E+06     1.95244E+06         67.3629
             260    -612.340E-09     124.459E-03     936.175E-03    -204.748E-03    -342.891E-03    -237.091E-03     924.622E-03    -298.995E-03     224.964E-03     590.875E-03    -294.184E-03    -295.528E-03    -294.183E-03     590.873E-03    -295.528E-03    -2.51154E-03    -100.129E+06    -104.377E+06    -165.384E+06    -102.590E+06    -165.334E+06    -101.966E+06     150.456E+03         67.3495
             261    -807.954E-09     122.655E-03     933.538E-03    -138.186E-03    -401.072E-03    -395.486E-03     927.953E-03    -138.186E-03     171.555E-03     590.055E-03    -293.975E-03    -295.289E-03    -294.385E-03     590.054E-03    -294.877E-03    -2.36466E-03    -100.769E+06    -104.389E+06    -161.693E+06    -102.681E+06    -161.565E+06    -102.605E+06     895.777E+03         67.3379
             262     1.22042E-06     120.852E-03     934.631E-03    -1.78134E-03    -527.334E-03    -523.858E-03     931.156E-03    -1.78134E-03     31.5444E-03     590.942E-03    -294.840E-03    -295.593E-03    -295.592E-03     590.942E-03    -294.840E-03    -1.37817E-03    -101.360E+06    -104.722E+06    -154.937E+06    -103.300E+06    -154.781E+06    -102.939E+06     598.910E+03         67.3644
             263    -927.477E-09     119.049E-03     966.146E-03     8.31032E-03    -558.186E-03    -557.189E-03     965.149E-03     8.31032E-03    -44.1722E-03     591.947E-03    -295.131E-03    -296.127E-03    -295.471E-03     591.945E-03    -295.786E-03    -2.12692E-03    -100.976E+06    -103.147E+06    -151.923E+06    -101.680E+06    -151.811E+06    -102.555E+06     166.046E+03         67.4061
             264    -134.608E-09     117.242E-03         1.05401    -70.3285E-03    -556.173E-03    -550.732E-03         1.04857    -70.3285E-03    -123.844E-03     591.022E-03    -294.076E-03    -295.938E-03    -294.074E-03     591.020E-03    -295.938E-03    -2.43908E-03    -101.506E+06    -102.283E+06    -150.300E+06    -102.392E+06    -150.191E+06    -101.506E+06     251.172E+03         67.4259
             265    -1.11100E-06     115.436E-03         1.04234    -111.402E-03    -494.961E-03    -487.494E-03         1.03487    -111.402E-03    -209.576E-03     590.178E-03    -293.264E-03    -295.411E-03    -293.263E-03     590.178E-03    -295.411E-03    -1.56997E-03    -102.471E+06    -103.275E+06    -148.725E+06    -102.754E+06    -148.627E+06    -103.090E+06     90.7452E+03         67.4252
             266    -327.762E-09     113.630E-03         1.07961    -182.971E-03    -459.510E-03    -446.057E-03         1.06615    -182.971E-03    -269.152E-03     589.530E-03    -293.308E-03    -295.181E-03    -293.308E-03     589.529E-03    -295.181E-03    -853.566E-06    -101.172E+06    -102.136E+06    -143.621E+06    -101.587E+06    -143.551E+06    -101.791E+06     531.947E+03         67.4343
             267    -1.07077E-06     111.827E-03         1.13274    -271.612E-03    -420.482E-03    -395.665E-03         1.10793    -271.612E-03    -388.456E-03     589.299E-03    -293.814E-03    -295.179E-03    -293.814E-03     589.299E-03    -295.179E-03    -477.232E-06    -102.944E+06    -104.382E+06    -143.464E+06    -104.399E+06    -143.446E+06    -102.944E+06    -644.802E+03         67.4834
             268     626.642E-09     110.026E-03         1.11433    -308.909E-03    -360.306E-03    -320.252E-03         1.07427    -308.909E-03    -472.850E-03     591.050E-03    -294.875E-03    -295.445E-03    -294.875E-03     591.050E-03    -295.445E-03    -737.654E-06    -102.006E+06    -105.184E+06    -145.732E+06    -103.100E+06    -145.730E+06    -104.091E+06     128.162E+03         67.5624
             269    -830.526E-09     108.219E-03         1.18600    -321.067E-03    -406.983E-03    -350.814E-03         1.12983    -321.067E-03    -587.603E-03     591.455E-03    -294.597E-03    -295.548E-03    -294.593E-03     591.451E-03    -295.548E-03    -2.70355E-03    -99.2491E+06    -103.776E+06    -142.161E+06    -101.696E+06    -142.155E+06    -101.335E+06    -64.6715E+03         67.6139
             270     118.145E-09     106.416E-03         1.22842    -294.166E-03    -464.758E-03    -393.000E-03         1.15666    -294.166E-03    -679.304E-03     589.617E-03    -293.126E-03    -294.718E-03    -293.122E-03     589.612E-03    -294.718E-03    -3.56830E-03    -99.9695E+06    -105.128E+06    -142.839E+06    -102.416E+06    -142.833E+06    -102.686E+06    -88.1648E+03         67.6176
             271    -895.055E-09     104.614E-03         1.21023    -243.743E-03    -492.199E-03    -425.775E-03         1.14381    -243.743E-03    -652.371E-03     590.444E-03    -293.952E-03    -294.822E-03    -293.951E-03     590.443E-03    -294.822E-03    -2.24438E-03    -99.2280E+06    -104.840E+06    -143.110E+06    -102.143E+06    -143.090E+06    -101.944E+06     761.547E+03         67.6315
             272     835.183E-09     102.805E-03         1.24395    -215.098E-03    -550.861E-03    -499.204E-03         1.19229    -215.098E-03    -600.131E-03     591.994E-03    -295.202E-03    -295.597E-03    -295.504E-03     591.992E-03    -295.293E-03    -2.75434E-03    -99.4840E+06    -104.777E+06    -143.928E+06    -102.582E+06    -143.725E+06    -101.881E+06    -1.45437E+06         67.6738
             273    -574.279E-09     100.996E-03         1.22194    -180.057E-03    -560.406E-03    -520.551E-03         1.18209    -180.057E-03    -519.458E-03     590.183E-03    -294.442E-03    -295.006E-03    -294.743E-03     590.180E-03    -294.702E-03    -3.20118E-03    -99.4758E+06    -103.922E+06    -154.085E+06    -101.722E+06    -153.888E+06    -101.873E+06    -1.42494E+06         67.7050
             274     12.6646E-03     97.9555E-03         1.17055    -334.300E-03    -344.690E-03    -334.237E-03         1.17049    -344.690E-03    -11.7933E-03     589.972E-03    -294.476E-03    -297.080E-03    -294.511E-03     587.403E-03    -294.476E-03     95.0638E-03     74.4065E+06     38.7094E+06    -4.59059E+06    -4.46491E+06     38.5837E+06     74.4065E+06     722.746E+03         81.5046
             275     11.9205E-03     97.7843E-03         1.16656    -330.410E-03    -345.567E-03    -330.329E-03         1.16648    -345.567E-03    -12.0908E-03     589.834E-03    -294.699E-03    -296.545E-03    -294.251E-03     587.674E-03    -294.833E-03     85.8609E-03     69.9154E+06     35.4425E+06    -9.24311E+06    -9.08187E+06     35.2813E+06     69.9154E+06     761.666E+03         78.3605
             276     11.1719E-03     97.6650E-03         1.16743    -330.321E-03    -346.641E-03    -330.183E-03         1.16729    -346.641E-03    -5.08462E-03     589.208E-03    -294.461E-03    -295.343E-03    -293.964E-03     587.963E-03    -294.595E-03     66.2468E-03     66.9008E+06     31.0220E+06    -14.2827E+06    -14.2046E+06     30.9439E+06     66.9008E+06    -334.268E+03         75.0568
             277     10.4271E-03     97.5585E-03         1.17753    -336.079E-03    -350.270E-03    -338.719E-03         1.17744    -347.536E-03     19.0911E-03     588.113E-03    -293.712E-03    -294.545E-03    -293.616E-03     587.202E-03    -293.729E-03     56.3026E-03     63.7001E+06     26.6651E+06    -20.0905E+06    -20.0627E+06     26.6372E+06     63.7001E+06    -481.732E+03         72.4715
             278     9.68370E-03     97.4596E-03         1.18595    -341.954E-03    -352.613E-03    -346.542E-03         1.18588    -347.956E-03     9.82459E-03     585.718E-03    -293.265E-03    -293.721E-03    -292.758E-03     585.143E-03    -293.653E-03     44.7089E-03     58.5978E+06     21.5813E+06    -26.2823E+06    -26.2755E+06     21.5744E+06     58.5978E+06    -29.0992E+03         70.8297
             279     8.93710E-03     97.4121E-03         1.18498    -342.946E-03    -350.144E-03    -344.801E-03         1.18491    -348.221E-03     9.86203E-03     585.969E-03    -293.442E-03    -294.541E-03    -293.085E-03     585.611E-03    -294.541E-03     35.1224E-03     49.4550E+06     14.4358E+06    -32.8500E+06    -32.8456E+06     14.4314E+06     49.4550E+06     399.959E+03         69.9222
             280     8.19183E-03     97.3730E-03         1.18877    -345.542E-03    -350.826E-03    -347.821E-03         1.18869    -348.467E-03    -266.467E-06     587.739E-03    -293.411E-03    -295.659E-03    -293.213E-03     587.541E-03    -295.659E-03     26.1070E-03     37.2254E+06     6.09440E+06    -39.5823E+06    -39.5617E+06     6.07385E+06     37.2254E+06     218.829E+03         69.3894
             281     7.44897E-03     97.3089E-03         1.19369    -348.309E-03    -353.522E-03    -353.450E-03         1.19361    -348.309E-03    -2.44150E-03     588.260E-03    -293.675E-03    -295.565E-03    -293.604E-03     588.163E-03    -295.541E-03     17.9742E-03     24.4568E+06    -2.91033E+06    -47.0244E+06    -46.9928E+06    -2.94199E+06     24.4568E+06    -102.099E+03         69.0051
             282     6.70405E-03     97.2925E-03         1.18837    -343.181E-03    -353.123E-03    -348.141E-03         1.18829    -348.084E-03    -3.82433E-03     588.346E-03    -293.459E-03    -295.027E-03    -293.449E-03     588.311E-03    -295.003E-03     10.4432E-03     11.9194E+06    -11.8473E+06    -54.5603E+06    -54.5458E+06    -11.8618E+06     11.9194E+06    -3.35954E+03         68.7531
             283     5.95729E-03     97.3040E-03         1.18347    -338.148E-03    -353.008E-03    -342.582E-03         1.18335    -348.453E-03     2.03643E-03     590.015E-03    -293.634E-03    -294.950E-03    -293.745E-03     590.008E-03    -294.832E-03     3.61835E-03    -1.34638E+06    -21.0515E+06    -61.9764E+06    -61.9713E+06    -21.0566E+06    -1.34638E+06     140.306E+03         68.5781
             284     5.21155E-03     97.3060E-03         1.18680    -340.370E-03    -354.957E-03    -346.193E-03         1.18669    -349.027E-03     4.57305E-03     589.510E-03    -294.538E-03    -294.957E-03    -294.653E-03     589.507E-03    -294.839E-03    -2.05321E-03    -16.0794E+06    -31.0593E+06    -69.7997E+06    -69.7934E+06    -31.0656E+06    -16.0794E+06    -294.008E+03         68.3884
             285     4.46747E-03     97.3103E-03         1.19227    -340.606E-03    -360.447E-03    -352.013E-03         1.19221    -348.979E-03    -5.75128E-03     588.273E-03    -294.333E-03    -295.187E-03    -294.320E-03     588.261E-03    -295.187E-03    -6.32606E-03    -32.8702E+06    -41.7915E+06    -77.4092E+06    -77.3932E+06    -41.8075E+06    -32.8702E+06    -200.443E+03         68.2140
             286     3.72339E-03     97.3213E-03         1.19243    -341.350E-03    -359.788E-03    -352.862E-03         1.19238    -348.228E-03    -301.051E-06     589.015E-03    -293.821E-03    -294.694E-03    -293.963E-03     588.990E-03    -294.527E-03    -9.30411E-03    -51.1807E+06    -60.2401E+06    -84.4930E+06    -84.4756E+06    -60.2576E+06    -51.1807E+06     109.206E+03         68.0394
             287     2.97791E-03     97.3393E-03         1.18829    -340.554E-03    -355.484E-03    -348.440E-03         1.18826    -347.568E-03     869.243E-06     588.469E-03    -294.198E-03    -294.594E-03    -294.333E-03     588.438E-03    -294.427E-03    -10.5009E-03    -68.2064E+06    -83.2245E+06    -92.9576E+06    -90.7327E+06    -85.4494E+06    -68.2064E+06     179.146E+03         67.8448
             288     2.23336E-03     97.3589E-03         1.18469    -339.798E-03    -353.278E-03    -345.038E-03         1.18448    -347.827E-03     9.43091E-03     588.171E-03    -294.028E-03    -295.006E-03    -294.002E-03     588.145E-03    -295.006E-03    -9.57830E-03    -83.7055E+06    -96.1341E+06    -107.623E+06    -96.2358E+06    -107.521E+06    -83.7055E+06     54.6580E+03         67.6943
             289     1.48829E-03     97.3755E-03         1.18521    -341.933E-03    -353.796E-03    -343.461E-03         1.18276    -349.821E-03     84.9204E-03     589.374E-03    -294.207E-03    -295.271E-03    -294.192E-03     589.360E-03    -295.271E-03    -6.97769E-03    -94.7297E+06    -99.8832E+06    -123.521E+06    -99.9080E+06    -123.421E+06    -94.8051E+06    -345.063E+03         67.6315
             290     743.714E-06     97.3847E-03         1.20010    -313.546E-03    -397.360E-03    -383.962E-03         1.19181    -318.657E-03    -57.6061E-03     590.200E-03    -294.630E-03    -295.335E-03    -294.625E-03     590.195E-03    -295.335E-03    -3.64506E-03    -98.3264E+06    -102.273E+06    -136.859E+06    -101.203E+06    -136.729E+06    -99.5260E+06     487.264E+03         67.6337
             291     12.6655E-03     96.1407E-03         1.18442    -343.420E-03    -347.406E-03    -344.053E-03         1.18440    -346.747E-03    -6.66583E-03     590.057E-03    -294.177E-03    -297.281E-03    -294.780E-03     587.556E-03    -294.177E-03     93.7493E-03     72.7164E+06     38.0673E+06    -4.70045E+06    -4.69109E+06     38.0579E+06     72.7164E+06    -139.519E+03         81.4676
             292     11.9229E-03     95.9674E-03         1.18712    -341.541E-03    -351.856E-03    -346.258E-03         1.18705    -347.065E-03    -7.95987E-03     589.882E-03    -294.523E-03    -296.652E-03    -294.074E-03     587.743E-03    -294.962E-03     85.4603E-03     70.1142E+06     35.2096E+06    -9.21104E+06    -9.18851E+06     35.1871E+06     70.1142E+06     220.572E+03         78.3338
             293     11.1732E-03     95.8612E-03         1.18796    -337.885E-03    -356.087E-03    -346.626E-03         1.18784    -347.224E-03    -1.33261E-03     589.105E-03    -294.384E-03    -295.706E-03    -294.016E-03     587.854E-03    -294.822E-03     66.4189E-03     67.9843E+06     31.5479E+06    -13.9931E+06    -13.9480E+06     31.5028E+06     67.9843E+06    -346.395E+03         75.0422
             294     10.4285E-03     95.7522E-03         1.18283    -336.283E-03    -352.207E-03    -340.946E-03         1.18276    -347.475E-03     15.8391E-03     588.025E-03    -293.842E-03    -294.840E-03    -293.920E-03     587.104E-03    -293.842E-03     56.5405E-03     64.1640E+06     26.9840E+06    -19.8921E+06    -19.8443E+06     26.9362E+06     64.1640E+06    -360.329E+03         72.4707
             295     9.68408E-03     95.6603E-03         1.17926    -336.216E-03    -348.108E-03    -336.164E-03         1.17921    -348.108E-03    -2.16482E-03     585.565E-03    -293.455E-03    -293.695E-03    -292.989E-03     584.984E-03    -293.581E-03     44.9459E-03     58.2370E+06     21.4505E+06    -26.3818E+06    -26.3542E+06     21.4230E+06     58.2370E+06     297.602E+03         70.8412
             296     8.93816E-03     95.6038E-03         1.18569    -341.230E-03    -348.826E-03    -341.178E-03         1.18564    -348.826E-03    -2.72926E-03     584.897E-03    -292.927E-03    -293.899E-03    -292.559E-03     584.528E-03    -293.899E-03     35.6449E-03     49.5667E+06     14.3707E+06    -32.7094E+06    -32.7025E+06     14.3638E+06     49.5667E+06    -37.7290E+03         69.9444
             297     8.19247E-03     95.5635E-03         1.18829    -341.453E-03    -350.644E-03    -342.561E-03         1.18818    -349.419E-03    -9.88538E-03     587.044E-03    -292.682E-03    -295.174E-03    -292.474E-03     586.835E-03    -295.174E-03     26.7586E-03     37.9055E+06     6.09921E+06    -39.4154E+06    -39.4012E+06     6.08504E+06     37.9055E+06     419.300E+03         69.4094
             298     7.44828E-03     95.5069E-03         1.18676    -338.296E-03    -352.049E-03    -339.966E-03         1.18661    -350.235E-03    -6.93733E-03     587.784E-03    -293.206E-03    -295.824E-03    -293.103E-03     587.681E-03    -295.824E-03     18.5718E-03     24.8637E+06    -2.57492E+06    -46.5322E+06    -46.4756E+06    -2.63159E+06     24.8637E+06     645.003E+03         69.0000
             299     6.70286E-03     95.4884E-03         1.19659    -345.277E-03    -355.870E-03    -350.236E-03         1.19647    -350.786E-03     10.5155E-03     587.911E-03    -293.458E-03    -295.339E-03    -293.421E-03     587.875E-03    -295.339E-03     10.7232E-03     11.9456E+06    -11.6038E+06    -54.0804E+06    -54.0356E+06    -11.6486E+06     11.9456E+06     351.584E+03         68.7254
             300     5.95747E-03     95.4928E-03         1.20649    -350.139E-03    -361.077E-03    -360.901E-03         1.20631    -350.139E-03     17.0253E-03     590.000E-03    -293.868E-03    -295.106E-03    -293.893E-03     589.993E-03    -295.074E-03     3.59366E-03    -1.05958E+06    -20.9754E+06    -61.8889E+06    -61.8864E+06    -20.9779E+06    -1.05958E+06     290.277E+03         68.5816
             301     5.21237E-03     95.5026E-03         1.20088    -345.631E-03    -360.162E-03    -356.776E-03         1.20075    -348.886E-03     10.4794E-03     589.367E-03    -294.370E-03    -295.212E-03    -294.399E-03     589.364E-03    -295.180E-03    -2.18330E-03    -16.1062E+06    -31.2057E+06    -69.9781E+06    -69.9629E+06    -31.2209E+06    -16.1062E+06     393.291E+03         68.4488
             302     4.46674E-03     95.5079E-03         1.18855    -340.225E-03    -353.749E-03    -345.254E-03         1.18843    -348.598E-03    -19.8033E-03     588.450E-03    -294.500E-03    -295.424E-03    -294.487E-03     588.437E-03    -295.424E-03    -6.49075E-03    -33.3916E+06    -42.0923E+06    -77.5176E+06    -77.4916E+06    -42.1184E+06    -33.3916E+06     225.781E+03         68.2740
             303     3.72264E-03     95.5174E-03         1.18752    -342.340E-03    -349.926E-03    -342.546E-03         1.18741    -349.608E-03    -18.3328E-03     589.556E-03    -294.159E-03    -294.755E-03    -294.166E-03     589.531E-03    -294.724E-03    -9.23367E-03    -51.1340E+06    -59.8616E+06    -84.0890E+06    -84.0599E+06    -59.8908E+06    -51.1340E+06     228.730E+03         68.0642
             304     2.97894E-03     95.5343E-03         1.19707    -346.635E-03    -354.587E-03    -350.644E-03         1.19681    -350.322E-03    -21.2062E-03     588.677E-03    -294.210E-03    -294.580E-03    -294.211E-03     588.648E-03    -294.549E-03    -10.1989E-03    -68.0899E+06    -82.9661E+06    -93.0022E+06    -90.5149E+06    -85.4534E+06    -68.0899E+06     333.990E+03         67.8592
             305     2.23332E-03     95.5566E-03         1.20322    -347.474E-03    -359.135E-03    -356.906E-03         1.20252    -349.009E-03    -1.54699E-03     588.220E-03    -294.044E-03    -295.090E-03    -294.017E-03     588.194E-03    -295.090E-03    -9.57046E-03    -81.7240E+06    -95.6068E+06    -107.029E+06    -95.6859E+06    -106.950E+06    -81.7240E+06     399.701E+03         67.7121
             306     1.48785E-03     95.5698E-03         1.19470    -340.562E-03    -360.095E-03    -353.937E-03         1.19365    -345.673E-03     46.8444E-03     589.414E-03    -294.215E-03    -295.280E-03    -294.248E-03     589.398E-03    -295.232E-03    -7.29908E-03    -93.5082E+06    -99.0826E+06    -122.661E+06    -99.1997E+06    -122.469E+06    -93.5836E+06     514.276E+03         67.6459
             307     744.124E-06     95.5757E-03         1.17871    -321.189E-03    -368.906E-03    -335.041E-03         1.17596    -352.298E-03    -44.3371E-03     590.102E-03    -294.639E-03    -295.444E-03    -294.682E-03     590.096E-03    -295.396E-03    -4.28596E-03    -99.9831E+06    -103.210E+06    -137.696E+06    -101.993E+06    -137.464E+06    -101.431E+06    -501.199E+03         67.6395
             308     12.6683E-03     94.3379E-03         1.18845    -343.230E-03    -349.157E-03    -343.839E-03         1.18840    -348.497E-03    -11.0040E-03     590.264E-03    -294.320E-03    -297.110E-03    -294.598E-03     587.751E-03    -294.320E-03     93.9150E-03     72.4976E+06     38.3474E+06    -4.89583E+06    -4.88951E+06     38.3411E+06     72.4976E+06    -103.909E+03         81.4446
             309     11.9228E-03     94.1645E-03         1.19461    -344.610E-03    -353.473E-03    -349.363E-03         1.19457    -348.682E-03    -6.78912E-03     590.019E-03    -294.485E-03    -296.384E-03    -293.572E-03     587.841E-03    -295.121E-03     86.2478E-03     68.4141E+06     34.4559E+06    -9.53371E+06    -9.52804E+06     34.4502E+06     68.4141E+06    -394.685E+03         78.3116
             310     11.1737E-03     94.0503E-03         1.19885    -344.346E-03    -357.471E-03    -353.110E-03         1.19876    -348.608E-03     6.74442E-03     589.661E-03    -293.951E-03    -295.519E-03    -293.607E-03     588.385E-03    -294.586E-03     67.0754E-03     66.4366E+06     30.8990E+06    -14.5155E+06    -14.5022E+06     30.8857E+06     66.4366E+06    -462.828E+03         75.0178
             311     10.4296E-03     93.9438E-03         1.20038    -343.931E-03    -357.978E-03    -353.388E-03         1.20027    -348.414E-03     24.4695E-03     588.646E-03    -293.615E-03    -294.669E-03    -293.654E-03     587.706E-03    -293.690E-03     57.2035E-03     64.2498E+06     27.0706E+06    -20.1270E+06    -20.0645E+06     27.0080E+06     64.2498E+06    -289.833E+03         72.4417
             312     9.68384E-03     93.8651E-03         1.19876    -342.325E-03    -357.665E-03    -351.701E-03         1.19868    -348.215E-03     11.4064E-03     586.322E-03    -293.363E-03    -293.526E-03    -292.805E-03     585.718E-03    -293.479E-03     45.8853E-03     58.7072E+06     21.7821E+06    -26.0534E+06    -25.9772E+06     21.7058E+06     58.7072E+06     149.895E+03         70.8225
             313     8.93850E-03     93.7967E-03         1.19145    -339.595E-03    -352.923E-03    -344.167E-03         1.19141    -348.306E-03     6.67312E-03     584.763E-03    -292.791E-03    -293.422E-03    -292.411E-03     584.383E-03    -293.422E-03     36.1340E-03     48.7996E+06     14.2860E+06    -32.6923E+06    -32.6695E+06     14.2632E+06     48.7996E+06     184.112E+03         69.9599
             314     8.19306E-03     93.7483E-03         1.18721    -337.548E-03    -349.838E-03    -338.298E-03         1.18711    -348.979E-03    -10.1741E-03     586.624E-03    -292.919E-03    -294.762E-03    -292.714E-03     586.419E-03    -294.762E-03     26.4394E-03     36.9950E+06     5.47482E+06    -39.8700E+06    -39.8661E+06     5.47087E+06     36.9950E+06     116.080E+03         69.4452
             315     7.44796E-03     93.7054E-03         1.19109    -337.943E-03    -353.414E-03    -341.337E-03         1.19096    -349.883E-03    -9.26272E-03     587.493E-03    -293.240E-03    -295.911E-03    -293.144E-03     587.397E-03    -295.911E-03     17.9706E-03     24.9242E+06    -3.08825E+06    -47.0169E+06    -46.9672E+06    -3.13788E+06     24.9242E+06     439.885E+03         69.0265
             316     6.70345E-03     93.6819E-03         1.19386    -339.268E-03    -355.629E-03    -344.101E-03         1.19371    -350.647E-03     5.52851E-03     587.004E-03    -293.187E-03    -295.766E-03    -293.153E-03     586.970E-03    -295.766E-03     10.4418E-03     13.0705E+06    -11.0415E+06    -53.7227E+06    -53.6576E+06    -11.1066E+06     13.0705E+06     719.074E+03         68.7324
             317     5.95761E-03     93.6852E-03         1.19520    -339.058E-03    -357.750E-03    -345.247E-03         1.19500    -351.368E-03     5.86013E-03     589.324E-03    -293.668E-03    -295.400E-03    -293.661E-03     589.317E-03    -295.400E-03     3.70833E-03    -240.396E+03    -20.4250E+06    -61.3405E+06    -61.3109E+06    -20.4546E+06    -240.396E+03     894.144E+03         68.5871
             318     5.21193E-03     93.6933E-03         1.20216    -343.436E-03    -360.595E-03    -352.248E-03         1.20207    -351.690E-03     11.3115E-03     589.612E-03    -294.211E-03    -295.191E-03    -294.208E-03     589.608E-03    -295.191E-03    -2.09185E-03    -15.4275E+06    -30.5031E+06    -69.0813E+06    -69.0590E+06    -30.5254E+06    -15.4275E+06     803.349E+03         68.4737
             319     4.46783E-03     93.6998E-03         1.20897    -348.989E-03    -362.469E-03    -360.554E-03         1.20886    -350.802E-03    -12.0205E-03     588.845E-03    -294.378E-03    -295.303E-03    -294.365E-03     588.832E-03    -295.303E-03    -6.56001E-03    -32.7669E+06    -41.5036E+06    -76.7562E+06    -76.7305E+06    -41.5293E+06    -32.7669E+06     444.728E+03         68.2932
             320     3.72281E-03     93.7171E-03         1.20474    -348.643E-03    -358.725E-03    -358.108E-03         1.20451    -349.033E-03    -385.355E-06     589.262E-03    -294.281E-03    -295.023E-03    -294.288E-03     589.238E-03    -294.992E-03    -9.16528E-03    -50.9213E+06    -60.3323E+06    -84.3492E+06    -84.3190E+06    -60.3625E+06    -50.9213E+06     246.444E+03         68.0681
             321     2.97712E-03     93.7357E-03         1.19317    -343.201E-03    -351.314E-03    -345.616E-03         1.19272    -348.456E-03    -14.6414E-03     589.114E-03    -294.655E-03    -295.042E-03    -294.657E-03     589.086E-03    -295.011E-03    -10.0365E-03    -67.1329E+06    -82.6530E+06    -92.3431E+06    -90.3866E+06    -84.6095E+06    -67.1329E+06     544.173E+03         67.8963
             322     2.23308E-03     93.7509E-03         1.19014    -336.433E-03    -355.225E-03    -340.021E-03         1.18905    -350.549E-03     18.8610E-03     589.598E-03    -294.957E-03    -295.382E-03    -294.930E-03     589.571E-03    -295.382E-03    -9.65860E-03    -81.5596E+06    -95.4190E+06    -106.841E+06    -95.8124E+06    -106.447E+06    -81.5596E+06     651.893E+03         67.8088
             323     1.48926E-03     93.7631E-03         1.19810    -334.634E-03    -367.188E-03    -347.078E-03         1.19731    -353.951E-03     55.7522E-03     590.000E-03    -294.928E-03    -295.316E-03    -294.960E-03     589.983E-03    -295.268E-03    -7.53303E-03    -93.4814E+06    -99.9556E+06    -122.988E+06    -100.185E+06    -122.758E+06    -93.4814E+06     429.395E+03         67.7626
             324     743.819E-06     93.7684E-03         1.20743    -308.756E-03    -403.020E-03    -316.664E-03         1.20678    -394.459E-03     5.23722E-03     590.006E-03    -294.745E-03    -295.145E-03    -294.817E-03     590.001E-03    -295.066E-03    -4.25752E-03    -98.8904E+06    -102.196E+06    -136.419E+06    -101.233E+06    -136.009E+06    -100.263E+06     569.127E+03         67.7338
             325     12.6666E-03     92.5289E-03         1.19489    -345.199E-03    -349.512E-03    -345.690E-03         1.19482    -348.960E-03    -8.91257E-03     590.204E-03    -294.465E-03    -297.040E-03    -294.476E-03     587.640E-03    -294.465E-03     94.9028E-03     73.3327E+06     39.1029E+06    -4.18061E+06    -4.17669E+06     39.0990E+06     73.3327E+06     3.47654E+03         81.4266
             326     11.9236E-03     92.3608E-03         1.19495    -344.324E-03    -349.754E-03    -344.831E-03         1.19490    -349.203E-03    -5.51540E-03     590.397E-03    -294.862E-03    -296.598E-03    -294.139E-03     588.172E-03    -295.097E-03     87.3015E-03     69.2144E+06     35.7609E+06    -8.72966E+06    -8.71982E+06     35.7510E+06     69.2144E+06    -596.315E+03         78.2899
             327     11.1739E-03     92.2448E-03         1.19578    -343.892E-03    -349.524E-03    -343.841E-03         1.19573    -349.524E-03    -3.04227E-03     590.316E-03    -294.304E-03    -295.159E-03    -293.630E-03     589.022E-03    -294.539E-03     67.5210E-03     65.7562E+06     30.9692E+06    -14.1854E+06    -14.1398E+06     30.9237E+06     65.7562E+06     308.500E+03         74.9868
             328     10.4290E-03     92.1402E-03         1.20049    -343.293E-03    -354.596E-03    -348.050E-03         1.20041    -349.763E-03     18.9902E-03     589.373E-03    -293.576E-03    -294.322E-03    -293.181E-03     588.438E-03    -293.782E-03     57.1070E-03     62.2782E+06     25.9327E+06    -20.1365E+06    -20.0668E+06     25.8631E+06     62.2782E+06     121.842E+03         72.4124
             329     9.68280E-03     92.0601E-03         1.20651    -344.323E-03    -359.142E-03    -353.604E-03         1.20634    -349.692E-03     6.71264E-03     587.436E-03    -293.195E-03    -293.450E-03    -292.582E-03     586.824E-03    -293.450E-03     46.2113E-03     57.1506E+06     20.5892E+06    -26.7387E+06    -26.6724E+06     20.5228E+06     57.1506E+06    -574.384E+03         70.8138
             330     8.93819E-03     91.9928E-03         1.20773    -343.228E-03    -360.895E-03    -354.628E-03         1.20761    -349.374E-03    -2.53429E-03     585.743E-03    -293.127E-03    -293.302E-03    -292.755E-03     585.356E-03    -293.287E-03     36.4837E-03     48.4742E+06     13.9006E+06    -33.2661E+06    -33.2321E+06     13.8666E+06     48.4742E+06     127.649E+03         69.9783
             331     8.19345E-03     91.9431E-03         1.20703    -344.556E-03    -358.850E-03    -354.394E-03         1.20695    -348.937E-03    -9.13518E-03     587.275E-03    -293.823E-03    -294.636E-03    -293.629E-03     587.066E-03    -294.621E-03     26.6985E-03     37.2700E+06     5.79369E+06    -39.5860E+06    -39.5803E+06     5.78805E+06     37.2700E+06     127.606E+03         69.4916
             332     7.44887E-03     91.9077E-03         1.20381    -345.710E-03    -354.227E-03    -351.284E-03         1.20370    -348.546E-03    -6.24837E-03     587.680E-03    -293.876E-03    -295.811E-03    -293.780E-03     587.583E-03    -295.811E-03     18.0018E-03     24.8986E+06    -3.02747E+06    -46.7123E+06    -46.6593E+06    -3.08047E+06     24.8986E+06     301.531E+03         69.0985
             333     6.70270E-03     91.8852E-03         1.19694    -339.904E-03    -353.808E-03    -344.930E-03         1.19677    -348.609E-03     7.56215E-03     586.606E-03    -293.316E-03    -295.644E-03    -293.283E-03     586.573E-03    -295.644E-03     10.0112E-03     12.3700E+06    -11.8147E+06    -54.2881E+06    -54.2111E+06    -11.8917E+06     12.3700E+06     369.435E+03         68.7890
             334     5.95678E-03     91.8755E-03         1.19107    -336.545E-03    -352.014E-03    -338.921E-03         1.19092    -349.487E-03     1.36324E-03     588.901E-03    -293.530E-03    -295.214E-03    -293.525E-03     588.895E-03    -295.214E-03     2.97777E-03     2.78875E+03    -20.4386E+06    -61.4500E+06    -61.4112E+06    -20.4774E+06     2.78875E+03     387.493E+03         68.5935
             335     5.21317E-03     91.8756E-03         1.19152    -337.934E-03    -351.112E-03    -337.891E-03         1.19148    -351.112E-03     8.66868E-03     589.370E-03    -293.967E-03    -295.036E-03    -293.963E-03     589.367E-03    -295.036E-03    -2.57577E-03    -13.9141E+06    -29.8310E+06    -68.6453E+06    -68.6251E+06    -29.8512E+06    -13.9141E+06     641.808E+03         68.4612
             336     4.46798E-03     91.8865E-03         1.20051    -340.491E-03    -359.079E-03    -346.707E-03         1.20021    -352.562E-03    -16.9914E-03     588.664E-03    -294.344E-03    -295.283E-03    -294.330E-03     588.650E-03    -295.283E-03    -6.76879E-03    -31.5263E+06    -40.8717E+06    -76.2865E+06    -76.2490E+06    -40.9092E+06    -31.5263E+06     1.03323E+06         68.2929
             337     3.72201E-03     91.9111E-03         1.20794    -344.904E-03    -362.323E-03    -353.861E-03         1.20752    -352.949E-03    -13.1124E-03     589.215E-03    -294.577E-03    -295.252E-03    -294.557E-03     589.187E-03    -295.245E-03    -9.77003E-03    -50.5941E+06    -59.9633E+06    -84.1995E+06    -84.1167E+06    -60.0460E+06    -50.5941E+06     1.07878E+06         68.0779
             338     2.97788E-03     91.9236E-03         1.20712    -347.457E-03    -358.416E-03    -352.390E-03         1.20651    -352.865E-03    -25.0904E-03     589.653E-03    -295.011E-03    -295.436E-03    -294.983E-03     589.617E-03    -295.428E-03    -11.1997E-03    -67.4951E+06    -82.9051E+06    -92.3270E+06    -90.8076E+06    -84.4245E+06    -67.4951E+06     848.929E+03         67.9201
             339     2.23380E-03     91.9422E-03         1.20328    -341.343E-03    -361.649E-03    -347.640E-03         1.20185    -353.924E-03     17.5409E-03     590.493E-03    -295.343E-03    -295.748E-03    -295.313E-03     590.463E-03    -295.748E-03    -10.2656E-03    -82.4060E+06    -95.1142E+06    -105.771E+06    -95.5039E+06    -105.381E+06    -82.4060E+06     803.165E+03         67.8525
             340     1.48936E-03     91.9564E-03         1.20309    -338.636E-03    -364.165E-03    -342.599E-03         1.20202    -359.134E-03     45.8938E-03     590.697E-03    -295.233E-03    -295.699E-03    -295.424E-03     590.680E-03    -295.492E-03    -7.49770E-03    -93.5475E+06    -98.6398E+06    -122.064E+06    -98.7462E+06    -121.958E+06    -93.5475E+06    -378.480E+03         67.8102
             341     745.711E-06     91.9647E-03         1.22714    -284.762E-03    -443.790E-03    -283.093E-03         1.22548    -443.790E-03     54.3635E-03     590.054E-03    -294.618E-03    -295.057E-03    -294.850E-03     590.049E-03    -294.820E-03    -3.81432E-03    -98.5824E+06    -100.778E+06    -134.334E+06    -100.648E+06    -133.925E+06    -99.1220E+06    -849.987E+03         67.7690
             342     12.6665E-03     90.7259E-03         1.20041    -345.319E-03    -349.717E-03    -345.833E-03         1.20037    -349.166E-03    -8.10670E-03     589.427E-03    -294.657E-03    -296.703E-03    -294.140E-03     586.865E-03    -294.657E-03     94.8339E-03     72.5724E+06     38.9404E+06    -4.35616E+06    -4.34853E+06     38.9327E+06     72.5724E+06    -2.83193E+03         81.4035
             343     11.9208E-03     90.5534E-03         1.20195    -346.034E-03    -349.925E-03    -346.567E-03         1.20193    -349.373E-03    -2.74873E-03     590.006E-03    -294.821E-03    -296.680E-03    -294.260E-03     587.792E-03    -295.026E-03     87.0459E-03     68.9332E+06     35.6082E+06    -9.26835E+06    -9.25273E+06     35.5926E+06     68.9332E+06    -313.711E+03         78.2634
             344     11.1729E-03     90.4423E-03         1.20563    -347.414E-03    -351.200E-03    -349.059E-03         1.20557    -349.495E-03     7.14139E-03     590.412E-03    -294.451E-03    -295.187E-03    -293.689E-03     589.120E-03    -294.657E-03     67.4852E-03     66.6004E+06     31.2846E+06    -14.2681E+06    -14.2155E+06     31.2320E+06     66.6004E+06    -130.073E+03         74.9608
             345     10.4285E-03     90.3362E-03         1.20488    -345.386E-03    -352.587E-03    -348.337E-03         1.20480    -349.553E-03     17.5326E-03     589.894E-03    -293.872E-03    -294.478E-03    -293.385E-03     588.957E-03    -294.027E-03     57.1678E-03     62.9106E+06     26.4462E+06    -19.8590E+06    -19.7905E+06     26.3777E+06     62.9106E+06     916.243E+03         72.4029
             346     9.68325E-03     90.2563E-03         1.20243    -344.278E-03    -351.061E-03    -345.458E-03         1.20228    -349.732E-03     2.51606E-03     588.219E-03    -293.297E-03    -293.555E-03    -292.698E-03     587.619E-03    -293.555E-03     45.7157E-03     56.5394E+06     20.7113E+06    -26.2973E+06    -26.2535E+06     20.6675E+06     56.5394E+06     306.160E+03         70.8210
             347     8.93783E-03     90.1875E-03         1.20956    -345.309E-03    -356.664E-03    -352.087E-03         1.20944    -349.760E-03    -2.89420E-03     586.316E-03    -292.956E-03    -293.322E-03    -292.592E-03     585.937E-03    -293.307E-03     36.1617E-03     47.3474E+06     13.5711E+06    -33.0910E+06    -33.0568E+06     13.5369E+06     47.3474E+06    -608.851E+03         69.9869
             348     8.19228E-03     90.1378E-03         1.21230    -345.958E-03    -358.457E-03    -354.932E-03         1.21222    -349.403E-03    -13.2169E-03     587.851E-03    -293.675E-03    -294.659E-03    -293.475E-03     587.637E-03    -294.644E-03     27.1121E-03     36.5095E+06     5.28794E+06    -40.0855E+06    -40.0648E+06     5.26734E+06     36.5095E+06    -346.625E+03         69.5125
             349     7.44773E-03     90.1024E-03         1.20605    -345.496E-03    -352.995E-03    -349.184E-03         1.20592    -349.177E-03    -10.3740E-03     588.442E-03    -294.531E-03    -295.824E-03    -294.427E-03     588.338E-03    -295.824E-03     18.7376E-03     25.3413E+06    -2.71069E+06    -46.5440E+06    -46.5015E+06    -2.75316E+06     25.3413E+06     438.643E+03         69.1448
             350     6.70424E-03     90.0806E-03         1.20604    -345.440E-03    -353.378E-03    -349.520E-03         1.20592    -349.182E-03     14.4181E-03     587.386E-03    -294.498E-03    -295.597E-03    -294.462E-03     587.349E-03    -295.597E-03     10.5166E-03     12.8471E+06    -11.3272E+06    -53.7035E+06    -53.6365E+06    -11.3941E+06     12.8471E+06     535.208E+03         68.8278
             351     5.95983E-03     90.0702E-03         1.20873    -347.408E-03    -354.264E-03    -352.612E-03         1.20861    -348.946E-03     6.81032E-03     589.032E-03    -293.914E-03    -295.113E-03    -293.908E-03     589.026E-03    -295.113E-03     3.00069E-03    -332.026E+03    -20.7558E+06    -61.6653E+06    -61.6345E+06    -20.7866E+06    -332.026E+03     222.411E+03         68.5962
             352     5.21322E-03     90.0720E-03         1.20407    -343.809E-03    -353.762E-03    -348.582E-03         1.20381    -348.734E-03     19.2445E-03     588.921E-03    -293.626E-03    -294.935E-03    -293.622E-03     588.916E-03    -294.935E-03    -2.91279E-03    -15.2400E+06    -30.9635E+06    -69.7639E+06    -69.7508E+06    -30.9766E+06    -15.2400E+06     489.459E+03         68.4440
             353     4.46751E-03     90.0814E-03         1.19770    -339.110E-03    -352.973E-03    -342.145E-03         1.19713    -349.369E-03    -10.4612E-03     588.601E-03    -294.351E-03    -295.202E-03    -294.335E-03     588.586E-03    -295.202E-03    -7.13737E-03    -32.4032E+06    -41.9299E+06    -77.4615E+06    -77.4076E+06    -41.9838E+06    -32.4032E+06     1.22377E+06         68.2775
             354     3.72432E-03     90.0968E-03         1.20017    -342.627E-03    -352.829E-03    -344.283E-03         1.19967    -350.672E-03    -21.1823E-03     589.441E-03    -294.819E-03    -295.088E-03    -294.799E-03     589.414E-03    -295.081E-03    -9.68148E-03    -50.0324E+06    -58.1952E+06    -84.0059E+06    -83.8630E+06    -58.3381E+06    -50.0324E+06     1.78695E+06         68.0649
             355     2.97979E-03     90.1139E-03         1.20973    -349.204E-03    -355.851E-03    -352.266E-03         1.20822    -351.282E-03    -52.8851E-03     589.397E-03    -294.902E-03    -295.206E-03    -294.876E-03     589.364E-03    -295.198E-03    -10.7392E-03     -67.991E+06    -81.7397E+06    -91.7572E+06    -90.6573E+06    -82.8396E+06     -67.991E+06     972.376E+03         67.8993
             356     2.23443E-03     90.1349E-03         1.21903    -349.088E-03    -365.204E-03    -362.147E-03         1.21597    -349.088E-03     8.16473E-03     589.846E-03    -294.972E-03    -295.569E-03    -294.944E-03     589.818E-03    -295.569E-03    -9.94347E-03    -82.3384E+06    -95.9807E+06    -104.772E+06    -96.0347E+06    -104.718E+06    -82.3384E+06     262.695E+03         67.8230
             357     1.48976E-03     90.1486E-03         1.21196    -340.092E-03    -368.359E-03    -364.236E-03         1.20902    -341.274E-03     16.7813E-03     590.269E-03    -294.825E-03    -295.555E-03    -295.017E-03     590.253E-03    -295.348E-03    -7.32757E-03    -93.4735E+06    -99.2324E+06    -120.886E+06    -99.2640E+06    -120.854E+06    -93.4735E+06     661.991E+03         67.7808
             358     744.617E-06     90.1595E-03         1.17729    -235.472E-03    -442.477E-03    -243.687E-03         1.17076    -427.731E-03     55.6585E-03     589.599E-03    -294.109E-03    -295.113E-03    -294.311E-03     589.593E-03    -294.906E-03    -3.75586E-03    -100.512E+06    -102.094E+06    -134.953E+06    -101.769E+06    -134.738E+06    -101.052E+06    -466.642E+03         67.7451
             359     12.6671E-03     88.9241E-03         1.21053    -345.714E-03    -354.271E-03    -350.510E-03         1.21048    -349.432E-03    -10.1035E-03     589.597E-03    -294.925E-03    -296.888E-03    -294.347E-03     587.055E-03    -294.925E-03     94.4442E-03     72.5497E+06     39.0232E+06    -4.41593E+06    -4.40368E+06     39.0109E+06     72.5497E+06    -21.3133E+03         81.3767
             360     11.9224E-03     88.7488E-03         1.20960    -346.850E-03    -352.613E-03    -350.056E-03         1.20957    -349.383E-03    -6.04945E-03     589.612E-03    -294.508E-03    -296.513E-03    -293.820E-03     587.444E-03    -295.033E-03     85.9378E-03     67.9447E+06       35.01E+06    -9.40456E+06    -9.31611E+06     34.9215E+06     67.9447E+06     676.236E+03         78.2377
             361     11.1731E-03     88.6373E-03         1.20868    -346.464E-03    -351.881E-03    -348.920E-03         1.20860    -349.352E-03     6.55103E-03     590.060E-03    -294.163E-03    -295.197E-03    -293.417E-03     588.806E-03    -294.688E-03     66.5259E-03     65.0356E+06     30.0707E+06    -15.2488E+06    -15.1345E+06     29.9564E+06     65.0356E+06    -184.084E+03         74.9451
             362     10.4277E-03     88.5325E-03         1.21021    -347.134E-03    -352.543E-03    -350.300E-03         1.21015    -349.311E-03     15.6450E-03     590.222E-03    -293.971E-03    -294.637E-03    -293.545E-03     589.288E-03    -294.128E-03     57.0820E-03     62.9615E+06     26.0477E+06    -20.6226E+06    -20.5437E+06     25.9688E+06     62.9615E+06    -731.989E+03         72.4066
             363     9.68337E-03     88.4511E-03         1.21177    -349.084E-03    -351.971E-03    -351.849E-03         1.21173    -349.168E-03     7.88265E-03     588.451E-03    -293.438E-03    -293.726E-03    -292.895E-03     587.856E-03    -293.673E-03     45.5725E-03     58.5799E+06     21.9630E+06    -25.4855E+06    -25.4329E+06     21.9104E+06     58.5799E+06     8.19933E+03         70.8367
             364     8.93876E-03     88.3843E-03         1.20591    -344.984E-03    -350.462E-03    -346.216E-03         1.20587    -349.186E-03     3.67210E-03     586.300E-03    -292.999E-03    -293.403E-03    -292.681E-03     585.929E-03    -293.350E-03     35.7845E-03     48.5204E+06     14.5161E+06    -32.1640E+06    -32.0674E+06     14.4195E+06     48.5204E+06     387.617E+03         69.9979
             365     8.19251E-03     88.3325E-03         1.20511    -344.560E-03    -349.529E-03    -344.450E-03         1.20500    -349.529E-03    -18.5396E-03     587.705E-03    -293.591E-03    -294.653E-03    -293.390E-03     587.504E-03    -294.653E-03     26.1982E-03     35.8620E+06     5.44724E+06    -39.7055E+06    -39.6107E+06     5.35243E+06     35.8620E+06     412.638E+03         69.5178
             366     7.44717E-03     88.2974E-03         1.21328    -348.719E-03    -353.971E-03    -353.012E-03         1.21318    -349.570E-03    -20.7898E-03     588.339E-03    -294.371E-03    -295.824E-03    -294.276E-03     588.244E-03    -295.824E-03     17.9898E-03     23.7275E+06    -3.40830E+06    -46.9920E+06    -46.9814E+06    -3.41887E+06     23.7275E+06    -141.259E+03         69.1484
             367     6.70269E-03     88.2723E-03         1.21478    -348.144E-03    -355.939E-03    -355.007E-03         1.21476    -349.050E-03     1.99970E-03     587.360E-03    -294.391E-03    -295.621E-03    -294.354E-03     587.323E-03    -295.621E-03     10.7625E-03     12.0329E+06    -11.8277E+06    -54.2309E+06    -54.2087E+06    -11.8499E+06     12.0329E+06     372.215E+03         68.8289
             368     5.95858E-03     88.2666E-03         1.21083    -345.996E-03    -353.823E-03    -351.188E-03         1.21074    -348.544E-03    -9.45406E-03     589.111E-03    -294.015E-03    -295.152E-03    -294.007E-03     589.104E-03    -295.152E-03     4.02629E-03    -638.670E+03    -20.7363E+06    -61.5521E+06    -61.5073E+06    -20.7811E+06    -638.670E+03     1.09800E+06         68.5946
             369     5.21409E-03     88.2678E-03         1.21136    -346.423E-03    -354.342E-03    -352.421E-03         1.21108    -348.065E-03     8.47172E-03     589.144E-03    -293.909E-03    -294.920E-03    -293.905E-03     589.141E-03    -294.920E-03    -1.90763E-03    -15.1369E+06    -30.8567E+06    -69.4448E+06    -69.3871E+06    -30.9145E+06    -15.1369E+06     1.24792E+06         68.4359
             370     4.46938E-03     88.2763E-03         1.21193    -347.152E-03    -355.039E-03    -354.405E-03         1.21130    -347.152E-03    -11.7769E-03     588.444E-03    -294.351E-03    -295.141E-03    -294.338E-03     588.431E-03    -295.141E-03    -6.48003E-03    -31.8144E+06    -41.7814E+06    -77.4978E+06    -77.4410E+06    -41.8382E+06    -31.8144E+06     1.15049E+06         68.2593
             371     3.72318E-03     88.2902E-03         1.20730    -345.997E-03    -352.337E-03    -351.564E-03         1.20653    -345.997E-03    -2.04796E-03     588.972E-03    -294.333E-03    -294.993E-03    -294.309E-03     588.948E-03    -294.993E-03    -9.20196E-03    -50.0193E+06    -57.5068E+06    -84.5974E+06    -84.5248E+06    -57.5794E+06    -50.0193E+06     1.11187E+06         68.0362
             372     2.97877E-03     88.3102E-03         1.20545    -344.966E-03    -350.530E-03    -348.881E-03         1.20380    -344.966E-03    -28.6879E-03     589.264E-03    -294.585E-03    -295.131E-03    -294.556E-03     589.235E-03    -295.131E-03    -10.0811E-03    -66.9252E+06    -79.5975E+06    -91.0289E+06    -90.2752E+06    -80.3512E+06    -66.9252E+06     1.23002E+06         67.8633
             373     2.23462E-03     88.3286E-03         1.20468    -340.182E-03    -354.811E-03    -347.554E-03         1.20112    -343.878E-03     22.2742E-03     589.883E-03    -294.929E-03    -295.574E-03    -294.905E-03     589.858E-03    -295.574E-03    -9.34163E-03    -82.4224E+06    -95.1610E+06    -104.226E+06    -95.8237E+06    -103.563E+06    -82.4224E+06     644.556E+03         67.7897
             374     1.48983E-03     88.3460E-03         1.19722    -324.429E-03    -365.723E-03    -341.836E-03         1.19258    -343.669E-03    -1.60472E-03     590.416E-03    -294.919E-03    -295.605E-03    -295.004E-03     590.400E-03    -295.504E-03    -7.25789E-03    -94.2752E+06    -99.9605E+06    -121.134E+06    -100.006E+06    -121.088E+06    -94.2752E+06     33.7490E+03         67.7580
             375     744.404E-06     88.3557E-03         1.20647    -232.359E-03    -466.323E-03    -236.283E-03         1.19565    -451.577E-03     65.8972E-03     589.926E-03    -294.332E-03    -295.106E-03    -294.429E-03     589.919E-03    -295.003E-03    -4.72728E-03    -99.3475E+06    -101.420E+06    -134.208E+06    -101.090E+06    -134.151E+06    -99.7341E+06     311.467E+03         67.7321
             376     12.6683E-03     87.1180E-03         1.22270    -350.365E-03    -357.769E-03    -357.747E-03         1.22267    -350.365E-03    -4.36467E-03     590.300E-03    -294.905E-03    -297.258E-03    -294.705E-03     587.747E-03    -294.905E-03     94.7244E-03     73.4031E+06     39.1828E+06    -4.51084E+06    -4.50310E+06     39.1750E+06     73.4031E+06     25.3359E+03         81.3609
             377     11.9233E-03     86.9461E-03         1.22192    -350.036E-03    -357.876E-03    -357.855E-03         1.22190    -350.036E-03     98.9635E-06     590.068E-03    -294.608E-03    -296.456E-03    -293.885E-03     587.879E-03    -294.991E-03     86.4586E-03     69.1675E+06     35.5549E+06    -9.24644E+06    -9.12473E+06     35.4332E+06     69.1675E+06     191.480E+03         78.2253
             378     11.1731E-03     86.8348E-03         1.21941    -347.512E-03    -357.967E-03    -355.725E-03         1.21934    -349.689E-03     10.8107E-03     590.094E-03    -294.286E-03    -295.125E-03    -293.469E-03     588.820E-03    -294.668E-03     67.0249E-03      66.082E+06     31.0963E+06    -13.8455E+06    -13.6398E+06     30.8906E+06      66.082E+06     494.796E+03         74.9363
             379     10.4282E-03     86.7259E-03         1.21710    -347.198E-03    -356.051E-03    -353.793E-03         1.21702    -349.375E-03     19.9501E-03     590.144E-03    -293.921E-03    -294.638E-03    -293.444E-03     589.211E-03    -294.181E-03     57.0289E-03     62.1921E+06     25.8223E+06    -19.6461E+06    -19.5375E+06     25.7138E+06     62.1921E+06    -146.041E+03         72.4071
             380     9.68289E-03     86.6471E-03         1.21462    -348.950E-03    -352.193E-03    -351.986E-03         1.21458    -349.113E-03     1.81128E-03     588.299E-03    -293.426E-03    -294.029E-03    -293.177E-03     587.708E-03    -293.686E-03     45.4244E-03     56.1989E+06     20.1045E+06    -26.7493E+06    -26.7241E+06     20.0793E+06     56.1989E+06    -557.348E+03         70.8475
             381     8.93780E-03     86.5792E-03         1.21399    -347.211E-03    -353.082E-03    -351.379E-03         1.21397    -348.891E-03    -8.11065E-03     586.442E-03    -293.287E-03    -293.751E-03    -293.354E-03     586.070E-03    -293.312E-03     35.8523E-03     48.0148E+06     13.7010E+06    -33.2700E+06    -33.1458E+06     13.5768E+06     48.0148E+06     45.6550E+03         70.0080
             382     8.19400E-03     86.5291E-03         1.21142    -345.567E-03    -351.707E-03    -348.399E-03         1.21134    -348.793E-03    -16.5041E-03     587.866E-03    -293.931E-03    -294.730E-03    -293.823E-03     587.662E-03    -294.633E-03     26.4599E-03     36.7919E+06     5.99735E+06    -39.5201E+06    -39.3277E+06     5.80493E+06     36.7919E+06     857.826E+03         69.5206
             383     7.44908E-03     86.4924E-03         1.20744    -341.442E-03    -351.783E-03    -344.067E-03         1.20734    -349.051E-03    -7.71604E-03     587.985E-03    -294.084E-03    -295.787E-03    -293.988E-03     587.889E-03    -295.787E-03     17.9255E-03     23.0387E+06    -3.45307E+06    -46.9424E+06    -46.8590E+06    -3.53646E+06     23.0387E+06     1.05841E+06         69.1433
             384     6.70329E-03     86.4696E-03         1.21105    -342.500E-03    -354.628E-03    -347.599E-03         1.21093    -349.408E-03     23.2691E-03     586.552E-03    -293.588E-03    -295.614E-03    -293.555E-03     586.519E-03    -295.614E-03     10.0379E-03     10.7141E+06    -12.4435E+06    -54.4202E+06    -54.4000E+06    -12.4637E+06     10.7141E+06     751.342E+03         68.8183
             385     5.95734E-03     86.4600E-03         1.21704    -346.630E-03    -355.910E-03    -353.138E-03         1.21692    -349.280E-03     9.91847E-03     588.817E-03    -293.627E-03    -295.199E-03    -293.621E-03     588.812E-03    -295.199E-03     3.30908E-03    -413.184E+03    -20.8600E+06     -61.652E+06    -61.6149E+06    -20.8971E+06    -413.184E+03     784.507E+03         68.5857
             386     5.21271E-03     86.4616E-03         1.21796    -346.957E-03    -356.826E-03    -354.808E-03         1.21758    -348.599E-03     22.2835E-03     589.537E-03    -294.135E-03    -294.968E-03    -294.132E-03     589.535E-03    -294.968E-03    -1.81294E-03    -13.6817E+06    -30.1360E+06    -69.0684E+06    -69.0119E+06    -30.1925E+06    -13.6817E+06     1.05268E+06         68.4309
             387     4.46849E-03     86.4709E-03         1.21698    -347.601E-03    -355.060E-03    -354.172E-03         1.21609    -347.601E-03    -12.7598E-03     588.923E-03    -294.574E-03    -295.148E-03    -294.562E-03     588.912E-03    -295.148E-03    -6.05027E-03    -30.6603E+06    -40.7747E+06    -76.4262E+06    -76.3862E+06    -40.8148E+06    -30.6603E+06     976.830E+03         68.2515
             388     3.72443E-03     86.4863E-03         1.21398    -346.471E-03    -353.028E-03    -352.146E-03         1.21310    -346.471E-03    -8.99529E-03     589.054E-03    -294.232E-03    -294.951E-03    -294.206E-03     589.028E-03    -294.951E-03    -9.37123E-03    -49.7427E+06    -57.2335E+06    -84.0581E+06    -84.0454E+06    -57.2462E+06    -49.7427E+06     544.679E+03         68.0231
             389     2.97886E-03     86.5044E-03         1.20582    -340.030E-03    -351.898E-03    -343.775E-03         1.20384    -346.173E-03    -35.1023E-03     588.980E-03    -294.241E-03    -295.131E-03    -294.210E-03     588.949E-03    -295.131E-03    -10.4427E-03    -66.5432E+06    -79.2540E+06    -90.6331E+06    -90.0021E+06    -79.8850E+06    -66.5432E+06     721.600E+03         67.8489
             390     2.23360E-03     86.5238E-03         1.20144    -335.882E-03    -351.474E-03    -333.774E-03         1.19679    -348.933E-03     28.2149E-03     589.861E-03    -294.692E-03    -295.696E-03    -294.667E-03     589.836E-03    -295.696E-03    -9.45005E-03    -81.0460E+06    -93.7189E+06    -102.279E+06    -94.5102E+06    -101.488E+06    -81.0460E+06     866.372E+03         67.7784
             391     1.48928E-03     86.5402E-03         1.21336    -333.425E-03    -366.100E-03    -337.898E-03         1.20761    -355.878E-03     2.70687E-03     590.904E-03    -295.109E-03    -295.799E-03    -295.265E-03     590.889E-03    -295.628E-03    -7.06464E-03    -92.8094E+06    -98.5127E+06    -119.497E+06    -98.6042E+06    -119.406E+06    -92.8094E+06     221.485E+03         67.7527
             392     745.608E-06     86.5519E-03         1.25324    -283.869E-03    -453.579E-03    -277.461E-03         1.23661    -443.357E-03     107.345E-03     590.060E-03    -294.438E-03    -295.223E-03    -294.606E-03     590.055E-03    -295.049E-03    -3.89915E-03    -100.159E+06    -102.344E+06    -134.355E+06    -102.001E+06    -134.311E+06    -100.545E+06     162.867E+03         67.7318
             393     12.6657E-03     85.3112E-03         1.22421    -351.634E-03    -355.600E-03    -355.594E-03         1.22421    -351.634E-03    -3.67880E-03     590.335E-03    -294.925E-03    -297.226E-03    -294.671E-03     587.779E-03    -294.925E-03     94.8108E-03     72.9335E+06     38.5549E+06    -4.54111E+06    -4.53749E+06     38.5513E+06     72.9335E+06     190.389E+03         81.3598
             394     11.9223E-03     85.1413E-03         1.22729    -351.372E-03    -358.766E-03    -358.739E-03         1.22726    -351.372E-03    -3.80329E-03     590.595E-03    -294.938E-03    -296.618E-03    -294.369E-03     588.408E-03    -295.001E-03     86.5288E-03      68.738E+06     35.0337E+06    -9.30468E+06    -9.25799E+06     34.9870E+06      68.738E+06    -696.087E+03         78.2305
             395     11.1731E-03     85.0277E-03         1.22952    -350.881E-03    -361.091E-03    -361.017E-03         1.22945    -350.881E-03     8.06132E-03     590.279E-03    -294.613E-03    -295.189E-03    -293.842E-03     588.994E-03    -294.676E-03     67.3210E-03     66.4728E+06     31.1297E+06    -14.2250E+06    -14.0805E+06     30.9853E+06     66.4728E+06    -685.938E+03         74.9444
             396     10.4283E-03     84.9223E-03         1.22669    -350.319E-03    -358.835E-03    -358.756E-03         1.22661    -350.319E-03     15.2435E-03     590.122E-03    -293.911E-03    -294.614E-03    -293.414E-03     589.180E-03    -294.169E-03     57.2779E-03     63.0393E+06     26.6597E+06    -19.4163E+06    -19.2726E+06     26.5161E+06     63.0393E+06     931.798E+03         72.4152
             397     9.68324E-03     84.8413E-03         1.22265    -349.701E-03    -356.030E-03    -355.805E-03         1.22259    -349.864E-03     6.10435E-03     588.411E-03    -293.391E-03    -294.089E-03    -293.237E-03     587.818E-03    -293.649E-03     45.4723E-03     56.1366E+06     21.2104E+06    -25.6154E+06    -25.5483E+06     21.1433E+06     56.1366E+06     1.39873E+06         70.8540
             398     8.93911E-03     84.7735E-03         1.22172    -348.973E-03    -355.170E-03    -354.627E-03         1.22168    -349.480E-03     1.13459E-03     586.533E-03    -293.253E-03    -293.822E-03    -293.415E-03     586.160E-03    -293.287E-03     35.9614E-03     45.5860E+06     13.0679E+06    -33.2055E+06    -33.0886E+06     12.9510E+06     45.5860E+06     637.525E+03         70.0126
             399     8.19355E-03     84.7235E-03         1.22154    -347.021E-03    -356.478E-03    -354.353E-03         1.22146    -349.066E-03    -15.7345E-03     588.060E-03    -293.985E-03    -294.731E-03    -293.872E-03     587.850E-03    -294.634E-03     26.8312E-03     34.6484E+06     4.40244E+06    -40.7364E+06    -40.5532E+06     4.21920E+06     34.6484E+06     429.975E+03         69.5247
             400     7.44844E-03     84.6871E-03         1.22010    -340.992E-03    -361.264E-03    -353.497E-03         1.21993    -348.593E-03    -17.8579E-03     588.304E-03    -294.279E-03    -295.778E-03    -294.181E-03     588.206E-03    -295.778E-03     18.1207E-03     24.4929E+06    -3.07785E+06    -46.9839E+06    -46.8712E+06    -3.19055E+06     24.4929E+06     1.11296E+06         69.1456
             401     6.70384E-03     84.6644E-03         1.21536    -340.815E-03    -356.475E-03    -348.777E-03         1.21515    -348.302E-03    -1.05443E-03     586.766E-03    -293.757E-03    -295.575E-03    -293.724E-03     586.733E-03    -295.575E-03     10.0819E-03     12.7706E+06    -11.3790E+06    -53.7414E+06    -53.7060E+06    -11.4144E+06     12.7706E+06     944.473E+03         68.8147
             402     5.95861E-03     84.6565E-03         1.21338    -342.755E-03    -352.502E-03    -346.597E-03         1.21308    -348.361E-03    -13.9400E-03     588.676E-03    -293.545E-03    -295.149E-03    -293.539E-03     588.670E-03    -295.149E-03     3.06209E-03     213.007E+03    -20.5757E+06    -61.2499E+06    -61.2225E+06    -20.6031E+06     213.007E+03     554.269E+03         68.5762
             403     5.21350E-03     84.6555E-03         1.21531    -342.101E-03    -355.432E-03    -348.578E-03         1.21481    -348.453E-03     5.68381E-03     589.163E-03    -293.898E-03    -294.924E-03    -293.895E-03     589.160E-03    -294.924E-03    -2.37136E-03    -13.9591E+06    -30.1255E+06    -68.6308E+06    -68.6140E+06    -30.1422E+06    -13.9591E+06     305.308E+03         68.4212
             404     4.46851E-03     84.6641E-03         1.21485    -344.547E-03    -351.761E-03    -346.848E-03         1.21397    -348.586E-03    -20.0169E-03     588.694E-03    -294.389E-03    -295.156E-03    -294.377E-03     588.682E-03    -295.156E-03    -6.32661E-03    -31.1914E+06    -40.8922E+06    -76.3195E+06    -76.3092E+06    -40.9026E+06    -31.1914E+06     186.846E+03         68.2456
             405     3.72367E-03     84.6801E-03         1.21407    -343.670E-03    -351.476E-03    -345.199E-03         1.21323    -349.103E-03    -11.0896E-03     589.145E-03    -294.405E-03    -295.016E-03    -294.382E-03     589.122E-03    -295.016E-03    -8.89666E-03    -49.2548E+06    -56.6970E+06    -83.3077E+06    -83.2943E+06    -56.7104E+06    -49.2548E+06     401.367E+03         68.0245
             406     2.97935E-03     84.7020E-03         1.21681    -340.104E-03    -358.175E-03    -345.853E-03         1.21436    -349.975E-03    -51.4466E-03     589.131E-03    -294.548E-03    -295.181E-03    -294.520E-03     589.103E-03    -295.181E-03    -9.92370E-03    -66.3303E+06    -79.1711E+06    -89.6141E+06    -89.5125E+06    -79.2727E+06    -66.3303E+06     296.272E+03         67.8580
             407     2.23410E-03     84.7187E-03         1.22645    -340.753E-03    -367.553E-03    -352.432E-03         1.22068    -350.109E-03     25.5778E-03     589.672E-03    -294.582E-03    -295.744E-03    -294.557E-03     589.647E-03    -295.744E-03    -9.48149E-03    -80.8834E+06    -94.7193E+06    -101.947E+06    -95.3710E+06    -101.296E+06    -80.8834E+06     738.767E+03         67.7890
             408     1.48897E-03     84.7346E-03         1.23137    -343.136E-03    -370.638E-03    -360.215E-03         1.22416    -346.349E-03     622.205E-06     590.610E-03    -294.913E-03    -295.760E-03    -294.968E-03     590.595E-03    -295.689E-03    -7.30186E-03    -92.5039E+06    -99.0587E+06    -118.175E+06    -99.1776E+06    -118.056E+06    -92.5039E+06     1.31887E+06         67.7596
             409     743.719E-06     84.7457E-03         1.22676    -325.204E-03    -382.191E-03    -327.708E-03         1.20548    -358.410E-03     124.876E-03     590.409E-03    -294.542E-03    -295.580E-03    -294.607E-03     590.403E-03    -295.509E-03    -3.88287E-03    -99.1608E+06    -101.030E+06    -131.818E+06    -101.095E+06    -131.753E+06    -99.1608E+06     857.230E+03         67.7348
             410     12.6670E-03     83.5075E-03         1.22874    -352.409E-03    -357.052E-03    -357.043E-03         1.22873    -352.409E-03    -2.66569E-03     590.340E-03    -294.924E-03    -297.132E-03    -294.602E-03     587.810E-03    -294.924E-03     94.3073E-03     71.7749E+06     38.4869E+06    -4.26924E+06    -4.26834E+06     38.4860E+06     71.7749E+06     36.5443E+03         81.3607
             411     11.9226E-03     83.3342E-03         1.22969    -352.114E-03    -357.370E-03    -357.308E-03         1.22967    -352.156E-03    -3.32292E-03     590.757E-03    -294.995E-03    -296.626E-03    -294.463E-03     588.595E-03    -294.995E-03     86.0184E-03     67.0779E+06     34.6810E+06    -9.03074E+06    -9.02082E+06     34.6711E+06     67.0779E+06     74.2076E+03         78.2372
             412     11.1738E-03     83.2233E-03         1.22721    -351.147E-03    -354.735E-03    -353.869E-03         1.22717    -351.979E-03     1.22558E-03     590.372E-03    -294.658E-03    -295.331E-03    -294.064E-03     589.105E-03    -294.658E-03     66.8726E-03     64.5647E+06     30.4515E+06    -14.7801E+06    -14.7320E+06     30.4034E+06     64.5647E+06    -500.215E+03         74.9596
             413     10.4289E-03     83.1154E-03         1.22735    -351.120E-03    -354.824E-03    -353.961E-03         1.22727    -351.910E-03     13.9032E-03     589.981E-03    -293.823E-03    -294.742E-03    -293.475E-03     589.044E-03    -294.154E-03     57.1403E-03     61.9086E+06     25.6185E+06    -20.6583E+06    -20.5549E+06     25.5151E+06     61.9086E+06    -395.833E+03         72.4298
             414     9.68333E-03     83.0346E-03         1.23123    -351.665E-03    -358.312E-03    -358.215E-03         1.23113    -351.665E-03     7.59770E-03     588.139E-03    -293.332E-03    -293.913E-03    -292.987E-03     587.544E-03    -293.663E-03     45.5753E-03     56.7088E+06     20.9216E+06    -26.0100E+06    -25.8863E+06     20.7979E+06     56.7088E+06     1.39034E+06         70.8570
             415     8.93775E-03     82.9671E-03         1.23057    -350.883E-03    -357.836E-03    -357.450E-03         1.23053    -351.227E-03    -1.54867E-03     586.466E-03    -293.267E-03    -293.581E-03    -293.171E-03     586.090E-03    -293.302E-03     36.0482E-03     47.6788E+06     14.3560E+06    -32.1614E+06    -32.0399E+06     14.2346E+06     47.6788E+06     2.31414E+06         70.0085
             416     8.19317E-03     82.9182E-03         1.23059    -350.355E-03    -358.244E-03    -357.844E-03         1.23054    -350.698E-03    -9.26760E-03     588.176E-03    -294.052E-03    -294.678E-03    -293.872E-03     587.968E-03    -294.649E-03     26.7171E-03     36.0317E+06     5.63939E+06    -39.3381E+06    -39.2138E+06     5.51509E+06     36.0317E+06     1.36434E+06         69.5236
             417     7.44855E-03     82.8816E-03         1.23354    -348.959E-03    -362.919E-03    -361.790E-03         1.23327    -349.822E-03    -1.42850E-03     588.431E-03    -294.336E-03    -295.796E-03    -294.239E-03     588.333E-03    -295.796E-03     18.0880E-03     24.6894E+06    -2.76631E+06    -46.4870E+06    -46.3790E+06    -2.87431E+06     24.6894E+06      54.056E+03         69.1492
             418     6.70383E-03     82.8599E-03         1.23031    -347.274E-03    -360.713E-03    -358.742E-03         1.22978    -348.717E-03     17.7569E-03     587.026E-03    -293.943E-03    -295.589E-03    -293.908E-03     586.991E-03    -295.589E-03     10.6194E-03     13.4111E+06    -10.9687E+06    -53.3860E+06    -53.3302E+06    -11.0245E+06     13.4111E+06     37.8494E+03         68.8190
             419     5.95839E-03     82.8519E-03         1.22205    -343.471E-03    -355.401E-03    -350.063E-03         1.22131    -348.070E-03     15.1437E-03     588.952E-03    -293.778E-03    -295.140E-03    -293.770E-03     588.944E-03    -295.140E-03     3.98408E-03     380.432E+03    -20.1415E+06    -60.7854E+06    -60.7571E+06    -20.1698E+06     380.432E+03     354.408E+03         68.5776
             420     5.21355E-03     82.8512E-03         1.21674    -341.774E-03    -352.632E-03    -345.695E-03         1.21615    -348.127E-03     17.8640E-03     588.947E-03    -293.764E-03    -294.905E-03    -293.761E-03     588.944E-03    -294.905E-03    -1.93044E-03    -14.3426E+06    -30.2957E+06    -68.6590E+06    -68.6256E+06    -30.3291E+06    -14.3426E+06     413.650E+03         68.4180
             421     4.46828E-03     82.8595E-03         1.21523    -342.522E-03    -349.792E-03    -342.853E-03         1.21457    -348.793E-03    -24.6058E-03     587.911E-03    -293.885E-03    -295.180E-03    -293.871E-03     587.898E-03    -295.180E-03    -6.66800E-03    -31.1662E+06    -40.9631E+06    -76.1358E+06    -76.1136E+06    -40.9853E+06    -31.1662E+06     430.037E+03         68.2419
             422     3.72286E-03     82.8765E-03         1.21762    -342.215E-03    -352.422E-03    -344.015E-03         1.21688    -349.881E-03    -12.8914E-03     588.805E-03    -294.097E-03    -295.121E-03    -294.072E-03     588.781E-03    -295.121E-03    -9.32184E-03    -49.6236E+06    -56.7551E+06    -83.5254E+06    -83.5120E+06    -56.7686E+06    -49.6236E+06     174.236E+03         68.0268
             423     2.97804E-03     82.8945E-03         1.23082    -345.791E-03    -362.554E-03    -357.306E-03         1.22930    -349.519E-03    -37.2963E-03     589.606E-03    -294.837E-03    -295.252E-03    -294.806E-03     589.576E-03    -295.252E-03    -10.3001E-03    -66.5587E+06    -79.0281E+06    -90.2427E+06    -90.1075E+06    -79.1634E+06    -66.5587E+06     357.839E+03         67.8692
             424     2.23427E-03     82.9157E-03         1.23555    -345.486E-03    -367.780E-03    -364.027E-03         1.23180    -345.486E-03     23.3538E-03     589.976E-03    -294.902E-03    -295.669E-03    -294.874E-03     589.949E-03    -295.669E-03    -9.84777E-03    -81.1921E+06    -94.1319E+06    -101.686E+06    -95.1172E+06    -100.701E+06    -81.1921E+06     470.164E+03         67.8038
             425     1.48923E-03     82.9300E-03         1.21384    -337.122E-03    -356.019E-03    -345.222E-03         1.20736    -341.433E-03    -23.9141E-03     590.253E-03    -294.794E-03    -295.649E-03    -294.777E-03     590.236E-03    -295.649E-03    -7.59477E-03    -92.5591E+06    -98.7953E+06    -116.822E+06    -98.8728E+06    -116.745E+06    -92.5591E+06     158.629E+03         67.7700
             426     744.517E-06     82.9398E-03         1.22376    -302.408E-03    -400.420E-03    -374.044E-03         1.20170    -306.718E-03     134.614E-03     590.580E-03    -294.791E-03    -295.474E-03    -294.913E-03     590.574E-03    -295.346E-03    -3.85765E-03    -98.0144E+06    -100.667E+06    -129.749E+06    -100.122E+06    -129.612E+06    -98.6965E+06     608.670E+03         67.7403
             427     12.6675E-03     81.7016E-03         1.23561    -351.900E-03    -358.933E-03    -357.386E-03         1.23560    -353.441E-03    -1.75179E-03     590.342E-03    -294.920E-03    -297.107E-03    -294.565E-03     587.800E-03    -294.920E-03     94.5224E-03     72.3064E+06     38.9274E+06    -4.43446E+06    -4.43416E+06     38.9271E+06     72.3064E+06     18.4095E+03         81.3580
             428     11.9224E-03     81.5305E-03         1.23106    -350.897E-03    -355.909E-03    -353.327E-03         1.23106    -353.477E-03     2.47704E-03     590.671E-03    -294.966E-03    -296.465E-03    -294.275E-03     588.481E-03    -294.966E-03     86.5856E-03     67.3063E+06     35.1149E+06    -9.21094E+06    -9.19834E+06     35.1023E+06     67.3063E+06     532.557E+03         78.2356
             429     11.1739E-03     81.4169E-03         1.23238    -351.797E-03    -355.737E-03    -353.877E-03         1.23235    -353.627E-03     10.7681E-03     590.598E-03    -294.617E-03    -295.479E-03    -294.206E-03     589.325E-03    -294.617E-03     67.0070E-03     64.0685E+06     30.1911E+06    -14.4101E+06    -14.3911E+06     30.1721E+06     64.0685E+06     831.331E+03         74.9606
             430     10.4290E-03     81.3113E-03         1.23610    -352.832E-03    -357.808E-03    -356.928E-03         1.23601    -353.622E-03     22.0757E-03     589.885E-03    -293.727E-03    -294.900E-03    -293.565E-03     588.962E-03    -294.138E-03     56.7500E-03     60.4982E+06     24.3381E+06    -20.6706E+06    -20.5999E+06     24.2673E+06     60.4982E+06     506.868E+03         72.4293
             431     9.68262E-03     81.2304E-03         1.23565    -353.405E-03    -356.754E-03    -356.613E-03         1.23557    -353.466E-03     6.14920E-03     587.712E-03    -293.236E-03    -293.779E-03    -292.775E-03     587.119E-03    -293.646E-03     45.4679E-03     56.3382E+06     19.4238E+06    -27.2494E+06    -27.1028E+06     19.2772E+06     56.3382E+06     107.206E+03         70.8513
             432     8.93841E-03     81.1623E-03         1.23609    -352.902E-03    -357.103E-03    -356.709E-03         1.23606    -353.269E-03    -2.55368E-03     586.214E-03    -293.114E-03    -293.460E-03    -292.899E-03     585.838E-03    -293.299E-03     36.0503E-03     49.8588E+06     14.4893E+06    -32.7468E+06    -32.6495E+06     14.3920E+06     49.8588E+06     304.667E+03         69.9991
             433     8.19321E-03     81.1119E-03         1.23430    -351.613E-03    -356.177E-03    -354.520E-03         1.23416    -353.129E-03    -9.12305E-03     587.932E-03    -293.731E-03    -294.708E-03    -293.549E-03     587.721E-03    -294.679E-03     26.9282E-03     38.7045E+06     7.02711E+06    -38.4453E+06    -38.3808E+06     6.96256E+06     38.7045E+06     786.339E+03         69.5151
             434     7.44786E-03     81.0777E-03         1.22808    -348.649E-03    -353.783E-03    -348.734E-03         1.22774    -353.357E-03    -6.14650E-03     588.178E-03    -294.186E-03    -295.848E-03    -294.084E-03     588.077E-03    -295.848E-03     18.4432E-03     24.9613E+06    -1.90999E+06    -45.4110E+06    -45.2870E+06    -2.03398E+06     24.9613E+06     493.028E+03         69.1460
             435     6.70293E-03     81.0562E-03         1.23058    -346.089E-03    -357.707E-03    -349.370E-03         1.23004    -353.883E-03     16.6803E-03     587.056E-03    -294.122E-03    -295.644E-03    -294.085E-03     587.020E-03    -295.644E-03     10.7767E-03     12.3253E+06    -11.1053E+06    -52.9875E+06    -52.9045E+06    -11.1883E+06     12.3253E+06     343.266E+03         68.8223
             436     5.95783E-03     81.0452E-03         1.23796    -349.459E-03    -361.359E-03    -356.075E-03         1.23725    -354.029E-03     15.3789E-03     589.154E-03    -294.001E-03    -295.170E-03    -293.993E-03     589.147E-03    -295.170E-03     3.92946E-03     253.463E+03    -20.1707E+06    -60.6469E+06    -60.5938E+06    -20.2237E+06     253.463E+03     646.660E+03         68.5841
             437     5.21372E-03     81.0457E-03         1.23840    -353.340E-03    -358.447E-03    -357.558E-03         1.23779    -353.614E-03     32.1517E-03     589.067E-03    -293.806E-03    -294.946E-03    -293.803E-03     589.064E-03    -294.946E-03    -1.94313E-03    -14.3925E+06    -30.2167E+06    -68.7567E+06    -68.6972E+06    -30.2762E+06    -14.3925E+06     632.070E+03         68.4252
             438     4.46866E-03     81.0560E-03         1.23773    -350.740E-03    -359.571E-03    -356.826E-03         1.23722    -352.973E-03    -2.56014E-03     588.208E-03    -294.024E-03    -295.218E-03    -294.011E-03     588.196E-03    -295.218E-03    -6.29121E-03    -30.9801E+06    -41.0654E+06    -76.4541E+06    -76.4218E+06    -41.0977E+06    -30.9801E+06     762.447E+03         68.2491
             439     3.72357E-03     81.0721E-03         1.23958    -349.420E-03    -364.272E-03    -361.101E-03         1.23864    -351.652E-03     11.4330E-03     589.036E-03    -294.191E-03    -295.122E-03    -294.166E-03     589.011E-03    -295.122E-03    -9.25874E-03    -49.1431E+06    -56.0273E+06    -83.3663E+06    -83.2783E+06    -56.1153E+06    -49.1431E+06     1.02694E+06         68.0299
             440     2.97908E-03     81.0884E-03         1.23238    -344.409E-03    -361.836E-03    -354.138E-03         1.23043    -350.158E-03    -21.6968E-03     589.507E-03    -294.690E-03    -295.218E-03    -294.657E-03     589.474E-03    -295.218E-03    -10.7382E-03    -67.2716E+06    -78.5432E+06    -90.3518E+06     -89.998E+06    -78.8970E+06    -67.2716E+06     388.328E+03         67.8667
             441     2.23406E-03     81.1079E-03         1.22373    -341.499E-03    -355.783E-03    -342.844E-03         1.22023    -350.933E-03     19.4576E-03     590.117E-03    -295.055E-03    -295.553E-03    -295.025E-03     590.087E-03    -295.553E-03    -10.2839E-03    -81.4652E+06    -93.9099E+06    -100.970E+06    -94.9041E+06    -99.9759E+06    -81.4652E+06    -354.215E+03         67.8002
             442     1.49002E-03     81.1262E-03         1.23524    -344.924E-03    -364.496E-03    -349.931E-03         1.22867    -352.919E-03    -36.0806E-03     590.466E-03    -294.976E-03    -295.654E-03    -295.139E-03     590.449E-03    -295.475E-03    -7.46672E-03    -92.7294E+06    -98.6329E+06    -115.697E+06    -98.6819E+06    -115.648E+06    -92.7294E+06    -444.483E+03         67.7691
             443     744.519E-06     81.1354E-03         1.25618    -248.633E-03    -482.564E-03    -454.203E-03         1.23213    -252.943E-03     149.255E-03     590.074E-03    -294.439E-03    -295.256E-03    -294.743E-03     590.070E-03    -294.948E-03    -3.23744E-03    -99.5524E+06    -102.047E+06    -130.762E+06    -101.570E+06    -130.557E+06    -100.235E+06    -367.161E+03         67.7406
             444     12.6665E-03     79.8966E-03         1.24698    -354.073E-03    -363.783E-03    -362.214E-03         1.24695    -355.613E-03    -5.84790E-03     590.373E-03    -294.925E-03    -297.172E-03    -294.643E-03     587.844E-03    -294.925E-03     94.3048E-03     72.8564E+06     38.6133E+06    -4.41095E+06    -4.40292E+06     38.6052E+06     72.8564E+06     350.825E+03         81.3568
             445     11.9221E-03     79.7264E-03         1.24649    -352.854E-03    -365.158E-03    -362.595E-03         1.24647    -355.393E-03    -3.86475E-03     590.619E-03    -294.938E-03    -296.499E-03    -294.253E-03     588.428E-03    -294.993E-03     86.7336E-03     68.3114E+06     34.0079E+06    -9.45017E+06    -9.43492E+06     33.9927E+06     68.3114E+06     416.245E+03         78.2377
             446     11.1735E-03     79.6080E-03         1.24485    -353.487E-03    -362.578E-03    -360.959E-03         1.24481    -355.063E-03    -2.10012E-03     590.502E-03    -294.584E-03    -295.267E-03    -293.927E-03     589.216E-03    -294.639E-03     67.3199E-03     65.9811E+06     29.4921E+06    -14.3238E+06    -14.2935E+06     29.4618E+06     65.9811E+06     779.086E+03         74.9608
             447     10.4292E-03     79.5051E-03         1.24031    -351.918E-03    -358.198E-03    -355.179E-03         1.24026    -354.888E-03     12.2616E-03     590.135E-03    -293.833E-03    -294.665E-03    -293.444E-03     589.201E-03    -294.120E-03     57.1135E-03     64.0272E+06     25.7587E+06    -19.3435E+06    -19.2767E+06     25.6919E+06     64.0272E+06     1.52732E+06         72.4241
             448     9.68410E-03     79.4248E-03         1.23968    -352.508E-03    -356.374E-03    -353.878E-03         1.23964    -354.962E-03     3.83650E-03     588.150E-03    -293.341E-03    -293.754E-03    -292.856E-03     587.540E-03    -293.629E-03     46.1220E-03     58.3781E+06     21.3125E+06    -25.5166E+06    -25.4249E+06     21.2209E+06     58.3781E+06     218.122E+03         70.8442
             449     8.93790E-03     79.3560E-03         1.23920    -353.609E-03    -355.325E-03    -353.795E-03         1.23918    -355.112E-03    -4.81783E-03     586.201E-03    -292.823E-03    -293.439E-03    -292.567E-03     585.820E-03    -293.314E-03     36.2051E-03     47.9943E+06     14.0682E+06    -32.5519E+06    -32.4936E+06     14.0100E+06     47.9943E+06    -977.898E+03         69.9933
             450     8.19280E-03     79.3065E-03         1.23970    -352.659E-03    -355.939E-03    -353.122E-03         1.23954    -355.310E-03    -19.8869E-03     587.609E-03    -293.167E-03    -294.706E-03    -292.959E-03     587.401E-03    -294.706E-03     26.6749E-03     36.5503E+06     5.76857E+06    -39.2432E+06    -39.2253E+06     5.75070E+06     36.5503E+06    -668.366E+03         69.5113
             451     7.44743E-03     79.2720E-03         1.24266    -351.553E-03    -360.179E-03    -356.103E-03         1.24243    -355.399E-03    -23.0112E-03     588.188E-03    -294.086E-03    -295.883E-03    -293.988E-03     588.090E-03    -295.883E-03     18.1445E-03     24.9947E+06    -2.35170E+06    -45.8628E+06    -45.8080E+06    -2.40651E+06     24.9947E+06     162.031E+03         69.1462
             452     6.70302E-03     79.2500E-03         1.23905    -348.549E-03    -360.550E-03    -353.426E-03         1.23885    -355.480E-03    -4.68500E-03     587.228E-03    -294.300E-03    -295.662E-03    -294.266E-03     587.194E-03    -295.662E-03     10.4391E-03     12.3944E+06    -11.2245E+06    -53.1887E+06    -53.0891E+06    -11.3242E+06     12.3944E+06     1.14757E+06         68.8274
             453     5.95870E-03     79.2381E-03         1.23445    -347.429E-03    -357.003E-03    -348.085E-03         1.23418    -356.083E-03    -11.7754E-03     589.001E-03    -293.895E-03    -295.193E-03    -293.888E-03     588.994E-03    -295.193E-03     3.75787E-03    -216.423E+03    -20.5227E+06    -60.9142E+06    -60.8188E+06    -20.6181E+06    -216.423E+03       1.118E+06         68.5924
             454     5.21299E-03     79.2395E-03         1.23998    -351.744E-03    -357.275E-03    -351.805E-03         1.23972    -356.948E-03     9.51932E-03     589.304E-03    -293.905E-03    -294.988E-03    -293.902E-03     589.301E-03    -294.988E-03    -1.92828E-03    -13.7371E+06    -29.7178E+06    -68.1756E+06    -68.0932E+06    -29.8002E+06    -13.7371E+06     904.998E+03         68.4351
             455     4.46755E-03     79.2511E-03         1.24734    -353.636E-03    -362.797E-03    -358.629E-03         1.24673    -357.197E-03    -18.5492E-03     589.041E-03    -294.467E-03    -295.214E-03    -294.456E-03     589.030E-03    -295.214E-03    -6.21107E-03    -30.9271E+06    -40.5425E+06    -75.8799E+06    -75.8303E+06    -40.5922E+06    -30.9271E+06     816.766E+03         68.2575
             456     3.72348E-03     79.2636E-03         1.24277    -346.630E-03    -367.289E-03    -355.614E-03         1.24167    -357.210E-03    -4.29966E-03     589.366E-03    -294.568E-03    -295.090E-03    -294.585E-03     589.341E-03    -295.048E-03    -9.27636E-03    -49.1563E+06    -55.6843E+06    -83.5564E+06    -83.4773E+06    -55.7634E+06    -49.1563E+06     1.01294E+06         68.0309
             457     2.97915E-03     79.2854E-03         1.23726    -344.267E-03    -363.542E-03    -347.118E-03         1.23531    -358.736E-03    -31.1681E-03     589.179E-03    -294.684E-03    -295.174E-03    -294.693E-03     589.146E-03    -295.131E-03    -10.7506E-03    -65.9950E+06    -76.3455E+06    -90.3632E+06    -89.7148E+06    -76.9940E+06    -65.9950E+06     1.18140E+06         67.8552
             458     2.23423E-03     79.3021E-03         1.24759    -351.751E-03    -365.027E-03    -350.248E-03         1.24310    -362.040E-03     35.9420E-03     589.791E-03    -294.868E-03    -295.418E-03    -294.836E-03     589.760E-03    -295.418E-03    -10.5001E-03    -81.7258E+06    -93.1532E+06    -101.469E+06    -95.4797E+06    -99.1430E+06    -81.7258E+06     711.973E+03         67.7817
             459     1.48928E-03     79.3212E-03         1.26194    -351.128E-03    -379.741E-03    -358.540E-03         1.25531    -365.698E-03    -4.15413E-03     590.286E-03    -294.808E-03    -295.535E-03    -295.282E-03     590.266E-03    -295.041E-03    -7.96795E-03    -94.0739E+06    -99.4216E+06    -115.143E+06    -99.4920E+06    -115.072E+06    -94.0739E+06     224.624E+03         67.7535
             460     745.877E-06     79.3301E-03         1.29206    -223.064E-03    -534.747E-03    -500.883E-03         1.26908    -233.949E-03     171.293E-03     589.208E-03    -293.845E-03    -294.873E-03    -294.556E-03     589.202E-03    -294.155E-03    -4.44804E-03    -100.419E+06    -102.302E+06    -131.497E+06    -101.878E+06    -131.344E+06    -100.995E+06    -298.548E+03         67.7280
             461     12.6670E-03     78.0903E-03         1.26101    -358.751E-03    -372.166E-03    -372.123E-03         1.26097    -358.751E-03    -926.899E-06     590.639E-03    -294.920E-03    -297.338E-03    -294.817E-03     588.118E-03    -294.920E-03     94.1619E-03     72.2016E+06     38.4452E+06    -4.23318E+06    -4.21785E+06     38.4299E+06     72.2016E+06     35.7080E+03         81.3539
             462     11.9232E-03     77.9194E-03         1.26364    -358.174E-03    -373.691E-03    -373.612E-03         1.26356    -358.174E-03     7.94715E-03     590.611E-03    -294.805E-03    -296.552E-03    -294.169E-03     588.423E-03    -295.000E-03     86.6416E-03     69.8599E+06     34.4880E+06    -8.46503E+06    -8.42682E+06     34.4498E+06     69.8599E+06     330.433E+03         78.2381
             463     11.1737E-03     77.8021E-03         1.26028    -357.044E-03    -369.019E-03    -368.346E-03         1.26018    -357.621E-03     6.91600E-03     590.044E-03    -294.468E-03    -294.969E-03    -293.483E-03     588.754E-03    -294.664E-03     67.4151E-03     68.4039E+06     30.1752E+06    -13.7403E+06    -13.7007E+06     30.1356E+06     68.4039E+06     751.430E+03         74.9627
             464     10.4278E-03     77.6998E-03         1.25638    -354.323E-03    -366.538E-03    -363.415E-03         1.25623    -357.292E-03     23.6401E-03     590.125E-03    -293.908E-03    -294.445E-03    -293.272E-03     589.184E-03    -294.140E-03     57.3202E-03     64.8026E+06     26.1131E+06    -19.5490E+06    -19.5119E+06     26.0759E+06     64.8026E+06     97.8961E+03         72.4234
             465     9.68283E-03     77.6170E-03         1.25221    -354.392E-03    -362.059E-03    -359.113E-03         1.25204    -357.173E-03     7.27491E-03     588.411E-03    -293.411E-03    -293.835E-03    -292.985E-03     587.793E-03    -293.643E-03     46.4701E-03     57.5566E+06     20.8189E+06    -25.2819E+06    -25.2502E+06     20.7873E+06     57.5566E+06     129.390E+03         70.8434
             466     8.93851E-03     77.5518E-03         1.24786    -354.843E-03    -357.518E-03    -354.966E-03         1.24777    -357.305E-03    -6.36211E-03     586.419E-03    -292.986E-03    -293.534E-03    -292.787E-03     586.029E-03    -293.341E-03     36.6887E-03     47.3258E+06     13.8638E+06    -31.7537E+06    -31.7226E+06     13.8327E+06     47.3258E+06     448.491E+03         69.9988
             467     8.19311E-03     77.5012E-03         1.24669    -352.840E-03    -358.311E-03    -353.373E-03         1.24660    -357.682E-03    -7.28068E-03     587.892E-03    -293.448E-03    -294.719E-03    -293.238E-03     587.682E-03    -294.719E-03     26.7811E-03     35.7066E+06     5.41479E+06    -39.0689E+06    -39.0431E+06     5.38903E+06     35.7066E+06     223.061E+03         69.5202
             468     7.44734E-03     77.4664E-03         1.24797    -350.060E-03    -362.901E-03    -354.748E-03         1.24788    -358.121E-03    -748.742E-06     588.304E-03    -294.092E-03    -295.855E-03    -293.995E-03     588.207E-03    -295.855E-03     18.1060E-03     23.6162E+06    -3.65519E+06    -46.7102E+06    -46.7001E+06    -3.66528E+06     23.6162E+06     66.7631E+03         69.1521
             469     6.70298E-03     77.4427E-03         1.25210    -353.006E-03    -364.739E-03    -359.355E-03         1.25201    -358.299E-03     22.5441E-03     587.032E-03    -293.952E-03    -295.644E-03    -293.917E-03     586.998E-03    -295.644E-03     10.3926E-03     12.3518E+06    -11.8049E+06    -53.8637E+06    -53.7881E+06    -11.8805E+06     12.3518E+06     120.831E+03         68.8308
             470     5.95712E-03     77.4344E-03         1.25409    -353.981E-03    -365.699E-03    -361.548E-03         1.25402    -358.065E-03     18.0023E-03     588.949E-03    -293.764E-03    -295.211E-03    -293.758E-03     588.943E-03    -295.211E-03     3.46850E-03     236.875E+03    -20.2294E+06    -60.7782E+06    -60.6798E+06    -20.3277E+06     236.875E+03     580.866E+03         68.5973
             471     5.21259E-03     77.4353E-03         1.25064    -351.760E-03    -363.284E-03    -356.776E-03         1.25032    -357.940E-03     36.2033E-03     589.768E-03    -294.225E-03    -294.957E-03    -294.221E-03     589.764E-03    -294.957E-03    -2.46897E-03    -14.0125E+06    -29.8365E+06    -68.1096E+06    -68.0440E+06    -29.9021E+06    -14.0125E+06     795.523E+03         68.4386
             472     4.46886E-03     77.4430E-03         1.24542    -351.874E-03    -358.654E-03    -350.935E-03         1.24448    -358.654E-03    -15.4401E-03     589.214E-03    -294.754E-03    -295.114E-03    -294.738E-03     589.198E-03    -295.114E-03    -7.13672E-03    -30.7889E+06    -40.4582E+06    -75.8846E+06    -75.7477E+06    -40.5951E+06    -30.7889E+06     1.48647E+06         68.2541
             473     3.72393E-03     77.4582E-03         1.24635    -347.458E-03    -366.270E-03    -352.796E-03         1.24543    -360.007E-03    -20.1208E-03     589.052E-03    -294.484E-03    -294.997E-03    -294.498E-03     589.024E-03    -294.955E-03    -9.87760E-03    -48.9368E+06    -54.9483E+06    -83.1633E+06    -83.0039E+06    -55.1077E+06    -48.9368E+06     1.61917E+06         68.0209
             474     2.97944E-03     77.4775E-03         1.26038    -351.384E-03    -375.719E-03    -365.459E-03         1.25884    -360.103E-03    -39.4167E-03     588.919E-03    -294.390E-03    -295.147E-03    -294.400E-03     588.887E-03    -295.105E-03    -10.6153E-03    -66.0748E+06    -75.4862E+06    -90.1071E+06    -89.6631E+06    -75.9303E+06    -66.0748E+06     1.52294E+06         67.8422
             475     2.23491E-03     77.4980E-03         1.26412    -356.490E-03    -374.525E-03    -370.703E-03         1.26115    -357.344E-03    -719.002E-06     589.484E-03    -294.546E-03    -295.500E-03    -294.520E-03     589.457E-03    -295.500E-03    -9.47009E-03    -81.3987E+06    -91.9492E+06    -100.007E+06    -94.9323E+06    -97.0235E+06    -81.3987E+06     1.28667E+06         67.7696
             476     1.49060E-03     77.5149E-03         1.25445    -342.977E-03    -375.485E-03    -359.778E-03         1.24962    -353.862E-03    -35.5310E-03     590.247E-03    -294.707E-03    -295.607E-03    -295.007E-03     590.232E-03    -295.292E-03    -6.80734E-03    -93.5290E+06    -98.6424E+06    -114.082E+06    -98.4474E+06    -113.957E+06    -93.8490E+06     891.026E+03         67.7460
             477     745.153E-06     77.5285E-03         1.26337    -200.028E-03    -524.164E-03    -494.515E-03         1.24461    -210.913E-03     145.560E-03     589.845E-03    -294.228E-03    -295.042E-03    -294.761E-03     589.840E-03    -294.504E-03    -3.79788E-03    -98.4861E+06    -100.681E+06    -128.964E+06    -99.9529E+06    -128.796E+06    -99.3826E+06     481.566E+03         67.7249
             478     12.6670E-03     76.2842E-03         1.26450    -359.829E-03    -369.414E-03    -367.297E-03         1.26447    -361.917E-03     185.685E-06     590.551E-03    -294.914E-03    -297.281E-03    -294.718E-03     587.987E-03    -294.914E-03     94.9278E-03     72.8739E+06     38.9165E+06    -4.25575E+06    -4.24694E+06     38.9077E+06     72.8739E+06    -249.945E+03         81.3486
             479     11.9233E-03     76.1142E-03         1.26313    -358.601E-03    -367.711E-03    -364.243E-03         1.26302    -361.959E-03     4.04578E-03     590.667E-03    -294.833E-03    -296.564E-03    -294.213E-03     588.457E-03    -294.974E-03     86.9712E-03     68.5087E+06     34.4742E+06    -9.27846E+06    -9.24620E+06     34.4420E+06     68.5087E+06     474.572E+03         78.2327
             480     11.1735E-03     75.9996E-03         1.26698    -359.888E-03    -368.032E-03    -365.755E-03         1.26686    -362.039E-03     8.29410E-03     590.038E-03    -294.505E-03    -295.149E-03    -293.719E-03     588.748E-03    -294.647E-03     67.4320E-03     64.9028E+06     29.8043E+06    -14.2365E+06    -14.1893E+06     29.7570E+06     64.9028E+06     166.036E+03         74.9577
             481     10.4283E-03     75.8937E-03         1.27208    -361.214E-03    -372.113E-03    -371.364E-03         1.27195    -361.829E-03     24.5465E-03     590.056E-03    -293.873E-03    -294.655E-03    -293.424E-03     589.122E-03    -294.171E-03     56.9907E-03     61.5797E+06     25.7037E+06    -19.4164E+06    -19.3740E+06     25.6613E+06     61.5797E+06    -902.146E+03         72.4214
             482     9.68293E-03     75.8129E-03         1.27057    -361.013E-03    -370.319E-03    -369.793E-03         1.27043    -361.402E-03     5.33367E-03     588.297E-03    -293.362E-03    -293.805E-03    -292.870E-03     587.707E-03    -293.706E-03     45.3889E-03     56.7299E+06     20.1292E+06    -25.5404E+06    -25.5113E+06     20.1000E+06     56.7299E+06    -36.6661E+03         70.8471
             483     8.93668E-03     75.7456E-03         1.26851    -359.651E-03    -369.278E-03    -367.875E-03         1.26843    -360.978E-03    -1.68205E-03     586.413E-03    -293.098E-03    -293.484E-03    -292.821E-03     586.038E-03    -293.386E-03     35.9614E-03     48.2691E+06     13.1672E+06    -32.0934E+06    -32.0674E+06     13.1411E+06     48.2691E+06     961.585E+03         70.0065
             484     8.19232E-03     75.6960E-03         1.26713    -356.801E-03    -370.875E-03    -366.913E-03         1.26687    -360.508E-03    -16.0376E-03     588.068E-03    -293.670E-03    -294.732E-03    -293.462E-03     587.859E-03    -294.732E-03     26.7469E-03     36.7708E+06     5.48260E+06    -38.7662E+06    -38.7433E+06     5.45971E+06     36.7708E+06     948.514E+03         69.5263
             485     7.44825E-03     75.6607E-03         1.26281    -352.012E-03    -371.851E-03    -363.507E-03         1.26253    -360.074E-03    -28.0889E-03     588.312E-03    -294.115E-03    -295.808E-03    -294.015E-03     588.212E-03    -295.808E-03     18.2786E-03     24.5028E+06    -2.87878E+06    -45.6361E+06    -45.6236E+06    -2.89135E+06     24.5028E+06     635.088E+03         69.1525
             486     6.70247E-03     75.6392E-03         1.26081    -354.426E-03    -368.056E-03    -362.644E-03         1.26069    -359.718E-03    -10.3104E-03     587.122E-03    -293.955E-03    -295.584E-03    -293.921E-03     587.089E-03    -295.584E-03     10.0757E-03     11.9237E+06    -11.9008E+06    -53.1108E+06    -53.0741E+06    -11.9375E+06     11.9237E+06     178.620E+03         68.8272
             487     5.95764E-03     75.6274E-03         1.26143    -355.729E-03    -366.500E-03    -362.628E-03         1.26115    -359.322E-03    -22.9301E-03     589.249E-03    -294.079E-03    -295.151E-03    -294.074E-03     589.244E-03    -295.151E-03     2.89635E-03    -340.221E+03    -20.5290E+06    -60.5419E+06    -60.4876E+06    -20.5833E+06    -340.221E+03     331.514E+03         68.5920
             488     5.21416E-03     75.6286E-03         1.25740    -353.186E-03    -364.535E-03    -358.032E-03         1.25690    -359.191E-03     1.75877E-03     589.578E-03    -294.312E-03    -294.859E-03    -294.308E-03     589.575E-03    -294.859E-03    -2.42793E-03    -14.5613E+06    -30.1757E+06    -68.5450E+06    -68.4142E+06    -30.3065E+06    -14.5613E+06     1.35227E+06         68.4302
             489     4.46917E-03     75.6369E-03         1.25686    -355.032E-03    -363.113E-03    -357.872E-03         1.25600    -359.413E-03    -25.3950E-03     588.577E-03    -294.462E-03    -295.067E-03    -294.450E-03     588.565E-03    -295.067E-03    -6.38006E-03    -31.6344E+06    -41.2845E+06    -76.7368E+06    -76.5252E+06    -41.4961E+06    -31.6344E+06     1.61407E+06         68.2419
             490     3.72457E-03     75.6541E-03         1.26356    -355.983E-03    -368.930E-03    -364.905E-03         1.26252    -358.966E-03    -5.61071E-03     588.625E-03    -294.148E-03    -295.002E-03    -294.125E-03     588.603E-03    -295.002E-03    -8.76768E-03    -49.6831E+06    -54.1814E+06    -83.5899E+06    -83.4185E+06    -54.3528E+06    -49.6831E+06     1.49491E+06         68.0087
             491     2.97891E-03     75.6722E-03         1.26236    -351.136E-03    -372.975E-03    -365.433E-03         1.26104    -357.358E-03    -11.2643E-03     588.797E-03    -294.063E-03    -295.229E-03    -294.037E-03     588.771E-03    -295.229E-03    -9.58239E-03    -66.7653E+06    -74.1899E+06    -89.2701E+06    -89.1781E+06    -74.2820E+06    -66.7653E+06     1.02443E+06         67.8389
             492     2.23328E-03     75.6942E-03         1.25670    -349.985E-03    -369.571E-03    -361.631E-03         1.25397    -355.193E-03     15.5782E-03     589.551E-03    -294.382E-03    -295.782E-03    -294.359E-03     589.528E-03    -295.782E-03    -8.89412E-03    -80.6326E+06    -91.6200E+06    -97.7405E+06    -94.1380E+06    -95.2224E+06    -80.6326E+06     562.030E+03         67.7798
             493     1.48751E-03     75.7095E-03         1.25590    -346.822E-03    -370.207E-03    -361.741E-03         1.25200    -351.387E-03     7.31929E-03     590.690E-03    -294.937E-03    -295.898E-03    -294.923E-03     590.676E-03    -295.898E-03    -6.70548E-03    -90.7745E+06    -98.0300E+06    -112.041E+06    -97.8489E+06    -111.902E+06    -91.0945E+06     1.27221E+06         67.7644
             494     743.436E-06     75.7226E-03         1.24590    -216.274E-03    -492.356E-03    -476.230E-03         1.23434    -220.840E-03     126.582E-03     591.096E-03    -294.683E-03    -295.908E-03    -294.678E-03     591.090E-03    -295.908E-03    -4.00432E-03    -97.1509E+06    -101.342E+06    -127.886E+06    -100.095E+06    -127.636E+06    -98.6481E+06     1.31335E+06         67.7458
             495     12.6664E-03     74.4807E-03         1.27865    -362.771E-03    -372.972E-03    -370.866E-03         1.27863    -364.859E-03    -7.94112E-03     590.243E-03    -294.932E-03    -297.112E-03    -294.551E-03     587.682E-03    -294.932E-03     94.8557E-03     72.2080E+06     38.5610E+06    -4.53498E+06    -4.53057E+06     38.5565E+06     72.2080E+06     255.401E+03         81.3470
             496     11.9223E-03     74.3084E-03         1.27697    -361.390E-03    -372.787E-03    -369.373E-03         1.27691    -364.748E-03    -12.0971E-03     590.741E-03    -294.996E-03    -296.606E-03    -294.413E-03     588.548E-03    -294.996E-03     86.5707E-03     65.8632E+06     33.9669E+06    -9.25721E+06    -9.22937E+06     33.9391E+06     65.8632E+06    -114.560E+03         78.2332
             497     11.1735E-03     74.1930E-03         1.27259    -361.652E-03    -368.119E-03    -364.999E-03         1.27253    -364.708E-03    -11.9476E-03     590.425E-03    -294.640E-03    -295.420E-03    -294.148E-03     589.153E-03    -294.640E-03     67.0095E-03     62.7163E+06     30.1044E+06    -13.6975E+06    -13.6481E+06     30.0551E+06     62.7163E+06    -772.834E+03         74.9579
             498     10.4282E-03     74.0875E-03         1.26875    -361.185E-03    -365.891E-03    -362.201E-03         1.26873    -364.853E-03     5.70250E-03     590.215E-03    -293.880E-03    -294.817E-03    -293.608E-03     589.285E-03    -294.159E-03     56.8855E-03     60.4246E+06     25.7047E+06    -19.4509E+06    -19.3784E+06     25.6322E+06     60.4246E+06     348.910E+03         72.4241
             499     9.68355E-03     74.0061E-03         1.27440    -362.767E-03    -369.567E-03    -367.323E-03         1.27431    -364.915E-03    -8.08981E-03     588.396E-03    -293.376E-03    -293.870E-03    -292.962E-03     587.814E-03    -293.702E-03     45.0529E-03     55.6419E+06     19.7357E+06    -25.9769E+06    -25.9059E+06     19.6647E+06     55.6419E+06     361.151E+03         70.8510
             500     8.93912E-03     73.9411E-03         1.28071    -364.526E-03    -373.244E-03    -373.136E-03         1.28061    -364.536E-03    -9.51754E-03     586.334E-03    -292.907E-03    -293.515E-03    -292.710E-03     585.968E-03    -293.347E-03     35.5372E-03     47.7406E+06     13.0956E+06    -32.1514E+06    -32.1230E+06     13.0672E+06     47.7406E+06    -234.546E+03         70.0045
             501     8.19257E-03     73.8905E-03         1.28301    -363.705E-03    -375.962E-03    -375.751E-03         1.28280    -363.716E-03    -11.9053E-03     587.823E-03    -293.390E-03    -294.704E-03    -293.188E-03     587.621E-03    -294.704E-03     26.2523E-03     37.0194E+06     5.55275E+06    -38.4905E+06    -38.4829E+06     5.54510E+06     37.0194E+06     309.148E+03         69.5194
             502     7.44731E-03     73.8549E-03         1.28439    -362.451E-03    -379.046E-03    -378.610E-03         1.28395    -362.451E-03    -7.81478E-03     588.243E-03    -294.033E-03    -295.770E-03    -293.939E-03     588.149E-03    -295.770E-03     17.8372E-03     24.9583E+06    -2.55443E+06    -45.2875E+06    -45.2515E+06    -2.59042E+06     24.9583E+06     886.294E+03         69.1448
             503     6.70336E-03     73.8319E-03         1.27690    -361.019E-03    -374.028E-03    -373.624E-03         1.27649    -361.019E-03     13.5453E-03     587.153E-03    -294.054E-03    -295.533E-03    -294.020E-03     587.119E-03    -295.533E-03     10.3400E-03     12.3581E+06    -11.4291E+06    -52.4653E+06    -52.4094E+06    -11.4850E+06     12.3581E+06     1.44555E+06         68.8180
             504     5.95896E-03     73.8218E-03         1.26491    -356.631E-03    -366.511E-03    -362.399E-03         1.26439    -360.225E-03     895.616E-06     589.130E-03    -294.019E-03    -295.126E-03    -294.013E-03     589.123E-03    -295.126E-03     3.85707E-03    -565.342E+03    -20.8914E+06    -60.4965E+06    -60.4200E+06    -20.9680E+06    -565.342E+03     1.33797E+06         68.5791
             505     5.21377E-03     73.8213E-03         1.26303    -355.320E-03    -365.732E-03    -360.352E-03         1.26240    -360.075E-03     14.4246E-03     589.056E-03    -293.896E-03    -294.894E-03    -293.894E-03     589.053E-03    -294.894E-03    -1.57708E-03    -14.3421E+06    -30.6322E+06    -68.6112E+06    -68.4377E+06    -30.8057E+06    -14.3421E+06     1.38214E+06         68.4178
             506     4.46813E-03     73.8324E-03         1.26464    -356.162E-03    -366.485E-03    -362.177E-03         1.26402    -359.847E-03    -10.9151E-03     588.111E-03    -293.976E-03    -295.196E-03    -293.966E-03     588.100E-03    -295.196E-03    -5.83560E-03    -30.7372E+06    -40.8737E+06    -76.0003E+06    -75.7984E+06    -41.0756E+06    -30.7372E+06     1.28514E+06         68.2370
             507     3.72224E-03     73.8502E-03         1.25606    -349.409E-03    -364.108E-03    -352.533E-03         1.25548    -360.408E-03    -3.63106E-03     588.667E-03    -294.192E-03    -295.214E-03    -294.170E-03     588.645E-03    -295.214E-03    -8.67009E-03    -49.3644E+06    -53.2041E+06    -83.2019E+06    -83.0976E+06    -53.3084E+06    -49.3644E+06     1.10420E+06         68.0149
             508     2.97775E-03     73.8696E-03         1.25248    -346.026E-03    -363.350E-03    -345.562E-03         1.25201    -363.350E-03    -2.80279E-03     589.189E-03    -294.492E-03    -295.433E-03    -294.465E-03     589.161E-03    -295.433E-03    -9.86071E-03    -66.4275E+06    -72.6400E+06    -89.5720E+06    -89.5031E+06    -72.7089E+06    -66.4275E+06     925.356E+03         67.8588
             509     2.23309E-03     73.8885E-03         1.26352    -353.147E-03    -368.496E-03    -351.258E-03         1.26145    -368.313E-03     18.1993E-03     590.128E-03    -294.765E-03    -295.884E-03    -294.738E-03     590.101E-03    -295.884E-03    -9.74801E-03    -80.7763E+06    -90.8409E+06    -97.9608E+06    -94.5871E+06    -94.2146E+06    -80.7763E+06     1.01572E+06         67.8091
             510     1.48915E-03     73.9059E-03         1.27816    -360.910E-03    -375.227E-03    -359.006E-03         1.27607    -375.044E-03     25.4310E-03     591.008E-03    -295.245E-03    -295.921E-03    -295.228E-03     590.990E-03    -295.918E-03    -7.86988E-03    -91.4086E+06    -98.2350E+06    -111.868E+06    -98.3926E+06    -111.711E+06    -91.4086E+06     427.776E+03         67.7921
             511     744.127E-06     73.9122E-03         1.30229    -280.436E-03    -480.937E-03    -469.376E-03         1.29855    -288.250E-03     65.2245E-03     591.112E-03    -294.743E-03    -295.904E-03    -294.947E-03     591.105E-03    -295.691E-03    -5.03844E-03    -96.7386E+06    -101.360E+06    -125.112E+06    -100.357E+06    -124.938E+06    -97.9159E+06     577.667E+03         67.7689
             512     12.6674E-03     72.6752E-03         1.29578    -368.497E-03    -380.628E-03    -380.614E-03         1.29577    -368.497E-03    -6.17126E-03     590.438E-03    -294.936E-03    -297.407E-03    -294.863E-03     587.895E-03    -294.936E-03     94.5909E-03     69.3298E+06     37.8982E+06    -4.01067E+06    -4.00356E+06     37.8911E+06     69.3298E+06     381.939E+03         81.3485
             513     11.9229E-03     72.5014E-03         1.29369    -368.218E-03    -378.126E-03    -378.120E-03         1.29368    -368.218E-03    -453.326E-06     590.748E-03    -294.987E-03    -296.750E-03    -294.570E-03     588.580E-03    -294.999E-03     86.1051E-03     65.9478E+06     34.5859E+06    -8.37873E+06    -8.35116E+06     34.5584E+06     65.9478E+06    -255.392E+03         78.2381
             514     11.1735E-03     72.3856E-03         1.29147    -367.058E-03    -378.148E-03    -377.215E-03         1.29144    -367.963E-03     1.94636E-03     590.534E-03    -294.627E-03    -295.522E-03    -294.259E-03     589.284E-03    -294.640E-03     66.4448E-03     64.5356E+06     30.7012E+06    -14.1064E+06    -14.0669E+06     30.6618E+06     64.5356E+06    -84.7723E+03         74.9647
             515     10.4293E-03     72.2834E-03         1.28924    -364.574E-03    -379.477E-03    -376.308E-03         1.28912    -367.627E-03     18.2064E-03     590.178E-03    -293.847E-03    -294.932E-03    -293.712E-03     589.263E-03    -294.153E-03     56.4889E-03     61.9399E+06     26.3550E+06    -19.7010E+06    -19.6022E+06     26.2562E+06     61.9399E+06     596.854E+03         72.4300
             516     9.68342E-03     72.1987E-03         1.28220    -363.324E-03    -373.446E-03    -369.153E-03         1.28202    -367.440E-03     1.50087E-03     588.155E-03    -293.358E-03    -293.897E-03    -293.005E-03     587.567E-03    -293.663E-03     45.2803E-03     55.4621E+06     20.4491E+06    -25.3746E+06    -25.2182E+06     20.2927E+06     55.4621E+06     415.626E+03         70.8524
             517     8.93807E-03     72.1340E-03         1.27616    -362.580E-03    -368.115E-03    -362.867E-03         1.27604    -367.707E-03    -3.20022E-03     586.388E-03    -293.090E-03    -293.534E-03    -292.960E-03     586.015E-03    -293.291E-03     35.9034E-03     45.3507E+06     12.6860E+06    -32.1058E+06    -32.0300E+06     12.6102E+06     45.3507E+06     107.718E+03         70.0007
             518     8.19372E-03     72.0851E-03         1.27524    -358.926E-03    -370.260E-03    -360.633E-03         1.27506    -368.380E-03    -2.74699E-03     587.835E-03    -293.507E-03    -294.656E-03    -293.309E-03     587.628E-03    -294.647E-03     26.5421E-03     34.5720E+06     4.39099E+06    -39.1770E+06    -39.1635E+06     4.37749E+06     34.5720E+06     165.480E+03         69.5126
             519     7.44898E-03     72.0500E-03         1.27614    -355.561E-03    -374.135E-03    -360.046E-03         1.27580    -369.317E-03     3.10396E-03     587.874E-03    -293.676E-03    -295.756E-03    -293.578E-03     587.776E-03    -295.756E-03     18.2255E-03     23.5880E+06    -3.78047E+06    -46.3263E+06    -46.2851E+06    -3.82173E+06     23.5880E+06     855.205E+03         69.1362
             520     6.70298E-03     72.0276E-03         1.28333    -361.894E-03    -376.067E-03    -367.621E-03         1.28302    -370.025E-03     26.6392E-03     586.619E-03    -293.597E-03    -295.575E-03    -293.560E-03     586.582E-03    -295.575E-03     10.7672E-03     12.8174E+06    -11.8607E+06    -53.1540E+06    -53.1042E+06    -11.9105E+06     12.8174E+06     1.15321E+06         68.8079
             521     5.95750E-03     72.0169E-03         1.29335    -368.993E-03    -379.623E-03    -378.682E-03         1.29308    -369.664E-03     19.6618E-03     588.720E-03    -293.664E-03    -295.219E-03    -293.656E-03     588.713E-03    -295.219E-03     4.09285E-03     1.01925E+06    -20.4387E+06    -60.1441E+06    -60.0676E+06    -20.5152E+06     1.01925E+06     1.45779E+06         68.5701
             522     5.21276E-03     72.0175E-03         1.29257    -368.343E-03    -379.378E-03    -378.942E-03         1.29213    -368.343E-03     36.9652E-03     588.993E-03    -293.735E-03    -295.048E-03    -293.733E-03     588.990E-03    -295.048E-03    -1.54930E-03    -13.3766E+06    -30.2604E+06    -67.6513E+06    -67.5293E+06    -30.3824E+06    -13.3766E+06     1.20467E+06         68.4164
             523     4.46743E-03     72.0284E-03         1.28361    -364.628E-03    -374.680E-03    -371.595E-03         1.28305    -367.151E-03     741.553E-06     588.629E-03    -294.304E-03    -295.347E-03    -294.292E-03     588.618E-03    -295.347E-03    -6.19271E-03    -29.7565E+06    -40.6772E+06    -75.1646E+06    -75.0205E+06    -40.8213E+06    -29.7565E+06     1.14041E+06         68.2481
             524     3.72281E-03     72.0452E-03         1.28206    -356.294E-03    -380.842E-03    -370.458E-03         1.28166    -366.279E-03    -6.38322E-03     589.427E-03    -294.738E-03    -295.373E-03    -294.785E-03     589.401E-03    -295.300E-03    -9.51861E-03    -47.4325E+06    -51.7228E+06    -82.0316E+06    -81.9015E+06    -51.8529E+06    -47.4325E+06     1.57977E+06         68.0357
             525     2.97797E-03     72.0639E-03         1.28399    -353.662E-03    -385.062E-03    -373.437E-03         1.28347    -364.763E-03    -15.9751E-03     589.657E-03    -294.945E-03    -295.497E-03    -294.984E-03     589.623E-03    -295.423E-03    -11.0292E-03    -65.2716E+06    -70.8814E+06    -88.6649E+06    -88.5233E+06    -71.0230E+06    -65.2716E+06     1.39219E+06         67.8820
             526     2.23354E-03     72.0831E-03         1.27587    -353.087E-03    -378.205E-03    -367.595E-03         1.27522    -363.045E-03    -24.8235E-03     590.237E-03    -294.878E-03    -295.794E-03    -294.849E-03     590.208E-03    -295.794E-03    -10.0457E-03    -80.8392E+06    -90.0914E+06    -97.2979E+06    -94.0590E+06    -93.3303E+06    -80.8392E+06     812.779E+03         67.8264
             527     1.48891E-03     72.0998E-03         1.27364    -352.216E-03    -375.312E-03    -364.685E-03         1.27258    -361.784E-03     19.6134E-03     590.972E-03    -295.246E-03    -295.839E-03    -295.271E-03     590.956E-03    -295.799E-03    -7.34790E-03    -92.7136E+06    -97.2378E+06    -109.836E+06    -97.2437E+06    -109.742E+06    -92.8017E+06    -198.379E+03         67.7990
             528     745.133E-06     72.1098E-03         1.26829    -291.112E-03    -432.393E-03    -428.308E-03         1.26746    -294.361E-03     10.1612E-03     590.873E-03    -294.856E-03    -295.600E-03    -295.595E-03     590.868E-03    -294.856E-03    -3.59502E-03    -96.4198E+06    -99.0929E+06    -123.330E+06    -97.8783E+06    -123.251E+06    -97.7132E+06    -1.29554E+06         67.7699
             529     12.6677E-03     70.8669E-03         1.29781    -370.635E-03    -376.573E-03    -374.618E-03         1.29778    -372.556E-03    -10.4845E-03     590.794E-03    -294.924E-03    -297.622E-03    -295.080E-03     588.252E-03    -294.924E-03     94.6075E-03     70.2214E+06     37.5357E+06    -4.51373E+06    -4.50495E+06     37.5269E+06     70.2214E+06    -128.923E+03         81.3504
             530     11.9240E-03     70.6951E-03         1.29942    -372.232E-03    -377.358E-03    -376.824E-03         1.29935    -372.694E-03    -9.53392E-03     590.736E-03    -294.967E-03    -296.704E-03    -294.524E-03     588.575E-03    -294.985E-03     86.0074E-03     66.8141E+06     34.2197E+06    -9.02484E+06    -8.95181E+06     34.1467E+06     66.8141E+06     754.600E+03         78.2399
             531     11.1745E-03     70.5797E-03         1.30202    -370.865E-03    -382.146E-03    -380.333E-03         1.30192    -372.578E-03    -8.38807E-03     590.234E-03    -294.608E-03    -295.239E-03    -293.950E-03     588.964E-03    -294.627E-03     66.9474E-03     64.2952E+06     30.7437E+06    -14.0157E+06    -13.9140E+06     30.6419E+06     64.2952E+06     738.137E+03         74.9654
             532     10.4291E-03     70.4763E-03         1.30071    -367.428E-03    -384.161E-03    -379.153E-03         1.30058    -372.311E-03     8.66272E-03     590.136E-03    -293.911E-03    -294.756E-03    -293.580E-03     589.192E-03    -294.143E-03     57.3660E-03     61.2345E+06     26.2058E+06    -19.4706E+06    -19.4002E+06     26.1354E+06     61.2345E+06    -688.494E+03         72.4286
             533     9.68400E-03     70.3956E-03         1.29589    -367.072E-03    -380.216E-03    -374.930E-03         1.29574    -372.211E-03    -3.96459E-03     588.270E-03    -293.448E-03    -293.969E-03    -293.133E-03     587.666E-03    -293.680E-03     45.8909E-03     55.4578E+06     20.2914E+06    -25.4659E+06    -25.3731E+06     20.1986E+06     55.4578E+06     408.978E+03         70.8521
             534     8.93876E-03     70.3283E-03         1.29170    -367.263E-03    -376.245E-03    -371.039E-03         1.29161    -372.380E-03    -850.619E-06     586.461E-03    -293.184E-03    -293.627E-03    -293.105E-03     586.085E-03    -293.329E-03     36.0117E-03     45.5320E+06     12.8085E+06    -32.0984E+06    -31.9960E+06     12.7061E+06     45.5320E+06     1.60578E+06         70.0035
             535     8.19352E-03     70.2794E-03         1.28896    -363.417E-03    -376.233E-03    -366.556E-03         1.28873    -372.860E-03    -13.9618E-03     587.935E-03    -293.609E-03    -294.646E-03    -293.411E-03     587.728E-03    -294.637E-03     26.6885E-03     34.4454E+06     4.72519E+06    -38.7866E+06    -38.7273E+06     4.66588E+06     34.4454E+06     1.12754E+06         69.5143
             536     7.44782E-03     70.2435E-03         1.28854    -359.843E-03    -379.647E-03    -365.686E-03         1.28833    -373.598E-03    -22.4551E-03     587.718E-03    -293.505E-03    -295.742E-03    -293.405E-03     587.618E-03    -295.742E-03     18.3104E-03     23.7453E+06    -3.53784E+06    -45.6843E+06    -45.6652E+06    -3.55699E+06     23.7453E+06     697.967E+03         69.1338
             537     6.70284E-03     70.2195E-03         1.28979    -362.988E-03    -378.535E-03    -367.088E-03         1.28976    -374.401E-03    -6.45784E-03     586.252E-03    -293.196E-03    -295.580E-03    -293.161E-03     586.217E-03    -295.580E-03     10.4225E-03     12.1481E+06    -12.3413E+06    -52.8480E+06    -52.8299E+06    -12.3594E+06     12.1481E+06     255.623E+03         68.8054
             538     5.95799E-03     70.2100E-03         1.29225    -364.512E-03    -379.342E-03    -368.607E-03         1.29221    -375.206E-03    -14.7221E-03     588.576E-03    -293.506E-03    -295.244E-03    -293.499E-03     588.569E-03    -295.244E-03     3.38608E-03     481.551E+03    -20.8155E+06    -59.8563E+06    -59.8388E+06    -20.8330E+06     481.551E+03     339.928E+03         68.5738
             539     5.21190E-03     70.2111E-03         1.29750    -368.207E-03    -381.145E-03    -373.545E-03         1.29746    -375.767E-03     683.959E-06     589.272E-03    -293.887E-03    -295.101E-03    -293.883E-03     589.268E-03    -295.101E-03    -2.37605E-03    -12.6500E+06    -29.7921E+06    -66.9491E+06    -66.8916E+06    -29.8497E+06    -12.6500E+06     816.886E+03         68.4252
             540     4.46701E-03     70.2191E-03         1.30464    -374.695E-03    -381.343E-03    -380.217E-03         1.30433    -375.513E-03    -20.5770E-03     589.251E-03    -294.673E-03    -295.362E-03    -294.658E-03     589.236E-03    -295.362E-03    -6.88177E-03    -28.9855E+06    -40.4707E+06    -74.4683E+06    -74.3885E+06    -40.5504E+06    -28.9855E+06     987.058E+03         68.2580
             541     3.72266E-03     70.2370E-03         1.30762    -369.954E-03    -389.732E-03    -385.245E-03         1.30711    -373.931E-03    -151.282E-06     589.874E-03    -295.017E-03    -295.279E-03    -295.068E-03     589.846E-03    -295.200E-03    -9.85885E-03    -47.0780E+06    -51.9833E+06    -81.7443E+06    -81.6780E+06    -52.0496E+06    -47.0780E+06     1.06096E+06         68.0436
             542     2.97915E-03     70.2552E-03         1.30292    -363.692E-03    -391.417E-03    -383.480E-03         1.30241    -371.118E-03     7.21478E-03     589.712E-03    -295.077E-03    -295.323E-03    -295.121E-03     589.677E-03    -295.244E-03    -11.1280E-03    -64.0903E+06    -69.0919E+06    -87.6430E+06    -87.5185E+06    -69.2163E+06    -64.0903E+06     1.25241E+06         67.8816
             543     2.23424E-03     70.2764E-03         1.29547    -363.971E-03    -382.929E-03    -378.900E-03         1.29489    -367.420E-03     10.8446E-03     590.074E-03    -294.933E-03    -295.583E-03    -294.902E-03     590.043E-03    -295.583E-03    -10.3638E-03    -78.8332E+06    -87.6555E+06    -95.4685E+06    -92.5160E+06    -90.6080E+06    -78.8332E+06     806.678E+03         67.8142
             544     1.48928E-03     70.2894E-03         1.28423    -358.723E-03    -376.963E-03    -371.509E-03         1.28314    -363.086E-03     80.5421E-03     590.392E-03    -294.924E-03    -295.567E-03    -294.944E-03     590.374E-03    -295.528E-03    -7.98539E-03    -91.4329E+06    -96.6974E+06    -107.374E+06    -96.7350E+06    -107.248E+06     -91.521E+06     717.025E+03         67.7788
             545     744.269E-06     70.3041E-03         1.27137    -325.048E-03    -398.134E-03    -391.976E-03         1.26957    -329.411E-03     4.59065E-03     590.324E-03    -294.587E-03    -295.500E-03    -295.112E-03     590.317E-03    -294.967E-03    -3.76139E-03    -98.4307E+06    -101.593E+06    -126.746E+06    -100.428E+06    -126.619E+06    -99.7240E+06     444.156E+03         67.7464
             546     12.6685E-03     69.0604E-03         1.31103    -374.911E-03    -383.273E-03    -381.270E-03         1.31095    -376.832E-03    -9.14803E-03     590.656E-03    -294.936E-03    -297.396E-03    -294.836E-03     588.096E-03    -294.936E-03     94.8977E-03     71.7427E+06     37.7771E+06    -4.53094E+06    -4.51969E+06     37.7659E+06     71.7427E+06     43.5397E+03         81.3523
             547     11.9241E-03     68.8887E-03         1.31058    -376.373E-03    -382.115E-03    -381.437E-03         1.31048    -376.950E-03    -1.91853E-03     590.674E-03    -295.004E-03    -296.527E-03    -294.328E-03     588.480E-03    -295.011E-03     86.6385E-03     66.5933E+06     33.7979E+06    -9.08360E+06    -8.98041E+06     33.6947E+06     66.5933E+06     331.065E+03         78.2397
             548     11.1740E-03     68.7752E-03         1.30689    -374.741E-03    -379.936E-03    -377.437E-03         1.30679    -377.140E-03    -7.59941E-03     590.151E-03    -294.635E-03    -295.190E-03    -293.899E-03     588.865E-03    -294.642E-03     67.3396E-03     63.1219E+06     30.3778E+06    -13.6296E+06    -13.4528E+06     30.2010E+06     63.1219E+06     662.556E+03         74.9616
             549     10.4281E-03     68.6707E-03         1.30344    -372.141E-03    -378.720E-03    -373.120E-03         1.30330    -377.596E-03     9.00132E-03     590.177E-03    -293.915E-03    -294.681E-03    -293.498E-03     589.233E-03    -294.155E-03     57.3435E-03     58.9970E+06     25.3416E+06    -19.5799E+06    -19.4892E+06     25.2508E+06     58.9970E+06     603.313E+03         72.4249
             550     9.68296E-03     68.5890E-03         1.30804    -373.960E-03    -381.574E-03    -377.301E-03         1.30785    -378.043E-03    -5.13187E-03     588.549E-03    -293.482E-03    -294.012E-03    -293.169E-03     587.945E-03    -293.722E-03     45.9169E-03     53.6714E+06     18.9375E+06    -26.3505E+06    -26.3362E+06     18.9233E+06     53.6714E+06     395.971E+03         70.8537
             551     8.93842E-03     68.5252E-03         1.31225    -377.245E-03    -382.078E-03    -381.059E-03         1.31214    -378.157E-03    -3.53662E-03     586.519E-03    -293.182E-03    -293.672E-03    -293.089E-03     586.135E-03    -293.382E-03     36.4126E-03     47.0153E+06     12.9959E+06    -32.1818E+06    -32.1318E+06     12.9460E+06     47.0153E+06     775.358E+03         70.0106
             552     8.19344E-03     68.4756E-03         1.31350    -377.983E-03    -383.041E-03    -382.927E-03         1.31338    -377.983E-03    -3.60567E-03     588.071E-03    -293.785E-03    -294.663E-03    -293.574E-03     587.860E-03    -294.663E-03     26.8827E-03     36.8590E+06     5.94390E+06    -37.8952E+06    -37.8428E+06     5.89153E+06     36.8590E+06     1.08811E+06         69.5238
             553     7.44949E-03     68.4404E-03         1.31442    -377.506E-03    -385.482E-03    -385.235E-03         1.31417    -377.506E-03     5.43961E-03     588.111E-03    -293.895E-03    -295.723E-03    -293.799E-03     588.015E-03    -295.723E-03     17.9212E-03     24.7082E+06    -2.35344E+06    -44.1881E+06    -44.1730E+06    -2.36854E+06     24.7082E+06     778.537E+03         69.1437
             554     6.70291E-03     68.4189E-03         1.30876    -373.771E-03    -383.398E-03    -379.924E-03         1.30856    -377.052E-03     17.7066E-03     586.416E-03    -293.382E-03    -295.503E-03    -293.350E-03     586.384E-03    -295.503E-03     9.89091E-03     11.9398E+06    -11.5991E+06    -51.6123E+06    -51.5726E+06    -11.6387E+06     11.9398E+06     659.123E+03         68.8164
             555     5.95712E-03     68.4068E-03         1.29910    -367.403E-03    -379.788E-03    -369.679E-03         1.29902    -377.426E-03     7.24148E-03     588.675E-03    -293.632E-03    -295.128E-03    -293.626E-03     588.670E-03    -295.128E-03     2.76931E-03    -296.943E+03    -20.6289E+06    -59.2356E+06    -59.1944E+06    -20.6701E+06    -296.943E+03     276.440E+03         68.5857
             556     5.21321E-03     68.4072E-03         1.29708    -366.309E-03    -379.236E-03    -366.626E-03         1.29695    -378.788E-03     20.4194E-03     589.480E-03    -294.112E-03    -294.956E-03    -294.108E-03     589.476E-03    -294.956E-03    -3.11709E-03    -13.1655E+06    -30.3347E+06    -66.9481E+06    -66.9328E+06    -30.3500E+06    -13.1655E+06     99.4097E+03         68.4304
             557     4.46830E-03     68.4157E-03         1.30124    -366.675E-03    -381.945E-03    -367.795E-03         1.30112    -380.707E-03    -2.56027E-03     588.868E-03    -294.432E-03    -295.218E-03    -294.416E-03     588.852E-03    -295.218E-03    -7.30399E-03    -28.8464E+06    -40.9155E+06    -74.4557E+06    -74.4220E+06    -40.9491E+06    -28.8464E+06     561.142E+03         68.2512
             558     3.72414E-03     68.4315E-03         1.30584    -368.496E-03    -384.304E-03    -369.513E-03         1.30562    -383.067E-03     6.61191E-03     589.167E-03    -294.517E-03    -295.112E-03    -294.494E-03     589.139E-03    -295.107E-03    -9.87295E-03    -46.6290E+06    -51.9162E+06    -81.1912E+06    -81.1625E+06    -51.9449E+06    -46.6290E+06     601.045E+03         68.0283
             559     2.97845E-03     68.4540E-03         1.31456    -375.660E-03    -386.904E-03    -376.809E-03         1.31419    -385.385E-03     3.32130E-03     589.562E-03    -295.040E-03    -295.187E-03    -295.016E-03     589.531E-03    -295.179E-03    -10.5236E-03    -63.7593E+06    -68.6432E+06    -87.6228E+06    -87.5702E+06    -68.6958E+06    -63.7593E+06     728.680E+03         67.8604
             560     2.23475E-03     68.4707E-03         1.32420    -381.676E-03    -388.866E-03    -383.170E-03         1.32383    -386.997E-03    -17.0201E-03     590.231E-03    -295.218E-03    -295.427E-03    -295.192E-03     590.202E-03    -295.424E-03    -10.1342E-03    -78.1546E+06    -86.8106E+06    -94.9902E+06    -92.6599E+06    -89.1409E+06    -78.1546E+06     1.24982E+06         67.7886
             561     1.49063E-03     68.4913E-03         1.32892    -380.999E-03    -395.418E-03    -388.632E-03         1.32837    -387.235E-03     34.8600E-03     590.041E-03    -294.795E-03    -295.293E-03    -294.962E-03     590.022E-03    -295.107E-03    -7.92097E-03    -90.4950E+06    -96.5795E+06    -107.518E+06    -96.9216E+06    -107.176E+06    -90.4950E+06     1.44725E+06         67.7513
             562     745.246E-06     68.4992E-03         1.32888    -369.253E-03    -407.928E-03    -400.142E-03         1.32546    -373.616E-03    -65.4474E-03     589.323E-03    -294.266E-03    -294.866E-03    -294.478E-03     589.316E-03    -294.647E-03    -4.69735E-03    -96.9255E+06    -100.622E+06    -123.458E+06    -99.7020E+06    -123.340E+06    -97.9640E+06     1.54251E+06         67.7168
             563     12.6662E-03     67.2543E-03         1.32346    -380.305E-03    -388.548E-03    -386.686E-03         1.32340    -382.106E-03    -3.10607E-03     590.318E-03    -294.955E-03    -297.216E-03    -294.640E-03     587.743E-03    -294.955E-03     95.1523E-03     69.1350E+06     37.1652E+06    -4.30404E+06    -4.29682E+06     37.1579E+06     69.1350E+06     424.209E+03         81.3510
             564     11.9226E-03     67.0832E-03         1.32083    -380.157E-03    -384.857E-03    -382.418E-03         1.32073    -382.488E-03    -814.102E-06     590.675E-03    -295.027E-03    -296.648E-03    -294.441E-03     588.468E-03    -295.027E-03     86.8803E-03     64.0818E+06     32.8330E+06    -9.10819E+06    -9.07336E+06     32.7981E+06     64.0818E+06    -156.692E+03         78.2410
             565     11.1734E-03     66.9682E-03         1.31930    -379.953E-03    -383.050E-03    -379.855E-03         1.31920    -383.050E-03    -5.73108E-03     590.454E-03    -294.647E-03    -295.487E-03    -294.213E-03     589.179E-03    -294.647E-03     67.0760E-03     63.1262E+06     29.5754E+06    -14.0655E+06    -13.9731E+06     29.4829E+06     63.1262E+06     294.522E+03         74.9670
             566     10.4289E-03     66.8655E-03         1.32431    -382.264E-03    -385.071E-03    -383.703E-03         1.32418    -383.506E-03     17.0265E-03     590.404E-03    -293.894E-03    -294.802E-03    -293.639E-03     589.473E-03    -294.126E-03     57.0031E-03     61.1256E+06     26.1343E+06    -18.9351E+06    -18.8355E+06     26.0348E+06     61.1256E+06     1.61663E+06         72.4328
             567     9.68313E-03     66.7833E-03         1.32591    -382.820E-03    -386.026E-03    -384.949E-03         1.32574    -383.732E-03     2.14086E-03     588.493E-03    -293.428E-03    -293.797E-03    -292.973E-03     587.901E-03    -293.660E-03     45.4472E-03     55.2417E+06     20.5351E+06    -24.6565E+06    -24.6138E+06     20.4924E+06     55.2417E+06     985.874E+03         70.8600
             568     8.93762E-03     66.7180E-03         1.32605    -382.955E-03    -385.461E-03    -384.467E-03         1.32597    -383.868E-03    -3.52609E-03     586.454E-03    -293.207E-03    -293.495E-03    -292.973E-03     586.083E-03    -293.358E-03     35.8057E-03     46.2757E+06     13.2454E+06    -31.2341E+06    -31.2259E+06     13.2373E+06     46.2757E+06     120.620E+03         70.0172
             569     8.19378E-03     66.6688E-03         1.32625    -383.189E-03    -386.414E-03    -385.499E-03         1.32606    -383.920E-03    -10.5644E-03     588.038E-03    -293.943E-03    -294.674E-03    -293.735E-03     587.830E-03    -294.674E-03     26.7488E-03     35.4963E+06     5.38059E+06    -37.9962E+06    -37.9896E+06     5.37403E+06     35.4963E+06     208.219E+03         69.5356
             570     7.44738E-03     66.6340E-03         1.32412    -382.705E-03    -385.863E-03    -384.316E-03         1.32380    -383.936E-03    -4.76350E-03     588.469E-03    -294.336E-03    -295.713E-03    -294.237E-03     588.371E-03    -295.713E-03     18.1109E-03      24.444E+06    -2.70880E+06    -44.7695E+06    -44.7505E+06    -2.72786E+06      24.444E+06     715.921E+03         69.1592
             571     6.70353E-03     66.6111E-03         1.32529    -382.718E-03    -386.163E-03    -384.649E-03         1.32501    -383.951E-03     4.14433E-03     587.207E-03    -294.156E-03    -295.442E-03    -294.124E-03     587.175E-03    -295.442E-03     9.90292E-03     13.2886E+06    -10.7014E+06    -51.2595E+06    -51.2145E+06    -10.7465E+06     13.2886E+06     934.701E+03         68.8304
             572     5.95987E-03     66.6010E-03         1.32679    -383.071E-03    -387.067E-03    -386.147E-03         1.32661    -383.805E-03    -3.59387E-03     589.010E-03    -294.033E-03    -295.007E-03    -294.028E-03     589.005E-03    -295.007E-03     2.78171E-03     487.348E+03    -19.8180E+06    -58.6940E+06    -58.6399E+06    -19.8722E+06     487.348E+03     661.988E+03         68.5916
             573     5.21377E-03     66.6002E-03         1.32136    -378.883E-03    -386.924E-03    -381.868E-03         1.32123    -383.803E-03     19.4905E-03     589.130E-03    -293.970E-03    -294.778E-03    -293.966E-03     589.126E-03    -294.778E-03    -2.78222E-03    -13.7129E+06    -30.2036E+06    -66.6426E+06    -66.6103E+06    -30.2359E+06    -13.7129E+06     352.912E+03         68.4254
             574     4.46934E-03     66.6094E-03         1.31690    -371.475E-03    -388.969E-03    -375.599E-03         1.31675    -384.689E-03    -5.30689E-03     588.266E-03    -294.123E-03    -295.053E-03    -294.108E-03     588.251E-03    -295.053E-03    -6.95568E-03    -29.3129E+06    -40.9990E+06    -74.1980E+06    -74.1851E+06    -41.0119E+06    -29.3129E+06     216.144E+03         68.2364
             575     3.72312E-03     66.6270E-03         1.32016    -374.659E-03    -388.902E-03    -377.032E-03         1.32003    -386.396E-03    -5.84695E-03     588.759E-03    -294.083E-03    -294.982E-03    -294.055E-03     588.730E-03    -294.982E-03    -9.94844E-03    -46.5702E+06    -51.9761E+06    -81.2947E+06    -81.2772E+06    -51.9936E+06    -46.5702E+06     439.387E+03         68.0037
             576     2.97903E-03     66.6450E-03         1.32467    -378.575E-03    -389.965E-03    -379.841E-03         1.32442    -388.445E-03    -2.91491E-03     589.116E-03    -294.484E-03    -295.103E-03    -294.453E-03     589.082E-03    -295.100E-03    -10.9606E-03    -64.2845E+06    -68.9242E+06    -87.8134E+06    -87.7588E+06    -68.9788E+06    -64.2845E+06     807.463E+03         67.8276
             577     2.23428E-03     66.6652E-03         1.33030    -379.863E-03    -392.793E-03    -380.915E-03         1.32983    -391.273E-03    -9.85678E-03     589.724E-03    -294.662E-03    -295.506E-03    -294.637E-03     589.696E-03    -295.503E-03    -9.87269E-03    -79.4118E+06    -87.5796E+06    -94.9848E+06    -93.0976E+06    -89.4668E+06    -79.4118E+06     606.228E+03         67.7572
             578     1.48951E-03     66.6851E-03         1.34087    -381.541E-03    -402.392E-03    -388.260E-03         1.33976    -394.558E-03     54.8180E-03     590.359E-03    -294.723E-03    -295.574E-03    -295.044E-03     590.344E-03    -295.238E-03    -6.77354E-03    -89.8503E+06    -95.8120E+06    -105.717E+06    -96.1294E+06    -105.399E+06    -89.8503E+06     641.523E+03         67.7308
             579     745.528E-06     66.6964E-03         1.35244    -378.476E-03    -417.957E-03    -405.542E-03         1.34806    -386.509E-03    -60.7281E-03     589.679E-03    -294.353E-03    -294.886E-03    -294.716E-03     589.675E-03    -294.518E-03    -3.54709E-03    -95.2846E+06    -98.7165E+06    -118.603E+06    -97.7185E+06    -118.563E+06    -96.3231E+06     713.848E+03         67.7032
             580     12.6676E-03     65.4504E-03         1.32652    -379.609E-03    -387.528E-03    -379.564E-03         1.32648    -387.528E-03    -7.16136E-03     590.343E-03    -294.960E-03    -297.331E-03    -294.783E-03     587.795E-03    -294.960E-03     94.6250E-03     68.7512E+06     36.9392E+06    -3.94601E+06    -3.94461E+06     36.9378E+06     68.7512E+06     198.611E+03         81.3461
             581     11.9238E-03     65.2760E-03         1.33164    -381.898E-03    -390.278E-03    -383.755E-03         1.33156    -388.339E-03    -6.79322E-03     590.635E-03    -295.018E-03    -296.749E-03    -294.572E-03     588.458E-03    -295.018E-03     86.2351E-03     64.9368E+06     33.1774E+06    -8.53515E+06    -8.48311E+06     33.1253E+06     64.9368E+06     857.716E+03         78.2422
             582     11.1735E-03     65.1607E-03         1.34000    -386.362E-03    -393.431E-03    -390.913E-03         1.33989    -388.773E-03    -5.19622E-03     590.357E-03    -294.637E-03    -295.357E-03    -294.101E-03     589.102E-03    -294.637E-03     66.5759E-03     63.1686E+06     28.9637E+06    -14.1608E+06    -14.1081E+06     28.9110E+06     63.1686E+06     639.571E+03         74.9757
             583     10.4283E-03     65.0580E-03         1.34150    -388.190E-03    -392.569E-03    -391.867E-03         1.34146    -388.861E-03     7.94659E-03     590.413E-03    -293.962E-03    -294.674E-03    -293.595E-03     589.483E-03    -294.110E-03     56.9754E-03     60.9485E+06     25.0312E+06    -19.6516E+06    -19.6100E+06     24.9896E+06     60.9485E+06     65.7186E+03         72.4433
             584     9.68388E-03     64.9764E-03         1.34055    -388.866E-03    -391.354E-03    -391.309E-03         1.34051    -388.866E-03    -8.30762E-03     588.585E-03    -293.454E-03    -293.838E-03    -293.092E-03     587.986E-03    -293.602E-03     45.6834E-03     55.8532E+06     20.9186E+06    -24.3701E+06    -24.3198E+06     20.8683E+06     55.8532E+06     284.882E+03         70.8650
             585     8.93899E-03     64.9112E-03         1.34052    -387.617E-03    -391.201E-03    -389.875E-03         1.34047    -388.894E-03    -7.05277E-03     586.479E-03    -293.135E-03    -293.539E-03    -293.000E-03     586.107E-03    -293.302E-03     35.7897E-03     46.3591E+06     14.0396E+06    -30.3901E+06    -30.3418E+06     13.9914E+06     46.3591E+06     754.855E+03         70.0187
             586     8.19298E-03     64.8628E-03         1.34028    -386.998E-03    -390.662E-03    -388.493E-03         1.34012    -389.006E-03    -15.7326E-03     587.954E-03    -293.893E-03    -294.658E-03    -293.692E-03     587.753E-03    -294.658E-03     26.2385E-03     35.1149E+06     5.64921E+06    -37.5384E+06    -37.4810E+06     5.59181E+06     35.1149E+06     1.12114E+06         69.5378
             587     7.44844E-03     64.8268E-03         1.34068    -387.865E-03    -391.108E-03    -389.662E-03         1.34047    -389.096E-03    -11.2373E-03     588.350E-03    -294.162E-03    -295.703E-03    -294.067E-03     588.254E-03    -295.703E-03     17.9548E-03     24.3802E+06    -2.45447E+06    -44.5525E+06    -44.5203E+06    -2.48659E+06     24.3802E+06     630.076E+03         69.1626
             588     6.70381E-03     64.8053E-03         1.33908    -387.060E-03    -390.354E-03    -388.042E-03         1.33889    -389.189E-03    -1.29258E-03     587.301E-03    -294.191E-03    -295.442E-03    -294.156E-03     587.266E-03    -295.442E-03     10.5669E-03     13.0397E+06    -10.8940E+06    -51.7901E+06    -51.7686E+06    -10.9155E+06     13.0397E+06     369.004E+03         68.8328
             589     5.95960E-03     64.7959E-03         1.33878    -387.417E-03    -390.251E-03    -388.182E-03         1.33864    -389.351E-03    -9.05825E-03     589.182E-03    -294.295E-03    -295.000E-03    -294.288E-03     589.175E-03    -295.000E-03     3.97799E-03     1.24396E+06    -19.4406E+06    -58.6513E+06    -58.6251E+06    -19.4668E+06     1.24396E+06     628.375E+03         68.5900
             590     5.21495E-03     64.7961E-03         1.34357    -388.677E-03    -395.556E-03    -395.184E-03         1.34350    -388.981E-03     12.2364E-03     589.070E-03    -293.963E-03    -294.731E-03    -293.960E-03     589.067E-03    -294.731E-03    -1.85955E-03    -12.7546E+06    -29.1752E+06    -65.9257E+06    -65.8749E+06    -29.2261E+06    -12.7546E+06     862.136E+03         68.4199
             591     4.46896E-03     64.8048E-03         1.34452    -387.708E-03    -397.562E-03    -397.426E-03         1.34438    -387.708E-03    -5.78645E-03     588.320E-03    -294.265E-03    -294.955E-03    -294.251E-03     588.306E-03    -294.955E-03    -6.72223E-03    -29.4609E+06    -40.3763E+06    -73.7084E+06    -73.6666E+06    -40.4181E+06    -29.4609E+06     762.251E+03         68.2264
             592     3.72509E-03     64.8225E-03         1.33457    -384.192E-03    -390.890E-03    -388.226E-03         1.33442    -386.711E-03    -2.14789E-03     588.784E-03    -294.132E-03    -294.829E-03    -294.105E-03     588.757E-03    -294.829E-03    -9.67509E-03    -47.7649E+06    -52.5023E+06    -81.3714E+06    -81.3479E+06    -52.5258E+06    -47.7649E+06     711.461E+03         67.9863
             593     2.98026E-03     64.8408E-03         1.32778    -378.492E-03    -389.182E-03    -380.152E-03         1.32769    -387.437E-03     14.5314E-03     588.599E-03    -293.957E-03    -294.988E-03    -293.924E-03     588.565E-03    -294.988E-03    -10.8167E-03    -64.9279E+06    -69.0536E+06    -88.1589E+06    -88.1331E+06    -69.0795E+06    -64.9279E+06     535.242E+03         67.8042
             594     2.23381E-03     64.8636E-03         1.33070    -378.272E-03    -391.814E-03    -379.711E-03         1.33039    -390.069E-03     2.63081E-03     589.145E-03    -294.053E-03    -295.576E-03    -294.024E-03     589.116E-03    -295.576E-03    -10.0379E-03    -79.3228E+06    -86.9530E+06    -94.2684E+06    -93.1228E+06    -88.0986E+06    -79.3228E+06     138.258E+03         67.7375
             595     1.48835E-03     64.8771E-03         1.34042    -380.581E-03    -400.440E-03    -385.347E-03         1.33873    -393.984E-03     72.5327E-03     590.415E-03    -294.585E-03    -295.719E-03    -294.717E-03     590.398E-03    -295.570E-03    -7.46235E-03    -90.4075E+06    -95.9446E+06    -104.860E+06    -96.2850E+06    -104.520E+06    -90.4075E+06     137.047E+03         67.7234
             596     743.457E-06     64.8914E-03         1.36090    -368.927E-03    -430.570E-03    -415.409E-03         1.35377    -376.960E-03    -69.2047E-03     590.738E-03    -294.725E-03    -295.469E-03    -294.868E-03     590.732E-03    -295.319E-03    -3.97778E-03    -95.8918E+06    -98.8168E+06    -118.889E+06    -98.1384E+06    -118.864E+06    -96.5947E+06    -65.3668E+03         67.7056
             597     12.6687E-03     63.6424E-03         1.34629    -386.598E-03    -397.066E-03    -390.896E-03         1.34624    -392.717E-03    -8.76894E-03     590.510E-03    -294.962E-03    -297.520E-03    -294.981E-03     587.971E-03    -294.962E-03     94.4661E-03     70.3880E+06     36.4876E+06    -4.28592E+06    -4.28287E+06     36.4846E+06     70.3880E+06     127.727E+03         81.3405
             598     11.9238E-03     63.4670E-03         1.34825    -387.026E-03    -398.098E-03    -391.879E-03         1.34824    -393.237E-03     2.38623E-03     590.554E-03    -294.946E-03    -296.658E-03    -294.382E-03     588.371E-03    -295.040E-03     86.3768E-03     66.7669E+06     32.9278E+06    -8.78713E+06    -8.73403E+06     32.8747E+06     66.7669E+06     826.984E+03         78.2401
             599     11.1735E-03     63.3523E-03         1.35094    -389.260E-03    -398.254E-03    -393.870E-03         1.35089    -393.596E-03     575.924E-06     590.307E-03    -294.569E-03    -295.319E-03    -293.964E-03     589.046E-03    -294.662E-03     66.7093E-03     64.1573E+06     29.7560E+06    -13.1738E+06    -13.1132E+06     29.6954E+06     64.1573E+06     917.939E+03         74.9748
             600     10.4294E-03     63.2493E-03         1.35252    -391.457E-03    -397.761E-03    -395.341E-03         1.35245    -393.809E-03     9.48994E-03     590.432E-03    -293.969E-03    -294.779E-03    -293.693E-03     589.514E-03    -294.138E-03     56.5579E-03     60.0584E+06     25.4205E+06    -18.6120E+06    -18.5904E+06     25.3989E+06     60.0584E+06    -39.7422E+03         72.4432
             601     9.68321E-03     63.1682E-03         1.35248    -393.248E-03    -395.961E-03    -395.189E-03         1.35242    -393.959E-03    -2.79206E-03     588.575E-03    -293.450E-03    -293.875E-03    -293.123E-03     587.991E-03    -293.618E-03     45.1723E-03     53.6896E+06     19.5010E+06    -25.4232E+06    -25.3968E+06     19.4746E+06     53.6896E+06    -116.900E+03         70.8651
             602     8.93787E-03     63.1028E-03         1.35143    -392.087E-03    -394.950E-03    -392.798E-03         1.35137    -394.181E-03    -3.35036E-03     586.403E-03    -293.138E-03    -293.520E-03    -293.023E-03     586.031E-03    -293.263E-03     35.8202E-03     46.5545E+06     13.1780E+06    -31.7631E+06    -31.7005E+06     13.1154E+06     46.5545E+06     448.220E+03         70.0162
             603     8.19386E-03     63.0536E-03         1.35260    -391.713E-03    -395.345E-03    -392.472E-03         1.35251    -394.498E-03    -6.71696E-03     587.877E-03    -293.824E-03    -294.627E-03    -293.617E-03     587.670E-03    -294.627E-03     26.6939E-03     36.5133E+06     6.02369E+06    -37.6216E+06    -37.5534E+06     5.95555E+06     36.5133E+06     672.782E+03         69.5320
             604     7.44847E-03     63.0200E-03         1.35418    -391.594E-03    -396.790E-03    -393.480E-03         1.35405    -394.778E-03    -3.47927E-03     588.072E-03    -293.997E-03    -295.709E-03    -293.897E-03     587.972E-03    -295.709E-03     18.3068E-03     24.2323E+06    -2.00439E+06    -44.0780E+06    -44.0315E+06    -2.05096E+06     24.2323E+06     735.467E+03         69.1568
             605     6.70332E-03     62.9978E-03         1.35620    -392.211E-03    -398.334E-03    -395.573E-03         1.35612    -394.889E-03     9.19694E-03     586.823E-03    -293.913E-03    -295.472E-03    -293.878E-03     586.788E-03    -295.472E-03     10.4626E-03     12.4515E+06    -10.4139E+06    -51.0237E+06    -50.9877E+06    -10.4499E+06     12.4515E+06     511.415E+03         68.8292
             606     5.95842E-03     62.9866E-03         1.35732    -393.507E-03    -398.913E-03    -397.671E-03         1.35728    -394.707E-03    -1.55931E-03     589.168E-03    -294.206E-03    -295.049E-03    -294.200E-03     589.162E-03    -295.049E-03     3.51805E-03     541.231E+03    -19.5338E+06    -58.6857E+06    -58.6515E+06    -19.5680E+06     541.231E+03     684.381E+03         68.5882
             607     5.21360E-03     62.9896E-03         1.35452    -391.503E-03    -400.141E-03    -397.194E-03         1.35438    -394.315E-03     20.3476E-03     589.411E-03    -294.164E-03    -294.753E-03    -294.160E-03     589.408E-03    -294.753E-03    -2.20195E-03    -12.8059E+06    -29.1407E+06    -66.2221E+06    -66.1658E+06    -29.1970E+06    -12.8059E+06     1.09312E+06         68.4191
             608     4.46989E-03     62.9976E-03         1.35293    -390.803E-03    -399.456E-03    -396.104E-03         1.35266    -393.882E-03    -1.62539E-03     588.303E-03    -294.275E-03    -294.958E-03    -294.263E-03     588.291E-03    -294.958E-03    -6.16962E-03    -28.9828E+06    -40.0542E+06    -73.5920E+06    -73.5334E+06    -40.1128E+06    -28.9828E+06     1.18934E+06         68.2253
             609     3.72444E-03     63.0166E-03         1.35719    -390.848E-03    -403.315E-03    -401.063E-03         1.35688    -392.794E-03    -232.161E-06     588.587E-03    -294.168E-03    -294.897E-03    -294.146E-03     588.565E-03    -294.897E-03    -8.63297E-03    -46.8468E+06    -51.5719E+06    -80.9101E+06    -80.8524E+06    -51.6296E+06    -46.8468E+06     1.13881E+06         67.9877
             610     2.97884E-03     63.0361E-03         1.35955    -388.517E-03    -407.550E-03    -406.013E-03         1.35939    -389.891E-03     14.9109E-03     588.887E-03    -294.301E-03    -295.087E-03    -294.273E-03     588.859E-03    -295.087E-03    -9.87767E-03    -63.9280E+06    -67.7301E+06    -86.8461E+06    -86.7882E+06    -67.7881E+06    -63.9280E+06     765.506E+03         67.8142
             611     2.23447E-03     63.0570E-03         1.35081    -383.061E-03    -403.122E-03    -400.712E-03         1.35066    -385.320E-03    -14.9742E-03     589.623E-03    -294.559E-03    -295.560E-03    -294.532E-03     589.597E-03    -295.560E-03    -9.59816E-03    -79.4059E+06    -86.3483E+06    -92.8376E+06    -92.0568E+06    -87.1291E+06    -79.4059E+06     494.937E+03         67.7531
             612     1.48969E-03     63.0746E-03         1.33743    -375.993E-03    -400.553E-03    -396.625E-03         1.33576    -378.252E-03     64.3297E-03     590.418E-03    -294.895E-03    -295.572E-03    -294.877E-03     590.400E-03    -295.572E-03    -7.75874E-03    -90.7184E+06    -95.4192E+06    -104.645E+06    -95.7969E+06    -104.267E+06    -90.7184E+06    -592.809E+03         67.7348
             613     744.399E-06     63.0816E-03         1.31911    -319.393E-03    -440.188E-03    -428.210E-03         1.30713    -319.393E-03    -118.568E-03     590.582E-03    -294.826E-03    -295.318E-03    -294.856E-03     590.575E-03    -295.281E-03    -4.63465E-03    -95.1719E+06    -97.0720E+06    -119.236E+06    -96.5218E+06    -119.084E+06    -95.8748E+06    -759.958E+03         67.7129
             614     12.6689E-03     61.8348E-03         1.36210    -394.547E-03    -401.722E-03    -398.941E-03         1.36208    -397.305E-03    -9.63998E-03     590.460E-03    -294.978E-03    -297.436E-03    -294.891E-03     587.915E-03    -294.978E-03     94.6215E-03     70.0611E+06     36.2691E+06    -4.51763E+06    -4.50959E+06     36.2611E+06     70.0611E+06     266.932E+03         81.3371
             615     11.9250E-03     61.6639E-03         1.36440    -395.527E-03    -402.002E-03    -400.000E-03         1.36438    -397.512E-03    -7.91208E-03     590.681E-03    -294.955E-03    -296.743E-03    -294.459E-03     588.491E-03    -295.049E-03     86.6475E-03     65.7015E+06     32.4109E+06    -8.89282E+06    -8.87760E+06     32.3957E+06     65.7015E+06    -287.708E+03         78.2379
             616     11.1735E-03     61.5450E-03         1.35895    -392.334E-03    -399.349E-03    -393.813E-03         1.35893    -397.848E-03    -9.24431E-03     590.474E-03    -294.556E-03    -295.481E-03    -294.104E-03     589.191E-03    -294.650E-03     67.2683E-03     63.3508E+06     29.3578E+06    -13.4218E+06    -13.3998E+06     29.3358E+06     63.3508E+06    -114.497E+03         74.9704
             617     10.4287E-03     61.4421E-03         1.35559    -389.693E-03    -399.176E-03    -390.337E-03         1.35555    -398.492E-03     124.029E-06     590.473E-03    -294.021E-03    -294.794E-03    -293.788E-03     589.542E-03    -294.097E-03     57.0081E-03     60.7426E+06     25.8446E+06    -18.7092E+06    -18.6700E+06     25.8053E+06     60.7426E+06     966.827E+03         72.4387
             618     9.68416E-03     61.3633E-03         1.35648    -389.933E-03    -400.002E-03    -390.562E-03         1.35642    -399.318E-03    -4.45838E-03     588.587E-03    -293.508E-03    -293.881E-03    -293.210E-03     587.992E-03    -293.583E-03     45.5718E-03     55.5996E+06     20.3483E+06    -24.6598E+06    -24.6178E+06     20.3064E+06     55.5996E+06     1.11145E+06         70.8626
             619     8.93907E-03     61.2976E-03         1.36185    -394.441E-03    -400.085E-03    -394.362E-03         1.36177    -400.085E-03     2.61405E-03     586.379E-03    -293.157E-03    -293.538E-03    -293.079E-03     586.006E-03    -293.242E-03     35.9069E-03     46.5864E+06     13.3479E+06    -30.9922E+06    -30.9705E+06     13.3262E+06     46.5864E+06     133.247E+03         70.0128
             620     8.19308E-03     61.2454E-03         1.36513    -397.496E-03    -400.638E-03    -397.368E-03         1.36500    -400.638E-03    -3.94413E-03     587.863E-03    -293.822E-03    -294.612E-03    -293.617E-03     587.658E-03    -294.612E-03     26.4687E-03     35.1270E+06     5.31761E+06    -37.9124E+06    -37.9003E+06     5.30555E+06     35.1270E+06    -281.282E+03         69.5281
             621     7.44802E-03     61.2112E-03         1.36750    -397.608E-03    -402.632E-03    -399.027E-03         1.36729    -401.004E-03    -1.06710E-03     588.098E-03    -294.123E-03    -295.721E-03    -294.026E-03     588.001E-03    -295.721E-03     18.0335E-03     24.0249E+06    -2.47659E+06    -44.6845E+06    -44.6574E+06    -2.50368E+06     24.0249E+06     460.951E+03         69.1533
             622     6.70401E-03     61.1893E-03         1.37065    -397.800E-03    -405.061E-03    -401.565E-03         1.37050    -401.152E-03     9.64893E-03     586.805E-03    -294.043E-03    -295.485E-03    -294.008E-03     586.770E-03    -295.485E-03     10.3903E-03     12.4205E+06    -10.5775E+06    -51.2533E+06    -51.1913E+06    -10.6395E+06     12.4205E+06     909.214E+03         68.8242
             623     5.95867E-03     61.1781E-03         1.36975    -397.527E-03    -405.333E-03    -401.703E-03         1.36972    -401.127E-03    -6.92478E-03     588.939E-03    -293.973E-03    -295.098E-03    -293.966E-03     588.933E-03    -295.098E-03     3.73906E-03    -117.153E+03    -19.7163E+06    -58.5301E+06    -58.4636E+06    -19.7828E+06    -117.153E+03     748.891E+03         68.5819
             624     5.21441E-03     61.1790E-03         1.36883    -396.543E-03    -405.845E-03    -401.163E-03         1.36868    -401.080E-03     20.6625E-03     589.174E-03    -293.896E-03    -294.860E-03    -293.893E-03     589.171E-03    -294.860E-03    -1.62706E-03    -13.0581E+06    -29.3252E+06    -66.1510E+06    -66.1154E+06    -29.3608E+06    -13.0581E+06     528.706E+03         68.4166
             625     4.46843E-03     61.1935E-03         1.37261    -397.591E-03    -408.473E-03    -405.116E-03         1.37233    -400.670E-03     884.302E-06     588.420E-03    -294.183E-03    -295.089E-03    -294.172E-03     588.409E-03    -295.089E-03    -5.87112E-03    -28.1772E+06    -39.4558E+06    -73.4589E+06    -73.4289E+06    -39.4857E+06    -28.1772E+06     826.883E+03         68.2319
             626     3.72297E-03     61.2103E-03         1.37422    -395.112E-03    -413.132E-03    -408.643E-03         1.37394    -399.321E-03    -2.07327E-03     588.908E-03    -294.346E-03    -295.069E-03    -294.323E-03     588.885E-03    -295.069E-03    -8.91108E-03    -45.8474E+06    -50.5365E+06    -80.1836E+06    -80.1287E+06    -50.5914E+06    -45.8474E+06     958.256E+03         68.0045
             627     2.97836E-03     61.2300E-03         1.36963    -389.048E-03    -413.284E-03    -404.827E-03         1.36949    -397.370E-03     17.1617E-03     589.352E-03    -294.778E-03    -295.234E-03    -294.748E-03     589.323E-03    -295.234E-03    -10.2186E-03    -63.2648E+06    -66.3905E+06    -86.1872E+06    -86.1094E+06    -66.4682E+06    -63.2648E+06     908.756E+03         67.8409
             628     2.23342E-03     61.2504E-03         1.36432    -386.261E-03    -411.100E-03    -402.281E-03         1.36429    -395.043E-03    -438.730E-06     590.172E-03    -295.135E-03    -295.586E-03    -295.109E-03     590.145E-03    -295.586E-03    -9.69447E-03    -78.0980E+06    -84.2414E+06    -91.8872E+06    -90.8121E+06    -85.3165E+06    -78.0980E+06     947.493E+03         67.7802
             629     1.48946E-03     61.2670E-03         1.35545    -383.836E-03    -407.887E-03    -398.059E-03         1.35383    -392.041E-03     75.2637E-03     590.492E-03    -295.181E-03    -295.506E-03    -295.265E-03     590.475E-03    -295.405E-03    -7.54371E-03    -89.6583E+06    -94.5147E+06    -104.015E+06    -95.1888E+06    -103.341E+06    -89.6583E+06     487.689E+03         67.7512
             630     745.611E-06     61.2772E-03         1.35704    -306.688E-03    -487.997E-03    -469.609E-03         1.34276    -310.794E-03    -145.928E-03     589.718E-03    -294.283E-03    -294.885E-03    -294.414E-03     589.713E-03    -294.747E-03    -4.15338E-03    -97.5538E+06    -99.3204E+06    -120.266E+06    -99.6772E+06    -119.909E+06    -97.5538E+06    -10.6182E+03         67.7207
             631     12.6678E-03     60.0269E-03         1.35873    -388.234E-03    -400.534E-03    -388.283E-03         1.35871    -400.466E-03    -10.1337E-03     590.368E-03    -294.998E-03    -297.295E-03    -294.741E-03     587.814E-03    -294.998E-03     94.7982E-03     67.9522E+06     35.9136E+06    -3.91180E+06    -3.89195E+06     35.8938E+06     67.9522E+06     360.120E+03         81.3352
             632     11.9233E-03     59.8552E-03         1.36059    -387.476E-03    -403.043E-03    -389.029E-03         1.36057    -401.474E-03    -5.64993E-03     590.842E-03    -295.044E-03    -296.882E-03    -294.695E-03     588.656E-03    -295.044E-03     86.5786E-03     64.1740E+06     32.5679E+06    -8.39807E+06    -8.37364E+06     32.5435E+06     64.1740E+06    -98.9542E+03         78.2376
             633     11.1739E-03     59.7382E-03         1.36709    -392.563E-03    -403.958E-03    -394.062E-03         1.36709    -402.457E-03    -347.607E-06     590.477E-03    -294.625E-03    -295.423E-03    -294.146E-03     589.200E-03    -294.625E-03     67.1356E-03     63.1420E+06     29.1003E+06    -13.7975E+06    -13.7741E+06     29.0769E+06     63.1420E+06    -93.5555E+03         74.9698
             634     10.4283E-03     59.6360E-03         1.36979    -394.748E-03    -405.630E-03    -397.089E-03         1.36977    -403.267E-03     5.40967E-03     590.224E-03    -293.937E-03    -294.622E-03    -293.541E-03     589.293E-03    -294.088E-03     56.9803E-03     61.2936E+06     25.6742E+06    -19.1627E+06    -19.1189E+06     25.6304E+06     61.2936E+06     676.580E+03         72.4356
             635     9.68331E-03     59.5524E-03         1.37033    -394.804E-03    -406.351E-03    -397.124E-03         1.37028    -403.988E-03    -2.86784E-03     588.544E-03    -293.428E-03    -293.928E-03    -293.179E-03     587.946E-03    -293.579E-03     45.6792E-03     55.5518E+06     20.6405E+06    -24.4891E+06    -24.4482E+06     20.5996E+06     55.5518E+06     192.886E+03         70.8576
             636     8.93801E-03     59.4906E-03         1.37085    -397.076E-03    -404.719E-03    -397.030E-03         1.37081    -404.719E-03    -1.34670E-03     586.497E-03    -293.181E-03    -293.588E-03    -293.150E-03     586.119E-03    -293.241E-03     36.1332E-03     46.3810E+06     13.7633E+06    -30.4272E+06    -30.3940E+06     13.7301E+06     46.3810E+06     412.117E+03         70.0089
             637     8.19414E-03     59.4401E-03         1.37357    -399.894E-03    -405.390E-03    -399.761E-03         1.37344    -405.390E-03    -11.8405E-03     587.944E-03    -293.905E-03    -294.595E-03    -293.696E-03     587.735E-03    -294.595E-03     26.7663E-03     35.2969E+06     5.78430E+06    -37.1404E+06    -37.1099E+06     5.75387E+06     35.2969E+06     869.929E+03         69.5254
             638     7.44869E-03     59.4088E-03         1.37674    -400.465E-03    -407.546E-03    -401.854E-03         1.37650    -405.918E-03    -1.40621E-03     587.965E-03    -293.913E-03    -295.709E-03    -293.812E-03     587.864E-03    -295.709E-03     18.4719E-03     23.8459E+06    -2.57593E+06    -44.3100E+06    -44.2973E+06    -2.58868E+06     23.8459E+06     504.296E+03         69.1488
             639     6.70324E-03     59.3863E-03         1.37817    -401.110E-03    -408.340E-03    -402.937E-03         1.37802    -406.365E-03     11.3378E-03     586.505E-03    -293.622E-03    -295.533E-03    -293.583E-03     586.466E-03    -295.533E-03     11.0976E-03     12.5917E+06    -10.9398E+06    -51.5788E+06    -51.5323E+06    -10.9864E+06     12.5917E+06     636.895E+03         68.8177
             640     5.95810E-03     59.3744E-03         1.38260    -402.914E-03    -411.329E-03    -407.689E-03         1.38256    -406.514E-03    -8.95338E-03     588.606E-03    -293.704E-03    -295.214E-03    -293.695E-03     588.598E-03    -295.214E-03     4.30146E-03     816.337E+03    -19.6683E+06    -58.6370E+06    -58.5817E+06    -19.7236E+06     816.337E+03     553.985E+03         68.5770
             641     5.21178E-03     59.3768E-03         1.38789    -403.894E-03    -415.345E-03    -413.221E-03         1.38779    -405.924E-03     11.3405E-03     589.067E-03    -293.773E-03    -295.025E-03    -293.770E-03     589.064E-03    -295.025E-03    -1.39904E-03    -13.0608E+06    -29.2278E+06    -65.6883E+06    -65.6643E+06    -29.2518E+06    -13.0608E+06     265.654E+03         68.4182
             642     4.46763E-03     59.3860E-03         1.38575    -402.689E-03    -414.666E-03    -412.368E-03         1.38551    -404.750E-03    -7.78210E-03     588.998E-03    -294.499E-03    -295.244E-03    -294.487E-03     588.986E-03    -295.244E-03    -6.10149E-03    -28.5953E+06    -39.2394E+06    -72.6565E+06    -72.6438E+06     -39.252E+06    -28.5953E+06     155.753E+03         68.2442
             643     3.72371E-03     59.4080E-03         1.37784    -398.364E-03    -410.060E-03    -404.184E-03         1.37766    -404.063E-03    -15.7333E-03     589.626E-03    -294.813E-03    -295.238E-03    -294.863E-03     589.603E-03    -295.165E-03    -8.91966E-03    -45.7915E+06    -50.3195E+06    -80.1094E+06    -80.0700E+06    -50.3589E+06    -45.7915E+06     435.407E+03         68.0253
             644     2.97844E-03     59.4272E-03         1.37285    -396.565E-03    -406.272E-03    -397.865E-03         1.37277    -404.886E-03    -4.59866E-03     589.589E-03    -295.001E-03    -295.335E-03    -295.045E-03     589.560E-03    -295.263E-03    -10.0560E-03    -62.7099E+06    -66.0090E+06    -86.8620E+06    -86.8050E+06    -66.0660E+06    -62.7099E+06     795.732E+03         67.8618
             645     2.23450E-03     59.4450E-03         1.37286    -395.851E-03    -408.081E-03    -395.859E-03         1.37252    -407.729E-03    -36.8138E-03     590.090E-03    -294.979E-03    -295.594E-03    -294.952E-03     590.063E-03    -295.594E-03    -9.70872E-03    -76.9956E+06    -83.8874E+06    -92.7504E+06    -92.1541E+06    -84.4836E+06    -76.9956E+06     1.07753E+06         67.7953
             646     1.48986E-03     59.4615E-03         1.38373    -401.554E-03    -412.960E-03    -400.050E-03         1.38223    -412.960E-03     40.1541E-03     590.107E-03    -294.819E-03    -295.416E-03    -294.903E-03     590.091E-03    -295.315E-03    -7.37118E-03    -89.5465E+06    -94.7703E+06    -103.585E+06    -96.2278E+06    -102.000E+06    -89.6738E+06     2.09412E+06         67.7613
             647     744.974E-06     59.4752E-03         1.41558    -314.405E-03    -531.190E-03    -513.757E-03         1.40236    -318.616E-03    -155.696E-03     589.552E-03    -294.271E-03    -294.917E-03    -294.366E-03     589.546E-03    -294.816E-03    -4.12735E-03    -96.3440E+06    -98.5455E+06    -118.686E+06    -97.8466E+06    -118.371E+06    -97.3580E+06     1.05583E+06         67.7290
             648     12.6682E-03     58.2226E-03         1.36455    -389.904E-03    -403.611E-03    -389.887E-03         1.36453    -403.611E-03    -10.2561E-03     590.472E-03    -294.975E-03    -297.326E-03    -294.793E-03     587.939E-03    -294.975E-03     94.3422E-03     68.5551E+06     35.4415E+06    -4.34583E+06    -4.32409E+06     35.4198E+06     68.5551E+06    -90.2602E+03         81.3350
             649     11.9235E-03     58.0475E-03         1.36276    -386.369E-03    -404.887E-03    -386.361E-03         1.36276    -404.887E-03    -4.14958E-03     590.617E-03    -294.928E-03    -296.729E-03    -294.448E-03     588.440E-03    -295.032E-03     86.2775E-03     64.8699E+06     32.4738E+06    -8.72446E+06    -8.65948E+06     32.4088E+06     64.8699E+06     696.744E+03         78.2380
             650     11.1740E-03     57.9325E-03         1.36538    -387.746E-03    -406.280E-03    -387.727E-03         1.36536    -406.280E-03    -5.75430E-03     590.383E-03    -294.525E-03    -295.178E-03    -293.805E-03     589.114E-03    -294.629E-03     66.9042E-03     62.9890E+06     29.6030E+06    -13.4067E+06    -13.3269E+06     29.5232E+06     62.9890E+06     473.510E+03         74.9702
             651     10.4288E-03     57.8284E-03         1.37570    -394.960E-03    -409.762E-03    -397.269E-03         1.37564    -407.399E-03     5.85372E-03     590.306E-03    -293.878E-03    -294.518E-03    -293.357E-03     589.367E-03    -294.101E-03     57.2219E-03     59.4414E+06     25.5525E+06    -18.7309E+06    -18.6937E+06     25.5152E+06     59.4414E+06    -354.168E+03         72.4333
             652     9.68351E-03     57.7469E-03         1.38547    -403.125E-03    -410.680E-03    -405.728E-03         1.38538    -407.989E-03    -1.77032E-03     588.361E-03    -293.392E-03    -293.836E-03    -293.013E-03     587.761E-03    -293.615E-03     45.7336E-03     53.5918E+06     20.1404E+06    -24.7573E+06    -24.7003E+06     20.0834E+06     53.5918E+06     296.529E+03         70.8531
             653     8.93821E-03     57.6804E-03         1.38783    -405.390E-03    -411.115E-03    -408.184E-03         1.38772    -408.206E-03    -1.99508E-03     586.231E-03    -293.038E-03    -293.492E-03    -292.879E-03     585.853E-03    -293.272E-03     36.2041E-03     45.6044E+06     13.3623E+06     -31.373E+06    -31.2815E+06     13.2708E+06     45.6044E+06     645.336E+03         70.0049
             654     8.19239E-03     57.6331E-03         1.38666    -404.479E-03    -411.401E-03    -407.321E-03         1.38644    -408.341E-03    -12.3907E-03     587.789E-03    -293.647E-03    -294.611E-03    -293.429E-03     587.571E-03    -294.611E-03     27.3468E-03     35.7951E+06     5.88207E+06    -37.5044E+06    -37.4597E+06     5.83734E+06     35.7951E+06     531.751E+03         69.5224
             655     7.44792E-03     57.6023E-03         1.38484    -403.366E-03    -410.495E-03    -405.058E-03         1.38465    -408.606E-03    -12.9074E-03     588.040E-03    -293.910E-03    -295.754E-03    -293.804E-03     587.934E-03    -295.754E-03     18.8820E-03      24.637E+06    -2.06789E+06    -43.8879E+06    -43.8719E+06    -2.08385E+06      24.637E+06     509.469E+03         69.1479
             656     6.70270E-03     57.5807E-03         1.38743    -405.220E-03    -410.708E-03    -406.966E-03         1.38737    -408.904E-03     4.31245E-03     586.613E-03    -293.674E-03    -295.602E-03    -293.637E-03     586.576E-03    -295.602E-03     10.7412E-03     12.8774E+06    -10.5734E+06    -50.8301E+06    -50.8086E+06    -10.5949E+06     12.8774E+06     261.609E+03         68.8206
             657     5.95713E-03     57.5673E-03         1.39039    -404.811E-03    -413.834E-03    -409.637E-03         1.39036    -408.971E-03    -13.8677E-03     588.717E-03    -293.743E-03    -295.292E-03    -293.736E-03     588.711E-03    -295.292E-03     3.32778E-03     1.16853E+06    -19.0497E+06    -57.7433E+06    -57.7133E+06    -19.0798E+06     1.16853E+06     222.129E+03         68.5842
             658     5.21328E-03     57.5696E-03         1.38599    -399.347E-03    -415.740E-03    -405.787E-03         1.38585    -409.159E-03     9.89888E-03     589.106E-03    -293.738E-03    -295.115E-03    -293.735E-03     589.103E-03    -295.115E-03    -2.32838E-03    -12.4142E+06    -28.6892E+06    -65.2532E+06    -65.2260E+06    -28.7164E+06    -12.4142E+06     281.266E+03         68.4273
             659     4.46728E-03     57.5804E-03         1.38348    -400.260E-03    -412.130E-03    -402.097E-03         1.38321    -410.016E-03    -1.93337E-03     588.916E-03    -294.363E-03    -295.335E-03    -294.350E-03     588.903E-03    -295.335E-03    -6.39399E-03    -28.6477E+06    -39.8869E+06    -73.4230E+06    -73.3948E+06    -39.9151E+06    -28.6477E+06     395.017E+03         68.2545
             660     3.72210E-03     57.6020E-03         1.38840    -403.500E-03    -412.326E-03    -404.307E-03         1.38817    -411.292E-03    -5.63722E-03     589.875E-03    -294.914E-03    -295.368E-03    -295.016E-03     589.853E-03    -295.244E-03    -8.93787E-03    -45.5647E+06    -50.7211E+06    -80.3850E+06    -80.3329E+06    -50.7732E+06    -45.5647E+06     713.872E+03         68.0366
             661     2.97869E-03     57.6186E-03         1.39141    -404.062E-03    -414.198E-03    -405.285E-03         1.39125    -412.813E-03     7.46115E-03     589.781E-03    -295.008E-03    -295.430E-03    -295.105E-03     589.754E-03    -295.306E-03    -9.88204E-03    -63.0226E+06    -65.7603E+06    -86.9701E+06    -86.8925E+06    -65.8378E+06    -63.0226E+06     1.02048E+06         67.8695
             662     2.23371E-03     57.6391E-03         1.39457    -406.741E-03    -415.857E-03    -407.081E-03         1.39395    -414.900E-03    -5.00330E-03     589.996E-03    -294.774E-03    -295.668E-03    -294.750E-03     589.971E-03    -295.668E-03    -9.28879E-03    -78.8588E+06    -84.1215E+06    -93.1229E+06    -92.5266E+06    -84.7179E+06    -78.8588E+06     768.283E+03         67.7994
             663     1.48893E-03     57.6562E-03         1.40588    -413.589E-03    -420.088E-03    -413.857E-03         1.40285    -416.789E-03     92.2029E-03     590.353E-03    -294.877E-03    -295.569E-03    -294.861E-03     590.337E-03    -295.569E-03    -7.39184E-03    -90.1317E+06    -94.0385E+06    -101.616E+06    -95.2515E+06    -100.276E+06    -90.2590E+06    -61.1041E+03         67.7679
             664     743.970E-06     57.6691E-03         1.42109    -321.459E-03    -526.500E-03    -513.231E-03         1.40793    -321.564E-03    -117.436E-03     590.440E-03    -294.974E-03    -295.237E-03    -294.967E-03     590.433E-03    -295.237E-03    -4.75465E-03    -93.7155E+06    -96.3563E+06    -115.341E+06    -95.7958E+06    -114.887E+06    -94.7295E+06     276.538E+03         67.7391
             665     12.6688E-03     56.4149E-03         1.38144    -400.665E-03    -407.847E-03    -400.645E-03         1.38142    -407.847E-03    -1.59098E-03     590.634E-03    -294.956E-03    -297.444E-03    -294.899E-03     588.089E-03    -294.956E-03     94.5666E-03     70.0365E+06     35.7717E+06    -4.31868E+06    -4.30751E+06     35.7606E+06     70.0365E+06    -24.2778E+03         81.3388
             666     11.9245E-03     56.2423E-03         1.38755    -402.568E-03    -411.651E-03    -405.644E-03         1.38751    -408.538E-03     5.12990E-03     590.424E-03    -294.848E-03    -296.608E-03    -294.250E-03     588.234E-03    -295.015E-03     86.5110E-03     65.7551E+06     32.6489E+06    -8.89929E+06    -8.81765E+06     32.5672E+06     65.7551E+06     87.0956E+03         78.2419
             667     11.1736E-03     56.1237E-03         1.38934    -399.169E-03    -416.494E-03    -406.628E-03         1.38930    -408.987E-03     3.08792E-03     590.068E-03    -294.459E-03    -294.989E-03    -293.550E-03     588.797E-03    -294.626E-03     66.9533E-03     61.7809E+06     29.3517E+06    -13.4065E+06    -13.2795E+06     29.2246E+06     61.7809E+06     262.401E+03         74.9725
             668     10.4280E-03     56.0212E-03         1.38659    -398.647E-03    -413.829E-03    -402.984E-03         1.38653    -409.435E-03     8.94894E-03     590.238E-03    -293.866E-03    -294.477E-03    -293.283E-03     589.292E-03    -294.114E-03     57.4373E-03     58.3722E+06     25.0162E+06    -18.9170E+06    -18.8470E+06     24.9462E+06     58.3722E+06     516.038E+03         72.4357
             669     9.68337E-03     55.9411E-03         1.38714    -401.722E-03    -410.353E-03    -401.934E-03         1.38702    -410.024E-03    -5.92339E-03     588.362E-03    -293.395E-03    -293.797E-03    -292.933E-03     587.746E-03    -293.644E-03     46.3783E-03     53.4314E+06     19.8181E+06    -25.0248E+06    -24.9476E+06     19.7409E+06     53.4314E+06     736.838E+03         70.8557
             670     8.93799E-03     55.8778E-03         1.39217    -403.885E-03    -413.430E-03    -406.642E-03         1.39202    -410.521E-03    -10.0883E-03     586.305E-03    -293.042E-03    -293.462E-03    -292.806E-03     585.915E-03    -293.308E-03     36.6513E-03     45.2295E+06     13.6334E+06    -30.9145E+06    -30.8194E+06     13.5383E+06     45.2295E+06     395.076E+03         70.0060
             671     8.19268E-03     55.8300E-03         1.39508    -406.579E-03    -413.844E-03    -409.431E-03         1.39487    -410.783E-03    -15.3703E-03     587.777E-03    -293.598E-03    -294.655E-03    -293.385E-03     587.564E-03    -294.655E-03     27.0058E-03     35.0966E+06     5.81709E+06    -37.4383E+06    -37.3935E+06     5.77236E+06     35.0966E+06    -61.2023E+03         69.5245
             672     7.44711E-03     55.7959E-03         1.39658    -408.865E-03    -412.800E-03    -410.534E-03         1.39636    -410.912E-03    -5.22616E-03     588.079E-03    -294.049E-03    -295.813E-03    -293.949E-03     587.978E-03    -295.813E-03     18.3975E-03     24.2884E+06    -2.09156E+06    -43.9527E+06    -43.9356E+06    -2.10865E+06     24.2884E+06    -142.561E+03         69.1537
             673     6.70245E-03     55.7761E-03         1.39300    -405.070E-03    -412.696E-03    -406.442E-03         1.39292    -411.241E-03     17.9891E-03     586.991E-03    -294.067E-03    -295.648E-03    -294.031E-03     586.956E-03    -295.648E-03     10.5622E-03     12.5955E+06    -10.3156E+06    -50.4651E+06    -50.4496E+06    -10.3311E+06     12.5955E+06     121.477E+03         68.8303
             674     5.95786E-03     55.7644E-03         1.38675    -398.254E-03    -412.464E-03    -398.298E-03         1.38675    -412.416E-03    -1.40354E-03     589.074E-03    -293.979E-03    -295.302E-03    -293.972E-03     589.068E-03    -295.302E-03     3.66747E-03     1.05932E+06    -19.0808E+06    -57.4936E+06    -57.4573E+06    -19.1171E+06     1.05932E+06     298.818E+03         68.5972
             675     5.21201E-03     55.7652E-03         1.38817    -398.356E-03    -414.454E-03    -398.233E-03         1.38805    -414.454E-03     15.3663E-03     589.455E-03    -293.959E-03    -295.081E-03    -293.955E-03     589.451E-03    -295.081E-03    -2.28392E-03    -11.9739E+06    -28.8183E+06    -65.3891E+06    -65.3465E+06    -28.8609E+06    -11.9739E+06     747.769E+03         68.4401
             676     4.46757E-03     55.7779E-03         1.39593    -404.972E-03    -416.559E-03    -404.821E-03         1.39578    -416.559E-03     7.98984E-03     589.098E-03    -294.550E-03    -295.236E-03    -294.534E-03     589.082E-03    -295.236E-03    -7.11167E-03    -28.7214E+06    -39.9901E+06    -73.5114E+06    -73.4748E+06    -40.0267E+06    -28.7214E+06     816.125E+03         68.2597
             677     3.72309E-03     55.7930E-03         1.40276    -408.306E-03    -418.525E-03    -408.202E-03         1.40266    -418.525E-03    -1.73334E-03     589.470E-03    -294.582E-03    -295.208E-03    -294.604E-03     589.441E-03    -295.157E-03    -10.1505E-03    -46.4966E+06    -51.2090E+06    -80.5439E+06    -80.5149E+06    -51.2379E+06    -46.4966E+06     531.135E+03         68.0317
             678     2.97794E-03     55.8122E-03         1.41001    -409.474E-03    -424.871E-03    -413.862E-03         1.40986    -420.327E-03     2.24329E-03     589.387E-03    -294.590E-03    -295.360E-03    -294.608E-03     589.354E-03    -295.309E-03    -10.8955E-03    -63.3434E+06    -65.0304E+06    -86.3344E+06    -86.2790E+06    -65.0858E+06    -63.3434E+06     568.057E+03         67.8586
             679     2.23342E-03     55.8330E-03         1.41945    -415.396E-03    -430.336E-03    -424.503E-03         1.41868    -420.460E-03    -11.0521E-03     590.143E-03    -294.937E-03    -295.734E-03    -294.910E-03     590.116E-03    -295.734E-03    -9.82172E-03    -78.2716E+06    -82.3230E+06    -91.4339E+06    -90.8738E+06    -82.8831E+06    -78.2716E+06     57.9089E+03         67.7886
             680     1.48904E-03     55.8512E-03         1.41927    -418.526E-03    -426.579E-03    -423.724E-03         1.41644    -418.553E-03     71.3061E-03     590.945E-03    -295.329E-03    -295.761E-03    -295.322E-03     590.926E-03    -295.749E-03    -8.12930E-03    -89.0707E+06    -93.4289E+06    -100.817E+06    -94.7120E+06    -99.5338E+06    -89.0707E+06    -421.632E+03         67.7635
             681     744.973E-06     55.8626E-03         1.42041    -348.256E-03    -499.594E-03    -486.345E-03         1.40719    -348.282E-03    -132.644E-03     590.570E-03    -295.000E-03    -295.305E-03    -295.003E-03     590.561E-03    -295.293E-03    -4.68073E-03    -94.5093E+06    -98.6078E+06    -114.723E+06    -97.6052E+06    -114.113E+06    -96.1217E+06    -395.537E+03         67.7416
             682     12.6671E-03     54.6075E-03         1.39318    -405.801E-03    -411.452E-03    -405.761E-03         1.39314    -411.452E-03    -5.83774E-03     590.493E-03    -294.971E-03    -297.347E-03    -294.776E-03     587.923E-03    -294.971E-03     95.0764E-03     67.7563E+06     35.1386E+06    -4.14131E+06    -4.13609E+06     35.1334E+06     67.7563E+06     257.169E+03         81.3514
             683     11.9233E-03     54.4360E-03         1.39818    -407.280E-03    -414.984E-03    -410.344E-03         1.39813    -411.871E-03     2.48083E-03     590.495E-03    -294.957E-03    -296.617E-03    -294.336E-03     588.283E-03    -295.027E-03     87.0322E-03     63.0146E+06     32.1849E+06    -8.45665E+06    -8.42783E+06     32.1561E+06     63.0146E+06    -470.071E+03         78.2557
             684     11.1736E-03     54.3212E-03         1.40375    -407.276E-03    -419.511E-03    -414.734E-03         1.40371    -412.004E-03     2.77133E-03     589.988E-03    -294.568E-03    -295.030E-03    -293.661E-03     588.689E-03    -294.638E-03     67.6634E-03     62.7804E+06     29.6129E+06    -13.3044E+06    -13.2438E+06     29.5523E+06     62.7804E+06     168.493E+03         74.9886
             685     10.4281E-03     54.2176E-03         1.40463    -409.443E-03    -417.231E-03    -414.598E-03         1.40455    -412.001E-03     11.3922E-03     590.060E-03    -293.858E-03    -294.552E-03    -293.301E-03     589.111E-03    -294.160E-03     57.5251E-03     60.6895E+06     25.8839E+06    -18.5339E+06    -18.4812E+06     25.8312E+06     60.6895E+06     1.34989E+06         72.4519
             686     9.68223E-03     54.1385E-03         1.39960    -408.255E-03    -413.126E-03    -409.071E-03         1.39950    -412.204E-03     9.33101E-03     588.532E-03    -293.376E-03    -293.897E-03    -292.987E-03     587.924E-03    -293.679E-03     46.0454E-03     54.0278E+06     20.2404E+06    -24.4688E+06    -24.4232E+06     20.1949E+06     54.0278E+06     519.807E+03         70.8684
             687     8.93682E-03     54.0718E-03         1.39575    -405.207E-03    -412.866E-03    -405.118E-03         1.39557    -412.780E-03     6.12309E-03     586.556E-03    -293.079E-03    -293.531E-03    -292.916E-03     586.175E-03    -293.313E-03     36.2895E-03     44.9559E+06     13.5322E+06    -30.7707E+06    -30.7017E+06     13.4632E+06     44.9559E+06    -82.9986E+03         70.0155
             688     8.19214E-03     54.0237E-03         1.39753    -405.856E-03    -413.549E-03    -405.662E-03         1.39734    -413.549E-03    -4.63730E-03     587.937E-03    -293.706E-03    -294.682E-03    -293.496E-03     587.726E-03    -294.682E-03     26.8760E-03     34.2491E+06     5.97807E+06    -36.9147E+06    -36.8533E+06     5.91674E+06     34.2491E+06    -6.65528E+03         69.5317
             689     7.44726E-03     53.9937E-03         1.39730    -404.642E-03    -414.468E-03    -404.524E-03         1.39718    -414.468E-03    -6.59667E-03     587.969E-03    -293.932E-03    -295.849E-03    -293.830E-03     587.867E-03    -295.849E-03     18.5817E-03     22.7900E+06    -2.13000E+06    -43.6125E+06    -43.5895E+06    -2.15305E+06     22.7900E+06     160.210E+03         69.1583
             690     6.70202E-03     53.9680E-03         1.39697    -403.377E-03    -415.701E-03    -403.329E-03         1.39692    -415.701E-03     12.2002E-03     586.905E-03    -293.881E-03    -295.710E-03    -293.844E-03     586.869E-03    -295.710E-03     10.6492E-03     11.8189E+06    -10.6535E+06    -50.8427E+06    -50.8260E+06    -10.6703E+06     11.8189E+06     313.911E+03         68.8359
             691     5.95646E-03     53.9592E-03         1.40542    -405.915E-03    -420.963E-03    -410.023E-03         1.40541    -416.842E-03    -910.353E-06     589.331E-03    -294.158E-03    -295.334E-03    -294.151E-03     589.324E-03    -295.334E-03     3.69641E-03     371.243E+03    -19.6872E+06    -58.3977E+06    -58.3642E+06    -19.7206E+06     371.243E+03     633.940E+03         68.6078
             692     5.21276E-03     53.9599E-03         1.41449    -410.888E-03    -424.995E-03    -418.647E-03         1.41442    -417.174E-03     8.18951E-03     589.916E-03    -294.392E-03    -294.996E-03    -294.389E-03     589.912E-03    -294.996E-03    -2.03905E-03    -12.8849E+06    -29.1981E+06    -65.4496E+06    -65.4192E+06    -29.2285E+06    -12.8849E+06     656.643E+03         68.4519
             693     4.46915E-03     53.9685E-03         1.41488    -412.965E-03    -423.869E-03    -419.738E-03         1.41464    -416.855E-03    -11.2942E-03     589.346E-03    -294.925E-03    -295.068E-03    -294.911E-03     589.332E-03    -295.068E-03    -6.67592E-03    -28.0361E+06    -39.1967E+06    -72.1788E+06    -72.1404E+06    -39.2352E+06    -28.0361E+06     518.749E+03         68.2650
             694     3.72438E-03     53.9900E-03         1.41568    -411.711E-03    -425.844E-03    -421.095E-03         1.41542    -416.198E-03    -15.9972E-03     589.163E-03    -294.617E-03    -294.987E-03    -294.603E-03     589.134E-03    -294.972E-03    -9.90377E-03    -45.8298E+06    -50.3239E+06    -79.5404E+06    -79.4806E+06    -50.3837E+06    -45.8298E+06     214.214E+03         68.0282
             695     2.97860E-03     54.0108E-03         1.41766    -412.458E-03    -427.057E-03    -424.733E-03         1.41744    -414.561E-03    -15.3102E-03     589.028E-03    -294.484E-03    -295.170E-03    -294.463E-03     588.993E-03    -295.155E-03    -11.1635E-03    -63.0128E+06    -64.7535E+06    -86.0518E+06    -86.0144E+06    -64.7909E+06    -63.0128E+06    -230.713E+03         67.8486
             696     2.23369E-03     54.0272E-03         1.40948    -409.263E-03    -423.136E-03    -419.377E-03         1.40870    -412.243E-03    -31.6254E-03     589.887E-03    -294.826E-03    -295.619E-03    -294.795E-03     589.857E-03    -295.619E-03    -10.3808E-03    -76.9044E+06     -81.676E+06    -91.7508E+06    -91.1036E+06    -82.3232E+06    -76.9044E+06     395.419E+03         67.7745
             697     1.48939E-03     54.0456E-03         1.40214    -408.041E-03    -416.415E-03    -411.455E-03         1.40019    -411.048E-03     53.7536E-03     590.665E-03    -295.134E-03    -295.680E-03    -295.125E-03     590.645E-03    -295.668E-03    -8.34568E-03    -88.5891E+06    -93.0197E+06    -101.039E+06    -94.8402E+06    -99.0565E+06    -88.7508E+06     535.343E+03         67.7498
             698     744.375E-06     54.0592E-03         1.40843    -376.805E-03    -457.103E-03    -445.006E-03         1.39636    -376.831E-03    -139.627E-03     590.522E-03    -294.694E-03    -295.514E-03    -294.698E-03     590.514E-03    -295.503E-03    -4.29698E-03    -93.6092E+06    -97.6089E+06    -113.028E+06    -96.3384E+06    -112.524E+06    -95.3833E+06    -130.681E+03         67.7314
             699     12.6687E-03     52.8001E-03         1.39411    -403.770E-03    -412.809E-03    -403.736E-03         1.39407    -412.809E-03    -11.9439E-03     590.153E-03    -295.018E-03    -296.925E-03    -294.350E-03     587.577E-03    -295.018E-03     95.1420E-03     67.5430E+06     35.1402E+06    -3.91940E+06    -3.91533E+06     35.1362E+06     67.5430E+06    -153.813E+03         81.3774
             700     11.9230E-03     52.6286E-03         1.39624    -404.563E-03    -413.392E-03    -404.505E-03         1.39618    -413.392E-03    -740.117E-06     590.394E-03    -294.984E-03    -296.369E-03    -294.027E-03     588.169E-03    -295.101E-03     87.3336E-03     64.2700E+06     32.5047E+06    -8.29735E+06    -8.28271E+06     32.4900E+06     64.2700E+06     172.922E+03         78.2830
             701     11.1722E-03     52.5127E-03         1.39662    -403.362E-03    -414.100E-03    -403.305E-03         1.39656    -414.100E-03     2.25181E-03     590.269E-03    -294.626E-03    -295.266E-03    -293.834E-03     588.955E-03    -294.744E-03     68.0691E-03     61.7159E+06     28.9670E+06    -13.4847E+06    -13.4578E+06     28.9401E+06     61.7159E+06     790.368E+03         75.0156
             702     10.4269E-03     52.4098E-03         1.40020    -404.359E-03    -415.736E-03    -405.143E-03         1.40014    -414.899E-03     4.66977E-03     590.492E-03    -294.044E-03    -294.768E-03    -293.609E-03     589.535E-03    -294.246E-03     57.8067E-03     58.9809E+06     25.1876E+06    -18.8179E+06    -18.7943E+06     25.1640E+06     58.9809E+06     400.260E+03         72.4734
             703     9.68225E-03     52.3294E-03         1.40592    -408.155E-03    -416.534E-03    -408.961E-03         1.40580    -415.611E-03     1.94356E-03     588.962E-03    -293.527E-03    -294.084E-03    -293.266E-03     588.347E-03    -293.729E-03     46.3542E-03     54.6189E+06     20.6259E+06    -24.0831E+06    -24.0608E+06     20.6036E+06     54.6189E+06     231.421E+03         70.8833
             704     8.93794E-03     52.2611E-03         1.40988    -412.616E-03    -416.553E-03    -412.859E-03         1.40969    -416.113E-03     5.20270E-03     586.640E-03    -293.137E-03    -293.707E-03    -293.108E-03     586.257E-03    -293.353E-03     36.3485E-03     45.4935E+06     13.9503E+06    -30.3029E+06    -30.2497E+06     13.8970E+06     45.4935E+06     325.982E+03         70.0279
             705     8.19225E-03     52.2167E-03         1.40910    -412.586E-03    -416.858E-03    -412.703E-03         1.40886    -416.504E-03    -6.58273E-03     588.029E-03    -293.840E-03    -294.718E-03    -293.632E-03     587.822E-03    -294.718E-03     26.6814E-03     34.1748E+06     6.03326E+06    -36.9651E+06    -36.9129E+06     5.98107E+06     34.1748E+06     359.446E+03         69.5416
             706     7.44664E-03     52.1829E-03         1.40993    -408.707E-03    -421.281E-03    -412.947E-03         1.40981    -416.916E-03    -17.1024E-03     588.273E-03    -294.044E-03    -295.842E-03    -293.947E-03     588.176E-03    -295.842E-03     17.9969E-03     23.0648E+06    -2.20465E+06    -43.9290E+06    -43.9024E+06    -2.23126E+06     23.0648E+06     775.212E+03         69.1637
             707     6.70202E-03     52.1623E-03         1.41674    -410.772E-03    -426.561E-03    -420.403E-03         1.41674    -416.925E-03     4.31411E-03     587.133E-03    -293.910E-03    -295.702E-03    -293.877E-03     587.101E-03    -295.702E-03     9.97857E-03     11.2610E+06    -10.7453E+06    -51.0661E+06    -51.0375E+06    -10.7739E+06     11.2610E+06     647.835E+03         68.8376
             708     5.95775E-03     52.1467E-03         1.41969    -414.732E-03    -425.621E-03    -424.061E-03         1.41963    -416.229E-03    -11.1438E-03     589.437E-03    -294.213E-03    -295.352E-03    -294.207E-03     589.431E-03    -295.352E-03     3.24628E-03    -542.640E+03    -19.4520E+06    -57.8483E+06    -57.8335E+06    -19.4668E+06    -542.640E+03     415.826E+03         68.6069
             709     5.21266E-03     52.1488E-03         1.41618    -413.420E-03    -423.144E-03    -421.102E-03         1.41604    -415.324E-03     3.23739E-03     589.613E-03    -294.172E-03    -295.015E-03    -294.169E-03     589.610E-03    -295.015E-03    -1.92427E-03    -12.9810E+06    -28.7788E+06    -64.9957E+06    -64.9915E+06    -28.7831E+06    -12.9810E+06     154.982E+03         68.4495
             710     4.46788E-03     52.1591E-03         1.41434    -413.051E-03    -421.482E-03    -419.808E-03         1.41408    -414.468E-03    -5.64602E-03     588.900E-03    -294.628E-03    -295.128E-03    -294.617E-03     588.889E-03    -295.128E-03    -6.00509E-03    -27.7323E+06    -38.8923E+06    -72.1798E+06    -72.1463E+06    -38.9258E+06    -27.7323E+06     193.738E+03         68.2654
             711     3.72314E-03     52.1825E-03         1.41051    -406.183E-03    -423.493E-03    -415.355E-03         1.41004    -413.848E-03     8.74474E-03     589.435E-03    -294.891E-03    -295.076E-03    -294.913E-03     589.412E-03    -295.031E-03    -8.93734E-03    -45.1734E+06    -49.8425E+06    -79.1143E+06    -79.0068E+06    -49.9500E+06    -45.1734E+06     440.487E+03         68.0338
             712     2.97959E-03     52.2016E-03         1.40204    -398.406E-03    -422.644E-03    -405.965E-03         1.40165    -414.691E-03     13.9196E-03     589.445E-03    -294.808E-03    -295.172E-03    -294.825E-03     589.416E-03    -295.126E-03    -10.0157E-03    -63.0580E+06    -64.4633E+06    -85.7295E+06    -85.6471E+06    -64.5457E+06    -63.0580E+06     377.702E+03         67.8567
             713     2.23514E-03     52.2217E-03         1.40427    -403.600E-03    -419.360E-03    -404.866E-03         1.40392    -417.738E-03     11.0795E-03     589.595E-03    -294.616E-03    -295.584E-03    -294.590E-03     589.569E-03    -295.584E-03    -9.49794E-03    -77.9916E+06    -81.4772E+06    -92.5075E+06    -91.2480E+06    -82.7367E+06    -77.9916E+06    -21.0073E+03         67.7804
             714     1.48945E-03     52.2381E-03         1.41798    -414.392E-03    -422.354E-03    -413.408E-03         1.41635    -421.715E-03     93.2100E-03     590.371E-03    -294.896E-03    -295.784E-03    -294.879E-03     590.354E-03    -295.784E-03    -7.63305E-03    -88.5743E+06    -92.4810E+06    -100.910E+06    -94.6052E+06    -98.6241E+06    -88.7360E+06    -320.097E+03         67.7505
             715     744.495E-06     52.2543E-03         1.43700    -413.875E-03    -443.431E-03    -431.321E-03         1.42678    -415.766E-03    -118.047E-03     591.009E-03    -294.706E-03    -295.717E-03    -294.918E-03     591.003E-03    -295.498E-03    -4.18186E-03    -93.2465E+06    -97.4182E+06    -111.658E+06    -96.1330E+06    -111.293E+06    -94.8971E+06     215.583E+03         67.7292
             716     12.6656E-03     50.9956E-03         1.39169    -397.458E-03    -412.635E-03    -397.420E-03         1.39165    -412.635E-03    -12.3981E-03     589.879E-03    -295.061E-03    -296.595E-03    -294.027E-03     587.311E-03    -295.061E-03     94.9628E-03     68.8622E+06     35.0355E+06    -4.16187E+06    -4.15864E+06     35.0322E+06     68.8622E+06    -80.5766E+03         81.4151
             717     11.9217E-03     50.8224E-03         1.39269    -397.481E-03    -413.544E-03    -397.408E-03         1.39262    -413.544E-03    -4.63310E-03     590.272E-03    -294.933E-03    -296.229E-03    -293.800E-03     588.058E-03    -295.148E-03     87.0762E-03     64.7151E+06     31.9016E+06    -8.85053E+06    -8.82605E+06     31.8771E+06     64.7151E+06     76.6388E+03         78.3205
             718     11.1719E-03     50.7030E-03         1.39799    -400.902E-03    -414.469E-03    -400.843E-03         1.39793    -414.469E-03     795.584E-06     590.372E-03    -294.604E-03    -295.474E-03    -293.964E-03     589.077E-03    -294.819E-03     67.5752E-03     61.9335E+06     29.2189E+06    -13.0881E+06    -13.0535E+06     29.1843E+06     61.9335E+06     292.946E+03         75.0445
             719     10.4268E-03     50.6030E-03         1.40264    -404.360E-03    -415.586E-03    -404.675E-03         1.40262    -415.254E-03    -5.11579E-03     590.818E-03    -294.089E-03    -294.975E-03    -293.798E-03     589.872E-03    -294.320E-03     57.4912E-03     58.4979E+06     25.6021E+06    -18.0264E+06    -17.9880E+06     25.5636E+06     58.4979E+06     402.505E+03         72.4910
             720     9.68169E-03     50.5202E-03         1.40568    -406.379E-03    -416.245E-03    -406.630E-03         1.40560    -415.912E-03    -14.3152E-03     589.088E-03    -293.569E-03    -294.087E-03    -293.239E-03     588.471E-03    -293.800E-03     46.4572E-03     52.4759E+06     19.6396E+06    -24.6000E+06    -24.5686E+06     19.6082E+06     52.4759E+06     344.144E+03         70.8935
             721     8.93634E-03     50.4568E-03         1.40931    -409.274E-03    -416.826E-03    -409.549E-03         1.40923    -416.472E-03    -16.4402E-03     586.797E-03    -293.371E-03    -293.707E-03    -293.269E-03     586.407E-03    -293.420E-03     36.6757E-03     44.8428E+06     13.3522E+06    -30.8339E+06    -30.8085E+06     13.3268E+06     44.8428E+06     535.218E+03         70.0349
             722     8.19197E-03     50.4090E-03         1.41349    -413.767E-03    -418.556E-03    -415.407E-03         1.41333    -416.758E-03    -27.7903E-03     588.195E-03    -294.014E-03    -294.754E-03    -293.799E-03     587.980E-03    -294.754E-03     27.1724E-03     35.0824E+06     6.12980E+06     -37.127E+06    -37.0853E+06     6.08810E+06     35.0824E+06     856.380E+03         69.5480
             723     7.44776E-03     50.3773E-03         1.41872    -415.556E-03    -422.358E-03    -421.195E-03         1.41855    -416.549E-03    -15.6374E-03     588.550E-03    -294.232E-03    -295.822E-03    -294.128E-03     588.446E-03    -295.822E-03     18.6218E-03     23.8011E+06    -1.73638E+06    -43.6546E+06    -43.6157E+06    -1.77532E+06     23.8011E+06     746.051E+03         69.1698
             724     6.70285E-03     50.3550E-03         1.41853    -411.607E-03    -425.647E-03    -421.210E-03         1.41849    -416.011E-03     13.3370E-03     587.530E-03    -294.250E-03    -295.677E-03    -294.212E-03     587.493E-03    -295.677E-03     10.7795E-03     12.3777E+06    -9.72559E+06    -50.0546E+06    -50.0221E+06    -9.75809E+06     12.3777E+06     503.372E+03         68.8379
             725     5.95752E-03     50.3418E-03         1.41172    -409.472E-03    -421.062E-03    -414.671E-03         1.41164    -415.791E-03    -990.206E-06     589.550E-03    -294.241E-03    -295.344E-03    -294.234E-03     589.543E-03    -295.344E-03     3.66410E-03     507.935E+03    -18.6016E+06    -57.1934E+06    -57.1774E+06    -18.6176E+06     507.935E+03     423.863E+03         68.5974
             726     5.21280E-03     50.3426E-03         1.40908    -411.447E-03    -416.217E-03    -411.128E-03         1.40876    -416.217E-03     21.1591E-03     589.484E-03    -293.969E-03    -295.061E-03    -293.965E-03     589.480E-03    -295.061E-03    -2.36811E-03    -13.2151E+06    -28.6884E+06    -64.8639E+06    -64.8574E+06    -28.6949E+06    -13.2151E+06     431.257E+03         68.4390
             727     4.46779E-03     50.3557E-03         1.40998    -411.274E-03    -417.065E-03    -410.866E-03         1.40957    -417.065E-03     7.57597E-03     588.646E-03    -294.228E-03    -295.264E-03    -294.215E-03     588.632E-03    -295.264E-03    -6.69759E-03    -29.2268E+06    -39.6572E+06    -72.8635E+06    -72.8320E+06    -39.6887E+06    -29.2268E+06     444.441E+03         68.2620
             728     3.72298E-03     50.3761E-03         1.41084    -407.210E-03    -422.176E-03    -410.724E-03         1.41046    -418.288E-03     1.03727E-03     589.333E-03    -294.366E-03    -295.231E-03    -294.374E-03     589.310E-03    -295.200E-03    -9.02074E-03    -45.6611E+06    -50.3243E+06    -79.8052E+06    -79.7220E+06    -50.4074E+06    -45.6611E+06     655.417E+03         68.0372
             729     2.97800E-03     50.3973E-03         1.41594    -403.458E-03    -431.057E-03    -414.114E-03         1.41528    -419.743E-03    -11.4410E-03     589.697E-03    -294.738E-03    -295.367E-03    -294.743E-03     589.670E-03    -295.336E-03    -9.60217E-03    -62.1386E+06    -63.2530E+06    -85.3350E+06    -85.2556E+06    -63.3324E+06    -62.1386E+06     910.834E+03         67.8687
             730     2.23343E-03     50.4186E-03         1.42280    -409.481E-03    -431.837E-03    -420.129E-03         1.42225    -420.638E-03    -12.1071E-03     590.069E-03    -294.968E-03    -295.801E-03    -294.946E-03     590.046E-03    -295.801E-03    -8.82000E-03    -78.0030E+06    -80.0052E+06    -91.7462E+06    -90.6428E+06    -81.1087E+06    -78.0030E+06     204.290E+03         67.8003
             731     1.48880E-03     50.4371E-03         1.42258    -415.282E-03    -425.458E-03    -418.655E-03         1.42218    -421.685E-03     52.6340E-03     590.881E-03    -295.257E-03    -296.040E-03    -295.244E-03     590.868E-03    -296.040E-03    -6.72463E-03    -89.5424E+06    -92.9530E+06    -101.460E+06    -95.3873E+06    -99.0260E+06    -89.5424E+06    -351.101E+03         67.7712
             732     744.638E-06     50.4483E-03         1.43213    -413.406E-03    -436.985E-03    -427.983E-03         1.42708    -417.357E-03    -93.7147E-03     591.311E-03    -295.124E-03    -295.633E-03    -295.338E-03     591.306E-03    -295.415E-03    -3.74694E-03    -94.2193E+06    -98.7501E+06    -112.817E+06    -97.6311E+06    -112.447E+06    -95.7082E+06     275.508E+03         67.7463
             733     12.6666E-03     49.1862E-03         1.40282    -402.982E-03    -414.307E-03    -405.205E-03         1.40276    -412.031E-03    -19.1518E-03     589.865E-03    -295.080E-03    -296.678E-03    -294.126E-03     587.313E-03    -295.080E-03     94.6493E-03     68.3188E+06     35.0682E+06    -3.91896E+06    -3.91634E+06     35.0656E+06     68.3188E+06     210.770E+03         81.4591
             734     11.9216E-03     49.0125E-03         1.40122    -402.007E-03    -414.862E-03    -404.445E-03         1.40118    -412.380E-03    -13.3183E-03     590.397E-03    -294.942E-03    -296.385E-03    -293.976E-03     588.198E-03    -295.152E-03     86.7431E-03     63.3601E+06     31.8523E+06    -8.43629E+06    -8.39356E+06     31.8095E+06     63.3601E+06     301.023E+03         78.3637
             735     11.1717E-03     48.8962E-03         1.39968    -401.711E-03    -413.051E-03    -401.892E-03         1.39966    -412.845E-03    -4.98958E-03     590.337E-03    -294.612E-03    -295.415E-03    -293.921E-03     589.053E-03    -294.821E-03     67.3051E-03     60.9585E+06     28.2793E+06    -14.1851E+06    -14.0681E+06     28.1622E+06     60.9585E+06    -700.201E+03         75.0777
             736     10.4265E-03     48.7911E-03         1.40057    -403.163E-03    -413.758E-03    -403.477E-03         1.40055    -413.425E-03    -4.73682E-03     590.457E-03    -293.946E-03    -294.928E-03    -293.600E-03     589.518E-03    -294.335E-03     57.2439E-03     58.6722E+06     24.9181E+06    -19.3131E+06    -19.2110E+06     24.8161E+06     58.6722E+06    -219.053E+03         72.5103
             737     9.68138E-03     48.7138E-03         1.40222    -404.986E-03    -414.357E-03    -405.308E-03         1.40221    -414.024E-03    -4.84216E-03     588.592E-03    -293.471E-03    -293.941E-03    -292.945E-03     587.987E-03    -293.864E-03     45.9501E-03     54.0973E+06     20.4331E+06    -24.0682E+06    -24.0356E+06     20.4004E+06     54.0973E+06     1.09104E+06         70.9001
             738     8.93632E-03     48.6487E-03         1.40482    -406.012E-03    -414.674E-03    -405.988E-03         1.40480    -414.674E-03     1.21664E-03     586.534E-03    -293.250E-03    -293.565E-03    -292.940E-03     586.147E-03    -293.487E-03     36.5746E-03     45.0071E+06     13.6378E+06    -30.5020E+06    -30.4777E+06     13.6135E+06     45.0071E+06     674.492E+03         70.0323
             739     8.19123E-03     48.6001E-03         1.40818    -407.620E-03    -416.742E-03    -408.967E-03         1.40808    -415.298E-03    -13.4465E-03     588.168E-03    -293.884E-03    -294.822E-03    -293.663E-03     587.946E-03    -294.822E-03     27.6277E-03     34.2223E+06     6.10362E+06    -36.9449E+06    -36.8869E+06     6.04561E+06     34.2223E+06     360.269E+03         69.5450
             740     7.44592E-03     48.5694E-03         1.40659    -406.458E-03    -417.435E-03    -407.786E-03         1.40647    -415.991E-03    -4.22183E-03     588.736E-03    -294.478E-03    -295.886E-03    -294.367E-03     588.625E-03    -295.886E-03     19.3409E-03     23.8483E+06    -1.47450E+06    -43.2204E+06    -43.1623E+06    -1.53255E+06     23.8483E+06     285.190E+03         69.1727
             741     6.70134E-03     48.5449E-03         1.40480    -404.935E-03    -417.094E-03    -404.876E-03         1.40474    -417.094E-03     15.8222E-03     587.747E-03    -294.563E-03    -295.720E-03    -294.522E-03     587.706E-03    -295.720E-03     11.3186E-03     12.7166E+06    -9.74716E+06    -50.1859E+06    -50.1530E+06    -9.78009E+06     12.7166E+06     729.687E+03         68.8424
             742     5.95750E-03     48.5326E-03         1.41130    -409.244E-03    -418.359E-03    -409.210E-03         1.41126    -418.359E-03     1.48809E-03     589.651E-03    -294.313E-03    -295.353E-03    -294.305E-03     589.643E-03    -295.353E-03     4.14227E-03     384.882E+03    -18.8887E+06    -57.6955E+06    -57.6677E+06    -18.9166E+06     384.882E+03     871.616E+03         68.5998
             743     5.21301E-03     48.5354E-03         1.42077    -415.476E-03    -421.090E-03    -417.243E-03         1.42051    -419.065E-03     22.7501E-03     589.692E-03    -294.035E-03    -295.097E-03    -294.032E-03     589.690E-03    -295.097E-03    -1.63315E-03    -12.8507E+06    -28.4359E+06    -64.9718E+06    -64.9418E+06    -28.4660E+06    -12.8507E+06     908.894E+03         68.4448
             744     4.46834E-03     48.5466E-03         1.42379    -414.634E-03    -426.280E-03    -421.333E-03         1.42321    -419.008E-03    -9.95222E-03     588.963E-03    -294.357E-03    -295.352E-03    -294.346E-03     588.952E-03    -295.352E-03    -6.05779E-03    -28.2464E+06    -38.7406E+06    -72.1411E+06    -72.1020E+06    -38.7796E+06    -28.2464E+06     801.862E+03         68.2738
             745     3.72285E-03     48.5686E-03         1.42693    -414.561E-03    -430.889E-03    -426.708E-03         1.42617    -417.974E-03    -4.98497E-03     589.356E-03    -294.298E-03    -295.262E-03    -294.274E-03     589.331E-03    -295.262E-03    -9.22438E-03    -45.6355E+06    -50.3096E+06    -79.7209E+06    -79.6813E+06    -50.3492E+06    -45.6355E+06     466.899E+03         68.0514
             746     2.97717E-03     48.5897E-03         1.42885    -414.970E-03    -433.487E-03    -432.505E-03         1.42787    -414.970E-03    -13.7742E-03     589.607E-03    -294.669E-03    -295.421E-03    -294.635E-03     589.573E-03    -295.421E-03    -10.9125E-03    -62.2262E+06    -63.4131E+06    -86.1750E+06    -86.1356E+06    -63.3099E+06    -62.3689E+06     625.014E+03         67.8824
             747     2.23279E-03     48.6130E-03         1.41822    -410.154E-03    -427.140E-03    -426.250E-03         1.41733    -410.154E-03    -9.73111E-03     590.376E-03    -295.162E-03    -295.851E-03    -295.130E-03     590.345E-03    -295.851E-03    -10.3926E-03    -76.7105E+06    -79.1609E+06     -91.362E+06    -90.9026E+06    -79.4776E+06    -76.8532E+06     1.23015E+06         67.8158
             748     1.48872E-03     48.6284E-03         1.40012    -403.801E-03    -415.005E-03    -412.450E-03         1.39962    -405.861E-03     37.0732E-03     591.114E-03    -295.425E-03    -295.935E-03    -295.407E-03     591.096E-03    -295.935E-03    -7.70784E-03    -89.2572E+06    -91.9257E+06    -100.575E+06    -94.8530E+06    -97.6460E+06    -89.2593E+06     931.844E+03         67.7897
             749     744.131E-06     48.6422E-03         1.39226    -375.696E-03    -433.762E-03    -430.780E-03         1.39134    -377.756E-03    -29.6733E-03     590.981E-03    -295.198E-03    -295.499E-03    -295.305E-03     590.975E-03    -295.385E-03    -4.17890E-03    -94.5507E+06    -98.0449E+06    -113.741E+06    -97.1310E+06    -113.048E+06    -96.1577E+06    -397.134E+03         67.7642
             750     12.6670E-03     47.3834E-03         1.40888    -407.868E-03    -414.786E-03    -410.103E-03         1.40884    -412.509E-03     1.21326E-03     589.893E-03    -295.086E-03    -296.841E-03    -294.281E-03     587.333E-03    -295.086E-03     94.7548E-03     67.6135E+06     34.6521E+06    -4.06611E+06    -4.05617E+06     34.6421E+06     67.6135E+06     316.097E+03         81.5068
             751     11.9220E-03     47.2088E-03         1.41193    -411.080E-03    -415.213E-03    -413.505E-03         1.41187    -412.731E-03     11.0718E-03     590.449E-03    -294.986E-03    -296.576E-03    -294.121E-03     588.218E-03    -295.210E-03     87.3789E-03     63.3042E+06     31.6167E+06    -8.83463E+06    -8.76522E+06     31.5473E+06     63.3042E+06     288.789E+03         78.4085
             752     11.1723E-03     47.0897E-03         1.41012    -409.313E-03    -415.526E-03    -411.810E-03         1.41003    -412.933E-03     21.7348E-03     590.244E-03    -294.714E-03    -295.229E-03    -293.700E-03     588.938E-03    -294.938E-03     67.8665E-03     61.2858E+06     29.0803E+06    -13.5370E+06    -13.2648E+06     28.8081E+06     61.2858E+06     433.342E+03         75.1108
             753     10.4263E-03     46.9879E-03         1.40651    -405.479E-03    -417.227E-03    -409.375E-03         1.40643    -413.250E-03     18.9519E-03     589.961E-03    -293.849E-03    -294.716E-03    -293.176E-03     588.998E-03    -294.425E-03     57.9677E-03     59.2306E+06     25.2643E+06    -19.3009E+06    -19.0164E+06     24.9798E+06     59.2306E+06    -161.513E+03         72.5272
             754     9.68119E-03     46.9080E-03         1.40552    -406.701E-03    -415.357E-03    -408.365E-03         1.40549    -413.662E-03     9.52798E-03     588.198E-03    -293.351E-03    -294.034E-03    -292.825E-03     587.569E-03    -293.930E-03     46.8616E-03     54.4372E+06     19.9717E+06    -24.8308E+06    -24.7553E+06     19.8961E+06     54.4372E+06    -441.099E+03         70.9031
             755     8.93596E-03     46.8419E-03         1.40619    -407.733E-03    -414.254E-03    -407.801E-03         1.40615    -414.149E-03     12.0052E-03     586.510E-03    -293.274E-03    -293.654E-03    -292.978E-03     586.110E-03    -293.550E-03     37.1425E-03     45.8057E+06     14.0931E+06    -30.1364E+06    -30.1163E+06     14.0729E+06     45.8057E+06     451.294E+03         70.0272
             756     8.19003E-03     46.7930E-03         1.40513    -405.138E-03    -414.862E-03    -405.007E-03         1.40500    -414.862E-03    -10.6884E-03     588.355E-03    -294.218E-03    -294.904E-03    -294.001E-03     588.138E-03    -294.904E-03     27.2581E-03     34.4064E+06     6.20152E+06    -36.8203E+06    -36.7225E+06     6.10365E+06     34.4064E+06     718.283E+03         69.5397
             757     7.44577E-03     46.7569E-03         1.40850    -404.545E-03    -418.476E-03    -407.141E-03         1.40835    -415.730E-03    -6.88241E-03     588.863E-03    -294.818E-03    -295.952E-03    -294.717E-03     588.762E-03    -295.952E-03     18.4708E-03     23.2066E+06    -1.97276E+06    -43.7437E+06    -43.6464E+06    -2.07006E+06     23.2066E+06     660.011E+03         69.1723
             758     6.70132E-03     46.7348E-03         1.41582    -408.511E-03    -421.772E-03    -413.948E-03         1.41575    -416.266E-03     4.00690E-03     587.615E-03    -294.348E-03    -295.799E-03    -294.311E-03     587.578E-03    -295.799E-03     10.8896E-03     11.8681E+06    -10.2677E+06    -50.7431E+06    -50.7123E+06    -10.2986E+06     11.8681E+06     744.727E+03         68.8483
             759     5.95624E-03     46.7230E-03         1.41751    -413.035E-03    -419.341E-03    -415.934E-03         1.41747    -416.402E-03    -14.5411E-03     589.517E-03    -294.075E-03    -295.490E-03    -294.067E-03     589.509E-03    -295.490E-03     4.28792E-03     397.222E+03    -18.8540E+06    -57.8139E+06    -57.7873E+06    -18.8806E+06     397.222E+03     788.758E+03         68.6134
             760     5.21151E-03     46.7263E-03         1.41668    -413.285E-03    -418.722E-03    -415.385E-03         1.41657    -416.518E-03     10.2299E-03     589.879E-03    -294.101E-03    -295.261E-03    -294.099E-03     589.877E-03    -295.261E-03    -1.23598E-03    -12.0783E+06    -27.9820E+06    -64.8330E+06    -64.8063E+06    -28.0087E+06    -12.0783E+06     727.404E+03         68.4657
             761     4.46639E-03     46.7387E-03         1.41776    -409.781E-03    -423.896E-03    -416.635E-03         1.41734    -416.624E-03    -18.1551E-03     589.572E-03    -294.886E-03    -295.484E-03    -294.876E-03     589.562E-03    -295.484E-03    -5.62171E-03    -27.0808E+06    -37.8014E+06    -71.8686E+06    -71.8009E+06    -37.8691E+06    -27.0808E+06     941.776E+03         68.3022
             762     3.72279E-03     46.7586E-03         1.41704    -407.488E-03    -425.773E-03    -415.527E-03         1.41606    -416.747E-03     14.0775E-03     589.989E-03    -295.037E-03    -295.413E-03    -295.138E-03     589.965E-03    -295.289E-03    -8.99088E-03    -44.7070E+06    -49.2989E+06    -79.1420E+06    -79.0721E+06    -49.3689E+06    -44.7070E+06     941.473E+03         68.0858
             763     2.97891E-03     46.7804E-03         1.41525    -406.190E-03    -424.657E-03    -412.179E-03         1.41403    -417.454E-03     5.26616E-03     589.787E-03    -294.925E-03    -295.480E-03    -295.017E-03     589.755E-03    -295.356E-03    -10.6469E-03    -62.2493E+06    -63.8092E+06    -86.1966E+06    -86.1752E+06    -63.0222E+06    -63.0578E+06     503.920E+03         67.9131
             764     2.23412E-03     46.8018E-03         1.42051    -411.665E-03    -424.119E-03    -416.001E-03         1.41906    -418.331E-03     13.0497E-03     590.145E-03    -294.998E-03    -295.758E-03    -294.968E-03     590.115E-03    -295.758E-03    -10.1009E-03    -76.8664E+06    -80.3962E+06    -91.3467E+06    -91.3096E+06    -79.6247E+06    -77.6748E+06     344.315E+03         67.8359
             765     1.48954E-03     46.8212E-03         1.42158    -414.159E-03    -423.901E-03    -418.351E-03         1.42041    -418.531E-03     25.8050E-03     590.819E-03    -295.272E-03    -295.765E-03    -295.273E-03     590.801E-03    -295.746E-03    -7.62222E-03    -88.2019E+06    -91.8110E+06    -98.2919E+06    -94.3162E+06    -95.7846E+06    -88.2040E+06     574.739E+03         67.8025
             766     745.013E-06     46.8338E-03         1.42481    -371.131E-03    -468.619E-03    -461.469E-03         1.42170    -375.173E-03     49.4171E-03     590.628E-03    -294.979E-03    -295.487E-03    -295.106E-03     590.622E-03    -295.355E-03    -4.02138E-03    -93.8353E+06    -96.8648E+06    -112.603E+06    -96.3758E+06    -111.485E+06    -95.4423E+06     848.741E+03         67.7754
             767     12.6670E-03     45.5779E-03         1.39933    -399.817E-03    -413.309E-03    -399.760E-03         1.39927    -413.309E-03    -1.64329E-03     589.820E-03    -295.052E-03    -296.718E-03    -294.157E-03     587.259E-03    -295.052E-03     94.7250E-03     67.5175E+06     34.3353E+06    -4.27207E+06    -4.26034E+06     34.3235E+06     67.5175E+06     115.408E+03         81.5589
             768     11.9213E-03     45.4014E-03         1.40266    -402.083E-03    -414.089E-03    -402.019E-03         1.40259    -414.089E-03     6.11840E-03     589.945E-03    -294.747E-03    -296.432E-03    -293.726E-03     587.688E-03    -295.195E-03     87.9008E-03     63.7776E+06     32.0304E+06    -8.48864E+06    -8.41585E+06     31.9576E+06     63.7776E+06     166.509E+03         78.4549
             769     11.1714E-03     45.2818E-03         1.41171    -408.747E-03    -416.995E-03    -411.040E-03         1.41162    -414.607E-03     15.5955E-03     589.737E-03    -294.550E-03    -295.072E-03    -293.282E-03     588.394E-03    -294.998E-03     68.8010E-03     62.6175E+06     29.3810E+06    -13.2482E+06    -13.0281E+06     29.1609E+06     62.6175E+06     852.648E+03         75.1427
             770     10.4261E-03     45.1792E-03         1.41866    -413.355E-03    -420.039E-03    -418.682E-03         1.41857    -414.614E-03     9.69098E-03     590.042E-03    -293.939E-03    -294.596E-03    -293.013E-03     589.041E-03    -294.522E-03     59.0794E-03     59.2813E+06     25.5670E+06    -18.4561E+06    -18.2086E+06     25.3195E+06     59.2813E+06     468.929E+03         72.5409
             771     9.67928E-03     45.0970E-03         1.41863    -414.321E-03    -418.978E-03    -418.929E-03         1.41858    -414.321E-03     5.36462E-03     588.541E-03    -293.443E-03    -294.326E-03    -293.102E-03     587.899E-03    -294.025E-03     47.3022E-03     52.5357E+06     19.5636E+06    -24.6902E+06    -24.6008E+06     19.4742E+06     52.5357E+06    -387.540E+03         70.9045
             772     8.93441E-03     45.0317E-03         1.41602    -411.679E-03    -418.479E-03    -416.066E-03         1.41600    -414.071E-03     7.33362E-03     586.998E-03    -293.592E-03    -293.946E-03    -293.505E-03     586.600E-03    -293.635E-03     37.1122E-03     44.2449E+06     12.6028E+06    -31.4631E+06    -31.4538E+06     12.5935E+06     44.2449E+06     143.256E+03         70.0247
             773     8.19088E-03     44.9809E-03         1.41616    -409.271E-03    -420.563E-03    -415.839E-03         1.41604    -413.879E-03    -18.5112E-03     588.612E-03    -294.376E-03    -294.994E-03    -294.165E-03     588.390E-03    -294.983E-03     27.6357E-03     34.6976E+06     5.63366E+06    -37.5579E+06    -37.4742E+06     5.54995E+06     34.6976E+06     641.443E+03         69.5363
             774     7.44624E-03     44.9491E-03         1.41584    -409.568E-03    -420.268E-03    -416.060E-03         1.41569    -413.626E-03    -7.67084E-03     588.651E-03    -294.516E-03    -296.001E-03    -294.407E-03     588.542E-03    -296.001E-03     19.1882E-03     23.5178E+06    -1.91237E+06    -43.6602E+06    -43.5695E+06    -2.00309E+06     23.5178E+06     697.987E+03         69.1683
             775     6.70003E-03     44.9260E-03         1.41327    -407.807E-03    -418.992E-03    -413.199E-03         1.41316    -413.485E-03     14.7927E-03     587.440E-03    -294.052E-03    -295.901E-03    -294.011E-03     587.400E-03    -295.901E-03     11.3071E-03     12.3106E+06    -9.68871E+06    -50.2109E+06    -50.1814E+06    -9.71818E+06     12.3106E+06     471.763E+03         68.8484
             776     5.95591E-03     44.9148E-03         1.41178    -408.825E-03    -416.548E-03    -411.688E-03         1.41170    -413.609E-03     2.17423E-03     589.678E-03    -294.012E-03    -295.690E-03    -294.004E-03     589.670E-03    -295.690E-03     4.13847E-03     1.21336E+06    -18.1282E+06    -57.1119E+06    -57.0913E+06    -18.1488E+06     1.21336E+06     439.647E+03         68.6237
             777     5.21069E-03     44.9177E-03         1.40971    -410.439E-03    -414.163E-03    -410.373E-03         1.40947    -413.985E-03     28.7379E-03     590.164E-03    -294.286E-03    -295.414E-03    -294.283E-03     590.162E-03    -295.414E-03    -1.76765E-03    -12.0219E+06    -27.8327E+06    -64.6257E+06    -64.6140E+06    -27.8444E+06    -12.0219E+06     481.291E+03         68.4867
             778     4.46663E-03     44.9301E-03         1.40864    -407.901E-03    -415.324E-03    -407.773E-03         1.40802    -414.831E-03    -7.24265E-03     589.615E-03    -294.913E-03    -295.593E-03    -294.901E-03     589.603E-03    -295.593E-03    -6.13446E-03    -27.3559E+06    -38.1326E+06    -72.2331E+06    -72.1615E+06    -38.2042E+06    -27.3559E+06     573.681E+03         68.3298
             779     3.72196E-03     44.9506E-03         1.41202    -407.038E-03    -417.864E-03    -407.720E-03         1.41114    -416.297E-03     6.40001E-03     589.997E-03    -294.908E-03    -295.516E-03    -295.010E-03     589.975E-03    -295.392E-03    -8.78835E-03    -43.9453E+06    -49.0332E+06    -79.3053E+06    -79.2138E+06    -49.1248E+06    -43.9453E+06     817.212E+03         68.1181
             780     2.97770E-03     44.9733E-03         1.41460    -406.185E-03    -419.996E-03    -405.293E-03         1.41264    -418.922E-03    -28.1011E-03     590.180E-03    -295.083E-03    -295.595E-03    -295.181E-03     590.153E-03    -295.471E-03    -9.67798E-03    -60.6113E+06    -62.4071E+06    -85.4451E+06    -85.4019E+06    -61.7846E+06    -61.2770E+06     732.381E+03         67.9515
             781     2.23346E-03     44.9967E-03         1.42338    -411.210E-03    -423.337E-03    -407.726E-03         1.41990    -423.337E-03     13.7070E-03     590.504E-03    -295.244E-03    -295.886E-03    -295.221E-03     590.480E-03    -295.886E-03    -9.10628E-03    -76.4942E+06    -78.6804E+06    -90.5616E+06    -90.4867E+06    -78.0895E+06    -77.1600E+06     53.4586E+03         67.8741
             782     1.48875E-03     45.0163E-03         1.44048    -420.247E-03    -431.620E-03    -418.403E-03         1.43563    -428.606E-03    -5.84043E-03     591.073E-03    -295.446E-03    -295.915E-03    -295.450E-03     591.058E-03    -295.896E-03    -7.13933E-03    -88.9176E+06    -91.3674E+06    -98.8494E+06    -94.2262E+06    -95.9090E+06    -88.9991E+06    -182.631E+03         67.8312
             783     744.240E-06     45.0295E-03         1.46412    -372.610E-03    -502.801E-03    -485.853E-03         1.45121    -376.652E-03     106.340E-03     591.190E-03    -295.224E-03    -295.728E-03    -295.351E-03     591.184E-03    -295.594E-03    -4.10675E-03    -93.5375E+06    -95.7342E+06    -111.986E+06    -96.2312E+06    -110.715E+06    -94.3117E+06     14.3608E+03         67.7972
             784     12.6660E-03     43.7716E-03         1.40513    -403.207E-03    -415.884E-03    -406.782E-03         1.40508    -412.265E-03    -17.1235E-03     589.668E-03    -295.069E-03    -296.308E-03    -293.699E-03     587.059E-03    -295.069E-03     95.5530E-03     68.5344E+06     34.9811E+06    -3.78646E+06    -3.78236E+06     34.9770E+06     68.5344E+06    -19.8129E+03         81.6172
             785     11.9215E-03     43.5957E-03         1.40474    -402.051E-03    -416.085E-03    -405.710E-03         1.40472    -412.406E-03    -11.0494E-03     589.778E-03    -294.669E-03    -296.116E-03    -293.243E-03     587.473E-03    -295.236E-03     88.7858E-03     64.2162E+06     31.9389E+06    -8.62440E+06    -8.56650E+06      31.881E+06     64.2162E+06     944.058E+03         78.5074
             786     11.1697E-03     43.4794E-03         1.40317    -403.957E-03    -413.696E-03    -405.058E-03         1.40317    -412.591E-03    -3.72501E-03     589.711E-03    -294.471E-03    -295.093E-03    -293.173E-03     588.358E-03    -295.039E-03     69.0139E-03     60.2294E+06     27.9360E+06    -14.2101E+06    -14.1338E+06     27.8597E+06     60.2294E+06     600.577E+03         75.1805
             787     10.4238E-03     43.3727E-03         1.40453    -403.958E-03    -414.304E-03    -405.383E-03         1.40451    -412.856E-03    -8.24146E-03     590.461E-03    -294.154E-03    -294.640E-03    -293.220E-03     589.474E-03    -294.585E-03     58.6837E-03     57.3821E+06     24.3718E+06    -19.2038E+06    -19.1548E+06     24.3229E+06     57.3821E+06    -160.503E+03         72.5601
             788     9.67986E-03     43.2909E-03         1.40883    -405.446E-03    -416.091E-03    -408.372E-03         1.40879    -413.128E-03    -11.8000E-03     589.053E-03    -293.727E-03    -294.468E-03    -293.404E-03     588.420E-03    -294.159E-03     47.0168E-03     53.0774E+06     19.8515E+06    -24.3993E+06    -24.3595E+06     19.8117E+06     53.0774E+06     645.881E+03         70.9079
             789     8.93519E-03     43.2242E-03         1.41253    -407.863E-03    -417.573E-03    -412.115E-03         1.41248    -413.270E-03     2.98820E-03     586.978E-03    -293.525E-03    -294.065E-03    -293.443E-03     586.576E-03    -293.745E-03     37.2877E-03     44.8179E+06     13.6636E+06    -30.3759E+06    -30.3548E+06     13.6426E+06     44.8179E+06     636.929E+03         70.0186
             790     8.18947E-03     43.1729E-03         1.41456    -407.607E-03    -419.937E-03    -414.212E-03         1.41448    -413.253E-03    -4.85803E-03     588.368E-03    -293.967E-03    -295.087E-03    -293.747E-03     588.138E-03    -295.077E-03     28.1350E-03     34.1688E+06     5.72201E+06    -37.0777E+06    -37.0544E+06     5.69869E+06     34.1688E+06     7.16864E+03         69.5276
             791     7.44406E-03     43.1392E-03         1.41303    -408.295E-03    -418.174E-03    -413.108E-03         1.41290    -413.235E-03     5.80925E-03     588.412E-03    -294.156E-03    -296.121E-03    -294.042E-03     588.297E-03    -296.121E-03     19.6933E-03     24.0260E+06    -1.77824E+06    -43.6646E+06    -43.6312E+06    -1.81167E+06     24.0260E+06    -84.0556E+03         69.1637
             792     6.70022E-03     43.1210E-03         1.41069    -407.723E-03    -416.784E-03    -410.970E-03         1.41055    -413.401E-03     24.9332E-03     587.460E-03    -294.070E-03    -296.034E-03    -294.027E-03     587.417E-03    -296.034E-03     11.6496E-03     12.9360E+06    -9.45044E+06    -50.1801E+06    -50.1563E+06    -9.47422E+06     12.9360E+06     253.486E+03         68.8523
             793     5.95515E-03     43.1090E-03         1.41016    -407.440E-03    -416.143E-03    -409.688E-03         1.41007    -413.803E-03    -26.4343E-06     590.098E-03    -294.256E-03    -295.842E-03    -294.247E-03     590.089E-03    -295.842E-03     4.68493E-03     821.873E+03    -18.2677E+06    -57.1677E+06    -57.1460E+06    -18.2894E+06     821.873E+03     30.8437E+03         68.6363
             794     5.21088E-03     43.1098E-03         1.41303    -411.555E-03    -414.281E-03    -411.213E-03         1.41269    -414.281E-03     25.3954E-03     590.367E-03    -294.372E-03    -295.510E-03    -294.370E-03     590.365E-03    -295.510E-03    -1.06827E-03    -11.9343E+06    -27.7412E+06    -64.6013E+06    -64.5799E+06    -27.7626E+06    -11.9343E+06     51.9793E+03         68.5066
             795     4.46645E-03     43.1209E-03         1.41681    -414.304E-03    -415.439E-03    -414.517E-03         1.41608    -414.502E-03    -5.94444E-03     589.470E-03    -294.756E-03    -295.703E-03    -294.745E-03     589.460E-03    -295.703E-03    -5.77431E-03    -27.3599E+06    -38.2792E+06    -72.2512E+06    -72.2043E+06    -38.3261E+06    -27.3599E+06     212.683E+03         68.3528
             796     3.72174E-03     43.1435E-03         1.42002    -414.306E-03    -417.861E-03    -416.318E-03         1.41848    -414.306E-03     22.8402E-03     590.003E-03    -294.722E-03    -295.560E-03    -294.700E-03     589.980E-03    -295.560E-03    -8.89111E-03    -44.3350E+06    -49.2032E+06    -79.1184E+06    -79.0266E+06    -49.2950E+06    -44.3350E+06     122.081E+03         68.1432
             797     2.97701E-03     43.1641E-03         1.42460    -411.987E-03    -423.234E-03    -418.787E-03         1.42162    -413.460E-03    -20.5656E-03     590.464E-03    -295.025E-03    -295.703E-03    -294.996E-03     590.435E-03    -295.703E-03    -10.1044E-03    -60.5740E+06    -61.7723E+06    -84.7911E+06    -84.7154E+06    -61.5555E+06    -60.8665E+06     85.9589E+03         67.9846
             798     2.23292E-03     43.1871E-03         1.42738    -405.964E-03    -431.113E-03    -420.167E-03         1.42190    -411.425E-03     32.5672E-03     591.097E-03    -295.525E-03    -296.139E-03    -295.500E-03     591.072E-03    -296.139E-03    -9.42022E-03    -75.7726E+06    -76.9580E+06    -90.3398E+06    -89.9015E+06    -77.1038E+06    -76.0652E+06     578.612E+03         67.9161
             799     1.48905E-03     43.2087E-03         1.42243    -405.526E-03    -425.191E-03    -411.712E-03         1.41307    -409.647E-03    -29.0093E-03     591.673E-03    -295.808E-03    -296.109E-03    -295.813E-03     591.657E-03    -296.088E-03    -7.43157E-03    -88.2679E+06    -89.4779E+06    -98.5119E+06    -93.6932E+06    -94.2151E+06    -88.3495E+06     211.891E+03         67.8733
             800     744.687E-06     43.2222E-03         1.44411    -346.073E-03    -505.841E-03    -472.483E-03         1.41089    -346.205E-03     178.140E-03     591.586E-03    -295.390E-03    -295.834E-03    -295.519E-03     591.580E-03    -295.699E-03    -4.30666E-03    -94.4088E+06    -95.5290E+06    -113.536E+06    -95.9516E+06    -112.339E+06    -95.1830E+06    -1.10319E+06         67.8343
             801     12.6652E-03     41.9676E-03         1.40944    -408.693E-03    -413.870E-03    -412.296E-03         1.40943    -410.251E-03    -8.52631E-03     589.657E-03    -295.029E-03    -296.279E-03    -293.541E-03     587.034E-03    -295.144E-03     95.8642E-03     67.0998E+06     33.5486E+06    -5.05659E+06    -4.99455E+06     33.4866E+06     67.0998E+06     871.731E+03         81.6826
             802     11.9189E-03     41.7919E-03         1.41213    -409.541E-03    -415.315E-03    -414.973E-03         1.41213    -409.878E-03    -3.24753E-03     590.589E-03    -295.118E-03    -296.452E-03    -293.941E-03     588.316E-03    -295.356E-03     88.1078E-03     61.8785E+06     30.9485E+06    -9.61753E+06    -9.52691E+06     30.8579E+06     61.8785E+06     985.251E+03         78.5718
             803     11.1698E-03     41.6733E-03         1.40808    -406.715E-03    -414.569E-03    -411.740E-03         1.40807    -409.531E-03     4.05590E-03     590.173E-03    -294.913E-03    -295.241E-03    -293.696E-03     588.867E-03    -295.151E-03     67.8514E-03     61.0610E+06     29.1651E+06    -13.1540E+06    -13.1223E+06     29.1334E+06     61.0610E+06     33.8321E+03         75.2292
             804     10.4248E-03     41.5671E-03         1.40148    -401.097E-03    -411.753E-03    -403.257E-03         1.40147    -409.576E-03     945.328E-06     589.983E-03    -293.904E-03    -294.686E-03    -292.952E-03     589.018E-03    -294.674E-03     58.0399E-03     58.7806E+06     25.1242E+06    -18.4506E+06    -18.4311E+06     25.1047E+06     58.7806E+06     10.1521E+03         72.5825
             805     9.67901E-03     41.4826E-03         1.39803    -399.036E-03    -410.107E-03    -399.016E-03         1.39801    -410.107E-03    -6.34824E-03     588.448E-03    -293.315E-03    -294.368E-03    -292.782E-03     587.802E-03    -294.255E-03     47.5315E-03     53.2257E+06     19.9783E+06    -24.4732E+06    -24.4294E+06     19.9345E+06     53.2257E+06     164.584E+03         70.9048
             806     8.93354E-03     41.4169E-03         1.39854    -399.641E-03    -410.889E-03    -399.569E-03         1.39847    -410.889E-03    -96.0950E-06     586.592E-03    -293.216E-03    -293.946E-03    -292.908E-03     586.171E-03    -293.834E-03     38.1513E-03     45.4526E+06     13.8372E+06    -30.2292E+06    -30.2012E+06     13.8091E+06     45.4526E+06     83.2811E+03         69.9987
             807     8.18894E-03     41.3669E-03         1.40122    -400.818E-03    -411.773E-03    -400.622E-03         1.40102    -411.773E-03    -16.7076E-03     588.276E-03    -293.736E-03    -295.226E-03    -293.497E-03     588.036E-03    -295.226E-03     28.7358E-03     35.0495E+06     6.48384E+06    -36.4781E+06    -36.4729E+06     6.47858E+06     35.0495E+06     366.947E+03         69.5067
             808     7.44369E-03     41.3337E-03         1.40897    -406.843E-03    -413.490E-03    -407.685E-03         1.40877    -412.447E-03    -9.37168E-03     588.507E-03    -294.219E-03    -296.338E-03    -294.097E-03     588.385E-03    -296.338E-03     20.2710E-03     23.5053E+06    -1.50408E+06    -43.3864E+06    -43.3781E+06    -1.51235E+06     23.5053E+06     109.271E+03         69.1577
             809     6.69895E-03     41.3133E-03         1.41643    -411.947E-03    -416.589E-03    -416.036E-03         1.41637    -412.436E-03     8.18593E-03     587.655E-03    -294.223E-03    -296.250E-03    -294.177E-03     587.608E-03    -296.250E-03     12.2331E-03     12.6686E+06    -9.49004E+06    -50.2931E+06    -50.2675E+06    -9.51563E+06     12.6686E+06    -404.572E+03         68.8607
             810     5.95422E-03     41.3006E-03         1.41610    -410.353E-03    -418.062E-03    -416.406E-03         1.41602    -411.933E-03    -17.7516E-03     590.350E-03    -294.308E-03    -296.022E-03    -294.298E-03     590.339E-03    -296.022E-03     5.23694E-03     1.15335E+06    -18.2089E+06    -57.3316E+06    -57.2827E+06    -18.2577E+06     1.15335E+06    -99.8687E+03         68.6509
             811     5.20966E-03     41.3033E-03         1.41289    -409.829E-03    -415.501E-03    -413.425E-03         1.41251    -411.521E-03     17.0549E-03     590.630E-03    -294.367E-03    -295.683E-03    -294.364E-03     590.628E-03    -295.683E-03    -621.584E-06    -12.8727E+06    -28.1148E+06    -64.8166E+06    -64.7881E+06    -28.1433E+06    -12.8727E+06     30.7691E+03         68.5261
             812     4.46520E-03     41.3145E-03         1.41282    -411.245E-03    -413.249E-03    -412.091E-03         1.41177    -411.356E-03    -16.1873E-03     589.745E-03    -294.907E-03    -295.901E-03    -294.897E-03     589.736E-03    -295.901E-03    -5.29267E-03    -28.4657E+06    -38.2174E+06    -71.7929E+06    -71.7053E+06    -38.3049E+06    -28.4657E+06    -305.024E+03         68.3763
             813     3.72121E-03     41.3356E-03         1.41685    -410.868E-03    -417.897E-03    -415.745E-03         1.41469    -410.868E-03     22.0873E-03     590.500E-03    -295.047E-03    -295.736E-03    -295.026E-03     590.479E-03    -295.736E-03    -8.53452E-03    -44.5974E+06    -48.6037E+06    -78.0874E+06    -77.9699E+06    -48.7213E+06    -44.5974E+06    -451.076E+03         68.1722
             814     2.97717E-03     41.3574E-03         1.42000    -409.205E-03    -422.584E-03    -418.294E-03         1.41584    -409.331E-03    -26.2001E-03     590.798E-03    -295.161E-03    -295.899E-03    -295.133E-03     590.769E-03    -295.899E-03    -9.98412E-03    -61.6976E+06    -63.0791E+06    -85.1348E+06    -85.0876E+06    -62.2919E+06    -62.5321E+06    -240.321E+03         68.0179
             815     2.23217E-03     41.3792E-03         1.42253    -406.245E-03    -426.093E-03    -417.377E-03         1.41398    -406.406E-03     47.1523E-03     591.182E-03    -295.342E-03    -296.372E-03    -295.317E-03     591.157E-03    -296.372E-03    -9.38440E-03    -76.6489E+06    -78.3268E+06    -91.1240E+06    -90.3433E+06    -78.2730E+06    -77.4833E+06    -96.3013E+03         67.9510
             816     1.48847E-03     41.3994E-03         1.41936    -402.925E-03    -425.290E-03    -408.700E-03         1.40294    -403.091E-03    -47.2433E-03     591.959E-03    -295.703E-03    -296.313E-03    -295.758E-03     591.944E-03    -296.243E-03    -7.11664E-03    -87.1529E+06    -88.5193E+06    -96.5879E+06    -92.5813E+06    -92.2763E+06    -87.4024E+06     3.61262E+03         67.9115
             817     744.186E-06     41.4208E-03         1.45786    -329.568E-03    -536.857E-03    -473.388E-03         1.39452    -329.701E-03     269.946E-03     591.932E-03    -295.454E-03    -296.257E-03    -295.519E-03     591.927E-03    -296.188E-03    -3.64029E-03    -92.2704E+06    -93.0292E+06    -113.385E+06    -93.8378E+06    -112.164E+06    -92.6831E+06    -669.897E+03         67.8756
             818     12.6633E-03     40.1636E-03         1.40282    -403.124E-03    -408.917E-03    -403.952E-03         1.40280    -408.068E-03    -8.91331E-03     590.248E-03    -295.052E-03    -296.785E-03    -294.080E-03     587.658E-03    -295.167E-03     95.3551E-03     66.2907E+06     34.2082E+06    -5.31239E+06    -5.02301E+06     33.9189E+06     66.2907E+06     1.33746E+06         81.7440
             819     11.9212E-03     39.9844E-03         1.40249    -401.733E-03    -409.900E-03    -403.488E-03         1.40248    -408.144E-03     832.132E-06     590.747E-03    -295.072E-03    -296.890E-03    -294.355E-03     588.502E-03    -295.363E-03     87.6729E-03     63.7303E+06     32.4748E+06    -8.30852E+06    -8.19432E+06     32.3606E+06     63.7303E+06    -442.696E+03         78.6317
             820     11.1714E-03     39.8691E-03         1.40813    -404.900E-03    -412.080E-03    -408.819E-03         1.40812    -408.147E-03     5.11533E-03     589.753E-03    -294.742E-03    -295.301E-03    -293.483E-03     588.413E-03    -295.220E-03     68.7270E-03     61.7812E+06     28.7918E+06    -12.7906E+06    -12.7668E+06     28.7680E+06     61.7812E+06    -317.034E+03         75.2715
             821     10.4243E-03     39.7632E-03         1.41044    -406.551E-03    -412.498E-03    -411.077E-03         1.41042    -407.950E-03    -2.03129E-03     589.232E-03    -293.425E-03    -294.755E-03    -292.410E-03     588.214E-03    -294.751E-03     59.5769E-03     59.2177E+06     25.4540E+06    -18.0754E+06    -18.0346E+06     25.4132E+06     59.2177E+06     135.372E+03         72.5975
             822     9.67876E-03     39.6803E-03         1.40808    -404.295E-03    -413.568E-03    -410.167E-03         1.40807    -407.683E-03    -4.62675E-03     587.675E-03    -292.707E-03    -294.304E-03    -292.029E-03     586.997E-03    -294.304E-03     48.6101E-03     54.0836E+06     20.3800E+06    -23.8508E+06    -23.7830E+06     20.3122E+06     54.0836E+06     125.017E+03         70.8931
             823     8.93230E-03     39.6105E-03         1.40487    -401.656E-03    -413.442E-03    -407.574E-03         1.40484    -407.496E-03    -2.93227E-03     586.311E-03    -292.760E-03    -293.941E-03    -292.318E-03     585.869E-03    -293.941E-03     39.0738E-03     45.4561E+06     13.2886E+06    -30.3700E+06    -30.3273E+06     13.2459E+06     45.4561E+06     93.6734E+03         69.9709
             824     8.18685E-03     39.5632E-03         1.40308    -402.139E-03    -411.465E-03    -405.998E-03         1.40292    -407.448E-03    -19.9718E-03     588.321E-03    -293.494E-03    -295.464E-03    -293.235E-03     588.061E-03    -295.464E-03     29.9577E-03     35.2785E+06     6.18016E+06    -36.5108E+06    -36.5024E+06     6.17176E+06     35.2785E+06    -3.22026E+03         69.4824
             825     7.44153E-03     39.5268E-03         1.40016    -401.909E-03    -409.210E-03    -403.323E-03         1.39999    -407.625E-03    -9.59553E-03     588.902E-03    -294.352E-03    -296.594E-03    -294.216E-03     588.766E-03    -296.594E-03     21.4907E-03     24.1136E+06    -928.257E+03    -42.7978E+06    -42.7918E+06    -934.271E+03     24.1136E+06    -27.7288E+03         69.1497
             826     6.69761E-03     39.5048E-03         1.39975    -401.894E-03    -408.841E-03    -402.611E-03         1.39970    -408.072E-03     12.7642E-03     588.277E-03    -294.604E-03    -296.519E-03    -294.549E-03     588.222E-03    -296.519E-03     13.3112E-03     12.1440E+06    -9.36375E+06    -49.9854E+06    -49.9403E+06    -9.40881E+06     12.1440E+06     4.63470E+03         68.8652
             827     5.95300E-03     39.4907E-03         1.40655    -405.775E-03    -412.234E-03    -409.645E-03         1.40644    -408.253E-03    -12.4391E-03     590.853E-03    -294.442E-03    -296.288E-03    -294.428E-03     590.839E-03    -296.288E-03     6.12475E-03    -162.082E+03    -18.7346E+06    -57.4749E+06    -57.3803E+06    -18.8292E+06    -162.082E+03    -33.7632E+03         68.6625
             828     5.20873E-03     39.4920E-03         1.41238    -407.599E-03    -416.014E-03    -415.480E-03         1.41184    -407.599E-03     21.5488E-03     591.238E-03    -294.546E-03    -295.889E-03    -294.543E-03     591.235E-03    -295.889E-03    -189.540E-06    -13.0518E+06    -27.9138E+06    -64.3360E+06    -64.2824E+06    -27.9675E+06    -13.0518E+06    -277.871E+03         68.5479
             829     4.46440E-03     39.5024E-03         1.41082    -406.410E-03    -415.600E-03    -414.193E-03         1.40941    -406.410E-03    -19.1894E-03     590.130E-03    -295.219E-03    -296.116E-03    -295.210E-03     590.122E-03    -296.116E-03    -5.11250E-03    -28.0916E+06    -37.7564E+06    -71.4287E+06    -71.3395E+06    -37.8456E+06    -28.0916E+06    -360.577E+03         68.4081
             830     3.71992E-03     39.5226E-03         1.40473    -403.692E-03    -413.947E-03    -409.417E-03         1.40191    -405.409E-03     20.9155E-03     590.652E-03    -295.175E-03    -296.007E-03    -295.156E-03     590.634E-03    -296.007E-03    -8.05618E-03    -45.6094E+06    -49.6560E+06    -79.3520E+06    -79.2613E+06    -49.7468E+06    -45.6094E+06    -20.5800E+03         68.2126
             831     2.97599E-03     39.5454E-03         1.39872    -401.453E-03    -410.285E-03    -400.273E-03         1.39299    -405.733E-03    -37.9246E-03     591.325E-03    -295.495E-03    -296.192E-03    -295.471E-03     591.301E-03    -296.192E-03    -9.28241E-03    -61.3045E+06    -62.9763E+06    -85.4343E+06    -85.4141E+06    -61.9560E+06    -62.3450E+06     184.249E+03         68.0627
             832     2.23258E-03     39.5684E-03         1.40720    -405.475E-03    -413.577E-03    -398.209E-03         1.39443    -408.071E-03     61.1234E-03     591.698E-03    -295.638E-03    -296.596E-03    -295.614E-03     591.674E-03    -296.596E-03    -9.15580E-03    -76.2280E+06    -78.2018E+06    -90.3547E+06    -89.8367E+06    -77.6792E+06    -77.2686E+06    -541.752E+03         67.9943
             833     1.48722E-03     39.5909E-03         1.43290    -411.280E-03    -432.488E-03    -404.899E-03         1.40534    -411.314E-03    -82.6672E-03     592.308E-03    -295.816E-03    -296.499E-03    -295.849E-03     592.292E-03    -296.451E-03    -7.39914E-03    -88.9491E+06    -90.1411E+06    -97.7094E+06    -93.4885E+06    -94.1032E+06    -89.2079E+06    -512.926E+03         67.9529
             834     743.299E-06     39.6018E-03         1.52258    -338.601E-03    -592.341E-03    -487.105E-03         1.41734    -338.601E-03     346.616E-03     592.444E-03    -295.756E-03    -296.604E-03    -296.138E-03     592.438E-03    -296.215E-03    -4.28082E-03    -93.0929E+06    -94.7672E+06    -112.182E+06    -94.3657E+06    -110.909E+06    -94.7672E+06    -477.801E+03         67.9172
             835     12.6656E-03     38.3542E-03         1.40546    -402.578E-03    -410.673E-03    -407.213E-03         1.40538    -405.964E-03    -16.8939E-03     589.639E-03    -295.164E-03    -296.227E-03    -293.601E-03     587.025E-03    -295.175E-03     95.5976E-03     68.4431E+06     35.0981E+06    -3.80179E+06    -3.50698E+06     34.8033E+06     68.4431E+06     1.04559E+06         81.7896
             836     11.9204E-03     38.1816E-03         1.40128    -399.706E-03    -409.365E-03    -403.243E-03         1.40127    -405.820E-03    -3.02177E-03     589.501E-03    -294.656E-03    -296.114E-03    -293.068E-03     587.148E-03    -295.349E-03     89.8108E-03     64.2994E+06     31.5576E+06    -8.16586E+06    -8.10529E+06     31.4970E+06     64.2994E+06    -1.39722E+06         78.6675
             837     11.1690E-03     38.0658E-03         1.39845    -400.269E-03    -405.882E-03    -400.257E-03         1.39844    -405.882E-03    -638.732E-06     589.353E-03    -294.192E-03    -295.299E-03    -292.762E-03     587.923E-03    -295.299E-03     70.9413E-03     61.1221E+06     28.3767E+06    -13.1434E+06    -13.1253E+06     28.3587E+06     61.1221E+06    -76.1607E+03         75.2950
             838     10.4231E-03     37.9597E-03         1.40212    -402.072E-03    -408.310E-03    -404.428E-03         1.40210    -405.939E-03    -4.71076E-03     589.323E-03    -293.331E-03    -294.880E-03    -292.262E-03     588.254E-03    -294.880E-03     61.0448E-03     58.0561E+06     24.6748E+06    -18.6611E+06    -18.6045E+06     24.6182E+06     58.0561E+06     530.278E+03         72.6112
             839     9.67746E-03     37.8752E-03         1.40753    -404.387E-03    -411.570E-03    -410.260E-03         1.40751    -405.685E-03    -8.65414E-03     587.698E-03    -292.652E-03    -294.427E-03    -291.943E-03     586.988E-03    -294.427E-03     49.7392E-03     53.5605E+06     19.6105E+06    -24.3995E+06    -24.2856E+06     19.4967E+06     53.5605E+06     81.5448E+03         70.8971
             840     8.93067E-03     37.8077E-03         1.40785    -404.868E-03    -411.588E-03    -411.264E-03         1.40784    -405.184E-03     1.73950E-03     586.299E-03    -292.452E-03    -294.113E-03    -291.987E-03     585.833E-03    -294.113E-03     40.1501E-03     45.9539E+06     13.5232E+06    -29.9298E+06    -29.8593E+06     13.4527E+06     45.9539E+06    -159.534E+03         69.9699
             841     8.18484E-03     37.7542E-03         1.40598    -404.625E-03    -410.743E-03    -410.712E-03         1.40595    -404.625E-03    -3.07463E-03     588.349E-03    -293.324E-03    -295.705E-03    -293.049E-03     588.075E-03    -295.705E-03     30.7768E-03     35.0108E+06     6.12270E+06    -36.3938E+06    -36.3861E+06     6.11498E+06     35.0108E+06    -331.883E+03         69.4803
             842     7.43972E-03     37.7204E-03         1.40390    -400.810E-03    -413.483E-03    -410.212E-03         1.40384    -404.021E-03     170.846E-06     589.158E-03    -294.403E-03    -296.850E-03    -294.258E-03     589.013E-03    -296.850E-03     22.2669E-03     23.9179E+06    -1.30575E+06    -43.0520E+06    -43.0369E+06    -1.32083E+06     23.9179E+06    -65.0775E+03         69.1475
             843     6.69479E-03     37.6968E-03         1.39958    -397.773E-03    -413.163E-03    -407.420E-03         1.39952    -403.461E-03     15.1012E-03     588.701E-03    -294.683E-03    -296.838E-03    -294.621E-03     588.639E-03    -296.838E-03     14.2333E-03     12.1161E+06    -9.32253E+06    -49.7607E+06    -49.6999E+06    -9.38329E+06     12.1161E+06     251.952E+03         68.8676
             844     5.95068E-03     37.6823E-03         1.39437    -398.357E-03    -406.959E-03    -401.858E-03         1.39421    -403.300E-03    -15.0109E-03     591.359E-03    -294.565E-03    -296.688E-03    -294.547E-03     591.342E-03    -296.688E-03     7.11864E-03     25.9541E+03    -18.3029E+06    -56.7608E+06    -56.6499E+06    -18.4138E+06     25.9541E+03     14.6919E+03         68.6756
             845     5.20700E-03     37.6826E-03         1.39366    -396.408E-03    -408.064E-03    -400.207E-03         1.39302    -403.629E-03     19.9041E-03     591.770E-03    -294.793E-03    -296.231E-03    -294.790E-03     591.767E-03    -296.231E-03     1.19246E-03    -12.2415E+06    -27.6707E+06    -64.1345E+06    -64.0688E+06    -27.7364E+06    -12.2415E+06    -69.4887E+03         68.5763
             846     4.46366E-03     37.6943E-03         1.39637    -395.686E-03    -411.801E-03    -401.891E-03         1.39484    -404.060E-03    -18.4766E-03     590.776E-03    -295.696E-03    -296.446E-03    -295.690E-03     590.770E-03    -296.446E-03    -3.79921E-03    -27.9024E+06    -38.5736E+06    -72.3646E+06    -72.3208E+06    -38.6175E+06    -27.9024E+06     111.931E+03         68.4539
             847     3.71892E-03     37.7142E-03         1.40024    -398.937E-03    -412.463E-03    -403.832E-03         1.39694    -404.271E-03     29.4173E-03     591.242E-03    -295.517E-03    -296.397E-03    -295.501E-03     591.226E-03    -296.397E-03    -7.26345E-03    -45.5347E+06     -49.863E+06    -79.5159E+06    -79.4757E+06    -49.9032E+06    -45.5347E+06     244.430E+03         68.2747
             848     2.97493E-03     37.7340E-03         1.40706    -399.751E-03    -418.603E-03    -407.155E-03         1.39977    -403.903E-03    -44.5760E-03     591.812E-03    -295.595E-03    -296.634E-03    -295.573E-03     591.790E-03    -296.634E-03    -8.87830E-03    -61.1955E+06    -62.3053E+06    -84.9456E+06    -84.9207E+06    -61.6225E+06    -61.9033E+06     153.926E+03         68.1323
             849     2.23069E-03     37.7615E-03         1.41581    -400.156E-03    -426.771E-03    -408.433E-03         1.39991    -402.592E-03     64.6204E-03     592.693E-03    -296.251E-03    -297.016E-03    -296.230E-03     592.672E-03    -297.016E-03    -8.68907E-03    -76.3622E+06    -78.0919E+06    -90.5672E+06    -90.4286E+06    -77.5227E+06    -77.0700E+06     459.910E+03         68.0619
             850     1.48832E-03     37.7816E-03         1.42797    -402.103E-03    -438.890E-03    -400.763E-03         1.38984    -402.103E-03    -115.103E-03     593.342E-03    -296.486E-03    -296.894E-03    -296.607E-03     593.327E-03    -296.758E-03    -6.99326E-03    -89.4555E+06    -90.6096E+06    -98.3647E+06    -94.5514E+06    -94.4136E+06    -89.4648E+06     174.792E+03         68.0145
             851     744.156E-06     37.7951E-03         1.55347    -351.719E-03    -611.952E-03    -453.381E-03         1.39489    -351.719E-03     439.470E-03     592.901E-03    -295.861E-03    -296.788E-03    -296.760E-03     592.895E-03    -295.883E-03    -4.31154E-03    -94.5867E+06    -97.2833E+06    -111.811E+06    -96.8326E+06    -111.000E+06    -95.8482E+06     733.493E+03         67.9708
             852     12.6668E-03     36.5588E-03         1.40563    -404.597E-03    -410.997E-03    -410.925E-03         1.40556    -404.597E-03    -9.77928E-03     588.299E-03    -294.860E-03    -295.346E-03    -292.307E-03     585.601E-03    -295.202E-03     96.8996E-03      68.375E+06     34.9594E+06    -3.21529E+06    -3.10714E+06     34.8512E+06      68.375E+06     787.290E+03         81.8254
             853     11.9177E-03     36.3782E-03         1.40692    -404.012E-03    -413.105E-03    -413.050E-03         1.40690    -404.053E-03     318.373E-06     588.711E-03    -294.363E-03    -295.444E-03    -291.970E-03     586.293E-03    -295.419E-03     90.7304E-03     63.1108E+06     31.4562E+06    -7.96768E+06    -7.92145E+06     31.4100E+06     63.1108E+06     194.265E+03         78.6977
             854     11.1674E-03     36.2631E-03         1.40351    -401.168E-03    -410.741E-03    -408.351E-03         1.40348    -403.534E-03     3.87111E-03     589.237E-03    -293.722E-03    -295.453E-03    -292.298E-03     587.812E-03    -295.453E-03     70.7956E-03     61.1195E+06     28.2724E+06    -13.4750E+06    -13.4617E+06     28.2590E+06     61.1195E+06     217.676E+03         75.3157
             855     10.4209E-03     36.1536E-03         1.39765    -399.900E-03    -406.861E-03    -403.471E-03         1.39762    -403.265E-03     2.35196E-03     589.282E-03    -293.016E-03    -295.128E-03    -291.938E-03     588.204E-03    -295.128E-03     61.3260E-03     58.6104E+06     24.5424E+06    -18.7668E+06    -18.7091E+06     24.4847E+06     58.6104E+06     499.026E+03         72.6262
             856     9.67449E-03     36.0710E-03         1.39544    -400.698E-03    -403.241E-03    -400.686E-03         1.39543    -403.241E-03    -3.57700E-03     588.015E-03    -292.463E-03    -294.694E-03    -291.730E-03     587.282E-03    -294.694E-03     50.5921E-03     53.3736E+06     19.6488E+06    -24.0916E+06    -23.9880E+06     19.5451E+06     53.3736E+06    -94.5812E+03         70.9151
             857     8.92846E-03     36.0032E-03         1.39874    -401.739E-03    -404.676E-03    -403.148E-03         1.39871    -403.242E-03    -1.98722E-03     586.836E-03    -292.564E-03    -294.373E-03    -292.069E-03     586.342E-03    -294.373E-03     41.3904E-03     44.6125E+06     13.1633E+06    -30.2796E+06    -30.2062E+06     13.0899E+06     44.6125E+06    -573.538E+03         69.9914
             858     8.18353E-03     35.9487E-03         1.40321    -402.882E-03    -409.150E-03    -409.105E-03         1.40316    -402.882E-03    -10.1972E-03     588.476E-03    -293.335E-03    -295.954E-03    -293.037E-03     588.178E-03    -295.954E-03     32.1006E-03     34.0314E+06     6.09674E+06    -36.5708E+06    -36.5381E+06     6.06406E+06     34.0314E+06    -107.698E+03         69.4951
             859     7.43769E-03     35.9124E-03         1.40672    -401.926E-03    -414.161E-03    -414.136E-03         1.40669    -401.926E-03    -6.36725E-03     589.003E-03    -294.162E-03    -297.114E-03    -294.001E-03     588.843E-03    -297.114E-03     23.4099E-03     22.8361E+06    -1.77944E+06    -43.3408E+06    -43.2986E+06    -1.82159E+06     22.8361E+06     100.864E+03         69.1539
             860     6.69275E-03     35.8870E-03         1.40264    -400.586E-03    -411.549E-03    -411.452E-03         1.40263    -400.681E-03     3.49794E-03     588.733E-03    -294.430E-03    -297.205E-03    -294.360E-03     588.663E-03    -297.205E-03     15.2200E-03     12.0258E+06    -9.73956E+06    -50.3023E+06    -50.2243E+06    -9.81750E+06     12.0258E+06    -56.0573E+03         68.8745
             861     5.94851E-03     35.8712E-03         1.39249    -397.390E-03    -404.554E-03    -401.899E-03         1.39239    -399.949E-03    -13.4878E-03     591.511E-03    -294.411E-03    -297.226E-03    -294.390E-03     591.490E-03    -297.226E-03     8.03979E-03     1.17544E+06    -18.1819E+06    -57.2618E+06    -57.1777E+06    -18.2660E+06     1.17544E+06     337.410E+03         68.6915
             862     5.20430E-03     35.8734E-03         1.38482    -393.061E-03    -401.777E-03    -393.966E-03         1.38423    -400.281E-03     25.1459E-03     592.103E-03    -294.763E-03    -296.770E-03    -294.760E-03     592.100E-03    -296.770E-03     2.24422E-03    -12.6559E+06    -28.0899E+06    -64.6503E+06    -64.6129E+06    -28.1272E+06    -12.6559E+06     526.466E+03         68.6097
             863     4.45955E-03     35.8834E-03         1.38459    -393.128E-03    -402.554E-03    -392.557E-03         1.38297    -401.502E-03    -21.3181E-03     591.603E-03    -295.991E-03    -296.984E-03    -295.989E-03     591.600E-03    -296.984E-03    -2.42123E-03    -28.2465E+06    -38.3341E+06    -71.5952E+06    -71.5634E+06    -38.3660E+06    -28.2465E+06     283.867E+03         68.5112
             864     3.71714E-03     35.9028E-03         1.39874    -398.786E-03    -409.174E-03    -401.402E-03         1.39459    -402.403E-03     39.9303E-03     592.427E-03    -296.209E-03    -296.992E-03    -296.198E-03     592.416E-03    -296.992E-03    -5.99490E-03    -44.5841E+06    -48.9783E+06    -78.3720E+06    -78.3415E+06    -49.0089E+06    -44.5841E+06     39.7055E+03         68.3559
             865     2.97351E-03     35.9276E-03         1.41172    -401.692E-03    -418.446E-03    -408.652E-03         1.40192    -401.692E-03    -53.6344E-03     592.896E-03    -296.222E-03    -297.232E-03    -296.205E-03     592.878E-03    -297.232E-03    -7.85747E-03    -61.7372E+06    -63.1908E+06    -85.8640E+06    -85.8444E+06    -62.4778E+06    -62.4697E+06     196.045E+03         68.2271
             866     2.22995E-03     35.9506E-03         1.41832    -400.033E-03    -426.497E-03    -404.750E-03         1.39658    -400.033E-03     74.9758E-03     593.757E-03    -296.654E-03    -297.593E-03    -296.636E-03     593.738E-03    -297.593E-03    -8.04429E-03    -76.2461E+06    -78.4736E+06    -90.8523E+06    -90.7419E+06    -77.8515E+06    -76.9786E+06     547.713E+03         68.1577
             867     1.48617E-03     35.9720E-03         1.43975    -397.853E-03    -453.762E-03    -403.090E-03         1.38908    -397.853E-03    -132.483E-03     594.435E-03    -296.918E-03    -297.471E-03    -297.042E-03     594.423E-03    -297.335E-03    -6.37853E-03    -87.9850E+06    -90.5159E+06    -96.9693E+06    -94.0159E+06    -93.4693E+06    -87.9850E+06     703.862E+03         68.1062
             868     743.827E-06     35.9872E-03         1.60160    -378.752E-03    -636.215E-03    -414.147E-03         1.37953    -378.752E-03     532.228E-03     594.070E-03    -296.589E-03    -297.344E-03    -297.150E-03     594.067E-03    -296.779E-03    -3.00833E-03    -93.4852E+06    -97.3327E+06    -110.173E+06    -96.0909E+06    -109.915E+06    -94.9846E+06     555.874E+03         68.0569
             869     12.6638E-03     34.7574E-03         1.39879    -402.954E-03    -406.317E-03    -405.729E-03         1.39873    -403.480E-03    -3.56157E-03     588.224E-03    -294.562E-03    -295.407E-03    -292.064E-03     585.501E-03    -295.181E-03     97.3693E-03     67.8994E+06     34.6703E+06    -4.29394E+06    -4.24853E+06     34.6249E+06     67.8994E+06     45.1442E+03         81.8540
             870     11.9181E-03     34.5796E-03         1.40241    -403.084E-03    -410.196E-03    -410.171E-03         1.40238    -403.084E-03     4.12594E-03     588.724E-03    -293.934E-03    -295.769E-03    -291.724E-03     586.288E-03    -295.543E-03     91.0899E-03     64.3036E+06     32.0683E+06    -8.52379E+06    -8.47308E+06     32.0176E+06     64.3036E+06     916.541E+03         78.7264
             871     11.1665E-03     34.4553E-03         1.40503    -402.466E-03    -412.084E-03    -412.064E-03         1.40501    -402.466E-03     468.952E-06     588.334E-03    -292.703E-03    -295.715E-03    -291.252E-03     586.883E-03    -295.715E-03     71.3718E-03     61.5781E+06     28.4937E+06    -12.9951E+06    -12.9576E+06     28.4562E+06     61.5781E+06     485.034E+03         75.3312
             872     10.4191E-03     34.3491E-03         1.40340    -401.704E-03    -411.286E-03    -411.207E-03         1.40338    -401.761E-03    -1.02858E-03     588.596E-03    -292.157E-03    -295.456E-03    -291.039E-03     587.478E-03    -295.456E-03     62.4248E-03     58.6397E+06     25.1251E+06    -18.0006E+06    -17.9518E+06     25.0763E+06     58.6397E+06    -130.268E+03         72.6288
             873     9.67183E-03     34.2623E-03         1.39870    -399.904E-03    -408.198E-03    -406.940E-03         1.39869    -401.149E-03    -2.80610E-03     588.137E-03    -292.116E-03    -295.087E-03    -291.340E-03     587.361E-03    -295.087E-03     52.0671E-03     52.8568E+06     19.9187E+06    -23.9579E+06    -23.8927E+06     19.8535E+06     52.8568E+06    -226.669E+03         70.9179
             874     8.92627E-03     34.1928E-03         1.39361    -398.455E-03    -404.026E-03    -401.620E-03         1.39357    -400.826E-03     1.87092E-03     587.257E-03    -292.553E-03    -294.753E-03    -292.019E-03     586.724E-03    -294.753E-03     43.0352E-03     44.1988E+06     13.3898E+06    -30.1723E+06    -30.0615E+06     13.2791E+06     44.1988E+06     252.182E+03         69.9971
             875     8.17978E-03     34.1431E-03         1.39111    -395.507E-03    -404.958E-03    -399.639E-03         1.39107    -400.791E-03     1.93256E-03     588.859E-03    -293.358E-03    -296.311E-03    -293.030E-03     588.530E-03    -296.311E-03     33.7146E-03     33.6519E+06     5.97490E+06    -36.7748E+06    -36.6778E+06     5.87791E+06     33.6519E+06     373.871E+03         69.5017
             876     7.43528E-03     34.1026E-03         1.38898    -392.833E-03    -405.384E-03    -397.164E-03         1.38895    -401.027E-03     9.30854E-03     589.122E-03    -293.888E-03    -297.461E-03    -293.706E-03     588.940E-03    -297.461E-03     25.0321E-03     22.8646E+06    -1.65353E+06    -43.4354E+06    -43.3497E+06    -1.73920E+06     22.8646E+06     256.847E+03         69.1663
             877     6.68945E-03     34.0756E-03         1.39141    -397.221E-03    -402.737E-03    -398.485E-03         1.39134    -401.408E-03     16.6784E-03     588.596E-03    -294.052E-03    -297.673E-03    -293.965E-03     588.508E-03    -297.673E-03     17.0688E-03     11.7824E+06    -9.98691E+06    -50.5232E+06    -50.4058E+06    -10.1044E+06     11.7824E+06     246.400E+03         68.8969
             878     5.94523E-03     34.0578E-03         1.39924    -401.173E-03    -406.715E-03    -406.512E-03         1.39913    -401.268E-03    -4.32984E-03     591.803E-03    -294.323E-03    -297.868E-03    -294.293E-03     591.773E-03    -297.868E-03     9.66347E-03     169.621E+03    -18.8113E+06    -57.6213E+06    -57.5539E+06    -18.8787E+06     169.621E+03    -1.92684E+03         68.7254
             879     5.20062E-03     34.0599E-03         1.40322    -400.123E-03    -412.150E-03    -411.629E-03         1.40270    -400.123E-03     25.9936E-03     593.014E-03    -294.956E-03    -297.358E-03    -294.951E-03     593.008E-03    -297.358E-03     3.04869E-03    -12.6325E+06    -27.7980E+06    -64.3305E+06    -64.3130E+06    -27.8156E+06    -12.6325E+06    -68.4887E+03         68.6600
             880     4.45753E-03     34.0683E-03         1.39951    -398.405E-03    -410.688E-03    -409.213E-03         1.39803    -398.405E-03    -20.0486E-03     592.315E-03    -296.070E-03    -297.600E-03    -296.068E-03     592.313E-03    -297.600E-03    -1.94027E-03    -27.8208E+06    -38.2657E+06    -71.8180E+06    -71.7949E+06    -38.2887E+06    -27.8208E+06     223.844E+03         68.5813
             881     3.71323E-03     34.0871E-03         1.39036    -394.643E-03    -404.510E-03    -397.014E-03         1.38581    -397.588E-03     51.0352E-03     593.389E-03    -296.601E-03    -297.802E-03    -296.593E-03     593.381E-03    -297.802E-03    -5.13286E-03    -44.5030E+06    -49.4027E+06    -79.2386E+06    -79.2077E+06    -49.4336E+06    -44.5030E+06     519.529E+03         68.4478
             882     2.97089E-03     34.1118E-03         1.39105    -395.958E-03    -403.711E-03    -389.174E-03         1.37946    -398.902E-03    -57.9760E-03     594.540E-03    -297.194E-03    -298.057E-03    -297.180E-03     594.527E-03    -298.057E-03    -6.85999E-03    -60.5484E+06    -62.0568E+06    -84.8619E+06    -84.8401E+06    -61.5553E+06    -61.0717E+06     328.744E+03         68.3365
             883     2.22841E-03     34.1368E-03         1.41448    -400.926E-03    -421.685E-03    -396.348E-03         1.38915    -400.926E-03     81.8251E-03     595.251E-03    -297.281E-03    -298.322E-03    -297.267E-03     595.237E-03    -298.322E-03    -7.17212E-03    -76.0008E+06    -77.9154E+06    -90.5289E+06    -90.3802E+06    -77.5408E+06    -76.5241E+06     23.5018E+03         68.2733
             884     1.48555E-03     34.1592E-03         1.45926    -401.841E-03    -467.950E-03    -401.407E-03         1.39272    -401.841E-03    -177.373E-03     595.750E-03    -297.386E-03    -298.165E-03    -297.504E-03     595.739E-03    -298.036E-03    -6.26655E-03    -87.5602E+06    -90.3719E+06    -97.3247E+06    -94.0982E+06    -93.5985E+06    -87.5602E+06     217.348E+03         68.2222
             885     741.448E-06     34.1736E-03         1.67158    -428.750E-03    -652.968E-03    -375.098E-03         1.39371    -428.750E-03     575.230E-03     595.397E-03    -297.281E-03    -298.050E-03    -297.855E-03     595.392E-03    -297.472E-03    -3.77081E-03    -93.3842E+06    -97.7197E+06    -108.206E+06    -96.4838E+06    -107.943E+06    -94.8836E+06     1.09579E+06         68.1723
             886     12.6637E-03     32.9559E-03         1.39736    -400.983E-03    -405.211E-03    -404.597E-03         1.39727    -401.509E-03    -11.4372E-03     587.736E-03    -294.006E-03    -295.406E-03    -291.458E-03     584.988E-03    -295.205E-03     97.6225E-03     68.1760E+06     34.2935E+06    -4.38893E+06    -4.37951E+06     34.2841E+06     68.1760E+06     53.4311E+03         81.8658
             887     11.9167E-03     32.7779E-03         1.39458    -400.712E-03    -403.701E-03    -403.261E-03         1.39454    -401.112E-03    -4.71054E-03     588.089E-03    -293.240E-03    -295.877E-03    -290.892E-03     585.540E-03    -295.676E-03     93.3000E-03     64.1111E+06     31.4415E+06    -8.79954E+06    -8.73870E+06     31.3806E+06     64.1111E+06    -121.360E+03         78.7311
             888     11.1644E-03     32.6589E-03         1.39363    -400.047E-03    -403.199E-03    -402.418E-03         1.39359    -400.787E-03    -6.12585E-03     587.648E-03    -291.937E-03    -295.943E-03    -290.366E-03     586.076E-03    -295.943E-03     74.2118E-03     61.8848E+06     28.3896E+06    -13.0173E+06    -12.9458E+06     28.3181E+06     61.8848E+06    -234.437E+03         75.3298
             889     10.4159E-03     32.5489E-03         1.39637    -399.503E-03    -406.343E-03    -405.374E-03         1.39632    -400.414E-03    -7.79311E-03     588.395E-03    -291.714E-03    -295.697E-03    -290.515E-03     587.196E-03    -295.697E-03     64.5692E-03     58.1494E+06     25.1628E+06    -18.1921E+06    -18.1595E+06     25.1302E+06     58.1494E+06     15.9771E+03         72.6230
             890     9.66930E-03     32.4611E-03         1.39675    -399.286E-03    -408.178E-03    -407.558E-03         1.39670    -399.857E-03    -10.4776E-03     588.095E-03    -291.895E-03    -295.382E-03    -291.075E-03     587.275E-03    -295.382E-03     53.5101E-03     52.1107E+06     19.9220E+06    -24.2698E+06    -24.1537E+06     19.8060E+06     52.1107E+06     544.694E+03         70.9095
             891     8.92197E-03     32.3912E-03         1.39309    -398.175E-03    -404.483E-03    -403.247E-03         1.39304    -399.359E-03    -2.38547E-03     587.354E-03    -292.336E-03    -295.169E-03    -291.770E-03     586.788E-03    -295.169E-03     44.3824E-03     44.4795E+06     13.5558E+06    -30.6523E+06    -30.4525E+06     13.3559E+06     44.4795E+06     574.761E+03         69.9883
             892     8.17695E-03     32.3349E-03         1.38653    -393.998E-03    -401.998E-03    -396.602E-03         1.38642    -399.283E-03    -10.9264E-03     589.192E-03    -293.148E-03    -296.809E-03    -292.793E-03     588.836E-03    -296.809E-03     35.0865E-03     34.4820E+06     6.21081E+06    -37.2353E+06    -37.0758E+06     6.05126E+06     34.4820E+06     516.243E+03         69.5000
             893     7.43090E-03     32.2964E-03         1.38396    -391.499E-03    -401.154E-03    -392.842E-03         1.38385    -399.693E-03    -9.26197E-03     589.494E-03    -293.619E-03    -297.962E-03    -293.416E-03     589.291E-03    -297.962E-03     26.4906E-03     23.2879E+06    -1.58022E+06    -43.6583E+06    -43.5183E+06    -1.72023E+06     23.2879E+06     482.117E+03         69.1843
             894     6.68603E-03     32.2676E-03         1.38764    -394.703E-03    -400.793E-03    -395.128E-03         1.38753    -400.256E-03     2.17009E-03     588.761E-03    -293.857E-03    -298.230E-03    -293.754E-03     588.658E-03    -298.230E-03     18.5839E-03     11.5343E+06    -9.68070E+06    -49.9880E+06    -49.8441E+06    -9.82458E+06     11.5343E+06     165.834E+03         68.9398
             895     5.94105E-03     32.2516E-03         1.39333    -397.596E-03    -404.716E-03    -401.766E-03         1.39319    -400.405E-03    -13.2688E-03     592.153E-03    -294.289E-03    -298.551E-03    -294.249E-03     592.114E-03    -298.551E-03     11.3199E-03    -478.116E+03    -18.7056E+06    -57.2001E+06    -57.1100E+06    -18.7956E+06    -478.116E+03    -105.981E+03         68.7914
             896     5.19815E-03     32.2457E-03         1.39784    -395.111E-03    -410.454E-03    -405.223E-03         1.39742    -399.922E-03     17.3842E-03     593.964E-03    -295.203E-03    -298.063E-03    -295.193E-03     593.954E-03    -298.063E-03     5.06927E-03    -12.3384E+06    -27.9110E+06    -64.7205E+06    -64.6898E+06    -27.9418E+06    -12.3384E+06    -240.860E+03         68.7421
             897     4.45408E-03     32.2576E-03         1.39630    -394.921E-03    -410.295E-03    -404.629E-03         1.39478    -399.063E-03    -30.4947E-03     593.732E-03    -296.859E-03    -298.294E-03    -296.856E-03     593.730E-03    -298.294E-03    -295.610E-06    -27.3324E+06    -38.3335E+06    -72.2322E+06    -72.2228E+06    -38.3429E+06    -27.3324E+06     18.8955E+03         68.6707
             898     3.71087E-03     32.2756E-03         1.39485    -394.655E-03    -409.454E-03    -401.051E-03         1.39007    -398.282E-03     47.8955E-03     594.699E-03    -297.305E-03    -298.614E-03    -297.298E-03     594.692E-03    -298.614E-03    -4.64860E-03    -44.6557E+06    -49.2583E+06    -78.9267E+06    -78.8656E+06    -49.3195E+06    -44.6557E+06    -159.145E+03         68.5480
             899     2.96830E-03     32.2954E-03         1.39741    -395.203E-03    -411.190E-03    -396.733E-03         1.38590    -398.148E-03    -55.2511E-03     595.556E-03    -297.485E-03    -298.983E-03    -297.471E-03     595.542E-03    -298.983E-03    -7.16311E-03    -60.8057E+06     -61.609E+06    -84.8949E+06    -84.8294E+06    -61.6264E+06    -60.8538E+06    -60.7237E+03         68.4496
             900     2.22582E-03     32.3211E-03         1.41442    -399.192E-03    -424.189E-03    -394.011E-03         1.38424    -399.192E-03     112.940E-03     596.810E-03    -297.908E-03    -299.207E-03    -297.894E-03     596.796E-03    -299.207E-03    -6.99551E-03     -76.156E+06    -76.6276E+06    -90.2994E+06    -89.9998E+06    -76.8791E+06    -76.2041E+06     339.324E+03         68.3924
             901     1.48373E-03     32.3413E-03         1.46818    -401.800E-03    -473.642E-03    -394.830E-03         1.38937    -401.800E-03    -182.465E-03     597.561E-03    -298.202E-03    -299.021E-03    -298.514E-03     597.552E-03    -298.700E-03    -5.47405E-03    -88.4541E+06    -89.4355E+06    -98.0566E+06    -93.9099E+06    -93.5822E+06    -88.4541E+06    -199.968E+03         68.3446
             902     743.269E-06     32.3564E-03         1.72779    -451.253E-03    -683.196E-03    -355.682E-03         1.40027    -451.253E-03     642.301E-03     596.706E-03    -297.896E-03    -299.036E-03    -298.662E-03     596.701E-03    -298.266E-03    -3.06943E-03    -92.5742E+06    -95.5824E+06    -109.153E+06    -95.2522E+06    -108.449E+06    -93.6087E+06     77.8659E+03         68.2956
             903     12.6626E-03     31.1591E-03         1.39828    -400.124E-03    -406.691E-03    -406.616E-03         1.39821    -400.124E-03     171.430E-06     586.316E-03    -292.562E-03    -295.295E-03    -289.736E-03     583.490E-03    -295.295E-03     98.8424E-03     67.2912E+06     34.4662E+06    -3.62978E+06    -3.62179E+06     34.4582E+06     67.2912E+06     198.008E+03         81.8683
             904     11.9125E-03     30.9801E-03         1.39555    -399.378E-03    -405.225E-03    -404.753E-03         1.39548    -399.778E-03     7.51915E-03     587.416E-03    -292.480E-03    -295.853E-03    -289.886E-03     584.823E-03    -295.853E-03     93.9437E-03     62.3453E+06     30.9144E+06    -8.35994E+06    -8.28161E+06     30.8360E+06     62.3453E+06     128.866E+03         78.7254
             905     11.1602E-03     30.8593E-03         1.39326    -398.783E-03    -403.546E-03    -402.728E-03         1.39319    -399.523E-03     10.2303E-03     587.750E-03    -291.710E-03    -296.175E-03    -290.124E-03     586.164E-03    -296.175E-03     74.5659E-03     60.2603E+06     28.1804E+06    -13.7201E+06    -13.5666E+06     28.0269E+06     60.2603E+06    -532.479E+03         75.3212
             906     10.4133E-03     30.7452E-03         1.39129    -398.479E-03    -401.161E-03    -400.162E-03         1.39120    -399.389E-03     5.83375E-03     588.676E-03    -291.454E-03    -295.968E-03    -290.231E-03     587.453E-03    -295.968E-03     65.2383E-03     58.4331E+06     24.5720E+06    -18.9524E+06    -18.8324E+06     24.4520E+06     58.4331E+06    -197.797E+03         72.6122
             907     9.66551E-03     30.6558E-03         1.39220    -398.641E-03    -403.578E-03    -402.958E-03         1.39215    -399.211E-03    -4.27541E-03     588.128E-03    -291.441E-03    -295.645E-03    -290.594E-03     587.282E-03    -295.645E-03     54.3831E-03     53.6990E+06     19.8423E+06    -24.4597E+06    -24.3230E+06     19.7055E+06     53.6990E+06     867.908E+03         70.8932
             908     8.91914E-03     30.5835E-03         1.39473    -398.837E-03    -404.159E-03    -404.114E-03         1.39469    -398.837E-03    -3.77761E-03     587.598E-03    -291.929E-03    -295.529E-03    -291.334E-03     587.002E-03    -295.529E-03     45.5190E-03     45.0241E+06     13.9961E+06    -30.6339E+06    -30.4204E+06     13.7825E+06     45.0241E+06     722.082E+03         69.9687
             909     8.17213E-03     30.5282E-03         1.39863    -398.167E-03    -407.953E-03    -407.829E-03         1.39851    -398.167E-03    -8.59729E-03     589.255E-03    -292.643E-03    -297.351E-03    -292.259E-03     588.872E-03    -297.351E-03     36.5023E-03     34.5685E+06     6.59355E+06    -36.9406E+06    -36.6998E+06     6.35273E+06     34.5685E+06     116.953E+03         69.4890
             910     7.42699E-03     30.4866E-03         1.39867    -397.125E-03    -408.963E-03    -408.818E-03         1.39852    -397.125E-03    -4.06631E-03     589.738E-03    -293.285E-03    -298.589E-03    -293.059E-03     589.512E-03    -298.589E-03     27.9500E-03     23.4157E+06    -1.34605E+06    -43.4311E+06    -43.2210E+06    -1.55608E+06     23.4157E+06     9.16788E+03         69.1986
             911     6.68196E-03     30.4587E-03         1.38978    -394.747E-03    -403.208E-03    -401.644E-03         1.38968    -396.207E-03     1.45713E-03     589.476E-03    -293.864E-03    -298.832E-03    -293.744E-03     589.356E-03    -298.832E-03     20.2536E-03     12.3082E+06    -9.38839E+06    -50.1284E+06    -49.9862E+06    -9.53054E+06     12.3082E+06     273.765E+03         68.9860
             912     5.93747E-03     30.4381E-03         1.37718    -388.012E-03    -398.881E-03    -390.521E-03         1.37704    -396.234E-03    -16.5266E-03     592.528E-03    -294.286E-03    -299.265E-03    -294.233E-03     592.476E-03    -299.265E-03     13.0961E-03     1.02057E+06    -17.9995E+06    -56.9534E+06    -56.8424E+06    -18.1105E+06     1.02057E+06     290.678E+03         68.8695
             913     5.19191E-03     30.4349E-03         1.37130    -380.244E-03    -397.878E-03    -379.712E-03         1.37077    -397.878E-03     19.6384E-03     594.834E-03    -295.507E-03    -298.915E-03    -295.493E-03     594.820E-03    -298.915E-03     6.48060E-03    -13.1930E+06    -28.1672E+06    -64.7454E+06    -64.6878E+06    -28.2247E+06    -13.1930E+06     134.253E+03         68.8411
             914     4.44956E-03     30.4381E-03         1.38104    -388.720E-03    -400.304E-03    -387.101E-03         1.37939    -400.274E-03    -27.7495E-03     595.590E-03    -297.751E-03    -299.063E-03    -297.749E-03     595.588E-03    -299.063E-03     962.415E-06    -28.0797E+06    -37.9991E+06    -71.5405E+06    -71.5194E+06    -38.0202E+06    -28.0797E+06    -212.603E+03         68.7710
             915     3.70879E-03     30.4559E-03         1.39895    -400.115E-03    -407.729E-03    -401.295E-03         1.39377    -401.373E-03     53.7382E-03     596.215E-03    -298.081E-03    -299.498E-03    -298.077E-03     596.211E-03    -299.498E-03    -3.04073E-03    -44.8249E+06    -49.0803E+06    -78.7682E+06    -78.6817E+06    -49.1668E+06    -44.8249E+06    -310.505E+03         68.6524
             916     2.96653E-03     30.4800E-03         1.41258    -400.320E-03    -418.338E-03    -404.504E-03         1.39933    -400.897E-03    -63.1583E-03     596.829E-03    -298.119E-03    -299.955E-03    -298.109E-03     596.820E-03    -299.955E-03    -5.44904E-03    -61.8699E+06    -63.5169E+06    -85.9389E+06    -85.7698E+06    -62.5574E+06    -62.9985E+06    -740.202E+03         68.5682
             917     2.22391E-03     30.4993E-03         1.43063    -399.844E-03    -437.366E-03    -403.218E-03         1.39649    -399.844E-03     118.710E-03     598.614E-03    -298.879E-03    -299.929E-03    -298.905E-03     598.602E-03    -299.891E-03    -6.44718E-03    -75.9462E+06    -78.0406E+06    -90.7509E+06    -90.3111E+06    -77.3518E+06    -77.0748E+06    -599.727E+03         68.5168
             918     1.48253E-03     30.5203E-03         1.48159    -399.468E-03    -486.650E-03    -398.787E-03         1.39373    -399.468E-03    -188.105E-03     598.957E-03    -298.978E-03    -299.544E-03    -299.198E-03     598.948E-03    -299.314E-03    -5.45908E-03    -87.7852E+06    -89.2620E+06    -97.4504E+06    -93.2567E+06    -92.9951E+06    -88.2457E+06    -165.339E+03         68.4669
             919     739.836E-06     30.5348E-03         1.75763    -439.750E-03    -722.059E-03    -359.637E-03         1.39521    -439.750E-03     688.901E-03     598.108E-03    -298.901E-03    -299.735E-03    -299.195E-03     598.104E-03    -299.437E-03    -2.88901E-03    -93.7149E+06    -96.0268E+06    -111.040E+06    -95.3554E+06    -110.217E+06    -95.2100E+06    -806.037E+03         68.4164
             920     12.6600E-03     29.3635E-03         1.39684    -399.083E-03    -404.985E-03    -403.868E-03         1.39674    -400.102E-03    -5.24074E-03     585.713E-03    -291.874E-03    -295.342E-03    -289.108E-03     582.946E-03    -295.342E-03     97.8132E-03     67.1977E+06     34.2264E+06    -3.62728E+06    -3.60376E+06     34.2029E+06     67.1977E+06     489.384E+03         81.8813
             921     11.9121E-03     29.1826E-03         1.39597    -398.639E-03    -404.358E-03    -403.038E-03         1.39591    -399.896E-03     5.81206E-03     587.043E-03    -292.071E-03    -295.961E-03    -289.594E-03     584.566E-03    -295.961E-03     91.6435E-03     62.3534E+06     31.0864E+06    -8.67326E+06    -8.55156E+06     30.9647E+06     62.3534E+06     174.735E+03         78.7348
             922     11.1603E-03     29.0591E-03         1.39598    -399.418E-03    -404.379E-03    -404.084E-03         1.39592    -399.656E-03     6.14819E-03     587.296E-03    -290.948E-03    -296.323E-03    -289.463E-03     585.811E-03    -296.323E-03     72.1121E-03     60.4376E+06     28.8151E+06    -13.5105E+06    -13.1813E+06     28.4859E+06     60.4376E+06     365.692E+03         75.3162
             923     10.4104E-03     28.9463E-03         1.39569    -399.387E-03    -403.020E-03    -402.977E-03         1.39564    -399.387E-03     5.26054E-03     587.940E-03    -290.171E-03    -296.210E-03    -289.004E-03     586.773E-03    -296.210E-03     63.7162E-03     57.8502E+06     24.3208E+06    -19.3692E+06    -19.0313E+06     23.9829E+06     57.8502E+06     247.756E+03         72.5878
             924     9.66308E-03     28.8517E-03         1.39432    -399.086E-03    -403.582E-03    -403.563E-03         1.39430    -399.086E-03    -3.44539E-03     587.307E-03    -290.073E-03    -295.981E-03    -289.234E-03     586.468E-03    -295.981E-03     54.1035E-03     52.9864E+06     19.0918E+06    -25.0288E+06    -24.8873E+06     18.9503E+06     52.9864E+06    -389.841E+03         70.8527
             925     8.91448E-03     28.7791E-03         1.39306    -398.159E-03    -401.494E-03    -400.805E-03         1.39304    -398.833E-03     2.00384E-03     587.121E-03    -290.796E-03    -295.922E-03    -290.186E-03     586.511E-03    -295.922E-03     46.0553E-03     45.2471E+06     13.9499E+06    -30.6653E+06    -30.4474E+06     13.7319E+06     45.2471E+06    -313.615E+03         69.9253
             926     8.16807E-03     28.7171E-03         1.39479    -395.856E-03    -405.641E-03    -402.892E-03         1.39476    -398.571E-03     9.34299E-03     589.018E-03    -291.839E-03    -297.846E-03    -291.428E-03     588.607E-03    -297.846E-03     37.8066E-03     34.8998E+06     7.02289E+06    -36.6314E+06    -36.2707E+06     6.66215E+06     34.8998E+06    -2.94519E+03         69.4612
             927     7.42186E-03     28.6753E-03         1.39560    -395.247E-03    -408.417E-03    -405.552E-03         1.39553    -398.039E-03     6.20647E-03     589.963E-03    -292.840E-03    -299.160E-03    -292.581E-03     589.705E-03    -299.160E-03     29.9388E-03     23.8199E+06    -1.13107E+06    -43.4260E+06    -43.1265E+06    -1.43057E+06     23.8199E+06     30.5879E+03         69.1950
             928     6.67689E-03     28.6456E-03         1.39395    -396.561E-03    -405.533E-03    -404.696E-03         1.39386    -397.313E-03     13.5354E-03     590.532E-03    -293.903E-03    -299.470E-03    -293.758E-03     590.387E-03    -299.470E-03     22.2934E-03     12.8520E+06    -9.23417E+06    -50.0284E+06    -49.8451E+06    -9.41748E+06     12.8520E+06    -11.2258E+03         69.0089
             929     5.93138E-03     28.6271E-03         1.39051    -391.180E-03    -408.026E-03    -402.395E-03         1.39029    -396.591E-03    -13.8244E-03     593.905E-03    -294.837E-03    -299.959E-03    -294.772E-03     593.840E-03    -299.959E-03     14.6514E-03     922.783E+03    -17.8405E+06    -56.7899E+06    -56.6787E+06    -17.9517E+06     922.783E+03     286.703E+03         68.9252
             930     5.18947E-03     28.6180E-03         1.38833    -383.315E-03    -411.441E-03    -397.694E-03         1.38741    -396.138E-03     25.8080E-03     596.202E-03    -296.099E-03    -299.720E-03    -296.078E-03     596.181E-03    -299.720E-03     7.88947E-03    -12.6996E+06    -27.3445E+06    -64.0607E+06    -63.9897E+06    -27.4156E+06    -12.6996E+06     374.174E+03         68.9213
             931     4.44690E-03     28.6195E-03         1.39167    -388.285E-03    -409.616E-03    -399.945E-03         1.38941    -395.697E-03    -22.0692E-03     596.862E-03    -297.686E-03    -299.926E-03    -297.682E-03     596.858E-03    -299.926E-03     2.44802E-03    -29.0878E+06    -38.6667E+06    -72.1742E+06    -72.1422E+06    -38.6988E+06    -29.0878E+06    -75.9731E+03         68.8549
             932     3.70283E-03     28.6357E-03         1.39406    -394.240E-03    -406.262E-03    -400.953E-03         1.38933    -394.817E-03     33.7697E-03     597.770E-03    -298.435E-03    -300.613E-03    -298.434E-03     597.768E-03    -300.613E-03    -1.45228E-03    -45.4497E+06    -49.6421E+06    -78.9393E+06    -78.8908E+06    -49.6907E+06    -45.4497E+06    -119.532E+03         68.7519
             933     2.96141E-03     28.6570E-03         1.40615    -392.725E-03    -416.604E-03    -401.876E-03         1.39200    -393.301E-03    -92.7231E-03     599.199E-03    -299.401E-03    -300.946E-03    -299.397E-03     599.195E-03    -300.946E-03    -3.73267E-03    -60.6093E+06    -62.8295E+06    -84.6059E+06    -84.4222E+06    -61.5386E+06    -62.0838E+06      76.885E+03         68.6996
             934     2.22204E-03     28.6770E-03         1.42631    -389.002E-03    -441.694E-03    -409.826E-03         1.39444    -389.002E-03     78.3684E-03     600.785E-03    -300.122E-03    -300.716E-03    -300.283E-03     600.778E-03    -300.549E-03    -4.78037E-03    -76.1448E+06    -79.3106E+06    -90.5646E+06    -90.0767E+06    -78.3240E+06    -77.6193E+06    -653.955E+03         68.6543
             935     1.48117E-03     28.7010E-03         1.47130    -381.600E-03    -493.222E-03    -398.431E-03         1.37651    -381.600E-03    -250.495E-03     600.633E-03    -300.028E-03    -300.435E-03    -300.263E-03     600.627E-03    -300.194E-03    -4.34697E-03    -87.9657E+06    -91.3013E+06    -97.4644E+06    -94.1188E+06    -94.1863E+06    -88.4262E+06    -394.776E+03         68.5894
             936     741.438E-06     28.7113E-03         1.74201    -389.441E-03    -753.837E-03    -365.946E-03         1.35412    -389.441E-03     679.038E-03     599.813E-03    -299.839E-03    -300.215E-03    -300.046E-03     599.809E-03    -300.005E-03    -2.47839E-03    -93.2698E+06    -96.9317E+06    -111.072E+06    -96.1150E+06    -110.176E+06    -94.9816E+06     467.291E+03         68.5290
             937     12.6615E-03     27.5686E-03         1.40862    -399.443E-03    -414.494E-03    -413.396E-03         1.40854    -400.462E-03    -5.99377E-03     586.514E-03    -292.599E-03    -295.312E-03    -289.935E-03     583.850E-03    -295.312E-03     95.9995E-03     67.9714E+06     34.5612E+06    -4.44901E+06    -4.41845E+06     34.5306E+06     67.9714E+06     156.455E+03         81.9097
             938     11.9133E-03     27.3818E-03         1.40605    -398.494E-03    -412.045E-03    -410.764E-03         1.40603    -399.751E-03    -5.22935E-03     586.600E-03    -291.627E-03    -295.810E-03    -289.230E-03     584.203E-03    -295.810E-03     90.0481E-03     64.2125E+06     31.5280E+06    -8.67462E+06    -8.51478E+06     31.3682E+06     64.2125E+06     394.518E+03         78.7604
             939     11.1604E-03     27.2638E-03         1.40099    -398.831E-03    -407.677E-03    -407.421E-03         1.40098    -399.069E-03    -10.2665E-03     586.025E-03    -289.636E-03    -296.214E-03    -288.206E-03     584.595E-03    -296.214E-03     70.6785E-03     61.5793E+06     28.6231E+06    -13.8905E+06    -13.5351E+06     28.2678E+06     61.5793E+06     689.742E+03         75.3189
             940     10.4112E-03     27.1472E-03         1.39425    -397.522E-03    -402.830E-03    -401.719E-03         1.39420    -398.580E-03    -15.9906E-03     586.508E-03    -288.524E-03    -296.234E-03    -287.381E-03     585.365E-03    -296.234E-03     62.9791E-03     58.3297E+06     25.5238E+06    -18.7098E+06    -18.3452E+06     25.1592E+06     58.3297E+06     590.377E+03         72.5587
             941     9.66159E-03     27.0543E-03         1.38921    -395.924E-03    -399.831E-03    -397.269E-03         1.38916    -398.430E-03    -13.9934E-03     586.153E-03    -288.350E-03    -296.167E-03    -287.514E-03     585.317E-03    -296.167E-03     53.9277E-03     52.1611E+06     19.7780E+06    -24.4193E+06    -24.2100E+06     19.5688E+06     52.1611E+06    -352.974E+03         70.8012
             942     8.91217E-03     26.9746E-03         1.38959    -396.147E-03    -398.755E-03    -396.377E-03         1.38958    -398.515E-03    -919.534E-06     586.289E-03    -289.270E-03    -296.336E-03    -288.657E-03     585.676E-03    -296.336E-03     46.1073E-03     44.0012E+06     13.3341E+06    -30.9411E+06    -30.7104E+06     13.1033E+06     44.0012E+06    -697.151E+03         69.8711
             943     8.16361E-03     26.9152E-03         1.38819    -395.623E-03    -398.715E-03    -395.618E-03         1.38819    -398.715E-03    -1.56503E-03     588.562E-03    -290.676E-03    -298.319E-03    -290.261E-03     588.148E-03    -298.319E-03     37.9639E-03     34.3900E+06     6.53950E+06    -37.5761E+06    -37.0950E+06     6.05833E+06     34.3900E+06    -747.659E+03         69.4208
             944     7.41717E-03     26.8646E-03         1.38809    -395.965E-03    -398.981E-03    -395.945E-03         1.38807    -398.981E-03    -9.06545E-03     589.886E-03    -292.064E-03    -299.656E-03    -291.797E-03     589.619E-03    -299.656E-03     30.4709E-03     23.5677E+06    -1.09538E+06    -43.6246E+06    -43.1775E+06    -1.54243E+06     23.5677E+06    -536.384E+03         69.1695
             945     6.67113E-03     26.8315E-03         1.39500    -398.090E-03    -402.829E-03    -401.955E-03         1.39497    -398.934E-03    -2.05697E-03     591.107E-03    -293.676E-03    -300.131E-03    -293.519E-03     590.950E-03    -300.131E-03     23.2633E-03     11.8097E+06    -9.65093E+06    -50.1901E+06    -49.9793E+06    -9.86171E+06     11.8097E+06    -128.218E+03         68.9996
             946     5.92822E-03     26.8057E-03         1.40637    -397.789E-03    -413.186E-03    -412.922E-03         1.40611    -397.789E-03    -25.9540E-03     594.769E-03    -294.978E-03    -300.632E-03    -294.899E-03     594.689E-03    -300.632E-03     16.4965E-03     129.584E+03    -18.3412E+06    -57.3240E+06    -57.2007E+06    -18.4645E+06     129.584E+03     60.1672E+03         68.9378
             947     5.18434E-03     26.7998E-03         1.40966    -395.265E-03    -417.953E-03    -417.048E-03         1.40875    -395.265E-03     17.4354E-03     597.148E-03    -296.246E-03    -300.533E-03    -296.213E-03     597.114E-03    -300.533E-03     10.4720E-03    -12.4560E+06    -27.5660E+06    -64.5843E+06    -64.5220E+06    -27.6284E+06    -12.4560E+06     378.205E+03         68.9506
             948     4.44067E-03     26.7973E-03         1.39740    -391.342E-03    -409.507E-03    -406.409E-03         1.39551    -392.543E-03    -16.3619E-03     598.372E-03    -298.141E-03    -300.994E-03    -298.132E-03     598.364E-03    -300.994E-03     4.68471E-03    -28.2229E+06    -38.0169E+06    -71.5754E+06    -71.5562E+06    -38.0361E+06    -28.2229E+06     464.722E+03         68.9006
             949     3.69966E-03     26.8114E-03         1.39031    -389.463E-03    -405.241E-03    -397.740E-03         1.38401    -390.664E-03     66.4883E-03     599.761E-03    -299.307E-03    -301.772E-03    -299.305E-03     599.759E-03    -301.772E-03    -142.561E-06    -45.9109E+06    -49.6816E+06    -78.6408E+06    -78.6159E+06    -49.7065E+06    -45.9109E+06     229.604E+03         68.8338
             950     2.95898E-03     26.8246E-03         1.39094    -386.347E-03    -408.964E-03    -391.625E-03         1.37691    -389.652E-03    -47.5658E-03     601.368E-03    -300.173E-03    -301.944E-03    -300.169E-03     601.365E-03    -301.944E-03    -3.11798E-03    -61.5782E+06    -62.8018E+06    -85.1569E+06    -85.0847E+06    -62.0916E+06    -62.3607E+06     558.838E+03         68.8187
             951     2.21758E-03     26.8510E-03         1.40414    -387.081E-03    -421.631E-03    -383.448E-03         1.36926    -390.386E-03     125.737E-03     602.635E-03    -301.089E-03    -301.711E-03    -301.214E-03     602.630E-03    -301.581E-03    -4.20903E-03    -75.8946E+06    -77.8644E+06    -90.1553E+06    -89.8321E+06    -77.1628E+06    -76.9194E+06     785.938E+03         68.7775
             952     1.47821E-03     26.8717E-03         1.47183    -392.191E-03    -483.774E-03    -388.273E-03         1.37633    -392.191E-03    -212.528E-03     602.752E-03    -301.394E-03    -301.674E-03    -301.594E-03     602.749E-03    -301.471E-03    -3.61797E-03    -87.9144E+06    -91.1847E+06    -98.4908E+06    -93.8302E+06    -94.7037E+06    -89.0560E+06     165.448E+03         68.6951
             953     738.931E-06     26.8823E-03         1.76896    -373.857E-03    -795.598E-03    -411.680E-03         1.38504    -373.857E-03     720.449E-03     602.548E-03    -301.042E-03    -301.642E-03    -301.146E-03     602.547E-03    -301.537E-03    -1.42960E-03    -92.6876E+06    -97.6880E+06    -111.487E+06    -96.5142E+06    -110.510E+06    -94.8382E+06    -213.513E+03         68.6255
             954     12.6644E-03     25.7694E-03         1.40965    -399.836E-03    -414.273E-03    -412.864E-03         1.40962    -401.215E-03    -136.301E-06     587.176E-03    -293.433E-03    -295.165E-03    -290.775E-03     584.518E-03    -295.165E-03     95.9635E-03     68.6108E+06     33.5810E+06    -5.40456E+06    -5.38434E+06     33.5608E+06     68.6108E+06    -2.57718E+03         81.9380
             955     11.9150E-03     25.5881E-03         1.41171    -400.519E-03    -415.479E-03    -415.463E-03         1.41170    -400.519E-03     2.65827E-03     586.093E-03    -291.375E-03    -295.627E-03    -288.940E-03     583.658E-03    -295.627E-03     90.9208E-03     64.5726E+06     31.8143E+06    -9.24203E+06    -9.10210E+06     31.6743E+06     64.5726E+06     301.757E+03         78.7868
             956     11.1618E-03     25.4666E-03         1.40870    -399.809E-03    -411.981E-03    -411.969E-03         1.40868    -399.809E-03     1.03444E-03     585.037E-03    -288.879E-03    -296.138E-03    -287.385E-03     583.543E-03    -296.138E-03     72.1260E-03     61.8431E+06     29.0179E+06    -13.5939E+06    -13.3688E+06     28.7929E+06     61.8431E+06     1.56831E+03         75.3262
             957     10.4107E-03     25.3513E-03         1.40411    -398.151E-03    -410.690E-03    -409.572E-03         1.40405    -399.209E-03    -3.97348E-03     585.901E-03    -287.725E-03    -296.238E-03    -286.552E-03     584.727E-03    -296.238E-03     63.7152E-03     59.1004E+06     25.8444E+06    -18.5285E+06    -18.2695E+06     25.5854E+06     59.1004E+06    -238.989E+03         72.5434
             958     9.66049E-03     25.2568E-03         1.40084    -396.129E-03    -409.849E-03    -407.283E-03         1.40078    -398.635E-03    -4.92195E-03     585.670E-03    -287.510E-03    -296.251E-03    -286.671E-03     584.831E-03    -296.251E-03     53.9634E-03     53.7455E+06     20.7362E+06    -24.0030E+06    -23.7287E+06     20.4619E+06     53.7455E+06     63.6339E+03         70.7719
             959     8.91052E-03     25.1762E-03         1.39497    -396.523E-03    -403.147E-03    -401.447E-03         1.39496    -398.217E-03    -2.44901E-03     585.879E-03    -288.339E-03    -296.619E-03    -287.733E-03     585.274E-03    -296.619E-03     45.7920E-03     45.0054E+06     14.1061E+06    -30.0921E+06    -29.8383E+06     13.8522E+06     45.0054E+06    -34.4558E+03         69.8354
             960     8.16251E-03     25.1093E-03         1.39249    -397.692E-03    -398.544E-03    -398.156E-03         1.39249    -398.080E-03    -1.25897E-03     588.139E-03    -289.569E-03    -298.630E-03    -289.161E-03     587.731E-03    -298.630E-03     37.6390E-03     33.2544E+06     6.60016E+06    -37.0926E+06    -36.5832E+06     6.09076E+06     33.2544E+06    -336.889E+03         69.3862
             961     7.41428E-03     25.0576E-03         1.39443    -397.761E-03    -399.623E-03    -399.387E-03         1.39443    -397.995E-03     734.086E-06     589.528E-03    -291.188E-03    -300.019E-03    -290.922E-03     589.262E-03    -300.019E-03     30.4142E-03     21.5711E+06    -1.94020E+06    -44.3740E+06    -43.8654E+06    -2.44883E+06     21.5711E+06    -312.992E+03         69.1428
             962     6.66843E-03     25.0182E-03         1.39442    -396.053E-03    -401.729E-03    -399.892E-03         1.39433    -397.800E-03     12.9026E-03     591.116E-03    -293.104E-03    -300.627E-03    -292.943E-03     590.956E-03    -300.627E-03     23.5356E-03     11.1455E+06    -10.4229E+06    -50.9881E+06    -50.7855E+06    -10.6255E+06     11.1455E+06    -295.601E+03         68.9820
             963     5.92181E-03     24.9931E-03         1.39121    -388.809E-03    -404.472E-03    -395.193E-03         1.39099    -397.862E-03    -4.69544E-03     594.685E-03    -294.471E-03    -301.188E-03    -294.388E-03     594.603E-03    -301.188E-03     16.7572E-03    -277.110E+03    -18.7771E+06    -57.8178E+06    -57.7007E+06    -18.8941E+06    -277.110E+03    -157.133E+03         68.9223
             964     5.17821E-03     24.9807E-03         1.38812    -385.130E-03    -405.929E-03    -391.807E-03         1.38741    -398.545E-03     27.6166E-03     597.937E-03    -296.221E-03    -301.416E-03    -296.188E-03     597.904E-03    -301.416E-03     10.3254E-03    -13.5103E+06    -28.0082E+06    -64.6004E+06    -64.5383E+06    -28.0703E+06    -13.5103E+06     166.949E+03         68.9356
             965     4.43603E-03     24.9778E-03         1.38966    -391.302E-03    -402.675E-03    -392.839E-03         1.38813    -399.600E-03    -13.3250E-03     600.000E-03    -298.829E-03    -302.185E-03    -298.821E-03     599.992E-03    -302.185E-03     4.84035E-03    -28.5943E+06    -38.4308E+06    -71.9609E+06    -71.9375E+06    -38.4543E+06    -28.5943E+06     622.754E+03         68.9108
             966     3.69512E-03     24.9863E-03         1.39389    -392.945E-03    -404.403E-03    -389.875E-03         1.38766    -401.241E-03     76.3390E-03     601.590E-03    -299.912E-03    -302.744E-03    -299.911E-03     601.589E-03    -302.744E-03     787.002E-06    -45.7601E+06    -49.8453E+06    -79.4026E+06    -79.3671E+06    -49.8809E+06    -45.7601E+06     987.452E+03         68.8842
             967     2.95445E-03     25.0003E-03         1.40362    -394.698E-03    -413.224E-03    -389.801E-03         1.38952    -404.020E-03    -44.3957E-03     603.615E-03    -300.768E-03    -302.883E-03    -300.767E-03     603.613E-03    -302.883E-03    -1.85034E-03    -61.4699E+06    -63.9058E+06    -85.6361E+06    -85.6087E+06    -61.8628E+06    -63.5403E+06     710.576E+03         68.8874
             968     2.21583E-03     25.0158E-03         1.43139    -404.447E-03    -431.787E-03    -395.032E-03         1.39794    -407.752E-03     120.221E-03     604.781E-03    -302.159E-03    -302.783E-03    -302.164E-03     604.778E-03    -302.775E-03    -3.35103E-03    -75.3408E+06    -78.9513E+06    -90.5021E+06    -90.3058E+06    -76.8348E+06    -77.6536E+06     680.214E+03         68.8452
             969     1.47687E-03     25.0377E-03         1.50139    -411.329E-03    -496.127E-03    -405.213E-03         1.41047    -411.329E-03    -211.826E-03     604.961E-03    -302.647E-03    -302.763E-03    -302.651E-03     604.957E-03    -302.755E-03    -3.58054E-03    -86.8887E+06    -89.5781E+06    -97.4130E+06    -93.4326E+06    -92.4169E+06    -88.0304E+06     928.882E+03         68.7619
             970     738.077E-06     25.0511E-03         1.77180    -369.492E-03    -805.293E-03    -456.263E-03         1.42277    -369.492E-03     676.353E-03     605.404E-03    -302.300E-03    -303.146E-03    -302.299E-03     605.403E-03    -303.146E-03    -1.99943E-03    -91.5393E+06    -96.9714E+06    -111.412E+06    -95.4521E+06    -109.416E+06    -95.0552E+06     312.803E+03         68.7047
             971     12.6630E-03     23.9719E-03         1.40257    -400.521E-03    -405.124E-03    -403.727E-03         1.40255    -401.900E-03    -7.05245E-03     586.360E-03    -293.015E-03    -295.110E-03    -290.340E-03     583.686E-03    -295.110E-03     96.2276E-03     67.8809E+06     33.2908E+06    -5.49303E+06    -5.46141E+06     33.2591E+06     67.8809E+06    -181.648E+03         81.9450
             972     11.9158E-03     23.7993E-03         1.39723    -397.079E-03    -405.007E-03    -400.102E-03         1.39721    -401.963E-03    -2.30141E-03     586.119E-03    -291.616E-03    -295.622E-03    -289.115E-03     583.618E-03    -295.622E-03     92.4178E-03     64.5451E+06     32.2799E+06    -8.59996E+06    -8.50360E+06     32.1835E+06     64.5451E+06    -260.449E+03         78.7915
             973     11.1607E-03     23.6745E-03         1.40031    -396.686E-03    -406.424E-03    -400.928E-03         1.40029    -402.160E-03    -1.94720E-03     585.615E-03    -289.328E-03    -296.133E-03    -287.748E-03     584.035E-03    -296.133E-03     74.2221E-03     62.2376E+06     29.5366E+06    -13.4137E+06    -13.2219E+06     29.3448E+06     62.2376E+06    -532.977E+03         75.3348
             974     10.4110E-03     23.5574E-03         1.40779    -400.486E-03    -411.164E-03    -409.543E-03         1.40775    -402.072E-03    -878.414E-06     586.138E-03    -288.095E-03    -296.240E-03    -286.882E-03     584.925E-03    -296.240E-03     64.8024E-03     59.0653E+06     25.3342E+06    -18.8490E+06    -18.5714E+06     25.0566E+06     59.0653E+06    -328.616E+03         72.5595
             975     9.66055E-03     23.4608E-03         1.41140    -400.461E-03    -415.953E-03    -414.911E-03         1.41136    -401.457E-03     1.33371E-03     585.725E-03    -287.673E-03    -296.268E-03    -286.821E-03     584.872E-03    -296.268E-03     54.3484E-03     53.7747E+06     20.5833E+06    -24.4991E+06    -24.1631E+06     20.2473E+06     53.7747E+06    -288.962E+03         70.7897
             976     8.91151E-03     23.3769E-03         1.41099    -400.445E-03    -416.564E-03    -416.544E-03         1.41097    -400.445E-03     4.39398E-03     585.933E-03    -288.136E-03    -296.735E-03    -287.535E-03     585.332E-03    -296.735E-03     45.6137E-03     44.9454E+06     14.1315E+06    -30.7501E+06    -30.3521E+06     13.7335E+06     44.9454E+06     98.1121E+03         69.8489
             977     8.16200E-03     23.3107E-03         1.40596    -399.442E-03    -409.563E-03    -409.543E-03         1.40595    -399.452E-03     5.83023E-03     587.729E-03    -288.895E-03    -298.678E-03    -288.492E-03     587.326E-03    -298.678E-03     37.3475E-03     33.9819E+06     6.49991E+06    -37.4736E+06    -37.0292E+06     6.05551E+06     33.9819E+06     801.933E+03         69.3968
             978     7.41286E-03     23.2549E-03         1.39903    -398.470E-03    -402.303E-03    -401.827E-03         1.39902    -398.934E-03     7.84842E-03     589.055E-03    -290.402E-03    -299.979E-03    -290.147E-03     588.801E-03    -299.979E-03     29.6747E-03     22.6485E+06    -1.51746E+06    -43.7626E+06    -43.3557E+06    -1.92429E+06     22.6485E+06     598.736E+03         69.1535
             979     6.66511E-03     23.2117E-03         1.39133    -392.873E-03    -400.746E-03    -394.390E-03         1.39121    -399.118E-03     11.4078E-03     590.967E-03    -292.483E-03    -300.726E-03    -292.341E-03     590.825E-03    -300.726E-03     22.0048E-03     10.2015E+06    -10.3705E+06    -50.7381E+06    -50.5048E+06    -10.6039E+06     10.2015E+06     91.0020E+03         68.9836
             980     5.92018E-03     23.1795E-03         1.38397    -385.031E-03    -400.413E-03    -384.739E-03         1.38368    -400.413E-03    -12.2794E-03     594.634E-03    -293.998E-03    -301.447E-03    -293.935E-03     594.570E-03    -301.447E-03     14.5383E-03    -1.90931E+06    -19.4238E+06    -57.9344E+06    -57.8187E+06    -19.5395E+06    -1.90931E+06     68.1546E+03         68.8994
             981     5.17633E-03     23.1613E-03         1.38699    -386.829E-03    -404.390E-03    -388.101E-03         1.38631    -402.439E-03     21.1602E-03     598.489E-03    -295.823E-03    -301.965E-03    -295.801E-03     598.467E-03    -301.965E-03     8.38454E-03    -14.1778E+06    -28.6668E+06    -65.3080E+06    -65.2319E+06    -28.7429E+06    -14.1778E+06     222.605E+03         68.8971
             982     4.43364E-03     23.1550E-03         1.39825    -396.851E-03    -407.222E-03    -398.138E-03         1.39626    -403.948E-03    -33.1901E-03     600.865E-03    -298.435E-03    -302.942E-03    -298.430E-03     600.860E-03    -302.942E-03     3.39014E-03    -29.1899E+06    -39.0296E+06    -72.5554E+06    -72.5335E+06    -39.0515E+06    -29.1899E+06     468.868E+03         68.8909
             983     3.69183E-03     23.1602E-03         1.40784    -397.581E-03    -414.013E-03    -402.370E-03         1.40329    -404.676E-03     31.7701E-03     602.710E-03    -300.027E-03    -303.235E-03    -300.026E-03     602.709E-03    -303.235E-03    -745.979E-06    -45.4655E+06    -49.5529E+06    -79.1391E+06    -79.1155E+06    -49.5765E+06    -45.4655E+06     437.269E+03         68.8872
             984     2.95143E-03     23.1697E-03         1.42136    -398.389E-03    -426.957E-03    -408.902E-03         1.40932    -404.406E-03    -76.6604E-03     605.125E-03    -301.304E-03    -303.335E-03    -301.300E-03     605.121E-03    -303.335E-03    -3.47620E-03    -60.2015E+06    -62.6302E+06    -85.0348E+06    -84.9786E+06    -60.8373E+06    -62.0505E+06     689.531E+03         68.8818
             985     2.21202E-03     23.1814E-03         1.43754    -402.794E-03    -438.124E-03    -409.897E-03         1.40931    -402.794E-03     84.6863E-03     606.159E-03    -302.434E-03    -303.508E-03    -302.435E-03     606.152E-03    -303.500E-03    -4.48461E-03    -75.2287E+06    -78.7716E+06    -90.3435E+06    -90.1369E+06    -76.7330E+06    -77.4739E+06     654.418E+03         68.8267
             986     1.47429E-03     23.2009E-03         1.48003    -399.041E-03    -485.496E-03    -410.067E-03         1.40460    -399.041E-03    -196.939E-03     606.529E-03    -303.166E-03    -303.577E-03    -303.169E-03     606.524E-03    -303.569E-03    -4.03682E-03    -87.1310E+06    -89.7790E+06    -96.2601E+06    -93.5197E+06    -91.4191E+06    -88.2312E+06     145.564E+03         68.7600
             987     737.283E-06     23.2088E-03         1.68887    -336.787E-03    -758.518E-03    -455.896E-03         1.38625    -336.787E-03     613.960E-03     607.250E-03    -302.965E-03    -304.286E-03    -302.963E-03     607.249E-03    -304.286E-03    -2.03010E-03    -90.1944E+06    -96.1277E+06    -108.831E+06    -94.5371E+06    -107.101E+06    -93.5151E+06     484.203E+03         68.7395
             988     12.6617E-03     22.1741E-03         1.41040    -404.018E-03    -412.181E-03    -412.173E-03         1.41039    -404.018E-03     2.99912E-03     585.086E-03    -291.663E-03    -295.289E-03    -289.001E-03     582.424E-03    -295.289E-03     95.8689E-03     67.2074E+06     34.0962E+06    -4.43807E+06    -4.40184E+06     34.0599E+06     67.2074E+06    -218.004E+03         81.9566
             989     11.9115E-03     22.0012E-03         1.40821    -398.987E-03    -415.003E-03    -410.094E-03         1.40819    -403.872E-03     1.14468E-03     586.858E-03    -291.737E-03    -295.743E-03    -289.242E-03     584.363E-03    -295.743E-03     92.3658E-03     63.1194E+06     32.1616E+06    -8.98651E+06    -8.90358E+06     32.0787E+06     63.1194E+06    -390.726E+03         78.8049
             990     11.1610E-03     21.8807E-03         1.40547    -398.274E-03    -412.178E-03    -406.667E-03         1.40543    -403.749E-03     2.05695E-03     587.204E-03    -290.428E-03    -296.199E-03    -288.834E-03     585.610E-03    -296.199E-03     74.6693E-03     60.9296E+06     28.7955E+06    -13.9137E+06    -13.7122E+06     28.5941E+06     60.9296E+06    -316.149E+03         75.3731
             991     10.4100E-03     21.7595E-03         1.40270    -400.755E-03    -406.214E-03    -403.182E-03         1.40265    -403.734E-03    -9.70650E-03     586.940E-03    -289.253E-03    -296.208E-03    -288.018E-03     585.704E-03    -296.208E-03     65.4757E-03     57.9585E+06     25.1790E+06    -19.1660E+06    -18.8484E+06     24.8614E+06     57.9585E+06    -282.409E+03         72.6278
             992     9.66115E-03     21.6627E-03         1.40255    -399.498E-03    -407.115E-03    -402.728E-03         1.40250    -403.832E-03    -9.29781E-03     586.298E-03    -288.768E-03    -296.162E-03    -287.910E-03     585.440E-03    -296.162E-03     54.5645E-03     51.8971E+06     19.9369E+06    -25.2851E+06    -24.8393E+06     19.4911E+06     51.8971E+06     94.7466E+03         70.8774
             993     8.91151E-03     21.5764E-03         1.40694    -397.574E-03    -414.919E-03    -408.730E-03         1.40691    -403.730E-03     359.679E-06     586.513E-03    -289.228E-03    -296.680E-03    -288.646E-03     585.931E-03    -296.680E-03     44.8592E-03     43.7408E+06     13.3305E+06    -32.1007E+06    -31.5336E+06     12.7634E+06     43.7408E+06     205.957E+03         69.9401
             994     8.16310E-03     21.5041E-03         1.40989    -398.264E-03    -413.093E-03    -407.883E-03         1.40986    -403.446E-03     3.72814E-03     588.184E-03    -289.702E-03    -298.367E-03    -289.338E-03     587.821E-03    -298.367E-03     35.3852E-03     34.5074E+06     6.55204E+06    -37.7359E+06    -37.2795E+06     6.09564E+06     34.5074E+06     77.6959E+03         69.4743
             995     7.41477E-03     21.4466E-03         1.40798    -401.790E-03    -408.679E-03    -407.237E-03         1.40796    -403.216E-03     10.7251E-03     589.057E-03    -290.498E-03    -299.507E-03    -290.290E-03     588.849E-03    -299.507E-03     26.6506E-03     22.9680E+06    -1.46141E+06    -43.9626E+06    -43.6717E+06    -1.75229E+06     22.9680E+06     545.557E+03         69.2058
             996     6.66838E-03     21.3955E-03         1.40682    -398.242E-03    -413.395E-03    -408.759E-03         1.40678    -402.831E-03     5.64136E-03     590.189E-03    -291.828E-03    -300.241E-03    -291.725E-03     590.086E-03    -300.241E-03     18.6022E-03     10.8111E+06    -10.1392E+06    -50.9020E+06    -50.6176E+06    -10.4236E+06     10.8111E+06     1.01085E+06         68.9944
             997     5.92263E-03     21.3624E-03         1.41077    -395.736E-03    -416.594E-03    -410.032E-03         1.41053    -402.066E-03    -20.8075E-03     593.679E-03    -293.358E-03    -301.074E-03    -293.318E-03     593.640E-03    -301.074E-03     11.1194E-03    -724.351E+03    -18.9450E+06    -57.9019E+06    -57.6934E+06    -19.1535E+06    -724.351E+03     723.300E+03         68.8605
             998     5.17731E-03     21.3374E-03         1.40845    -398.646E-03    -413.535E-03    -410.935E-03         1.40805    -400.841E-03     6.13101E-03     597.969E-03    -295.382E-03    -301.720E-03    -295.371E-03     597.958E-03    -301.720E-03     4.46418E-03    -13.6670E+06    -28.2792E+06    -64.9703E+06    -64.9002E+06    -28.3493E+06    -13.6670E+06     185.727E+03         68.8242
             999     4.43388E-03     21.3270E-03         1.40217    -399.610E-03    -406.775E-03    -405.516E-03         1.40091    -399.610E-03    -31.1058E-03     600.707E-03    -297.975E-03    -302.712E-03    -297.970E-03     600.702E-03    -302.712E-03    -1.00973E-03    -28.1486E+06    -37.9929E+06    -71.7955E+06    -71.7621E+06    -38.0262E+06    -28.1486E+06    -396.818E+03         68.8060
            1000     3.69253E-03     21.3290E-03         1.40435    -396.091E-03    -408.950E-03    -402.165E-03         1.40026    -398.780E-03     46.2404E-03     602.288E-03    -299.904E-03    -302.791E-03    -299.895E-03     602.279E-03    -302.791E-03    -4.75051E-03    -44.1629E+06    -48.7882E+06    -78.6019E+06    -78.5648E+06    -48.8253E+06    -44.1629E+06    -382.128E+03         68.7894
            1001     2.95283E-03     21.3336E-03         1.40746    -394.947E-03    -416.277E-03    -404.122E-03         1.39800    -397.636E-03    -46.5042E-03     603.868E-03    -301.067E-03    -302.741E-03    -301.052E-03     603.854E-03    -302.741E-03    -6.97706E-03    -60.3549E+06    -61.6717E+06    -85.2205E+06    -85.0857E+06    -61.3692E+06    -60.7922E+06    -256.416E+03         68.7527
            1002     2.21396E-03     21.3432E-03         1.41151    -397.351E-03    -416.781E-03    -394.052E-03         1.38878    -397.351E-03     89.0129E-03     604.782E-03    -301.740E-03    -303.063E-03    -301.724E-03     604.766E-03    -303.063E-03    -7.59232E-03    -74.4907E+06    -76.9802E+06    -89.8498E+06    -89.7112E+06    -76.2854E+06    -75.3241E+06    -388.677E+03         68.6729
            1003     1.47509E-03     21.3564E-03         1.44630    -399.885E-03    -448.420E-03    -391.701E-03         1.38958    -399.885E-03    -148.690E-03     605.731E-03    -302.509E-03    -303.265E-03    -302.498E-03     605.719E-03    -303.265E-03    -6.39064E-03    -86.4798E+06    -89.6641E+06    -95.6697E+06    -92.8376E+06     -91.396E+06      -87.58E+06    -429.753E+03         68.6196
            1004     737.181E-06     21.3652E-03         1.62212    -359.183E-03    -670.193E-03    -444.315E-03         1.39624    -359.183E-03     521.291E-03     606.678E-03    -302.340E-03    -304.347E-03    -302.335E-03     606.673E-03    -304.347E-03    -3.61304E-03    -90.8394E+06    -96.3907E+06    -109.528E+06    -94.5756E+06    -108.582E+06    -93.6001E+06    -781.495E+03         68.6336
            1005     12.6609E-03     20.3799E-03         1.41367    -405.392E-03    -412.505E-03    -411.056E-03         1.41364    -406.820E-03    -4.08142E-03     584.900E-03    -291.012E-03    -295.343E-03    -288.362E-03     582.249E-03    -295.343E-03     95.4853E-03     66.1288E+06     34.4769E+06    -4.20386E+06    -4.17955E+06     34.4526E+06     66.1288E+06     51.3837E+03         82.0413
            1006     11.9123E-03     20.2012E-03         1.41907    -404.329E-03    -417.369E-03    -415.060E-03         1.41904    -406.616E-03    -1.71379E-03     587.125E-03    -291.697E-03    -295.829E-03    -289.215E-03     584.644E-03    -295.829E-03     91.9193E-03     61.4542E+06     32.0391E+06    -8.90093E+06    -8.78936E+06     31.9275E+06     61.4542E+06     341.296E+03         78.8997
            1007     11.1578E-03     20.0773E-03         1.41982    -405.114E-03    -418.182E-03    -417.052E-03         1.41979    -406.210E-03     7.95365E-03     587.772E-03    -291.273E-03    -296.218E-03    -289.724E-03     586.224E-03    -296.218E-03     73.6675E-03     58.7285E+06     28.8705E+06    -13.6427E+06    -13.4223E+06     28.6501E+06     58.7285E+06     254.243E+03         75.4884
            1008     10.4108E-03     19.9586E-03         1.41844    -404.358E-03    -416.170E-03    -414.740E-03         1.41840    -405.751E-03     566.008E-06     588.238E-03    -290.782E-03    -296.103E-03    -289.579E-03     587.034E-03    -296.103E-03     64.6804E-03     55.6588E+06     24.7944E+06    -19.2160E+06    -18.8491E+06     24.4275E+06     55.6588E+06     283.036E+03         72.7657
            1009     9.66168E-03     19.8598E-03         1.41447    -402.008E-03    -415.210E-03    -411.846E-03         1.41444    -405.347E-03    -8.56038E-03     587.818E-03    -290.668E-03    -296.062E-03    -289.861E-03     587.010E-03    -296.062E-03     52.9698E-03     50.8494E+06     19.7285E+06    -25.4580E+06    -24.8210E+06     19.0915E+06     50.8494E+06     73.0649E+03         71.0325
            1010     8.91527E-03     19.7699E-03         1.40626    -399.010E-03    -411.524E-03    -405.335E-03         1.40623    -405.165E-03    -12.3704E-03     587.837E-03    -291.361E-03    -296.397E-03    -290.840E-03     587.316E-03    -296.397E-03     42.4476E-03     43.0705E+06     13.8658E+06    -31.1052E+06    -30.3529E+06     13.1134E+06     43.0705E+06     42.8648E+03         70.0973
            1011     8.16774E-03     19.6966E-03         1.40430    -397.681E-03    -406.367E-03    -398.504E-03         1.40423    -405.476E-03    -15.4600E-03     589.600E-03    -291.678E-03    -297.795E-03    -291.373E-03     589.295E-03    -297.795E-03     32.3915E-03     32.0190E+06     5.90023E+06    -37.9977E+06    -37.5035E+06     5.40598E+06     32.0190E+06     551.411E+03         69.6069
            1012     7.42200E-03     19.6327E-03         1.41211    -402.009E-03    -412.483E-03    -408.812E-03         1.41202    -405.595E-03    -11.9423E-03     590.014E-03    -292.047E-03    -298.670E-03    -291.891E-03     589.857E-03    -298.670E-03     22.9772E-03     22.3865E+06    -2.13067E+06    -44.5891E+06    -44.3522E+06    -2.36761E+06     22.3865E+06     625.353E+03         69.2883
            1013     6.67508E-03     19.5816E-03         1.41841    -404.443E-03    -418.379E-03    -418.049E-03         1.41828    -404.649E-03    -10.3985E-03     590.185E-03    -292.753E-03    -299.011E-03    -292.690E-03     590.122E-03    -299.011E-03     13.8729E-03     13.4321E+06    -9.39560E+06    -50.9384E+06    -50.6064E+06    -9.72762E+06     13.4321E+06     390.211E+03         69.0153
            1014     5.92893E-03     19.5435E-03         1.41639    -400.080E-03    -417.716E-03    -414.481E-03         1.41626    -403.188E-03    -15.8314E-03     592.719E-03    -293.829E-03    -299.674E-03    -293.812E-03     592.702E-03    -299.674E-03     5.05667E-03     1.85137E+06    -17.7303E+06    -57.6988E+06    -57.4421E+06    -17.9870E+06     1.85137E+06     11.1862E+03         68.8177
            1015     5.18519E-03     19.5166E-03         1.41170    -398.825E-03    -415.859E-03    -412.727E-03         1.41147    -401.727E-03     13.2497E-03     596.301E-03    -295.433E-03    -300.197E-03    -295.424E-03     596.292E-03    -300.197E-03    -2.58223E-03    -11.0905E+06    -26.5927E+06    -64.2393E+06     -64.141E+06    -26.6910E+06    -11.0905E+06    -619.720E+03         68.7097
            1016     4.44211E-03     19.5016E-03         1.40651    -400.363E-03    -408.377E-03    -407.814E-03         1.40595    -400.363E-03    -11.4004E-03     598.498E-03    -297.227E-03    -300.882E-03    -297.205E-03     598.476E-03    -300.882E-03    -8.02731E-03    -25.9865E+06    -36.8855E+06    -71.2784E+06    -71.1905E+06    -36.9735E+06    -25.9865E+06    -891.432E+03         68.6147
            1017     3.69950E-03     19.4981E-03         1.39881    -395.542E-03    -401.925E-03    -394.433E-03         1.39613    -400.356E-03     51.8561E-03     599.116E-03    -298.661E-03    -300.737E-03    -298.622E-03     599.076E-03    -300.737E-03    -11.2341E-03    -43.0871E+06    -48.4980E+06    -78.8537E+06    -78.6806E+06    -48.6711E+06    -43.0871E+06    -1.17805E+06         68.5321
            1018     2.95790E-03     19.5008E-03         1.40215    -396.829E-03    -406.965E-03    -396.059E-03         1.39605    -401.644E-03    -27.1292E-03     599.441E-03    -299.552E-03    -300.551E-03    -299.505E-03     599.394E-03    -300.551E-03    -12.3979E-03    -59.6188E+06    -61.5084E+06    -84.8287E+06    -84.5957E+06    -61.4711E+06    -59.8891E+06    -1.63434E+06         68.4453
            1019     2.21745E-03     19.5064E-03         1.41743    -401.714E-03    -418.332E-03    -405.402E-03         1.40450    -401.714E-03     63.2373E-03     600.192E-03    -300.017E-03    -300.867E-03    -299.977E-03     600.152E-03    -300.867E-03    -11.5839E-03    -75.1474E+06    -77.5942E+06    -90.4352E+06    -90.1509E+06    -77.6082E+06    -75.4176E+06    -1.53757E+06         68.3281
            1020     1.47844E-03     19.5165E-03         1.44195    -399.804E-03    -442.270E-03    -405.076E-03         1.40476    -399.804E-03    -139.767E-03     601.520E-03    -300.510E-03    -301.110E-03    -300.510E-03     601.495E-03    -301.086E-03    -9.16355E-03    -87.8273E+06    -90.1842E+06    -97.2344E+06    -94.3586E+06    -92.8130E+06    -88.0743E+06    -933.868E+03         68.2554
            1021     739.014E-06     19.5269E-03         1.53875    -368.249E-03    -577.178E-03    -428.778E-03         1.39035    -368.249E-03     384.968E-03     602.111E-03    -299.887E-03    -302.212E-03    -299.903E-03     602.102E-03    -302.187E-03    -5.17677E-03    -92.6122E+06    -97.4562E+06    -111.903E+06    -96.0459E+06    -111.009E+06    -94.9158E+06    -398.425E+03         68.2649
            1022     12.6615E-03     18.5836E-03         1.42034    -407.381E-03    -413.929E-03    -412.464E-03         1.42030    -408.808E-03     2.06437E-03     585.136E-03    -291.602E-03    -295.268E-03    -288.907E-03     582.442E-03    -295.268E-03     96.0212E-03     64.1756E+06     33.7983E+06    -3.61074E+06    -3.57256E+06     33.7601E+06     64.1756E+06     244.840E+03         82.2300
            1023     11.9118E-03     18.3961E-03         1.41850    -406.542E-03    -412.636E-03    -410.323E-03         1.41847    -408.829E-03    -4.41656E-03     587.012E-03    -292.172E-03    -295.854E-03    -289.628E-03     584.468E-03    -295.854E-03     92.7902E-03     59.7429E+06     31.9166E+06    -7.88200E+06    -7.77078E+06     31.8054E+06     59.7429E+06     570.153E+03         79.1027
            1024     11.1610E-03     18.2745E-03         1.41947    -407.684E-03    -413.922E-03    -412.810E-03         1.41945    -408.780E-03    -3.34900E-03     588.350E-03    -292.028E-03    -296.050E-03    -290.520E-03     586.842E-03    -296.050E-03     72.7664E-03     57.0712E+06     28.9877E+06    -12.8643E+06    -12.5299E+06     28.6532E+06     57.0712E+06     1.01997E+06         75.7026
            1025     10.4123E-03     18.1550E-03         1.42001    -403.951E-03    -417.143E-03    -412.362E-03         1.41991    -408.628E-03    -10.3763E-03     589.520E-03    -292.733E-03    -295.957E-03    -291.571E-03     588.359E-03    -295.957E-03     63.6269E-03     54.1652E+06     25.2299E+06    -18.3120E+06    -17.7959E+06     24.7138E+06     54.1652E+06     901.029E+03         72.9904
            1026     9.66717E-03     18.0542E-03         1.41979    -403.774E-03    -418.720E-03    -413.920E-03         1.41967    -408.451E-03    -6.94323E-03     589.744E-03    -293.270E-03    -295.979E-03    -292.516E-03     588.989E-03    -295.979E-03     51.2684E-03     48.3699E+06     20.1719E+06    -24.1608E+06    -23.1872E+06     19.1983E+06     48.3699E+06     997.936E+03         71.2654
            1027     8.92061E-03     17.9629E-03         1.42304    -408.014E-03    -418.801E-03    -418.758E-03         1.42300    -408.014E-03     3.96831E-03     590.426E-03    -293.898E-03    -296.102E-03    -293.686E-03     589.964E-03    -295.851E-03     40.0280E-03     40.4779E+06     13.4768E+06    -31.1738E+06    -30.2230E+06     12.5260E+06     40.4779E+06     1.57370E+06         70.3275
            1028     8.17664E-03     17.8879E-03         1.42506    -404.853E-03    -417.372E-03    -414.417E-03         1.42471    -407.467E-03     12.7021E-03     591.689E-03    -294.309E-03    -297.127E-03    -294.316E-03     591.444E-03    -296.876E-03     28.7771E-03     32.4285E+06     6.55361E+06    -36.6490E+06    -36.2405E+06     6.14516E+06     32.4285E+06     1.19268E+06         69.8109
            1029     7.43166E-03     17.8251E-03         1.42212    -404.380E-03    -416.420E-03    -413.377E-03         1.42169    -406.994E-03     17.1442E-03     591.324E-03    -294.626E-03    -297.702E-03    -294.941E-03     591.225E-03    -297.287E-03     17.3769E-03     23.2779E+06    -612.236E+03    -42.7581E+06    -42.4391E+06    -931.245E+03     23.2779E+06     358.511E+03         69.4383
            1030     6.68804E-03     17.7760E-03         1.41487    -405.782E-03    -411.042E-03    -410.011E-03         1.41467    -406.607E-03     652.311E-06     590.775E-03    -294.811E-03    -297.835E-03    -295.701E-03     590.750E-03    -296.920E-03     6.45566E-03     13.3449E+06    -8.21279E+06    -49.6408E+06    -49.3268E+06    -8.52678E+06     13.3449E+06    -445.718E+03         69.0897
            1031     5.94488E-03     17.7332E-03         1.40981    -403.036E-03    -406.814E-03    -402.942E-03         1.40966    -406.762E-03    -12.2246E-03     591.655E-03    -295.018E-03    -297.570E-03    -295.522E-03     591.642E-03    -297.052E-03    -3.14958E-03     2.95331E+06    -16.2530E+06    -56.5179E+06    -56.2888E+06    -16.4821E+06     2.95331E+06    -833.168E+03         68.7928
            1032     5.20115E-03     17.7062E-03         1.41138    -403.446E-03    -410.549E-03    -406.705E-03         1.41120    -407.108E-03     10.8168E-03     593.286E-03    -295.329E-03    -297.307E-03    -295.468E-03     593.244E-03    -297.126E-03    -10.9380E-03    -9.50908E+06    -25.6791E+06    -64.0100E+06    -63.8613E+06    -25.8278E+06    -9.50908E+06    -999.892E+03         68.5623
            1033     4.45729E-03     17.6892E-03         1.41632    -406.021E-03    -412.846E-03    -411.582E-03         1.41582    -406.782E-03    -14.6760E-03     594.195E-03    -295.726E-03    -297.543E-03    -296.035E-03     594.111E-03    -297.150E-03    -16.4397E-03    -25.6519E+06    -36.7156E+06    -71.9066E+06    -71.7828E+06    -36.8394E+06    -25.6519E+06    -1.16147E+06         68.3375
            1034     3.71420E-03     17.6833E-03         1.42026    -403.702E-03    -415.214E-03    -411.583E-03         1.41875    -405.827E-03     27.0900E-03     593.295E-03    -295.870E-03    -297.314E-03    -296.475E-03     593.182E-03    -296.596E-03    -19.4726E-03    -44.0680E+06    -48.6701E+06    -79.3049E+06    -79.0520E+06    -48.9230E+06    -44.0680E+06    -1.10741E+06         68.1409
            1035     2.97075E-03     17.6803E-03         1.41774    -402.179E-03    -417.383E-03    -411.951E-03         1.41444    -404.305E-03    -24.7638E-03     592.035E-03    -295.922E-03    -296.914E-03    -296.511E-03     591.920E-03    -296.211E-03    -19.8132E-03    -61.5115E+06    -64.3678E+06    -86.4631E+06    -86.2678E+06    -62.7995E+06    -63.2751E+06    -755.586E+03         67.9686
            1036     2.22760E-03     17.6848E-03         1.41143    -395.406E-03    -418.922E-03    -404.023E-03         1.40434    -403.216E-03     44.4942E-03     591.726E-03    -295.831E-03    -296.598E-03    -295.958E-03     591.637E-03    -296.383E-03    -17.3813E-03    -77.4298E+06    -80.7369E+06    -93.4406E+06    -92.5634E+06    -78.8275E+06    -80.2164E+06    -41.0041E+03         67.7850
            1037     1.48441E-03     17.6911E-03         1.42391    -387.102E-03    -431.937E-03    -395.397E-03         1.40583    -405.565E-03    -81.6047E-03     592.641E-03    -296.050E-03    -296.587E-03    -296.026E-03     592.592E-03    -296.562E-03    -12.8019E-03    -89.9612E+06    -92.7755E+06    -100.007E+06    -96.6854E+06    -93.3090E+06    -92.7497E+06     331.027E+03         67.6477
            1038     742.425E-06     17.7031E-03         1.49950    -375.271E-03    -525.772E-03    -429.859E-03         1.41425    -385.925E-03     317.629E-03     593.228E-03    -295.950E-03    -297.349E-03    -295.957E-03     593.210E-03    -297.325E-03    -7.11052E-03    -94.6265E+06    -100.767E+06    -112.981E+06    -98.7135E+06    -111.007E+06    -98.6545E+06     116.427E+03         67.5996
            1039     12.6616E-03     16.7913E-03         1.42424    -408.089E-03    -416.408E-03    -413.183E-03         1.42422    -411.288E-03     4.98266E-03     585.549E-03    -292.651E-03    -295.320E-03    -289.889E-03     582.787E-03    -295.320E-03     96.8115E-03     60.5469E+06     33.0822E+06    -3.55400E+06    -3.51359E+06     33.0418E+06     60.5469E+06     145.272E+03         82.5077
            1040     11.9150E-03     16.6019E-03         1.42584    -411.090E-03    -416.242E-03    -415.928E-03         1.42581    -411.365E-03     4.82730E-03     587.648E-03    -293.539E-03    -295.707E-03    -290.834E-03     584.944E-03    -295.707E-03     95.6580E-03     56.9565E+06     30.4597E+06     -7.4687E+06    -7.31454E+06     30.3056E+06     56.9565E+06     781.278E+03         79.3938
            1041     11.1613E-03     16.4744E-03         1.42397    -411.378E-03    -414.938E-03    -414.911E-03         1.42394    -411.378E-03     5.98763E-03     589.789E-03    -293.670E-03    -295.830E-03    -292.100E-03     588.219E-03    -295.830E-03     74.3637E-03     54.2088E+06     28.3937E+06    -12.0575E+06    -11.6295E+06     27.9657E+06     54.2088E+06     1.11420E+06         76.0122
            1042     10.4167E-03     16.3497E-03         1.42014    -406.093E-03    -413.126E-03    -407.448E-03         1.42003    -411.661E-03    -6.87262E-03     591.913E-03    -294.800E-03    -296.326E-03    -294.103E-03     590.729E-03    -295.839E-03     64.3612E-03     50.7646E+06     25.5478E+06    -17.6429E+06    -16.6024E+06     24.5073E+06     50.7646E+06     2.22980E+06         73.3232
            1043     9.67223E-03     16.2466E-03         1.42175    -406.523E-03    -416.088E-03    -410.388E-03         1.42162    -412.092E-03    -1.86905E-03     592.637E-03    -295.101E-03    -297.672E-03    -296.387E-03     591.914E-03    -295.663E-03     50.1889E-03     45.8836E+06     20.3605E+06    -24.0980E+06    -22.7800E+06     19.0425E+06     45.8836E+06     3.04401E+06         71.6213
            1044     8.92977E-03     16.1574E-03         1.42524    -407.012E-03    -420.225E-03    -414.959E-03         1.42517    -412.206E-03     1.51904E-03     593.924E-03    -294.869E-03    -298.862E-03    -298.392E-03     593.531E-03    -294.946E-03     36.8014E-03     40.3915E+06     14.7164E+06    -28.4662E+06    -27.6216E+06     13.8719E+06     40.3915E+06     2.16287E+06         70.6810
            1045     8.18812E-03     16.0779E-03         1.42666    -401.463E-03    -421.366E-03    -410.121E-03         1.42630    -412.352E-03     10.9545E-03     595.104E-03    -294.865E-03    -299.699E-03    -299.402E-03     594.936E-03    -294.994E-03     23.1688E-03     31.8111E+06     8.80226E+06    -33.7407E+06    -33.3075E+06     8.36915E+06     31.8111E+06     1.22538E+06         70.1155
            1046     7.44960E-03     16.0145E-03         1.42466    -405.560E-03    -418.975E-03    -411.404E-03         1.42425    -412.715E-03     18.9213E-03     593.655E-03    -294.711E-03    -299.767E-03    -299.596E-03     593.613E-03    -294.841E-03     9.79053E-03     21.3790E+06     1.36753E+06    -40.2128E+06    -39.7855E+06     940.261E+03     21.3790E+06     800.987E+03         69.6673
            1047     6.70851E-03     15.9640E-03         1.42532    -410.937E-03    -414.823E-03    -412.592E-03         1.42516    -413.017E-03     10.1416E-03     591.146E-03    -293.796E-03    -298.811E-03    -298.797E-03     591.132E-03    -293.796E-03    -2.02571E-03     11.0571E+06    -6.93130E+06    -46.9051E+06    -46.5389E+06    -7.29748E+06     11.0571E+06     366.357E+03         69.2125
            1048     5.96716E-03     15.9247E-03         1.43066    -412.462E-03    -415.932E-03    -415.246E-03         1.43060    -413.081E-03     62.5426E-06     589.797E-03    -293.135E-03    -297.026E-03    -296.975E-03     589.745E-03    -293.135E-03    -11.9442E-03     154.515E+03    -15.4222E+06    -53.7740E+06    -53.4684E+06    -15.7277E+06     154.515E+03     256.946E+03         68.7708
            1049     5.22486E-03     15.9014E-03         1.43139    -411.741E-03    -421.122E-03    -420.236E-03         1.43126    -412.501E-03     11.1419E-03     589.283E-03    -292.691E-03    -295.743E-03    -295.623E-03     589.162E-03    -292.691E-03    -19.8746E-03     -13.629E+06    -25.5414E+06    -61.8012E+06    -61.5727E+06    -25.7698E+06     -13.629E+06     642.479E+03         68.3821
            1050     4.48131E-03     15.8841E-03         1.43028    -410.453E-03    -421.784E-03    -420.649E-03         1.42991    -411.213E-03    -10.4854E-03     587.865E-03    -292.009E-03    -295.018E-03    -294.830E-03     587.676E-03    -292.009E-03    -25.3792E-03    -30.4947E+06    -37.0816E+06    -70.7233E+06    -70.1328E+06    -37.6721E+06    -30.4947E+06     1.47804E+06         67.9905
            1051     3.73612E-03     15.8775E-03         1.42948    -406.386E-03    -420.745E-03    -416.493E-03         1.42861    -409.769E-03     16.3234E-03     584.958E-03    -290.851E-03    -293.899E-03    -293.678E-03     584.737E-03    -290.851E-03    -27.6343E-03    -47.7008E+06    -50.8884E+06    -79.4138E+06    -78.5735E+06    -50.4015E+06    -49.0280E+06     2.88893E+06         67.6341
            1052     2.98985E-03     15.8784E-03         1.42758    -404.586E-03    -422.111E-03    -416.914E-03         1.42576    -407.969E-03    -19.3004E-03     582.047E-03    -290.003E-03    -292.675E-03    -292.464E-03     581.835E-03    -290.003E-03    -26.9051E-03    -61.8753E+06    -67.8589E+06    -88.6583E+06    -87.0035E+06    -63.6669E+06    -67.7220E+06     4.26582E+06         67.3486
            1053     2.24240E-03     15.8815E-03         1.42411    -397.258E-03    -427.049E-03    -415.773E-03         1.42064    -405.068E-03     13.3972E-03     579.857E-03    -289.506E-03    -291.035E-03    -290.631E-03     579.693E-03    -289.746E-03    -23.5002E-03    -74.4672E+06    -83.6165E+06    -96.4075E+06    -93.9705E+06    -76.9042E+06    -83.6165E+06     4.99752E+06         67.0851
            1054     1.49455E-03     15.8879E-03         1.42386    -385.395E-03    -430.357E-03    -401.806E-03         1.41377    -403.858E-03    -89.7828E-03     579.212E-03    -289.286E-03    -289.929E-03    -289.512E-03     579.116E-03    -289.607E-03    -17.6346E-03    -86.0843E+06    -95.8341E+06    -101.560E+06    -98.9562E+06    -88.6881E+06    -95.8341E+06     4.57138E+06         66.8582
            1055     746.669E-06     15.8980E-03         1.45056    -363.893E-03    -487.757E-03    -434.597E-03         1.40806    -374.546E-03     192.057E-03     579.357E-03    -289.398E-03    -290.087E-03    -289.940E-03     579.321E-03    -289.510E-03    -10.1910E-03    -94.2865E+06    -102.622E+06    -111.364E+06    -101.796E+06    -103.855E+06    -102.622E+06     3.22851E+06         66.7196
            1056     12.6619E-03     15.0024E-03         1.42290    -345.344E-03    -474.284E-03    -405.388E-03         1.42286    -414.194E-03     8.09940E-03     586.386E-03    -293.064E-03    -295.770E-03    -290.668E-03     583.545E-03    -295.326E-03     97.7110E-03     55.6873E+06     32.3265E+06    -3.02490E+06    -2.89483E+06     32.1964E+06     55.6873E+06     613.038E+03         82.8729
            1057     11.9132E-03     14.8033E-03         1.42291    -358.967E-03    -475.742E-03    -420.073E-03         1.42286    -414.581E-03     6.09343E-03     589.502E-03    -295.000E-03    -296.184E-03    -292.748E-03     586.618E-03    -295.553E-03     98.9029E-03     51.3265E+06     29.3093E+06    -7.41682E+06    -7.14318E+06     29.0356E+06     51.3265E+06     818.588E+03         79.7738
            1058     11.1653E-03     14.6695E-03         1.42476    -360.203E-03    -447.012E-03    -391.626E-03         1.42471    -415.542E-03     10.0502E-03     592.514E-03    -295.262E-03    -297.120E-03    -295.044E-03     590.868E-03    -295.691E-03     76.3880E-03     48.9939E+06     27.1262E+06    -12.5328E+06     -11.691E+06     26.2844E+06     48.9939E+06     1.93609E+06         76.4226
            1059     10.4201E-03     14.5408E-03         1.43131    -397.450E-03    -446.690E-03    -427.822E-03         1.43128    -416.291E-03     9.92662E-03     596.046E-03    -295.509E-03    -299.643E-03    -298.438E-03     594.843E-03    -295.511E-03     65.0056E-03     47.5647E+06     25.1746E+06    -17.9800E+06    -16.3143E+06     23.5089E+06     47.5647E+06     2.63476E+06         73.7661
            1060     9.68096E-03     14.4329E-03         1.43697    -397.702E-03    -426.868E-03    -407.923E-03         1.43687    -416.543E-03     16.7477E-03     597.289E-03    -294.822E-03    -302.618E-03    -301.948E-03     596.619E-03    -294.822E-03     48.3558E-03     44.3348E+06     21.1898E+06    -21.1618E+06    -19.6311E+06     19.6591E+06     44.3348E+06     2.00745E+06         72.0852
            1061     8.94321E-03     14.3378E-03         1.43622    -411.708E-03    -428.845E-03    -423.481E-03         1.43605    -416.903E-03     13.0957E-03     598.080E-03    -293.606E-03    -304.833E-03    -304.519E-03     597.766E-03    -293.606E-03     32.7010E-03     37.0773E+06     16.4858E+06    -25.3466E+06    -24.6492E+06     15.7884E+06     37.0773E+06     2.25402E+06         71.1251
            1062     8.20823E-03     14.2589E-03         1.43274    -406.216E-03    -422.998E-03    -411.930E-03         1.43256    -417.105E-03     5.16436E-03     598.158E-03    -292.497E-03    -305.307E-03    -305.205E-03     598.056E-03    -292.497E-03     17.4316E-03     27.1514E+06     10.3728E+06    -31.0042E+06    -30.2639E+06     9.63257E+06     27.1514E+06     2.72529E+06         70.4734
            1063     7.47203E-03     14.1966E-03         1.43326    -410.244E-03    -425.981E-03    -418.676E-03         1.43311    -417.399E-03    -2.12603E-03     595.450E-03    -291.773E-03    -304.419E-03    -304.402E-03     595.433E-03    -291.773E-03     3.27003E-03     16.1655E+06     2.39354E+06    -36.6290E+06    -35.9420E+06     1.70649E+06     16.1655E+06     2.76168E+06         69.9031
            1064     6.73554E-03     14.1525E-03         1.43611    -415.720E-03    -422.165E-03    -420.658E-03         1.43606    -417.181E-03    -10.8582E-03     591.388E-03    -290.101E-03    -302.028E-03    -301.994E-03     591.354E-03    -290.101E-03    -8.96194E-03     4.61132E+06    -5.53927E+06    -42.7818E+06    -41.7958E+06    -6.52525E+06     4.61132E+06     3.17774E+06         69.3180
            1065     5.99607E-03     14.1162E-03         1.43623    -412.933E-03    -420.013E-03    -415.783E-03         1.43614    -417.074E-03    -19.3256E-03     587.388E-03    -288.403E-03    -298.768E-03    -298.655E-03     587.275E-03    -288.403E-03    -19.2977E-03     -8.8476E+06    -16.1431E+06    -50.7599E+06    -49.5292E+06    -16.7719E+06    -9.44948E+06     4.49515E+06         68.7265
            1066     5.25487E-03     14.0975E-03         1.43822    -412.074E-03    -425.481E-03    -420.446E-03         1.43803    -416.913E-03     2.91399E-03     583.965E-03    -287.238E-03    -296.225E-03    -296.010E-03     583.749E-03    -287.238E-03    -27.1857E-03    -21.3240E+06    -28.3741E+06    -59.7438E+06    -57.4906E+06    -27.6428E+06    -24.3086E+06     6.45702E+06         68.1607
            1067     4.51064E-03     14.0897E-03         1.43871    -412.377E-03    -424.937E-03    -420.753E-03         1.43845    -416.307E-03    -2.72819E-03     579.791E-03    -285.846E-03    -293.873E-03    -293.571E-03     579.488E-03    -285.846E-03    -32.2972E-03    -33.7788E+06    -40.2261E+06    -68.8285E+06    -65.2805E+06    -38.6295E+06    -38.9234E+06     8.76270E+06         67.5667
            1068     3.76296E-03     14.0877E-03         1.43417    -409.763E-03    -419.030E-03    -411.894E-03         1.43365    -416.377E-03     14.3694E-03     574.482E-03    -284.072E-03    -290.890E-03    -290.547E-03     574.138E-03    -284.072E-03    -34.3037E-03    -45.0634E+06    -53.4540E+06    -78.6259E+06    -73.6352E+06    -50.1433E+06    -53.3649E+06     10.7068E+06         67.0151
            1069     3.01317E-03     14.0920E-03         1.43770    -413.237E-03    -422.170E-03    -418.005E-03         1.43692    -416.619E-03     2.99037E-03     569.525E-03    -282.455E-03    -287.812E-03    -287.488E-03     569.201E-03    -282.455E-03    -33.1531E-03    -54.2509E+06    -66.5145E+06    -86.8348E+06    -80.9050E+06    -60.1806E+06    -66.5145E+06     11.5379E+06         66.5917
            1070     2.26210E-03     14.1022E-03         1.44696    -411.058E-03    -433.481E-03    -429.682E-03         1.44581    -413.707E-03     16.7343E-03     565.529E-03    -281.613E-03    -284.619E-03    -284.370E-03     565.281E-03    -281.613E-03    -28.8101E-03    -63.3005E+06    -78.0070E+06    -92.3876E+06    -86.8200E+06    -68.8681E+06    -78.0070E+06     10.6950E+06         66.2330
            1071     1.50937E-03     14.1146E-03         1.44400    -400.333E-03    -433.694E-03    -421.719E-03         1.43888    -407.195E-03    -58.4918E-03     563.081E-03    -280.958E-03    -282.141E-03    -281.998E-03     562.938E-03    -280.958E-03    -21.4952E-03    -71.1669E+06    -86.8329E+06    -96.0989E+06    -91.0621E+06    -76.2037E+06    -86.8329E+06     8.99282E+06         65.9182
            1072     755.389E-06     14.1184E-03         1.42962    -351.630E-03    -475.716E-03    -450.514E-03         1.40863    -355.843E-03     141.478E-03     561.364E-03    -280.022E-03    -281.400E-03    -280.793E-03     561.313E-03    -280.578E-03    -11.9726E-03    -81.0018E+06    -91.8135E+06    -97.2188E+06    -92.7543E+06    -85.4663E+06    -91.8135E+06     5.82435E+06         65.7035
            1073     12.6606E-03     13.2053E-03         1.44320    -324.560E-03    -514.089E-03    -420.148E-03         1.44307    -418.363E-03    -6.45880E-03     587.590E-03    -293.128E-03    -296.872E-03    -291.848E-03     584.680E-03    -295.241E-03     98.3103E-03     49.8081E+06     30.8677E+06    -2.83380E+06    -2.69221E+06     30.7261E+06     49.8081E+06     1.03690E+06         83.3571
            1074     11.9166E-03     12.9933E-03         1.43488    -335.626E-03    -494.070E-03    -410.005E-03         1.43430    -419.116E-03     28.4471E-03     592.241E-03    -295.348E-03    -298.620E-03    -295.627E-03     589.248E-03    -295.348E-03     100.594E-03     46.1465E+06     28.5039E+06    -7.33946E+06    -6.75745E+06     27.9219E+06     46.1465E+06     2.27901E+06         80.2778
            1075     11.1667E-03     12.8601E-03         1.43919    -364.292E-03    -481.909E-03    -425.713E-03         1.43833    -419.631E-03     9.02703E-03     596.917E-03    -295.165E-03    -301.396E-03    -299.797E-03     595.318E-03    -295.165E-03     75.6352E-03     45.1836E+06     26.7937E+06    -12.0133E+06    -10.2047E+06     24.9850E+06     45.1836E+06     2.09906E+06         76.9327
            1076     10.4298E-03     12.7181E-03         1.43407    -371.812E-03    -467.046E-03    -418.896E-03         1.43374    -419.631E-03    -18.7196E-03     600.690E-03    -294.376E-03    -305.618E-03    -304.482E-03     599.555E-03    -294.376E-03     63.3493E-03     43.0528E+06     25.2269E+06    -15.3162E+06    -12.9112E+06     22.8218E+06     43.0528E+06     1.68889E+06         74.2646
            1077     9.69429E-03     12.6026E-03         1.42990    -373.068E-03    -439.247E-03    -391.327E-03         1.42979    -420.887E-03     11.1842E-03     601.205E-03    -293.332E-03    -308.420E-03    -307.831E-03     600.616E-03    -293.332E-03     45.4841E-03     37.2658E+06     21.8504E+06    -19.0722E+06    -17.5327E+06     20.3110E+06     37.2658E+06     2.39768E+06         72.5533
            1078     8.96263E-03     12.5071E-03         1.43610    -409.316E-03    -441.865E-03    -429.107E-03         1.43591    -421.888E-03     7.98325E-03     600.887E-03    -291.681E-03    -310.326E-03    -310.065E-03     600.627E-03    -291.681E-03     29.8887E-03     29.5382E+06     16.4670E+06    -22.6246E+06    -21.7104E+06     15.5528E+06     29.5382E+06     3.10817E+06         71.5322
            1079     8.23115E-03     12.4298E-03         1.44584    -409.493E-03    -428.258E-03    -415.497E-03         1.44565    -422.064E-03     15.1443E-03     598.777E-03    -289.868E-03    -309.773E-03    -309.695E-03     598.699E-03    -289.868E-03     15.1419E-03     18.4858E+06     9.66351E+06    -27.1553E+06    -26.1605E+06     8.66863E+06     18.4858E+06     4.33530E+06         70.7815
            1080     7.49957E-03     12.3763E-03         1.44990    -422.095E-03    -431.263E-03    -431.159E-03         1.44980    -422.095E-03     20.8337E-03     595.212E-03    -288.423E-03    -307.997E-03    -307.985E-03     595.200E-03    -288.423E-03     1.31416E-03     7.62393E+06     204.623E+03    -33.5228E+06    -31.2239E+06     373.737E+03     5.15596E+06     6.36589E+06         70.0899
            1081     6.76454E-03     12.3373E-03         1.44758    -421.491E-03    -427.329E-03    -427.179E-03         1.44743    -421.491E-03     17.7106E-03     590.741E-03    -286.364E-03    -305.413E-03    -305.370E-03     590.698E-03    -286.364E-03    -10.9338E-03    -3.28369E+06    -10.8167E+06    -41.8766E+06    -37.7585E+06    -9.64538E+06    -8.57304E+06     9.62630E+06         69.3902
            1082     6.02744E-03     12.3135E-03         1.44368    -417.244E-03    -423.751E-03    -419.391E-03         1.44346    -421.385E-03     193.508E-06     584.268E-03    -283.693E-03    -301.069E-03    -300.935E-03     584.134E-03    -283.693E-03    -21.2641E-03    -12.6289E+06    -20.9795E+06    -51.0598E+06    -44.6272E+06    -19.2833E+06    -20.7577E+06     13.0712E+06         68.6686
            1083     5.28631E-03     12.3059E-03         1.43928    -413.900E-03    -423.155E-03    -414.684E-03         1.43895    -422.036E-03     15.0023E-03     578.319E-03    -281.349E-03    -296.881E-03    -296.630E-03     578.068E-03    -281.349E-03    -29.3949E-03    -19.8010E+06    -31.4985E+06    -60.1553E+06    -51.6584E+06    -28.2979E+06    -31.4985E+06     15.4965E+06         67.9292
            1084     4.54111E-03     12.3106E-03         1.44109    -415.048E-03    -423.236E-03    -414.614E-03         1.44066    -423.236E-03     4.39687E-03     571.369E-03    -279.530E-03    -292.803E-03    -292.450E-03     571.016E-03    -279.530E-03    -34.8807E-03    -27.3800E+06    -41.3435E+06    -68.0594E+06    -58.4083E+06    -37.0311E+06    -41.3435E+06     16.9034E+06         67.1490
            1085     3.79221E-03     12.3220E-03         1.44932    -419.634E-03    -424.730E-03    -419.477E-03         1.44883    -424.401E-03     8.84119E-03     563.302E-03    -277.521E-03    -287.478E-03    -287.077E-03     562.901E-03    -277.521E-03    -36.9600E-03    -33.7047E+06    -49.6742E+06    -73.8506E+06    -63.5634E+06    -43.9919E+06    -49.6742E+06     17.0818E+06         66.4092
            1086     3.03934E-03     12.3365E-03         1.45036    -421.501E-03    -426.501E-03    -422.304E-03         1.44986    -425.203E-03     9.61457E-03     557.520E-03    -275.141E-03    -282.335E-03    -281.959E-03     557.143E-03    -275.141E-03    -35.5431E-03    -40.0111E+06    -57.0596E+06    -76.9071E+06    -67.3973E+06    -49.5209E+06    -57.0596E+06     15.7248E+06         65.8020
            1087     2.28292E-03     12.3501E-03         1.44463    -413.988E-03    -428.715E-03    -414.216E-03         1.44388    -427.746E-03     9.60613E-03     551.828E-03    -273.167E-03    -278.430E-03    -278.146E-03     551.543E-03    -273.167E-03    -30.5679E-03    -46.0774E+06    -63.3620E+06    -77.7232E+06      -70.02E+06    -53.7805E+06    -63.3620E+06     12.7858E+06         65.3174
            1088     1.52385E-03     12.3655E-03         1.46110    -415.040E-03    -435.838E-03    -412.493E-03         1.45855    -435.838E-03    -46.2228E-03     546.447E-03    -271.792E-03    -274.633E-03    -274.471E-03     546.286E-03    -271.792E-03    -22.5323E-03    -52.4613E+06    -67.8448E+06    -75.8695E+06    -70.5511E+06    -57.5961E+06    -68.0284E+06     8.65573E+06         64.9410
            1089     762.518E-06     12.3839E-03         1.50117    -371.392E-03    -522.014E-03    -502.192E-03         1.49152    -381.562E-03     70.2171E-03     542.550E-03    -270.535E-03    -272.040E-03    -271.238E-03     542.493E-03    -271.280E-03    -12.5888E-03    -59.5668E+06    -70.2013E+06    -74.6229E+06    -70.2224E+06    -63.7838E+06    -70.3849E+06     4.98113E+06         64.6898
            1090     12.6646E-03     11.4090E-03         1.45349     51.6991E-03    -927.747E-03    -452.115E-03         1.45105    -421.493E-03    -75.1574E-03     591.306E-03    -294.153E-03    -299.253E-03    -295.390E-03     588.437E-03    -295.146E-03     97.3977E-03     46.2123E+06     29.3447E+06    -3.56507E+06    -2.71061E+06     28.4902E+06     46.2123E+06     1.23195E+06         83.9624
            1091     11.9185E-03     11.1847E-03         1.45274     48.3034E-03    -768.909E-03    -293.184E-03         1.45021    -424.889E-03     34.0254E-03     596.857E-03    -295.046E-03    -303.460E-03    -300.513E-03     593.909E-03    -295.046E-03     99.7430E-03     43.0996E+06     28.3670E+06    -6.76883E+06    -5.22420E+06     26.8224E+06     43.0996E+06     1.38406E+06         80.8979
            1092     11.1783E-03     11.0434E-03         1.44877    -249.156E-03    -785.042E-03    -609.147E-03         1.44683    -423.116E-03    -4.13565E-03     601.322E-03    -294.028E-03    -306.931E-03    -305.472E-03     599.862E-03    -294.028E-03     72.6763E-03     39.8089E+06     27.1542E+06    -9.87265E+06    -6.89274E+06     24.7213E+06     39.2620E+06     1.63551E+06         77.5005
            1093     10.4433E-03     10.8930E-03         1.44512    -218.101E-03    -490.678E-03    -284.876E-03         1.44315    -421.930E-03    -17.2776E-03     603.089E-03    -292.532E-03    -310.348E-03    -309.292E-03     602.033E-03    -292.532E-03     61.4451E-03     34.3878E+06     24.1786E+06    -13.6144E+06    -11.0173E+06     22.1285E+06     33.8408E+06     2.47793E+06         74.7278
            1094     9.71348E-03     10.7750E-03         1.44815    -395.450E-03    -500.913E-03    -470.319E-03         1.44742    -425.319E-03     32.6160E-03     601.180E-03    -291.175E-03    -311.735E-03    -311.159E-03     600.604E-03    -291.175E-03     45.2159E-03     28.3740E+06     19.9245E+06    -15.9593E+06    -13.7426E+06     18.4913E+06     27.5905E+06     3.68755E+06         72.8978
            1095     8.98318E-03     10.6762E-03         1.44425    -402.532E-03    -448.424E-03    -427.194E-03         1.44416    -423.673E-03    -13.4112E-03     600.402E-03    -289.343E-03    -312.543E-03    -312.259E-03     600.117E-03    -289.343E-03     31.4908E-03     19.4564E+06     11.3656E+06    -19.8062E+06    -17.8666E+06     12.4959E+06     16.3865E+06     5.93549E+06         71.7673
            1096     8.25345E-03     10.6024E-03         1.43830    -400.752E-03    -424.861E-03    -400.965E-03         1.43822    -424.560E-03     1.17666E-03     598.185E-03    -287.587E-03    -311.696E-03    -311.590E-03     598.079E-03    -287.587E-03     18.1118E-03     9.61041E+06     543.664E+03    -27.6342E+06    -23.5377E+06     3.66934E+06     2.38826E+06     9.27619E+06         70.9211
            1097     7.52237E-03     10.5571E-03         1.44078    -418.654E-03    -426.523E-03    -419.164E-03         1.44070    -425.939E-03    -851.559E-06     593.724E-03    -285.315E-03    -309.963E-03    -309.943E-03     593.704E-03    -285.315E-03     5.19639E-03     2.25297E+06    -9.59973E+06    -37.3699E+06    -29.5383E+06    -5.59107E+06    -9.58727E+06     14.1596E+06         70.1355
            1098     6.78960E-03     10.5305E-03         1.44980    -420.671E-03    -427.958E-03    -421.834E-03         1.44957    -426.567E-03     2.22433E-03     588.049E-03    -282.808E-03    -306.977E-03    -306.952E-03     588.024E-03    -282.808E-03    -6.51526E-03    -2.93546E+06    -18.0458E+06    -45.9894E+06    -35.3949E+06    -13.5300E+06    -18.0458E+06     18.2889E+06         69.3575
            1099     6.05321E-03     10.5211E-03         1.45774    -424.024E-03    -429.184E-03    -425.766E-03         1.45726    -426.959E-03    -17.9352E-03     581.078E-03    -279.868E-03    -302.001E-03    -301.913E-03     580.990E-03    -279.868E-03    -16.6223E-03    -6.37869E+06    -23.4057E+06    -53.5413E+06    -40.2485E+06    -19.6715E+06    -23.4057E+06     21.0496E+06         68.5572
            1100     5.31262E-03     10.5285E-03         1.46075    -421.942E-03    -435.034E-03    -429.550E-03         1.46022    -426.895E-03    -3.34304E-03     573.459E-03    -276.742E-03    -296.677E-03    -296.499E-03     573.282E-03    -276.742E-03    -24.1860E-03    -10.2750E+06    -26.9802E+06    -58.4022E+06    -44.2987E+06    -24.3786E+06    -26.9802E+06     21.8196E+06         67.7103
            1101     4.56738E-03     10.5483E-03         1.45981    -422.097E-03    -435.875E-03    -431.145E-03         1.45934    -426.355E-03    -6.05005E-03     564.693E-03    -274.240E-03    -290.889E-03    -290.630E-03     564.435E-03    -274.240E-03    -29.1900E-03    -15.3037E+06    -31.0356E+06    -60.8996E+06    -47.8917E+06    -28.3117E+06    -31.0356E+06     20.3440E+06         66.8204
            1102     3.81676E-03     10.5764E-03         1.45322    -421.142E-03    -428.819E-03    -423.255E-03         1.45284    -426.319E-03    -15.1479E-03     555.080E-03    -271.714E-03    -284.263E-03    -283.965E-03     554.782E-03    -271.714E-03    -31.1566E-03    -20.5590E+06    -35.3833E+06    -60.6980E+06    -50.2390E+06    -31.0180E+06    -35.3833E+06     17.3917E+06         65.9518
            1103     3.06105E-03     10.6022E-03         1.45015    -419.228E-03    -427.788E-03    -418.921E-03         1.44985    -427.788E-03    -8.52249E-03     547.374E-03    -269.128E-03    -278.129E-03    -277.846E-03     547.091E-03    -269.128E-03    -30.1294E-03    -25.4432E+06    -40.1603E+06    -59.5469E+06    -51.4363E+06    -33.5538E+06    -40.1603E+06     13.8499E+06         65.1885
            1104     2.30051E-03     10.6326E-03         1.45929    -417.308E-03    -438.278E-03    -425.638E-03         1.45897    -429.630E-03    -5.37268E-03     540.006E-03    -266.726E-03    -272.946E-03    -272.728E-03     539.788E-03    -266.726E-03    -26.1975E-03    -30.9903E+06    -45.7654E+06    -58.0166E+06    -52.2554E+06    -36.7515E+06    -45.7654E+06     10.0986E+06         64.6031
            1105     1.53610E-03     10.6566E-03         1.47128    -416.508E-03    -446.289E-03    -430.482E-03         1.46941    -430.444E-03    -30.9708E-03     533.185E-03    -265.059E-03    -268.267E-03    -268.140E-03     533.058E-03    -265.059E-03    -19.6290E-03    -36.3947E+06    -49.9475E+06    -56.2649E+06    -52.6542E+06    -39.8217E+06    -50.1311E+06     6.10309E+06         64.1960
            1106     768.859E-06     10.6781E-03         1.47021    -345.815E-03    -519.065E-03    -509.664E-03         1.46677    -351.772E-03     30.0242E-03     528.993E-03    -263.852E-03    -265.153E-03    -264.918E-03     528.947E-03    -264.041E-03    -11.0334E-03    -42.0035E+06    -51.4950E+06    -57.4020E+06    -52.5112E+06    -46.7107E+06    -51.6786E+06     2.78451E+06         63.9280
            1107     12.6673E-03     9.59308E-03         1.60939     483.787E-03        -1.52735    -432.723E-03         1.42233    -423.784E-03     9.57206E-03     597.453E-03    -294.600E-03    -304.904E-03    -302.157E-03     594.705E-03    -294.600E-03     95.0904E-03     41.6469E+06     29.3164E+06    -4.87737E+06    -2.86624E+06     27.6149E+06     41.3373E+06     146.535E+03         84.6376
            1108     11.9327E-03     9.36548E-03         1.63343     478.951E-03        -1.37206    -276.777E-03         1.44572    -428.620E-03     5.65732E-03     601.786E-03    -294.109E-03    -309.447E-03    -306.524E-03     598.863E-03    -294.109E-03     99.9829E-03     37.1482E+06     27.6020E+06    -6.12554E+06    -3.51501E+06     26.0165E+06     36.1232E+06    -442.003E+03         81.5647
            1109     11.1933E-03     9.20899E-03         1.45964     208.741E-03        -1.36728    -712.814E-03         1.43775    -423.835E-03    -59.4939E-03     602.683E-03    -293.177E-03    -310.617E-03    -309.155E-03     601.222E-03    -293.177E-03     72.9428E-03     31.7333E+06     24.3980E+06    -11.1285E+06    -5.86806E+06     20.7095E+06     30.1614E+06     760.216E+03         78.0446
            1110     10.4635E-03     9.05728E-03         1.47184     205.489E-03    -718.051E-03    -63.8470E-03         1.45021    -427.086E-03     47.0468E-03     601.985E-03    -291.569E-03    -311.834E-03    -310.683E-03     600.835E-03    -291.569E-03     64.3790E-03     29.2682E+06     19.4835E+06    -13.8443E+06    -6.78031E+06     17.4684E+06     24.2194E+06     4.43062E+06         75.0690
            1111     9.73091E-03     8.94015E-03         1.46598    -369.538E-03    -735.274E-03    -672.375E-03         1.46473    -431.183E-03     33.3317E-03     599.979E-03    -289.291E-03    -312.739E-03    -312.038E-03     599.277E-03    -289.291E-03     49.7496E-03     21.2335E+06     9.37730E+06    -17.8938E+06    -12.6626E+06     13.2372E+06     12.1424E+06     9.42601E+06         73.0265
            1112     9.00035E-03     8.84661E-03         1.46289    -352.797E-03    -437.870E-03    -365.548E-03         1.46252    -424.744E-03    -20.1533E-03     598.381E-03    -287.416E-03    -313.056E-03    -312.721E-03     598.047E-03    -287.416E-03     34.1184E-03     12.2237E+06    -822.534E+03    -26.4779E+06    -19.1056E+06     4.85138E+06    -822.534E+03     13.9795E+06         71.7179
            1113     8.27045E-03     8.78137E-03         1.45927    -414.352E-03    -438.810E-03    -425.769E-03         1.45920    -427.321E-03     20.0011E-03     595.050E-03    -285.613E-03    -311.188E-03    -311.060E-03     594.922E-03    -285.613E-03     20.6599E-03     8.99567E+06    -8.91830E+06    -36.4946E+06    -24.5560E+06    -2.94288E+06    -8.91830E+06     19.1475E+06         70.7416
            1114     7.53946E-03     8.74081E-03         1.45585    -419.882E-03    -441.209E-03    -433.756E-03         1.45568    -427.166E-03     12.0371E-03     588.872E-03    -282.873E-03    -308.315E-03    -308.282E-03     588.839E-03    -282.873E-03     9.61255E-03     5.40999E+06    -12.3164E+06    -43.7260E+06    -29.7226E+06    -8.59339E+06    -12.3164E+06     22.1524E+06         69.8517
            1115     6.80547E-03     8.72827E-03         1.45403    -420.012E-03    -429.647E-03    -422.352E-03         1.45382    -427.092E-03     5.76161E-03     582.117E-03    -280.150E-03    -304.481E-03    -304.471E-03     582.108E-03    -280.150E-03     1.01091E-03     3.85235E+06    -12.1108E+06    -48.1025E+06    -32.9865E+06    -11.2637E+06    -12.1108E+06     23.5333E+06         69.0117
            1116     6.06887E-03     8.73401E-03         1.45564    -421.854E-03    -427.693E-03    -421.446E-03         1.45523    -427.693E-03    -21.4380E-03     575.902E-03    -277.651E-03    -299.275E-03    -299.248E-03     575.875E-03    -277.651E-03    -5.14351E-03     869.642E+03    -11.4166E+06    -48.6767E+06    -35.2651E+06    -12.5419E+06    -11.4166E+06     21.9107E+06         68.2078
            1117     5.32704E-03     8.76068E-03         1.46091    -420.402E-03    -435.142E-03    -426.946E-03         1.46043    -428.122E-03    -4.74682E-03     567.749E-03    -275.143E-03    -293.611E-03    -293.555E-03     567.692E-03    -275.143E-03    -9.36064E-03    -2.29754E+06    -11.5788E+06    -47.6932E+06    -36.3264E+06    -13.6644E+06    -11.5788E+06     19.2573E+06         67.3856
            1118     4.57970E-03     8.79255E-03         1.46258    -421.984E-03    -437.377E-03    -431.141E-03         1.46222    -427.857E-03    -3.11316E-03     559.409E-03    -272.410E-03    -287.452E-03    -287.369E-03     559.326E-03    -272.410E-03    -12.4007E-03    -5.29781E+06    -13.0572E+06    -45.3812E+06    -36.6660E+06    -14.0475E+06    -13.0227E+06     16.0116E+06         66.5143
            1119     3.82746E-03     8.83639E-03         1.46153    -422.292E-03    -432.702E-03    -427.180E-03         1.46118    -427.465E-03    -8.22352E-03     551.666E-03    -269.144E-03    -281.297E-03    -281.197E-03     551.566E-03    -269.144E-03    -14.2762E-03    -10.0957E+06    -17.2658E+06    -43.3385E+06    -37.6255E+06    -15.8432E+06    -17.2314E+06     11.8416E+06         65.6486
            1120     3.06971E-03     8.87944E-03         1.46272    -422.386E-03    -433.158E-03    -428.120E-03         1.46254    -427.243E-03     7.53722E-03     543.263E-03    -266.245E-03    -275.999E-03    -275.901E-03     543.165E-03    -266.245E-03    -14.5943E-03    -15.6896E+06    -23.7306E+06    -42.7602E+06    -39.1392E+06    -19.3106E+06    -23.7306E+06     8.41185E+06         64.8903
            1121     2.30723E-03     8.92346E-03         1.46227    -417.325E-03    -438.525E-03    -428.923E-03         1.46204    -426.699E-03     17.6364E-03     534.548E-03    -264.393E-03    -270.441E-03    -270.362E-03     534.469E-03    -264.393E-03    -13.3038E-03    -21.0765E+06    -30.7603E+06    -42.9985E+06    -40.7003E+06    -23.3747E+06    -30.7603E+06     5.55809E+06         64.3118
            1122     1.54055E-03     8.95812E-03         1.45928    -408.875E-03    -442.682E-03    -424.243E-03         1.45880    -426.838E-03     12.8988E-03     528.195E-03    -263.148E-03    -265.501E-03    -265.454E-03     528.147E-03    -263.148E-03    -10.1858E-03    -26.5674E+06    -36.4828E+06    -44.8363E+06    -41.8763E+06    -28.3598E+06    -37.6503E+06     3.29638E+06         63.9105
            1123     770.975E-06     8.98580E-03         1.45793    -342.171E-03    -513.978E-03    -502.396E-03         1.45615    -351.974E-03     55.6224E-03     525.241E-03    -261.835E-03    -263.359E-03    -263.343E-03     525.225E-03    -261.835E-03    -5.57320E-03    -33.2604E+06    -39.8361E+06    -46.2298E+06    -41.2147E+06    -37.1079E+06    -41.0036E+06     1.46289E+06         63.6482
            1124     12.6753E-03     7.77295E-03         1.84439     490.959E-03        -1.55258    -218.128E-03         1.43078    -429.880E-03     86.8456E-03     602.552E-03    -293.725E-03    -310.619E-03    -307.543E-03     599.476E-03    -293.725E-03     100.018E-03     37.1938E+06     29.0945E+06    -2.68256E+06     3.99949E+06     27.7173E+06     31.8890E+06    -1.06100E+06         85.3328
            1125     11.9383E-03     7.53552E-03         1.84347     488.645E-03        -1.92485    -589.643E-03         1.42911    -432.194E-03     41.9427E-03     605.988E-03    -292.715E-03    -314.834E-03    -311.320E-03     602.475E-03    -292.715E-03     110.620E-03     32.3764E+06     21.5679E+06    -8.62139E+06     1.88415E+06     19.0763E+06     24.3624E+06     193.863E+03         82.2125
            1126     11.2101E-03     7.37117E-03         1.81589     513.036E-03        -1.91400    -612.974E-03         1.44925    -421.346E-03    -40.7228E-03     604.432E-03    -292.032E-03    -314.373E-03    -312.556E-03     602.614E-03    -292.032E-03     81.2074E-03     30.0448E+06     14.4109E+06    -20.0893E+06    -2.89487E+06     10.8796E+06     16.3817E+06     6.98691E+06         78.4928
            1127     10.4749E-03     7.23026E-03         1.82528     500.121E-03        -1.18349     116.784E-03         1.45939    -434.262E-03     75.1159E-03     603.483E-03    -290.428E-03    -315.494E-03    -314.247E-03     602.236E-03    -290.428E-03     66.8190E-03     22.4586E+06     3.66242E+06    -25.0025E+06    -13.8114E+06     9.29670E+06     5.63317E+06     13.2684E+06         75.2164
            1128     9.74422E-03     7.10156E-03         1.45417    -188.472E-03        -1.18440    -936.916E-03         1.45339    -435.179E-03     3.72717E-03     600.656E-03    -287.575E-03    -314.905E-03    -314.283E-03     600.034E-03    -287.575E-03     45.5116E-03     14.3234E+06     179.639E+03    -29.8945E+06    -19.9066E+06     4.33558E+06     179.639E+03     17.5655E+06         72.8445
            1129     9.01675E-03     7.01372E-03         1.45969    -177.310E-03    -447.090E-03    -197.928E-03         1.45897    -425.750E-03    -13.1731E-03     594.683E-03    -285.330E-03    -311.713E-03    -311.484E-03     594.454E-03    -285.330E-03     27.2182E-03     14.1988E+06    -885.783E+03    -37.4884E+06    -22.8571E+06    -432.566E+03    -885.783E+03     22.7221E+06         71.2263
            1130     8.28624E-03     6.95942E-03         1.47365    -431.772E-03    -469.141E-03    -467.139E-03         1.47338    -433.505E-03     30.7147E-03     587.814E-03    -283.510E-03    -306.201E-03    -306.106E-03     587.719E-03    -283.510E-03     17.9227E-03     13.2194E+06     106.046E+03    -40.4812E+06    -25.8395E+06    -2.44959E+06     1.13338E+06     23.4594E+06         70.0337
            1131     7.55079E-03     6.93157E-03         1.47670    -429.111E-03    -448.274E-03    -445.844E-03         1.47659    -431.423E-03     18.3901E-03     580.159E-03    -281.551E-03    -300.317E-03    -300.264E-03     580.106E-03    -281.551E-03     13.0957E-03     13.7462E+06     2.85212E+06    -40.3232E+06    -27.1180E+06    -1.99895E+06     5.39206E+06     22.2030E+06         69.0501
            1132     6.81153E-03     6.93267E-03         1.47047    -427.206E-03    -434.909E-03    -431.267E-03         1.47033    -430.701E-03     28.0469E-03     572.522E-03    -279.775E-03    -295.144E-03    -295.091E-03     572.470E-03    -279.775E-03     11.5405E-03     15.4429E+06     4.12826E+06    -37.5928E+06    -27.2496E+06    -72.8632E+03     9.30079E+06     18.9029E+06         68.2172
            1133     6.06693E-03     6.95303E-03         1.46542    -425.766E-03    -432.461E-03    -427.329E-03         1.46533    -430.809E-03     11.9927E-03     567.387E-03    -277.902E-03    -290.287E-03    -290.212E-03     567.312E-03    -277.902E-03     12.3856E-03     13.2876E+06     4.57869E+06    -33.6405E+06    -27.0263E+06     750.638E+03     10.5014E+06     14.1694E+06         67.4983
            1134     5.31942E-03     6.99510E-03         1.46051    -422.901E-03    -431.500E-03    -422.733E-03         1.46034    -431.500E-03     17.0289E-03     562.525E-03    -276.296E-03    -286.038E-03    -285.941E-03     562.428E-03    -276.296E-03     13.1768E-03     10.1832E+06     4.01614E+06    -31.8841E+06    -27.6969E+06     1.11802E+06     8.89420E+06     10.3487E+06         66.8462
            1135     4.56856E-03     7.04440E-03         1.46113    -423.608E-03    -432.725E-03    -423.413E-03         1.46094    -432.725E-03     10.5906E-03     557.408E-03    -274.763E-03    -282.554E-03    -282.450E-03     557.303E-03    -274.763E-03     12.6988E-03     5.08042E+06     503.166E+03    -31.0369E+06    -28.6487E+06    -1.07317E+06     4.26855E+06     6.76088E+06         66.2023
            1136     3.81406E-03     7.10237E-03         1.47295    -426.231E-03    -436.553E-03    -428.725E-03         1.47270    -433.815E-03     17.0550E-03     552.537E-03    -272.748E-03    -279.213E-03    -279.118E-03     552.441E-03    -272.748E-03     11.0423E-03    -2.13785E+06    -5.38832E+06    -32.0259E+06    -30.7225E+06    -5.38518E+06    -3.44438E+06     4.24322E+06         65.5787
            1137     3.05641E-03     7.16241E-03         1.47939    -429.490E-03    -439.793E-03    -435.187E-03         1.47917    -433.878E-03     23.0739E-03     547.549E-03    -270.679E-03    -275.917E-03    -275.844E-03     547.476E-03    -270.679E-03     8.63083E-03    -9.39504E+06    -13.6511E+06    -33.8170E+06    -33.1107E+06    -10.8953E+06    -12.8573E+06     2.21650E+06         65.0488
            1138     2.29562E-03     7.21563E-03         1.47181    -424.717E-03    -439.231E-03    -429.753E-03         1.47168    -434.059E-03     17.4261E-03     542.065E-03    -269.336E-03    -272.753E-03    -272.707E-03     542.018E-03    -269.336E-03     6.05333E-03    -16.4921E+06    -22.8642E+06    -35.8214E+06    -35.3514E+06    -16.9621E+06    -22.8642E+06     1.14651E+06         64.6325
            1139     1.53203E-03     7.26174E-03         1.47073    -419.604E-03    -443.739E-03    -425.377E-03         1.47033    -437.567E-03     6.98311E-03     538.111E-03    -268.482E-03    -269.914E-03    -269.890E-03     538.086E-03    -268.482E-03     3.93104E-03    -23.6913E+06    -30.8842E+06    -38.6227E+06    -37.0459E+06    -24.1006E+06    -32.0517E+06     418.401E+03         64.3227
            1140     766.302E-06     7.29257E-03         1.48205    -362.285E-03    -519.619E-03    -509.077E-03         1.48131    -372.087E-03     28.3668E-03     536.185E-03    -266.213E-03    -270.042E-03    -267.290E-03     536.172E-03    -268.954E-03     3.41652E-03    -30.8009E+06    -35.9682E+06    -43.2913E+06    -37.9172E+06    -35.0075E+06    -37.1357E+06    -238.228E+03         64.1197
            1141     12.6757E-03     5.94056E-03         2.33004     548.733E-03    -936.425E-03         1.09189         1.29714    -446.675E-03     273.634E-03     610.442E-03    -293.344E-03    -317.130E-03    -313.391E-03     606.703E-03    -293.344E-03     113.883E-03     39.3595E+06     17.6668E+06    -8.48015E+06     11.4449E+06     19.4344E+06     17.6668E+06     5.55236E+06         86.0375
            1142     11.9456E-03     5.69445E-03         2.37891     362.530E-03        -3.39073        -1.61272         1.42476    -461.333E-03     604.842E-03     616.113E-03    -292.011E-03    -324.741E-03    -321.163E-03     612.535E-03    -292.011E-03     110.851E-03     35.0890E+06     5.84308E+06    -24.1887E+06     4.25829E+06     6.64203E+06     5.84308E+06     12.6101E+06         82.8773
            1143     11.2102E-03     5.53722E-03         2.96209     533.526E-03        -3.34122    -950.554E-03         1.51677    -411.828E-03    -94.2283E-03     613.996E-03    -290.123E-03    -324.865E-03    -323.509E-03     612.640E-03    -290.123E-03     65.7815E-03     25.2654E+06    -2.31807E+06    -28.5843E+06    -9.43144E+06     6.11258E+06    -2.31807E+06     16.3531E+06         78.9145
            1144     10.4905E-03     5.38746E-03         2.92691     514.872E-03        -1.71777     672.491E-03         1.48200    -430.481E-03    -130.485E-03     608.869E-03    -287.613E-03    -322.205E-03    -321.551E-03     608.215E-03    -287.613E-03     40.5484E-03     13.2350E+06     64.4277E+03    -28.6634E+06    -18.2772E+06     2.84884E+06     64.4277E+03     15.9152E+06         75.2272
            1145     9.77090E-03     5.26878E-03         1.45993     45.4825E-03        -1.72516        -1.24152         1.45964    -437.864E-03     7.11580E-03     596.989E-03    -285.008E-03    -313.122E-03    -312.898E-03     596.765E-03    -285.008E-03     20.0049E-03     16.6040E+06     7.89757E+06    -33.9607E+06    -20.3170E+06     828.414E+03     10.0295E+06     20.7630E+06         72.3527
            1146     9.03977E-03     5.20125E-03         1.46923     58.8112E-03    -508.162E-03    -24.3959E-03         1.46881    -424.536E-03     8.22801E-03     582.920E-03    -283.058E-03    -301.670E-03    -301.610E-03     582.860E-03    -283.058E-03     10.6832E-03     25.4873E+06     10.8622E+06    -33.1566E+06    -21.0857E+06     3.89938E+06     20.3791E+06     20.6559E+06         70.2403
            1147     8.30019E-03     5.15997E-03         1.46997    -431.631E-03    -523.544E-03    -517.806E-03         1.46971    -437.110E-03     15.4377E-03     571.922E-03    -280.749E-03    -292.629E-03    -291.467E-03     571.869E-03    -281.858E-03     12.7523E-03     28.8041E+06     13.8890E+06    -29.2665E+06    -21.3571E+06     7.37375E+06     27.4099E+06     16.1885E+06         68.7501
            1148     7.55359E-03     5.15217E-03         1.47266    -422.415E-03    -436.769E-03    -425.186E-03         1.47263    -433.960E-03    -10.3038E-03     565.067E-03    -277.855E-03    -288.008E-03    -284.289E-03     564.969E-03    -281.475E-03     17.7243E-03     32.2501E+06     17.6870E+06    -26.5462E+06    -20.5918E+06     11.7326E+06     32.2501E+06     11.7250E+06         67.7489
            1149     6.80033E-03     5.16634E-03         1.47859    -428.552E-03    -437.067E-03    -430.897E-03         1.47848    -434.618E-03    -8.19803E-03     560.270E-03    -275.702E-03    -285.610E-03    -279.506E-03     560.089E-03    -281.625E-03     23.6190E-03     32.9898E+06     15.9305E+06    -22.1187E+06    -19.5630E+06     13.3748E+06     32.9898E+06     5.77944E+06         67.0842
            1150     6.04358E-03     5.19691E-03         1.47872    -432.215E-03    -437.298E-03    -434.521E-03         1.47858    -434.850E-03    -19.2362E-03     558.075E-03    -274.577E-03    -284.071E-03    -276.812E-03     557.798E-03    -281.560E-03     29.3237E-03     29.7361E+06     14.4388E+06    -21.9757E+06    -20.5950E+06     13.0581E+06     29.7361E+06     2.83620E+06         66.5998
            1151     5.28678E-03     5.23979E-03         1.48050    -431.710E-03    -439.624E-03    -436.539E-03         1.48045    -434.741E-03    -3.39930E-03     558.781E-03    -274.712E-03    -283.432E-03    -276.154E-03     558.430E-03    -281.639E-03     33.2562E-03     23.8866E+06     11.3884E+06    -23.4417E+06    -22.5522E+06     10.4990E+06     23.8866E+06     128.981E+03         66.2569
            1152     4.52995E-03     5.29610E-03         1.48315    -430.708E-03    -445.709E-03    -442.408E-03         1.48310    -433.952E-03    -5.25695E-03     560.474E-03    -276.107E-03    -283.703E-03    -277.259E-03     560.091E-03    -282.169E-03     34.8356E-03     14.6546E+06     5.84325E+06    -26.7850E+06    -26.3962E+06     5.45449E+06     14.6546E+06    -1.37061E+06         66.0475
            1153     3.77435E-03     5.36051E-03         1.47752    -425.838E-03    -440.383E-03    -432.577E-03         1.47738    -433.510E-03    -9.14060E-03     561.465E-03    -277.989E-03    -284.113E-03    -279.025E-03     561.109E-03    -282.721E-03     33.5709E-03     2.79884E+06    -1.04944E+06    -30.3268E+06    -29.8102E+06    -1.56597E+06     2.79884E+06    -2.40964E+06         65.9060
            1154     3.01909E-03     5.42171E-03         1.47533    -428.462E-03    -436.101E-03    -429.900E-03         1.47513    -434.468E-03    -13.5096E-03     562.661E-03    -279.726E-03    -283.511E-03    -280.132E-03     562.387E-03    -282.831E-03     29.3228E-03    -8.82819E+06    -11.8268E+06    -34.5037E+06     -34.063E+06    -10.1388E+06    -10.9569E+06    -2.68822E+06         65.7906
            1155     2.26425E-03     5.48433E-03         1.48344    -433.198E-03    -441.720E-03    -440.309E-03         1.48321    -434.379E-03    -15.1025E-03     564.126E-03    -281.227E-03    -282.822E-03    -281.314E-03     563.956E-03    -282.565E-03     22.9799E-03    -17.0751E+06    -23.6171E+06    -37.4000E+06    -37.0429E+06    -17.4323E+06    -23.6171E+06    -2.41126E+06         65.6945
            1156     1.50937E-03     5.52696E-03         1.48220    -430.979E-03    -442.017E-03    -441.758E-03         1.48195    -430.979E-03    -6.57143E-03     564.402E-03    -281.800E-03    -282.519E-03    -282.026E-03     564.321E-03    -282.212E-03     15.7437E-03    -24.5247E+06    -33.9528E+06    -40.4706E+06    -39.8181E+06    -25.1772E+06    -33.9528E+06    -2.05093E+06         65.6099
            1157     755.452E-06     5.56083E-03         1.46208    -364.275E-03    -492.956E-03    -492.444E-03         1.46157    -364.275E-03     4.78894E-03     563.911E-03    -280.206E-03    -283.774E-03    -280.339E-03     563.883E-03    -283.612E-03     8.25026E-03    -33.6643E+06    -40.6542E+06    -47.2973E+06    -42.0690E+06    -38.8926E+06    -40.6542E+06    -912.188E+03         65.5436
            1158     12.6697E-03     4.08828E-03         15.1758         1.96748    -442.183E-03         14.4985         2.64482    -442.183E-03        -3.03133     641.098E-03    -293.260E-03    -347.773E-03    -344.289E-03     637.615E-03    -293.260E-03     113.891E-03     39.0536E+06     7.35649E+06    -34.2564E+06     1.79514E+06     194.166E+03     10.1644E+06     13.7424E+06         86.7946
            1159     11.9560E-03     3.84069E-03         6.47885     453.896E-03        -11.2363        -4.96711         1.41882    -755.262E-03         2.66651     639.924E-03    -290.167E-03    -350.160E-03    -348.242E-03     638.006E-03    -290.167E-03     67.0744E-03     47.7356E+06     11.8438E+06    -21.6442E+06     9.11605E+06     15.5324E+06     13.2867E+06     20.2816E+06         83.6954
            1160     11.2529E-03     3.66780E-03         4.90895     405.283E-03        -10.9643        -6.46623         1.29942    -483.287E-03         1.48196     622.641E-03    -287.029E-03    -336.726E-03    -336.371E-03     622.286E-03    -287.029E-03     12.6629E-03     32.3881E+06     15.7646E+06    -20.8469E+06     3.74288E+06     6.12021E+06     17.4428E+06     18.3050E+06         79.5836
            1161     10.5435E-03     3.54435E-03         4.99097     493.108E-03        -2.14759         2.25064         1.48130    -395.462E-03    -431.592E-03     601.679E-03    -284.081E-03    -317.851E-03    -317.758E-03     601.586E-03    -284.081E-03    -1.78001E-03     30.4791E+06     26.2095E+06    -23.2511E+06    -2.10206E+06     5.90753E+06     29.6321E+06     22.6931E+06         75.4846
            1162     9.81339E-03     3.46131E-03         1.46955     213.669E-03        -2.19448        -1.53809         1.46917    -442.352E-03     33.9775E-03     579.974E-03    -281.354E-03    -298.808E-03    -298.179E-03     579.958E-03    -281.967E-03    -2.54658E-03     40.4240E+06     24.4351E+06    -23.5804E+06    -10.1953E+06     11.7883E+06     39.6858E+06     19.5482E+06         72.0352
            1163     9.06930E-03     3.42467E-03         1.47607     233.604E-03    -577.239E-03     79.1042E-03         1.47575    -422.417E-03     16.9260E-03     562.035E-03    -276.539E-03    -286.805E-03    -282.275E-03     562.020E-03    -281.054E-03     3.49072E-03      47.404E+06     22.5239E+06    -16.5547E+06    -12.6176E+06     18.5868E+06      47.404E+06     10.0327E+06         69.3626
            1164     8.31029E-03     3.40699E-03         1.47420    -423.001E-03    -591.373E-03    -577.740E-03         1.47412    -436.550E-03    -4.49135E-03     551.095E-03    -269.821E-03    -282.220E-03    -270.851E-03     551.030E-03    -281.125E-03     13.3802E-03     51.0843E+06     26.7251E+06    -16.6733E+06    -13.2566E+06     23.3083E+06     51.0843E+06     4.22582E+06         67.5285
            1165     7.54248E-03     3.41138E-03         1.47195    -408.239E-03    -431.285E-03    -408.170E-03         1.47188    -431.285E-03    -10.8115E-03     547.082E-03    -265.341E-03    -282.266E-03    -265.189E-03     546.930E-03    -282.266E-03     21.7825E-03     49.2170E+06     25.9577E+06    -15.9400E+06    -13.8225E+06     23.8402E+06     49.2170E+06    -2.68887E+06         66.5023
            1166     6.77387E-03     3.42947E-03         1.47606    -423.429E-03    -434.868E-03    -425.269E-03         1.47595    -432.925E-03    -9.87798E-03     548.268E-03    -264.046E-03    -284.414E-03    -263.783E-03     548.006E-03    -284.414E-03     29.0098E-03     41.7030E+06     22.4854E+06    -17.8539E+06    -16.5372E+06     21.1686E+06     41.7030E+06    -5.13268E+06         66.0871
            1167     6.00580E-03     3.46018E-03         1.48448    -432.554E-03    -439.442E-03    -438.807E-03         1.48434    -433.050E-03    -26.4430E-03     551.805E-03    -265.259E-03    -287.023E-03    -264.891E-03     551.437E-03    -287.023E-03     34.5667E-03      32.233E+06     18.5736E+06    -21.1471E+06    -19.4272E+06     16.8537E+06      32.233E+06    -6.51775E+06         65.9863
            1168     5.23965E-03     3.49869E-03         1.48704    -431.571E-03    -442.323E-03    -441.777E-03         1.48699    -432.066E-03    -11.0843E-03     557.754E-03    -268.769E-03    -289.609E-03    -268.331E-03     557.316E-03    -289.609E-03     37.8804E-03     21.6527E+06     11.9186E+06    -24.8434E+06    -23.3285E+06     10.7615E+06     21.2950E+06    -6.81442E+06         66.0725
            1169     4.47711E-03     3.54521E-03         1.48286    -428.523E-03    -443.254E-03    -441.135E-03         1.48279    -430.573E-03    -14.3100E-03     566.221E-03    -274.289E-03    -292.391E-03    -273.824E-03     565.756E-03    -292.391E-03     39.2868E-03     10.3840E+06     3.96222E+06    -28.9706E+06    -27.5916E+06     3.92457E+06     9.04264E+06    -6.18911E+06         66.3462
            1170     3.72068E-03     3.59683E-03         1.47700    -425.601E-03    -438.059E-03    -434.204E-03         1.47682    -429.269E-03    -10.1501E-03     575.731E-03    -280.972E-03    -295.206E-03    -280.535E-03     575.294E-03    -295.206E-03     38.4135E-03    -2.14062E+06    -6.46456E+06    -33.8918E+06    -32.9116E+06    -5.05964E+06    -4.52575E+06    -5.29107E+06         66.7119
            1171     2.97005E-03     3.64955E-03         1.47102    -426.207E-03    -432.348E-03    -429.474E-03         1.47074    -428.799E-03     2.56178E-03     584.925E-03    -287.702E-03    -297.356E-03    -287.346E-03     584.569E-03    -297.356E-03     35.0476E-03    -12.8883E+06    -18.2938E+06    -38.8792E+06    -38.1515E+06    -13.6920E+06    -18.2177E+06    -3.91677E+06         67.0613
            1172     2.22408E-03     3.69899E-03         1.46721    -422.557E-03    -434.513E-03    -427.446E-03         1.46675    -429.166E-03     7.85561E-03     592.517E-03    -293.639E-03    -298.784E-03    -293.396E-03     592.274E-03    -298.784E-03     29.0518E-03    -20.8727E+06    -30.8511E+06    -43.8793E+06    -43.4213E+06    -21.3307E+06    -30.8511E+06    -2.91827E+06         67.3592
            1173     1.48247E-03     3.74091E-03         1.47003    -421.144E-03    -435.715E-03    -425.590E-03         1.46961    -430.849E-03     1.44306E-03     597.411E-03    -297.689E-03    -299.720E-03    -297.562E-03     597.284E-03    -299.720E-03     20.8892E-03    -29.0985E+06    -41.2351E+06    -47.2084E+06    -46.3911E+06    -29.9158E+06    -41.2351E+06    -2.14067E+06         67.5820
            1174     739.968E-06     3.77028E-03         1.47670    -388.364E-03    -476.167E-03    -471.839E-03         1.47644    -392.433E-03    -10.1870E-03     600.030E-03    -299.071E-03    -300.984E-03    -299.936E-03     599.982E-03    -300.071E-03     11.3598E-03    -40.7539E+06    -47.8098E+06    -54.6274E+06    -49.4534E+06    -45.9279E+06    -47.8098E+06    -1.23484E+06         67.7172
            1175     12.6755E-03     2.16755E-03         91.2622         1.81141        -170.927        -79.6547         1.86263    -61.1505E-03        -5.79544     716.898E-03    -292.838E-03    -424.622E-03    -422.495E-03     714.771E-03    -292.838E-03     80.6640E-03     37.3488E+06     8.29793E+06    -66.3345E+06    -15.1594E+06    -30.6852E+06     25.1569E+06    -4.09050E+06         87.9306
            1176     12.0156E-03     1.94658E-03         83.1921         1.00354        -26.5630         55.9477         1.52502     159.937E-03        -14.8070     664.715E-03    -286.329E-03    -377.798E-03    -377.405E-03     664.322E-03    -286.329E-03     9.21779E-03     43.6344E+06     2.00852E+06    -48.8924E+06    -10.9702E+06    -23.7218E+06     31.4426E+06     7.26783E+06         84.9947
            1177     11.3304E-03     1.80159E-03         7.45039     73.2781E-03        -25.5034        -18.7192         1.46248    -723.028E-03         2.80721     615.694E-03    -282.246E-03    -333.205E-03    -333.127E-03     615.617E-03    -282.246E-03    -15.6399E-03     54.9487E+06     31.4597E+06    -31.4200E+06    -664.043E+03     703.722E+03     54.9487E+06     26.2206E+06         80.8641
            1178     10.6001E-03     1.74378E-03         7.31843     453.854E-03        -2.39009         4.26758         1.45706    -342.452E-03    -396.203E-03     580.769E-03    -279.467E-03    -300.912E-03    -300.200E-03     580.713E-03    -280.124E-03    -9.94485E-03     69.5929E+06     49.8493E+06    -23.6415E+06     2.08888E+06     24.1189E+06     69.5929E+06     29.0631E+06         76.5197
            1179     9.84688E-03     1.71061E-03         1.48259     272.113E-03        -2.49619        -1.77510         1.48217    -448.546E-03     53.1490E-03     556.486E-03    -272.845E-03    -283.081E-03    -276.698E-03     556.471E-03    -279.213E-03    -1.36129E-03     75.5465E+06     45.8329E+06    -4.45983E+06     4.30020E+06     37.0728E+06     75.5465E+06     13.0384E+06         72.7070
            1180     9.07697E-03     1.69419E-03         1.47514     300.359E-03    -621.761E-03     99.1908E-03         1.47484    -420.300E-03     8.86267E-03     541.749E-03    -262.699E-03    -279.699E-03    -262.679E-03     541.729E-03    -279.699E-03     6.08203E-03     68.5866E+06     45.1568E+06    -3.08649E+06     1.48400E+06     40.5863E+06     68.5866E+06     4.71967E+06         69.6672
            1181     8.30250E-03     1.69280E-03         1.47371    -410.949E-03    -635.242E-03    -612.329E-03         1.47363    -433.781E-03    -16.3072E-03     536.438E-03    -255.078E-03    -281.220E-03    -255.016E-03     536.377E-03    -281.220E-03     13.1238E-03     55.5598E+06     40.3526E+06    -4.97034E+06    -1.60787E+06     36.9901E+06     55.5598E+06    -3.98725E+06         67.5296
            1182     7.52520E-03     1.69722E-03         1.47229    -396.243E-03    -427.085E-03    -396.144E-03         1.47219    -427.085E-03    -17.9929E-03     536.696E-03    -252.635E-03    -283.869E-03    -252.526E-03     536.586E-03    -283.869E-03     17.6090E-03     42.8860E+06     29.3981E+06    -9.27503E+06    -6.78660E+06     28.7862E+06     41.0095E+06    -6.62205E+06         66.3424
            1183     6.74603E-03     1.70687E-03         1.46967    -419.396E-03    -430.344E-03    -420.505E-03         1.46963    -429.197E-03    -4.21024E-03     541.404E-03    -254.216E-03    -287.692E-03    -254.062E-03     541.250E-03    -287.692E-03     20.5385E-03     31.8441E+06     21.1121E+06    -15.4338E+06    -13.1701E+06     22.2496E+06     28.4430E+06    -7.57971E+06         66.0049
            1184     5.97131E-03     1.72580E-03         1.47254    -422.390E-03    -435.439E-03    -427.977E-03         1.47253    -429.843E-03    -6.41100E-03     549.593E-03    -258.425E-03    -291.941E-03    -258.233E-03     549.401E-03    -291.941E-03     22.8868E-03     20.8916E+06     12.2039E+06    -21.5378E+06    -19.1349E+06     14.2040E+06     16.4887E+06    -8.13767E+06         66.2196
            1185     5.20002E-03     1.74719E-03         1.47242    -421.437E-03    -435.616E-03    -426.798E-03         1.47241    -430.243E-03    -4.26242E-03     560.187E-03    -264.725E-03    -295.992E-03    -264.512E-03     559.974E-03    -295.992E-03     24.4224E-03     9.98742E+06     2.86694E+06    -27.3367E+06    -25.1651E+06     6.05956E+06     4.62315E+06    -6.60414E+06         66.7003
            1186     4.43657E-03     1.77386E-03         1.47000    -424.467E-03    -431.900E-03    -425.354E-03         1.46996    -430.976E-03    -3.57147E-03     573.456E-03    -273.033E-03    -300.305E-03    -272.817E-03     573.240E-03    -300.305E-03     24.8538E-03    -781.434E+03    -7.27762E+06    -32.7661E+06    -30.8479E+06    -2.69959E+06    -7.27762E+06    -5.66289E+06         67.3257
            1187     3.67938E-03     1.80461E-03         1.47451    -425.678E-03    -433.743E-03    -427.454E-03         1.47437    -431.826E-03     3.67667E-03     587.662E-03    -282.955E-03    -304.904E-03    -282.754E-03     587.460E-03    -304.904E-03     24.3078E-03    -9.91645E+06    -18.5933E+06    -38.0038E+06    -36.2262E+06    -11.6941E+06    -18.5933E+06    -3.30322E+06         68.0257
            1188     2.93041E-03     1.83329E-03         1.47622    -428.344E-03    -435.910E-03    -431.844E-03         1.47591    -432.102E-03     2.31785E-03     601.793E-03    -292.968E-03    -309.067E-03    -292.791E-03     601.616E-03    -309.067E-03     23.0003E-03    -16.3639E+06    -28.8460E+06    -42.1562E+06    -40.6115E+06    -17.9086E+06    -28.8460E+06    -2.04878E+06         68.7147
            1189     2.18931E-03     1.86359E-03         1.47234    -425.392E-03    -437.986E-03    -430.911E-03         1.47187    -432.001E-03     8.92437E-03     615.035E-03    -302.374E-03    -312.607E-03    -302.240E-03     614.901E-03    -312.607E-03     20.0700E-03    -23.7008E+06    -37.9590E+06    -45.2997E+06    -43.9458E+06    -25.0546E+06    -37.9590E+06    -1.85687E+06         69.3291
            1190     1.45381E-03     1.88957E-03         1.47391    -423.257E-03    -437.550E-03    -427.046E-03         1.47361    -433.456E-03     12.3329E-03     625.943E-03    -310.487E-03    -315.498E-03    -310.408E-03     625.865E-03    -315.498E-03     15.4015E-03    -32.7857E+06    -44.4413E+06    -49.2698E+06    -46.5109E+06    -35.5446E+06    -44.4413E+06    -718.048E+03         69.8236
            1191     727.140E-06     1.91191E-03         1.48164    -419.189E-03    -450.818E-03    -446.041E-03         1.48142    -423.752E-03    -5.54704E-03     633.304E-03    -315.527E-03    -317.807E-03    -316.405E-03     633.269E-03    -316.894E-03     9.44886E-03    -39.7048E+06    -46.5374E+06    -58.7351E+06    -48.3309E+06    -50.1091E+06    -46.5374E+06    -291.303E+03         70.1559
            1192     744.808E-06     100.993E-03         1.20174    -264.007E-03    -458.008E-03    -433.329E-03         1.17749    -264.439E-03    -145.750E-03     590.112E-03    -294.544E-03    -295.137E-03    -294.737E-03     590.105E-03    -294.937E-03    -4.84149E-03    -98.5782E+06    -102.826E+06    -141.666E+06    -101.024E+06    -141.556E+06    -100.490E+06    -424.650E+03         67.6980
            1193     1.48964E-03     100.988E-03         1.18041    -343.515E-03    -356.895E-03    -347.390E-03         1.17585    -348.457E-03     88.0152E-03     589.427E-03    -294.369E-03    -295.292E-03    -294.456E-03     589.409E-03    -295.186E-03    -7.97035E-03    -92.4104E+06    -99.0948E+06    -122.268E+06    -98.4110E+06    -122.239E+06    -93.1239E+06     366.795E+03         67.6884
            1194     2.23336E-03     100.970E-03         1.17897    -337.181E-03    -361.446E-03    -349.917E-03         1.17856    -348.292E-03    -5.74095E-03     588.095E-03    -294.192E-03    -295.057E-03    -294.220E-03     588.065E-03    -295.000E-03    -10.3143E-03    -80.8737E+06    -94.4149E+06    -106.108E+06    -94.4731E+06    -106.049E+06    -80.8737E+06     152.975E+03         67.7090
            1195     2.97792E-03     100.947E-03         1.17534    -336.233E-03    -359.655E-03    -347.206E-03         1.17501    -348.351E-03     10.0964E-03     587.528E-03    -294.086E-03    -294.436E-03    -294.151E-03     587.496E-03    -294.339E-03    -10.7559E-03    -67.2652E+06    -82.7393E+06    -92.1383E+06    -89.8792E+06    -84.9984E+06    -67.2652E+06    -33.2447E+03         67.7933
            1196     3.72320E-03     100.927E-03         1.16704    -336.184E-03    -350.595E-03    -338.986E-03         1.16665    -347.401E-03    -9.64835E-03     588.197E-03    -293.976E-03    -294.157E-03    -294.088E-03     588.172E-03    -294.021E-03    -9.40176E-03    -51.0937E+06    -60.1973E+06    -84.3529E+06    -84.3296E+06    -60.2206E+06    -51.0937E+06    -85.5156E+03         67.9391
            1197     4.46710E-03     100.912E-03         1.16436    -336.040E-03    -347.145E-03    -336.953E-03         1.16400    -345.871E-03    -15.8437E-03     588.535E-03    -294.204E-03    -294.523E-03    -294.292E-03     588.521E-03    -294.422E-03    -6.68555E-03    -32.8440E+06    -41.6464E+06    -77.6337E+06    -77.6264E+06    -41.6537E+06    -32.8440E+06    -242.556E+03         68.1049
            1198     5.21174E-03     100.908E-03         1.17142    -340.891E-03    -348.946E-03    -344.497E-03         1.17119    -345.112E-03     1.16969E-03     588.934E-03    -294.318E-03    -294.695E-03    -294.376E-03     588.930E-03    -294.634E-03    -2.53612E-03    -15.2967E+06    -30.6983E+06    -69.7380E+06    -69.7269E+06    -30.7094E+06    -15.2967E+06    -592.514E+03         68.3133
            1199     5.95718E-03     100.902E-03         1.17557    -344.543E-03    -349.499E-03    -348.641E-03         1.17546    -345.286E-03     11.1739E-03     589.818E-03    -293.821E-03    -295.302E-03    -293.816E-03     589.813E-03    -295.302E-03     3.01365E-03    -749.733E+03    -20.8170E+06    -61.8470E+06    -61.8349E+06    -20.8291E+06    -749.733E+03    -451.907E+03         68.5624
            1200     6.70239E-03     100.900E-03         1.17067    -340.623E-03    -348.566E-03    -343.760E-03         1.17064    -345.399E-03    -218.395E-06     589.650E-03    -293.476E-03    -295.354E-03    -293.444E-03     589.618E-03    -295.354E-03     9.96332E-03     11.7751E+06    -12.0029E+06    -54.6408E+06    -54.6304E+06    -12.0133E+06     11.7751E+06    -322.107E+03         68.7611
            1201     7.44722E-03     100.922E-03         1.16549    -338.678E-03    -346.571E-03    -340.089E-03         1.16538    -345.052E-03    -8.49467E-03     588.712E-03    -293.366E-03    -295.162E-03    -293.269E-03     588.615E-03    -295.162E-03     17.9962E-03     24.1942E+06    -3.38325E+06    -47.5863E+06    -47.5544E+06    -3.41523E+06     24.1942E+06    -396.639E+03         68.9562
            1202     8.19112E-03     100.967E-03         1.16387    -335.232E-03    -348.460E-03    -339.027E-03         1.16374    -344.540E-03    -6.97369E-03     587.974E-03    -293.119E-03    -295.682E-03    -292.905E-03     587.760E-03    -295.682E-03     27.0458E-03     37.1803E+06     5.67058E+06    -40.3331E+06    -40.2951E+06     5.63255E+06     37.1803E+06    -48.6553E+03         69.2617
            1203     8.93656E-03     101.012E-03         1.16047    -331.281E-03    -347.780E-03    -335.109E-03         1.16038    -343.865E-03    -3.50950E-03     586.244E-03    -292.800E-03    -295.429E-03    -292.409E-03     585.852E-03    -295.429E-03     36.7603E-03     49.3105E+06     14.3548E+06    -33.1312E+06    -33.1176E+06     14.3412E+06     49.3105E+06    -96.7253E+03         69.7724
            1204     9.68227E-03     101.080E-03         1.15749    -331.170E-03    -345.646E-03    -333.673E-03         1.15738    -343.030E-03     1.04528E-03     585.527E-03    -292.769E-03    -294.331E-03    -292.389E-03     584.906E-03    -294.090E-03     46.4443E-03     58.1363E+06     21.2767E+06    -26.5465E+06    -26.5406E+06     21.2708E+06     58.1363E+06    -299.930E+03         70.7146
            1205     10.4264E-03     101.166E-03         1.15910    -333.530E-03    -344.953E-03    -336.081E-03         1.15904    -342.337E-03     16.0388E-03     588.084E-03    -293.367E-03    -294.618E-03    -293.648E-03     587.113E-03    -293.367E-03     58.1036E-03     63.4455E+06     26.6887E+06      -20.43E+06    -20.4247E+06     26.6834E+06     63.4455E+06    -4.51555E+03         72.4218
            1206     11.1731E-03     101.258E-03         1.16124    -336.476E-03    -343.444E-03    -337.978E-03         1.16118    -341.881E-03    -6.39649E-03     589.074E-03    -293.694E-03    -295.139E-03    -293.372E-03     587.741E-03    -294.129E-03     68.4888E-03     66.9172E+06     31.1276E+06    -14.6039E+06    -14.5336E+06     31.0573E+06     66.9172E+06     1.26842E+06         75.0914
            1207     11.9231E-03     101.370E-03         1.16065    -336.838E-03    -343.052E-03    -338.344E-03         1.16060    -341.489E-03    -12.3128E-03     589.461E-03    -294.355E-03    -296.022E-03    -293.335E-03     587.208E-03    -294.790E-03     87.8042E-03     69.2891E+06     34.7174E+06    -9.44439E+06    -9.31938E+06     34.5924E+06     69.2891E+06     183.227E+03         78.4710
            1208     12.6667E-03     101.568E-03         1.15765    -336.755E-03    -341.036E-03    -336.722E-03         1.15762    -341.036E-03    -6.78829E-03     590.432E-03    -294.730E-03    -296.635E-03    -294.067E-03     587.864E-03    -294.730E-03     94.9201E-03     72.8377E+06     38.1460E+06    -4.67979E+06    -4.61598E+06     38.0822E+06     72.8377E+06    -728.179E+03         81.6516
            1209     743.382E-06     102.800E-03         1.22056    -285.352E-03    -459.910E-03    -427.006E-03         1.18809    -285.783E-03    -157.056E-03     591.550E-03    -295.153E-03    -295.769E-03    -295.299E-03     591.544E-03    -295.617E-03    -4.43868E-03    -98.7828E+06    -102.931E+06    -137.374E+06    -101.861E+06    -137.245E+06    -99.9815E+06    -1.20251E+06         67.6597
            1210     1.48794E-03     102.792E-03         1.18460    -349.511E-03    -361.244E-03    -348.899E-03         1.17774    -354.999E-03     120.641E-03     589.957E-03    -294.225E-03    -295.783E-03    -294.208E-03     589.939E-03    -295.783E-03    -7.66598E-03    -93.4420E+06    -99.8717E+06    -124.552E+06    -99.9087E+06    -124.515E+06    -93.4420E+06    -486.270E+03         67.6403
            1211     2.23367E-03     102.778E-03         1.16005    -335.075E-03    -350.877E-03    -334.703E-03         1.15968    -350.877E-03    -6.42283E-03     587.717E-03    -293.322E-03    -295.336E-03    -293.293E-03     587.688E-03    -295.336E-03    -10.0200E-03    -81.3642E+06    -95.3903E+06    -107.901E+06    -95.4356E+06    -107.856E+06    -81.3642E+06     284.467E+03         67.6680
            1212     2.97805E-03     102.757E-03         1.14533    -325.367E-03    -345.691E-03    -325.069E-03         1.14503    -345.691E-03     7.28534E-03     586.854E-03    -293.690E-03    -294.963E-03    -294.057E-03     586.823E-03    -294.565E-03    -10.4115E-03    -66.7734E+06    -82.6668E+06    -92.7868E+06    -90.1113E+06    -85.3423E+06    -66.7734E+06     604.321E+03         67.7796
            1213     3.72189E-03     102.735E-03         1.14938    -329.625E-03    -344.315E-03    -331.481E-03         1.14904    -342.117E-03    -6.20478E-03     588.627E-03    -293.910E-03    -294.380E-03    -294.311E-03     588.603E-03    -293.954E-03    -9.14314E-03    -50.4667E+06    -59.7544E+06    -84.3143E+06    -84.2991E+06    -59.7695E+06    -50.4667E+06     499.662E+03         67.9482
            1214     4.46742E-03     102.721E-03         1.16021    -338.362E-03    -346.734E-03    -343.596E-03         1.15999    -341.276E-03    -5.19580E-03     588.978E-03    -293.952E-03    -294.196E-03    -294.139E-03     588.965E-03    -293.997E-03    -6.48329E-03    -32.2148E+06    -40.9096E+06    -77.1899E+06    -77.1750E+06    -40.9245E+06    -32.2148E+06     224.213E+03         68.1049
            1215     5.21204E-03     102.704E-03         1.16370    -340.265E-03    -347.599E-03    -345.951E-03         1.16356    -341.781E-03     10.6935E-03     588.880E-03    -294.291E-03    -294.689E-03    -294.460E-03     588.877E-03    -294.517E-03    -2.05294E-03    -14.9379E+06    -30.2661E+06    -69.7519E+06    -69.7351E+06    -30.2829E+06    -14.9379E+06    -8.18647E+03         68.2889
            1216     5.95688E-03     102.695E-03         1.16083    -339.946E-03    -344.882E-03    -342.582E-03         1.16070    -342.113E-03     10.4670E-03     589.249E-03    -293.692E-03    -295.480E-03    -293.685E-03     589.242E-03    -295.480E-03     3.76302E-03    -820.039E+03    -20.9189E+06    -62.1909E+06    -62.1813E+06    -20.9285E+06    -820.039E+03    -138.956E+03         68.5270
            1217     6.70154E-03     102.709E-03         1.15975    -340.450E-03    -343.842E-03    -342.096E-03         1.15967    -342.119E-03     2.71471E-03     588.523E-03    -293.014E-03    -295.333E-03    -292.978E-03     588.486E-03    -295.333E-03     10.6710E-03     11.9368E+06    -12.0514E+06    -54.7272E+06    -54.7206E+06    -12.0581E+06     11.9368E+06    -204.527E+03         68.7228
            1218     7.44724E-03     102.730E-03         1.15771    -338.895E-03    -343.490E-03    -340.323E-03         1.15762    -341.970E-03     926.813E-06     588.088E-03    -293.031E-03    -294.974E-03    -292.925E-03     587.983E-03    -294.974E-03     18.7850E-03     24.7961E+06    -2.96627E+06    -47.2433E+06    -47.2184E+06    -2.99117E+06     24.7961E+06    -413.509E+03         68.9182
            1219     8.19198E-03     102.765E-03         1.14942    -332.268E-03    -341.906E-03    -332.717E-03         1.14935    -341.384E-03     13.5505E-06     587.405E-03    -292.821E-03    -295.568E-03    -292.599E-03     587.184E-03    -295.568E-03     27.5702E-03     36.7172E+06     5.50919E+06    -40.3738E+06    -40.3188E+06     5.45419E+06     36.7172E+06    -525.830E+03         69.2278
            1220     8.93719E-03     102.819E-03         1.14899    -331.033E-03    -342.157E-03    -332.616E-03         1.14895    -340.532E-03     6.83435E-03     586.057E-03    -292.606E-03    -295.496E-03    -292.209E-03     585.660E-03    -295.496E-03     36.9906E-03     48.2158E+06     13.5694E+06    -33.3391E+06    -33.3054E+06     13.5357E+06     48.2158E+06    -81.5413E+03         69.7421
            1221     9.68403E-03     102.880E-03         1.15707    -337.703E-03    -344.164E-03    -341.669E-03         1.15701    -340.144E-03     6.71412E-03     585.217E-03    -292.837E-03    -294.329E-03    -292.372E-03     584.589E-03    -294.167E-03     46.7228E-03     58.2444E+06     21.0601E+06    -26.3743E+06    -26.3696E+06     21.0555E+06     58.2444E+06     91.9194E+03         70.6981
            1222     10.4285E-03     102.962E-03         1.15626    -337.950E-03    -343.067E-03    -340.850E-03         1.15620    -340.109E-03     14.0170E-03     587.537E-03    -293.243E-03    -294.606E-03    -293.642E-03     586.573E-03    -293.243E-03     57.9368E-03     64.1925E+06     26.9204E+06    -20.4015E+06    -20.3548E+06     26.8737E+06     64.1925E+06     821.423E+03         72.4323
            1223     11.1743E-03     103.060E-03         1.14939    -333.802E-03    -339.845E-03    -333.778E-03         1.14932    -339.800E-03    -7.96408E-03     589.336E-03    -293.788E-03    -295.227E-03    -293.804E-03     588.037E-03    -293.912E-03     67.6538E-03     66.4669E+06     30.9968E+06    -15.0074E+06    -14.9090E+06     30.8984E+06     66.4669E+06     866.115E+03         75.1366
            1224     11.9240E-03     103.170E-03         1.14572    -330.529E-03    -339.162E-03    -330.465E-03         1.14566    -339.162E-03    -15.0535E-03     590.140E-03    -294.703E-03    -296.379E-03    -294.061E-03     587.946E-03    -294.827E-03     86.6764E-03     68.8964E+06     34.3115E+06    -9.79443E+06    -9.68783E+06     34.2049E+06     68.8964E+06    -535.441E+03         78.5467
            1225     12.6664E-03     103.365E-03         1.14456    -329.473E-03    -338.413E-03    -329.442E-03         1.14453    -338.413E-03    -9.43484E-03     590.893E-03    -294.845E-03    -297.039E-03    -294.522E-03     588.376E-03    -294.845E-03     94.0451E-03     73.3977E+06     38.1288E+06    -4.98501E+06    -4.92158E+06     38.0653E+06     73.3977E+06    -780.758E+03         81.7383
            1226     744.640E-06     104.608E-03         1.18595    -290.136E-03    -423.476E-03    -382.833E-03         1.14531    -290.136E-03    -176.811E-03     590.671E-03    -294.592E-03    -295.237E-03    -294.644E-03     590.668E-03    -295.182E-03    -3.21383E-03    -98.5416E+06    -102.921E+06    -137.311E+06    -101.601E+06    -137.272E+06    -99.8998E+06     25.5305E+03         67.6200
            1227     1.48883E-03     104.599E-03         1.15654    -336.973E-03    -349.940E-03    -341.222E-03         1.14837    -337.520E-03     111.511E-03     590.205E-03    -294.626E-03    -295.616E-03    -294.668E-03     590.192E-03    -295.562E-03    -6.30462E-03    -92.6992E+06    -99.0910E+06    -124.417E+06    -99.1253E+06    -124.383E+06    -92.6992E+06    -265.239E+03         67.6060
            1228     2.23313E-03     104.582E-03         1.15422    -334.764E-03    -350.337E-03    -344.825E-03         1.15340    -339.456E-03    -26.1641E-03     588.033E-03    -293.506E-03    -295.362E-03    -293.480E-03     588.007E-03    -295.362E-03    -9.45361E-03    -81.8582E+06    -95.7175E+06    -108.595E+06    -95.7436E+06    -108.569E+06    -81.8582E+06     69.8441E+03         67.6420
            1229     2.97875E-03     104.568E-03         1.15829    -332.873E-03    -354.954E-03    -346.530E-03         1.15807    -341.080E-03    -6.28086E-03     586.758E-03    -293.590E-03    -295.211E-03    -294.104E-03     586.727E-03    -294.666E-03    -10.4734E-03    -67.5676E+06    -84.0856E+06    -93.2432E+06    -90.4332E+06    -86.8956E+06    -67.5676E+06     356.631E+03         67.7632
            1230     3.72298E-03     104.552E-03         1.15519    -334.678E-03    -350.343E-03    -342.922E-03         1.15493    -341.844E-03    -21.6358E-03     588.700E-03    -293.993E-03    -294.642E-03    -294.540E-03     588.674E-03    -294.069E-03    -9.46614E-03    -50.0804E+06    -59.8276E+06    -83.4898E+06    -83.4364E+06    -59.8809E+06    -50.0804E+06     973.287E+03         67.9320
            1231     4.46660E-03     104.530E-03         1.14780    -332.673E-03    -345.689E-03    -336.628E-03         1.14758    -341.506E-03    -20.1898E-03     588.945E-03    -293.877E-03    -294.118E-03    -294.029E-03     588.932E-03    -293.953E-03    -6.31770E-03    -32.0288E+06    -40.3231E+06    -76.9312E+06    -76.8909E+06    -40.3634E+06    -32.0288E+06     1.05841E+06         68.0814
            1232     5.21167E-03     104.507E-03         1.14431    -331.624E-03    -342.553E-03    -333.431E-03         1.14413    -340.568E-03    -3.36271E-03     588.877E-03    -294.186E-03    -294.521E-03    -294.320E-03     588.874E-03    -294.384E-03    -1.67390E-03    -14.6573E+06    -29.7827E+06    -69.6988E+06    -69.6836E+06    -29.7979E+06    -14.6573E+06     741.776E+03         68.2583
            1233     5.95742E-03     104.498E-03         1.14463    -334.475E-03    -339.932E-03    -334.485E-03         1.14443    -339.722E-03    -4.04681E-03     588.784E-03    -293.351E-03    -295.509E-03    -293.343E-03     588.776E-03    -295.509E-03     4.07756E-03    -31.9366E+03    -20.4165E+06    -62.2947E+06    -62.2864E+06    -20.4248E+06    -31.9366E+03     32.3606E+03         68.4863
            1234     6.70286E-03     104.512E-03         1.14293    -333.135E-03    -339.266E-03    -333.150E-03         1.14273    -339.056E-03    -11.5831E-03     587.885E-03    -292.455E-03    -295.402E-03    -292.416E-03     587.845E-03    -295.402E-03     11.1902E-03     12.1044E+06    -11.7251E+06    -54.5967E+06    -54.5891E+06    -11.7327E+06     12.1044E+06    -505.212E+03         68.6750
            1235     7.44845E-03     104.531E-03         1.14265    -332.519E-03    -339.963E-03    -333.749E-03         1.14238    -338.467E-03    -17.0462E-03     587.895E-03    -292.876E-03    -294.749E-03    -292.765E-03     587.784E-03    -294.749E-03     19.2569E-03     24.1142E+06    -2.92258E+06    -46.9232E+06    -46.9161E+06    -2.92972E+06     24.1142E+06    -190.968E+03         68.8762
            1236     8.19277E-03     104.566E-03         1.14963    -336.287E-03    -343.634E-03    -341.363E-03         1.14942    -338.345E-03    -21.7947E-03     587.446E-03    -292.966E-03    -295.372E-03    -292.744E-03     587.224E-03    -295.372E-03     27.6409E-03     36.7727E+06     5.77494E+06    -39.8446E+06    -39.8125E+06     5.74283E+06     36.7727E+06    -219.400E+03         69.2016
            1237     8.93736E-03     104.628E-03         1.15082    -337.570E-03    -343.538E-03    -342.379E-03         1.15073    -338.637E-03    -10.6043E-03     586.468E-03    -292.873E-03    -295.527E-03    -292.484E-03     586.079E-03    -295.527E-03     36.6546E-03     47.5289E+06     13.1285E+06    -33.2936E+06    -33.2421E+06     13.0770E+06     47.5289E+06    -608.791E+03         69.7361
            1238     9.68457E-03     104.679E-03         1.14164    -332.422E-03    -340.007E-03    -333.741E-03         1.14155    -338.602E-03    -8.82077E-03     585.147E-03    -293.015E-03    -294.263E-03    -292.452E-03     584.541E-03    -294.220E-03     45.9048E-03     56.4609E+06     19.8418E+06    -26.6115E+06    -26.5871E+06     19.8174E+06     56.4609E+06    -305.448E+03         70.7123
            1239     10.4301E-03     104.751E-03         1.13660    -328.517E-03    -338.375E-03    -328.854E-03         1.13660    -338.033E-03     2.77545E-03     587.456E-03    -293.363E-03    -294.678E-03    -293.684E-03     586.533E-03    -293.433E-03     56.7164E-03     63.2235E+06     26.1012E+06    -19.7890E+06    -19.7334E+06     26.0456E+06     63.2235E+06     362.181E+03         72.4651
            1240     11.1742E-03     104.861E-03         1.13579    -328.660E-03    -337.333E-03    -328.630E-03         1.13571    -337.288E-03    -13.0979E-03     589.664E-03    -294.125E-03    -295.441E-03    -294.193E-03     588.416E-03    -294.125E-03     66.3510E-03     67.2384E+06     31.2159E+06    -13.8049E+06    -13.7063E+06     31.1173E+06     67.2384E+06     231.181E+03         75.1869
            1241     11.9222E-03     104.977E-03         1.13144    -325.698E-03    -336.438E-03    -325.624E-03         1.13137    -336.438E-03    -14.8717E-03     590.161E-03    -294.974E-03    -296.295E-03    -294.145E-03     588.011E-03    -294.974E-03     85.7196E-03     69.7619E+06     34.8385E+06    -8.63696E+06    -8.57639E+06     34.7779E+06     69.7619E+06    -284.461E+03         78.6107
            1242     12.6657E-03     105.160E-03         1.12744    -322.553E-03    -335.432E-03    -322.551E-03         1.12744    -335.432E-03    -3.33477E-03     590.651E-03    -294.905E-03    -296.925E-03    -294.395E-03     588.121E-03    -294.905E-03     94.3506E-03     73.3019E+06     38.2973E+06    -4.27636E+06    -4.23387E+06     38.2548E+06     73.3019E+06    -74.7046E+03         81.8087
            1243     746.181E-06     106.410E-03         1.19281    -317.459E-03    -406.010E-03    -364.133E-03         1.15093    -317.459E-03    -206.498E-03     590.007E-03    -294.048E-03    -295.019E-03    -294.095E-03     590.000E-03    -294.965E-03    -4.66955E-03    -98.7599E+06    -102.884E+06    -137.146E+06    -101.532E+06    -137.140E+06    -100.118E+06     208.328E+03         67.6060
            1244     1.49087E-03     106.405E-03         1.14989    -337.036E-03    -346.421E-03    -336.508E-03         1.14279    -339.857E-03     77.0053E-03     590.034E-03    -294.659E-03    -295.348E-03    -294.695E-03     590.016E-03    -295.293E-03    -7.60146E-03    -93.1804E+06    -99.2379E+06    -125.246E+06    -99.2483E+06    -125.236E+06    -93.1804E+06     20.9134E+03         67.5863
            1245     2.23421E-03     106.393E-03         1.14367    -329.161E-03    -349.795E-03    -338.850E-03         1.14248    -338.914E-03    -39.8699E-03     588.308E-03    -294.007E-03    -295.234E-03    -293.980E-03     588.281E-03    -295.234E-03    -9.77985E-03    -81.7506E+06    -94.9346E+06    -108.846E+06    -95.0447E+06    -108.736E+06    -81.7506E+06     44.3555E+03         67.6086
            1246     2.97698E-03     106.378E-03         1.14413    -325.584E-03    -352.796E-03    -339.243E-03         1.14392    -338.923E-03    -287.588E-06     586.671E-03    -293.900E-03    -294.973E-03    -294.230E-03     586.642E-03    -294.614E-03    -10.0030E-03    -67.3323E+06    -84.0090E+06    -93.4061E+06    -90.1834E+06    -87.2317E+06    -67.3323E+06     517.679E+03         67.7146
            1247     3.72150E-03     106.363E-03         1.14103    -329.337E-03    -346.545E-03    -336.873E-03         1.14087    -338.848E-03    -5.47352E-03     587.994E-03    -293.757E-03    -294.371E-03    -294.092E-03     587.971E-03    -294.012E-03    -8.84162E-03    -51.2825E+06    -61.5663E+06    -84.7448E+06    -84.6985E+06    -61.6126E+06    -51.2825E+06     628.416E+03         67.8773
            1248     4.46730E-03     106.337E-03         1.13669    -329.604E-03    -343.181E-03    -334.205E-03         1.13654    -338.437E-03     1.11490E-03     588.504E-03    -293.550E-03    -293.950E-03    -293.684E-03     588.494E-03    -293.805E-03    -5.57580E-03    -32.6993E+06    -40.7424E+06    -77.1439E+06    -77.1038E+06    -40.7825E+06    -32.6993E+06     838.446E+03         68.0329
            1249     5.21268E-03     106.316E-03         1.13302    -327.811E-03    -341.050E-03    -330.852E-03         1.13272    -337.702E-03     10.9392E-03     588.712E-03    -294.043E-03    -294.362E-03    -294.186E-03     588.710E-03    -294.216E-03    -1.04242E-03    -14.8536E+06    -29.2515E+06    -69.2027E+06    -69.1884E+06    -29.2658E+06    -14.8536E+06     718.412E+03         68.2197
            1250     5.95787E-03     106.303E-03         1.13139    -330.209E-03    -336.798E-03    -329.859E-03         1.13104    -336.798E-03     12.5703E-03     588.955E-03    -293.529E-03    -295.464E-03    -293.522E-03     588.948E-03    -295.464E-03     4.16606E-03     79.5842E+03    -19.4708E+06    -61.4311E+06    -61.4259E+06    -19.4760E+06     79.5842E+03     357.800E+03         68.4582
            1251     6.70291E-03     106.323E-03         1.13582    -330.964E-03    -340.682E-03    -335.100E-03         1.13553    -336.264E-03     2.51371E-03     588.331E-03    -292.755E-03    -295.372E-03    -292.720E-03     588.295E-03    -295.372E-03     10.6409E-03     12.6682E+06    -11.1024E+06    -54.4744E+06    -54.4641E+06    -11.1128E+06     12.6682E+06     209.390E+03         68.6554
            1252     7.44908E-03     106.336E-03         1.14189    -333.515E-03    -343.742E-03    -340.551E-03         1.14157    -336.387E-03    -4.28052E-03     588.131E-03    -293.223E-03    -294.688E-03    -293.125E-03     588.033E-03    -294.688E-03     18.1166E-03     24.7242E+06    -2.95986E+06    -47.5607E+06    -47.5437E+06    -2.97680E+06     24.7242E+06    -277.755E+03         68.8661
            1253     8.19476E-03     106.354E-03         1.13911    -332.859E-03    -342.866E-03    -338.853E-03         1.13889    -336.653E-03    -9.57255E-03     587.839E-03    -293.387E-03    -295.269E-03    -293.180E-03     587.632E-03    -295.269E-03     26.6007E-03     37.3185E+06     5.81220E+06    -39.9353E+06    -39.9145E+06     5.79141E+06     37.3185E+06    -463.659E+03         69.2090
            1254     8.93672E-03     106.433E-03         1.13154    -328.709E-03    -339.711E-03    -331.850E-03         1.13141    -336.434E-03    -1.72064E-03     586.907E-03    -293.147E-03    -295.560E-03    -292.769E-03     586.530E-03    -295.560E-03     36.1128E-03     48.6081E+06     13.6718E+06    -32.9197E+06    -32.8740E+06     13.6262E+06     48.6081E+06    -182.347E+03         69.7588
            1255     9.68315E-03     106.483E-03         1.12726    -326.715E-03    -336.871E-03    -327.695E-03         1.12713    -335.758E-03     1.87419E-03     585.633E-03    -293.258E-03    -294.523E-03    -292.666E-03     585.041E-03    -294.523E-03     45.4052E-03     57.3211E+06     20.2684E+06    -26.6273E+06    -26.5649E+06     20.2060E+06     57.3211E+06    -773.513E+03         70.7443
            1256     10.4294E-03     106.550E-03         1.12207    -322.828E-03    -335.968E-03    -323.876E-03         1.12200    -334.856E-03     13.6316E-03     587.775E-03    -293.628E-03    -294.913E-03    -293.863E-03     586.848E-03    -293.751E-03     56.7778E-03     62.4835E+06     25.0690E+06    -20.5365E+06    -20.4945E+06     25.0269E+06     62.4835E+06    -1.09987E+06         72.5058
            1257     11.1733E-03     106.653E-03         1.11621    -319.384E-03    -333.737E-03    -319.289E-03         1.11612    -333.737E-03    -8.08439E-03     589.271E-03    -294.169E-03    -295.406E-03    -294.048E-03     587.988E-03    -294.244E-03     67.2149E-03     65.5027E+06     29.5309E+06    -14.3801E+06    -14.3069E+06     29.4576E+06     65.5027E+06    -684.522E+03         75.2345
            1258     11.9208E-03     106.772E-03         1.11514    -321.090E-03    -332.567E-03    -321.000E-03         1.11505    -332.567E-03    -8.17036E-03     589.787E-03    -294.901E-03    -296.073E-03    -293.795E-03     587.584E-03    -294.976E-03     86.7819E-03     68.3344E+06     34.5206E+06    -8.89091E+06    -8.71221E+06     34.3419E+06     68.3344E+06     472.799E+03         78.6638
            1259     12.6656E-03     106.960E-03         1.11294    -321.988E-03    -331.527E-03    -321.947E-03         1.11290    -331.527E-03    -2.30408E-03     590.411E-03    -294.899E-03    -296.714E-03    -294.132E-03     587.828E-03    -294.899E-03     95.2858E-03     73.9982E+06     39.2813E+06    -3.83618E+06    -3.69536E+06     39.1405E+06     73.9982E+06      872.12E+03         81.8670
            1260     743.238E-06     108.214E-03         1.16761    -329.355E-03    -379.119E-03    -345.766E-03         1.13425    -329.355E-03    -168.613E-03     591.149E-03    -294.851E-03    -295.640E-03    -294.843E-03     591.142E-03    -295.640E-03    -4.45182E-03    -98.2915E+06    -101.992E+06    -137.156E+06    -100.954E+06    -137.150E+06    -99.3342E+06     128.143E+03         67.5955
            1261     1.48810E-03     108.210E-03         1.14010    -334.611E-03    -344.823E-03    -336.339E-03         1.13444    -337.432E-03     96.0245E-03     589.792E-03    -294.335E-03    -295.557E-03    -294.315E-03     589.772E-03    -295.557E-03    -8.06692E-03    -92.9004E+06    -99.0730E+06    -125.922E+06    -99.1231E+06    -125.872E+06    -92.9004E+06     472.075E+03         67.5589
            1262     2.23380E-03     108.199E-03         1.12781    -326.575E-03    -340.975E-03    -330.673E-03         1.12726    -336.328E-03    -9.80407E-03     587.393E-03    -293.176E-03    -295.083E-03    -293.148E-03     587.365E-03    -295.083E-03    -9.90672E-03    -82.2110E+06    -96.0850E+06    -110.295E+06    -96.2263E+06    -110.153E+06    -82.2110E+06     768.113E+03         67.5627
            1263     2.97890E-03     108.186E-03         1.11975    -320.994E-03    -339.140E-03    -325.330E-03         1.11927    -334.333E-03    -10.3101E-03     585.855E-03    -293.305E-03    -294.716E-03    -293.692E-03     585.830E-03    -294.304E-03    -9.40308E-03    -67.6897E+06    -84.7991E+06    -94.2972E+06    -91.0194E+06    -88.0769E+06    -67.6897E+06     812.738E+03         67.6580
            1264     3.72362E-03     108.171E-03         1.11588    -322.891E-03    -334.602E-03    -324.703E-03         1.11555    -332.460E-03    -28.0582E-03     587.558E-03    -293.562E-03    -294.209E-03    -294.011E-03     587.539E-03    -293.741E-03    -8.09992E-03    -51.3461E+06    -61.4061E+06    -84.7913E+06    -84.7448E+06    -61.4526E+06    -51.3461E+06     462.462E+03         67.8207
            1265     4.46796E-03     108.143E-03         1.12085    -326.882E-03    -336.435E-03    -331.477E-03         1.12070    -331.691E-03    -10.5486E-03     588.308E-03    -293.298E-03    -293.813E-03    -293.624E-03     588.298E-03    -293.477E-03    -5.72358E-03    -33.2738E+06    -40.8729E+06    -77.6010E+06    -77.5813E+06    -40.8926E+06    -33.2738E+06     109.688E+03         67.9831
            1266     5.21387E-03     108.110E-03         1.12416    -327.710E-03    -337.661E-03    -333.210E-03         1.12382    -331.819E-03     1.69649E-03     588.575E-03    -293.865E-03    -294.274E-03    -294.143E-03     588.572E-03    -293.994E-03    -1.75726E-03    -15.5771E+06    -29.4850E+06    -69.6454E+06    -69.6305E+06    -29.4999E+06    -15.5771E+06     201.390E+03         68.1787
            1267     5.95993E-03     108.102E-03         1.12366    -329.122E-03    -335.659E-03    -332.538E-03         1.12340    -331.981E-03     11.3335E-03     589.419E-03    -294.174E-03    -295.447E-03    -294.168E-03     589.413E-03    -295.447E-03     3.62743E-03    -995.347E+03    -19.8411E+06    -61.9061E+06    -61.9018E+06    -19.8453E+06    -995.347E+03     420.790E+03         68.4270
            1268     6.70232E-03     108.136E-03         1.12352    -328.264E-03    -337.692E-03    -333.674E-03         1.12333    -332.090E-03     13.1229E-03     589.183E-03    -293.904E-03    -295.315E-03    -293.872E-03     589.151E-03    -295.315E-03     10.0185E-03     12.8630E+06    -10.3663E+06    -53.8982E+06    -53.8867E+06    -10.3778E+06     12.8630E+06     329.122E+03         68.6391
            1269     7.44777E-03     108.140E-03         1.11928    -324.057E-03    -337.889E-03    -329.708E-03         1.11908    -332.030E-03     6.66152E-03     588.617E-03    -293.740E-03    -294.649E-03    -293.648E-03     588.525E-03    -294.649E-03     17.5260E-03     26.0070E+06    -1.78050E+06    -46.7441E+06    -46.7152E+06    -1.80933E+06     26.0070E+06     202.978E+03         68.8749
            1270     8.19466E-03     108.147E-03         1.11242    -322.085E-03    -332.867E-03    -323.412E-03         1.11230    -331.427E-03    -2.75258E-03     587.955E-03    -293.251E-03    -295.261E-03    -293.051E-03     587.756E-03    -295.261E-03     26.0992E-03     37.8417E+06     5.83435E+06    -40.4221E+06    -40.3941E+06     5.80630E+06     37.8417E+06    -134.927E+03         69.2373
            1271     8.93713E-03     108.233E-03         1.10910    -321.831E-03    -330.453E-03    -321.768E-03         1.10903    -330.453E-03     5.86976E-03     586.669E-03    -292.851E-03    -295.725E-03    -292.480E-03     586.297E-03    -295.725E-03     35.7663E-03     48.9694E+06     13.7629E+06    -33.3980E+06    -33.3298E+06     13.6947E+06     48.9694E+06    -609.188E+03         69.7876
            1272     9.68269E-03     108.290E-03         1.10912    -321.347E-03    -330.662E-03    -322.386E-03         1.10905    -329.549E-03     11.4664E-03     585.161E-03    -293.102E-03    -294.851E-03    -292.497E-03     584.557E-03    -294.851E-03     45.8135E-03     58.7320E+06     21.1084E+06    -26.0399E+06    -25.9290E+06     20.9974E+06     58.7320E+06    -466.847E+03         70.7713
            1273     10.4277E-03     108.361E-03         1.10857    -321.400E-03    -329.854E-03    -322.435E-03         1.10849    -328.742E-03     19.9008E-03     587.124E-03    -293.693E-03    -294.842E-03    -293.620E-03     586.148E-03    -293.940E-03     58.1757E-03     64.2668E+06     25.7833E+06    -19.9074E+06    -19.8442E+06     25.7202E+06     64.2668E+06    -523.818E+03         72.5372
            1274     11.1734E-03     108.463E-03         1.10651    -320.832E-03    -328.947E-03    -321.828E-03         1.10647    -327.916E-03     3.40342E-03     588.630E-03    -294.051E-03    -295.138E-03    -293.609E-03     587.286E-03    -294.236E-03     68.7945E-03     66.5383E+06     29.6779E+06    -14.8447E+06    -14.7739E+06     29.6071E+06     66.5383E+06    -693.756E+03         75.2752
            1275     11.9228E-03     108.575E-03         1.10270    -319.299E-03    -328.038E-03    -320.294E-03         1.10266    -327.008E-03     3.84533E-03     589.605E-03    -294.679E-03    -296.252E-03    -293.816E-03     587.355E-03    -294.864E-03     87.7904E-03     68.7015E+06     34.5883E+06    -9.78213E+06    -9.59112E+06     34.3973E+06     68.7015E+06     280.464E+03         78.7152
            1276     12.6667E-03     108.765E-03         1.09608    -316.083E-03    -325.918E-03    -316.032E-03         1.09603    -325.918E-03     855.308E-06     590.677E-03    -294.856E-03    -296.932E-03    -294.344E-03     588.089E-03    -294.856E-03     95.3730E-03     72.4649E+06     38.1810E+06    -4.69362E+06    -4.55460E+06     38.0420E+06     72.4649E+06     255.618E+03         81.9202
            1277     744.871E-06     110.023E-03         1.10830    -313.496E-03    -347.208E-03    -322.662E-03         1.08375    -313.496E-03    -123.530E-03     590.860E-03    -295.016E-03    -295.508E-03    -295.013E-03     590.857E-03    -295.508E-03    -2.70765E-03    -99.8885E+06    -103.355E+06    -139.742E+06    -102.355E+06    -139.699E+06    -100.931E+06     677.136E+03         67.5455
            1278     1.48894E-03     110.014E-03         1.10165    -319.706E-03    -331.189E-03    -326.117E-03         1.09658    -319.706E-03     79.8187E-03     589.508E-03    -294.353E-03    -295.401E-03    -294.340E-03     589.495E-03    -295.401E-03    -6.48839E-03    -92.9760E+06    -99.9004E+06    -126.926E+06    -99.9926E+06    -126.833E+06    -92.9760E+06     889.415E+03         67.5105
            1279     2.23381E-03     110.004E-03         1.10499    -322.627E-03    -330.900E-03    -330.178E-03         1.10426    -322.627E-03    -12.1126E-03     587.269E-03    -293.266E-03    -294.911E-03    -293.240E-03     587.243E-03    -294.911E-03    -9.44534E-03    -82.0152E+06    -95.9414E+06    -110.582E+06    -96.0009E+06    -110.523E+06    -82.0152E+06     458.342E+03         67.5149
            1280     2.97903E-03     109.991E-03         1.11251    -325.328E-03    -336.619E-03    -336.179E-03         1.11207    -325.328E-03    -5.76362E-03     585.918E-03    -293.418E-03    -294.690E-03    -293.855E-03     585.886E-03    -294.221E-03    -10.6587E-03    -67.9093E+06    -84.9612E+06    -94.3838E+06    -90.6251E+06    -88.7199E+06    -67.9093E+06     504.615E+03         67.6126
            1281     3.72341E-03     109.978E-03         1.11393    -324.407E-03    -338.927E-03    -335.415E-03         1.11358    -327.569E-03    -18.3002E-03     587.704E-03    -293.612E-03    -294.286E-03    -294.110E-03     587.677E-03    -293.762E-03    -9.68049E-03    -50.7518E+06    -61.2842E+06    -84.1154E+06    -84.0698E+06    -61.3298E+06    -50.7518E+06     627.234E+03         67.7767
            1282     4.46860E-03     109.939E-03         1.11088    -323.798E-03    -335.649E-03    -330.626E-03         1.11067    -328.607E-03    -6.56494E-03     588.496E-03    -293.245E-03    -293.981E-03    -293.818E-03     588.482E-03    -293.394E-03    -6.74587E-03    -32.7099E+06    -40.3540E+06    -77.2478E+06    -77.2214E+06    -40.3804E+06    -32.7099E+06     425.961E+03         67.9372
            1283     5.21444E-03     109.904E-03         1.11143    -325.665E-03    -333.561E-03    -330.148E-03         1.11124    -328.894E-03    -10.3873E-03     588.964E-03    -293.801E-03    -294.449E-03    -294.406E-03     588.961E-03    -293.840E-03    -2.34945E-03    -15.7301E+06    -29.4311E+06    -70.1196E+06    -70.0979E+06    -29.4528E+06    -15.7301E+06     294.248E+03         68.1288
            1284     5.95841E-03     109.907E-03         1.10890    -324.104E-03    -332.563E-03    -327.689E-03         1.10881    -328.885E-03    -5.89450E-03     589.534E-03    -294.052E-03    -295.447E-03    -294.122E-03     589.528E-03    -295.371E-03     3.30962E-03    -667.923E+03    -19.7590E+06    -62.3874E+06    -62.3839E+06    -19.7626E+06    -667.923E+03     155.403E+03         68.3711
            1285     6.70160E-03     109.951E-03         1.09773    -317.230E-03    -329.403E-03    -318.364E-03         1.09768    -328.218E-03    -7.21550E-03     588.888E-03    -293.703E-03    -295.301E-03    -293.669E-03     588.854E-03    -295.301E-03     10.1872E-03     12.6831E+06    -10.4993E+06    -54.4945E+06    -54.4882E+06    -10.5056E+06     12.6831E+06    -41.4729E+03         68.5902
            1286     7.44747E-03     109.952E-03         1.08933    -311.231E-03    -326.857E-03    -311.108E-03         1.08920    -326.857E-03    -14.8013E-03     588.441E-03    -293.616E-03    -294.579E-03    -293.514E-03     588.339E-03    -294.579E-03     18.4135E-03     25.4104E+06    -1.69491E+06    -46.8928E+06    -46.8719E+06    -1.71579E+06     25.4104E+06     143.275E+03         68.8519
            1287     8.19438E-03     109.954E-03         1.09067    -313.958E-03    -325.483E-03    -313.838E-03         1.09055    -325.483E-03    -18.7234E-03     587.527E-03    -293.087E-03    -295.173E-03    -292.866E-03     587.306E-03    -295.173E-03     27.5334E-03     38.3503E+06     6.71046E+06    -39.5947E+06    -39.5746E+06     6.69034E+06     38.3503E+06     425.482E+03         69.2369
            1288     8.93652E-03     110.036E-03         1.09239    -317.040E-03    -324.506E-03    -317.004E-03         1.09236    -324.506E-03    -10.2775E-03     586.325E-03    -292.575E-03    -295.801E-03    -292.179E-03     585.929E-03    -295.801E-03     36.9601E-03     50.4677E+06     14.5805E+06    -32.7927E+06    -32.7058E+06     14.4935E+06     50.4677E+06     156.092E+03         69.7955
            1289     9.68312E-03     110.092E-03         1.08885    -313.374E-03    -323.627E-03    -313.326E-03         1.08880    -323.627E-03    -5.27538E-03     584.677E-03    -292.804E-03    -294.989E-03    -292.187E-03     584.059E-03    -294.989E-03     46.2964E-03     58.7268E+06     20.2153E+06    -26.8573E+06    -26.7162E+06     20.0742E+06     58.7268E+06    -246.479E+03         70.7838
            1290     10.4296E-03     110.167E-03         1.08573    -311.360E-03    -322.629E-03    -311.331E-03         1.08570    -322.629E-03     2.72500E-03     586.655E-03    -293.564E-03    -294.803E-03    -293.447E-03     585.701E-03    -293.966E-03     57.5655E-03     64.0361E+06     24.9560E+06    -20.3982E+06    -20.3198E+06     24.8776E+06     64.0361E+06    -822.304E+03         72.5561
            1291     11.1754E-03     110.264E-03         1.08398    -310.132E-03    -322.629E-03    -311.110E-03         1.08393    -321.598E-03    -10.2975E-03     588.500E-03    -294.025E-03    -295.012E-03    -293.579E-03     587.218E-03    -294.176E-03     67.1743E-03     68.2128E+06     30.5231E+06    -14.0395E+06    -13.9955E+06     30.4792E+06     68.2128E+06     32.8809E+03         75.3023
            1292     11.9230E-03     110.381E-03         1.08023    -307.736E-03    -321.462E-03    -308.721E-03         1.08018    -320.431E-03    -4.13869E-03     589.429E-03    -294.727E-03    -296.257E-03    -293.909E-03     587.231E-03    -294.878E-03     86.5916E-03     69.6938E+06     34.7180E+06    -9.17742E+06    -9.10863E+06     34.6492E+06     69.6938E+06    -275.785E+03         78.7514
            1293     12.6665E-03     110.573E-03         1.07849    -308.006E-03    -319.135E-03    -307.975E-03         1.07845    -319.135E-03    -2.76793E-03     590.772E-03    -294.876E-03    -297.178E-03    -294.622E-03     588.216E-03    -294.876E-03     94.7748E-03     72.1431E+06     37.2064E+06    -4.79481E+06    -4.74354E+06     37.1551E+06     72.1431E+06    -766.609E+03         81.9610
            1294     745.261E-06     111.828E-03         1.11239    -294.536E-03    -375.753E-03    -355.952E-03         1.09777    -299.722E-03    -118.898E-03     589.465E-03    -294.287E-03    -294.999E-03    -294.282E-03     589.459E-03    -294.999E-03    -3.22871E-03    -101.199E+06    -102.902E+06    -140.121E+06    -102.989E+06    -140.033E+06    -101.199E+06    -311.342E+03         67.4751
            1295     1.49065E-03     111.819E-03         1.08227    -310.613E-03    -329.179E-03    -312.333E-03         1.07951    -324.698E-03     42.2952E-03     589.181E-03    -294.475E-03    -294.828E-03    -294.460E-03     589.166E-03    -294.828E-03    -7.16925E-03    -94.2658E+06    -99.7834E+06    -128.487E+06    -99.9212E+06    -128.349E+06    -94.2658E+06     342.535E+03         67.4560
            1296     2.23461E-03     111.811E-03         1.07252    -307.861E-03    -323.653E-03    -310.868E-03         1.07190    -320.028E-03    -19.7582E-03     588.140E-03    -294.248E-03    -294.711E-03    -294.223E-03     588.115E-03    -294.711E-03    -9.26438E-03    -82.1202E+06    -95.6920E+06    -110.826E+06    -95.7652E+06    -110.753E+06    -82.1202E+06     569.015E+03         67.4706
            1297     2.97721E-03     111.796E-03         1.07692    -310.575E-03    -324.814E-03    -316.922E-03         1.07678    -318.329E-03    -638.220E-06     586.864E-03    -294.169E-03    -294.871E-03    -294.701E-03     586.834E-03    -294.308E-03    -10.2552E-03    -67.4931E+06    -84.7370E+06    -94.7012E+06    -90.5886E+06    -88.8497E+06    -67.4931E+06     457.603E+03         67.5733
            1298     3.72237E-03     111.777E-03         1.08781    -314.389E-03    -329.716E-03    -325.078E-03         1.08766    -318.877E-03    -2.23466E-03     587.664E-03    -293.519E-03    -294.340E-03    -294.054E-03     587.636E-03    -293.777E-03    -9.71295E-03    -51.3934E+06    -61.8370E+06    -84.6883E+06    -84.6609E+06    -61.8644E+06    -51.3934E+06     600.568E+03         67.7413
            1299     4.46887E-03     111.740E-03         1.09371    -320.369E-03    -328.274E-03    -328.170E-03         1.09360    -320.369E-03     16.7347E-03     588.351E-03    -293.084E-03    -293.872E-03    -293.598E-03     588.336E-03    -293.342E-03    -6.92050E-03    -33.4493E+06    -40.8014E+06    -77.8952E+06    -77.8703E+06    -40.8264E+06    -33.4493E+06     818.516E+03         67.8980
            1300     5.21441E-03     111.707E-03         1.08817    -319.188E-03    -324.061E-03    -321.861E-03         1.08803    -321.252E-03     22.3454E-03     589.267E-03    -293.790E-03    -294.440E-03    -294.437E-03     589.263E-03    -293.790E-03    -2.06110E-03    -15.1898E+06    -28.7394E+06    -70.1255E+06    -70.1076E+06    -28.7573E+06    -15.1898E+06     697.485E+03         68.0750
            1301     5.95890E-03     111.711E-03         1.08128    -315.653E-03    -320.959E-03    -315.543E-03         1.08113    -320.915E-03     21.8493E-03     589.470E-03    -293.643E-03    -295.486E-03    -293.757E-03     589.463E-03    -295.365E-03     3.78148E-03     180.448E+03    -18.9553E+06    -62.1681E+06    -62.1598E+06    -18.9636E+06     180.448E+03     341.833E+03         68.3012
            1302     6.70183E-03     111.756E-03         1.08201    -312.646E-03    -324.571E-03    -316.904E-03         1.08190    -320.205E-03     15.6159E-03     588.176E-03    -293.007E-03    -295.368E-03    -292.972E-03     588.140E-03    -295.368E-03     10.5797E-03     12.5844E+06    -10.6412E+06    -55.0791E+06    -55.0720E+06    -10.6483E+06     12.5844E+06     143.474E+03         68.5165
            1303     7.44788E-03     111.761E-03         1.08317    -312.177E-03    -325.765E-03    -318.000E-03         1.08306    -319.831E-03     1.58611E-03     587.732E-03    -293.227E-03    -294.484E-03    -293.124E-03     587.630E-03    -294.484E-03     18.4750E-03     24.8440E+06    -2.06365E+06    -47.6414E+06    -47.6339E+06    -2.07111E+06     24.8440E+06    -34.1800E+03         68.7955
            1304     8.19517E-03     111.763E-03         1.07711    -310.667E-03    -320.932E-03    -312.212E-03         1.07704    -319.320E-03    -3.60258E-03     587.132E-03    -293.110E-03    -295.033E-03    -292.887E-03     586.909E-03    -295.033E-03     27.5680E-03     37.4888E+06     6.45713E+06    -40.1938E+06    -40.1755E+06     6.43886E+06     37.4888E+06    -255.819E+03         69.2044
            1305     8.93864E-03     111.840E-03         1.07283    -309.103E-03    -318.376E-03    -309.035E-03         1.07277    -318.376E-03     6.39688E-03     586.073E-03    -292.799E-03    -295.796E-03    -292.407E-03     585.681E-03    -295.796E-03     36.8188E-03     49.7477E+06     14.1620E+06    -33.1248E+06    -33.0611E+06     14.0983E+06     49.7477E+06     76.3469E+03         69.7799
            1306     9.68398E-03     111.897E-03         1.07417    -310.871E-03    -317.452E-03    -310.782E-03         1.07408    -317.452E-03     7.97145E-03     584.897E-03    -293.111E-03    -295.051E-03    -292.506E-03     584.292E-03    -295.051E-03     45.8579E-03     59.9157E+06     21.1341E+06    -25.8364E+06    -25.7106E+06     21.0082E+06     59.9157E+06     267.135E+03         70.7814
            1307     10.4279E-03     111.970E-03         1.07025    -308.101E-03    -316.582E-03    -308.038E-03         1.07018    -316.582E-03     7.26974E-03     587.328E-03    -293.708E-03    -294.918E-03    -293.737E-03     586.395E-03    -293.956E-03     56.9920E-03     65.2199E+06     25.7651E+06    -20.0232E+06    -19.9174E+06     25.6593E+06     65.2199E+06     196.854E+03         72.5671
            1308     11.1728E-03     112.067E-03         1.06308    -302.387E-03    -315.460E-03    -302.330E-03         1.06302    -315.460E-03    -6.69583E-03     588.984E-03    -294.099E-03    -295.151E-03    -293.795E-03     587.718E-03    -294.189E-03     66.7635E-03     67.0577E+06     29.2910E+06    -15.1510E+06    -15.0209E+06     29.1609E+06     67.0577E+06    -548.359E+03         75.3242
            1309     11.9226E-03     112.183E-03         1.06291    -303.579E-03    -314.719E-03    -304.008E-03         1.06287    -314.252E-03    -6.82667E-03     589.518E-03    -294.884E-03    -296.179E-03    -293.888E-03     587.317E-03    -294.974E-03     86.6461E-03     68.8862E+06     33.3205E+06    -9.76915E+06    -9.64893E+06     33.2002E+06     68.8862E+06    -1.00982E+06         78.7813
            1310     12.6663E-03     112.377E-03         1.06563    -307.298E-03    -313.762E-03    -307.727E-03         1.06559    -313.295E-03    -10.0756E-03     590.473E-03    -294.925E-03    -297.029E-03    -294.455E-03     587.899E-03    -294.925E-03     95.1054E-03     73.9245E+06     37.6199E+06    -4.55183E+06    -4.52368E+06     37.5918E+06     73.9245E+06    -195.348E+03         81.9995
            1311     745.245E-06     113.630E-03         1.07648    -244.329E-03    -395.254E-03    -382.258E-03         1.06867    -249.515E-03    -79.7223E-03     589.601E-03    -294.039E-03    -295.042E-03    -294.033E-03     589.595E-03    -295.042E-03    -3.73501E-03    -99.5860E+06    -101.928E+06    -140.099E+06    -101.698E+06    -140.018E+06    -99.8957E+06    -43.7729E+03         67.4297
            1312     1.48987E-03     113.623E-03         1.06935    -302.073E-03    -331.486E-03    -316.292E-03         1.06824    -316.158E-03     49.8465E-03     589.305E-03    -294.516E-03    -294.912E-03    -294.498E-03     589.287E-03    -294.912E-03    -7.76615E-03    -93.6057E+06     -99.649E+06    -129.622E+06    -99.7498E+06    -129.521E+06    -93.6057E+06     63.2735E+03         67.4146
            1313     2.23454E-03     113.614E-03         1.06722    -303.932E-03    -327.192E-03    -314.945E-03         1.06714    -316.099E-03     7.44324E-03     587.980E-03    -293.992E-03    -294.755E-03    -293.965E-03     587.952E-03    -294.755E-03    -9.73360E-03    -82.2434E+06    -95.4136E+06    -112.312E+06    -95.6641E+06    -112.061E+06    -82.2434E+06     1.14375E+06         67.4278
            1314     2.97913E-03     113.602E-03         1.06306    -307.504E-03    -318.582E-03    -310.513E-03         1.06284    -315.347E-03    -6.90313E-03     586.405E-03    -293.827E-03    -294.863E-03    -294.400E-03     586.375E-03    -294.260E-03    -10.1549E-03    -67.8601E+06    -85.2675E+06    -95.4078E+06    -91.1582E+06    -89.5172E+06    -67.8601E+06     1.45328E+06         67.5300
            1315     3.72259E-03     113.580E-03         1.05301    -302.042E-03    -313.838E-03    -302.093E-03         1.05284    -313.612E-03    -15.9220E-03     587.462E-03    -293.524E-03    -294.364E-03    -294.233E-03     587.439E-03    -293.633E-03    -8.87331E-03    -51.5345E+06    -62.4813E+06    -85.4324E+06    -85.3304E+06    -62.5833E+06    -51.5345E+06     1.08493E+06         67.6997
            1316     4.46794E-03     113.541E-03         1.05141    -300.777E-03    -312.517E-03    -301.438E-03         1.05121    -311.654E-03    -5.47598E-03     588.484E-03    -293.126E-03    -293.760E-03    -293.640E-03     588.472E-03    -293.235E-03    -6.00308E-03    -32.9676E+06    -40.6175E+06    -78.2323E+06    -78.2094E+06    -40.6404E+06    -32.9676E+06     811.361E+03         67.8523
            1317     5.21457E-03     113.510E-03         1.05628    -306.251E-03    -311.897E-03    -307.214E-03         1.05596    -310.615E-03    -7.98415E-03     589.101E-03    -293.679E-03    -294.259E-03    -294.118E-03     589.099E-03    -293.818E-03    -1.88363E-03    -15.2554E+06    -28.4339E+06    -70.4821E+06    -70.4673E+06    -28.4486E+06    -15.2554E+06     580.263E+03         68.0160
            1318     5.95937E-03     113.513E-03         1.06128    -310.006E-03    -313.458E-03    -312.739E-03         1.06105    -310.487E-03    -1.77907E-03     589.233E-03    -293.442E-03    -295.523E-03    -293.479E-03     589.225E-03    -295.478E-03     3.79896E-03    -624.919E+03    -19.0471E+06    -62.6852E+06    -62.6773E+06    -19.0550E+06    -624.919E+03     493.666E+03         68.2281
            1319     6.70204E-03     113.561E-03         1.06410    -308.181E-03    -317.402E-03    -314.629E-03         1.06390    -310.757E-03     1.14353E-03     588.305E-03    -293.122E-03    -295.406E-03    -293.087E-03     588.269E-03    -295.406E-03     10.6760E-03     12.5735E+06    -10.2090E+06    -54.8990E+06    -54.8926E+06    -10.2154E+06     12.5735E+06     345.919E+03         68.4393
            1320     7.44796E-03     113.568E-03         1.06369    -308.035E-03    -316.992E-03    -313.723E-03         1.06344    -311.058E-03    -12.3994E-03     587.950E-03    -293.537E-03    -294.405E-03    -293.440E-03     587.853E-03    -294.405E-03     18.0435E-03     25.1921E+06    -1.72345E+06    -47.6512E+06    -47.6467E+06    -1.72800E+06     25.1921E+06    -5.91548E+03         68.7275
            1321     8.19492E-03     113.568E-03         1.06236    -308.004E-03    -315.030E-03    -311.713E-03         1.06216    -311.126E-03    -15.1785E-03     587.444E-03    -293.212E-03    -295.087E-03    -293.006E-03     587.238E-03    -295.087E-03     26.5547E-03     37.4302E+06     6.38081E+06    -40.7404E+06    -40.7254E+06     6.36583E+06     37.4302E+06    -229.564E+03         69.1520
            1322     8.93757E-03     113.643E-03         1.05861    -306.178E-03    -313.119E-03    -308.346E-03         1.05849    -310.828E-03    -2.31028E-03     586.090E-03    -292.764E-03    -295.916E-03    -292.385E-03     585.712E-03    -295.916E-03     36.0977E-03     49.1265E+06     13.6994E+06    -33.7266E+06    -33.6999E+06     13.6727E+06     49.1265E+06    -618.177E+03         69.7446
            1323     9.68315E-03     113.700E-03         1.05091    -301.633E-03    -310.133E-03    -301.473E-03         1.05075    -310.133E-03    -1.69902E-03     584.829E-03    -292.992E-03    -295.070E-03    -292.381E-03     584.219E-03    -295.070E-03     46.0255E-03     58.0317E+06     19.8046E+06    -27.0620E+06    -27.0017E+06     19.7443E+06     58.0317E+06    -1.99956E+03         70.7663
            1324     10.4293E-03     113.766E-03         1.04855    -300.168E-03    -309.178E-03    -300.086E-03         1.04846    -309.178E-03     2.98707E-03     587.206E-03    -293.565E-03    -294.913E-03    -293.627E-03     586.238E-03    -293.884E-03     57.9891E-03     64.1847E+06     25.4483E+06    -20.3092E+06    -20.2420E+06     25.3811E+06     64.1847E+06     835.135E+03         72.5746
            1325     11.1746E-03     113.864E-03         1.05466    -305.416E-03    -311.930E-03    -308.844E-03         1.05465    -308.484E-03    -392.678E-06     589.058E-03    -294.105E-03    -295.372E-03    -294.000E-03     587.736E-03    -294.154E-03     68.2635E-03     68.4735E+06     30.4271E+06    -14.2461E+06    -14.1257E+06     30.3066E+06     68.4735E+06    -308.075E+03         75.3547
            1326     11.9234E-03     113.980E-03         1.05621    -307.538E-03    -312.253E-03    -311.663E-03         1.05621    -308.122E-03    -1.67212E-03     589.786E-03    -294.987E-03    -296.591E-03    -294.305E-03     587.549E-03    -295.036E-03     87.5093E-03     71.0274E+06     33.7242E+06    -9.38050E+06    -9.27822E+06     33.6219E+06     71.0274E+06    -698.622E+03         78.8280
            1327     12.6656E-03     114.174E-03         1.04831    -304.638E-03    -308.267E-03    -305.302E-03         1.04829    -307.582E-03    -6.11920E-03     590.331E-03    -294.951E-03    -296.929E-03    -294.350E-03     587.751E-03    -294.951E-03     95.1788E-03     75.1740E+06     37.3412E+06    -4.40503E+06    -4.39957E+06     37.3358E+06     75.1740E+06    -145.317E+03         82.0539
            1328     744.518E-06     115.432E-03         1.04588    -206.247E-03    -407.272E-03    -401.147E-03         1.04153    -208.022E-03    -81.5582E-03     590.464E-03    -294.275E-03    -295.434E-03    -294.270E-03     590.459E-03    -295.434E-03    -3.52427E-03    -99.6348E+06    -101.725E+06    -142.482E+06    -101.488E+06    -142.410E+06    -99.9445E+06     689.901E+03         67.4158
            1329     1.48931E-03     115.426E-03         1.05241    -300.650E-03    -322.086E-03    -315.252E-03         1.05168    -306.758E-03     11.7073E-03     589.802E-03    -294.595E-03    -295.359E-03    -294.580E-03     589.787E-03    -295.359E-03    -7.11982E-03    -92.0980E+06    -99.1690E+06    -130.248E+06    -99.2764E+06    -130.140E+06    -92.0980E+06     1.18060E+06         67.3883
            1330     2.23330E-03     115.419E-03         1.05325    -302.431E-03    -320.617E-03    -313.387E-03         1.05312    -309.523E-03    -6.12509E-03     587.457E-03    -293.346E-03    -294.949E-03    -293.318E-03     587.429E-03    -294.949E-03    -9.85362E-03    -81.9406E+06    -95.7136E+06    -114.568E+06    -96.0188E+06    -114.263E+06    -81.9406E+06     878.491E+03         67.3881
            1331     2.97806E-03     115.405E-03         1.04891    -305.605E-03    -313.268E-03    -308.586E-03         1.04865    -310.033E-03    -19.1326E-03     585.658E-03    -293.308E-03    -294.505E-03    -293.549E-03     585.625E-03    -294.231E-03    -10.7372E-03    -68.0818E+06    -85.5692E+06    -96.5105E+06    -90.6377E+06     -91.442E+06    -68.0818E+06     1.44316E+06         67.4833
            1332     3.72416E-03     115.385E-03         1.04250    -300.610E-03    -311.376E-03    -302.482E-03         1.04227    -309.271E-03    -22.2574E-03     587.106E-03    -293.497E-03    -293.980E-03    -293.954E-03     587.080E-03    -293.497E-03    -9.48426E-03    -50.3848E+06    -62.7753E+06    -84.6167E+06    -84.2509E+06    -63.1411E+06    -50.3848E+06     2.02163E+06         67.6508
            1333     4.46894E-03     115.345E-03         1.03594    -294.886E-03    -309.881E-03    -296.798E-03         1.03575    -307.776E-03    -7.78180E-03     588.394E-03    -293.113E-03    -293.782E-03    -293.769E-03     588.381E-03    -293.113E-03    -6.42533E-03    -32.2444E+06    -40.3096E+06    -77.6825E+06    -77.5739E+06    -40.4183E+06    -32.2444E+06     1.68442E+06         67.8005
            1334     5.21440E-03     115.310E-03         1.03601    -297.319E-03    -306.941E-03    -297.652E-03         1.03569    -306.296E-03    -9.21882E-03     588.986E-03    -293.633E-03    -294.272E-03    -294.091E-03     588.983E-03    -293.812E-03    -2.15439E-03    -15.3807E+06    -28.0355E+06    -70.7200E+06    -70.6802E+06    -28.0753E+06    -15.3807E+06     1.11107E+06         67.9609
            1335     5.95977E-03     115.313E-03         1.03642    -297.257E-03    -308.241E-03    -299.981E-03         1.03622    -305.315E-03    -7.75040E-03     588.974E-03    -293.349E-03    -295.496E-03    -293.342E-03     588.967E-03    -295.496E-03     3.57438E-03    -474.619E+03    -18.5880E+06    -63.1662E+06    -63.1532E+06    -18.6011E+06    -474.619E+03     412.173E+03         68.1744
            1336     6.70248E-03     115.363E-03         1.03184    -294.819E-03    -306.756E-03    -296.921E-03         1.03166    -304.477E-03    -3.79407E-03     588.174E-03    -293.045E-03    -295.352E-03    -293.010E-03     588.140E-03    -295.352E-03     10.5142E-03     12.5891E+06    -10.0486E+06    -55.3102E+06    -55.3063E+06    -10.0525E+06     12.5891E+06     52.1544E+03         68.3920
            1337     7.44764E-03     115.373E-03         1.03239    -297.677E-03    -303.691E-03    -297.413E-03         1.03213    -303.691E-03    -9.16789E-03     588.071E-03    -293.426E-03    -294.344E-03    -293.325E-03     587.969E-03    -294.344E-03     18.3890E-03     25.1680E+06    -1.51418E+06    -47.5604E+06    -47.5559E+06    -1.51873E+06     25.1680E+06    -77.6213E+03         68.6825
            1338     8.19452E-03     115.371E-03         1.03745    -300.317E-03    -305.533E-03    -302.412E-03         1.03725    -303.242E-03    -12.6996E-03     587.268E-03    -293.030E-03    -295.002E-03    -292.807E-03     587.044E-03    -295.002E-03     27.5791E-03     37.7552E+06     6.95715E+06    -40.1936E+06    -40.1883E+06     6.95183E+06     37.7552E+06    -28.9043E+03         69.1098
            1339     8.93750E-03     115.450E-03         1.03790    -300.478E-03    -305.240E-03    -302.668E-03         1.03779    -302.944E-03    -5.43598E-03     586.091E-03    -292.678E-03    -295.834E-03    -292.272E-03     585.685E-03    -295.834E-03     37.3952E-03     49.3109E+06     13.6700E+06    -33.6201E+06    -33.5879E+06     13.6378E+06     49.3109E+06     618.179E+03         69.7170
            1340     9.68388E-03     115.504E-03         1.03589    -295.735E-03    -307.712E-03    -300.758E-03         1.03577    -302.569E-03    -7.10225E-03     585.071E-03    -292.862E-03    -294.987E-03    -292.242E-03     584.451E-03    -294.987E-03     46.4630E-03     58.8266E+06     19.8711E+06    -27.2702E+06    -27.2199E+06     19.8208E+06     58.8266E+06    -102.181E+03         70.7611
            1341     10.4304E-03     115.574E-03         1.03531    -295.203E-03    -308.175E-03    -301.109E-03         1.03521    -302.171E-03     4.97241E-03     587.080E-03    -293.440E-03    -294.984E-03    -293.673E-03     586.131E-03    -293.803E-03     57.4044E-03     64.5541E+06     25.4115E+06    -20.7958E+06    -20.7541E+06     25.3698E+06     64.5541E+06    -1.23326E+06         72.5929
            1342     11.1746E-03     115.674E-03         1.03324    -296.582E-03    -306.068E-03    -300.841E-03         1.03319    -301.756E-03     3.76671E-03     589.112E-03    -294.151E-03    -295.528E-03    -294.228E-03     587.812E-03    -294.151E-03     67.6760E-03     68.0635E+06     30.1684E+06    -14.4960E+06    -14.4628E+06     30.1351E+06     68.0635E+06    -24.1081E+03         75.3967
            1343     11.9226E-03     115.789E-03         1.02814    -294.230E-03    -304.760E-03    -297.888E-03         1.02813    -301.096E-03    -1.17039E-03     589.997E-03    -295.069E-03    -296.821E-03    -294.587E-03     587.763E-03    -295.069E-03     87.4187E-03     71.2767E+06     33.8873E+06    -8.78889E+06    -8.77168E+06     33.8701E+06     71.2767E+06     221.086E+03         78.8882
            1344     12.6654E-03     115.980E-03         1.02412    -294.783E-03    -300.336E-03    -294.991E-03         1.02411    -300.118E-03    -3.55441E-03     590.536E-03    -294.930E-03    -297.059E-03    -294.484E-03     587.961E-03    -294.930E-03     95.0971E-03     75.6790E+06     37.1276E+06    -4.07434E+06    -4.06796E+06     37.1212E+06     75.6790E+06    -208.229E+03         82.1219
            1345     744.876E-06     117.235E-03         1.04372    -185.507E-03    -431.711E-03    -425.365E-03         1.04065    -188.789E-03    -46.6503E-03     591.103E-03    -294.703E-03    -295.880E-03    -294.699E-03     591.098E-03    -295.880E-03    -3.55750E-03    -99.8873E+06    -101.433E+06    -144.953E+06    -101.502E+06    -144.883E+06    -99.8873E+06     430.303E+03         67.4094
            1346     1.48891E-03     117.234E-03         1.02396    -295.419E-03    -304.780E-03    -294.656E-03         1.02320    -304.780E-03     22.9608E-03     589.937E-03    -294.479E-03    -295.581E-03    -294.464E-03     589.922E-03    -295.581E-03    -6.84358E-03    -92.9674E+06    -98.8502E+06    -132.678E+06    -98.9509E+06    -132.577E+06    -92.9674E+06     1.22190E+06         67.3688
            1347     2.23387E-03     117.223E-03         1.01295    -291.431E-03    -300.765E-03    -291.011E-03         1.01253    -300.765E-03     7.27991E-03     587.474E-03    -293.268E-03    -295.015E-03    -293.240E-03     587.446E-03    -295.015E-03    -9.86659E-03    -80.9983E+06    -94.7349E+06    -116.298E+06    -95.2525E+06    -115.781E+06    -80.9983E+06     1.78857E+06         67.3608
            1348     2.97887E-03     117.203E-03         1.01271    -293.594E-03    -298.655E-03    -293.517E-03         1.01263    -298.655E-03    -11.7198E-03     585.887E-03    -293.395E-03    -294.759E-03    -293.836E-03     585.855E-03    -294.286E-03    -10.5880E-03    -66.6296E+06    -86.4015E+06    -97.1535E+06    -90.1049E+06    -93.4501E+06    -66.6296E+06     1.67886E+06         67.4567
            1349     3.72259E-03     117.185E-03         1.01756    -295.840E-03    -300.284E-03    -297.863E-03         1.01748    -298.179E-03    -8.87949E-03     586.732E-03    -293.397E-03    -294.086E-03    -293.924E-03     586.706E-03    -293.533E-03    -9.32511E-03    -50.5271E+06    -65.6003E+06    -84.2775E+06    -83.8869E+06    -65.9908E+06    -50.5271E+06     2.33958E+06         67.6287
            1350     4.46824E-03     117.146E-03         1.02088    -295.945E-03    -302.009E-03    -299.428E-03         1.02085    -298.492E-03     11.1236E-03     587.855E-03    -293.009E-03    -293.588E-03    -293.439E-03     587.841E-03    -293.145E-03    -6.49703E-03    -32.3870E+06    -41.1255E+06    -77.5772E+06    -77.3265E+06    -41.3762E+06    -32.3870E+06     2.86513E+06         67.7809
            1351     5.21497E-03     117.110E-03         1.01511    -291.332E-03    -299.781E-03    -292.645E-03         1.01501    -298.369E-03     16.7113E-03     589.120E-03    -293.775E-03    -294.229E-03    -294.186E-03     589.116E-03    -293.815E-03    -2.22915E-03    -14.1347E+06    -26.2903E+06     -69.968E+06    -69.8378E+06    -26.4205E+06    -14.1347E+06     2.21763E+06         67.9404
            1352     5.95989E-03     117.110E-03         1.00797    -287.315E-03    -297.557E-03    -287.480E-03         1.00790    -297.316E-03     11.9165E-03     589.046E-03    -293.519E-03    -295.516E-03    -293.563E-03     589.039E-03    -295.464E-03     3.60909E-03     1.13214E+06    -16.8070E+06    -62.3828E+06    -62.3300E+06    -16.8598E+06     1.13214E+06     1.25750E+06         68.1545
            1353     6.70223E-03     117.161E-03         1.00862    -289.097E-03    -297.132E-03    -289.960E-03         1.00853    -296.179E-03     11.3486E-03     587.662E-03    -292.422E-03    -295.324E-03    -292.386E-03     587.626E-03    -295.324E-03     10.5811E-03     13.6820E+06    -8.90409E+06    -55.3094E+06    -55.2916E+06    -8.92185E+06     13.6820E+06     286.037E+03         68.3779
            1354     7.44884E-03     117.170E-03         1.00852    -289.777E-03    -296.195E-03    -290.371E-03         1.00841    -295.483E-03     1.81435E-03     587.584E-03    -292.561E-03    -294.316E-03    -292.459E-03     587.482E-03    -294.316E-03     18.4767E-03     25.3007E+06    -1.52201E+06    -48.0622E+06    -48.0590E+06    -1.52521E+06     25.3007E+06    -131.238E+03         68.6706
            1355     8.19729E-03     117.166E-03         1.00599    -287.733E-03    -294.790E-03    -287.675E-03         1.00593    -294.790E-03     1.37821E-03     587.029E-03    -292.892E-03    -294.822E-03    -292.672E-03     586.809E-03    -294.822E-03     27.4146E-03     38.2612E+06     6.64807E+06    -40.6570E+06    -40.6539E+06     6.64491E+06     38.2612E+06    -109.202E+03         69.0985
            1356     8.93961E-03     117.248E-03         1.01080    -290.673E-03    -296.175E-03    -292.690E-03         1.01077    -294.128E-03     8.73533E-03     586.256E-03    -292.948E-03    -295.630E-03    -292.556E-03     585.864E-03    -295.630E-03     36.8164E-03     50.5583E+06     14.3278E+06    -33.1982E+06    -33.1182E+06     14.2477E+06     50.5583E+06    -247.185E+03         69.7146
            1357     9.68474E-03     117.303E-03         1.01987    -294.043E-03    -301.888E-03    -301.859E-03         1.01984    -294.043E-03     7.08157E-03     585.668E-03    -293.307E-03    -294.940E-03    -292.707E-03     585.067E-03    -294.940E-03     45.7329E-03     60.4631E+06     21.1286E+06    -25.9578E+06    -25.8457E+06     21.0164E+06     60.4631E+06    -148.063E+03         70.7747
            1358     10.4296E-03     117.372E-03         1.02016    -294.243E-03    -301.889E-03    -301.821E-03         1.02009    -294.243E-03     13.0952E-03     587.619E-03    -293.701E-03    -295.079E-03    -294.023E-03     586.684E-03    -293.822E-03     57.0139E-03     66.5544E+06     26.4459E+06    -20.0039E+06    -19.9478E+06     26.3899E+06     66.5544E+06    -275.830E+03         72.6234
            1359     11.1745E-03     117.472E-03         1.01188    -289.870E-03    -298.424E-03    -294.215E-03         1.01183    -294.033E-03     7.43271E-03     589.278E-03    -294.094E-03    -295.503E-03    -294.067E-03     587.985E-03    -294.238E-03     67.4809E-03     68.7860E+06     29.6000E+06    -14.9526E+06    -14.9237E+06     29.5712E+06     68.7860E+06    -137.757E+03         75.4439
            1360     11.9229E-03     117.590E-03         1.00597    -286.469E-03    -296.957E-03    -290.075E-03         1.00596    -293.335E-03    -5.85489E-03     589.832E-03    -294.919E-03    -296.593E-03    -294.223E-03     587.606E-03    -295.062E-03     87.2549E-03     70.6738E+06     32.3972E+06    -9.71258E+06    -9.69682E+06     32.3814E+06     70.6738E+06     244.827E+03         78.9517
            1361     12.6664E-03     117.783E-03         1.00510    -288.601E-03    -294.262E-03    -290.318E-03         1.00507    -292.515E-03    -11.4507E-03     590.715E-03    -294.890E-03    -297.259E-03    -294.703E-03     588.159E-03    -294.890E-03     94.7362E-03     74.9974E+06     36.6709E+06    -4.73834E+06    -4.72699E+06     36.6596E+06     74.9974E+06     163.517E+03         82.1941
            1362     743.818E-06     119.042E-03     973.579E-03    -133.556E-03    -424.562E-03    -421.708E-03     972.232E-03    -135.063E-03    -27.0093E-03     591.380E-03    -295.049E-03    -296.024E-03    -295.216E-03     591.376E-03    -295.853E-03    -3.42352E-03    -99.1799E+06    -101.973E+06    -147.224E+06    -101.297E+06    -147.111E+06    -99.9693E+06     810.972E+03         67.3891
            1363     1.48903E-03     119.036E-03     984.156E-03    -277.239E-03    -293.071E-03    -288.632E-03     982.970E-03    -280.492E-03     8.81627E-03     589.708E-03    -294.319E-03    -295.574E-03    -294.305E-03     589.694E-03    -295.574E-03    -6.72899E-03    -93.0861E+06    -99.4607E+06    -135.896E+06    -99.5374E+06    -135.819E+06    -93.0861E+06     1.26407E+06         67.3493
            1364     2.23362E-03     119.023E-03     989.340E-03    -281.704E-03    -294.575E-03    -291.957E-03     988.963E-03    -283.945E-03     6.75794E-03     587.554E-03    -293.316E-03    -294.936E-03    -293.290E-03     587.528E-03    -294.936E-03    -9.44998E-03    -81.3130E+06    -94.7122E+06    -119.019E+06    -95.1316E+06    -118.600E+06    -81.3130E+06     1.70118E+06         67.3473
            1365     2.97779E-03     119.006E-03     991.360E-03    -285.474E-03    -293.492E-03    -292.635E-03     991.225E-03    -286.196E-03    -19.2599E-03     586.007E-03    -293.414E-03    -294.855E-03    -293.985E-03     585.979E-03    -294.255E-03    -9.96268E-03    -66.8688E+06    -86.5641E+06    -99.4590E+06    -90.1170E+06    -95.9061E+06    -66.8688E+06     2.66154E+06         67.4535
            1366     3.72355E-03     118.986E-03     990.215E-03    -286.603E-03    -290.867E-03    -289.936E-03     990.045E-03    -287.364E-03    -19.2303E-03     586.505E-03    -293.379E-03    -294.220E-03    -293.957E-03     586.483E-03    -293.620E-03    -8.69488E-03    -50.9262E+06    -68.1093E+06    -85.8811E+06    -84.7312E+06    -69.2591E+06    -50.9262E+06     2.88109E+06         67.6336
            1367     4.46941E-03     118.950E-03     991.207E-03    -286.738E-03    -289.730E-03    -288.572E-03     991.120E-03    -287.809E-03    -4.81680E-03     587.655E-03    -293.000E-03    -293.689E-03    -293.437E-03     587.643E-03    -293.241E-03    -6.23166E-03    -32.3579E+06    -42.1896E+06    -77.5153E+06    -77.2462E+06    -42.4587E+06    -32.3579E+06     3.02633E+06         67.7844
            1368     5.21499E-03     118.919E-03     995.480E-03    -285.674E-03    -293.376E-03    -290.747E-03     995.330E-03    -288.154E-03    -12.6115E-03     589.162E-03    -293.794E-03    -294.311E-03    -294.308E-03     589.159E-03    -293.794E-03    -2.24698E-03    -14.2509E+06    -25.0082E+06    -69.6048E+06    -69.4155E+06    -25.1976E+06    -14.2509E+06     2.83525E+06         67.9323
            1369     5.95950E-03     118.924E-03     994.480E-03    -285.772E-03    -292.455E-03    -289.625E-03     994.283E-03    -288.404E-03    -20.8331E-03     588.917E-03    -293.221E-03    -295.529E-03    -293.281E-03     588.909E-03    -295.460E-03     3.96230E-03     1.28791E+06    -15.4999E+06    -61.8801E+06    -61.7736E+06    -15.6063E+06     1.28791E+06     2.19478E+06         68.1344
            1370     6.70246E-03     118.978E-03     988.486E-03    -284.013E-03    -289.168E-03    -284.898E-03     988.418E-03    -288.214E-03    -7.24885E-03     587.448E-03    -292.130E-03    -295.321E-03    -292.093E-03     587.410E-03    -295.321E-03     10.9649E-03     14.9393E+06    -7.21474E+06    -54.6160E+06    -54.5290E+06    -7.30177E+06     14.9393E+06     1.75154E+06         68.3569
            1371     7.44865E-03     118.985E-03     986.913E-03    -281.538E-03    -289.631E-03    -283.332E-03     986.839E-03    -287.764E-03    -14.1245E-03     587.713E-03    -292.834E-03    -294.321E-03    -292.736E-03     587.615E-03    -294.321E-03     18.2222E-03     27.6886E+06    -62.5235E+03    -47.9085E+06    -47.8631E+06    -107.877E+03     27.6886E+06     689.918E+03         68.6591
            1372     8.19582E-03     118.980E-03     989.530E-03    -282.849E-03    -290.791E-03    -286.140E-03     989.459E-03    -287.428E-03    -13.2898E-03     587.560E-03    -293.497E-03    -294.724E-03    -293.293E-03     587.356E-03    -294.724E-03     26.4569E-03     40.0585E+06     7.33426E+06    -40.5790E+06    -40.5663E+06     7.32158E+06     40.0585E+06    -372.358E+03         69.0959
            1373     8.93756E-03     119.063E-03     990.184E-03    -283.586E-03    -291.505E-03    -287.831E-03     990.178E-03    -287.254E-03    -1.43606E-03     586.471E-03    -293.080E-03    -295.509E-03    -292.710E-03     586.102E-03    -295.509E-03     35.7070E-03     51.5815E+06     14.6244E+06    -33.3307E+06    -33.2394E+06     14.5331E+06     51.5815E+06    -468.088E+03         69.7178
            1374     9.68310E-03     119.121E-03     986.128E-03    -281.699E-03    -289.699E-03    -284.358E-03     986.085E-03    -286.997E-03    -8.47385E-03     585.463E-03    -292.952E-03    -294.944E-03    -292.352E-03     584.863E-03    -294.944E-03     45.6456E-03     60.3527E+06     20.8672E+06    -27.1320E+06    -27.0331E+06     20.7683E+06     60.3527E+06     231.973E+03         70.7879
            1375     10.4288E-03     119.189E-03     983.915E-03    -280.488E-03    -288.139E-03    -282.086E-03     983.872E-03    -286.498E-03    -6.59494E-03     587.328E-03    -293.581E-03    -295.020E-03    -293.801E-03     586.364E-03    -293.835E-03     57.8603E-03     65.9278E+06     25.7860E+06    -20.7176E+06    -20.6957E+06     25.7641E+06     65.9278E+06     658.323E+03         72.6527
            1376     11.1740E-03     119.285E-03     988.612E-03    -283.232E-03    -289.536E-03    -286.742E-03     988.597E-03    -286.011E-03    -4.19936E-03     589.170E-03    -294.128E-03    -295.466E-03    -293.995E-03     587.853E-03    -294.282E-03     68.1332E-03     69.8569E+06     28.9270E+06    -14.5463E+06    -14.5397E+06     28.9204E+06     69.8569E+06     360.230E+03         75.4920
            1377     11.9225E-03     119.399E-03     991.533E-03    -285.417E-03    -291.552E-03    -291.256E-03     991.501E-03    -285.682E-03    -11.0707E-03     589.948E-03    -294.967E-03    -296.474E-03    -294.118E-03     587.746E-03    -295.121E-03     86.8897E-03     72.0572E+06     32.1570E+06    -9.63564E+06    -9.62600E+06     32.1474E+06     72.0572E+06     310.686E+03         79.0166
            1378     12.6657E-03     119.592E-03     987.336E-03    -285.309E-03    -289.668E-03    -289.643E-03     987.310E-03    -285.309E-03    -9.63120E-03     590.686E-03    -294.918E-03    -297.170E-03    -294.663E-03     588.179E-03    -294.918E-03     93.8201E-03     75.0139E+06     37.0432E+06    -4.73408E+06    -4.72748E+06     37.0366E+06     75.0139E+06     177.086E+03         82.2663
            1379     744.843E-06     120.850E-03     942.875E-03    -134.354E-03    -403.841E-03    -401.080E-03     940.575E-03    -134.814E-03    -2.79549E-03     590.658E-03    -294.878E-03    -295.580E-03    -295.251E-03     590.654E-03    -295.204E-03    -3.17958E-03    -99.4520E+06    -102.923E+06    -150.600E+06    -102.271E+06    -150.463E+06    -100.241E+06     945.655E+03         67.3535
            1380     1.48941E-03     120.839E-03     957.590E-03    -270.141E-03    -283.457E-03    -281.655E-03     956.248E-03    -270.601E-03     5.54116E-03     589.440E-03    -294.376E-03    -295.300E-03    -294.364E-03     589.427E-03    -295.300E-03    -6.49998E-03    -92.3267E+06    -98.9812E+06    -138.235E+06    -99.0845E+06    -138.131E+06    -92.3267E+06     1.49802E+06         67.3254
            1381     2.23444E-03     120.827E-03     965.782E-03    -274.748E-03    -285.898E-03    -284.713E-03     964.840E-03    -274.991E-03     4.65728E-03     587.431E-03    -293.429E-03    -294.773E-03    -293.406E-03     587.408E-03    -294.773E-03    -8.98857E-03    -81.8752E+06    -95.3798E+06    -121.944E+06    -95.6288E+06    -121.695E+06    -81.8752E+06     1.82435E+06         67.3308
            1382     2.97934E-03     120.811E-03     968.625E-03    -277.314E-03    -285.349E-03    -284.768E-03     968.287E-03    -277.556E-03    -20.5464E-03     585.967E-03    -293.406E-03    -294.559E-03    -293.785E-03     585.938E-03    -294.152E-03    -9.95573E-03    -67.9323E+06    -88.4955E+06    -102.098E+06    -90.6606E+06    -99.9327E+06    -67.9323E+06     2.67518E+06         67.4328
            1383     3.72344E-03     120.797E-03     971.869E-03    -279.250E-03    -286.486E-03    -286.239E-03     971.622E-03    -279.250E-03    -12.4455E-03     586.531E-03    -293.425E-03    -294.047E-03    -293.810E-03     586.508E-03    -293.640E-03    -8.88720E-03    -50.5114E+06    -69.7197E+06    -86.2812E+06    -84.0931E+06    -71.9078E+06    -50.5114E+06     3.78879E+06         67.6089
            1384     4.46778E-03     120.764E-03     971.502E-03    -278.597E-03    -284.005E-03    -282.194E-03     971.353E-03    -280.260E-03    -3.36496E-03     587.470E-03    -293.046E-03    -293.662E-03    -293.436E-03     587.459E-03    -293.260E-03    -5.85289E-03    -32.7838E+06    -42.9611E+06    -78.1352E+06    -77.5860E+06    -43.5103E+06    -32.7838E+06     3.72845E+06         67.7707
            1385     5.21450E-03     120.728E-03     969.106E-03    -275.076E-03    -284.231E-03    -278.662E-03     968.882E-03    -280.421E-03    -1.42352E-03     588.971E-03    -293.734E-03    -294.164E-03    -294.150E-03     588.968E-03    -293.745E-03    -1.66444E-03    -15.0631E+06    -24.5721E+06    -70.5115E+06    -70.3087E+06    -24.7749E+06    -15.0631E+06     3.01893E+06         67.9324
            1386     5.96041E-03     120.724E-03     969.705E-03    -275.865E-03    -284.671E-03    -280.028E-03     969.434E-03    -280.237E-03    -8.71175E-03     589.023E-03    -293.195E-03    -295.445E-03    -293.205E-03     589.017E-03    -295.428E-03     3.54397E-03     922.298E+03    -15.3224E+06    -63.1573E+06    -63.0211E+06    -15.4586E+06     922.298E+03     2.53680E+06         68.1338
            1387     6.70357E-03     120.773E-03     971.057E-03    -275.924E-03    -285.972E-03    -281.621E-03     970.908E-03    -280.126E-03     7.75476E-03     587.641E-03    -292.802E-03    -295.309E-03    -292.801E-03     587.609E-03    -295.277E-03     10.0446E-03     15.4244E+06    -6.36746E+06    -54.8915E+06    -54.7884E+06    -6.47049E+06     15.4244E+06     2.09746E+06         68.3490
            1388     7.44901E-03     120.784E-03     974.967E-03    -276.880E-03    -289.700E-03    -286.108E-03     974.886E-03    -280.391E-03     5.92764E-03     587.928E-03    -293.662E-03    -294.393E-03    -293.600E-03     587.834E-03    -294.361E-03     17.6409E-03     28.8047E+06     2.01385E+06    -46.4951E+06    -46.3909E+06     1.90963E+06     28.8047E+06     1.82383E+06         68.6537
            1389     8.19572E-03     120.780E-03     976.443E-03    -280.850E-03    -287.159E-03    -287.085E-03     976.383E-03    -280.864E-03    -1.74090E-03     587.639E-03    -293.615E-03    -294.831E-03    -293.405E-03     587.429E-03    -294.831E-03     26.7219E-03     41.0394E+06     8.44869E+06    -40.1308E+06    -39.9898E+06     8.30766E+06     41.0394E+06     1.47876E+06         69.0931
            1390     8.93764E-03     120.861E-03     968.865E-03    -278.341E-03    -283.100E-03    -280.538E-03     968.854E-03    -280.892E-03     1.96597E-03     586.390E-03    -292.950E-03    -295.509E-03    -292.567E-03     586.007E-03    -295.509E-03     36.3812E-03     52.4450E+06     14.4647E+06    -34.4057E+06    -34.2893E+06     14.3483E+06     52.4450E+06     1.06991E+06         69.7167
            1391     9.68386E-03     120.916E-03     961.963E-03    -274.347E-03    -281.199E-03    -275.111E-03     961.908E-03    -280.379E-03    -1.69685E-03     585.404E-03    -292.772E-03    -294.918E-03    -292.164E-03     584.796E-03    -294.918E-03     45.9439E-03     61.6232E+06     21.3645E+06    -27.3586E+06    -27.3258E+06     21.3317E+06     61.6232E+06     449.833E+03         70.8001
            1392     10.4298E-03     120.990E-03     961.264E-03    -273.485E-03    -280.486E-03    -274.186E-03     961.145E-03    -279.666E-03     5.77244E-03     587.309E-03    -293.513E-03    -294.955E-03    -293.652E-03     586.363E-03    -293.870E-03     57.3770E-03     67.0991E+06     26.3178E+06    -20.6539E+06    -20.6284E+06     26.2922E+06     67.0991E+06     606.532E+03         72.6847
            1393     11.1754E-03     121.085E-03     961.163E-03    -274.591E-03    -278.939E-03    -274.502E-03     961.073E-03    -278.939E-03     8.61802E-03     589.486E-03    -294.309E-03    -295.472E-03    -294.167E-03     588.191E-03    -294.319E-03     67.5380E-03     69.6392E+06     27.7713E+06    -15.1493E+06    -15.1207E+06     27.7426E+06     69.6392E+06     700.872E+03         75.5430
            1394     11.9221E-03     121.202E-03     961.424E-03    -275.061E-03    -280.470E-03    -277.286E-03     961.401E-03    -278.221E-03    -3.98841E-03     590.282E-03    -295.146E-03    -296.457E-03    -294.245E-03     588.080E-03    -295.156E-03     86.8805E-03     71.4335E+06     32.1602E+06    -9.41145E+06    -9.40769E+06     32.1564E+06     71.4335E+06     39.4153E+03         79.0826
            1395     12.6646E-03     121.396E-03     962.048E-03    -276.031E-03    -280.348E-03    -278.810E-03     962.009E-03    -277.530E-03    -9.52068E-03     590.432E-03    -294.948E-03    -296.949E-03    -294.405E-03     587.888E-03    -294.948E-03     94.5440E-03     75.2242E+06     37.7724E+06    -4.46290E+06    -4.46227E+06     37.7718E+06     75.2242E+06     38.8031E+03         82.3419
            1396     745.355E-06     122.653E-03     934.699E-03    -202.959E-03    -338.008E-03    -333.820E-03     930.970E-03    -203.419E-03     59.9540E-03     590.084E-03    -294.435E-03    -295.297E-03    -294.636E-03     590.079E-03    -295.091E-03    -3.99678E-03    -99.2347E+06    -102.682E+06    -155.133E+06    -101.873E+06    -155.024E+06    -100.153E+06     1.03212E+06         67.3281
            1397     1.49029E-03     122.645E-03     933.687E-03    -266.948E-03    -272.037E-03    -268.297E-03     931.612E-03    -268.613E-03     25.7774E-03     589.283E-03    -294.350E-03    -295.124E-03    -294.334E-03     589.268E-03    -295.124E-03    -7.16236E-03    -92.8542E+06    -99.1822E+06    -142.106E+06    -99.2950E+06    -141.993E+06    -92.8542E+06     1.71750E+06         67.3024
            1398     2.23451E-03     122.631E-03     932.819E-03    -266.813E-03    -268.939E-03    -266.105E-03     931.432E-03    -268.260E-03     27.2116E-03     587.372E-03    -293.471E-03    -294.698E-03    -293.445E-03     587.346E-03    -294.698E-03    -9.53612E-03    -81.1669E+06    -94.9273E+06    -125.672E+06    -95.2701E+06    -125.329E+06    -81.1669E+06     2.81097E+06         67.3019
            1399     2.97864E-03     122.619E-03     938.067E-03    -268.123E-03    -271.982E-03    -271.341E-03     937.668E-03    -268.366E-03    -5.20097E-03     585.636E-03    -293.417E-03    -294.664E-03    -293.977E-03     585.605E-03    -294.074E-03    -10.2924E-03    -67.2008E+06    -89.5763E+06    -104.763E+06    -90.8680E+06    -103.472E+06    -67.2008E+06     3.27170E+06         67.3873
            1400     3.72351E-03     122.606E-03     944.445E-03    -268.873E-03    -275.869E-03    -274.979E-03     944.100E-03    -269.417E-03     2.14623E-03     586.276E-03    -293.242E-03    -294.116E-03    -293.808E-03     586.252E-03    -293.526E-03    -9.02498E-03    -51.0161E+06    -73.2404E+06    -88.1542E+06    -84.9594E+06    -76.4352E+06    -51.0161E+06     4.21754E+06         67.5631
            1401     4.47003E-03     122.568E-03     945.493E-03    -268.816E-03    -276.418E-03    -274.479E-03     945.223E-03    -270.485E-03    -6.39405E-03     587.380E-03    -292.893E-03    -293.473E-03    -293.177E-03     587.368E-03    -293.178E-03    -5.95705E-03    -32.9953E+06    -44.0658E+06    -79.1071E+06    -78.1559E+06    -45.0169E+06    -32.9953E+06     5.20790E+06         67.7640
            1402     5.21651E-03     122.527E-03     943.973E-03    -266.293E-03    -278.013E-03    -272.947E-03     943.714E-03    -271.100E-03     10.8031E-06     589.003E-03    -293.772E-03    -294.193E-03    -294.179E-03     589.000E-03    -293.783E-03    -1.88366E-03    -15.2836E+06    -23.5514E+06    -71.7255E+06    -71.2614E+06    -24.0155E+06    -15.2836E+06     4.48795E+06         67.9716
            1403     5.96085E-03     122.527E-03     948.474E-03    -267.826E-03    -280.286E-03    -276.300E-03     948.170E-03    -271.508E-03    -9.62889E-03     589.743E-03    -293.896E-03    -295.604E-03    -294.005E-03     589.737E-03    -295.489E-03     3.26503E-03     1.22732E+06    -14.0015E+06    -63.4582E+06    -63.2502E+06    -14.2095E+06     1.22732E+06     3.02611E+06         68.1786
            1404     6.70158E-03     122.583E-03     955.624E-03    -272.206E-03    -282.211E-03    -281.998E-03     955.410E-03    -272.206E-03    -2.64975E-03     588.394E-03    -293.702E-03    -295.317E-03    -293.702E-03     588.362E-03    -295.285E-03     9.88083E-03     15.6598E+06    -5.62101E+06    -55.8013E+06    -55.6879E+06    -5.73439E+06     15.6598E+06     2.20741E+06         68.3696
            1405     7.44715E-03     122.599E-03     952.545E-03    -270.371E-03    -281.320E-03    -278.524E-03     952.322E-03    -272.944E-03    -9.57745E-03     587.826E-03    -293.668E-03    -294.430E-03    -293.608E-03     587.734E-03    -294.398E-03     17.5554E-03     28.4623E+06     1.54839E+06    -48.4038E+06    -48.2831E+06     1.42776E+06     28.4623E+06     2.04488E+06         68.6523
            1406     8.19509E-03     122.593E-03     942.689E-03    -266.945E-03    -275.904E-03    -269.695E-03     942.507E-03    -272.971E-03    -12.2795E-03     587.243E-03    -293.053E-03    -295.109E-03    -292.844E-03     587.034E-03    -295.109E-03     26.6596E-03     41.3389E+06     8.31720E+06    -40.6531E+06    -40.4916E+06     8.15567E+06     41.3389E+06     2.50706E+06         69.0817
            1407     8.93851E-03     122.672E-03     941.469E-03    -268.235E-03    -273.258E-03    -268.998E-03     941.396E-03    -272.422E-03     500.957E-06     586.354E-03    -292.837E-03    -295.714E-03    -292.453E-03     585.971E-03    -295.714E-03     36.4164E-03     54.1766E+06     15.4462E+06    -33.2998E+06    -33.1234E+06     15.2698E+06     54.1766E+06     2.34271E+06         69.7112
            1408     9.68386E-03     122.730E-03     947.217E-03    -271.313E-03    -275.205E-03    -274.435E-03     947.182E-03    -272.047E-03     6.72224E-03     585.802E-03    -293.175E-03    -294.900E-03    -292.602E-03     585.195E-03    -294.866E-03     45.9307E-03     63.0694E+06     21.1825E+06    -26.8871E+06    -26.7854E+06     21.0807E+06     63.0694E+06     1.41680E+06         70.8151
            1409     10.4284E-03     122.800E-03     948.071E-03    -271.748E-03    -275.681E-03    -275.423E-03     947.983E-03    -271.918E-03     6.86774E-03     587.655E-03    -293.722E-03    -295.051E-03    -293.957E-03     586.702E-03    -293.863E-03     57.5783E-03     67.8719E+06     26.1641E+06    -20.8062E+06    -20.7530E+06     26.1109E+06     67.8719E+06     1.20893E+06         72.7243
            1410     11.1735E-03     122.898E-03     943.085E-03    -270.083E-03    -273.569E-03    -271.899E-03     942.984E-03    -271.651E-03     4.60435E-03     589.160E-03    -294.052E-03    -295.521E-03    -293.958E-03     587.844E-03    -294.299E-03     68.0649E-03     70.9954E+06     29.5867E+06    -14.6613E+06    -14.6177E+06     29.5430E+06     70.9954E+06     937.002E+03         75.6054
            1411     11.9215E-03     123.014E-03     938.647E-03    -267.686E-03    -271.542E-03    -268.129E-03     938.613E-03    -271.064E-03    -5.88793E-03     589.804E-03    -294.882E-03    -296.254E-03    -293.781E-03     587.578E-03    -295.129E-03     87.3502E-03     72.8127E+06     32.6385E+06    -9.40283E+06    -9.38286E+06     32.6186E+06     72.8127E+06     438.750E+03         79.1650
            1412     12.6653E-03     123.204E-03     938.335E-03    -268.380E-03    -271.509E-03    -269.479E-03     938.285E-03    -270.360E-03    -13.1476E-03     590.189E-03    -294.928E-03    -296.682E-03    -294.124E-03     587.631E-03    -294.928E-03     94.7890E-03     77.0676E+06     37.6892E+06    -4.58447E+06    -4.58172E+06     37.6864E+06     77.0676E+06     28.8534E+03         82.4389
            1413     744.679E-06     124.458E-03     929.661E-03    -235.003E-03    -308.842E-03    -253.222E-03     922.786E-03    -283.748E-03     64.2834E-03     590.643E-03    -294.538E-03    -295.576E-03    -294.532E-03     590.638E-03    -295.576E-03    -4.11892E-03    -99.3518E+06    -102.624E+06    -160.157E+06    -101.780E+06    -160.083E+06    -100.270E+06     1.08333E+06         67.3351
            1414     1.48951E-03     124.451E-03     919.042E-03    -262.541E-03    -270.710E-03    -263.881E-03     917.236E-03    -267.564E-03    -7.51598E-03     589.325E-03    -294.155E-03    -295.360E-03    -294.138E-03     589.308E-03    -295.360E-03    -7.52266E-03    -93.4198E+06    -99.7210E+06    -147.424E+06    -99.8911E+06    -147.254E+06    -93.4198E+06     2.56191E+06         67.3011
            1415     2.23459E-03     124.427E-03     914.900E-03    -260.521E-03    -266.012E-03    -259.828E-03     913.806E-03    -265.611E-03     11.0653E-03     586.905E-03    -292.875E-03    -294.762E-03    -292.848E-03     586.879E-03    -294.762E-03    -9.66997E-03    -81.6083E+06    -96.0065E+06    -130.812E+06    -96.3728E+06    -130.446E+06    -81.6083E+06     3.36772E+06         67.2920
            1416     2.98035E-03     124.391E-03     915.285E-03    -258.990E-03    -267.362E-03    -261.633E-03     914.807E-03    -264.242E-03    -15.6110E-03     584.893E-03    -292.941E-03    -294.552E-03    -293.476E-03     584.864E-03    -293.989E-03    -9.99492E-03    -67.4639E+06    -89.6427E+06    -110.078E+06    -91.2336E+06    -108.487E+06    -67.4639E+06     4.30961E+06         67.3744
            1417     3.72536E-03     124.368E-03     913.502E-03    -257.684E-03    -266.244E-03    -259.876E-03     912.976E-03    -263.525E-03    -17.8222E-03     585.899E-03    -293.180E-03    -294.021E-03    -293.823E-03     585.875E-03    -293.355E-03    -9.09973E-03    -51.3719E+06    -74.5968E+06    -91.2218E+06    -85.4992E+06    -80.3194E+06    -51.3719E+06     5.16091E+06         67.5539
            1418     4.46902E-03     124.367E-03     916.557E-03    -260.895E-03    -266.119E-03    -263.240E-03     915.957E-03    -263.173E-03    -16.8959E-03     587.569E-03    -292.930E-03    -293.859E-03    -293.670E-03     587.555E-03    -293.105E-03    -6.79712E-03    -33.5182E+06    -46.8461E+06    -79.5927E+06    -78.3835E+06    -48.0553E+06    -33.5182E+06     5.78900E+06         67.7557
            1419     5.21293E-03     124.381E-03     928.513E-03    -263.951E-03    -274.855E-03    -274.519E-03     928.178E-03    -263.951E-03     1.17231E-03     589.248E-03    -293.919E-03    -294.787E-03    -294.680E-03     589.244E-03    -294.023E-03    -2.89439E-03    -15.0501E+06    -23.1983E+06    -71.2822E+06    -70.5097E+06    -23.9708E+06    -15.0501E+06     5.97965E+06         67.9721
            1420     5.95819E-03     124.376E-03     930.621E-03    -261.821E-03    -277.205E-03    -273.411E-03     930.315E-03    -265.309E-03    -12.1510E-03     589.830E-03    -293.838E-03    -295.812E-03    -293.946E-03     589.823E-03    -295.698E-03     3.28366E-03     1.54776E+06    -12.0977E+06    -63.6904E+06    -63.1613E+06    -12.6267E+06     1.54776E+06     4.91615E+06         68.1997
            1421     6.70589E-03     124.338E-03     920.076E-03    -256.774E-03    -269.816E-03    -260.659E-03     919.802E-03    -265.656E-03     1.34624E-03     588.468E-03    -293.035E-03    -295.241E-03    -292.999E-03     588.432E-03    -295.241E-03     10.6562E-03     16.2644E+06    -4.44727E+06    -56.4851E+06    -56.1664E+06    -4.76597E+06     16.2644E+06     3.81209E+06         68.3933
            1422     7.44795E-03     124.384E-03     916.550E-03    -256.975E-03    -266.473E-03    -258.179E-03     916.222E-03    -264.942E-03    -1.76120E-03     587.857E-03    -293.178E-03    -294.322E-03    -293.078E-03     587.757E-03    -294.322E-03     18.3372E-03     29.8780E+06     1.97742E+06    -49.8448E+06    -49.6162E+06     1.74882E+06     29.8780E+06     3.07390E+06         68.6547
            1423     8.19190E-03     124.432E-03     922.618E-03    -258.383E-03    -271.496E-03    -265.244E-03     922.377E-03    -264.395E-03    -7.79209E-03     587.721E-03    -293.299E-03    -295.214E-03    -293.088E-03     587.510E-03    -295.214E-03     26.8710E-03     41.5760E+06     7.69293E+06    -42.5468E+06    -42.4040E+06     7.55017E+06     41.5760E+06     2.08258E+06         69.0750
            1424     8.94015E-03     124.445E-03     926.636E-03    -260.964E-03    -272.410E-03    -268.887E-03     926.552E-03    -264.403E-03     2.38205E-03     586.598E-03    -292.891E-03    -295.894E-03    -292.510E-03     586.217E-03    -295.894E-03     36.2534E-03     53.3213E+06     14.4574E+06    -34.3443E+06    -34.2325E+06     14.3456E+06     53.3213E+06     2.00104E+06         69.7143
            1425     9.68355E-03     124.542E-03     926.045E-03    -264.179E-03    -268.196E-03    -267.849E-03     925.998E-03    -264.479E-03     2.55502E-03     585.419E-03    -292.890E-03    -294.927E-03    -292.313E-03     584.808E-03    -294.892E-03     46.0530E-03     63.5137E+06     20.9028E+06    -27.1105E+06    -26.8732E+06     20.6655E+06     63.5137E+06     3.05964E+06         70.8317
            1426     10.4295E-03     124.609E-03     924.664E-03    -264.030E-03    -267.337E-03    -266.923E-03     924.614E-03    -264.395E-03    -2.34709E-03     587.410E-03    -293.591E-03    -295.006E-03    -293.811E-03     586.433E-03    -293.810E-03     58.2495E-03     69.4064E+06     27.1909E+06    -20.9683E+06    -20.8057E+06     27.0283E+06     69.4064E+06     2.11689E+06         72.7648
            1427     11.1745E-03     124.701E-03     924.069E-03    -264.152E-03    -267.363E-03    -267.241E-03     924.012E-03    -264.216E-03    -414.289E-06     588.882E-03    -293.877E-03    -295.396E-03    -293.701E-03     587.543E-03    -294.234E-03     68.6515E-03     72.9330E+06     31.7414E+06    -15.0047E+06    -14.9709E+06     31.7075E+06     72.9330E+06     1.09389E+06         75.6811
            1428     11.9234E-03     124.803E-03     923.849E-03    -263.442E-03    -268.467E-03    -267.929E-03     923.793E-03    -263.924E-03    -1.14034E-03     589.662E-03    -294.732E-03    -296.353E-03    -293.787E-03     587.454E-03    -295.089E-03     87.0466E-03     75.6084E+06     34.3691E+06    -9.65143E+06    -9.62079E+06     34.3385E+06     75.6084E+06     983.783E+03         79.2705
            1429     12.6656E-03     125.015E-03     922.499E-03    -263.085E-03    -269.681E-03    -269.146E-03     922.446E-03    -263.567E-03    -3.80590E-03     590.268E-03    -294.820E-03    -296.930E-03    -294.406E-03     587.744E-03    -294.820E-03     94.1703E-03     79.1846E+06     38.1760E+06    -4.82428E+06    -4.81662E+06     38.1684E+06     79.1846E+06     270.043E+03         82.5600
            1430     744.444E-06     126.250E-03     938.470E-03    -202.871E-03    -354.571E-03    -193.351E-03     927.926E-03    -353.547E-03     61.4487E-03     591.354E-03    -294.669E-03    -296.078E-03    -294.662E-03     591.348E-03    -296.078E-03    -4.37503E-03    -100.725E+06    -104.771E+06    -166.125E+06    -104.054E+06    -166.035E+06    -101.533E+06     2.15167E+06         67.3455
            1431     1.48913E-03     126.231E-03     919.282E-03    -264.645E-03    -272.075E-03    -262.185E-03     915.798E-03    -271.051E-03    -23.8902E-03     589.364E-03    -294.042E-03    -295.582E-03    -294.025E-03     589.347E-03    -295.582E-03    -7.57102E-03    -94.8025E+06    -101.087E+06    -153.175E+06    -101.245E+06    -153.017E+06    -94.8025E+06     2.50964E+06         67.3062
            1432     2.23456E-03     126.205E-03     905.628E-03    -255.347E-03    -266.728E-03    -253.917E-03     904.199E-03    -266.728E-03     9.78193E-03     586.656E-03    -292.550E-03    -294.815E-03    -292.522E-03     586.628E-03    -294.815E-03    -9.90507E-03    -83.8203E+06    -96.7600E+06    -136.048E+06    -97.1286E+06    -135.680E+06    -83.8203E+06     3.39096E+06         67.2984
            1433     2.98028E-03     126.173E-03     891.906E-03    -247.624E-03    -262.700E-03    -246.949E-03     891.231E-03    -262.700E-03    -19.3890E-03     584.750E-03    -292.786E-03    -294.317E-03    -293.082E-03     584.718E-03    -293.989E-03    -10.5080E-03    -68.6330E+06    -90.3463E+06    -115.220E+06    -91.5815E+06    -113.985E+06    -68.6330E+06     4.73990E+06         67.3917
            1434     3.72530E-03     126.155E-03     887.814E-03    -248.271E-03    -259.621E-03    -247.874E-03     887.417E-03    -259.621E-03    -5.67314E-03     585.635E-03    -293.245E-03    -293.744E-03    -293.653E-03     585.611E-03    -293.313E-03    -9.12999E-03    -51.8808E+06    -76.3429E+06    -94.2643E+06    -85.1506E+06    -85.4566E+06    -51.8808E+06     6.04427E+06         67.5677
            1435     4.46894E-03     126.160E-03     892.649E-03    -254.290E-03    -258.349E-03    -253.886E-03     891.996E-03    -258.101E-03     8.17884E-03     587.426E-03    -293.023E-03    -294.073E-03    -293.993E-03     587.414E-03    -293.091E-03    -6.24395E-03    -33.3870E+06    -49.8130E+06    -80.6420E+06    -78.5062E+06    -51.9488E+06    -33.3870E+06     6.85886E+06         67.7354
            1436     5.21186E-03     126.181E-03     890.120E-03    -247.378E-03    -261.264E-03    -250.932E-03     889.683E-03    -257.273E-03     23.3131E-03     589.410E-03    -294.034E-03    -295.058E-03    -294.908E-03     589.407E-03    -294.181E-03    -2.01677E-03    -14.7623E+06    -24.2236E+06    -72.7066E+06    -71.6715E+06    -25.2586E+06    -14.7623E+06     6.90998E+06         67.9297
            1437     5.95663E-03     126.171E-03     888.172E-03    -243.960E-03    -260.992E-03    -248.415E-03     888.038E-03    -256.404E-03     1.57063E-03     589.595E-03    -293.191E-03    -295.779E-03    -293.184E-03     589.587E-03    -295.779E-03     3.87439E-03     1.62124E+06    -11.1203E+06    -65.4179E+06    -64.6020E+06    -11.9362E+06     1.62124E+06     6.60013E+06         68.1769
            1438     6.70562E-03     126.124E-03     892.327E-03    -246.963E-03    -261.724E-03    -252.577E-03     892.062E-03    -255.844E-03     5.51395E-03     587.866E-03    -291.585E-03    -295.145E-03    -291.548E-03     587.829E-03    -295.145E-03     10.8313E-03     16.0774E+06    -3.49680E+06    -57.5097E+06    -56.8439E+06    -4.16267E+06     16.0774E+06     5.81482E+06         68.3944
            1439     7.45204E-03     126.135E-03     897.998E-03    -250.273E-03    -263.177E-03    -257.520E-03     897.735E-03    -255.667E-03     8.76983E-03     587.954E-03    -292.732E-03    -294.222E-03    -292.628E-03     587.850E-03    -294.222E-03     18.6272E-03     29.4911E+06     4.02825E+06    -49.4849E+06    -48.9790E+06     3.52242E+06     29.4911E+06     5.03272E+06         68.6561
            1440     8.19205E-03     126.236E-03     905.377E-03    -255.928E-03    -264.515E-03    -264.404E-03     905.266E-03    -255.928E-03     7.28044E-03     588.419E-03    -293.836E-03    -295.198E-03    -293.621E-03     588.204E-03    -295.198E-03     27.1977E-03     42.4536E+06     9.69627E+06    -42.3588E+06    -42.0297E+06     9.36720E+06     42.4536E+06     3.73601E+06         69.0715
            1441     8.93885E-03     126.263E-03     908.036E-03    -256.512E-03    -266.075E-03    -265.981E-03     907.942E-03    -256.512E-03     8.09575E-03     586.956E-03    -293.096E-03    -295.936E-03    -292.703E-03     586.563E-03    -295.936E-03     36.7950E-03     54.2300E+06     14.0643E+06    -35.8695E+06    -35.6468E+06     13.8416E+06     54.2300E+06     2.77541E+06         69.7151
            1442     9.68342E-03     126.317E-03     904.165E-03    -256.515E-03    -262.482E-03    -262.108E-03     904.091E-03    -256.815E-03     8.70325E-03     585.427E-03    -292.797E-03    -294.940E-03    -292.173E-03     584.804E-03    -294.940E-03     46.5765E-03     63.8667E+06     20.3951E+06    -29.0587E+06    -28.8175E+06     20.1539E+06     63.8667E+06     2.62392E+06         70.8434
            1443     10.4274E-03     126.421E-03     900.749E-03    -256.346E-03    -259.964E-03    -259.555E-03     900.705E-03    -256.711E-03     5.33180E-03     587.256E-03    -293.551E-03    -294.647E-03    -293.388E-03     586.292E-03    -293.845E-03     57.9087E-03     70.6762E+06     27.9408E+06    -21.9221E+06    -21.6437E+06     27.6624E+06     70.6762E+06     2.74197E+06         72.8008
            1444     11.1742E-03     126.506E-03     901.171E-03    -256.461E-03    -260.830E-03    -260.725E-03     901.131E-03    -256.526E-03     8.25767E-03     588.833E-03    -293.845E-03    -295.066E-03    -293.347E-03     587.533E-03    -294.264E-03     67.6653E-03     74.5521E+06     33.5248E+06    -15.7641E+06    -15.5985E+06     33.3592E+06     74.5521E+06     1.63431E+06         75.7559
            1445     11.9219E-03     126.617E-03     904.422E-03    -256.378E-03    -263.670E-03    -263.634E-03     904.387E-03    -256.378E-03     7.82233E-03     589.762E-03    -294.650E-03    -296.526E-03    -293.922E-03     587.577E-03    -295.069E-03     86.4784E-03     76.2580E+06     34.9834E+06    -10.0984E+06    -10.0799E+06     34.9649E+06     76.2580E+06     268.307E+03         79.3743
            1446     12.6641E-03     126.778E-03     907.281E-03    -256.262E-03    -266.022E-03    -265.959E-03     907.218E-03    -256.262E-03    -132.039E-06     590.420E-03    -294.718E-03    -297.491E-03    -294.942E-03     587.872E-03    -294.718E-03     94.7047E-03     79.8258E+06     38.5318E+06    -4.69105E+06    -4.67558E+06     38.5164E+06     79.8258E+06     743.220E+03         82.6712
            1447     743.982E-06     128.066E-03     894.719E-03    -158.425E-03    -360.509E-03    -141.509E-03     871.365E-03    -354.072E-03     107.708E-03     591.260E-03    -294.543E-03    -296.123E-03    -294.537E-03     591.253E-03    -296.123E-03    -3.86236E-03    -103.236E+06    -105.890E+06    -171.331E+06    -105.158E+06    -171.256E+06    -104.044E+06     979.028E+03         67.3263
            1448     1.48869E-03     128.046E-03     882.571E-03    -246.428E-03    -258.910E-03    -251.839E-03     878.087E-03    -249.015E-03    -12.5192E-03     589.642E-03    -294.259E-03    -295.571E-03    -294.242E-03     589.624E-03    -295.571E-03    -7.65482E-03    -96.4336E+06    -102.346E+06    -158.128E+06    -102.452E+06    -158.022E+06    -96.4336E+06     1.78965E+06         67.2833
            1449     2.23415E-03     128.020E-03     880.842E-03    -242.751E-03    -260.042E-03    -250.385E-03     878.681E-03    -250.247E-03     29.5334E-03     587.232E-03    -293.013E-03    -294.910E-03    -292.985E-03     587.203E-03    -294.910E-03    -9.95378E-03    -85.8019E+06    -98.4361E+06    -141.490E+06    -98.6820E+06    -141.244E+06    -85.8019E+06     2.94285E+06         67.2764
            1450     2.97912E-03     127.983E-03     881.981E-03    -241.057E-03    -263.286E-03    -252.886E-03     881.405E-03    -250.881E-03    -16.0874E-03     585.168E-03    -293.110E-03    -294.397E-03    -293.332E-03     585.136E-03    -294.144E-03    -10.5647E-03    -71.4964E+06     -92.811E+06    -121.200E+06    -93.8492E+06    -120.162E+06    -71.4964E+06     4.69226E+06         67.3758
            1451     3.72481E-03     127.955E-03     878.531E-03    -245.253E-03    -257.592E-03    -251.251E-03     878.243E-03    -251.306E-03    -1.73134E-03     585.639E-03    -293.164E-03    -293.674E-03    -293.393E-03     585.615E-03    -293.420E-03    -9.09898E-03    -54.2177E+06    -80.8733E+06    -99.5347E+06    -87.8341E+06    -92.5740E+06    -54.2177E+06     6.51243E+06         67.5593
            1452     4.46969E-03     127.941E-03     869.372E-03    -244.565E-03    -251.009E-03    -244.388E-03     868.977E-03    -250.792E-03     2.12843E-03     587.171E-03    -292.872E-03    -293.913E-03    -293.645E-03     587.160E-03    -293.128E-03    -6.03740E-03    -35.4444E+06    -54.6309E+06    -83.9774E+06    -80.6627E+06    -57.9456E+06    -35.4444E+06     8.21886E+06         67.7411
            1453     5.21382E-03     127.956E-03     861.767E-03    -235.305E-03    -251.490E-03    -237.077E-03     861.399E-03    -249.350E-03     2.47528E-03     589.074E-03    -293.841E-03    -294.908E-03    -294.623E-03     589.072E-03    -294.124E-03    -1.47993E-03    -16.7059E+06    -25.7644E+06    -75.4376E+06    -73.6244E+06    -27.5776E+06    -16.7059E+06     9.02268E+06         67.9473
            1454     5.95803E-03     127.961E-03     865.674E-03    -239.169E-03    -251.695E-03    -242.463E-03     865.397E-03    -248.125E-03    -5.99729E-03     589.313E-03    -293.169E-03    -295.666E-03    -293.160E-03     589.304E-03    -295.666E-03     4.55852E-03     286.198E+03    -10.2474E+06    -67.3876E+06    -66.1618E+06    -11.4732E+06     286.198E+03     8.12541E+06         68.1915
            1455     6.70511E-03     127.940E-03     879.654E-03    -248.298E-03    -257.610E-03    -257.353E-03     879.397E-03    -248.298E-03    -1.75463E-03     587.868E-03    -291.959E-03    -295.075E-03    -291.918E-03     587.826E-03    -295.075E-03     11.5159E-03     14.5159E+06    -3.10336E+06    -59.1757E+06    -58.3496E+06    -3.92950E+06     14.5159E+06     6.69547E+06         68.4000
            1456     7.45013E-03     127.968E-03     885.902E-03    -249.362E-03    -261.958E-03    -261.817E-03     885.761E-03    -249.362E-03    -5.58653E-03     587.893E-03    -292.799E-03    -294.192E-03    -292.692E-03     587.786E-03    -294.192E-03     18.9764E-03     28.0382E+06     4.71717E+06    -51.3242E+06    -50.6868E+06     4.07976E+06     28.0382E+06     5.87727E+06         68.6474
            1457     8.19217E-03     128.051E-03     879.329E-03    -248.646E-03    -255.045E-03    -253.456E-03     879.106E-03    -250.013E-03    -11.9887E-03     588.443E-03    -293.838E-03    -295.200E-03    -293.626E-03     588.231E-03    -295.200E-03     26.9965E-03     42.6069E+06     11.9999E+06    -43.4456E+06    -42.9013E+06     11.4557E+06     42.6069E+06     5.44827E+06         69.0415
            1458     8.93942E-03     128.059E-03     872.892E-03    -244.259E-03    -252.301E-03    -246.395E-03     872.636E-03    -249.909E-03    -15.1162E-03     587.335E-03    -293.440E-03    -295.944E-03    -293.051E-03     586.946E-03    -295.944E-03     36.5871E-03     56.0049E+06     15.5575E+06    -36.1028E+06    -35.6905E+06     15.1451E+06     56.0049E+06     4.52888E+06         69.6811
            1459     9.68462E-03     128.112E-03     874.302E-03    -244.581E-03    -253.838E-03    -248.749E-03     874.182E-03    -249.550E-03    -4.46038E-03     585.936E-03    -293.042E-03    -294.924E-03    -292.414E-03     585.308E-03    -294.924E-03     46.7419E-03     66.4788E+06     21.2147E+06    -29.2041E+06    -28.8714E+06     20.8819E+06     66.4788E+06     3.35124E+06         70.8326
            1460     10.4267E-03     128.218E-03     880.150E-03    -248.781E-03    -256.958E-03    -256.174E-03     880.051E-03    -249.466E-03     673.980E-06     587.320E-03    -293.642E-03    -294.549E-03    -293.320E-03     586.339E-03    -293.891E-03     58.3691E-03     72.2429E+06     29.1469E+06    -22.7915E+06    -22.4636E+06     28.8190E+06     72.2429E+06     2.66846E+06         72.8214
            1461     11.1738E-03     128.303E-03     885.181E-03    -249.773E-03    -261.080E-03    -261.017E-03     885.119E-03    -249.773E-03     2.91267E-03     588.343E-03    -293.668E-03    -295.009E-03    -293.005E-03     587.022E-03    -294.351E-03     68.1711E-03     74.9702E+06     33.9317E+06    -15.9453E+06    -15.7853E+06     33.7716E+06     74.9702E+06     1.23040E+06         75.8096
            1462     11.9226E-03     128.403E-03     884.102E-03    -250.100E-03    -259.262E-03    -259.217E-03     884.057E-03    -250.100E-03    -8.02535E-03     589.323E-03    -294.371E-03    -296.395E-03    -293.501E-03     587.111E-03    -295.054E-03     86.9640E-03     77.2838E+06     35.1635E+06    -9.99142E+06    -9.89096E+06     35.0630E+06     77.2838E+06     1.12572E+06         79.4555
            1463     12.6662E-03     128.576E-03     882.024E-03    -249.526E-03    -256.701E-03    -256.003E-03     881.970E-03    -250.169E-03    -10.1501E-03     590.287E-03    -294.696E-03    -297.574E-03    -294.994E-03     587.708E-03    -294.696E-03     95.2679E-03     81.8213E+06     40.1385E+06    -5.59381E+06    -5.48743E+06     40.0321E+06     81.8213E+06     1.05245E+06         82.7594
            1464     744.899E-06     129.858E-03     862.744E-03    -154.947E-03    -339.218E-03    -128.665E-03     827.029E-03    -329.784E-03     140.553E-03     590.644E-03    -294.625E-03    -295.360E-03    -294.619E-03     590.638E-03    -295.360E-03    -3.97873E-03    -103.722E+06    -105.453E+06    -175.117E+06    -105.124E+06    -175.090E+06    -104.078E+06     385.789E+03         67.3259
            1465     1.48957E-03     129.831E-03     848.374E-03    -231.405E-03    -247.783E-03    -241.150E-03     841.742E-03    -231.405E-03    -41.0743E-03     589.814E-03    -294.545E-03    -295.414E-03    -294.529E-03     589.797E-03    -295.414E-03    -7.46711E-03    -97.9715E+06    -103.844E+06    -164.284E+06    -103.947E+06    -164.181E+06    -97.9715E+06     1.88132E+06         67.2870
            1466     2.23393E-03     129.809E-03     854.349E-03    -235.713E-03    -249.700E-03    -247.423E-03     852.073E-03    -235.713E-03     9.95564E-03     587.537E-03    -293.350E-03    -294.925E-03    -293.325E-03     587.511E-03    -294.925E-03    -9.46175E-03    -86.6977E+06    -100.398E+06    -148.583E+06    -100.882E+06    -148.099E+06    -86.6977E+06     4.27978E+06         67.2734
            1467     2.97898E-03     129.785E-03     858.769E-03    -235.576E-03    -251.925E-03    -247.713E-03     857.795E-03    -238.814E-03    -28.9285E-03     585.408E-03    -293.256E-03    -294.378E-03    -293.412E-03     585.380E-03    -294.195E-03    -9.85103E-03    -72.8522E+06    -95.2869E+06    -127.348E+06     -96.371E+06    -126.264E+06    -72.8522E+06     5.47289E+06         67.3565
            1468     3.72412E-03     129.765E-03     858.339E-03    -237.228E-03    -248.737E-03    -245.192E-03     858.032E-03    -240.466E-03    -9.13394E-03     585.724E-03    -293.146E-03    -293.676E-03    -293.308E-03     585.702E-03    -293.493E-03    -8.61814E-03    -56.6019E+06    -85.3280E+06    -104.366E+06    -90.2684E+06    -99.4252E+06    -56.6019E+06     6.31148E+06         67.5282
            1469     4.46890E-03     129.768E-03     858.344E-03    -237.175E-03    -250.774E-03    -246.155E-03     857.875E-03    -241.326E-03    -2.11521E-03     586.948E-03    -292.845E-03    -293.664E-03    -293.307E-03     586.937E-03    -293.191E-03    -5.82384E-03    -39.0619E+06    -62.2517E+06    -87.9730E+06    -83.2633E+06    -66.9614E+06    -39.0619E+06     8.43289E+06         67.7142
            1470     5.21241E-03     129.789E-03     863.712E-03    -238.175E-03    -255.989E-03    -251.506E-03     863.379E-03    -242.325E-03     9.08404E-03     588.603E-03    -293.633E-03    -294.564E-03    -294.103E-03     588.601E-03    -294.092E-03    -1.72087E-03    -20.0368E+06    -29.4009E+06    -77.3012E+06    -75.0397E+06    -31.6624E+06    -20.0368E+06     9.80108E+06         67.9397
            1471     5.95913E-03     129.766E-03     866.987E-03    -243.700E-03    -255.345E-03    -255.107E-03     866.749E-03    -243.700E-03     5.42544E-03     589.247E-03    -293.340E-03    -295.584E-03    -293.331E-03     589.238E-03    -295.584E-03     4.26675E-03    -1.73242E+06    -9.07018E+06    -68.3285E+06    -66.7859E+06    -10.6128E+06    -1.73242E+06     9.36569E+06         68.2137
            1472     6.70728E-03     129.719E-03     859.956E-03    -240.652E-03    -252.732E-03    -248.478E-03     859.708E-03    -244.658E-03     4.93693E-03     588.269E-03    -292.852E-03    -295.027E-03    -292.811E-03     588.228E-03    -295.027E-03     11.4162E-03     14.2756E+06    -2.13921E+06    -60.5751E+06    -59.4044E+06    -3.30993E+06     14.2756E+06     8.03433E+06         68.4401
            1473     7.45222E-03     129.728E-03     854.126E-03    -235.443E-03    -251.021E-03    -241.676E-03     853.964E-03    -244.625E-03     789.909E-06     587.925E-03    -293.245E-03    -294.201E-03    -293.140E-03     587.820E-03    -294.201E-03     18.8417E-03     29.3544E+06     5.46603E+06    -52.8621E+06    -52.0711E+06     4.67507E+06     29.3544E+06     6.55171E+06         68.6783
            1474     8.19331E-03     129.834E-03     855.756E-03    -237.714E-03    -250.766E-03    -243.987E-03     855.521E-03    -244.258E-03    -2.09617E-03     588.080E-03    -293.712E-03    -295.164E-03    -293.499E-03     587.868E-03    -295.164E-03     27.0462E-03     43.6410E+06     12.2381E+06    -44.7828E+06    -44.1923E+06     11.6477E+06     43.6410E+06     5.75648E+06         69.0554
            1475     8.93946E-03     129.868E-03     856.954E-03    -238.490E-03    -251.738E-03    -245.819E-03     856.686E-03    -244.140E-03    -7.80784E-03     587.144E-03    -293.252E-03    -295.871E-03    -292.864E-03     586.756E-03    -295.871E-03     36.6055E-03     56.4396E+06     16.6054E+06    -36.9517E+06    -36.4371E+06     16.0908E+06     56.4396E+06     5.12576E+06         69.6863
            1476     9.68339E-03     129.930E-03     857.749E-03    -239.174E-03    -252.297E-03    -247.143E-03     857.564E-03    -244.142E-03     3.72988E-03     585.969E-03    -292.811E-03    -294.880E-03    -292.182E-03     585.340E-03    -294.880E-03     46.7467E-03     66.8524E+06     21.8391E+06    -29.3947E+06    -28.9844E+06     21.4288E+06     66.8524E+06     4.18742E+06         70.8489
            1477     10.4274E-03     130.032E-03     861.294E-03    -243.635E-03    -253.206E-03    -252.399E-03     861.171E-03    -244.319E-03     5.48836E-03     587.300E-03    -293.508E-03    -294.641E-03    -293.317E-03     586.313E-03    -293.844E-03     58.5863E-03     73.8071E+06     30.5528E+06    -21.8776E+06    -21.6009E+06     30.2761E+06     73.8071E+06     2.83104E+06         72.8604
            1478     11.1736E-03     130.122E-03     861.929E-03    -244.244E-03    -254.025E-03    -253.547E-03     861.870E-03    -244.663E-03     1.93013E-03     588.210E-03    -293.703E-03    -295.107E-03    -293.161E-03     586.871E-03    -294.311E-03     68.6156E-03     77.2756E+06     35.5675E+06    -16.0144E+06    -15.8686E+06     35.4217E+06     77.2756E+06     2.08202E+06         75.8708
            1479     11.9216E-03     130.234E-03     860.510E-03    -244.417E-03    -252.737E-03    -252.265E-03     860.458E-03    -244.836E-03    -6.71641E-03     589.278E-03    -294.417E-03    -296.493E-03    -293.649E-03     587.043E-03    -295.025E-03     87.4963E-03     79.7819E+06     36.9417E+06    -10.5164E+06    -10.3629E+06     36.7882E+06     79.7819E+06     1.93847E+06         79.5442
            1480     12.6648E-03     130.404E-03     858.219E-03    -244.125E-03    -251.598E-03    -250.898E-03     858.162E-03    -244.768E-03    -549.790E-06     590.318E-03    -294.688E-03    -297.731E-03    -295.144E-03     587.730E-03    -294.688E-03     95.4087E-03     84.0911E+06     42.7455E+06    -5.05822E+06    -4.92797E+06     42.6152E+06     84.0911E+06     993.788E+03         82.8699
            1481     744.999E-06     131.671E-03     897.548E-03    -198.919E-03    -333.602E-03    -164.326E-03     858.934E-03    -329.581E-03     132.802E-03     590.142E-03    -294.432E-03    -295.007E-03    -294.426E-03     590.137E-03    -295.007E-03    -4.19524E-03    -104.205E+06    -107.145E+06    -182.963E+06    -106.896E+06    -182.856E+06    -104.561E+06     2.51086E+06         67.3630
            1482     1.48971E-03     131.644E-03     845.798E-03    -231.461E-03    -250.601E-03    -229.503E-03     836.334E-03    -243.095E-03    -59.3222E-03     589.324E-03    -294.360E-03    -295.174E-03    -294.345E-03     589.309E-03    -295.174E-03    -7.05960E-03    -97.3782E+06    -104.623E+06    -171.512E+06    -104.883E+06    -171.252E+06    -97.3782E+06     3.96221E+06         67.3476
            1483     2.23471E-03     131.612E-03     831.335E-03    -226.609E-03    -241.991E-03    -227.370E-03     827.905E-03    -237.799E-03     15.9744E-03     587.459E-03    -293.391E-03    -294.725E-03    -293.367E-03     587.436E-03    -294.725E-03    -9.00519E-03    -86.4555E+06    -100.533E+06    -156.087E+06    -101.063E+06    -155.557E+06    -86.4555E+06     4.92741E+06         67.3434
            1484     2.97983E-03     131.573E-03     828.003E-03    -228.145E-03    -235.839E-03    -227.715E-03     826.867E-03    -235.132E-03    -38.1785E-03     585.462E-03    -293.287E-03    -294.182E-03    -293.347E-03     585.436E-03    -294.096E-03    -9.71603E-03    -72.7309E+06    -94.2770E+06    -133.948E+06    -95.5007E+06    -132.724E+06    -72.7309E+06     6.20125E+06         67.4187
            1485     3.72527E-03     131.554E-03     832.609E-03    -230.205E-03    -237.170E-03    -232.802E-03     832.111E-03    -234.075E-03    -19.9868E-03     585.379E-03    -293.151E-03    -293.524E-03    -293.216E-03     585.358E-03    -293.438E-03    -8.60587E-03    -57.3410E+06    -86.3024E+06    -109.663E+06    -90.0927E+06    -105.873E+06    -57.3410E+06     7.38400E+06         67.5682
            1486     4.46916E-03     131.560E-03     845.127E-03    -234.803E-03    -246.279E-03    -245.585E-03     844.432E-03    -234.803E-03    -6.68886E-03     586.562E-03    -292.830E-03    -293.604E-03    -293.307E-03     586.552E-03    -293.116E-03    -5.88362E-03    -39.9952E+06    -67.9657E+06    -90.5394E+06    -83.6421E+06    -74.8629E+06    -39.9952E+06     8.46346E+06         67.7110
            1487     5.21309E-03     131.595E-03     849.483E-03    -236.606E-03    -250.119E-03    -249.743E-03     849.106E-03    -236.606E-03     10.1844E-03     588.709E-03    -293.824E-03    -294.560E-03    -294.338E-03     588.707E-03    -294.044E-03    -2.23854E-03    -21.6138E+06    -34.2956E+06    -78.8942E+06    -76.2516E+06    -36.9381E+06    -21.6138E+06     9.76118E+06         67.8978
            1488     5.95791E-03     131.594E-03     843.396E-03    -235.370E-03    -247.776E-03    -244.944E-03     843.196E-03    -238.003E-03     806.659E-06     589.493E-03    -293.469E-03    -295.599E-03    -293.491E-03     589.486E-03    -295.570E-03     3.40489E-03    -3.19781E+06    -9.29384E+06    -70.4418E+06    -68.7542E+06    -10.9814E+06    -3.19781E+06     9.94799E+06         68.1599
            1489     6.70436E-03     131.573E-03     836.866E-03    -231.815E-03    -245.184E-03    -238.360E-03     836.681E-03    -238.454E-03     1.58040E-03     588.026E-03    -292.409E-03    -295.025E-03    -292.371E-03     587.989E-03    -295.025E-03     10.8076E-03     14.0973E+06    -993.636E+03    -61.9775E+06    -60.6157E+06    -2.35551E+06     14.0973E+06     8.96210E+06         68.3979
            1490     7.44965E-03     131.593E-03     831.581E-03    -228.915E-03    -242.380E-03    -233.037E-03     831.420E-03    -238.097E-03     732.162E-06     587.666E-03    -292.864E-03    -294.231E-03    -292.758E-03     587.560E-03    -294.231E-03     18.8838E-03     30.4238E+06     6.60314E+06    -53.3540E+06    -52.2989E+06     5.54803E+06     30.4238E+06     7.72038E+06         68.6711
            1491     8.19312E-03     131.642E-03     832.139E-03    -230.241E-03    -242.734E-03    -235.285E-03     832.029E-03    -237.580E-03     4.51556E-03     588.066E-03    -293.576E-03    -295.183E-03    -293.352E-03     587.842E-03    -295.183E-03     27.6972E-03     44.5811E+06     12.2976E+06    -45.6807E+06    -44.8553E+06     11.4723E+06     44.5811E+06     6.74523E+06         69.0909
            1492     8.94198E-03     131.644E-03     842.341E-03    -235.521E-03    -248.333E-03    -246.038E-03     842.208E-03    -237.683E-03     3.70795E-03     587.163E-03    -293.131E-03    -295.811E-03    -292.730E-03     586.763E-03    -295.811E-03     37.2105E-03     57.2694E+06     18.5853E+06    -37.9867E+06    -37.3932E+06     17.9917E+06     57.2694E+06     5.58147E+06         69.7518
            1493     9.68720E-03     131.700E-03     849.040E-03    -238.372E-03    -253.004E-03    -252.888E-03     848.925E-03    -238.372E-03     16.2331E-03     585.891E-03    -292.896E-03    -294.810E-03    -292.270E-03     585.265E-03    -294.810E-03     46.6791E-03     67.6640E+06     23.6668E+06    -30.1158E+06    -29.7231E+06     23.2742E+06     67.6640E+06     4.20076E+06         70.9351
            1494     10.4291E-03     131.813E-03     843.119E-03    -238.904E-03    -247.262E-03    -247.201E-03     843.058E-03    -238.904E-03     12.8571E-03     586.974E-03    -293.575E-03    -294.728E-03    -293.553E-03     586.008E-03    -293.784E-03     57.9590E-03     74.5237E+06     30.2674E+06    -23.1822E+06    -22.9157E+06     30.0008E+06     74.5237E+06     3.28425E+06         72.9749
            1495     11.1762E-03     131.899E-03     835.510E-03    -238.483E-03    -241.262E-03    -240.782E-03     835.449E-03    -238.902E-03     11.3181E-03     588.162E-03    -293.841E-03    -295.212E-03    -293.473E-03     586.850E-03    -294.267E-03     67.9425E-03     79.3645E+06     38.6342E+06    -16.6215E+06    -16.3573E+06     38.3700E+06     79.3645E+06     3.56515E+06         76.0206
            1496     11.9247E-03     132.007E-03     834.828E-03    -237.767E-03    -241.469E-03    -240.634E-03     834.784E-03    -238.558E-03     9.59787E-03     589.555E-03    -294.602E-03    -296.558E-03    -293.886E-03     587.309E-03    -295.028E-03     87.6063E-03     81.5565E+06     39.4742E+06    -10.9015E+06    -10.7082E+06     39.2809E+06     81.5565E+06     2.33279E+06         79.7121
            1497     12.6677E-03     132.195E-03     837.430E-03    -237.812E-03    -243.769E-03    -243.366E-03     837.399E-03    -238.185E-03     10.2623E-03     590.378E-03    -294.684E-03    -297.658E-03    -295.043E-03     587.763E-03    -294.684E-03     95.8979E-03     85.8330E+06     43.7261E+06    -6.07772E+06    -6.02152E+06     43.6699E+06     85.8330E+06     575.329E+03         83.0314
            1498     745.167E-06     133.479E-03     852.304E-03    -206.639E-03    -284.370E-03    -189.681E-03     807.156E-03    -256.180E-03     168.419E-03     589.789E-03    -294.184E-03    -295.108E-03    -294.591E-03     589.784E-03    -294.696E-03    -3.84634E-03    -107.129E+06    -110.320E+06    -193.255E+06    -109.497E+06    -193.161E+06    -108.046E+06     2.24522E+06         67.3662
            1499     1.49063E-03     133.462E-03     822.756E-03    -213.684E-03    -253.333E-03    -232.202E-03     813.260E-03    -225.318E-03    -31.3807E-03     589.052E-03    -294.310E-03    -294.974E-03    -294.295E-03     589.036E-03    -294.974E-03    -7.24972E-03    -99.4007E+06    -105.758E+06    -179.705E+06    -106.019E+06    -179.444E+06    -99.4007E+06     4.00816E+06         67.3663
            1500     2.23499E-03     133.443E-03     819.943E-03    -217.181E-03    -248.612E-03    -233.676E-03     816.198E-03    -228.371E-03     51.1125E-03     587.436E-03    -293.565E-03    -294.548E-03    -293.538E-03     587.410E-03    -294.548E-03    -9.64005E-03    -87.6792E+06    -101.092E+06    -162.904E+06    -101.585E+06    -162.411E+06    -87.6792E+06     5.19167E+06         67.3890
            1501     2.97982E-03     133.402E-03     823.926E-03    -226.519E-03    -240.778E-03    -236.432E-03     823.329E-03    -230.269E-03    -19.1264E-03     585.609E-03    -293.387E-03    -294.226E-03    -293.571E-03     585.579E-03    -294.011E-03    -10.3022E-03    -74.1063E+06    -95.6907E+06    -142.036E+06    -96.8278E+06    -140.899E+06    -74.1063E+06     6.51735E+06         67.5006
            1502     3.72471E-03     133.371E-03     825.751E-03    -231.123E-03    -238.941E-03    -237.841E-03     825.283E-03    -231.755E-03    -6.45774E-03     585.451E-03    -293.259E-03    -293.622E-03    -293.469E-03     585.427E-03    -293.388E-03    -9.00773E-03    -58.3246E+06    -87.2104E+06    -116.752E+06    -90.6754E+06    -113.287E+06    -58.3246E+06     8.34493E+06         67.6803
            1503     4.47040E-03     133.353E-03     819.189E-03    -227.977E-03    -236.087E-03    -231.225E-03     818.661E-03    -232.312E-03    -112.189E-06     586.609E-03    -292.904E-03    -293.852E-03    -293.711E-03     586.597E-03    -293.034E-03    -6.29967E-03    -40.8433E+06    -70.7594E+06    -95.2446E+06    -84.5166E+06    -81.4874E+06    -40.8433E+06     9.91361E+06         67.8230
            1504     5.21344E-03     133.370E-03     811.440E-03    -222.499E-03    -233.689E-03    -224.184E-03     811.135E-03    -231.699E-03     3.24704E-03     589.000E-03    -293.962E-03    -294.809E-03    -294.788E-03     588.996E-03    -293.980E-03    -2.25553E-03    -22.1401E+06    -38.9547E+06    -81.6059E+06    -77.8819E+06    -42.6788E+06    -22.1401E+06     11.0114E+06         67.9602
            1505     5.95742E-03     133.372E-03     808.480E-03    -222.391E-03    -231.567E-03    -223.037E-03     808.273E-03    -230.713E-03    -7.84050E-03     589.457E-03    -293.400E-03    -295.602E-03    -293.422E-03     589.450E-03    -295.573E-03     3.44952E-03    -3.65437E+06    -10.5140E+06    -72.4133E+06    -70.3144E+06    -12.6129E+06    -3.65437E+06     11.1253E+06         68.1315
            1506     6.70514E-03     133.361E-03     813.953E-03    -226.808E-03    -234.154E-03    -230.612E-03     813.869E-03    -230.265E-03     6.19291E-03     587.530E-03    -291.518E-03    -295.046E-03    -291.481E-03     587.493E-03    -295.046E-03     10.7503E-03     12.9413E+06     804.443E+03    -63.9262E+06    -62.4148E+06    -706.946E+03     12.9413E+06     9.66906E+06         68.3056
            1507     7.44983E-03     133.392E-03     826.378E-03    -230.844E-03    -244.299E-03    -244.250E-03     826.329E-03    -230.844E-03     9.48021E-03     587.191E-03    -292.066E-03    -294.238E-03    -291.958E-03     587.083E-03    -294.238E-03     18.9909E-03     27.8742E+06     6.92713E+06    -55.6159E+06    -54.5172E+06     5.82844E+06     27.8742E+06     8.15808E+06         68.5762
            1508     8.19281E-03     133.476E-03     830.175E-03    -229.843E-03    -249.053E-03    -246.799E-03     830.083E-03    -232.005E-03     2.42305E-03     588.178E-03    -293.576E-03    -295.230E-03    -293.358E-03     587.960E-03    -295.230E-03     27.4453E-03     43.0447E+06     12.6565E+06    -47.1019E+06    -46.2197E+06     11.7743E+06     43.0447E+06     7.11598E+06         69.0202
            1509     8.93954E-03     133.502E-03     822.968E-03    -228.905E-03    -243.352E-03    -239.358E-03     822.887E-03    -232.818E-03    -732.159E-06     587.408E-03    -293.438E-03    -295.856E-03    -293.042E-03     587.012E-03    -295.856E-03     36.9490E-03     58.4259E+06     20.9704E+06    -38.5809E+06    -37.9321E+06     20.3217E+06     58.4259E+06     5.97086E+06         69.7275
            1510     9.68423E-03     133.554E-03     816.833E-03    -227.095E-03    -239.440E-03    -233.527E-03     816.787E-03    -232.962E-03     3.61437E-03     585.790E-03    -293.064E-03    -294.831E-03    -292.439E-03     585.166E-03    -294.831E-03     46.6421E-03     69.9586E+06     24.7944E+06    -31.2480E+06    -30.7064E+06     24.2528E+06     69.9586E+06     5.29072E+06         70.9711
            1511     10.4289E-03     133.637E-03     817.091E-03    -228.648E-03    -237.572E-03    -233.411E-03     817.046E-03    -232.764E-03     972.447E-06     587.335E-03    -293.743E-03    -294.999E-03    -293.815E-03     586.356E-03    -293.947E-03     58.3161E-03     76.6774E+06     31.4319E+06    -24.2630E+06    -23.8001E+06     30.9690E+06     76.6774E+06     4.65658E+06         73.0682
            1512     11.1745E-03     133.727E-03     821.155E-03    -232.653E-03    -237.396E-03    -237.321E-03     821.081E-03    -232.653E-03     5.47924E-03     588.730E-03    -294.124E-03    -295.487E-03    -293.852E-03     587.406E-03    -294.435E-03     68.3183E-03     80.1075E+06     40.6568E+06    -18.0116E+06    -17.6583E+06     40.3035E+06     80.1075E+06     4.04140E+06         76.1647
            1513     11.9226E-03     133.832E-03     821.208E-03    -232.264E-03    -238.457E-03    -237.988E-03     821.112E-03    -232.637E-03    -4.34608E-03     589.578E-03    -294.734E-03    -296.460E-03    -293.903E-03     587.332E-03    -295.045E-03     87.5687E-03     83.0336E+06     42.3222E+06    -11.6608E+06    -11.4834E+06     42.1448E+06     83.0336E+06     2.81123E+06         79.8655
            1514     12.6654E-03     134.018E-03     820.315E-03    -232.238E-03    -238.773E-03    -238.340E-03     820.255E-03    -232.610E-03    -2.85239E-03     589.976E-03    -294.681E-03    -296.898E-03    -294.255E-03     587.334E-03    -294.681E-03     96.3744E-03     87.8831E+06     46.4355E+06    -5.01288E+06    -4.97448E+06     46.3971E+06     87.8831E+06     763.555E+03         83.1525
            1515     745.147E-06     135.281E-03     805.905E-03    -207.217E-03    -254.450E-03    -210.771E-03     765.936E-03    -210.927E-03     128.309E-03     590.496E-03    -294.518E-03    -295.570E-03    -295.342E-03     590.490E-03    -294.740E-03    -4.48700E-03    -108.782E+06    -111.366E+06    -201.105E+06    -110.471E+06    -201.083E+06    -109.699E+06     1.26150E+06         67.3145
            1516     1.48940E-03     135.278E-03     795.156E-03    -209.326E-03    -242.068E-03    -227.531E-03     785.346E-03    -214.053E-03    -58.1641E-03     589.415E-03    -294.359E-03    -295.293E-03    -294.342E-03     589.399E-03    -295.293E-03    -7.55908E-03    -102.786E+06    -108.009E+06    -188.420E+06    -108.172E+06    -188.257E+06    -102.786E+06     3.22823E+06         67.2924
            1517     2.23421E-03     135.255E-03     804.283E-03    -219.210E-03    -241.309E-03    -237.672E-03     801.663E-03    -220.227E-03     34.5296E-03     587.135E-03    -293.130E-03    -294.692E-03    -293.102E-03     587.108E-03    -294.692E-03    -9.88663E-03    -90.7694E+06    -103.869E+06    -171.569E+06    -104.396E+06    -171.042E+06    -90.7694E+06     5.62090E+06         67.3157
            1518     2.97940E-03     135.226E-03     804.308E-03    -223.366E-03    -235.712E-03    -234.075E-03     803.665E-03    -224.361E-03    -19.0996E-03     585.570E-03    -293.169E-03    -294.387E-03    -293.508E-03     585.540E-03    -294.018E-03    -10.2170E-03    -76.3138E+06    -98.6392E+06    -149.729E+06    -99.6832E+06    -148.685E+06    -76.3138E+06     6.97992E+06         67.4539
            1519     3.72490E-03     135.200E-03     802.688E-03    -224.886E-03    -232.177E-03    -230.571E-03     802.297E-03    -226.101E-03    -2.73195E-03     585.779E-03    -293.393E-03    -293.940E-03    -293.918E-03     585.757E-03    -293.393E-03    -8.76853E-03    -60.1298E+06    -90.8178E+06    -125.163E+06    -93.7149E+06    -122.266E+06    -60.1298E+06     8.58120E+06         67.6691
            1520     4.46834E-03     135.195E-03     798.713E-03    -221.933E-03    -230.240E-03    -225.247E-03     798.274E-03    -226.487E-03    -7.34355E-03     586.904E-03    -293.127E-03    -294.089E-03    -294.079E-03     586.893E-03    -293.127E-03    -5.75532E-03    -42.2275E+06    -75.1422E+06    -101.299E+06    -86.7856E+06    -89.6555E+06    -42.2275E+06     10.6468E+06         67.8515
            1521     5.21223E-03     135.206E-03     793.983E-03    -216.782E-03    -229.977E-03    -220.502E-03     793.708E-03    -225.982E-03    -5.56193E-03     588.848E-03    -293.829E-03    -294.769E-03    -294.611E-03     588.846E-03    -293.985E-03    -1.41054E-03    -23.2336E+06    -44.5113E+06    -84.8382E+06    -79.3361E+06    -50.0134E+06    -23.2336E+06     12.4094E+06         68.0109
            1522     5.95826E-03     135.186E-03     797.537E-03    -219.819E-03    -230.024E-03    -224.218E-03     797.420E-03    -225.509E-03    -13.0136E-03     589.088E-03    -293.179E-03    -295.511E-03    -293.170E-03     589.079E-03    -295.511E-03     4.41823E-03    -4.18809E+06    -11.9576E+06    -74.2617E+06    -71.3021E+06    -14.9172E+06    -4.18809E+06     12.8717E+06         68.1809
            1523     6.70461E-03     135.163E-03     804.465E-03    -224.985E-03    -233.336E-03    -232.499E-03     804.452E-03    -225.810E-03    -44.7918E-06     587.703E-03    -291.876E-03    -295.074E-03    -291.837E-03     587.664E-03    -295.074E-03     11.2224E-03     13.0792E+06     3.57940E+06    -65.4176E+06    -63.4562E+06     1.61796E+06     13.0792E+06     11.4197E+06         68.3342
            1524     7.45088E-03     135.181E-03     805.764E-03    -222.832E-03    -238.724E-03    -234.956E-03     805.734E-03    -226.571E-03     1.72940E-03     587.520E-03    -292.546E-03    -294.226E-03    -292.441E-03     587.415E-03    -294.226E-03     18.7978E-03     28.0315E+06     9.55524E+06    -57.2701E+06    -55.9975E+06     8.28270E+06     28.0315E+06     9.01787E+06         68.5516
            1525     8.19358E-03     135.260E-03     806.954E-03    -221.325E-03    -242.158E-03    -236.136E-03     806.912E-03    -227.305E-03    -2.30419E-03     587.821E-03    -293.390E-03    -295.031E-03    -293.176E-03     587.607E-03    -295.031E-03     27.1542E-03     43.2208E+06     14.9056E+06    -48.4986E+06    -47.8050E+06     14.2120E+06     43.2208E+06     6.52515E+06         68.9381
            1526     8.93992E-03     135.291E-03     807.308E-03    -223.916E-03    -240.340E-03    -236.290E-03     807.250E-03    -227.908E-03    -1.76096E-03     586.711E-03    -292.908E-03    -295.716E-03    -292.512E-03     586.315E-03    -295.716E-03     36.8716E-03     58.6523E+06     19.6399E+06    -39.9687E+06    -39.3480E+06     19.0192E+06     58.6523E+06     5.98625E+06         69.6236
            1527     9.68435E-03     135.373E-03     803.963E-03    -222.315E-03    -237.568E-03    -231.645E-03     803.908E-03    -228.182E-03     536.126E-06     585.374E-03    -292.793E-03    -294.837E-03    -292.160E-03     584.741E-03    -294.837E-03     46.9261E-03     70.8863E+06     24.8370E+06    -32.0443E+06    -31.3639E+06     24.1566E+06     70.8863E+06     6.13023E+06         70.8863
            1528     10.4285E-03     135.465E-03     803.200E-03    -224.096E-03    -235.155E-03    -231.024E-03     803.186E-03    -228.212E-03    -2.52696E-03     587.430E-03    -293.707E-03    -294.910E-03    -293.694E-03     586.432E-03    -293.925E-03     58.8531E-03     77.7672E+06     32.7785E+06    -24.7035E+06    -24.1384E+06     32.2134E+06     77.7672E+06     5.53501E+06         73.0121
            1529     11.1743E-03     135.565E-03     803.938E-03    -227.175E-03    -233.184E-03    -232.076E-03     803.915E-03    -228.260E-03    -2.21037E-03     588.819E-03    -294.058E-03    -295.433E-03    -293.688E-03     587.464E-03    -294.448E-03     69.1017E-03     82.7657E+06     42.8309E+06    -17.1413E+06    -16.7806E+06     42.4703E+06     82.7657E+06     4.37348E+06         76.1241
            1530     11.9205E-03     135.673E-03     807.035E-03    -227.278E-03    -236.551E-03    -235.385E-03     806.953E-03    -228.363E-03    -6.19957E-03     589.464E-03    -294.659E-03    -296.453E-03    -293.801E-03     587.201E-03    -295.049E-03     88.0034E-03     85.9169E+06     46.6723E+06    -10.4865E+06    -10.3698E+06     46.5557E+06     85.9169E+06     2.25030E+06         79.8391
            1531     12.6657E-03     135.850E-03     808.563E-03    -228.629E-03    -240.801E-03    -240.734E-03     808.496E-03    -228.629E-03    -1.56067E-03     589.827E-03    -294.694E-03    -296.967E-03    -294.348E-03     587.208E-03    -294.694E-03     95.8932E-03     90.0092E+06     48.8598E+06    -5.06056E+06    -5.02919E+06     48.8284E+06     90.0092E+06     1.12140E+06         83.1450
            1532     744.157E-06     137.089E-03     827.045E-03    -223.410E-03    -272.551E-03    -242.544E-03     800.750E-03    -227.121E-03     118.445E-03     591.221E-03    -294.572E-03    -296.221E-03    -294.986E-03     591.216E-03    -295.803E-03    -3.60003E-03    -109.254E+06    -111.353E+06    -211.593E+06    -111.479E+06    -211.467E+06    -109.254E+06     3.12111E+06         67.2432
            1533     1.48896E-03     137.078E-03     785.538E-03    -220.994E-03    -233.140E-03    -215.391E-03     777.828E-03    -231.032E-03    -28.8001E-03     589.490E-03    -294.124E-03    -295.593E-03    -294.111E-03     589.477E-03    -295.593E-03    -6.47333E-03    -103.800E+06    -110.014E+06    -196.885E+06    -110.228E+06    -196.672E+06    -103.800E+06     4.06838E+06         67.1936
            1534     2.23429E-03     137.060E-03     771.833E-03    -212.251E-03    -225.540E-03    -210.082E-03     768.823E-03    -224.698E-03     44.0678E-03     586.956E-03    -292.949E-03    -294.831E-03    -292.925E-03     586.933E-03    -294.831E-03    -8.94172E-03    -93.3382E+06    -106.352E+06    -180.459E+06    -106.769E+06    -180.042E+06    -93.3382E+06     5.33805E+06         67.1910
            1535     2.97993E-03     137.032E-03     768.637E-03    -211.884E-03    -222.004E-03    -212.284E-03     768.196E-03    -221.162E-03    -23.3790E-03     585.799E-03    -293.234E-03    -294.378E-03    -293.500E-03     585.772E-03    -294.085E-03    -9.80655E-03    -78.5900E+06    -100.172E+06    -159.234E+06    -101.349E+06    -158.058E+06    -78.5900E+06     7.76206E+06         67.3005
            1536     3.72453E-03     137.014E-03     770.850E-03    -216.349E-03    -219.958E-03    -216.229E-03     770.499E-03    -219.727E-03    -4.56551E-03     586.116E-03    -293.449E-03    -293.928E-03    -293.906E-03     586.094E-03    -293.449E-03    -8.57897E-03    -61.0184E+06    -92.6977E+06    -133.391E+06    -95.5540E+06    -130.534E+06    -61.0184E+06     9.78495E+06         67.4924
            1537     4.46910E-03     137.012E-03     781.865E-03    -219.584E-03    -225.583E-03    -224.949E-03     781.451E-03    -219.803E-03    -4.92719E-03     586.888E-03    -293.253E-03    -293.997E-03    -293.987E-03     586.878E-03    -293.253E-03    -5.52511E-03    -43.1780E+06    -79.9031E+06    -107.176E+06    -88.7846E+06    -98.2946E+06    -43.1780E+06     10.9745E+06         67.6808
            1538     5.21273E-03     137.018E-03     793.524E-03    -221.196E-03    -235.030E-03    -234.871E-03     793.365E-03    -221.196E-03    -5.39528E-03     588.673E-03    -293.933E-03    -294.635E-03    -294.495E-03     588.671E-03    -294.071E-03    -1.41672E-03    -24.5721E+06    -52.3681E+06    -88.2616E+06    -81.0078E+06    -59.6220E+06    -24.5721E+06     12.8989E+06         67.8850
            1539     5.95864E-03     137.001E-03     794.790E-03    -222.872E-03    -234.054E-03    -233.949E-03     794.685E-03    -222.872E-03    -7.96816E-03     588.960E-03    -293.262E-03    -295.496E-03    -293.260E-03     588.952E-03    -295.490E-03     4.21490E-03    -4.87021E+06    -15.5162E+06    -76.4954E+06    -72.8528E+06    -18.6328E+06    -5.39630E+06     14.0244E+06         68.1368
            1540     6.70632E-03     136.975E-03     788.492E-03    -221.051E-03    -229.619E-03    -226.892E-03     788.454E-03    -223.741E-03     3.88352E-03     587.942E-03    -292.345E-03    -295.072E-03    -292.304E-03     587.901E-03    -295.072E-03     11.4687E-03     13.0105E+06     5.51368E+06    -67.4127E+06    -65.0441E+06     3.67115E+06     12.4844E+06     12.9324E+06         68.3566
            1541     7.45013E-03     136.994E-03     783.554E-03    -217.442E-03    -230.231E-03    -223.725E-03     783.476E-03    -223.870E-03     8.16818E-03     587.901E-03    -293.074E-03    -294.176E-03    -292.962E-03     587.789E-03    -294.176E-03     19.4304E-03     29.6116E+06     13.7428E+06    -58.5680E+06    -56.9352E+06     12.1100E+06     29.6116E+06     10.6447E+06         68.5839
            1542     8.19440E-03     137.044E-03     779.735E-03    -216.977E-03    -227.028E-03    -220.229E-03     779.607E-03    -223.648E-03    -7.02178E-03     587.361E-03    -293.044E-03    -294.775E-03    -292.815E-03     587.132E-03    -294.775E-03     27.9947E-03     45.4889E+06     19.7541E+06    -50.3674E+06    -49.3331E+06     18.7198E+06     45.4889E+06     8.32521E+06         68.9492
            1543     8.94213E-03     137.084E-03     782.439E-03    -217.594E-03    -228.322E-03    -222.406E-03     782.299E-03    -223.371E-03    -7.17828E-03     585.996E-03    -292.146E-03    -295.460E-03    -291.745E-03     585.596E-03    -295.460E-03     37.1761E-03     58.5775E+06     19.0854E+06    -42.6588E+06    -41.9810E+06     18.4076E+06     58.5775E+06     6.31773E+06         69.5946
            1544     9.68558E-03     137.170E-03     792.063E-03    -220.651E-03    -234.691E-03    -231.778E-03     791.994E-03    -223.495E-03     3.60729E-03     584.997E-03    -292.498E-03    -294.697E-03    -291.865E-03     584.364E-03    -294.697E-03     46.8584E-03     70.8069E+06     24.5661E+06    -34.1248E+06    -33.6250E+06     24.0662E+06     70.8069E+06     5.12821E+06         70.8154
            1545     10.4305E-03     137.257E-03     794.815E-03    -223.988E-03    -235.427E-03    -235.388E-03     794.777E-03    -223.988E-03     6.48182E-03     586.683E-03    -293.540E-03    -294.570E-03    -293.424E-03     585.688E-03    -293.691E-03     58.7791E-03     79.2340E+06     34.5214E+06    -25.7034E+06    -25.2132E+06     34.0311E+06     79.2340E+06     5.06960E+06         72.9136
            1546     11.1757E-03     137.358E-03     792.188E-03    -223.294E-03    -233.085E-03    -231.950E-03     792.138E-03    -224.378E-03     5.69185E-03     588.176E-03    -293.691E-03    -295.166E-03    -293.234E-03     586.839E-03    -294.288E-03     68.5746E-03     83.3697E+06     43.5556E+06    -18.3418E+06    -18.0042E+06     43.2179E+06     83.3697E+06     3.12875E+06         76.0117
            1547     11.9249E-03     137.474E-03     789.041E-03    -222.871E-03    -231.316E-03    -229.669E-03     789.013E-03    -224.491E-03     3.05360E-03     589.444E-03    -294.437E-03    -296.695E-03    -293.899E-03     587.245E-03    -295.034E-03     86.8317E-03     87.9235E+06     49.4371E+06    -12.1549E+06    -11.7945E+06     49.0767E+06     87.9235E+06     2.64723E+06         79.7487
            1548     12.6679E-03     137.651E-03     787.078E-03    -223.485E-03    -231.189E-03    -230.168E-03     787.055E-03    -224.482E-03     1.77206E-03     590.169E-03    -294.733E-03    -297.940E-03    -295.434E-03     587.663E-03    -294.733E-03     93.8397E-03     93.8073E+06     52.5672E+06    -6.27046E+06    -5.98068E+06     52.2774E+06     93.8073E+06     2.38818E+06         83.0999
            1549     745.274E-06     138.890E-03     771.741E-03    -206.209E-03    -245.376E-03    -224.515E-03     750.880E-03    -206.209E-03     106.817E-03     590.690E-03    -294.098E-03    -296.134E-03    -294.094E-03     590.685E-03    -296.134E-03    -3.03229E-03    -110.535E+06    -112.565E+06    -227.244E+06    -111.872E+06    -227.050E+06    -111.421E+06     4.54016E+06         67.1651
            1550     1.49049E-03     138.872E-03     766.390E-03    -211.175E-03    -230.816E-03    -219.841E-03     760.726E-03    -216.486E-03    -14.9686E-03     589.475E-03    -294.389E-03    -295.349E-03    -294.374E-03     589.460E-03    -295.349E-03    -6.96718E-03    -105.367E+06    -111.222E+06    -205.198E+06    -110.936E+06    -204.847E+06    -106.005E+06     5.52893E+06         67.1124
            1551     2.23558E-03     138.849E-03     757.548E-03    -205.366E-03    -225.947E-03    -212.009E-03     755.041E-03    -216.796E-03     47.3462E-03     587.433E-03    -293.458E-03    -294.828E-03    -293.433E-03     587.408E-03    -294.828E-03    -9.30967E-03    -94.4597E+06    -107.718E+06    -189.006E+06    -108.253E+06    -188.471E+06    -94.4597E+06     6.37426E+06         67.0891
            1552     2.98011E-03     138.821E-03     751.851E-03    -207.205E-03    -218.643E-03    -210.100E-03     751.591E-03    -215.488E-03    -9.03737E-03     586.063E-03    -293.492E-03    -294.364E-03    -293.637E-03     586.035E-03    -294.191E-03    -9.87480E-03    -79.7041E+06    -102.095E+06    -167.878E+06    -103.067E+06    -166.906E+06    -79.7041E+06     7.54379E+06         67.1454
            1553     3.72485E-03     138.803E-03     762.086E-03    -213.177E-03    -222.293E-03    -219.976E-03     761.933E-03    -215.341E-03     14.8897E-03     586.301E-03    -293.461E-03    -293.746E-03    -293.639E-03     586.281E-03    -293.548E-03    -8.40796E-03    -63.1657E+06     -93.813E+06    -141.999E+06    -96.1832E+06    -139.629E+06    -63.1657E+06     9.60336E+06         67.2808
            1554     4.46875E-03     138.809E-03     769.839E-03    -216.542E-03    -225.470E-03    -225.327E-03     769.696E-03    -216.542E-03     10.4913E-03     587.019E-03    -293.157E-03    -293.667E-03    -293.570E-03     587.009E-03    -293.244E-03    -5.57956E-03    -44.4625E+06    -81.6733E+06    -114.937E+06    -89.0472E+06    -107.563E+06    -44.4625E+06     11.9685E+06         67.4347
            1555     5.21332E-03     138.825E-03     773.476E-03    -216.138E-03    -228.978E-03    -227.125E-03     773.417E-03    -217.931E-03     8.72224E-03     588.746E-03    -294.002E-03    -294.423E-03    -294.403E-03     588.744E-03    -294.020E-03    -1.41719E-03    -25.5717E+06    -58.2149E+06    -92.8784E+06    -81.9296E+06    -69.1637E+06    -25.5717E+06     13.6392E+06         67.6367
            1556     5.95798E-03     138.818E-03     774.988E-03    -217.292E-03    -228.574E-03    -226.693E-03     774.900E-03    -219.086E-03    -7.60764E-03     589.085E-03    -293.392E-03    -295.484E-03    -293.389E-03     589.075E-03    -295.477E-03     4.58667E-03    -6.27525E+06    -20.1892E+06    -78.7918E+06    -74.2614E+06    -24.1935E+06    -6.80135E+06     14.8556E+06         67.9226
            1557     6.70412E-03     138.808E-03     771.259E-03    -217.021E-03    -225.000E-03    -222.206E-03     771.154E-03    -219.711E-03    -5.79158E-03     587.701E-03    -291.994E-03    -295.035E-03    -291.948E-03     587.655E-03    -295.035E-03     12.0905E-03     12.7879E+06     7.65288E+06    -68.6824E+06    -65.9254E+06     5.42194E+06     12.2618E+06     14.2208E+06         68.2006
            1558     7.45062E-03     138.837E-03     769.378E-03    -216.030E-03    -225.592E-03    -221.636E-03     769.289E-03    -219.896E-03     8.19115E-03     587.796E-03    -292.809E-03    -294.124E-03    -292.691E-03     587.678E-03    -294.124E-03     20.0242E-03     29.5901E+06     16.4783E+06    -59.7501E+06    -57.6742E+06     14.4024E+06     29.5901E+06     12.3435E+06         68.5007
            1559     8.19499E-03     138.866E-03     771.500E-03    -218.263E-03    -226.866E-03    -224.867E-03     771.368E-03    -220.130E-03    -7.33163E-03     587.801E-03    -293.488E-03    -294.747E-03    -293.256E-03     587.570E-03    -294.747E-03     28.2297E-03     46.1889E+06     23.0867E+06    -51.3053E+06    -49.7023E+06     21.4837E+06     46.1889E+06     10.7013E+06         68.9327
            1560     8.94158E-03     138.885E-03     770.411E-03    -216.799E-03    -225.382E-03    -221.708E-03     770.272E-03    -220.334E-03     1.36575E-03     586.461E-03    -292.483E-03    -295.399E-03    -292.080E-03     586.058E-03    -295.399E-03     37.2957E-03     61.5481E+06     25.0211E+06    -42.8380E+06    -41.9521E+06     24.1352E+06     61.5481E+06     7.53855E+06         69.6099
            1561     9.68765E-03     138.947E-03     767.821E-03    -216.019E-03    -223.776E-03    -219.430E-03     767.729E-03    -220.274E-03     5.87775E-03     585.285E-03    -292.500E-03    -294.648E-03    -291.930E-03     584.655E-03    -294.588E-03     46.7775E-03     73.9786E+06     26.2348E+06    -34.2236E+06    -33.7294E+06     25.7406E+06     73.9786E+06     5.13197E+06         70.8258
            1562     10.4331E-03     139.032E-03     770.808E-03    -218.299E-03    -225.845E-03    -223.837E-03     770.753E-03    -220.252E-03    -1.32290E-03     586.599E-03    -293.536E-03    -294.561E-03    -293.496E-03     585.625E-03    -293.625E-03     58.1916E-03     81.4031E+06     35.0018E+06    -25.9856E+06    -25.5243E+06     34.5405E+06     81.4031E+06     3.60294E+06         72.9159
            1563     11.1791E-03     139.133E-03     773.835E-03    -218.100E-03    -227.669E-03    -225.342E-03     773.781E-03    -220.374E-03    -1.70659E-03     588.248E-03    -293.961E-03    -295.161E-03    -293.556E-03     586.968E-03    -294.287E-03     67.1486E-03     85.7945E+06     45.5271E+06    -19.3706E+06    -18.6311E+06     44.7877E+06     85.7945E+06     3.47759E+06         76.0263
            1564     11.9254E-03     139.247E-03     772.371E-03    -218.113E-03    -226.498E-03    -224.195E-03     772.335E-03    -220.380E-03    -647.601E-06     589.643E-03    -294.680E-03    -296.610E-03    -294.144E-03     587.502E-03    -295.005E-03     85.5314E-03     89.8164E+06     52.2274E+06    -12.9046E+06    -12.0785E+06     51.4014E+06     89.8164E+06     3.84200E+06         79.7775
            1565     12.6687E-03     139.428E-03     770.189E-03    -219.261E-03    -225.186E-03    -224.159E-03     770.159E-03    -220.259E-03     1.76882E-03     590.083E-03    -294.705E-03    -297.465E-03    -294.956E-03     587.574E-03    -294.705E-03     93.9226E-03     93.1495E+06     55.7695E+06    -6.03428E+06    -5.73534E+06     55.4706E+06     93.1495E+06     1.65610E+06         83.1270
            1566     745.110E-06     140.688E-03     751.513E-03    -200.104E-03    -239.695E-03    -197.042E-03     739.381E-03    -230.625E-03     61.9626E-03     590.534E-03    -294.300E-03    -295.774E-03    -294.295E-03     590.529E-03    -295.774E-03    -3.21944E-03    -113.750E+06    -114.764E+06    -240.808E+06    -113.958E+06    -240.694E+06    -114.672E+06     2.46377E+06         67.0940
            1567     1.48954E-03     140.678E-03     748.051E-03    -204.344E-03    -225.682E-03    -213.332E-03     744.818E-03    -213.460E-03    -33.1265E-03     589.890E-03    -294.783E-03    -295.377E-03    -294.767E-03     589.874E-03    -295.377E-03    -7.45968E-03    -107.638E+06    -112.344E+06    -214.392E+06    -111.956E+06    -214.105E+06    -108.312E+06     4.90392E+06         67.0445
            1568     2.23427E-03     140.654E-03     757.870E-03    -211.051E-03    -228.390E-03    -223.497E-03     756.564E-03    -214.637E-03    -127.458E-06     587.758E-03    -293.330E-03    -294.984E-03    -293.304E-03     587.732E-03    -294.984E-03    -9.47486E-03    -94.6847E+06    -107.001E+06    -196.552E+06    -107.463E+06    -196.090E+06    -94.6847E+06     6.04228E+06         67.0034
            1569     2.97955E-03     140.627E-03     762.653E-03    -216.932E-03    -225.560E-03    -224.917E-03     762.011E-03    -216.932E-03    -27.7714E-03     585.730E-03    -293.123E-03    -294.384E-03    -293.162E-03     585.704E-03    -294.318E-03    -9.63904E-03    -80.5251E+06    -101.685E+06    -174.919E+06    -102.372E+06    -174.231E+06    -80.5251E+06     6.90911E+06         67.0131
            1570     3.72488E-03     140.609E-03     759.811E-03    -213.740E-03    -225.731E-03    -221.208E-03     759.688E-03    -218.140E-03    -4.87302E-03     585.849E-03    -293.447E-03    -293.702E-03    -293.493E-03     585.829E-03    -293.636E-03    -8.34332E-03    -64.8882E+06    -95.2268E+06    -151.535E+06    -96.7187E+06    -150.044E+06    -64.8882E+06     8.49284E+06         67.1029
            1571     4.46997E-03     140.603E-03     751.139E-03    -206.382E-03    -223.275E-03    -211.694E-03     751.079E-03    -217.903E-03    -12.2497E-03     586.997E-03    -292.970E-03    -293.554E-03    -293.410E-03     586.987E-03    -293.104E-03    -5.59275E-03    -46.1512E+06    -84.2084E+06    -122.773E+06    -88.8558E+06    -118.126E+06    -46.1512E+06     11.0509E+06         67.2255
            1572     5.21372E-03     140.608E-03     742.121E-03    -202.021E-03    -217.653E-03    -203.205E-03     742.099E-03    -216.447E-03    -3.79897E-03     588.776E-03    -293.772E-03    -294.339E-03    -294.319E-03     588.774E-03    -293.790E-03    -1.39106E-03    -26.4157E+06    -63.2717E+06    -95.8478E+06    -80.6129E+06    -78.5066E+06    -26.4157E+06     13.6710E+06         67.4075
            1573     5.96026E-03     140.596E-03     743.604E-03    -204.459E-03    -217.841E-03    -207.146E-03     743.469E-03    -215.019E-03    -3.82559E-03     588.954E-03    -293.518E-03    -295.535E-03    -293.608E-03     588.945E-03    -295.436E-03     4.43826E-03    -6.28884E+06    -25.5435E+06    -79.0785E+06    -72.8737E+06    -31.7483E+06    -6.28884E+06     15.7029E+06         67.6846
            1574     6.70675E-03     140.592E-03     757.126E-03    -211.557E-03    -223.627E-03    -220.190E-03     756.944E-03    -214.813E-03     6.27944E-03     587.719E-03    -292.282E-03    -295.040E-03    -292.241E-03     587.678E-03    -295.040E-03     11.4457E-03     14.0022E+06     8.23296E+06    -68.5337E+06    -64.8232E+06     4.52247E+06     14.0022E+06     16.2351E+06         67.9774
            1575     7.45101E-03     140.620E-03     762.046E-03    -214.394E-03    -227.419E-03    -226.148E-03     761.951E-03    -215.571E-03     7.83033E-03     588.025E-03    -292.973E-03    -294.117E-03    -292.863E-03     587.915E-03    -294.117E-03     19.1817E-03     31.8836E+06     19.8638E+06    -59.9280E+06    -57.2113E+06     17.1471E+06     31.8836E+06     14.3276E+06         68.3196
            1576     8.19558E-03     140.672E-03     759.377E-03    -215.225E-03    -226.278E-03    -225.064E-03     759.340E-03    -216.402E-03    -4.62671E-03     588.555E-03    -294.060E-03    -294.885E-03    -293.842E-03     588.337E-03    -294.885E-03     27.4239E-03     48.6728E+06     25.5990E+06    -50.6926E+06    -48.9454E+06     23.8518E+06     48.6728E+06     11.3146E+06         68.8018
            1577     8.94119E-03     140.699E-03     760.983E-03    -217.027E-03    -224.721E-03    -224.693E-03     760.955E-03    -217.027E-03     2.22877E-03     587.336E-03    -293.306E-03    -295.581E-03    -292.908E-03     586.938E-03    -295.581E-03     37.0052E-03     65.2713E+06     30.9723E+06    -41.4230E+06    -40.1496E+06     29.6990E+06     65.2713E+06     9.28532E+06         69.5269
            1578     9.68645E-03     140.769E-03     759.643E-03    -215.986E-03    -223.157E-03    -221.700E-03     759.596E-03    -217.396E-03     5.06799E-03     585.860E-03    -292.935E-03    -294.837E-03    -292.466E-03     585.227E-03    -294.673E-03     46.9350E-03     77.5260E+06     30.6527E+06    -33.3709E+06    -32.4710E+06     29.7528E+06     77.5260E+06     7.04056E+06         70.7866
            1579     10.4314E-03     140.837E-03     751.733E-03    -212.988E-03    -219.420E-03    -215.031E-03     751.688E-03    -217.333E-03     1.23045E-03     587.277E-03    -293.671E-03    -294.864E-03    -293.887E-03     586.299E-03    -293.671E-03     58.3046E-03     83.8571E+06     36.4755E+06    -26.7093E+06    -25.9651E+06     35.7313E+06     83.8571E+06     4.92320E+06         72.9221
            1580     11.1775E-03     140.930E-03     746.915E-03    -211.317E-03    -216.886E-03    -211.284E-03     746.882E-03    -216.886E-03     2.46316E-03     588.494E-03    -293.957E-03    -295.334E-03    -293.664E-03     587.172E-03    -294.304E-03     68.2031E-03     87.7671E+06     46.8943E+06    -19.8594E+06    -18.8647E+06     45.8996E+06     87.7671E+06     4.61042E+06         76.0802
            1581     11.9242E-03     141.040E-03     751.522E-03    -213.811E-03    -219.054E-03    -216.377E-03     751.479E-03    -216.446E-03     7.56842E-03     589.505E-03    -294.653E-03    -296.187E-03    -293.558E-03     587.224E-03    -295.001E-03     88.1482E-03     90.2984E+06     54.8083E+06    -12.6318E+06    -11.9809E+06     54.1574E+06     90.2984E+06     3.20295E+06         79.8458
            1582     12.6698E-03     141.220E-03     755.546E-03    -216.297E-03    -222.189E-03    -222.097E-03     755.454E-03    -216.297E-03    -755.045E-06     589.825E-03    -294.669E-03    -296.572E-03    -293.897E-03     587.149E-03    -294.669E-03     96.9031E-03     94.7468E+06     59.3070E+06    -5.81866E+06    -5.69546E+06     59.1838E+06     94.7468E+06     1.18766E+06         83.1701
            1583     744.957E-06     142.479E-03     793.196E-03    -200.724E-03    -284.277E-03    -195.282E-03     787.153E-03    -283.676E-03     25.2089E-03     590.913E-03    -294.432E-03    -296.193E-03    -294.428E-03     590.908E-03    -296.193E-03    -3.48819E-03    -110.901E+06    -112.267E+06    -246.753E+06    -112.270E+06    -246.714E+06    -110.937E+06     379.426E+03         67.0582
            1584     1.49007E-03     142.454E-03     766.356E-03    -219.047E-03    -235.379E-03    -217.015E-03     763.723E-03    -234.779E-03    -33.5758E-03     589.916E-03    -294.577E-03    -295.611E-03    -294.563E-03     589.902E-03    -295.611E-03    -6.74550E-03    -106.314E+06    -109.823E+06    -222.930E+06    -109.850E+06    -222.867E+06    -106.350E+06     1.88418E+06         67.0065
            1585     2.23490E-03     142.421E-03     750.045E-03    -204.291E-03    -231.586E-03    -207.866E-03     749.018E-03    -226.983E-03     3.74325E-03     587.805E-03    -293.312E-03    -295.097E-03    -293.289E-03     587.782E-03    -295.097E-03    -9.00095E-03    -97.1514E+06    -106.368E+06    -203.581E+06    -106.544E+06    -203.405E+06    -97.1514E+06     3.74794E+06         66.9450
            1586     2.98049E-03     142.394E-03     740.867E-03    -198.810E-03    -226.964E-03    -203.536E-03     740.121E-03    -221.492E-03    -12.1969E-03     585.692E-03    -293.109E-03    -294.414E-03    -293.083E-03     585.666E-03    -294.414E-03    -9.57165E-03    -82.3016E+06    -101.338E+06    -184.084E+06    -101.896E+06    -183.527E+06    -82.3016E+06     6.32090E+06         66.9222
            1587     3.72578E-03     142.377E-03     730.243E-03    -197.682E-03    -218.235E-03    -198.117E-03     729.809E-03    -217.365E-03     15.9386E-03     585.563E-03    -293.357E-03    -293.737E-03    -293.335E-03     585.541E-03    -293.737E-03    -8.69935E-03    -64.3988E+06    -94.4779E+06    -158.321E+06    -95.5728E+06    -157.226E+06    -64.3988E+06     8.08535E+06         66.9895
            1588     4.46993E-03     142.370E-03     726.673E-03    -197.574E-03    -215.823E-03    -198.743E-03     726.208E-03    -214.189E-03     19.7414E-03     586.906E-03    -292.895E-03    -293.611E-03    -293.433E-03     586.895E-03    -293.061E-03    -6.07344E-03    -47.3136E+06    -86.4042E+06    -129.979E+06    -89.1322E+06    -127.251E+06    -47.3136E+06     9.43422E+06         67.1004
            1589     5.21494E-03     142.379E-03     734.835E-03    -199.897E-03    -220.427E-03    -207.360E-03     734.400E-03    -212.529E-03     23.2297E-03     588.626E-03    -293.651E-03    -294.484E-03    -294.481E-03     588.623E-03    -293.651E-03    -1.85863E-03    -28.4961E+06    -70.1779E+06    -101.286E+06    -81.3030E+06    -90.1608E+06    -28.4961E+06     12.1660E+06         67.2606
            1590     5.95966E-03     142.378E-03     741.236E-03    -203.568E-03    -224.153E-03    -215.192E-03     741.041E-03    -212.335E-03     5.75886E-03     588.777E-03    -293.617E-03    -295.727E-03    -293.893E-03     588.771E-03    -295.445E-03     3.53078E-03    -7.34366E+06    -35.0393E+06    -80.7298E+06    -72.5485E+06    -43.2206E+06    -7.34366E+06     15.7047E+06         67.5145
            1591     6.70552E-03     142.382E-03     739.214E-03    -205.188E-03    -221.839E-03    -214.219E-03     739.015E-03    -212.609E-03     969.843E-06     587.992E-03    -292.493E-03    -295.118E-03    -292.457E-03     587.956E-03    -295.118E-03     10.5334E-03     13.5336E+06     4.49907E+06    -69.1410E+06    -64.4113E+06     279.207E+03     13.0238E+06     17.8367E+06         67.8038
            1592     7.45073E-03     142.406E-03     741.996E-03    -206.482E-03    -222.367E-03    -215.842E-03     741.824E-03    -212.835E-03    -2.03816E-03     588.296E-03    -293.086E-03    -294.126E-03    -292.981E-03     588.192E-03    -294.126E-03     18.6824E-03     33.4186E+06     24.1957E+06    -59.3702E+06    -56.0594E+06     21.3946E+06     32.9088E+06     16.2159E+06         68.1376
            1593     8.19567E-03     142.457E-03     745.929E-03    -211.073E-03    -222.753E-03    -220.482E-03     745.846E-03    -213.261E-03    -9.31647E-03     588.301E-03    -293.678E-03    -294.790E-03    -293.459E-03     588.083E-03    -294.790E-03     27.3878E-03     50.1022E+06     28.6444E+06    -50.8347E+06    -48.3490E+06     26.1587E+06     50.1022E+06     13.6131E+06         68.6027
            1594     8.94143E-03     142.500E-03     742.392E-03    -210.876E-03    -219.235E-03    -216.451E-03     742.348E-03    -213.616E-03    -20.8972E-06     587.138E-03    -292.954E-03    -295.587E-03    -292.552E-03     586.735E-03    -295.587E-03     37.2179E-03     65.6546E+06     33.7272E+06    -43.1941E+06    -41.1343E+06     31.6673E+06     65.6546E+06     12.1690E+06         69.3260
            1595     9.68564E-03     142.575E-03     739.051E-03    -207.975E-03    -217.600E-03    -211.982E-03     738.988E-03    -213.530E-03     3.53854E-03     585.724E-03    -292.966E-03    -294.854E-03    -292.413E-03     585.067E-03    -294.750E-03     47.7649E-03     78.8654E+06     35.8121E+06    -35.3575E+06    -33.8757E+06     34.3303E+06     78.8654E+06     9.65836E+06         70.6072
            1596     10.4313E-03     142.658E-03     738.978E-03    -208.078E-03    -218.969E-03    -213.700E-03     738.915E-03    -213.285E-03    -821.420E-06     586.586E-03    -293.581E-03    -294.284E-03    -293.207E-03     585.528E-03    -293.601E-03     60.5108E-03     86.0222E+06     39.4498E+06    -27.2721E+06    -26.1600E+06     38.3378E+06     86.0222E+06     7.65343E+06         72.7819
            1597     11.1775E-03     142.748E-03     740.507E-03    -209.923E-03    -220.439E-03    -217.104E-03     740.469E-03    -213.219E-03     7.47414E-03     587.690E-03    -293.610E-03    -294.777E-03    -292.757E-03     586.258E-03    -294.199E-03     70.9290E-03     89.8724E+06     49.9904E+06    -19.4419E+06    -18.8276E+06     49.3761E+06     89.8724E+06     4.58773E+06         75.9853
            1598     11.9284E-03     142.852E-03     738.642E-03    -212.322E-03    -216.913E-03    -215.978E-03     738.611E-03    -213.226E-03     7.64918E-03     589.121E-03    -294.352E-03    -296.113E-03    -293.159E-03     586.755E-03    -294.941E-03     89.9651E-03     93.9973E+06     58.2277E+06    -12.3077E+06    -12.0894E+06     58.0095E+06     93.9973E+06     2.39313E+06         79.7857
            1599     12.6734E-03     143.042E-03     735.451E-03    -211.837E-03    -214.104E-03    -212.786E-03     735.373E-03    -213.077E-03    -6.29027E-03     589.909E-03    -294.631E-03    -296.816E-03    -294.119E-03     587.213E-03    -294.631E-03     97.2500E-03     99.1904E+06     62.1722E+06    -5.52856E+06    -5.41958E+06     62.0632E+06     99.1904E+06     1.88452E+06         83.1201
            1600     744.329E-06     144.281E-03     739.002E-03    -154.925E-03    -279.425E-03    -152.081E-03     734.560E-03    -277.826E-03     29.7255E-03     591.201E-03    -294.513E-03    -296.491E-03    -294.508E-03     591.196E-03    -296.491E-03    -3.47092E-03    -112.983E+06    -114.856E+06    -247.981E+06    -114.270E+06    -247.966E+06    -113.583E+06    -593.584E+03         67.0463
            1601     1.48993E-03     144.243E-03     738.673E-03    -208.591E-03    -220.309E-03    -211.541E-03     736.520E-03    -215.205E-03    -5.88078E-03     589.973E-03    -294.402E-03    -295.751E-03    -294.387E-03     589.958E-03    -295.751E-03    -7.10712E-03    -109.066E+06    -113.673E+06    -229.395E+06    -113.092E+06    -229.375E+06    -109.666E+06     607.118E+03         66.9930
            1602     2.23529E-03     144.212E-03     725.215E-03    -194.309E-03    -222.673E-03    -202.859E-03     724.508E-03    -213.415E-03     25.8878E-03     587.874E-03    -293.354E-03    -295.241E-03    -293.330E-03     587.849E-03    -295.241E-03    -9.25760E-03    -98.8851E+06    -109.783E+06    -210.561E+06    -109.868E+06    -210.475E+06    -98.8851E+06     2.75266E+06         66.9140
            1603     2.97974E-03     144.184E-03     716.713E-03    -187.920E-03    -221.743E-03    -198.721E-03     716.372E-03    -210.601E-03     4.22438E-03     585.681E-03    -293.275E-03    -294.576E-03    -293.249E-03     585.655E-03    -294.576E-03    -9.65775E-03    -84.0521E+06    -103.937E+06    -190.838E+06    -104.202E+06    -190.574E+06    -84.0521E+06     4.34733E+06         66.8646
            1604     3.72477E-03     144.166E-03     721.709E-03    -193.477E-03    -220.041E-03    -203.795E-03     720.746E-03    -208.760E-03    -2.01460E-03     585.263E-03    -293.279E-03    -293.912E-03    -293.259E-03     585.243E-03    -293.912E-03    -8.29670E-03    -68.1477E+06    -97.2203E+06    -165.908E+06    -97.9417E+06    -165.187E+06    -68.1477E+06     6.40333E+06         66.9147
            1605     4.46993E-03     144.160E-03     729.153E-03    -203.550E-03    -219.061E-03    -212.979E-03     728.165E-03    -208.643E-03     1.89185E-03     587.051E-03    -292.856E-03    -293.834E-03    -293.594E-03     587.042E-03    -293.086E-03    -5.48215E-03    -49.7415E+06    -89.2120E+06    -137.644E+06    -91.0068E+06    -135.849E+06    -49.7415E+06     8.56761E+06         67.0191
            1606     5.21400E-03     144.163E-03     735.392E-03    -208.127E-03    -220.407E-03    -218.405E-03     734.881E-03    -209.618E-03     16.8246E-03     588.712E-03    -293.613E-03    -294.618E-03    -294.616E-03     588.709E-03    -293.613E-03    -1.42621E-03    -30.5557E+06    -76.2209E+06    -108.461E+06    -83.4177E+06    -101.264E+06    -30.5557E+06     11.2230E+06         67.1602
            1607     5.95953E-03     144.162E-03     736.260E-03    -207.914E-03    -222.596E-03    -219.469E-03     735.997E-03    -210.778E-03    -206.422E-06     588.645E-03    -293.718E-03    -295.723E-03    -293.968E-03     588.638E-03    -295.465E-03     4.01762E-03    -11.2788E+06    -46.8960E+06    -85.7563E+06    -75.0596E+06    -57.5927E+06    -11.2788E+06     14.7693E+06         67.3912
            1608     6.70554E-03     144.168E-03     732.294E-03    -205.946E-03    -220.478E-03    -214.739E-03     732.093E-03    -211.484E-03     894.703E-06     587.997E-03    -292.382E-03    -295.163E-03    -292.342E-03     587.957E-03    -295.163E-03     11.1490E-03     10.1414E+06    -3.82316E+06    -71.3885E+06    -66.2532E+06    -7.33748E+06     8.52041E+06     17.4868E+06         67.6713
            1609     7.45044E-03     144.197E-03     722.584E-03    -201.328E-03    -214.728E-03    -204.562E-03     722.378E-03    -211.288E-03     753.186E-06     588.066E-03    -292.863E-03    -294.079E-03    -292.753E-03     587.956E-03    -294.079E-03     19.2396E-03     29.8784E+06     23.8458E+06    -62.3697E+06    -58.2796E+06     21.3767E+06     28.2575E+06     18.4670E+06         67.9795
            1610     8.19592E-03     144.238E-03     718.638E-03    -199.223E-03    -213.480E-03    -202.074E-03     718.515E-03    -210.507E-03    -1.60794E-03     587.527E-03    -293.039E-03    -294.487E-03    -292.801E-03     587.289E-03    -294.487E-03     28.4780E-03     46.1789E+06     31.0946E+06    -54.8996E+06    -51.1992E+06     27.3941E+06     46.1789E+06     17.3822E+06         68.4087
            1611     8.94247E-03     144.280E-03     722.123E-03    -201.669E-03    -215.210E-03    -206.921E-03     722.063E-03    -209.897E-03     955.727E-06     586.226E-03    -291.929E-03    -295.230E-03    -291.492E-03     585.789E-03    -295.230E-03     38.8235E-03     63.9034E+06     38.0364E+06    -45.9717E+06    -43.3794E+06     35.4441E+06     63.9034E+06     14.3386E+06         69.1116
            1612     9.68762E-03     144.350E-03     723.416E-03    -204.050E-03    -214.597E-03    -208.961E-03     723.334E-03    -209.605E-03     1.12804E-03     585.024E-03    -292.293E-03    -294.448E-03    -291.707E-03     584.337E-03    -294.348E-03     48.8149E-03     79.8320E+06     41.8748E+06    -36.0835E+06    -34.3220E+06     40.1132E+06     79.8320E+06     11.4370E+06         70.3826
            1613     10.4340E-03     144.444E-03     727.487E-03    -206.756E-03    -216.250E-03    -213.369E-03     727.421E-03    -209.570E-03    -1.16077E-03     585.312E-03    -293.084E-03    -293.823E-03    -292.736E-03     584.245E-03    -293.104E-03     60.7810E-03     89.1455E+06     43.9013E+06    -26.7285E+06    -25.6609E+06     42.8336E+06     89.1455E+06     8.04438E+06         72.5569
            1614     11.1828E-03     144.537E-03     728.937E-03    -208.002E-03    -217.388E-03    -215.631E-03     728.917E-03    -209.739E-03     4.02991E-03     587.177E-03    -293.603E-03    -294.584E-03    -292.837E-03     585.792E-03    -293.966E-03     69.7661E-03     94.8991E+06     55.0554E+06    -18.8198E+06    -18.3512E+06     54.5867E+06     94.8991E+06     5.73177E+06         75.7744
            1615     11.9305E-03     144.644E-03     724.429E-03    -208.052E-03    -215.584E-03    -213.814E-03     724.395E-03    -209.789E-03     7.41939E-03     589.569E-03    -294.522E-03    -296.354E-03    -293.718E-03     587.296E-03    -294.884E-03     88.1166E-03     97.8767E+06     61.7728E+06    -12.3535E+06    -12.1199E+06     61.5393E+06     97.8767E+06     3.52436E+06         79.6070
            1616     12.6746E-03     144.830E-03     721.081E-03    -208.362E-03    -213.164E-03    -211.893E-03     721.051E-03    -209.602E-03     5.42150E-03     589.814E-03    -294.538E-03    -296.962E-03    -294.345E-03     587.197E-03    -294.538E-03     95.8104E-03     100.757E+06     64.2222E+06    -6.61092E+06    -6.57829E+06     64.1895E+06     100.757E+06     1.43892E+06         82.9743
            1617     745.146E-06     146.071E-03     661.878E-03    -127.597E-03    -229.813E-03    -133.462E-03     660.427E-03    -222.497E-03     24.4599E-03     590.939E-03    -294.790E-03    -295.784E-03    -294.818E-03     590.934E-03    -295.751E-03    -3.09374E-03    -115.636E+06    -119.065E+06    -248.392E+06    -118.449E+06    -248.375E+06    -116.269E+06     50.7676E+03         67.0195
            1618     1.48955E-03     146.021E-03     682.321E-03    -182.381E-03    -199.600E-03    -199.177E-03     681.898E-03    -182.381E-03    -10.1908E-03     590.552E-03    -294.818E-03    -295.740E-03    -294.837E-03     590.538E-03    -295.707E-03    -6.86685E-03    -108.103E+06    -116.833E+06    -234.342E+06    -116.249E+06    -234.326E+06    -108.703E+06     1.09964E+06         66.9742
            1619     2.23483E-03     145.982E-03     710.326E-03    -191.153E-03    -218.478E-03    -218.248E-03     710.095E-03    -191.153E-03    -4.52201E-03     588.300E-03    -293.313E-03    -295.435E-03    -293.290E-03     588.277E-03    -295.435E-03    -8.93691E-03    -98.5425E+06    -112.377E+06    -216.739E+06    -112.431E+06    -216.684E+06    -98.5425E+06     2.22155E+06         66.8906
            1620     2.98051E-03     145.960E-03     729.492E-03    -199.598E-03    -230.871E-03    -230.751E-03     729.373E-03    -199.598E-03    -5.08394E-03     585.623E-03    -292.920E-03    -294.778E-03    -292.894E-03     585.597E-03    -294.778E-03    -9.52565E-03    -86.2641E+06    -107.486E+06    -196.002E+06    -107.648E+06    -195.839E+06    -86.2641E+06     3.50840E+06         66.8194
            1621     3.72610E-03     145.937E-03     733.773E-03    -205.655E-03    -227.843E-03    -227.132E-03     733.061E-03    -205.655E-03    -11.2535E-03     585.082E-03    -293.312E-03    -294.076E-03    -293.293E-03     585.063E-03    -294.076E-03    -8.10317E-03    -70.8333E+06    -101.493E+06    -173.955E+06    -101.937E+06    -173.510E+06    -70.8333E+06     5.31141E+06         66.8437
            1622     4.47095E-03     145.932E-03     725.524E-03    -206.793E-03    -219.735E-03    -216.942E-03     724.443E-03    -208.506E-03     3.28706E-03     586.887E-03    -292.927E-03    -293.847E-03    -293.616E-03     586.880E-03    -293.150E-03    -4.95587E-03    -52.8844E+06    -93.4720E+06    -146.028E+06    -94.8214E+06    -144.679E+06    -52.8844E+06     7.58390E+06         66.9371
            1623     5.21549E-03     145.929E-03     710.460E-03    -200.776E-03    -211.689E-03    -203.023E-03     709.817E-03    -208.798E-03     19.4243E-03     588.522E-03    -293.483E-03    -294.342E-03    -294.340E-03     588.520E-03    -293.483E-03    -558.759E-06    -34.2905E+06    -82.3697E+06    -114.445E+06    -86.8492E+06    -109.966E+06    -34.2905E+06     9.61178E+06         67.0785
            1624     5.96057E-03     145.926E-03     701.948E-03    -195.654E-03    -207.617E-03    -195.379E-03     701.673E-03    -207.617E-03     12.4094E-03     588.236E-03    -293.589E-03    -295.260E-03    -293.739E-03     588.224E-03    -295.098E-03     5.45523E-03    -16.0704E+06    -59.3758E+06    -89.3228E+06    -78.2802E+06    -70.4184E+06    -16.0704E+06     12.2099E+06         67.3088
            1625     6.70658E-03     145.933E-03     706.261E-03    -197.456E-03    -209.927E-03    -200.738E-03     706.103E-03    -206.487E-03     23.0611E-03     587.887E-03    -292.432E-03    -294.955E-03    -292.384E-03     587.838E-03    -294.955E-03     12.4673E-03     4.40005E+06    -16.8094E+06    -75.6299E+06    -69.7462E+06    -21.5820E+06     3.28892E+06     17.0525E+06         67.5853
            1626     7.45242E-03     145.961E-03     714.777E-03    -199.274E-03    -217.660E-03    -210.554E-03     714.656E-03    -206.259E-03     17.2729E-03     587.763E-03    -292.838E-03    -293.981E-03    -292.770E-03     587.643E-03    -293.929E-03     20.1206E-03     25.1828E+06     19.3595E+06    -66.8029E+06    -61.8388E+06     16.5402E+06     23.0380E+06     20.1637E+06         67.8778
            1627     8.19818E-03     146.011E-03     715.271E-03    -197.439E-03    -220.246E-03    -211.089E-03     715.210E-03    -206.536E-03     6.84689E-03     587.048E-03    -292.859E-03    -294.389E-03    -292.670E-03     586.807E-03    -294.337E-03     28.7581E-03     42.7739E+06     34.0429E+06    -56.8767E+06    -53.1015E+06     31.3014E+06     41.7402E+06     18.1283E+06         68.2912
            1628     8.94504E-03     146.054E-03     711.547E-03    -199.955E-03    -214.789E-03    -207.976E-03     711.479E-03    -206.700E-03    -7.08508E-03     585.716E-03    -291.555E-03    -295.030E-03    -291.125E-03     585.286E-03    -295.030E-03     38.4558E-03     61.0595E+06     42.3958E+06    -46.5534E+06    -43.9854E+06     39.8278E+06     61.0595E+06     14.8455E+06         68.9860
            1629     9.69203E-03     146.115E-03     710.775E-03    -204.014E-03    -211.748E-03    -208.933E-03     710.701E-03    -206.756E-03    -4.98871E-03     584.779E-03    -291.807E-03    -294.185E-03    -291.451E-03     584.119E-03    -293.880E-03     47.8974E-03     79.5638E+06     46.3763E+06    -36.9226E+06    -35.2329E+06     44.6865E+06     79.5638E+06     11.6481E+06         70.2341
            1630     10.4385E-03     146.198E-03     706.734E-03    -201.760E-03    -209.724E-03    -204.810E-03     706.701E-03    -206.642E-03     4.18780E-03     585.055E-03    -292.681E-03    -294.160E-03    -293.146E-03     584.041E-03    -292.681E-03     59.2714E-03     91.1706E+06     48.2471E+06    -28.5642E+06    -27.2913E+06     46.9742E+06     91.1706E+06     9.69469E+06         72.3810
            1631     11.1832E-03     146.298E-03     701.951E-03    -199.087E-03    -206.579E-03    -199.503E-03     701.937E-03    -206.149E-03     5.31301E-03     586.962E-03    -293.386E-03    -294.958E-03    -293.213E-03     585.615E-03    -293.783E-03     68.8122E-03     97.0562E+06     58.4798E+06    -21.4257E+06    -20.5524E+06     57.6065E+06     97.0562E+06     7.77044E+06         75.5879
            1632     11.9315E-03     146.421E-03     703.266E-03    -200.352E-03    -207.629E-03    -202.413E-03     703.215E-03    -205.518E-03     12.8250E-03     589.898E-03    -294.349E-03    -296.449E-03    -293.774E-03     587.621E-03    -294.746E-03     88.1654E-03     100.188E+06     66.2885E+06    -13.6358E+06    -13.3991E+06     66.0518E+06     100.188E+06     4.04947E+06         79.4231
            1633     12.6760E-03     146.604E-03     703.760E-03    -200.727E-03    -208.467E-03    -204.164E-03     703.698E-03    -204.968E-03     7.88709E-03     589.350E-03    -294.387E-03    -296.682E-03    -294.027E-03     586.695E-03    -294.387E-03     96.4975E-03     103.630E+06     69.8989E+06    -6.36521E+06    -6.31538E+06     69.8491E+06     103.630E+06     1.77311E+06         82.7989
            1634     745.406E-06     147.866E-03     689.125E-03    -180.926E-03    -216.781E-03    -187.694E-03     688.653E-03    -209.541E-03    -1.91298E-03     590.340E-03    -294.186E-03    -295.560E-03    -294.214E-03     590.336E-03    -295.528E-03    -3.53453E-03    -113.470E+06    -116.685E+06    -251.596E+06    -116.318E+06    -251.585E+06    -113.848E+06     949.307E+03         66.9746
            1635     1.49061E-03     147.815E-03     690.446E-03    -189.947E-03    -210.965E-03    -202.140E-03     689.923E-03    -198.249E-03    -9.92881E-03     590.236E-03    -294.846E-03    -295.489E-03    -294.867E-03     590.224E-03    -295.456E-03    -6.35833E-03    -104.803E+06    -113.171E+06    -239.611E+06    -112.871E+06    -239.566E+06    -105.148E+06     2.09108E+06         66.9422
            1636     2.23513E-03     147.764E-03     696.305E-03    -186.429E-03    -217.337E-03    -204.190E-03     695.998E-03    -199.269E-03     2.08375E-03     588.563E-03    -293.572E-03    -295.332E-03    -293.554E-03     588.544E-03    -295.332E-03    -8.14278E-03    -95.3700E+06    -109.456E+06    -222.412E+06    -109.621E+06    -222.247E+06    -95.3700E+06     3.73258E+06         66.8696
            1637     2.98057E-03     147.732E-03     699.199E-03    -187.212E-03    -220.792E-03    -207.240E-03     699.096E-03    -200.661E-03    -565.082E-06     586.005E-03    -292.915E-03    -294.848E-03    -292.893E-03     585.983E-03    -294.848E-03    -8.77952E-03    -82.9552E+06    -105.914E+06    -202.470E+06    -106.233E+06    -202.151E+06    -82.9552E+06     5.23439E+06         66.7922
            1638     3.72594E-03     147.713E-03     697.459E-03    -196.823E-03    -212.906E-03    -207.229E-03     696.958E-03    -201.999E-03    -4.47799E-03     585.078E-03    -293.250E-03    -294.240E-03    -293.234E-03     585.061E-03    -294.240E-03    -7.51734E-03    -67.6935E+06    -100.376E+06    -181.353E+06    -100.968E+06    -180.761E+06    -67.6935E+06     6.68264E+06         66.7867
            1639     4.47084E-03     147.707E-03     694.969E-03    -200.552E-03    -207.799E-03    -204.757E-03     694.091E-03    -202.716E-03     8.38088E-03     586.268E-03    -292.891E-03    -293.687E-03    -293.309E-03     586.262E-03    -293.263E-03    -4.36794E-03    -53.0223E+06    -94.0363E+06    -152.800E+06    -95.2460E+06    -151.590E+06    -53.0223E+06     7.94848E+06         66.8609
            1640     5.21644E-03     147.709E-03     696.681E-03    -196.521E-03    -212.430E-03    -205.255E-03     696.036E-03    -203.052E-03     18.7130E-03     588.004E-03    -293.053E-03    -293.834E-03    -293.833E-03     588.002E-03    -293.053E-03    -250.669E-06    -36.6931E+06    -85.2832E+06    -119.360E+06    -88.4677E+06    -116.176E+06    -36.6931E+06     8.71597E+06         67.0095
            1641     5.96235E-03     147.708E-03     696.939E-03    -194.210E-03    -214.268E-03    -204.837E-03     696.608E-03    -203.309E-03    -2.73017E-03     587.993E-03    -293.129E-03    -294.597E-03    -293.473E-03     587.980E-03    -294.239E-03     5.66566E-03    -17.8651E+06    -68.6598E+06    -95.3129E+06    -80.9490E+06    -83.0237E+06    -17.8651E+06     11.4151E+06         67.2544
            1642     6.70852E-03     147.712E-03     691.485E-03    -195.562E-03    -207.517E-03    -199.698E-03     691.325E-03    -203.219E-03    -4.34381E-03     587.685E-03    -292.508E-03    -294.555E-03    -292.456E-03     587.633E-03    -294.555E-03     13.0137E-03     572.710E+03    -31.1393E+06    -81.0940E+06    -73.1523E+06    -39.0811E+06     572.710E+03     16.0383E+06         67.5383
            1643     7.45447E-03     147.737E-03     690.066E-03    -190.876E-03    -210.882E-03    -198.874E-03     690.023E-03    -202.841E-03    -4.16284E-03     587.781E-03    -292.879E-03    -293.959E-03    -292.896E-03     587.654E-03    -293.816E-03     20.7469E-03     22.6011E+06     12.1771E+06    -68.2983E+06    -63.7094E+06     10.9708E+06     19.2185E+06     18.7871E+06         67.8266
            1644     8.19924E-03     147.780E-03     696.185E-03    -190.703E-03    -216.401E-03    -204.343E-03     696.115E-03    -202.690E-03     321.618E-06     587.361E-03    -292.993E-03    -294.501E-03    -292.894E-03     587.118E-03    -294.357E-03     28.9135E-03     41.6848E+06     35.4110E+06    -57.8102E+06    -54.3356E+06     35.3191E+06     38.3022E+06     17.9427E+06         68.2380
            1645     8.94618E-03     147.826E-03     699.504E-03    -198.133E-03    -211.178E-03    -206.343E-03     699.324E-03    -202.788E-03     6.76725E-03     586.241E-03    -291.742E-03    -295.111E-03    -291.327E-03     585.826E-03    -295.111E-03     37.8147E-03     58.4121E+06     45.5130E+06    -48.2827E+06    -45.7589E+06     42.9891E+06     58.4121E+06     15.1144E+06         68.9277
            1646     9.69165E-03     147.895E-03     696.084E-03    -200.061E-03    -208.043E-03    -205.092E-03     695.875E-03    -202.802E-03     9.81650E-03     585.265E-03    -291.813E-03    -294.127E-03    -291.465E-03     584.610E-03    -293.819E-03     47.6714E-03     78.0622E+06     49.6330E+06    -39.6588E+06    -37.8603E+06     47.8345E+06     78.0622E+06     12.5196E+06         70.1417
            1647     10.4371E-03     147.992E-03     692.476E-03    -197.790E-03    -208.598E-03    -203.621E-03     692.382E-03    -202.672E-03     3.33830E-03     584.893E-03    -292.778E-03    -294.036E-03    -293.005E-03     583.862E-03    -292.778E-03     59.7475E-03     91.2434E+06     52.1605E+06    -31.0848E+06    -29.6764E+06     50.7520E+06     91.2434E+06     10.5305E+06         72.2452
            1648     11.1850E-03     148.082E-03     690.524E-03    -195.940E-03    -205.702E-03    -199.248E-03     690.506E-03    -202.375E-03    -232.404E-06     586.453E-03    -293.299E-03    -294.581E-03    -292.863E-03     585.067E-03    -293.632E-03     69.7488E-03     99.4993E+06     64.3292E+06    -21.2944E+06    -20.4615E+06     63.4962E+06     99.4993E+06     7.79397E+06         75.4203
            1649     11.9319E-03     148.204E-03     685.391E-03    -192.920E-03    -201.756E-03    -192.868E-03     685.340E-03    -201.756E-03     3.21614E-03     589.482E-03    -293.940E-03    -295.618E-03    -292.953E-03     587.150E-03    -294.274E-03     89.2431E-03     103.702E+06     72.3647E+06    -12.9583E+06    -12.6871E+06     72.0934E+06     103.702E+06     4.68875E+06         79.2371
            1650     12.6771E-03     148.384E-03     681.666E-03    -191.757E-03    -200.919E-03    -191.700E-03     681.609E-03    -200.919E-03    -3.04567E-03     588.569E-03    -294.067E-03    -295.736E-03    -292.940E-03     585.849E-03    -294.142E-03     97.6293E-03     106.652E+06     74.5578E+06    -6.49984E+06    -6.41765E+06     74.4756E+06     106.652E+06     2.18402E+06         82.6149
            1651     744.938E-06     149.654E-03     710.114E-03    -176.214E-03    -252.681E-03    -247.506E-03     709.460E-03    -180.735E-03    -6.46838E-03     589.566E-03    -293.952E-03    -295.165E-03    -293.948E-03     589.562E-03    -295.165E-03    -2.68984E-03    -118.277E+06    -120.548E+06    -258.141E+06    -120.223E+06    -258.120E+06    -118.622E+06     1.30440E+06         66.9315
            1652     1.49103E-03     149.591E-03     690.347E-03    -198.525E-03    -211.793E-03    -198.051E-03     689.873E-03    -211.793E-03     23.4718E-03     589.209E-03    -294.308E-03    -295.022E-03    -294.298E-03     589.198E-03    -295.022E-03    -6.10320E-03    -110.915E+06    -118.244E+06    -246.649E+06    -117.978E+06    -246.570E+06    -111.260E+06     2.81668E+06         66.9075
            1653     2.23698E-03     149.547E-03     672.402E-03    -185.024E-03    -205.291E-03    -184.609E-03     671.987E-03    -205.291E-03     25.2785E-03     588.133E-03    -293.500E-03    -294.917E-03    -293.483E-03     588.116E-03    -294.917E-03    -7.73465E-03    -97.9879E+06    -113.050E+06    -230.564E+06    -113.339E+06    -230.275E+06    -97.9879E+06     5.56817E+06         66.8440
            1654     2.98185E-03     149.514E-03     664.474E-03    -182.993E-03    -199.877E-03    -182.767E-03     664.248E-03    -199.877E-03     15.2544E-03     586.092E-03    -292.864E-03    -294.679E-03    -292.846E-03     586.075E-03    -294.679E-03    -7.83992E-03    -82.0481E+06    -106.863E+06    -209.752E+06    -107.455E+06    -209.159E+06    -82.0481E+06     7.55040E+06         66.7582
            1655     3.72696E-03     149.494E-03     670.953E-03    -191.655E-03    -200.419E-03    -194.185E-03     670.534E-03    -197.470E-03    -11.0504E-03     584.360E-03    -292.820E-03    -294.253E-03    -292.808E-03     584.348E-03    -294.253E-03    -6.35337E-03    -65.5333E+06    -100.416E+06    -187.675E+06    -101.216E+06    -186.875E+06    -65.5333E+06     8.13602E+06         66.7215
            1656     4.47266E-03     149.477E-03     682.303E-03    -197.413E-03    -207.298E-03    -206.388E-03     681.844E-03    -197.864E-03    -7.40374E-03     585.125E-03    -292.692E-03    -293.651E-03    -293.102E-03     585.121E-03    -293.236E-03    -3.60716E-03    -49.2317E+06    -92.6314E+06    -158.949E+06    -93.9000E+06    -157.681E+06    -49.2317E+06     8.69264E+06         66.7859
            1657     5.21821E-03     149.474E-03     686.251E-03    -196.587E-03    -212.537E-03    -209.648E-03     686.087E-03    -199.311E-03    -2.69320E-03     587.433E-03    -292.539E-03    -293.800E-03    -293.799E-03     587.432E-03    -292.539E-03     89.0591E-06    -33.0220E+06    -83.8634E+06    -127.894E+06    -87.3089E+06    -124.449E+06    -33.0220E+06     10.8215E+06         66.9520
            1658     5.96377E-03     149.471E-03     685.616E-03    -197.657E-03    -211.480E-03    -208.268E-03     685.268E-03    -200.521E-03    -6.11450E-03     587.966E-03    -292.813E-03    -294.216E-03    -293.646E-03     587.953E-03    -293.369E-03     5.63347E-03    -15.6196E+06    -71.6212E+06    -103.071E+06    -80.7244E+06    -93.9678E+06    -15.6196E+06     13.2073E+06         67.2099
            1659     6.71033E-03     149.482E-03     686.185E-03    -201.151E-03    -207.623E-03    -207.097E-03     685.799E-03    -201.291E-03     8.51573E-03     587.641E-03    -292.812E-03    -294.104E-03    -292.763E-03     587.592E-03    -294.104E-03     12.7493E-03     2.23072E+06    -41.0683E+06    -83.0465E+06    -72.6156E+06    -51.4992E+06     2.23072E+06     15.1159E+06         67.4885
            1660     7.45589E-03     149.513E-03     677.400E-03    -192.775E-03    -206.393E-03    -197.662E-03     677.258E-03    -201.364E-03     1.01895E-03     587.801E-03    -292.889E-03    -293.794E-03    -292.935E-03     587.677E-03    -293.625E-03     20.4616E-03     22.3223E+06     4.98146E+06    -68.4723E+06    -64.0106E+06     3.41886E+06     19.4233E+06     17.1093E+06         67.7604
            1661     8.20106E-03     149.569E-03     665.324E-03    -183.452E-03    -203.386E-03    -186.289E-03     665.247E-03    -200.472E-03    -1.59504E-03     587.443E-03    -292.854E-03    -294.430E-03    -292.772E-03     587.192E-03    -294.260E-03     29.3643E-03     40.2294E+06     36.4026E+06    -58.5383E+06    -55.2938E+06     36.1522E+06     37.2352E+06     17.5068E+06         68.1609
            1662     8.94622E-03     149.619E-03     666.722E-03    -185.032E-03    -201.914E-03    -187.297E-03     666.346E-03    -199.273E-03    -1.58151E-03     586.668E-03    -291.727E-03    -295.127E-03    -291.283E-03     586.224E-03    -295.127E-03     39.1420E-03     56.4866E+06     47.8843E+06    -49.8691E+06    -47.1956E+06     45.3061E+06     56.3914E+06     15.9053E+06         68.8407
            1663     9.69209E-03     149.686E-03     674.958E-03    -191.751E-03    -203.842E-03    -196.524E-03     674.490E-03    -198.601E-03    -4.05915E-03     585.828E-03    -291.902E-03    -294.065E-03    -291.371E-03     585.127E-03    -293.895E-03     49.3230E-03     76.4553E+06     54.3680E+06    -41.1629E+06    -39.0345E+06     52.2396E+06     76.4553E+06     14.0703E+06         70.0315
            1664     10.4384E-03     149.776E-03     678.375E-03    -195.320E-03    -204.385E-03    -201.084E-03     678.213E-03    -198.459E-03    -2.39512E-03     585.041E-03    -292.930E-03    -293.735E-03    -292.669E-03     583.974E-03    -292.930E-03     60.8411E-03     91.9995E+06     58.9170E+06    -31.4211E+06    -30.2179E+06     57.7138E+06     91.9995E+06     9.84289E+06         72.0988
            1665     11.1852E-03     149.862E-03     675.716E-03    -194.673E-03    -201.645E-03    -197.985E-03     675.702E-03    -198.319E-03    -742.582E-06     586.498E-03    -293.175E-03    -294.014E-03    -292.398E-03     585.086E-03    -293.379E-03     70.3812E-03     101.055E+06     67.7718E+06    -21.9178E+06    -21.4778E+06     67.3318E+06     101.055E+06     6.19152E+06         75.2347
            1666     11.9339E-03     149.973E-03     672.244E-03    -192.044E-03    -200.577E-03    -194.660E-03     672.171E-03    -197.888E-03     4.48892E-03     588.784E-03    -293.617E-03    -294.590E-03    -292.019E-03     586.417E-03    -293.821E-03     89.8347E-03     105.896E+06     75.7709E+06    -13.8374E+06    -13.5218E+06     75.4553E+06     105.896E+06     5.27112E+06         79.0397
            1667     12.6809E-03     150.152E-03     669.632E-03    -192.444E-03    -201.198E-03    -196.208E-03     669.564E-03    -197.366E-03     2.38588E-03     587.435E-03    -293.570E-03    -294.624E-03    -291.581E-03     584.678E-03    -293.856E-03     98.1545E-03     110.402E+06     80.4381E+06    -6.64969E+06    -6.52089E+06     80.3093E+06     110.402E+06     2.85204E+06         82.4426
            1668     746.581E-06     151.447E-03     644.629E-03    -79.1566E-03    -288.855E-03    -287.325E-03     643.435E-03    -79.4926E-03     6.66435E-03     588.436E-03    -293.891E-03    -294.309E-03    -293.887E-03     588.432E-03    -294.309E-03    -2.66306E-03    -127.495E+06    -130.540E+06    -267.827E+06    -130.122E+06    -267.773E+06    -127.968E+06     2.15253E+06         66.8857
            1669     1.49189E-03     151.371E-03     665.769E-03    -183.720E-03    -208.309E-03    -202.564E-03     664.990E-03    -188.686E-03     26.8373E-03     588.591E-03    -294.115E-03    -294.516E-03    -294.105E-03     588.580E-03    -294.516E-03    -5.96493E-03    -118.772E+06    -126.839E+06    -254.792E+06    -126.984E+06    -254.648E+06    -118.772E+06     3.98319E+06         66.8744
            1670     2.23788E-03     151.317E-03     669.013E-03    -186.802E-03    -210.737E-03    -203.026E-03     668.728E-03    -194.229E-03    -2.08468E-03     587.656E-03    -293.194E-03    -294.517E-03    -293.176E-03     587.639E-03    -294.517E-03    -7.72972E-03    -105.709E+06    -121.974E+06    -238.470E+06    -122.241E+06    -238.202E+06    -105.709E+06     5.46810E+06         66.8161
            1671     2.98399E-03     151.284E-03     665.701E-03    -192.605E-03    -201.430E-03    -197.706E-03     665.412E-03    -196.040E-03     6.69616E-03     585.543E-03    -292.211E-03    -294.420E-03    -292.194E-03     585.526E-03    -294.420E-03    -7.79328E-03    -89.4316E+06    -114.902E+06    -217.328E+06    -115.382E+06    -216.847E+06    -89.4316E+06     6.51210E+06         66.7114
            1672     3.72961E-03     151.259E-03     665.145E-03    -194.733E-03    -200.809E-03    -198.955E-03     665.059E-03    -196.502E-03     1.31098E-03     583.602E-03    -292.050E-03    -294.076E-03    -292.039E-03     583.591E-03    -294.076E-03    -5.87638E-03    -70.7464E+06    -106.616E+06    -193.103E+06    -107.421E+06    -192.298E+06    -70.7464E+06     7.78906E+06         66.6412
            1673     4.47459E-03     151.248E-03     663.173E-03    -188.891E-03    -203.455E-03    -195.573E-03     663.058E-03    -196.658E-03     10.7595E-03     583.904E-03    -292.266E-03    -293.330E-03    -292.513E-03     583.900E-03    -293.080E-03    -2.97983E-03    -51.1036E+06    -97.9426E+06    -167.176E+06    -99.4808E+06    -165.638E+06    -51.1036E+06     9.75188E+06         66.7110
            1674     5.21986E-03     151.250E-03     659.274E-03    -186.883E-03    -201.116E-03    -191.673E-03     659.193E-03    -196.245E-03     11.7553E-03     586.290E-03    -292.250E-03    -293.815E-03    -293.813E-03     586.288E-03    -292.250E-03     993.127E-06    -32.9170E+06    -87.9191E+06    -139.255E+06    -91.4117E+06    -135.762E+06    -32.9170E+06     12.0916E+06         66.9152
            1675     5.96566E-03     151.257E-03     659.991E-03    -193.029E-03    -198.744E-03    -195.711E-03     659.823E-03    -195.894E-03     13.0047E-03     587.273E-03    -292.746E-03    -294.385E-03    -294.269E-03     587.257E-03    -292.847E-03     6.57948E-03    -16.0339E+06    -74.4072E+06    -109.806E+06    -83.0523E+06    -101.161E+06    -16.0339E+06     13.7435E+06         67.1906
            1676     6.71163E-03     151.267E-03     663.675E-03    -195.853E-03    -199.888E-03    -199.427E-03     663.389E-03    -196.026E-03     18.2179E-03     587.484E-03    -293.130E-03    -293.766E-03    -293.301E-03     587.431E-03    -293.542E-03     13.1936E-03     1.59058E+06    -48.2601E+06      -86.34E+06    -74.5591E+06    -60.0410E+06     1.59058E+06     15.5405E+06         67.4559
            1677     7.45724E-03     151.292E-03     670.493E-03    -196.506E-03    -205.149E-03    -204.973E-03     670.350E-03    -196.540E-03     995.113E-06     587.671E-03    -292.805E-03    -293.309E-03    -292.872E-03     587.547E-03    -293.117E-03     20.5420E-03     20.8015E+06     -509.34E+03    -71.6353E+06    -66.3200E+06    -5.03077E+06     20.0077E+06     17.5536E+06         67.6933
            1678     8.20316E-03     151.334E-03     671.047E-03    -192.146E-03    -209.816E-03    -204.744E-03     671.008E-03    -197.179E-03    -6.79956E-03     586.428E-03    -292.379E-03    -294.177E-03    -292.321E-03     586.178E-03    -293.986E-03     29.2588E-03     39.0989E+06     36.4577E+06    -61.8369E+06    -58.6932E+06     35.9551E+06     36.4577E+06     17.4228E+06         68.0589
            1679     8.95067E-03     151.374E-03     658.890E-03    -186.294E-03    -203.271E-03    -191.953E-03     658.485E-03    -197.208E-03    -3.21110E-03     585.870E-03    -291.337E-03    -295.085E-03    -290.884E-03     585.416E-03    -295.085E-03     39.5059E-03     55.1449E+06     47.5608E+06    -52.1504E+06    -49.7599E+06     47.0175E+06     53.2976E+06     15.3094E+06         68.7289
            1680     9.69718E-03     151.433E-03     647.895E-03    -182.772E-03    -196.373E-03    -182.266E-03     647.389E-03    -196.373E-03    -3.76584E-03     585.756E-03    -291.698E-03    -293.993E-03    -291.038E-03     585.029E-03    -293.927E-03     50.2185E-03     74.0835E+06     57.6240E+06    -41.7334E+06    -39.9089E+06     55.7995E+06     74.0835E+06     13.1015E+06         69.9265
            1681     10.4412E-03     151.533E-03     643.262E-03    -179.657E-03    -195.157E-03    -179.531E-03     643.136E-03    -195.157E-03    -4.54680E-03     584.566E-03    -292.718E-03    -293.349E-03    -292.140E-03     583.444E-03    -292.805E-03     62.3261E-03     93.0652E+06     65.1808E+06    -32.0510E+06    -30.8588E+06     63.9886E+06     93.0652E+06     10.2804E+06         71.9868
            1682     11.1893E-03     151.621E-03     645.445E-03    -183.275E-03    -194.048E-03    -183.254E-03     645.424E-03    -194.048E-03     1.60409E-03     585.817E-03    -292.746E-03    -293.557E-03    -291.728E-03     584.321E-03    -293.079E-03     72.3745E-03     104.029E+06     71.3517E+06    -23.1286E+06    -22.5837E+06     70.8068E+06     104.029E+06     6.58135E+06         75.1094
            1683     11.9394E-03     151.730E-03     651.126E-03    -187.570E-03    -195.972E-03    -190.201E-03     651.068E-03    -193.283E-03     11.4099E-03     587.279E-03    -293.219E-03    -294.156E-03    -291.365E-03     584.821E-03    -293.552E-03     91.5417E-03     109.404E+06     79.4653E+06    -14.7566E+06    -14.5483E+06     79.2571E+06     109.404E+06     4.23946E+06         78.9227
            1684     12.6857E-03     151.906E-03     650.165E-03    -186.310E-03    -196.470E-03    -190.097E-03     650.118E-03    -192.638E-03     6.90789E-03     585.915E-03    -293.179E-03    -293.998E-03    -290.956E-03     583.084E-03    -293.390E-03     99.3180E-03     114.065E+06     86.7160E+06    -6.90176E+06    -6.79192E+06     86.6061E+06     114.065E+06     2.84400E+06         82.3464
            1685     746.400E-06     153.232E-03     664.412E-03    -57.5759E-03    -342.760E-03    -333.640E-03     663.176E-03    -65.4603E-03    -22.9545E-03     587.327E-03    -292.870E-03    -294.067E-03    -292.908E-03     587.324E-03    -294.026E-03    -2.64618E-03    -132.989E+06    -136.289E+06    -276.736E+06    -135.860E+06    -276.693E+06    -133.463E+06     1.43691E+06         66.8426
            1686     1.49300E-03     153.155E-03     660.135E-03    -179.569E-03    -216.784E-03    -197.933E-03     658.876E-03    -197.161E-03    -16.1170E-03     587.832E-03    -293.874E-03    -294.045E-03    -293.943E-03     587.823E-03    -293.967E-03    -5.48355E-03    -123.742E+06    -131.189E+06    -262.041E+06    -131.293E+06    -261.938E+06    -123.742E+06     2.60956E+06         66.8457
            1687     2.23834E-03     153.099E-03     660.127E-03    -183.849E-03    -213.271E-03    -199.605E-03     659.375E-03    -196.762E-03    -36.8837E-03     587.351E-03    -293.113E-03    -294.132E-03    -293.135E-03     587.335E-03    -294.095E-03    -7.31992E-03    -110.859E+06    -125.751E+06    -245.021E+06    -125.928E+06    -244.843E+06    -110.859E+06     4.13798E+06         66.7913
            1688     2.98493E-03     153.067E-03     655.656E-03    -191.609E-03    -202.383E-03    -196.920E-03     655.576E-03    -196.993E-03    -14.0589E-03     585.222E-03    -291.962E-03    -294.201E-03    -291.945E-03     585.205E-03    -294.201E-03    -7.58487E-03    -95.1509E+06    -120.058E+06    -224.770E+06    -120.457E+06    -224.371E+06    -95.1509E+06     5.93248E+06         66.6710
            1689     3.73123E-03     153.040E-03     645.304E-03    -189.004E-03    -197.712E-03    -190.314E-03     645.255E-03    -196.354E-03    -12.2133E-03     583.119E-03    -291.553E-03    -293.920E-03    -291.542E-03     583.108E-03    -293.920E-03    -6.00108E-03    -77.4399E+06    -113.409E+06    -200.934E+06    -114.225E+06    -200.119E+06    -77.4399E+06     7.91163E+06         66.5784
            1690     4.47770E-03     153.022E-03     638.871E-03    -181.835E-03    -194.682E-03    -181.807E-03     638.843E-03    -194.682E-03    -3.67428E-03     583.098E-03    -291.781E-03    -292.883E-03    -291.797E-03     583.095E-03    -292.864E-03    -3.03127E-03    -57.8986E+06    -104.934E+06    -175.229E+06    -106.344E+06    -173.819E+06    -57.8986E+06     9.43946E+06         66.6514
            1691     5.22363E-03     153.011E-03     642.315E-03    -184.015E-03    -194.062E-03    -184.990E-03     642.266E-03    -193.039E-03    -2.58783E-03     585.082E-03    -292.133E-03    -293.395E-03    -293.344E-03     585.079E-03    -292.182E-03     1.14786E-03    -38.4456E+06    -94.4156E+06    -146.584E+06    -96.9894E+06    -144.010E+06    -38.4456E+06     10.7135E+06         66.8908
            1692     5.96879E-03     153.008E-03     647.705E-03    -191.005E-03    -195.392E-03    -193.792E-03     647.642E-03    -192.542E-03    -1.03351E-03     585.758E-03    -292.707E-03    -294.187E-03    -294.169E-03     585.740E-03    -292.707E-03     7.12815E-03    -19.9955E+06    -80.3102E+06    -116.641E+06    -87.8579E+06    -109.093E+06    -19.9955E+06     13.0155E+06         67.2054
            1693     6.71460E-03     153.012E-03     647.288E-03    -192.501E-03    -194.878E-03    -194.620E-03     647.254E-03    -192.723E-03    -1.13101E-03     586.527E-03    -293.070E-03    -293.545E-03    -293.448E-03     586.463E-03    -293.103E-03     14.4259E-03    -1.46155E+06    -55.1684E+06    -91.2621E+06    -78.7907E+06    -67.6398E+06    -1.46155E+06     14.9194E+06         67.4956
            1694     7.46089E-03     153.036E-03     641.162E-03    -184.475E-03    -196.579E-03    -188.426E-03     641.125E-03    -192.591E-03    -10.2357E-03     587.305E-03    -292.413E-03    -293.292E-03    -293.118E-03     587.163E-03    -292.446E-03     22.0114E-03     17.9437E+06    -9.55106E+06    -74.6204E+06    -69.3711E+06    -14.5565E+06     17.6999E+06     16.7173E+06         67.7084
            1695     8.20604E-03     153.097E-03     639.693E-03    -175.551E-03    -201.697E-03    -185.247E-03     639.666E-03    -191.974E-03    -3.63101E-03     585.807E-03    -292.019E-03    -293.776E-03    -292.448E-03     585.544E-03    -293.085E-03     30.0481E-03     41.3522E+06     32.5639E+06    -63.4840E+06    -60.0426E+06     33.8514E+06     36.6233E+06     18.1077E+06         68.0066
            1696     8.95253E-03     153.144E-03     643.071E-03    -183.004E-03    -199.033E-03    -190.458E-03     642.908E-03    -191.416E-03     13.0952E-03     585.227E-03    -291.248E-03    -294.634E-03    -290.787E-03     584.766E-03    -294.634E-03     39.8285E-03     57.8765E+06     50.4038E+06    -53.8637E+06    -51.5599E+06     52.5851E+06     53.3914E+06     15.4858E+06         68.6511
            1697     9.70058E-03     153.207E-03     641.554E-03    -184.323E-03    -198.577E-03    -191.597E-03     641.326E-03    -191.075E-03     21.7571E-03     584.430E-03    -291.013E-03    -293.830E-03    -290.275E-03     583.692E-03    -293.830E-03     50.5196E-03     73.7292E+06     61.5638E+06    -43.6785E+06    -42.5628E+06     60.4481E+06     73.7292E+06     10.2882E+06         69.8711
            1698     10.4479E-03     153.293E-03     637.606E-03    -178.319E-03    -200.897E-03    -188.457E-03     637.527E-03    -190.679E-03     7.01176E-03     582.755E-03    -291.768E-03    -292.718E-03    -290.831E-03     581.602E-03    -292.502E-03     63.0589E-03     93.9975E+06     67.6825E+06    -32.9119E+06    -32.2096E+06     66.9802E+06     93.9975E+06     7.81786E+06         71.9463
            1699     11.1953E-03     153.386E-03     631.907E-03    -179.515E-03    -194.400E-03    -183.763E-03     631.886E-03    -190.130E-03     836.373E-06     584.065E-03    -292.120E-03    -293.028E-03    -290.799E-03     582.528E-03    -292.812E-03     73.2786E-03     106.512E+06     75.0731E+06    -23.1229E+06    -22.4455E+06     74.3957E+06     106.512E+06     7.45457E+06         75.0780
            1700     11.9451E-03     153.487E-03     622.120E-03    -174.855E-03    -189.215E-03    -174.829E-03     622.094E-03    -189.215E-03     1.65370E-03     585.243E-03    -292.687E-03    -293.842E-03    -290.885E-03     582.740E-03    -293.142E-03     92.2659E-03     113.021E+06     85.2038E+06    -14.9142E+06    -14.5709E+06     84.8606E+06     113.021E+06     5.14445E+06         78.9063
            1701     12.6913E-03     153.672E-03     618.865E-03    -172.367E-03    -187.958E-03    -172.337E-03     618.834E-03    -187.958E-03     927.073E-06     584.628E-03    -292.801E-03    -293.519E-03    -290.622E-03     581.744E-03    -292.815E-03     100.149E-03     116.385E+06     91.6544E+06    -7.62474E+06    -7.54658E+06     91.5763E+06     116.385E+06     2.16126E+06         82.3324
            1702     747.224E-06     155.012E-03     650.275E-03    -40.1598E-03    -356.297E-03    -344.838E-03     646.701E-03    -48.0442E-03     18.2612E-03     585.919E-03    -292.028E-03    -293.703E-03    -292.270E-03     585.917E-03    -293.460E-03    -2.21514E-03    -131.218E+06    -134.176E+06    -282.936E+06    -134.238E+06    -282.874E+06    -131.218E+06     2.34812E+06         66.8039
            1703     1.49356E-03     154.927E-03     636.666E-03    -179.299E-03    -205.199E-03    -183.618E-03     632.676E-03    -196.891E-03     35.4418E-03     586.932E-03    -293.209E-03    -293.638E-03    -293.629E-03     586.923E-03    -293.209E-03    -5.13569E-03    -125.536E+06    -132.785E+06    -268.194E+06    -132.881E+06    -268.097E+06    -125.536E+06     2.62194E+06         66.8107
            1704     2.24080E-03     154.868E-03     628.769E-03    -177.041E-03    -195.372E-03    -178.304E-03     627.251E-03    -192.590E-03     12.9019E-03     587.105E-03    -292.904E-03    -293.739E-03    -293.074E-03     587.089E-03    -293.553E-03    -7.42453E-03    -114.008E+06    -128.991E+06    -252.921E+06    -129.130E+06    -252.782E+06    -114.008E+06     3.76782E+06         66.7574
            1705     2.98635E-03     154.830E-03     632.313E-03    -182.088E-03    -193.696E-03    -185.220E-03     631.857E-03    -190.109E-03     17.3116E-03     585.331E-03    -292.214E-03    -293.980E-03    -292.198E-03     585.315E-03    -293.980E-03    -7.35142E-03    -97.4443E+06    -122.159E+06    -232.221E+06    -122.514E+06    -231.866E+06    -97.4443E+06     5.46045E+06         66.6310
            1706     3.73266E-03     154.803E-03     636.811E-03    -183.894E-03    -200.282E-03    -194.026E-03     636.775E-03    -190.114E-03     1.72597E-03     583.224E-03    -291.601E-03    -293.763E-03    -291.591E-03     583.213E-03    -293.763E-03    -6.07735E-03    -78.8528E+06    -114.110E+06    -207.635E+06    -114.724E+06    -207.020E+06    -78.8528E+06     7.04696E+06         66.5253
            1707     4.47927E-03     154.789E-03     637.966E-03    -185.742E-03    -198.752E-03    -193.588E-03     637.881E-03    -190.822E-03     9.05608E-03     582.663E-03    -291.391E-03    -292.771E-03    -291.387E-03     582.659E-03    -292.771E-03    -3.09411E-03    -59.9594E+06    -105.623E+06    -180.656E+06    -106.468E+06    -179.810E+06    -59.9594E+06     7.79833E+06         66.5684
            1708     5.22436E-03     154.790E-03     633.011E-03    -187.111E-03    -192.224E-03    -188.271E-03     632.822E-03    -190.875E-03     9.45957E-03     584.293E-03    -291.698E-03    -292.775E-03    -292.150E-03     584.290E-03    -292.320E-03     1.54105E-03    -40.7825E+06    -96.4252E+06    -152.717E+06    -98.1760E+06    -150.967E+06    -40.7825E+06     9.08814E+06         66.7929
            1709     5.97037E-03     154.797E-03     625.224E-03    -182.089E-03    -190.159E-03    -181.911E-03     625.045E-03    -190.159E-03     11.3822E-03     584.441E-03    -292.277E-03    -293.342E-03    -293.037E-03     584.421E-03    -292.563E-03     7.62427E-03    -20.9597E+06    -84.4260E+06    -121.248E+06    -88.8010E+06    -116.873E+06    -20.9597E+06     10.5061E+06         67.1505
            1710     6.71788E-03     154.801E-03     617.549E-03    -176.881E-03    -189.279E-03    -177.156E-03     617.496E-03    -188.951E-03     8.27385E-03     585.428E-03    -292.760E-03    -293.322E-03    -293.254E-03     585.359E-03    -292.760E-03     15.0199E-03    -1.37098E+06    -61.7437E+06    -92.3376E+06    -78.6221E+06    -75.4592E+06    -1.37098E+06     12.2839E+06         67.5117
            1711     7.46407E-03     154.819E-03     611.600E-03    -172.740E-03    -189.630E-03    -174.804E-03     611.583E-03    -187.549E-03     1.01238E-03     587.029E-03    -292.126E-03    -293.395E-03    -293.244E-03     586.878E-03    -292.126E-03     22.7049E-03     18.5888E+06    -20.3203E+06    -74.5685E+06    -69.0509E+06    -25.8380E+06     18.5888E+06     15.2245E+06         67.7365
            1712     8.20945E-03     154.865E-03     609.698E-03    -169.828E-03    -191.593E-03    -175.152E-03     609.679E-03    -186.251E-03     3.64422E-03     585.854E-03    -291.896E-03    -293.176E-03    -292.685E-03     585.574E-03    -292.107E-03     31.0208E-03     45.1926E+06     27.3157E+06    -62.7498E+06    -59.4864E+06     30.2865E+06     38.9584E+06     16.6621E+06         67.9754
            1713     8.95693E-03     154.905E-03     614.198E-03    -175.277E-03    -190.562E-03    -180.385E-03     614.162E-03    -185.417E-03    -2.99700E-03     585.304E-03    -291.411E-03    -293.714E-03    -290.973E-03     584.828E-03    -293.676E-03     40.5385E-03     64.2057E+06     55.9193E+06    -52.0422E+06    -49.9357E+06     60.0470E+06     57.9715E+06     15.0960E+06         68.5868
            1714     9.70403E-03     154.966E-03     621.673E-03    -180.227E-03    -192.690E-03    -187.648E-03     621.591E-03    -185.188E-03    -5.50935E-03     583.465E-03    -290.494E-03    -293.437E-03    -289.747E-03     582.718E-03    -293.437E-03     50.8132E-03     77.7693E+06     69.7103E+06    -42.1806E+06    -40.9562E+06     68.4859E+06     77.7693E+06     11.1320E+06         69.8238
            1715     10.4509E-03     155.062E-03     623.596E-03    -179.333E-03    -195.457E-03    -189.493E-03     623.539E-03    -185.240E-03    -3.07770E-03     581.431E-03    -290.717E-03    -292.220E-03    -289.556E-03     580.270E-03    -292.220E-03     63.1929E-03     94.7688E+06     70.3966E+06    -33.4984E+06    -32.9423E+06     69.8404E+06     94.7688E+06     7.24494E+06         71.9173
            1716     11.2004E-03     155.149E-03     618.009E-03    -179.428E-03    -189.320E-03    -183.687E-03     617.999E-03    -185.050E-03    -1.64043E-03     582.429E-03    -291.079E-03    -292.638E-03    -289.540E-03     580.891E-03    -292.638E-03     73.1949E-03     106.466E+06     75.8176E+06    -25.3998E+06    -24.8856E+06     75.3034E+06     106.466E+06     6.88445E+06         75.0638
            1717     11.9510E-03     155.255E-03     611.659E-03    -174.788E-03    -187.049E-03    -177.415E-03     611.605E-03    -184.369E-03     3.13745E-03     583.594E-03    -291.678E-03    -293.315E-03    -289.878E-03     581.103E-03    -292.623E-03     91.9336E-03     114.935E+06     91.3660E+06    -15.9735E+06    -15.6100E+06     91.0025E+06     114.935E+06     5.26891E+06         78.9071
            1718     12.6971E-03     155.436E-03     605.161E-03    -171.519E-03    -186.044E-03    -174.118E-03     605.079E-03    -183.364E-03     9.16101E-03     583.633E-03    -292.227E-03    -292.978E-03    -290.038E-03     580.753E-03    -292.286E-03     100.024E-03     118.768E+06     96.4960E+06    -7.05946E+06    -7.00381E+06     96.4403E+06     118.768E+06     1.65002E+06         82.3383
            1719     747.176E-06     156.800E-03     597.000E-03    -26.2167E-03    -329.897E-03    -321.110E-03     588.213E-03    -26.2167E-03    -49.2544E-03     585.410E-03    -291.973E-03    -293.508E-03    -292.173E-03     585.408E-03    -293.306E-03    -2.56372E-03    -133.250E+06    -134.891E+06    -290.768E+06    -134.492E+06    -290.705E+06    -133.712E+06     1.86396E+06         66.6991
            1720     1.49455E-03     156.706E-03     609.521E-03    -174.726E-03    -191.667E-03    -185.812E-03     603.665E-03    -174.726E-03     1.72977E-03     585.754E-03    -292.745E-03    -293.302E-03    -293.170E-03     585.746E-03    -292.870E-03    -4.96733E-03    -127.809E+06    -133.837E+06    -273.672E+06    -133.935E+06    -273.575E+06    -127.809E+06     2.98169E+06         66.7138
            1721     2.24031E-03     156.640E-03     616.486E-03    -176.160E-03    -193.920E-03    -188.880E-03     614.081E-03    -178.796E-03    -10.1223E-03     586.346E-03    -292.633E-03    -293.328E-03    -292.849E-03     586.331E-03    -293.098E-03    -7.10064E-03    -114.406E+06    -129.650E+06    -258.494E+06    -129.768E+06    -258.376E+06    -114.406E+06     3.43999E+06         66.6974
            1722     2.98767E-03     156.601E-03     617.707E-03    -178.533E-03    -190.411E-03    -187.041E-03     616.973E-03    -181.169E-03     791.553E-06     585.443E-03    -292.313E-03    -293.366E-03    -292.299E-03     585.429E-03    -293.366E-03    -6.92807E-03    -96.5247E+06    -121.765E+06    -236.980E+06    -121.896E+06    -236.849E+06    -96.5247E+06     3.85794E+06         66.6070
            1723     3.73396E-03     156.579E-03     622.452E-03    -181.723E-03    -194.888E-03    -193.500E-03     622.299E-03    -182.958E-03    -7.87083E-03     583.805E-03    -291.696E-03    -293.398E-03    -291.688E-03     583.796E-03    -293.398E-03    -5.38440E-03    -78.2417E+06    -113.760E+06    -213.055E+06    -114.016E+06    -212.799E+06    -78.2417E+06     4.67131E+06         66.4919
            1724     4.48013E-03     156.562E-03     621.103E-03    -183.342E-03    -192.644E-03    -191.155E-03     620.849E-03    -184.577E-03    -5.28093E-03     582.641E-03    -291.188E-03    -292.876E-03    -291.186E-03     582.638E-03    -292.876E-03    -2.20005E-03    -58.6811E+06    -105.306E+06    -185.916E+06    -105.886E+06    -185.336E+06    -58.6811E+06     6.36060E+06         66.4725
            1725     5.22734E-03     156.564E-03     612.790E-03    -183.008E-03    -186.547E-03    -184.136E-03     612.431E-03    -185.060E-03    -2.57305E-03     583.932E-03    -291.348E-03    -292.532E-03    -291.345E-03     583.930E-03    -292.532E-03     2.01627E-03    -38.2545E+06    -96.0742E+06    -157.050E+06    -97.0015E+06    -156.122E+06    -38.2545E+06     7.23769E+06         66.6257
            1726     5.97315E-03     156.566E-03     603.046E-03    -174.306E-03    -184.333E-03    -174.005E-03     602.745E-03    -184.333E-03    -3.25203E-03     584.076E-03    -291.803E-03    -292.886E-03    -292.256E-03     584.056E-03    -292.414E-03     7.42135E-03    -18.5898E+06    -85.3090E+06    -125.256E+06    -87.3510E+06    -123.214E+06    -18.5898E+06     7.97278E+06         66.9643
            1727     6.71965E-03     156.572E-03     596.740E-03    -168.190E-03    -183.950E-03    -169.066E-03     596.557E-03    -182.891E-03    -9.37674E-03     583.547E-03    -292.138E-03    -293.070E-03    -293.006E-03     583.483E-03    -292.138E-03     14.4976E-03    -182.118E+03    -67.9160E+06    -94.8182E+06    -78.5805E+06    -84.1536E+06    -182.118E+03     9.97263E+06         67.3695
            1728     7.46676E-03     156.595E-03     601.823E-03    -175.158E-03    -184.936E-03    -178.078E-03     601.692E-03    -181.885E-03    -9.01354E-03     585.309E-03    -291.874E-03    -292.822E-03    -292.641E-03     585.162E-03    -291.908E-03     22.3466E-03     19.5231E+06    -31.2752E+06    -73.7941E+06    -68.6416E+06    -36.4276E+06     19.5231E+06     12.5443E+06         67.6442
            1729     8.21212E-03     156.649E-03     609.017E-03    -180.732E-03    -187.410E-03    -186.236E-03     608.938E-03    -181.828E-03    -4.61460E-03     585.304E-03    -291.848E-03    -292.457E-03    -292.060E-03     585.025E-03    -291.966E-03     30.9686E-03     46.2021E+06     22.1428E+06    -61.3857E+06    -58.5367E+06     25.0529E+06     40.4430E+06     14.9249E+06         67.8904
            1730     8.95965E-03     156.690E-03     602.951E-03    -176.778E-03    -185.455E-03    -180.269E-03     602.852E-03    -181.865E-03    -3.96193E-03     584.646E-03    -291.230E-03    -292.680E-03    -290.792E-03     584.170E-03    -292.642E-03     40.4979E-03     67.7926E+06     58.1646E+06    -51.1756E+06    -49.2952E+06     64.4619E+06     59.6148E+06     14.4180E+06         68.4894
            1731     9.70805E-03     156.745E-03     590.467E-03    -168.162E-03    -181.122E-03    -167.959E-03     590.263E-03    -181.122E-03     3.98718E-03     583.118E-03    -290.354E-03    -292.502E-03    -289.596E-03     582.360E-03    -292.502E-03     51.1187E-03     80.0950E+06     73.3319E+06    -41.3669E+06    -40.1166E+06     74.5004E+06     77.6762E+06     11.8925E+06         69.7243
            1732     10.4560E-03     156.831E-03     584.641E-03    -165.190E-03    -179.832E-03    -165.033E-03     584.484E-03    -179.832E-03     3.50231E-03     581.167E-03    -290.344E-03    -291.799E-03    -289.171E-03     579.994E-03    -291.799E-03     63.5370E-03     94.2118E+06     74.5106E+06    -32.0975E+06    -31.0940E+06     73.5071E+06     94.2118E+06     10.1644E+06         71.8318
            1733     11.2060E-03     156.914E-03     588.233E-03    -171.607E-03    -178.756E-03    -171.588E-03     588.214E-03    -178.756E-03     1.28884E-03     581.086E-03    -290.163E-03    -292.323E-03    -288.609E-03     579.533E-03    -292.323E-03     73.4408E-03     108.149E+06     78.7640E+06    -23.1109E+06    -22.5243E+06     78.1775E+06     108.149E+06     6.93101E+06         75.0088
            1734     11.9572E-03     157.014E-03     592.948E-03    -172.547E-03    -180.668E-03    -175.176E-03     592.896E-03    -177.988E-03     6.47756E-03     582.002E-03    -290.621E-03    -292.658E-03    -288.644E-03     579.513E-03    -292.146E-03     91.8345E-03     118.800E+06     96.8795E+06    -14.3988E+06    -14.2020E+06     96.6827E+06     118.800E+06     4.22092E+06         78.8843
            1735     12.7046E-03     157.203E-03     590.224E-03    -168.724E-03    -179.758E-03    -171.347E-03     590.167E-03    -177.078E-03     9.16575E-03     582.131E-03    -291.573E-03    -292.359E-03    -289.228E-03     579.274E-03    -291.847E-03     99.4860E-03     122.184E+06     101.957E+06    -7.06057E+06    -6.95108E+06     101.847E+06     122.184E+06     2.53254E+06         82.3364
            1736     746.920E-06     158.580E-03     623.647E-03    -66.0545E-03    -333.533E-03    -320.270E-03     614.373E-03    -70.0441E-03    -79.1060E-03     582.918E-03    -290.810E-03    -292.267E-03    -290.808E-03     582.916E-03    -292.267E-03    -2.48968E-03    -132.679E+06    -135.338E+06    -295.272E+06    -134.886E+06    -295.261E+06    -133.141E+06    -418.522E+03         66.5139
            1737     1.49446E-03     158.470E-03     601.520E-03    -173.632E-03    -199.488E-03    -176.720E-03     595.974E-03    -190.855E-03    -6.99653E-03     581.947E-03    -291.213E-03    -291.567E-03    -291.373E-03     581.940E-03    -291.401E-03    -4.62376E-03    -123.805E+06    -130.814E+06    -278.793E+06    -130.828E+06    -278.779E+06    -123.805E+06     1.17640E+06         66.5500
            1738     2.24306E-03     158.395E-03     593.212E-03    -162.993E-03    -197.048E-03    -173.608E-03     591.484E-03    -184.705E-03    -30.9495E-03     583.358E-03    -291.280E-03    -292.296E-03    -292.158E-03     583.346E-03    -291.407E-03    -6.41324E-03    -111.118E+06    -126.029E+06    -261.774E+06    -126.080E+06    -261.723E+06    -111.118E+06     2.32905E+06         66.5986
            1739     2.98942E-03     158.346E-03     588.291E-03    -165.937E-03    -187.001E-03    -171.122E-03     587.822E-03    -181.347E-03    -3.53504E-03     585.047E-03    -291.409E-03    -292.832E-03    -292.534E-03     585.034E-03    -291.694E-03    -6.69539E-03    -96.1070E+06    -121.057E+06    -240.241E+06    -121.154E+06    -240.143E+06    -96.1070E+06     3.25538E+06         66.5973
            1740     3.73685E-03     158.320E-03     582.778E-03    -164.824E-03    -180.619E-03    -166.273E-03     582.464E-03    -178.856E-03     2.21601E-03     584.505E-03    -291.254E-03    -292.884E-03    -291.660E-03     584.496E-03    -292.469E-03    -5.28276E-03    -78.0120E+06    -114.909E+06    -217.165E+06    -115.048E+06    -217.027E+06    -78.0120E+06     3.66967E+06         66.5298
            1741     4.48381E-03     158.309E-03     582.317E-03    -169.103E-03    -177.128E-03    -168.909E-03     581.986E-03    -176.990E-03    -1.48256E-03     582.438E-03    -291.238E-03    -292.912E-03    -291.236E-03     582.436E-03    -292.912E-03    -2.02313E-03    -57.1994E+06    -105.970E+06    -190.621E+06    -106.248E+06    -190.343E+06    -57.1994E+06     4.63627E+06         66.4953
            1742     5.22899E-03     158.314E-03     583.285E-03    -173.189E-03    -176.237E-03    -172.962E-03     582.921E-03    -176.099E-03    -3.04564E-03     582.778E-03    -291.573E-03    -292.823E-03    -291.570E-03     582.775E-03    -292.823E-03     2.22787E-03    -36.9096E+06    -96.4544E+06    -160.411E+06    -97.0260E+06    -159.839E+06    -36.9096E+06     5.82831E+06         66.5756
            1743     5.97523E-03     158.324E-03     586.564E-03    -170.923E-03    -181.771E-03    -176.353E-03     586.090E-03    -175.868E-03     3.83577E-03     583.544E-03    -291.481E-03    -292.694E-03    -291.671E-03     583.524E-03    -292.484E-03     7.68659E-03    -18.0150E+06    -87.1840E+06    -129.663E+06    -88.5624E+06    -128.285E+06    -18.0150E+06     6.91975E+06         66.8071
            1744     6.72267E-03     158.335E-03     593.714E-03    -173.421E-03    -186.627E-03    -183.322E-03     593.229E-03    -176.241E-03     7.16761E-03     581.457E-03    -291.422E-03    -292.587E-03    -292.154E-03     581.393E-03    -291.791E-03     14.5350E-03     844.183E+03    -72.3954E+06    -96.1995E+06    -78.3930E+06    -90.2019E+06     844.183E+03     7.60162E+06         67.1702
            1745     7.46983E-03     158.351E-03     590.428E-03    -175.029E-03    -181.396E-03    -179.371E-03     590.047E-03    -176.673E-03     6.80158E-03     582.055E-03    -291.389E-03    -292.353E-03    -291.826E-03     581.906E-03    -291.768E-03     22.4136E-03     18.8567E+06    -40.0462E+06    -72.3166E+06    -68.0647E+06    -44.2981E+06     18.8567E+06     8.71616E+06         67.4994
            1746     8.21686E-03     158.402E-03     578.125E-03    -170.012E-03    -176.578E-03    -169.914E-03     577.788E-03    -176.338E-03     10.0657E-03     583.562E-03    -291.436E-03    -292.085E-03    -291.158E-03     583.284E-03    -292.085E-03     30.9036E-03     41.0839E+06     14.3728E+06    -59.8024E+06    -57.7376E+06     14.5658E+06     38.8260E+06     11.9225E+06         67.8086
            1747     8.96550E-03     158.447E-03     572.044E-03    -165.847E-03    -175.396E-03    -165.647E-03     571.844E-03    -175.396E-03     4.59134E-03     582.919E-03    -290.768E-03    -291.765E-03    -290.299E-03     582.450E-03    -291.765E-03     40.1651E-03     67.7423E+06     55.9713E+06    -49.6710E+06    -47.7581E+06     63.7687E+06     58.0321E+06     14.3595E+06         68.4074
            1748     9.71435E-03     158.506E-03     571.737E-03    -163.665E-03    -176.358E-03    -165.523E-03     571.576E-03    -174.340E-03     11.6029E-03     581.968E-03    -289.795E-03    -291.339E-03    -289.051E-03     581.223E-03    -291.339E-03     50.6236E-03     82.4464E+06     73.3756E+06    -40.6061E+06    -39.2221E+06     79.4440E+06     74.9941E+06     12.6428E+06         69.6063
            1749     10.4614E-03     158.601E-03     570.775E-03    -164.682E-03    -175.546E-03    -166.658E-03     570.622E-03    -173.416E-03     6.77437E-03     580.773E-03    -289.785E-03    -291.077E-03    -288.626E-03     579.615E-03    -291.077E-03     63.0843E-03     91.4289E+06     76.5826E+06    -31.3278E+06    -30.4130E+06     75.6679E+06     91.4289E+06     9.59551E+06         71.7156
            1750     11.2114E-03     158.676E-03     565.715E-03    -165.055E-03    -172.725E-03    -165.104E-03     565.653E-03    -172.614E-03     3.13564E-03     580.140E-03    -289.702E-03    -291.381E-03    -288.151E-03     578.588E-03    -291.381E-03     73.3359E-03     107.950E+06     82.3833E+06    -21.8347E+06    -21.1431E+06     81.6917E+06     107.950E+06     7.71470E+06         74.9420
            1751     11.9646E-03     158.764E-03     560.785E-03    -161.207E-03    -171.643E-03    -161.164E-03     560.742E-03    -171.643E-03     7.81508E-03     580.651E-03    -290.014E-03    -291.749E-03    -288.054E-03     578.160E-03    -291.218E-03     91.7996E-03     121.787E+06     101.341E+06    -14.3925E+06    -13.9607E+06     100.909E+06     121.787E+06     6.60064E+06         78.8717
            1752     12.7111E-03     158.960E-03     559.245E-03    -157.442E-03    -170.360E-03    -157.423E-03     559.225E-03    -170.360E-03     71.1248E-06     579.957E-03    -290.596E-03    -291.815E-03    -288.279E-03     577.109E-03    -291.284E-03     99.1548E-03     126.189E+06     109.231E+06    -7.10539E+06    -6.91009E+06     109.036E+06     126.189E+06     4.11989E+06         82.3534
            1753     747.659E-06     160.368E-03     558.088E-03    -62.0217E-03    -278.682E-03    -266.420E-03     549.815E-03    -66.0113E-03    -34.9883E-03     579.588E-03    -289.496E-03    -290.409E-03    -289.494E-03     579.586E-03    -290.409E-03    -2.18167E-03    -134.420E+06    -138.895E+06    -299.641E+06    -138.963E+06    -299.573E+06    -134.420E+06     1.97453E+06         66.2962
            1754     1.49512E-03     160.252E-03     567.327E-03    -153.668E-03    -194.079E-03    -173.880E-03     564.350E-03    -170.890E-03     53.6674E-03     578.866E-03    -289.567E-03    -289.922E-03    -289.646E-03     578.860E-03    -289.838E-03    -4.38668E-03    -122.791E+06    -133.244E+06    -284.537E+06    -133.289E+06    -284.492E+06    -122.791E+06     2.30125E+06         66.3378
            1755     2.24242E-03     160.182E-03     559.479E-03    -150.520E-03    -184.257E-03    -162.282E-03     559.218E-03    -172.233E-03     19.5816E-03     579.645E-03    -289.721E-03    -291.065E-03    -290.941E-03     579.636E-03    -289.836E-03    -5.57906E-03    -109.955E+06    -127.745E+06    -264.920E+06    -127.803E+06    -264.861E+06    -109.955E+06     2.77517E+06         66.4152
            1756     2.99018E-03     160.141E-03     552.728E-03    -154.815E-03    -176.218E-03    -160.540E-03     552.460E-03    -170.225E-03     19.1867E-03     583.115E-03    -290.081E-03    -292.525E-03    -292.515E-03     583.105E-03    -290.081E-03    -5.82438E-03    -94.7069E+06    -122.520E+06    -242.354E+06    -122.586E+06    -242.287E+06    -94.7069E+06     2.78755E+06         66.5091
            1757     3.73695E-03     160.107E-03     550.770E-03    -155.466E-03    -170.875E-03    -157.832E-03     550.560E-03    -168.300E-03     14.2221E-03     584.994E-03    -290.327E-03    -292.442E-03    -291.953E-03     584.988E-03    -290.809E-03    -4.59151E-03    -75.4962E+06    -114.567E+06    -220.191E+06    -114.655E+06    -220.103E+06    -75.4962E+06     2.93732E+06         66.5593
            1758     4.48419E-03     160.082E-03     553.118E-03    -159.520E-03    -166.753E-03    -159.262E-03     552.859E-03    -166.753E-03     8.60522E-03     582.557E-03    -290.553E-03    -292.654E-03    -290.883E-03     582.555E-03    -292.322E-03    -1.61697E-03    -57.0094E+06    -106.787E+06    -194.822E+06    -106.972E+06    -194.638E+06    -57.0094E+06     3.80431E+06         66.5850
            1759     5.23168E-03     160.079E-03     558.914E-03    -163.489E-03    -171.130E-03    -168.029E-03     558.593E-03    -166.269E-03    -538.909E-06     581.940E-03    -291.195E-03    -293.086E-03    -291.191E-03     581.936E-03    -293.086E-03     2.71060E-03    -37.7907E+06    -97.7811E+06    -163.982E+06    -98.1427E+06    -163.620E+06    -37.7907E+06     4.63918E+06         66.6395
            1760     5.97829E-03     160.084E-03     565.928E-03    -165.488E-03    -177.979E-03    -176.165E-03     565.565E-03    -166.939E-03     12.1976E-03     582.810E-03    -291.183E-03    -292.592E-03    -291.160E-03     582.786E-03    -292.592E-03     8.43246E-03    -17.9038E+06    -87.3738E+06    -131.842E+06    -88.0743E+06    -131.141E+06    -17.9038E+06     5.09860E+06         66.7546
            1761     6.72546E-03     160.093E-03     563.945E-03    -164.739E-03    -177.393E-03    -173.732E-03     563.336E-03    -167.790E-03     7.89404E-03     580.461E-03    -290.856E-03    -292.067E-03    -290.993E-03     580.390E-03    -291.859E-03     15.3129E-03     193.010E+03    -75.1848E+06    -98.4307E+06    -78.7652E+06    -94.8503E+06     193.010E+03     5.88447E+06         67.0265
            1762     7.47318E-03     160.109E-03     556.618E-03    -163.196E-03    -171.332E-03    -166.081E-03     556.063E-03    -167.892E-03     2.50339E-03     579.729E-03    -290.767E-03    -291.844E-03    -290.824E-03     579.576E-03    -291.635E-03     22.6866E-03     17.4601E+06    -46.2390E+06    -74.6306E+06    -70.4136E+06    -50.4561E+06     17.4601E+06     7.45870E+06         67.3927
            1763     8.22129E-03     160.159E-03     556.274E-03    -162.299E-03    -172.364E-03    -166.796E-03     555.938E-03    -167.530E-03     10.5013E-03     581.390E-03    -290.637E-03    -291.984E-03    -290.359E-03     581.113E-03    -291.984E-03     30.8066E-03     36.3928E+06     5.70904E+06    -63.0467E+06    -61.5366E+06     4.19888E+06     36.3928E+06     9.68267E+06         67.7893
            1764     8.96954E-03     160.211E-03     556.903E-03    -161.054E-03    -175.250E-03    -168.739E-03     556.654E-03    -167.315E-03    -6.69818E-03     580.690E-03    -290.325E-03    -291.366E-03    -289.858E-03     580.223E-03    -291.366E-03     40.0381E-03     66.0561E+06     49.5060E+06    -52.6222E+06    -51.2956E+06     59.2269E+06     55.0086E+06     11.2267E+06         68.3948
            1765     9.71869E-03     160.266E-03     554.286E-03    -161.595E-03    -172.256E-03    -166.589E-03     554.146E-03    -167.121E-03    -2.78164E-03     580.309E-03    -289.363E-03    -290.400E-03    -288.634E-03     579.580E-03    -290.400E-03     50.0807E-03      84.393E+06     70.9048E+06    -42.5004E+06    -41.3026E+06     82.8818E+06     71.2183E+06     11.3836E+06         69.5371
            1766     10.4674E-03     160.361E-03     549.784E-03    -159.803E-03    -168.768E-03    -161.819E-03     549.670E-03    -166.638E-03    -1.47603E-03     580.078E-03    -289.119E-03    -290.357E-03    -287.998E-03     578.958E-03    -290.357E-03     61.9972E-03     89.9353E+06     76.9831E+06    -33.9174E+06    -32.8645E+06     78.0575E+06     87.8080E+06     10.4848E+06         71.6375
            1767     11.2176E-03     160.441E-03     544.239E-03    -156.727E-03    -165.929E-03    -156.711E-03     544.111E-03    -165.817E-03     839.328E-06     579.212E-03    -289.357E-03    -290.577E-03    -287.847E-03     577.703E-03    -290.577E-03     72.2572E-03     105.269E+06     84.6880E+06    -26.6280E+06    -25.7246E+06     83.7847E+06     105.269E+06     9.50859E+06         74.9179
            1768     11.9702E-03     160.525E-03     540.158E-03    -155.784E-03    -164.739E-03    -155.673E-03     540.047E-03    -164.739E-03     16.6060E-03     579.419E-03    -289.623E-03    -290.651E-03    -287.515E-03     576.937E-03    -290.278E-03     91.4272E-03     121.392E+06     105.408E+06    -17.7730E+06    -17.2839E+06     104.919E+06     121.392E+06     7.30503E+06         78.9052
            1769     12.7176E-03     160.716E-03     532.954E-03    -152.158E-03    -163.399E-03    -152.110E-03     532.906E-03    -163.399E-03     3.97989E-03     578.441E-03    -289.808E-03    -290.813E-03    -287.352E-03     575.612E-03    -290.440E-03     98.6313E-03     128.225E+06     116.529E+06    -8.18474E+06    -8.04196E+06     116.387E+06     128.225E+06     3.53964E+06         82.4111
            1770     748.016E-06     162.142E-03     509.085E-03    -82.8066E-03    -214.726E-03    -198.017E-03     501.500E-03    -91.9301E-03    -58.5659E-03     578.623E-03    -288.921E-03    -289.799E-03    -288.959E-03     578.621E-03    -289.760E-03    -1.61966E-03    -144.277E+06    -149.516E+06    -306.880E+06    -148.405E+06    -306.790E+06    -145.479E+06     1.86008E+06         66.0828
            1771     1.49623E-03     162.011E-03     516.698E-03    -135.259E-03    -168.835E-03    -156.558E-03     514.808E-03    -145.646E-03     13.1634E-03     578.802E-03    -289.349E-03    -289.725E-03    -289.514E-03     578.798E-03    -289.556E-03    -3.31758E-03    -130.679E+06    -142.623E+06    -288.389E+06    -142.670E+06    -288.342E+06    -130.679E+06     2.54872E+06         66.1111
            1772     2.24429E-03     161.937E-03     534.641E-03    -149.821E-03    -171.571E-03    -169.784E-03     534.118E-03    -151.084E-03    -20.0960E-03     578.655E-03    -289.353E-03    -290.164E-03    -289.897E-03     578.650E-03    -289.614E-03    -4.43528E-03    -114.157E+06    -135.105E+06    -267.198E+06    -135.150E+06    -267.153E+06    -114.157E+06     2.19053E+06         66.1775
            1773     2.99244E-03     161.894E-03     543.082E-03    -156.926E-03    -178.495E-03    -178.207E-03     542.794E-03    -156.926E-03    -14.0269E-03     579.817E-03    -289.428E-03    -291.453E-03    -291.302E-03     579.811E-03    -289.574E-03    -4.40625E-03    -94.7628E+06    -126.670E+06    -244.927E+06    -126.749E+06    -244.847E+06    -94.7628E+06     2.73839E+06         66.3147
            1774     3.73956E-03     161.875E-03     542.821E-03    -160.728E-03    -172.510E-03    -172.196E-03     542.543E-03    -160.765E-03    -20.6693E-03     582.663E-03    -289.615E-03    -291.926E-03    -291.924E-03     582.661E-03    -289.615E-03    -2.73384E-03    -74.6164E+06    -118.044E+06    -222.441E+06    -118.129E+06    -222.356E+06    -74.6164E+06     2.92269E+06         66.4612
            1775     4.48613E-03     161.857E-03     539.483E-03    -161.677E-03    -167.303E-03    -166.421E-03     539.181E-03    -162.257E-03    -21.9808E-03     583.172E-03    -289.744E-03    -291.796E-03    -290.838E-03     583.171E-03    -290.701E-03     234.752E-06    -55.4693E+06    -108.865E+06    -196.562E+06    -108.947E+06    -196.480E+06    -55.4693E+06     2.36475E+06         66.5626
            1776     5.23254E-03     161.857E-03     536.164E-03    -155.239E-03    -170.467E-03    -162.818E-03     535.892E-03    -162.616E-03    -27.0282E-03     582.778E-03    -290.745E-03    -292.363E-03    -290.982E-03     582.771E-03    -292.120E-03     4.05919E-03    -37.0387E+06    -99.3321E+06    -166.590E+06    -99.4886E+06    -166.434E+06    -37.0387E+06     2.86022E+06         66.6214
            1777     5.98034E-03     161.860E-03     527.516E-03    -148.427E-03    -167.220E-03    -153.415E-03     527.368E-03    -162.083E-03    -13.8352E-03     582.330E-03    -290.802E-03    -292.538E-03    -290.773E-03     582.301E-03    -292.538E-03     9.35650E-03    -18.5660E+06    -89.7341E+06    -134.037E+06    -90.0314E+06    -133.739E+06    -18.5660E+06     3.44177E+06         66.6711
            1778     6.72896E-03     161.867E-03     523.652E-03    -151.105E-03    -161.397E-03    -151.235E-03     523.364E-03    -160.980E-03    -15.6639E-03     579.436E-03    -289.856E-03    -291.616E-03    -289.774E-03     579.355E-03    -291.616E-03     16.4235E-03     383.110E+03    -77.7831E+06    -101.045E+06    -79.8810E+06    -98.9471E+06     383.110E+03     3.98594E+06         66.8859
            1779     7.47730E-03     161.881E-03     528.307E-03    -154.613E-03    -160.257E-03    -154.466E-03     528.002E-03    -160.100E-03    -18.3677E-03     578.678E-03    -289.865E-03    -291.146E-03    -289.700E-03     578.514E-03    -291.146E-03     23.6395E-03     18.2414E+06    -52.3271E+06    -75.5487E+06    -69.7309E+06    -58.1449E+06     18.2414E+06     6.19511E+06         67.2923
            1780     8.22429E-03     161.924E-03     532.115E-03    -152.601E-03    -164.421E-03    -157.142E-03     531.822E-03    -159.587E-03     3.88662E-03     580.454E-03    -289.859E-03    -291.747E-03    -289.572E-03     580.168E-03    -291.747E-03     31.2740E-03     37.4048E+06    -2.18013E+06    -61.9925E+06    -60.1167E+06    -4.05593E+06     37.4048E+06     9.84326E+06         67.7785
            1781     8.97397E-03     161.969E-03     533.258E-03    -152.792E-03    -167.247E-03    -160.384E-03     532.916E-03    -159.313E-03    -247.553E-06     579.678E-03    -290.021E-03    -291.208E-03    -289.580E-03     579.212E-03    -291.184E-03     39.9896E-03     66.0101E+06     48.3447E+06    -53.9154E+06    -52.2939E+06     55.2050E+06     57.5284E+06     12.1959E+06         68.3924
            1782     9.72433E-03     162.024E-03     528.123E-03    -154.160E-03    -163.362E-03    -158.265E-03     527.849E-03    -158.982E-03     9.69906E-03     579.349E-03    -289.583E-03    -290.006E-03    -288.896E-03     578.638E-03    -289.982E-03     49.4736E-03     84.8645E+06     73.0479E+06    -46.7129E+06    -45.4712E+06     83.6228E+06     73.0479E+06     11.5529E+06         69.4839
            1783     10.4719E-03     162.111E-03     522.949E-03    -151.558E-03    -162.555E-03    -155.486E-03     522.715E-03    -158.393E-03     11.7103E-03     579.505E-03    -288.995E-03    -290.100E-03    -287.921E-03     578.430E-03    -290.100E-03     60.7226E-03     88.2243E+06     78.4565E+06    -38.3140E+06    -37.3119E+06     80.7892E+06     84.8894E+06     10.5371E+06         71.5855
            1784     11.2225E-03     162.193E-03     521.300E-03    -149.391E-03    -160.555E-03    -152.208E-03     521.219E-03    -157.656E-03     2.50812E-03     578.211E-03    -288.737E-03    -290.498E-03    -287.272E-03     576.746E-03    -290.498E-03     71.0929E-03     102.291E+06     86.8623E+06    -27.8639E+06    -27.1278E+06     86.1262E+06     102.291E+06     8.30800E+06         74.9267
            1785     11.9757E-03     162.288E-03     513.488E-03    -145.986E-03    -156.582E-03    -145.881E-03     513.383E-03    -156.582E-03     8.34823E-03     578.175E-03    -289.030E-03    -290.057E-03    -286.669E-03     575.758E-03    -290.001E-03     90.1989E-03     122.120E+06     109.313E+06    -16.7013E+06    -16.4594E+06     109.071E+06     122.120E+06     5.18490E+06         78.9723
            1786     12.7242E-03     162.473E-03     506.273E-03    -144.645E-03    -155.118E-03    -144.575E-03     506.203E-03    -155.118E-03     4.07434E-03     578.085E-03    -289.286E-03    -289.865E-03    -286.581E-03     575.323E-03    -289.809E-03     97.4041E-03     129.831E+06     123.068E+06    -7.45562E+06    -7.34294E+06     122.955E+06     129.831E+06     3.26164E+06         82.4996
            1787     749.557E-06     163.917E-03     526.478E-03    -128.365E-03    -201.779E-03    -186.262E-03     520.084E-03    -137.489E-03    -42.3545E-03     576.743E-03    -287.348E-03    -289.223E-03    -287.568E-03     576.742E-03    -289.002E-03    -189.035E-06    -148.874E+06    -154.900E+06    -309.668E+06    -153.775E+06    -309.591E+06    -150.076E+06    -1.12553E+06         65.8386
            1788     1.49799E-03     163.774E-03     508.723E-03    -142.016E-03    -166.718E-03    -147.961E-03     506.766E-03    -158.816E-03     21.6263E-03     577.566E-03    -288.534E-03    -289.260E-03    -289.259E-03     577.565E-03    -288.534E-03    -1.35677E-03    -138.133E+06    -147.554E+06    -290.567E+06    -147.615E+06    -290.505E+06    -138.133E+06     34.3342E+03         65.8756
            1789     2.24582E-03     163.698E-03     501.359E-03    -140.479E-03    -163.085E-03    -148.320E-03     500.737E-03    -154.622E-03    -15.8166E-03     578.358E-03    -288.696E-03    -289.578E-03    -289.429E-03     578.355E-03    -288.842E-03    -2.29074E-03    -119.841E+06    -140.603E+06    -268.738E+06    -140.619E+06    -268.722E+06    -119.841E+06     1.37092E+06         65.9451
            1790     2.99366E-03     163.652E-03     507.233E-03    -144.552E-03    -169.715E-03    -159.727E-03     506.831E-03    -154.138E-03    -2.88519E-03     577.873E-03    -288.952E-03    -289.936E-03    -289.754E-03     577.870E-03    -289.131E-03    -2.02859E-03    -99.2721E+06    -132.673E+06    -247.584E+06    -132.718E+06    -247.539E+06    -99.2721E+06     1.27469E+06         66.0889
            1791     3.74258E-03     163.624E-03     512.938E-03    -152.405E-03    -165.277E-03    -161.524E-03     512.304E-03    -155.525E-03     451.034E-06     578.867E-03    -289.245E-03    -290.942E-03    -290.908E-03     578.866E-03    -289.278E-03    -415.481E-06    -77.6157E+06    -122.868E+06    -222.657E+06    -122.924E+06    -222.601E+06    -77.6157E+06     1.47299E+06         66.2892
            1792     4.49055E-03     163.609E-03     514.031E-03    -155.226E-03    -162.135E-03    -160.049E-03     513.226E-03    -156.506E-03     12.2059E-03     581.741E-03    -289.430E-03    -290.972E-03    -290.969E-03     581.738E-03    -289.430E-03     2.43878E-03    -55.1491E+06    -112.436E+06    -195.913E+06    -112.454E+06    -195.894E+06    -55.1491E+06     1.00711E+06         66.4572
            1793     5.23723E-03     163.613E-03     508.630E-03    -148.488E-03    -162.303E-03    -153.819E-03     508.260E-03    -156.602E-03     4.05382E-03     583.220E-03    -290.093E-03    -291.259E-03    -291.121E-03     583.205E-03    -290.216E-03     6.66822E-03    -34.7514E+06    -101.759E+06    -168.860E+06    -101.816E+06    -168.803E+06    -34.7514E+06     716.276E+03         66.5108
            1794     5.98384E-03     163.623E-03     503.971E-03    -142.118E-03    -160.374E-03    -146.625E-03     503.879E-03    -155.775E-03    -1.42389E-03     581.728E-03    -290.005E-03    -292.119E-03    -290.554E-03     581.687E-03    -291.528E-03     11.6450E-03    -16.9193E+06    -91.2480E+06    -135.731E+06    -91.3677E+06    -135.612E+06    -16.9193E+06     1.38748E+06         66.5305
            1795     6.73261E-03     163.629E-03     503.520E-03    -144.309E-03    -156.712E-03    -146.321E-03     503.503E-03    -154.683E-03     1.83932E-03     578.529E-03    -289.322E-03    -291.079E-03    -289.228E-03     578.435E-03    -291.079E-03     17.6915E-03     553.418E+03    -81.2847E+06    -101.387E+06    -82.0044E+06    -100.667E+06     553.418E+03     2.03936E+06         66.7456
            1796     7.48224E-03     163.640E-03     501.929E-03    -144.985E-03    -153.840E-03    -145.079E-03     501.881E-03    -153.698E-03    -4.19930E-03     578.285E-03    -289.246E-03    -290.854E-03    -289.069E-03     578.108E-03    -290.854E-03     24.5154E-03     18.1238E+06    -60.8736E+06    -76.1473E+06    -71.7956E+06    -65.2253E+06     18.1238E+06     3.17112E+06         67.1862
            1797     8.23002E-03     163.683E-03     496.203E-03    -141.371E-03    -152.585E-03    -141.101E-03     495.933E-03    -152.585E-03     6.83439E-03     579.917E-03    -289.311E-03    -291.520E-03    -289.013E-03     579.619E-03    -291.520E-03     31.9551E-03     35.7125E+06    -15.6465E+06    -62.4919E+06    -61.0961E+06    -17.0422E+06     35.7125E+06     7.26663E+06         67.7257
            1798     8.97838E-03     163.725E-03     493.265E-03    -138.892E-03    -151.319E-03    -138.257E-03     492.631E-03    -151.319E-03    -4.71337E-03     579.613E-03    -289.711E-03    -290.822E-03    -289.250E-03     579.127E-03    -290.797E-03     40.7700E-03     61.0036E+06     41.6495E+06    -52.9355E+06    -51.0086E+06      43.698E+06     57.0283E+06     13.5753E+06         68.3458
            1799     9.72726E-03     163.785E-03     495.233E-03    -139.858E-03    -151.406E-03    -140.501E-03     494.613E-03    -150.142E-03    -11.5606E-03     579.149E-03    -289.545E-03    -289.891E-03    -288.825E-03     578.404E-03    -289.867E-03     50.5816E-03     88.6201E+06     76.7909E+06    -43.9741E+06    -41.8343E+06     86.4803E+06     76.7909E+06     16.1845E+06         69.4161
            1800     10.4760E-03     163.876E-03     493.725E-03    -141.552E-03    -153.437E-03    -145.479E-03     493.490E-03    -149.275E-03     342.283E-06     579.219E-03    -289.153E-03    -290.113E-03    -288.038E-03     578.104E-03    -290.113E-03     61.8433E-03     95.4302E+06     85.4577E+06    -35.3320E+06    -34.1769E+06     92.1565E+06     87.5763E+06     10.9571E+06         71.5420
            1801     11.2260E-03     163.957E-03     488.289E-03    -138.051E-03    -151.351E-03    -140.889E-03     488.229E-03    -148.452E-03     3.06196E-03     578.212E-03    -288.714E-03    -290.522E-03    -287.231E-03     576.729E-03    -290.522E-03     71.5626E-03     100.231E+06     91.1968E+06    -26.6772E+06    -26.3971E+06     90.9167E+06     100.231E+06     5.61217E+06         74.9452
            1802     11.9799E-03     164.040E-03     486.443E-03    -136.431E-03    -150.118E-03    -139.106E-03     486.325E-03    -147.324E-03     8.61689E-03     578.018E-03    -288.829E-03    -289.911E-03    -286.413E-03     575.602E-03    -289.911E-03     90.1272E-03     118.705E+06     109.207E+06    -18.0036E+06    -17.8704E+06     109.073E+06     118.705E+06     3.61786E+06         79.0504
            1803     12.7279E-03     164.231E-03     483.295E-03    -139.209E-03    -148.847E-03    -141.899E-03     483.191E-03    -146.054E-03     2.96898E-03     578.136E-03    -288.842E-03    -289.570E-03    -286.072E-03     575.366E-03    -289.570E-03     97.5453E-03     130.579E+06     126.617E+06    -8.35980E+06    -8.28809E+06     126.545E+06     130.579E+06     2.06184E+06         82.6116
            1804     750.906E-06     165.688E-03     507.045E-03    -134.613E-03    -192.233E-03    -154.910E-03     502.276E-03    -167.168E-03    -52.8017E-03     573.458E-03    -285.824E-03    -287.627E-03    -286.005E-03     573.457E-03    -287.445E-03     1.22615E-03    -150.807E+06    -157.929E+06    -309.215E+06    -156.046E+06    -309.146E+06    -152.760E+06     32.7281E+03         65.4834
            1805     1.50088E-03     165.535E-03     497.941E-03    -145.340E-03    -167.129E-03    -152.589E-03     497.287E-03    -159.226E-03     3.63477E-03     573.996E-03    -286.825E-03    -287.570E-03    -287.382E-03     573.995E-03    -287.013E-03     812.531E-06    -142.650E+06    -151.999E+06    -290.202E+06    -152.090E+06    -290.112E+06    -142.650E+06    -1.03710E+06         65.5464
            1806     2.25029E-03     165.458E-03     483.542E-03    -140.875E-03    -155.451E-03    -140.320E-03     482.986E-03    -155.451E-03    -12.6825E-03     575.328E-03    -287.350E-03    -288.474E-03    -288.369E-03     575.327E-03    -287.454E-03     1.15455E-03    -125.528E+06    -144.845E+06    -270.493E+06    -144.885E+06    -270.452E+06    -125.528E+06    -623.865E+03         65.6496
            1807     2.99897E-03     165.408E-03     470.808E-03    -135.887E-03    -151.151E-03    -135.402E-03     470.323E-03    -151.151E-03    -3.64830E-03     576.280E-03    -287.882E-03    -288.597E-03    -288.562E-03     576.278E-03    -287.916E-03     1.88110E-03    -103.054E+06    -136.279E+06    -246.733E+06      -136.3E+06    -246.712E+06    -103.054E+06    -734.593E+03         65.8229
            1808     3.74688E-03     165.377E-03     468.911E-03    -134.320E-03    -148.458E-03    -134.023E-03     468.032E-03    -147.876E-03    -4.68285E-03     575.843E-03    -288.246E-03    -289.533E-03    -289.493E-03     575.836E-03    -288.280E-03     3.76428E-03    -80.7460E+06    -126.756E+06    -221.326E+06    -126.812E+06    -221.269E+06    -80.7460E+06    -1.52254E+06         66.0776
            1809     4.49522E-03     165.361E-03     469.923E-03    -135.761E-03    -146.211E-03    -134.752E-03     468.332E-03    -145.629E-03    -4.93386E-03     577.689E-03    -288.528E-03    -290.367E-03    -290.352E-03     577.675E-03    -288.528E-03     6.31348E-03    -59.1704E+06    -116.288E+06    -195.407E+06    -116.376E+06     -195.32E+06    -59.1704E+06    -1.57781E+06         66.3223
            1810     5.24345E-03     165.358E-03     473.642E-03    -136.497E-03    -146.987E-03    -138.207E-03     472.641E-03    -144.275E-03    -351.489E-06     581.375E-03    -288.668E-03    -290.885E-03    -290.854E-03     581.344E-03    -288.668E-03     9.91645E-03    -37.5318E+06    -105.318E+06    -169.144E+06    -105.378E+06    -169.084E+06    -37.5318E+06    -1.45282E+06         66.4122
            1811     5.99139E-03     165.375E-03     482.140E-03    -140.267E-03    -150.117E-03    -146.297E-03     481.972E-03    -143.920E-03     17.0969E-03     580.302E-03    -289.125E-03    -291.391E-03    -290.805E-03     580.235E-03    -289.644E-03     14.9068E-03    -18.1642E+06    -94.5240E+06    -137.828E+06    -94.5974E+06    -137.755E+06    -18.1642E+06    -938.599E+03         66.4479
            1812     6.73859E-03     165.388E-03     484.398E-03    -140.634E-03    -151.705E-03    -147.959E-03     484.203E-03    -144.185E-03     18.0623E-03     577.796E-03    -289.416E-03    -290.579E-03    -289.822E-03     577.669E-03    -290.046E-03     20.6656E-03    -74.5858E+03    -83.5364E+06    -103.551E+06    -84.1864E+06    -102.901E+06    -74.5858E+03     693.107E+03         66.6643
            1813     7.48671E-03     165.404E-03     480.884E-03    -137.911E-03    -149.229E-03    -142.847E-03     480.780E-03    -144.188E-03     3.90959E-03     578.393E-03    -289.148E-03    -290.801E-03    -289.313E-03     578.178E-03    -290.422E-03     27.0120E-03     17.3595E+06    -64.6731E+06    -78.8455E+06    -74.6084E+06    -68.9102E+06     17.3595E+06     2.00392E+06         67.0756
            1814     8.23470E-03     165.446E-03     477.726E-03    -139.552E-03    -145.440E-03    -141.026E-03     477.541E-03    -143.781E-03     3.48985E-03     578.944E-03    -289.289E-03    -290.887E-03    -288.943E-03     578.597E-03    -290.887E-03     34.3454E-03     32.6592E+06    -27.7468E+06    -66.1905E+06    -65.6337E+06    -28.3036E+06     32.6592E+06     3.43137E+06         67.6137
            1815     8.98425E-03     165.489E-03     472.635E-03    -137.261E-03    -144.062E-03    -137.533E-03     472.012E-03    -143.168E-03    -1.34880E-03     578.828E-03    -289.546E-03    -290.180E-03    -289.001E-03     578.283E-03    -290.180E-03     43.1948E-03     50.9692E+06     26.1049E+06    -55.5352E+06    -54.5128E+06     26.5900E+06     49.4617E+06     8.21596E+06         68.2652
            1816     9.73446E-03     165.541E-03     465.091E-03    -128.798E-03    -142.346E-03    -128.379E-03     464.430E-03    -142.105E-03    -7.44884E-03     578.469E-03    -289.263E-03    -289.976E-03    -288.859E-03     577.653E-03    -289.563E-03     52.9741E-03     86.0033E+06     67.2549E+06    -43.8990E+06    -42.3567E+06     82.9409E+06     68.7750E+06     13.0620E+06         69.3728
            1817     10.4829E-03     165.629E-03     458.236E-03    -126.072E-03    -140.663E-03    -125.850E-03     458.014E-03    -140.663E-03    -4.72264E-03     578.430E-03    -289.154E-03    -290.086E-03    -288.491E-03     577.237E-03    -289.555E-03     64.0379E-03     105.461E+06     84.1927E+06    -33.4599E+06    -32.1064E+06     104.009E+06     84.2911E+06     12.2316E+06         71.5501
            1818     11.2332E-03     165.712E-03     456.199E-03    -127.592E-03    -139.323E-03    -127.472E-03     456.079E-03    -139.323E-03    -6.11510E-03     578.521E-03    -289.304E-03    -290.298E-03    -288.057E-03     576.977E-03    -290.002E-03     73.0831E-03     105.990E+06     95.8439E+06    -24.4360E+06    -23.8549E+06     100.712E+06     100.541E+06     7.69680E+06         75.0161
            1819     11.9859E-03     165.792E-03     455.729E-03    -124.359E-03    -140.835E-03    -127.011E-03     455.588E-03    -138.042E-03     5.30148E-03     579.152E-03    -289.302E-03    -290.395E-03    -287.547E-03     576.715E-03    -289.714E-03     90.7312E-03     119.983E+06     111.858E+06    -16.2460E+06    -16.0958E+06     111.707E+06     119.983E+06     3.88784E+06         79.1787
            1820     12.7368E-03     165.977E-03     454.710E-03    -126.996E-03    -139.429E-03    -129.721E-03     454.642E-03    -136.636E-03     2.26864E-03     578.884E-03    -288.953E-03    -289.942E-03    -286.742E-03     576.169E-03    -289.438E-03     96.5470E-03     133.999E+06     128.603E+06    -7.30831E+06    -7.26243E+06     128.557E+06     133.999E+06     1.55618E+06         82.7765
            1821     752.186E-06     167.450E-03     455.145E-03    -110.747E-03    -176.207E-03    -107.999E-03     449.854E-03    -173.665E-03    -47.2498E-03     568.307E-03    -283.527E-03    -285.101E-03    -283.564E-03     568.304E-03    -285.061E-03     2.70045E-03    -154.881E+06    -161.161E+06    -307.379E+06    -159.248E+06    -307.340E+06    -156.834E+06    -465.915E+03         65.0844
            1822     1.50447E-03     167.297E-03     450.173E-03    -133.757E-03    -144.239E-03    -135.645E-03     449.519E-03    -141.697E-03     4.17157E-03     568.710E-03    -284.452E-03    -284.791E-03    -284.600E-03     568.707E-03    -284.640E-03     2.96886E-03    -145.645E+06    -155.618E+06    -287.574E+06    -155.673E+06    -287.519E+06    -145.645E+06    -778.508E+03         65.1621
            1823     2.25590E-03     167.218E-03     456.641E-03    -139.286E-03    -144.468E-03    -141.743E-03     456.077E-03    -141.448E-03    -11.2188E-03     569.992E-03    -284.914E-03    -286.061E-03    -285.948E-03     569.983E-03    -285.018E-03     4.73643E-03    -128.929E+06    -149.682E+06    -268.441E+06    -149.759E+06    -268.364E+06    -128.929E+06    -2.46143E+06         65.2808
            1824     3.00573E-03     167.169E-03     454.705E-03    -135.894E-03    -144.643E-03    -138.494E-03     454.233E-03    -141.572E-03    -6.65976E-03     572.462E-03    -285.655E-03    -286.873E-03    -286.858E-03     572.446E-03    -285.655E-03     6.59682E-03    -107.522E+06    -140.350E+06    -244.810E+06    -140.469E+06    -244.690E+06    -107.522E+06    -3.13951E+06         65.4682
            1825     3.75502E-03     167.143E-03     443.442E-03    -127.895E-03    -140.081E-03    -126.923E-03     442.420E-03    -140.030E-03    -6.02571E-03     572.978E-03    -286.184E-03    -288.213E-03    -288.186E-03     572.950E-03    -286.184E-03     9.12603E-03    -85.0749E+06    -130.777E+06    -218.557E+06    -130.914E+06    -218.420E+06    -85.0749E+06    -3.22961E+06         65.7457
            1826     4.50390E-03     167.127E-03     439.798E-03    -126.089E-03    -137.655E-03    -124.432E-03     438.140E-03    -137.655E-03    -6.47686E-03     574.182E-03    -286.697E-03    -289.644E-03    -289.597E-03     574.135E-03    -286.697E-03     12.3185E-03    -63.3416E+06    -120.607E+06    -193.736E+06    -120.834E+06    -193.509E+06    -63.3416E+06    -3.83364E+06         66.0723
            1827     5.25204E-03     167.126E-03     439.227E-03    -123.990E-03    -135.651E-03    -123.106E-03     438.343E-03    -135.651E-03    -6.43496E-03     578.034E-03    -287.074E-03    -290.544E-03    -290.468E-03     577.959E-03    -287.074E-03     15.6764E-03    -42.2483E+06    -109.736E+06    -167.507E+06    -110.207E+06    -167.036E+06    -42.2483E+06    -4.44222E+06         66.2895
            1828     6.00018E-03     167.129E-03     437.426E-03    -119.974E-03    -135.540E-03    -121.361E-03     437.215E-03    -133.942E-03     7.52562E-03     578.015E-03    -287.538E-03    -290.927E-03    -290.804E-03     577.892E-03    -287.538E-03     20.1849E-03    -21.9040E+06    -99.0180E+06    -138.661E+06    -99.6609E+06    -138.018E+06    -21.9040E+06    -4.27948E+06         66.4204
            1829     6.74846E-03     167.139E-03     442.479E-03    -123.401E-03    -138.508E-03    -128.778E-03     442.223E-03    -132.875E-03     11.6035E-03     577.192E-03    -288.183E-03    -290.543E-03    -290.348E-03     576.998E-03    -288.183E-03     25.6398E-03    -3.08074E+06    -86.7991E+06    -108.371E+06    -88.1390E+06    -107.031E+06    -3.08074E+06    -3.16495E+06         66.6312
            1830     7.49670E-03     167.156E-03     447.540E-03    -127.842E-03    -137.564E-03    -132.798E-03     447.455E-03    -132.523E-03     6.83624E-03     578.374E-03    -288.814E-03    -290.517E-03    -289.803E-03     578.083E-03    -289.237E-03     31.5431E-03     14.6023E+06    -67.0820E+06    -82.4326E+06    -76.4812E+06    -73.0335E+06     14.6023E+06    -894.941E+03         66.9664
            1831     8.24460E-03     167.198E-03     445.857E-03    -130.623E-03    -134.072E-03    -132.238E-03     445.661E-03    -132.262E-03     12.3148E-03     578.201E-03    -289.252E-03    -290.384E-03    -289.492E-03     577.771E-03    -289.715E-03     38.3917E-03     31.9680E+06    -32.6398E+06    -65.9237E+06    -65.5119E+06    -33.0516E+06     31.9680E+06     1.19349E+06         67.4827
            1832     8.99337E-03     167.251E-03     443.469E-03    -131.961E-03    -133.957E-03    -133.604E-03     443.116E-03    -131.961E-03     13.3890E-03     578.401E-03    -289.223E-03    -290.504E-03    -289.781E-03     577.785E-03    -289.331E-03     46.0522E-03     46.8874E+06     14.8889E+06    -56.1570E+06    -55.8095E+06     14.5414E+06     46.8874E+06     3.89790E+06         68.1931
            1833     9.74253E-03     167.305E-03     441.199E-03    -126.550E-03    -135.593E-03    -130.248E-03     440.848E-03    -131.543E-03     1.22516E-03     578.594E-03    -288.891E-03    -290.803E-03    -289.868E-03     577.727E-03    -288.960E-03     54.6574E-03     80.3965E+06     56.0994E+06    -47.2643E+06    -46.7519E+06     73.6573E+06     62.3262E+06     7.26941E+06         69.3778
            1834     10.4915E-03     167.387E-03     438.587E-03    -124.072E-03    -136.473E-03    -129.390E-03     438.373E-03    -130.940E-03     1.17267E-03     578.394E-03    -288.661E-03    -290.656E-03    -289.434E-03     577.172E-03    -288.661E-03     64.8913E-03     107.038E+06     76.5030E+06    -36.6078E+06    -35.9124E+06     106.342E+06     76.5030E+06     6.97764E+06         71.6266
            1835     11.2412E-03     167.477E-03     435.518E-03    -126.188E-03    -133.298E-03    -129.060E-03     435.436E-03    -130.346E-03    -3.48960E-03     579.138E-03    -289.271E-03    -290.831E-03    -289.290E-03     577.596E-03    -289.271E-03     73.1224E-03     109.518E+06     95.0619E+06    -25.3736E+06    -24.7402E+06     106.945E+06     97.0012E+06     6.07152E+06         75.1680
            1836     11.9926E-03     167.559E-03     427.277E-03    -118.897E-03    -129.720E-03    -119.109E-03     427.212E-03    -129.443E-03    -6.14014E-03     580.723E-03    -289.388E-03    -292.046E-03    -289.672E-03     578.349E-03    -289.388E-03     89.8324E-03     122.517E+06     116.229E+06    -15.5008E+06    -15.2667E+06     117.707E+06     120.804E+06     4.92053E+06         79.3922
            1837     12.7385E-03     167.732E-03     422.330E-03    -115.392E-03    -128.052E-03    -115.364E-03     422.303E-03    -128.052E-03    -863.654E-06     580.064E-03    -289.129E-03    -291.579E-03    -288.859E-03     577.453E-03    -289.237E-03     94.8718E-03     137.637E+06     131.643E+06    -7.38239E+06    -7.33363E+06     133.254E+06     135.976E+06     2.08821E+06         83.0151
            1838     755.322E-06     169.184E-03     375.119E-03    -67.8434E-03    -148.203E-03    -69.4145E-03     370.111E-03    -141.623E-03    -15.1103E-03     560.598E-03    -279.984E-03    -281.142E-03    -280.013E-03     560.588E-03    -281.102E-03     5.50588E-03    -158.968E+06    -166.462E+06    -303.154E+06    -164.195E+06    -303.128E+06    -161.260E+06    -1.64956E+06         64.5919
            1839     1.50914E-03     169.018E-03     398.163E-03    -111.086E-03    -125.213E-03    -123.905E-03     397.322E-03    -111.553E-03     27.3277E-03     562.241E-03    -281.211E-03    -281.390E-03    -281.346E-03     562.225E-03    -281.238E-03     6.88175E-03    -148.524E+06    -158.675E+06    -284.290E+06    -158.724E+06    -284.242E+06    -148.524E+06    -1.99080E+06         64.7066
            1840     2.26299E-03     168.932E-03     411.174E-03    -117.918E-03    -132.095E-03    -131.414E-03     410.960E-03    -118.384E-03     14.4164E-03     563.483E-03    -281.771E-03    -282.659E-03    -282.619E-03     563.452E-03    -281.780E-03     9.66266E-03    -130.843E+06    -151.890E+06    -262.423E+06    -151.998E+06    -262.316E+06    -130.843E+06    -2.93665E+06         64.8488
            1841     3.01658E-03     168.897E-03     420.038E-03    -122.578E-03    -134.119E-03    -133.658E-03     419.577E-03    -122.578E-03     681.911E-06     566.375E-03    -282.394E-03    -284.023E-03    -283.971E-03     566.323E-03    -282.394E-03     12.7312E-03    -110.084E+06    -143.835E+06    -240.386E+06    -144.114E+06    -240.107E+06    -110.084E+06    -4.88706E+06         65.0327
            1842     3.76707E-03     168.886E-03     424.623E-03    -123.214E-03    -134.305E-03    -131.758E-03     423.775E-03    -124.912E-03     335.562E-06     568.771E-03    -283.114E-03    -286.348E-03    -286.269E-03     568.692E-03    -283.114E-03     15.8449E-03    -87.5395E+06    -133.409E+06    -215.122E+06    -133.951E+06    -214.580E+06    -87.5395E+06    -5.96750E+06         65.2964
            1843     4.51696E-03     168.879E-03     424.420E-03    -122.911E-03    -131.919E-03    -128.196E-03     423.675E-03    -125.889E-03     17.4902E-03     570.904E-03    -284.082E-03    -288.485E-03    -288.371E-03     570.790E-03    -284.082E-03     19.2765E-03    -64.0765E+06    -122.314E+06    -190.294E+06    -123.108E+06    -189.499E+06    -64.0765E+06    -6.62085E+06         65.6697
            1844     5.26593E-03     168.885E-03     422.795E-03    -120.884E-03    -131.042E-03    -125.687E-03     422.604E-03    -126.048E-03     9.54895E-03     574.084E-03    -284.835E-03    -290.082E-03    -289.932E-03     573.933E-03    -284.835E-03     22.5117E-03    -42.6892E+06    -110.887E+06    -164.278E+06    -112.101E+06    -163.065E+06    -42.6892E+06    -7.63229E+06         66.0284
            1845     6.01383E-03     168.893E-03     415.283E-03    -115.268E-03    -130.192E-03    -119.768E-03     415.174E-03    -125.583E-03     2.03672E-03     575.230E-03    -285.011E-03    -291.211E-03    -291.004E-03     575.023E-03    -285.011E-03     26.5009E-03    -23.1266E+06    -98.8415E+06    -137.827E+06    -100.495E+06    -136.174E+06    -23.1266E+06    -7.68297E+06         66.3137
            1846     6.76146E-03     168.908E-03     402.453E-03    -108.900E-03    -125.503E-03    -109.966E-03     402.355E-03    -124.340E-03     1.27827E-03     576.710E-03    -285.764E-03    -291.321E-03    -291.034E-03     576.423E-03    -285.764E-03     31.3631E-03    -5.38306E+06    -86.5782E+06    -111.019E+06    -89.6924E+06    -107.905E+06    -5.38306E+06    -7.31535E+06         66.5865
            1847     7.50976E-03     168.921E-03     398.190E-03    -107.365E-03    -122.686E-03    -107.264E-03     398.089E-03    -122.686E-03    -5.52063E-03     578.059E-03    -287.140E-03    -291.218E-03    -290.835E-03     577.676E-03    -287.140E-03     36.2942E-03     11.4472E+06    -68.0311E+06    -86.8516E+06    -79.0443E+06    -75.8384E+06     11.4472E+06    -7.13115E+06         66.9213
            1848     8.25704E-03     168.956E-03     402.272E-03    -113.245E-03    -121.537E-03    -113.246E-03     402.123E-03    -121.387E-03    -6.73854E-03     578.124E-03    -287.835E-03    -291.702E-03    -291.191E-03     577.613E-03    -287.835E-03     41.9953E-03     28.9766E+06    -38.4474E+06    -69.2074E+06    -66.9336E+06    -40.7212E+06     28.9766E+06    -4.66107E+06         67.4684
            1849     9.00427E-03     169.007E-03     405.023E-03    -116.124E-03    -121.711E-03    -117.066E-03     404.863E-03    -120.610E-03    -3.65992E-03     579.469E-03    -288.344E-03    -292.279E-03    -291.594E-03     578.784E-03    -288.344E-03     48.7140E-03     46.2171E+06     5.40170E+06    -55.7378E+06    -54.9761E+06     4.64000E+06     46.2171E+06    -190.696E+03         68.2391
            1850     9.75164E-03     169.066E-03     410.102E-03    -117.251E-03    -123.930E-03    -120.632E-03     409.675E-03    -120.121E-03    -195.859E-06     580.052E-03    -288.201E-03    -292.176E-03    -291.253E-03     579.129E-03    -288.201E-03     56.5343E-03     79.3003E+06     53.8722E+06    -43.8295E+06    -43.6306E+06     67.9278E+06     65.0457E+06     3.62726E+06         69.4865
            1851     10.4988E-03     169.142E-03     414.087E-03    -119.628E-03    -125.813E-03    -125.258E-03     413.747E-03    -119.843E-03     9.19198E-03     579.982E-03    -287.793E-03    -292.374E-03    -291.115E-03     578.723E-03    -287.793E-03     66.0229E-03     109.901E+06     78.4272E+06    -35.5911E+06    -35.0605E+06     109.370E+06     78.4272E+06     5.12124E+06         71.7969
            1852     11.2471E-03     169.233E-03     411.884E-03    -119.653E-03    -126.640E-03    -126.610E-03     411.854E-03    -119.653E-03     7.85200E-03     580.731E-03    -288.764E-03    -292.573E-03    -290.982E-03     579.140E-03    -288.764E-03     74.3886E-03     112.340E+06     93.2214E+06    -28.4501E+06    -27.5798E+06     111.470E+06     93.2214E+06     1.30752E+06         75.4064
            1853     11.9951E-03     169.339E-03     412.313E-03    -118.811E-03    -129.309E-03    -128.599E-03     412.226E-03    -119.433E-03     6.92405E-03     581.689E-03    -288.961E-03    -293.526E-03    -291.034E-03     579.198E-03    -288.961E-03     92.0787E-03     118.652E+06     114.936E+06    -18.9387E+06    -18.1453E+06     117.702E+06     115.092E+06     2.29844E+06         79.6843
            1854     12.7468E-03     169.451E-03     405.951E-03    -115.436E-03    -127.777E-03    -124.201E-03     405.862E-03    -118.923E-03     6.74635E-03     581.441E-03    -288.764E-03    -293.694E-03    -290.921E-03     578.668E-03    -288.764E-03     97.9469E-03     137.653E+06     133.919E+06    -9.14637E+06    -8.86386E+06     135.297E+06     135.993E+06     3.66260E+06         83.3086
            1855     759.789E-06     170.949E-03     378.879E-03    -81.9458E-03    -138.168E-03    -83.0036E-03     374.303E-03    -132.535E-03    -27.3877E-03     551.487E-03    -275.441E-03    -276.138E-03    -275.425E-03     551.471E-03    -276.138E-03     7.16819E-03    -161.114E+06    -169.727E+06    -295.369E+06    -167.530E+06    -295.274E+06    -163.406E+06    -2.71098E+06         63.8336
            1856     1.51766E-03     170.766E-03     367.867E-03    -96.4113E-03    -116.610E-03    -106.326E-03     366.662E-03    -105.492E-03     6.76112E-03     554.218E-03    -276.948E-03    -277.242E-03    -277.081E-03     554.180E-03    -277.071E-03     10.9595E-03    -150.189E+06    -161.411E+06    -278.638E+06    -161.576E+06    -278.473E+06    -150.189E+06    -4.02823E+06         64.0054
            1857     2.27352E-03     170.683E-03     374.620E-03    -103.059E-03    -116.838E-03    -113.147E-03     374.016E-03    -106.147E-03    -1.05349E-03     556.017E-03    -277.986E-03    -278.856E-03    -278.774E-03     555.943E-03    -277.995E-03     15.2546E-03    -132.507E+06    -154.045E+06    -257.220E+06    -154.269E+06    -256.995E+06    -132.507E+06    -4.61852E+06         64.2155
            1858     3.02877E-03     170.644E-03     387.923E-03    -107.518E-03    -121.349E-03    -119.761E-03     387.515E-03    -108.697E-03    -2.88881E-03     558.681E-03    -278.657E-03    -280.908E-03    -280.792E-03     558.565E-03    -278.657E-03     19.3085E-03    -109.276E+06    -145.351E+06    -232.779E+06    -145.758E+06    -232.372E+06    -109.276E+06    -5.66532E+06         64.4508
            1859     3.78361E-03     170.627E-03     399.200E-03    -111.676E-03    -127.474E-03    -127.149E-03     398.875E-03    -111.676E-03    -18.4130E-03     562.462E-03    -279.225E-03    -283.976E-03    -283.816E-03     562.302E-03    -279.225E-03     22.9611E-03    -85.5662E+06    -134.972E+06    -207.981E+06    -135.886E+06    -207.068E+06    -85.5662E+06    -7.86323E+06         64.7293
            1860     4.53488E-03     170.603E-03     396.651E-03    -112.338E-03    -122.102E-03    -120.482E-03     396.490E-03    -113.797E-03    -15.7396E-03     565.994E-03    -280.278E-03    -286.735E-03    -286.521E-03     565.781E-03    -280.278E-03     26.6647E-03    -62.8982E+06    -123.021E+06    -184.337E+06    -124.709E+06    -182.649E+06    -62.8982E+06    -9.75099E+06         65.1262
            1861     5.28374E-03     170.604E-03     387.035E-03    -106.443E-03    -119.114E-03    -111.306E-03     386.905E-03    -114.120E-03    -7.40233E-03     569.685E-03    -281.568E-03    -289.206E-03    -288.929E-03     569.407E-03    -281.568E-03     30.4248E-03    -42.3880E+06    -111.373E+06    -161.052E+06    -113.873E+06    -158.553E+06    -42.3880E+06    -10.4899E+06         65.6043
            1862     6.03142E-03     170.626E-03     382.788E-03    -106.587E-03    -118.256E-03    -111.126E-03     382.719E-03    -113.648E-03     3.32707E-03     572.263E-03    -282.160E-03    -291.869E-03    -291.532E-03     571.926E-03    -282.160E-03     33.7835E-03    -23.3367E+06    -98.4880E+06    -136.713E+06    -103.021E+06    -132.180E+06    -23.3367E+06    -11.2814E+06         66.0501
            1863     6.77864E-03     170.655E-03     382.740E-03    -106.507E-03    -120.200E-03    -113.071E-03     382.420E-03    -113.316E-03     13.7060E-03     575.766E-03    -282.963E-03    -293.152E-03    -292.751E-03     575.364E-03    -282.963E-03     37.1919E-03    -5.03439E+06    -82.9554E+06    -112.544E+06    -90.8667E+06    -104.633E+06    -5.03439E+06    -12.0917E+06         66.4315
            1864     7.52727E-03     170.657E-03     379.995E-03    -102.294E-03    -119.523E-03    -108.502E-03     379.613E-03    -112.933E-03     9.99520E-03     578.261E-03    -284.371E-03    -293.469E-03    -292.985E-03     577.777E-03    -284.371E-03     40.9753E-03     12.0259E+06    -62.8333E+06    -90.2404E+06    -78.6768E+06     -74.397E+06     12.0259E+06    -12.1578E+06         66.8736
            1865     8.27524E-03     170.665E-03     376.089E-03    -104.902E-03    -113.102E-03    -105.535E-03     375.851E-03    -112.232E-03     1.60794E-03     578.704E-03    -285.713E-03    -294.282E-03    -293.678E-03     578.099E-03    -285.713E-03     45.8167E-03     27.5803E+06    -39.3557E+06    -73.2533E+06    -68.1972E+06    -44.4119E+06     27.5803E+06    -11.5607E+06         67.5397
            1866     9.02034E-03     170.716E-03     376.760E-03    -106.143E-03    -111.594E-03    -106.094E-03     376.572E-03    -111.456E-03     1.22050E-03     580.756E-03    -287.230E-03    -294.581E-03    -293.801E-03     579.976E-03    -287.230E-03     52.1000E-03     42.6610E+06    -3.53341E+06    -59.5139E+06    -57.0624E+06    -5.98487E+06     42.6610E+06    -8.43509E+06         68.3846
            1867     9.76527E-03     170.786E-03     376.838E-03    -105.058E-03    -110.824E-03    -104.527E-03     376.169E-03    -110.685E-03    -4.32745E-03     581.463E-03    -287.281E-03    -294.061E-03    -293.046E-03     580.448E-03    -287.281E-03     59.4281E-03     70.7120E+06     46.1343E+06    -46.4978E+06    -45.7436E+06     54.9316E+06     61.1606E+06    -2.51674E+06         69.6773
            1868     10.5128E-03     170.860E-03     374.812E-03    -105.006E-03    -110.331E-03    -104.727E-03     374.096E-03    -109.894E-03    -6.48349E-03     581.368E-03    -286.838E-03    -294.460E-03    -293.089E-03     579.998E-03    -286.838E-03     68.9906E-03     108.108E+06     75.1038E+06    -35.4267E+06    -35.0844E+06     107.766E+06     75.1038E+06     3.37429E+06         72.0429
            1869     11.2595E-03     170.953E-03     376.753E-03    -106.166E-03    -113.314E-03    -110.052E-03     376.603E-03    -109.279E-03    -7.80743E-03     582.034E-03    -287.971E-03    -294.231E-03    -292.506E-03     580.309E-03    -287.971E-03     77.6062E-03     120.733E+06     90.9760E+06    -27.4686E+06    -26.4766E+06     119.741E+06     90.9760E+06     2.77296E+06         75.7152
            1870     12.0086E-03     171.065E-03     374.870E-03    -101.478E-03    -118.316E-03    -110.916E-03     374.711E-03    -108.718E-03    -1.57434E-03     582.491E-03    -288.311E-03    -294.498E-03    -291.855E-03     579.848E-03    -288.311E-03     95.0520E-03     119.879E+06     111.663E+06    -20.5854E+06    -19.3539E+06     118.491E+06     111.819E+06    -324.082E+03         80.0202
            1871     12.7544E-03     171.256E-03     368.280E-03    -96.6679E-03    -116.535E-03    -105.383E-03     368.140E-03    -107.681E-03    -1.02217E-03     582.893E-03    -288.253E-03    -295.304E-03    -292.403E-03     579.992E-03    -288.253E-03     100.346E-03     136.691E+06     131.601E+06    -10.8022E+06    -10.2246E+06     132.778E+06     134.936E+06     18.5839E+03         83.6175
            1872     763.548E-06     172.633E-03     382.522E-03    -96.7866E-03    -131.994E-03    -118.326E-03     376.027E-03    -103.960E-03    -1.85788E-03     539.560E-03    -268.830E-03    -270.443E-03    -268.906E-03     539.535E-03    -270.341E-03     8.55783E-03    -160.102E+06    -170.855E+06    -290.313E+06    -168.663E+06    -290.175E+06    -162.432E+06    -671.233E+03         62.9454
            1873     1.52633E-03     172.480E-03     370.035E-03    -100.818E-03    -119.486E-03    -106.476E-03     368.733E-03    -112.525E-03     6.94247E-03     542.260E-03    -270.705E-03    -271.820E-03    -271.658E-03     542.192E-03    -270.800E-03     14.3175E-03    -148.314E+06    -163.999E+06    -271.326E+06    -164.144E+06    -271.181E+06    -148.314E+06    -2.57527E+06         63.1495
            1874     2.28756E-03     172.408E-03     355.621E-03    -95.6921E-03    -108.942E-03    -95.0814E-03     355.010E-03    -108.942E-03    -1.36535E-03     546.227E-03    -271.958E-03    -274.441E-03    -274.308E-03     546.094E-03    -271.958E-03     20.4615E-03    -130.355E+06    -156.927E+06    -250.208E+06    -157.196E+06    -249.940E+06    -130.355E+06    -4.58090E+06         63.4227
            1875     3.04536E-03     172.377E-03     349.497E-03    -86.6670E-03    -109.006E-03    -90.6278E-03     349.275E-03    -104.824E-03     6.78339E-03     550.364E-03    -273.600E-03    -277.883E-03    -277.673E-03     550.153E-03    -273.600E-03     26.0420E-03    -106.252E+06    -146.646E+06    -224.558E+06    -147.275E+06    -223.929E+06    -106.252E+06    -6.68256E+06         63.7484
            1876     3.80066E-03     172.359E-03     346.189E-03    -86.9795E-03    -108.655E-03    -93.3274E-03     346.081E-03    -102.199E-03    -1.03029E-03     555.275E-03    -274.797E-03    -281.425E-03    -281.135E-03     554.986E-03    -274.797E-03     30.7082E-03    -81.2426E+06    -134.765E+06    -199.061E+06    -136.071E+06    -197.755E+06    -81.2426E+06    -8.67286E+06         64.0994
            1877     4.55462E-03     172.364E-03     347.872E-03    -93.7307E-03    -104.719E-03    -97.2910E-03     347.680E-03    -100.967E-03     2.15610E-03     559.664E-03    -275.699E-03    -284.406E-03    -284.038E-03     559.296E-03    -275.699E-03     34.8419E-03    -58.2957E+06    -122.890E+06    -176.273E+06    -125.162E+06    -174.000E+06    -58.2957E+06    -10.5794E+06         64.5397
            1878     5.30583E-03     172.376E-03     350.994E-03    -92.8986E-03    -109.081E-03    -101.249E-03     350.839E-03    -100.576E-03    -164.594E-06     564.218E-03    -277.471E-03    -287.891E-03    -287.446E-03     563.773E-03    -277.471E-03     38.7012E-03    -37.7537E+06    -108.960E+06    -154.839E+06    -113.573E+06    -150.226E+06    -37.7537E+06    -13.0982E+06         65.1148
            1879     6.05384E-03     172.387E-03     352.047E-03    -93.5703E-03    -110.375E-03    -103.280E-03     352.013E-03    -100.631E-03    -1.12599E-03     569.106E-03    -278.878E-03    -292.324E-03    -291.815E-03     568.597E-03    -278.878E-03     41.6892E-03    -19.7100E+06    -92.9119E+06    -132.884E+06    -101.412E+06    -124.384E+06    -19.7100E+06    -15.8505E+06         65.6651
            1880     6.79937E-03     172.412E-03     356.582E-03    -99.4039E-03    -109.445E-03    -107.538E-03     356.281E-03    -101.009E-03     7.01535E-03     574.287E-03    -280.055E-03    -295.246E-03    -294.674E-03     573.715E-03    -280.055E-03     44.3747E-03    -2.98679E+06    -76.3379E+06    -112.323E+06    -90.0441E+06    -98.6166E+06    -2.98679E+06    -17.0236E+06         66.1002
            1881     7.54364E-03     172.444E-03     361.516E-03    -100.893E-03    -111.899E-03    -110.574E-03     360.954E-03    -101.655E-03     2.38314E-03     578.031E-03    -281.780E-03    -296.068E-03    -295.408E-03     577.371E-03    -281.780E-03     47.7639E-03     11.9671E+06    -58.5105E+06    -93.8551E+06    -79.5156E+06      -72.85E+06     11.9671E+06    -16.9199E+06         66.6317
            1882     8.28737E-03     172.495E-03     360.784E-03    -101.280E-03    -108.445E-03    -107.223E-03     360.389E-03    -102.106E-03    -1.53104E-03     579.151E-03    -283.597E-03    -297.177E-03    -296.400E-03     578.374E-03    -283.597E-03     51.9407E-03     27.7156E+06    -35.2630E+06    -76.6857E+06    -68.4367E+06    -43.5120E+06     27.7156E+06    -15.6960E+06         67.4093
            1883     9.03129E-03     172.543E-03     356.133E-03    -101.257E-03    -104.165E-03    -103.145E-03     355.940E-03    -102.084E-03     4.00827E-03     581.831E-03    -285.756E-03    -297.456E-03    -296.528E-03     580.902E-03    -285.756E-03     56.9941E-03     41.6626E+06    -6.06625E+06    -62.6769E+06    -58.4557E+06    -10.2874E+06     41.6626E+06    -14.4390E+06         68.3584
            1884     9.77560E-03     172.598E-03     350.401E-03    -99.0058E-03    -104.811E-03    -101.611E-03     349.958E-03    -101.762E-03    -11.8113E-03     583.323E-03    -286.356E-03    -296.792E-03    -295.654E-03     582.185E-03    -286.356E-03     63.1413E-03     59.7394E+06     34.8170E+06    -50.1663E+06    -48.2207E+06     37.1639E+06     55.4469E+06    -9.55863E+06         69.7651
            1885     10.5194E-03     172.689E-03     343.268E-03    -94.5666E-03    -103.948E-03    -96.7501E-03     342.668E-03    -101.165E-03    -9.40560E-03     582.840E-03    -285.954E-03    -296.835E-03    -295.363E-03     581.367E-03    -285.954E-03     71.7323E-03     100.060E+06     67.1317E+06    -38.3249E+06    -37.9561E+06     97.5985E+06     69.2245E+06    -3.53655E+06         72.2318
            1886     11.2649E-03     172.788E-03     335.116E-03    -89.7284E-03    -100.136E-03    -89.4473E-03     334.835E-03    -100.136E-03    -1.66514E-03     583.861E-03    -287.076E-03    -296.763E-03    -295.002E-03     582.100E-03    -287.076E-03     78.6470E-03     121.089E+06     84.7027E+06    -28.1361E+06    -27.7057E+06     120.658E+06     84.7027E+06     225.760E+03         75.9660
            1887     12.0111E-03     172.902E-03     328.897E-03    -84.5067E-03    -98.6373E-03    -84.4017E-03     328.792E-03    -98.6373E-03    -8.06254E-03     585.369E-03    -287.681E-03    -297.501E-03    -294.925E-03     582.792E-03    -287.681E-03     94.2310E-03     120.932E+06     106.105E+06    -18.5337E+06    -17.7959E+06     120.194E+06     106.105E+06    -1.03500E+06         80.2944
            1888     12.7543E-03     173.090E-03     329.767E-03    -84.4431E-03    -99.2977E-03    -86.6681E-03     329.670E-03    -96.9759E-03    -6.04885E-03     585.657E-03    -288.004E-03    -297.973E-03    -295.212E-03     582.896E-03    -288.004E-03     98.0949E-03     138.931E+06     129.014E+06    -10.0185E+06    -9.68266E+06     133.662E+06     133.947E+06    -2.92495E+06         83.9154
            1889     769.726E-06     174.328E-03     315.594E-03    -63.7208E-03    -116.230E-03    -108.628E-03     310.729E-03    -66.4582E-03     19.9018E-03     525.105E-03    -261.239E-03    -263.606E-03    -261.699E-03     525.059E-03    -263.099E-03     11.3685E-03    -164.506E+06    -174.535E+06    -289.087E+06    -172.290E+06    -289.002E+06    -166.836E+06     290.959E+03         62.1443
            1890     1.53703E-03     174.132E-03     332.887E-03    -86.9236E-03    -106.938E-03    -100.673E-03     331.987E-03    -92.2881E-03     27.0278E-03     528.732E-03    -263.291E-03    -265.472E-03    -265.356E-03     528.616E-03    -263.291E-03     18.6817E-03    -147.667E+06    -163.710E+06    -263.760E+06    -163.806E+06    -263.663E+06    -147.667E+06    -1.84956E+06         62.4017
            1891     2.30265E-03     174.053E-03     331.385E-03    -84.8353E-03    -103.262E-03    -92.3334E-03     331.194E-03    -95.5723E-03     14.0869E-03     534.175E-03    -264.881E-03    -269.328E-03    -269.115E-03     533.961E-03    -264.881E-03     25.7732E-03    -126.003E+06    -154.524E+06    -240.738E+06    -154.797E+06    -240.464E+06    -126.003E+06    -4.33755E+06         62.7487
            1892     3.06569E-03     174.015E-03     314.942E-03    -75.8537E-03    -93.4348E-03    -75.5013E-03     314.589E-03    -93.4348E-03     13.3772E-03     540.336E-03    -267.039E-03    -273.667E-03    -273.336E-03     540.005E-03    -267.039E-03     32.5152E-03    -101.936E+06    -143.974E+06    -214.147E+06    -144.824E+06    -213.297E+06    -101.936E+06    -7.29960E+06         63.1753
            1893     3.82510E-03     174.015E-03     309.215E-03    -74.6654E-03    -91.5265E-03    -75.8614E-03     308.798E-03    -89.9138E-03    -2.47221E-03     546.757E-03    -269.185E-03    -277.814E-03    -277.363E-03     546.306E-03    -269.185E-03     38.3516E-03    -76.6012E+06    -131.440E+06    -190.017E+06    -133.359E+06    -188.098E+06    -76.6012E+06    -10.1463E+06         63.6374
            1894     4.58091E-03     174.033E-03     313.502E-03    -82.1463E-03    -91.2643E-03    -84.6297E-03     312.895E-03    -88.1741E-03    -10.5827E-03     552.254E-03    -270.877E-03    -281.944E-03    -281.385E-03     551.695E-03    -270.877E-03     42.9753E-03    -52.2838E+06    -116.677E+06    -167.197E+06    -120.619E+06    -163.254E+06    -52.2838E+06    -12.9004E+06         64.1396
            1895     5.33202E-03     174.068E-03     323.177E-03    -88.1071E-03    -96.9845E-03    -96.3359E-03     322.779E-03    -88.3578E-03    -6.63060E-03     558.512E-03    -272.838E-03    -287.007E-03    -286.368E-03     557.872E-03    -272.838E-03     46.2891E-03    -31.5093E+06    -100.646E+06    -145.679E+06    -107.682E+06    -138.643E+06    -31.5093E+06    -15.8469E+06         64.7481
            1896     6.08062E-03     174.089E-03     330.409E-03    -89.6059E-03    -102.881E-03    -102.841E-03     330.369E-03    -89.6059E-03    -1.05006E-03     565.655E-03    -274.865E-03    -292.146E-03    -291.432E-03     564.941E-03    -274.865E-03     49.2677E-03    -14.5010E+06    -84.7622E+06    -126.717E+06    -96.5394E+06    -114.940E+06    -14.5010E+06    -18.2724E+06         65.3584
            1897     6.82636E-03     174.126E-03     328.186E-03    -89.9254E-03    -100.454E-03    -99.1792E-03     327.673E-03    -90.6877E-03     11.6471E-03     571.806E-03    -276.532E-03    -296.066E-03    -295.288E-03     571.027E-03    -276.532E-03     51.8476E-03     1.05310E+06    -68.1950E+06    -109.308E+06    -85.8270E+06    -91.6758E+06     1.05310E+06    -19.9690E+06         65.8646
            1898     7.56997E-03     174.164E-03     325.283E-03    -87.9605E-03    -98.3340E-03    -94.3745E-03     324.403E-03    -91.0402E-03     7.99188E-03     576.847E-03    -278.615E-03    -298.628E-03    -297.768E-03     575.986E-03    -278.615E-03     54.7819E-03     16.0657E+06    -50.8793E+06    -92.8731E+06    -75.3207E+06    -68.4317E+06     16.0657E+06    -20.3491E+06         66.4441
            1899     8.31079E-03     174.239E-03     323.920E-03    -87.9458E-03    -96.3498E-03    -92.7024E-03     323.208E-03    -90.8810E-03     5.52725E-03     580.198E-03    -280.878E-03    -300.183E-03    -299.209E-03     579.224E-03    -280.878E-03     58.4818E-03     31.1038E+06    -29.4683E+06    -77.0811E+06    -65.1510E+06    -41.3984E+06     31.1038E+06    -20.0754E+06         67.2375
            1900     9.04983E-03     174.321E-03     319.308E-03    -89.4453E-03    -92.4104E-03    -91.0005E-03     318.921E-03    -90.4682E-03     15.6219E-03     583.155E-03    -283.382E-03    -300.755E-03    -299.659E-03     582.059E-03    -283.382E-03     62.1324E-03     45.2483E+06    -3.13480E+06     -62.184E+06    -54.3641E+06    -10.9547E+06     45.2483E+06    -19.1572E+06         68.2594
            1901     9.79051E-03     174.392E-03     315.624E-03    -89.6210E-03    -94.0268E-03    -93.5550E-03     315.557E-03    -90.0260E-03     10.3203E-03     585.385E-03    -284.809E-03    -300.530E-03    -299.261E-03     584.117E-03    -284.809E-03     66.9054E-03     58.8273E+06     32.9293E+06    -47.6869E+06    -43.3567E+06     28.5991E+06     58.8273E+06    -16.9430E+06         69.8275
            1902     10.5317E-03     174.478E-03     314.468E-03    -87.6587E-03    -95.6443E-03    -93.5538E-03     314.303E-03    -89.5840E-03     13.7469E-03     586.157E-03    -284.898E-03    -300.801E-03    -299.265E-03     584.622E-03    -284.898E-03     73.6243E-03     86.8660E+06     66.3969E+06    -33.1766E+06    -31.6653E+06     80.0995E+06     71.6521E+06     -9.5434E+06         72.4364
            1903     11.2746E-03     174.576E-03     311.293E-03    -81.6302E-03    -96.1545E-03    -88.6925E-03     311.127E-03    -88.9258E-03     8.66554E-03     587.891E-03    -286.268E-03    -301.487E-03    -299.731E-03     586.135E-03    -286.268E-03     78.9518E-03     115.449E+06     87.0829E+06    -23.0478E+06    -22.8540E+06     115.255E+06     87.0829E+06    -4.04763E+06         76.2418
            1904     12.0155E-03     174.688E-03     311.558E-03    -81.3099E-03    -98.8926E-03    -91.9574E-03     311.513E-03    -88.1998E-03     1.12597E-03     589.799E-03    -287.179E-03    -302.428E-03    -299.918E-03     587.290E-03    -287.179E-03     93.5763E-03     124.143E+06     103.321E+06    -14.8624E+06    -14.6801E+06     123.960E+06     103.321E+06    -2.51895E+06         80.6253
            1905     12.7570E-03     174.856E-03     313.875E-03    -86.0875E-03    -95.7372E-03    -94.1766E-03     313.834E-03    -87.6072E-03     3.47741E-03     589.743E-03    -287.746E-03    -302.066E-03    -299.420E-03     587.097E-03    -287.746E-03     96.4791E-03     142.305E+06     122.907E+06    -6.51265E+06    -6.43965E+06     130.504E+06     134.635E+06    -326.305E+03         84.3262
            1906     775.583E-06     176.028E-03     283.540E-03    -55.3144E-03    -107.961E-03    -99.2141E-03     279.466E-03    -59.9868E-03     8.33900E-03     511.018E-03    -254.169E-03    -256.878E-03    -255.954E-03     510.952E-03    -255.026E-03     13.3749E-03    -163.269E+06    -171.751E+06    -278.498E+06    -168.744E+06    -278.339E+06    -166.435E+06    -3.75105E+06         61.3641
            1907     1.54831E-03     175.854E-03     275.166E-03    -64.9621E-03    -84.9146E-03    -71.8615E-03     274.376E-03    -77.2252E-03     8.05438E-03     515.986E-03    -256.328E-03    -259.382E-03    -259.209E-03     515.813E-03    -256.328E-03     22.6681E-03    -148.870E+06    -160.904E+06    -254.536E+06    -161.370E+06    -254.070E+06    -148.870E+06    -5.36400E+06         61.7103
            1908     2.31742E-03     175.761E-03     286.380E-03    -68.2047E-03    -89.0148E-03    -79.4365E-03     284.967E-03    -76.3702E-03    -18.7182E-03     522.033E-03    -258.320E-03    -263.855E-03    -263.530E-03     521.708E-03    -258.320E-03     31.5107E-03    -126.198E+06    -151.052E+06    -231.143E+06    -152.137E+06    -230.058E+06    -126.198E+06    -8.30350E+06         62.1577
            1909     3.08387E-03     175.731E-03     297.050E-03    -77.3419E-03    -86.6160E-03    -84.6263E-03     295.664E-03    -77.9459E-03    -12.5142E-03     529.808E-03    -260.611E-03    -268.764E-03    -268.274E-03     529.318E-03    -260.611E-03     39.2415E-03    -100.800E+06    -139.362E+06    -204.299E+06    -141.219E+06    -202.442E+06    -100.800E+06    -10.1136E+06         62.6925
            1910     3.84767E-03     175.729E-03     299.846E-03    -79.6983E-03    -89.2695E-03    -88.7283E-03     299.334E-03    -79.7275E-03    -7.17647E-03     537.746E-03    -262.939E-03    -274.373E-03    -273.722E-03     537.095E-03    -262.939E-03     45.6521E-03    -73.7787E+06    -125.464E+06    -179.414E+06    -128.926E+06    -175.952E+06    -73.7787E+06    -12.5540E+06         63.2947
            1911     4.60516E-03     175.746E-03     299.058E-03    -80.8701E-03    -88.7061E-03    -87.9173E-03     298.520E-03    -81.1208E-03    -14.8026E-03     544.991E-03    -265.593E-03    -280.032E-03    -279.238E-03     544.198E-03    -265.593E-03     50.8945E-03    -49.4360E+06    -110.736E+06    -156.676E+06    -116.750E+06    -150.662E+06    -49.4360E+06    -15.0254E+06         63.9104
            1912     5.35946E-03     175.765E-03     290.753E-03    -78.3702E-03    -83.3573E-03    -79.9001E-03     290.404E-03    -81.4778E-03    -14.1541E-03     553.584E-03    -267.971E-03    -286.278E-03    -285.377E-03     552.683E-03    -267.971E-03     54.7651E-03    -27.9519E+06    -95.0046E+06    -137.395E+06    -105.518E+06    -126.881E+06    -27.9519E+06    -17.4931E+06         64.5738
            1913     6.10883E-03     175.801E-03     284.547E-03    -71.7675E-03    -84.4123E-03    -75.2415E-03     284.490E-03    -80.8806E-03    -8.23064E-03     562.100E-03    -270.493E-03    -291.914E-03    -290.941E-03     561.128E-03    -270.493E-03     57.4408E-03    -8.87381E+06    -77.6107E+06    -120.099E+06      -94.22E+06    -103.490E+06    -8.87381E+06    -20.0461E+06         65.3030
            1914     6.85468E-03     175.842E-03     285.664E-03    -71.8198E-03    -87.2740E-03    -78.3124E-03     285.105E-03    -80.2225E-03     7.65332E-03     569.156E-03    -272.580E-03    -296.531E-03    -295.518E-03     568.142E-03    -272.580E-03     59.0754E-03     6.27055E+06    -60.2402E+06    -105.354E+06    -83.4935E+06    -82.1004E+06     6.27055E+06    -22.2532E+06         65.9926
            1915     7.59779E-03     175.879E-03     283.156E-03    -74.9418E-03    -83.3613E-03    -77.6917E-03     282.264E-03    -79.7202E-03     8.67877E-03     575.802E-03    -274.770E-03    -300.949E-03    -299.892E-03     574.746E-03    -274.770E-03     60.7171E-03     20.3270E+06    -42.2645E+06    -91.5198E+06    -72.5427E+06    -61.2416E+06     20.3270E+06    -23.6546E+06         66.6874
            1916     8.33793E-03     175.935E-03     279.810E-03    -75.7917E-03    -79.1395E-03    -75.1573E-03     279.078E-03    -79.0416E-03     5.33551E-03     581.256E-03    -277.882E-03    -303.130E-03    -302.004E-03     580.129E-03    -277.882E-03     63.0469E-03     34.7928E+06    -21.0039E+06    -76.8070E+06    -61.7372E+06    -36.0736E+06     34.7928E+06    -24.4211E+06         67.5150
            1917     9.07685E-03     176.004E-03     281.452E-03    -77.4197E-03    -80.7297E-03    -79.0513E-03     280.797E-03    -78.4426E-03     730.377E-06     584.383E-03    -280.533E-03    -304.363E-03    -303.148E-03     583.168E-03    -280.533E-03     65.6619E-03     47.0719E+06     204.004E+03    -63.3344E+06    -51.9894E+06    -11.1410E+06     47.0719E+06    -24.0906E+06         68.5719
            1918     9.81531E-03     176.076E-03     282.311E-03    -77.7506E-03    -82.9212E-03    -82.0554E-03     281.850E-03    -78.1557E-03    -12.7645E-03     587.177E-03    -282.344E-03    -305.218E-03    -303.863E-03     585.822E-03    -282.344E-03     69.4481E-03     59.8796E+06     32.1340E+06    -50.0240E+06    -43.2244E+06     25.3345E+06     59.8796E+06    -21.1712E+06         70.2254
            1919     10.5529E-03     176.180E-03     283.891E-03    -78.0197E-03    -84.7790E-03    -84.5514E-03     283.663E-03    -78.0197E-03    -7.48769E-03     589.921E-03    -283.338E-03    -306.110E-03    -304.514E-03     588.324E-03    -283.338E-03     75.4886E-03     71.7474E+06     61.5972E+06    -38.1045E+06    -34.9638E+06     62.3331E+06     67.8707E+06     -16.532E+06         72.9433
            1920     11.2890E-03     176.298E-03     291.332E-03    -78.1438E-03    -92.3940E-03    -92.2918E-03     291.229E-03    -78.1438E-03    -8.10835E-03     592.551E-03    -285.146E-03    -307.017E-03    -305.193E-03     590.727E-03    -285.146E-03     80.9110E-03     101.702E+06     81.1953E+06    -26.9802E+06    -25.7514E+06     100.473E+06     81.1953E+06    -7.26677E+06         76.8585
            1921     12.0266E-03     176.423E-03     294.598E-03    -78.4327E-03    -94.8251E-03    -94.7414E-03     294.514E-03    -78.4327E-03    -5.41112E-03     594.004E-03    -286.480E-03    -307.253E-03    -304.650E-03     591.401E-03    -286.480E-03     95.8244E-03     124.274E+06      97.115E+06    -19.1030E+06    -18.9881E+06     124.159E+06      97.115E+06    -2.90772E+06         81.3131
            1922     12.7638E-03     176.600E-03     289.168E-03    -78.3094E-03    -86.4323E-03    -86.4024E-03     289.138E-03    -78.3094E-03     572.515E-06     594.204E-03    -287.444E-03    -306.739E-03    -304.000E-03     591.465E-03    -287.444E-03     98.6590E-03     145.020E+06     115.620E+06    -11.6637E+06    -11.5352E+06     126.020E+06     134.491E+06    -2.93606E+06         85.0055
            1923     779.721E-06     177.704E-03     249.112E-03    -43.7409E-03    -95.6422E-03    -87.9823E-03     243.387E-03    -45.6759E-03     15.2438E-03     499.842E-03    -248.892E-03    -251.267E-03    -251.194E-03     499.770E-03    -248.892E-03     13.5451E-03    -152.393E+06    -162.214E+06    -260.649E+06    -159.414E+06    -260.282E+06    -155.559E+06    -4.88781E+06         60.5131
            1924     1.55734E-03     177.545E-03     252.086E-03    -59.6459E-03    -80.2172E-03    -69.0872E-03     250.481E-03    -69.1716E-03     26.4228E-03     504.091E-03    -250.730E-03    -253.483E-03    -253.272E-03     503.880E-03    -250.730E-03     24.7128E-03    -143.849E+06    -155.698E+06    -241.129E+06    -156.560E+06    -240.267E+06    -143.849E+06    -7.78641E+06         60.8983
            1925     2.33237E-03     177.479E-03     256.450E-03    -60.6968E-03    -82.1728E-03    -70.6442E-03     254.106E-03    -69.8811E-03    -1.71735E-03     510.493E-03    -252.400E-03    -258.082E-03    -257.677E-03     510.087E-03    -252.400E-03     34.9816E-03    -123.399E+06    -146.817E+06    -217.857E+06    -148.740E+06    -215.934E+06    -123.399E+06    -11.1712E+06         61.3981
            1926     3.10291E-03     177.462E-03     264.455E-03    -68.0965E-03    -79.1066E-03    -74.7548E-03     262.443E-03    -70.4365E-03    -4.59932E-03     519.463E-03    -254.697E-03    -264.543E-03    -263.910E-03     518.831E-03    -254.697E-03     44.3120E-03    -97.1136E+06    -134.261E+06    -194.920E+06    -137.667E+06    -191.514E+06    -97.1136E+06    -13.6654E+06         62.0164
            1927     3.86824E-03     177.484E-03     265.560E-03    -67.6948E-03    -79.1055E-03    -74.9456E-03     264.882E-03    -71.1763E-03    -6.37376E-03     528.574E-03    -257.224E-03    -271.497E-03    -270.640E-03     527.717E-03    -257.224E-03     52.1778E-03    -70.8083E+06    -120.847E+06    -170.164E+06    -126.192E+06    -164.819E+06    -70.8083E+06    -14.9855E+06         62.7580
            1928     4.62956E-03     177.507E-03     261.166E-03    -64.9932E-03    -77.2583E-03    -70.5565E-03     260.757E-03    -71.2857E-03     794.927E-06     537.957E-03    -260.363E-03    -278.032E-03    -276.988E-03     536.913E-03    -260.363E-03     58.2084E-03    -45.8021E+06    -105.882E+06    -147.754E+06    -114.761E+06    -138.875E+06    -45.8021E+06    -16.5656E+06         63.5480
            1929     5.38508E-03     177.540E-03     261.228E-03    -64.4151E-03    -76.2863E-03    -69.7339E-03     261.090E-03    -70.8296E-03     7.89652E-03     548.387E-03    -263.307E-03    -285.432E-03    -284.244E-03     547.199E-03    -263.307E-03     62.7590E-03    -22.6892E+06    -88.3908E+06    -128.126E+06    -102.534E+06    -113.983E+06    -22.6892E+06    -18.5643E+06         64.3621
            1930     6.13520E-03     177.592E-03     259.077E-03    -61.1230E-03    -78.0951E-03    -68.7981E-03     258.894E-03    -70.2362E-03     5.24310E-03     558.174E-03    -266.342E-03    -292.028E-03    -290.765E-03     556.910E-03    -266.342E-03     65.3776E-03    -3.30411E+06    -69.6492E+06    -112.272E+06    -91.1879E+06    -90.7337E+06    -3.30411E+06    -20.8323E+06         65.2389
            1931     6.88099E-03     177.651E-03     254.286E-03    -61.1436E-03    -75.0092E-03    -66.2519E-03     253.932E-03    -69.5463E-03     7.96090E-03     566.775E-03    -268.966E-03    -297.523E-03    -296.227E-03     565.478E-03    -268.966E-03     66.7887E-03     11.8823E+06    -52.2004E+06    -100.123E+06    -80.9718E+06    -71.3514E+06     11.8823E+06    -23.1656E+06         66.1115
            1932     7.62231E-03     177.710E-03     254.524E-03    -66.5826E-03    -72.4241E-03    -69.4600E-03     254.021E-03    -69.0436E-03    -9.03783E-03     574.841E-03    -271.417E-03    -303.105E-03    -301.782E-03     573.519E-03    -271.417E-03     67.9980E-03     24.2136E+06    -33.9530E+06    -89.2750E+06    -71.9431E+06    -51.2849E+06     24.2136E+06    -25.0898E+06         66.9673
            1933     8.36098E-03     177.755E-03     254.862E-03    -68.6216E-03    -73.6130E-03    -72.8749E-03     254.439E-03    -68.9361E-03    -11.2856E-03     581.423E-03    -275.048E-03    -306.290E-03    -304.936E-03     580.070E-03    -275.048E-03     69.1642E-03     35.7753E+06    -14.2882E+06    -78.1396E+06    -63.1542E+06    -29.2737E+06     35.7753E+06    -26.5935E+06         67.9060
            1934     9.09776E-03     177.814E-03     254.007E-03    -68.6136E-03    -73.7482E-03    -73.0100E-03     253.615E-03    -68.9602E-03    -8.28278E-03     586.126E-03    -277.997E-03    -308.543E-03    -307.133E-03     584.716E-03    -277.997E-03     70.8801E-03     45.7935E+06     1.52882E+06    -66.5037E+06    -54.7627E+06    -10.2122E+06     45.7935E+06    -25.3871E+06         69.0525
            1935     9.83358E-03     177.876E-03     257.745E-03    -68.6435E-03    -76.2559E-03    -75.3493E-03     257.185E-03    -68.9901E-03    -11.3333E-03     590.443E-03    -280.203E-03    -310.556E-03    -309.048E-03     588.935E-03    -280.203E-03     73.5778E-03     56.4070E+06     28.0471E+06    -54.3634E+06    -46.8339E+06     20.5176E+06     56.4070E+06    -22.6594E+06         70.7937
            1936     10.5675E-03     177.976E-03     263.162E-03    -69.1936E-03    -81.8920E-03    -81.4899E-03     262.760E-03    -69.1936E-03    -31.8224E-06     593.790E-03    -281.866E-03    -311.600E-03    -309.856E-03     592.046E-03    -281.866E-03     79.2585E-03     64.8912E+06     53.8434E+06    -44.0227E+06    -39.9856E+06     51.7628E+06     62.9347E+06    -18.1897E+06         73.6234
            1937     11.3008E-03     178.101E-03     261.781E-03    -67.6941E-03    -82.0713E-03    -80.1962E-03     261.637E-03    -69.4253E-03    -2.48255E-03     596.947E-03    -283.992E-03    -312.237E-03    -310.234E-03     594.944E-03    -283.992E-03     85.1938E-03     92.8972E+06     70.1406E+06    -34.8571E+06    -32.2586E+06     88.5899E+06     71.8493E+06    -14.2677E+06         77.6680
            1938     12.0350E-03     178.233E-03     256.460E-03    -67.4910E-03    -76.1029E-03    -74.3184E-03     256.407E-03    -69.2222E-03    -4.38509E-03     599.112E-03    -285.710E-03    -312.525E-03    -309.757E-03     596.344E-03    -285.710E-03     99.5388E-03     117.576E+06     90.0176E+06    -21.8947E+06    -20.4405E+06     116.122E+06     90.0176E+06    -9.70722E+06         82.1621
            1939     12.7687E-03     178.429E-03     255.767E-03    -68.6790E-03    -75.8128E-03    -75.7233E-03     255.678E-03    -68.6790E-03     4.88401E-03     599.894E-03    -287.169E-03    -312.569E-03    -309.679E-03     597.005E-03    -287.169E-03     102.042E-03     141.670E+06     109.410E+06    -9.07639E+06    -8.91746E+06     117.718E+06     133.203E+06    -4.32770E+06         85.7664
            1940     782.712E-06     179.351E-03     215.376E-03    -32.9467E-03    -77.4698E-03    -69.0239E-03     206.930E-03    -32.9467E-03     26.1087E-03     491.728E-03    -245.277E-03    -246.695E-03    -246.615E-03     491.648E-03    -245.277E-03     14.1550E-03    -142.778E+06    -153.813E+06    -243.432E+06    -151.055E+06    -243.097E+06    -145.871E+06    -4.42848E+06         59.7342
            1941     1.56374E-03     179.196E-03     223.610E-03    -53.0839E-03    -66.4265E-03    -63.6921E-03     221.777E-03    -53.9853E-03     38.8246E-03     495.436E-03    -246.721E-03    -248.989E-03    -248.762E-03     495.209E-03    -246.721E-03     25.5158E-03    -132.778E+06    -145.823E+06    -225.879E+06    -146.704E+06    -224.998E+06    -132.778E+06    -7.99810E+06         60.1051
            1942     2.34263E-03     179.134E-03     234.507E-03    -56.1371E-03    -72.7530E-03    -69.1481E-03     233.397E-03    -58.6321E-03     28.5493E-03     501.563E-03    -248.005E-03    -253.474E-03    -253.043E-03     501.132E-03    -248.005E-03     35.7618E-03    -112.210E+06    -137.193E+06    -202.851E+06    -138.990E+06    -201.054E+06    -112.210E+06    -10.3739E+06         60.5883
            1943     3.11706E-03     179.151E-03     234.451E-03    -58.8175E-03    -70.1030E-03    -66.7395E-03     233.428E-03    -61.1575E-03     19.1802E-03     509.800E-03    -250.119E-03    -259.834E-03    -259.137E-03     509.103E-03    -250.119E-03     46.0442E-03    -86.7637E+06    -126.667E+06    -181.885E+06    -130.374E+06    -178.178E+06    -86.7637E+06    -13.4231E+06         61.1913
            1944     3.88663E-03     179.190E-03     228.739E-03    -58.1265E-03    -65.4167E-03    -60.9860E-03     227.790E-03    -61.6080E-03    -17.1230E-03     519.495E-03    -252.799E-03    -267.520E-03    -266.540E-03     518.515E-03    -252.799E-03     55.3690E-03    -62.5680E+06    -113.181E+06    -160.421E+06    -120.018E+06    -153.584E+06    -62.5680E+06    -16.2273E+06         61.9630
            1945     4.65067E-03     179.237E-03     222.856E-03    -53.7276E-03    -62.4405E-03    -54.1821E-03     221.663E-03    -60.7927E-03    -25.1406E-03     531.095E-03    -255.713E-03    -275.299E-03    -274.076E-03     529.873E-03    -255.713E-03     62.6745E-03    -38.4309E+06    -96.8750E+06    -138.912E+06    -107.777E+06    -128.010E+06    -38.4309E+06    -18.1052E+06         62.8610
            1946     5.40935E-03     179.299E-03     221.445E-03    -52.2339E-03    -63.4490E-03    -55.2061E-03     220.719E-03    -59.7505E-03    -8.80112E-03     542.197E-03    -259.074E-03    -283.120E-03    -281.707E-03     540.783E-03    -259.074E-03     68.1913E-03    -16.5371E+06    -80.0160E+06    -119.522E+06    -96.0615E+06    -103.476E+06    -16.5371E+06    -18.9235E+06         63.8024
            1947     6.16166E-03     179.361E-03     229.826E-03    -55.5109E-03    -67.2677E-03    -62.5518E-03     229.008E-03    -59.4088E-03    -7.89451E-03     551.947E-03    -262.564E-03    -290.604E-03    -289.055E-03     550.399E-03    -262.564E-03     72.0827E-03     2.41897E+06    -61.9933E+06    -103.197E+06    -85.0818E+06    -80.1086E+06     2.41897E+06    -20.0520E+06         64.7723
            1948     6.90748E-03     179.442E-03     234.230E-03    -58.8322E-03    -65.7312E-03    -64.1185E-03     233.329E-03    -59.5435E-03    -2.55380E-03     562.287E-03    -265.283E-03    -297.673E-03    -296.042E-03     560.656E-03    -265.283E-03     74.6909E-03     18.3229E+06    -44.3973E+06    -90.8958E+06    -74.9889E+06    -60.3041E+06     18.3229E+06    -21.7089E+06         65.7631
            1949     7.64884E-03     179.512E-03     231.700E-03    -59.6110E-03    -63.8742E-03    -63.5455E-03     231.372E-03    -59.6110E-03    -3.48664E-03     572.461E-03    -268.185E-03    -304.374E-03    -302.697E-03     570.784E-03    -268.185E-03     76.4612E-03     32.1347E+06    -26.2797E+06    -79.6614E+06    -65.3879E+06    -40.5532E+06     32.1347E+06    -23.1316E+06         66.7410
            1950     8.38612E-03     179.597E-03     232.609E-03    -59.7165E-03    -67.2254E-03    -67.0636E-03     232.447E-03    -59.7165E-03     120.903E-06     581.164E-03    -272.165E-03    -308.909E-03    -307.208E-03     579.463E-03    -272.165E-03     77.6161E-03     42.7093E+06    -9.64808E+06    -70.1478E+06    -57.8618E+06    -21.9340E+06     42.7093E+06    -23.8785E+06         67.7688
            1951     9.12006E-03     179.676E-03     235.486E-03    -59.7219E-03    -71.8400E-03    -71.3316E-03     235.324E-03    -60.0685E-03     1.09927E-03     587.882E-03    -275.355E-03    -312.913E-03    -311.160E-03     586.129E-03    -275.355E-03     79.2850E-03     51.2941E+06     4.27256E+06    -61.9535E+06    -50.5354E+06    -7.14552E+06     51.2941E+06    -24.4726E+06         69.0483
            1952     9.85122E-03     179.776E-03     235.819E-03    -60.1449E-03    -71.7788E-03    -71.1519E-03     235.539E-03    -60.4915E-03    -3.50491E-03     593.929E-03    -278.097E-03    -315.997E-03    -314.165E-03     592.097E-03    -278.097E-03     81.4824E-03     60.7322E+06     26.8532E+06    -51.0439E+06    -42.3772E+06     18.1865E+06     60.7322E+06    -23.1992E+06         70.9839
            1953     10.5815E-03     179.874E-03     230.948E-03    -57.3394E-03    -71.0639E-03    -67.2945E-03     230.490E-03    -60.6508E-03    -165.618E-06     598.665E-03    -280.577E-03    -317.488E-03    -315.453E-03     596.631E-03    -280.577E-03     86.1102E-03     67.1585E+06     49.7244E+06    -39.4973E+06    -33.0400E+06     43.2671E+06     67.1585E+06    -20.6683E+06         74.0127
            1954     11.3119E-03     179.985E-03     225.135E-03    -55.2892E-03    -66.0588E-03    -60.7078E-03     224.827E-03    -60.3319E-03    -5.62975E-03     601.776E-03    -282.861E-03    -318.280E-03    -316.043E-03     599.539E-03    -282.861E-03     90.6068E-03     98.3581E+06     75.3814E+06    -28.2322E+06    -23.2675E+06     87.6094E+06     81.1655E+06    -18.2237E+06         78.1967
            1955     12.0425E-03     180.109E-03     223.362E-03    -57.9639E-03    -63.4438E-03    -61.6456E-03     223.295E-03    -59.6951E-03    -3.09809E-03     605.245E-03    -284.851E-03    -319.459E-03    -316.524E-03     602.310E-03    -284.851E-03     103.363E-03     115.931E+06     91.6819E+06    -19.5904E+06    -17.1579E+06     108.822E+06     96.3587E+06    -14.4969E+06         82.7247
            1956     12.7714E-03     180.294E-03     224.871E-03    -59.1593E-03    -67.5252E-03    -67.2195E-03     224.566E-03    -59.1593E-03     13.5130E-03     607.386E-03    -286.860E-03    -320.263E-03    -317.288E-03     604.412E-03    -286.860E-03     104.303E-03     135.029E+06     95.0832E+06    -10.7918E+06    -9.67056E+06     96.3416E+06     132.649E+06    -7.98423E+06         86.2947
            1957     784.976E-06     180.960E-03     215.847E-03    -36.1152E-03    -87.1909E-03    -79.8659E-03     208.522E-03    -36.1152E-03     26.1963E-03     488.144E-03    -243.287E-03    -245.150E-03    -245.081E-03     488.076E-03    -243.287E-03     12.7120E-03    -136.535E+06    -147.669E+06    -226.628E+06    -144.859E+06    -226.345E+06    -139.628E+06    -4.51720E+06         59.2709
            1958     1.56796E-03     180.811E-03     204.991E-03    -51.3543E-03    -59.9774E-03    -54.0443E-03     203.718E-03    -56.0143E-03     22.3854E-03     491.645E-03    -244.729E-03    -246.985E-03    -246.782E-03     491.442E-03    -244.729E-03     23.8666E-03    -122.748E+06    -137.294E+06    -210.973E+06    -138.154E+06    -210.113E+06    -122.748E+06    -7.46622E+06         59.5785
            1959     2.34764E-03     180.777E-03     200.617E-03    -43.2542E-03    -61.1358E-03    -49.9798E-03     200.558E-03    -54.3514E-03    -1.68438E-03     496.592E-03    -245.968E-03    -250.552E-03    -250.134E-03     496.174E-03    -245.968E-03     34.8400E-03    -101.221E+06    -127.601E+06    -190.832E+06    -129.404E+06    -189.029E+06    -101.221E+06    -10.3062E+06         59.9831
            1960     3.12526E-03     180.801E-03     200.162E-03    -44.5925E-03    -62.4425E-03    -53.2776E-03     199.902E-03    -53.4970E-03    -9.78376E-03     502.718E-03    -247.711E-03    -255.351E-03    -254.662E-03     502.028E-03    -247.711E-03     45.4657E-03    -75.5427E+06    -115.955E+06    -168.297E+06    -119.230E+06    -165.022E+06    -75.5427E+06    -12.3431E+06         60.4681
            1961     3.89971E-03     180.845E-03     200.561E-03    -48.6470E-03    -56.9564E-03    -51.7166E-03     199.822E-03    -53.1476E-03    -26.4888E-03     511.712E-03    -249.890E-03    -262.324E-03    -261.329E-03     510.717E-03    -249.890E-03     55.3072E-03    -49.8022E+06    -101.489E+06    -146.736E+06    -107.795E+06    -140.430E+06    -49.8022E+06    -15.2263E+06         61.1228
            1962     4.66732E-03     180.925E-03     205.290E-03    -49.9885E-03    -58.7895E-03    -54.6618E-03     203.968E-03    -52.7944E-03    -17.4158E-03     523.215E-03    -252.052E-03    -270.592E-03    -269.289E-03     521.912E-03    -252.052E-03     64.1831E-03    -27.3038E+06    -87.1153E+06    -128.565E+06    -96.5857E+06    -119.094E+06    -27.3038E+06    -17.2235E+06         61.9585
            1963     5.42922E-03     181.000E-03     207.211E-03    -48.7981E-03    -61.5471E-03    -56.4695E-03     206.093E-03    -52.7572E-03    -391.123E-06     533.823E-03    -255.127E-03    -278.682E-03    -277.093E-03     532.235E-03    -255.127E-03     71.6818E-03    -7.36297E+06    -71.5525E+06    -109.880E+06    -85.6934E+06    -95.7391E+06    -7.36297E+06    -17.8022E+06         62.8977
            1964     6.18515E-03     181.090E-03     201.901E-03    -48.3444E-03    -56.9808E-03    -51.7989E-03     200.913E-03    -52.5383E-03    -4.60780E-03     543.571E-03    -258.623E-03    -286.687E-03    -284.839E-03     541.723E-03    -258.623E-03     78.1379E-03     10.8624E+06    -54.4097E+06    -92.1031E+06    -75.1339E+06    -71.3789E+06     10.8624E+06    -18.2146E+06         63.9037
            1965     6.93521E-03     181.191E-03     199.411E-03    -51.0703E-03    -53.3183E-03    -51.5538E-03     198.653E-03    -52.0776E-03    -10.7237E-03     555.656E-03    -261.541E-03    -295.295E-03    -293.252E-03     553.613E-03    -261.541E-03     83.1349E-03     27.5595E+06    -38.2905E+06    -78.8609E+06    -65.6865E+06    -51.4649E+06     27.5595E+06    -18.6788E+06         64.9693
            1966     7.67837E-03     181.282E-03     203.009E-03    -51.8432E-03    -54.8695E-03    -54.7304E-03     202.870E-03    -51.8432E-03    -10.1594E-03     567.754E-03    -264.782E-03    -304.025E-03    -301.863E-03     565.592E-03    -264.782E-03     86.5211E-03     41.5935E+06    -20.6189E+06    -68.6321E+06    -57.3709E+06    -31.8801E+06     41.5935E+06    -19.5561E+06         66.0426
            1967     8.41609E-03     181.381E-03     207.663E-03    -51.9423E-03    -58.3660E-03    -58.2664E-03     207.563E-03    -51.9423E-03    -7.63444E-03     579.176E-03    -268.406E-03    -311.059E-03    -308.841E-03     576.957E-03    -268.406E-03     88.5356E-03     52.9003E+06    -4.86876E+06    -59.6026E+06    -49.6596E+06    -14.8118E+06     52.9003E+06    -20.3677E+06         67.1682
            1968     9.14894E-03     181.479E-03     207.595E-03    -47.7886E-03    -63.2848E-03    -58.7457E-03     207.416E-03    -52.1481E-03    -10.8661E-03     588.588E-03    -271.841E-03    -316.865E-03    -314.627E-03     586.350E-03    -271.841E-03     89.7231E-03     62.5237E+06     9.59520E+06    -51.3571E+06    -41.9855E+06     223.533E+03     62.5237E+06    -20.8506E+06         68.6124
            1969     9.87874E-03     181.585E-03     200.837E-03    -47.1063E-03    -59.7541E-03    -54.5244E-03     200.559E-03    -52.0582E-03    -9.56951E-03     596.503E-03    -275.359E-03    -321.375E-03    -319.149E-03     594.277E-03    -275.359E-03     90.1790E-03     70.9135E+06     28.5498E+06    -43.6117E+06    -35.4133E+06     20.3514E+06     70.9135E+06    -21.2876E+06         70.7872
            1970     10.6063E-03     181.703E-03     195.518E-03    -47.6622E-03    -56.0731E-03    -51.4988E-03     194.847E-03    -51.5661E-03     1.49453E-03     603.781E-03    -278.574E-03    -324.397E-03    -322.076E-03     601.460E-03    -278.574E-03     92.6576E-03     77.4022E+06     50.0417E+06    -37.0274E+06    -29.9127E+06     42.9270E+06     77.4022E+06    -20.8095E+06         74.0448
            1971     11.3306E-03     181.829E-03     197.879E-03    -47.6746E-03    -56.4772E-03    -52.5236E-03     197.237E-03    -50.9861E-03     2.31503E-03     607.917E-03    -281.130E-03    -325.963E-03    -323.545E-03     605.500E-03    -281.130E-03     94.9027E-03     102.128E+06     79.9218E+06    -30.5911E+06    -24.9664E+06     86.7173E+06     89.7080E+06    -19.7774E+06         78.3864
            1972     12.0570E-03     181.948E-03     201.541E-03    -50.6068E-03    -59.4797E-03    -59.3481E-03     201.410E-03    -50.6068E-03     1.18281E-03     612.566E-03    -283.692E-03    -328.107E-03    -325.101E-03     609.560E-03    -283.692E-03     105.667E-03     111.728E+06     84.8862E+06    -19.5106E+06    -16.4434E+06     94.2392E+06     99.3082E+06    -15.1582E+06         82.9847
            1973     12.7798E-03     182.136E-03     199.810E-03    -50.4197E-03    -61.9715E-03    -61.7326E-03     199.571E-03    -50.4197E-03     9.53032E-03     616.420E-03    -286.489E-03    -329.803E-03    -326.862E-03     613.479E-03    -286.489E-03     104.612E-03     136.683E+06     77.2441E+06    -8.89064E+06    -7.74631E+06     76.0998E+06     136.683E+06    -7.50135E+06         86.5659
            1974     782.353E-06     182.567E-03     225.560E-03    -39.5989E-03    -105.725E-03    -93.0460E-03     222.462E-03    -49.1805E-03    -9.44866E-03     490.955E-03    -244.549E-03    -246.635E-03    -246.586E-03     490.906E-03    -244.549E-03     10.6855E-03    -122.782E+06    -134.395E+06    -214.006E+06    -131.143E+06    -213.674E+06    -126.367E+06    -3.44950E+06         59.2115
            1975     1.56530E-03     182.430E-03     195.153E-03    -45.7830E-03    -68.3816E-03    -47.7939E-03     194.596E-03    -65.8141E-03    -966.269E-06     492.300E-03    -245.611E-03    -246.817E-03    -246.662E-03     492.146E-03    -245.611E-03     20.7974E-03    -112.840E+06    -126.808E+06    -196.055E+06    -127.668E+06    -195.195E+06    -112.840E+06    -7.46739E+06         59.3749
            1976     2.34809E-03     182.399E-03     172.341E-03    -32.8767E-03    -57.0244E-03    -32.3801E-03     171.844E-03    -57.0244E-03    -4.97646E-03     494.846E-03    -246.193E-03    -249.029E-03    -248.687E-03     494.503E-03    -246.193E-03     31.3109E-03    -93.1012E+06    -118.519E+06    -177.862E+06    -120.567E+06    -175.814E+06    -93.1012E+06    -10.4506E+06         59.6323
            1977     3.12775E-03     182.416E-03     163.941E-03    -29.7498E-03    -50.2455E-03    -29.4119E-03     163.603E-03    -50.2455E-03     348.360E-06     499.377E-03    -247.098E-03    -252.719E-03    -252.121E-03     498.779E-03    -247.098E-03     42.0505E-03    -68.6242E+06    -106.904E+06    -158.893E+06    -110.299E+06    -155.499E+06    -68.6242E+06    -12.7504E+06         59.9911
            1978     3.90354E-03     182.474E-03     169.649E-03    -36.8892E-03    -46.4473E-03    -36.4578E-03     169.218E-03    -46.4473E-03    -15.3853E-03     506.050E-03    -248.697E-03    -257.531E-03    -256.612E-03     505.131E-03    -248.697E-03     52.6758E-03    -42.7802E+06    -95.3331E+06    -136.291E+06    -99.7755E+06    -131.849E+06    -42.7802E+06    -12.5441E+06         60.4847
            1979     4.67628E-03     182.557E-03     174.928E-03    -38.7142E-03    -49.2406E-03    -42.0786E-03     173.945E-03    -44.8933E-03    -9.44398E-03     514.525E-03    -250.313E-03    -263.832E-03    -262.534E-03     513.227E-03    -250.313E-03     63.3750E-03    -19.2633E+06    -83.1833E+06    -117.036E+06    -89.7956E+06    -110.424E+06    -19.2633E+06    -13.2680E+06         61.1378
            1980     5.44381E-03     182.664E-03     175.988E-03    -38.4290E-03    -53.1258E-03    -46.3845E-03     175.154E-03    -44.3359E-03     9.26061E-03     523.639E-03    -252.200E-03    -271.444E-03    -269.723E-03     521.919E-03    -252.200E-03     73.7408E-03     663.397E+03    -67.5947E+06    -100.828E+06    -80.0312E+06    -88.3916E+06     663.397E+03    -14.9059E+06         61.9538
            1981     6.20585E-03     182.776E-03     179.180E-03    -41.4062E-03    -52.9852E-03    -49.8775E-03     178.857E-03    -44.1907E-03     13.4626E-03     534.069E-03    -254.798E-03    -279.940E-03    -277.793E-03     531.922E-03    -254.798E-03     83.3764E-03     17.7223E+06    -53.3247E+06    -84.7447E+06    -71.4392E+06    -66.6301E+06     17.7223E+06    -14.8363E+06         62.9135
            1982     6.96159E-03     182.901E-03     183.624E-03    -44.1010E-03    -55.4152E-03    -54.7476E-03     183.252E-03    -44.3970E-03     13.5744E-03     546.585E-03    -257.860E-03    -289.584E-03    -287.095E-03     544.096E-03    -257.860E-03     90.9647E-03     33.7227E+06    -36.6015E+06    -73.1846E+06    -64.0608E+06    -45.7253E+06     33.7227E+06    -13.9465E+06         63.9913
            1983     7.71025E-03     183.029E-03     184.286E-03    -44.7856E-03    -55.1011E-03    -54.7718E-03     183.957E-03    -44.7856E-03     7.94108E-03     559.880E-03    -261.214E-03    -300.442E-03    -297.734E-03     557.173E-03    -261.214E-03     96.2314E-03     47.9033E+06    -17.6548E+06    -63.3236E+06    -57.1816E+06    -23.7968E+06     47.9033E+06    -13.9870E+06         65.1450
            1984     8.45043E-03     183.151E-03     176.107E-03    -41.6794E-03    -50.2371E-03    -46.9485E-03     175.861E-03    -44.7215E-03     1.37396E-03     574.078E-03    -264.415E-03    -311.108E-03    -308.318E-03     571.288E-03    -264.415E-03     99.1168E-03     58.9318E+06    -39.9492E+03    -55.5210E+06    -49.7981E+06    -5.76281E+06     58.9318E+06    -15.3803E+06         66.4163
            1985     9.18409E-03     183.275E-03     165.409E-03    -35.2302E-03    -45.7259E-03    -36.8305E-03     165.143E-03    -43.8599E-03     312.526E-06     587.149E-03    -268.389E-03    -319.897E-03    -317.160E-03     584.412E-03    -268.389E-03     99.4286E-03     66.8226E+06     12.9781E+06    -49.7098E+06    -43.6645E+06     6.93283E+06     66.8226E+06    -16.6937E+06         68.0691
            1986     9.91145E-03     183.381E-03     165.844E-03    -36.5978E-03    -45.7015E-03    -39.3270E-03     165.650E-03    -42.7779E-03     2.28527E-03     598.785E-03    -272.350E-03    -326.912E-03    -324.273E-03     596.145E-03    -272.350E-03     98.6382E-03     75.0923E+06     31.8907E+06    -42.9783E+06    -37.4273E+06     26.3396E+06     75.0923E+06    -17.4503E+06         70.4933
            1987     10.6339E-03     183.499E-03     173.819E-03    -41.6708E-03    -50.5932E-03    -49.5202E-03     173.338E-03    -42.2632E-03     8.07005E-03     608.820E-03    -275.895E-03    -332.187E-03    -329.568E-03     606.201E-03    -275.895E-03     99.0944E-03     82.4167E+06     53.2289E+06    -36.1849E+06    -29.8657E+06     46.9097E+06     82.4167E+06    -18.4752E+06         73.9936
            1988     11.3556E-03     183.617E-03     176.840E-03    -42.2358E-03    -52.9646E-03    -52.4723E-03     176.348E-03    -42.2358E-03     6.98627E-03     615.670E-03    -279.191E-03    -335.369E-03    -332.809E-03     613.111E-03    -279.191E-03     98.5180E-03     103.802E+06     81.9867E+06    -27.8844E+06    -22.3436E+06     85.6851E+06     94.5625E+06    -17.0748E+06         78.5009
            1989     12.0743E-03     183.741E-03     174.829E-03    -42.2678E-03    -54.9813E-03    -54.8840E-03     174.732E-03    -42.2678E-03     2.13689E-03     621.471E-03    -282.496E-03    -338.222E-03    -335.207E-03     618.456E-03    -282.496E-03     107.003E-03     106.477E+06     78.8415E+06    -23.3604E+06    -18.1094E+06     82.8297E+06     97.2382E+06    -15.9471E+06         83.1393
            1990     12.7888E-03     183.960E-03     171.320E-03    -42.2447E-03    -55.5866E-03    -55.5615E-03     171.295E-03    -42.2447E-03     1.66297E-03     625.395E-03    -286.058E-03    -339.759E-03    -336.846E-03     622.481E-03    -286.058E-03     105.252E-03     131.252E+06     58.2625E+06    -14.2187E+06    -10.9254E+06     54.9692E+06     131.252E+06    -10.2130E+06         86.6958
            1991     780.507E-06     184.206E-03     162.173E-03    -17.1258E-03    -79.2233E-03    -64.8516E-03     132.291E-03    -1.61630E-03     39.8864E-03     497.303E-03    -248.193E-03    -249.332E-03    -249.249E-03     497.267E-03    -248.240E-03     9.50417E-03    -111.717E+06    -122.405E+06    -207.726E+06    -119.017E+06    -207.530E+06    -115.301E+06    -1.74902E+06         59.4930
            1992     1.56089E-03     184.043E-03     151.184E-03    -23.1189E-03    -57.8850E-03    -38.5025E-03     148.074E-03    -39.3914E-03     19.4769E-03     496.847E-03    -248.425E-03    -248.694E-03    -248.535E-03     496.734E-03    -248.472E-03     17.6721E-03    -103.461E+06    -116.372E+06    -186.160E+06    -116.792E+06    -185.739E+06    -103.461E+06    -2.92968E+06         59.5116
            1993     2.34151E-03     184.022E-03     154.542E-03    -26.4253E-03    -52.9912E-03    -37.7661E-03     153.269E-03    -40.3772E-03     16.8544E-03     497.483E-03    -248.352E-03    -249.463E-03    -249.212E-03     497.232E-03    -248.352E-03     26.8572E-03    -86.9531E+06    -113.405E+06    -165.777E+06    -114.462E+06    -164.720E+06    -86.9531E+06    -4.44928E+06         59.5921
            1994     3.12184E-03     184.043E-03     157.266E-03    -28.5986E-03    -54.8410E-03    -42.6339E-03     156.650E-03    -40.1898E-03     16.5816E-03     499.611E-03    -248.620E-03    -251.080E-03    -250.611E-03     499.143E-03    -248.620E-03     37.0446E-03    -65.6153E+06    -108.494E+06    -149.652E+06    -110.425E+06    -147.721E+06    -65.6153E+06    -7.12680E+06         59.7853
            1995     3.90064E-03     184.106E-03     153.221E-03    -35.2559E-03    -46.6941E-03    -40.9849E-03     152.569E-03    -40.3134E-03    -13.8597E-03     502.558E-03    -249.355E-03    -253.311E-03    -252.526E-03     501.773E-03    -249.355E-03     48.2728E-03    -43.8088E+06    -100.668E+06    -130.882E+06    -103.571E+06    -127.979E+06    -43.8088E+06    -8.45319E+06         60.1069
            1996     4.67707E-03     184.199E-03     145.294E-03    -35.6507E-03    -40.5497E-03    -35.3318E-03     144.222E-03    -39.7965E-03    -26.6472E-03     506.880E-03    -249.994E-03    -256.986E-03    -255.765E-03     505.660E-03    -249.994E-03     60.6995E-03    -21.2941E+06    -89.8635E+06    -110.884E+06    -95.6153E+06    -105.133E+06    -21.2941E+06    -7.70701E+06         60.5629
            1997     5.45187E-03     184.312E-03     139.402E-03    -30.7980E-03    -39.0987E-03    -30.7422E-03     138.947E-03    -38.6997E-03    -9.43099E-03     513.423E-03    -250.814E-03    -262.617E-03    -260.887E-03     511.694E-03    -250.814E-03     72.9991E-03     581.022E+03    -75.1581E+06    -95.5787E+06    -87.9598E+06    -82.7770E+06     581.022E+03    -6.93631E+06         61.1969
            1998     6.22148E-03     184.437E-03     142.068E-03    -27.5723E-03    -41.9627E-03    -31.8920E-03     142.035E-03    -37.6106E-03     3.40476E-03     523.846E-03    -252.200E-03    -271.241E-03    -268.948E-03     521.553E-03    -252.200E-03     85.1135E-03     18.8241E+06    -55.6266E+06    -85.6811E+06    -80.6721E+06    -60.6356E+06     18.8241E+06    -7.72339E+06         62.0586
            1999     6.98454E-03     184.582E-03     144.831E-03    -24.9292E-03    -47.3228E-03    -35.2031E-03     144.602E-03    -36.8206E-03     7.75011E-03     536.813E-03    -254.421E-03    -282.303E-03    -279.505E-03     534.015E-03    -254.421E-03     95.5161E-03     33.3999E+06    -37.1613E+06    -76.3280E+06    -72.5243E+06    -40.9650E+06     33.3999E+06    -8.56894E+06         63.1239
            2000     7.73954E-03     184.727E-03     139.222E-03    -25.2945E-03    -44.1016E-03    -33.1688E-03     138.925E-03    -35.9296E-03     10.9732E-03     551.564E-03    -257.660E-03    -294.751E-03    -291.643E-03     548.457E-03    -257.660E-03     102.343E-03     47.4894E+06    -15.3363E+06    -65.7572E+06    -63.5490E+06    -17.5445E+06     47.4894E+06    -9.25852E+06         64.3395
            2001     8.48434E-03     184.887E-03     137.026E-03    -27.3938E-03    -38.4829E-03    -30.9766E-03     136.860E-03    -34.7346E-03     8.78993E-03     567.900E-03    -261.039E-03    -308.484E-03    -305.260E-03     564.676E-03    -261.039E-03     106.067E-03     58.7326E+06     4.96026E+06    -57.9116E+06    -55.4737E+06     2.52236E+06     58.7326E+06    -10.9400E+06         65.7322
            2002     9.21861E-03     185.026E-03     146.598E-03    -29.6943E-03    -44.5717E-03    -40.1392E-03     146.436E-03    -33.9646E-03     9.04359E-03     584.639E-03    -264.858E-03    -321.122E-03    -317.951E-03     581.469E-03    -264.858E-03     106.896E-03     67.6438E+06     21.7986E+06    -50.9025E+06    -47.3352E+06     18.2313E+06     67.6438E+06    -14.2898E+06         67.5551
            2003     9.94522E-03     185.163E-03     155.928E-03    -32.9159E-03    -51.8788E-03    -50.5653E-03     155.843E-03    -34.1441E-03     4.96547E-03     600.531E-03    -268.799E-03    -331.824E-03    -328.837E-03     597.544E-03    -268.799E-03     105.301E-03     74.7164E+06     40.2179E+06    -43.5196E+06    -37.7282E+06     34.4265E+06     74.7164E+06    -17.8994E+06         70.2295
            2004     10.6663E-03     185.290E-03     154.955E-03    -34.5837E-03    -46.3989E-03    -46.3145E-03     154.871E-03    -34.5837E-03    -3.37629E-03     613.529E-03    -273.176E-03    -340.067E-03    -337.273E-03     610.735E-03    -273.176E-03     103.067E-03     81.1161E+06     58.5067E+06    -35.6874E+06    -28.7913E+06     51.6106E+06     81.1161E+06    -19.3384E+06         73.9974
            2005     11.3787E-03     185.438E-03     150.161E-03    -34.7107E-03    -43.8569E-03    -43.7397E-03     150.043E-03    -34.7107E-03    -3.76584E-03     623.499E-03    -277.546E-03    -345.338E-03    -342.724E-03     620.886E-03    -277.546E-03     100.470E-03     95.4161E+06     80.4803E+06    -27.7010E+06    -21.2778E+06     77.8422E+06     91.6310E+06    -17.1816E+06         78.6477
            2006     12.0876E-03     185.603E-03     146.894E-03    -34.1506E-03    -43.9445E-03    -43.4298E-03     146.823E-03    -34.5948E-03    -2.86159E-03     630.677E-03    -281.590E-03    -348.737E-03    -345.721E-03     627.661E-03    -281.590E-03     108.151E-03     101.166E+06     79.1394E+06    -20.9904E+06    -13.6321E+06     75.5662E+06     97.3809E+06    -11.1482E+06         83.2648
            2007     12.7949E-03     185.816E-03     144.704E-03    -33.9489E-03    -45.9552E-03    -45.4840E-03     144.677E-03    -34.3930E-03    -2.09436E-03     634.488E-03    -285.663E-03    -349.379E-03    -346.453E-03     631.562E-03    -285.663E-03     106.567E-03     129.128E+06     50.4813E+06    -15.1329E+06    -8.49384E+06     43.8423E+06     129.128E+06    -8.23126E+06         86.7571
            2008     775.730E-06     185.857E-03     102.012E-03    -1.34319E-03    -44.9137E-03    -33.3292E-03     65.9553E-03     23.1289E-03     58.3977E-03     507.568E-03    -253.330E-03    -254.419E-03    -253.692E-03     507.551E-03    -254.039E-03     6.47887E-03    -123.462E+06    -133.713E+06    -217.093E+06    -132.149E+06    -215.652E+06    -126.467E+06     6.15764E+06         59.9763
            2009     1.55382E-03     185.700E-03     111.075E-03    -9.77454E-03    -41.6821E-03    -37.6401E-03     107.652E-03    -10.3936E-03     15.6595E-03     505.548E-03    -252.436E-03    -253.315E-03    -252.410E-03     505.486E-03    -253.280E-03     12.8348E-03    -112.604E+06    -127.346E+06    -195.192E+06    -129.678E+06    -192.860E+06    -112.604E+06     8.93187E+06         59.8994
            2010     2.33217E-03     185.667E-03     134.143E-03    -21.4014E-03    -48.5695E-03    -47.2314E-03     132.805E-03    -21.4014E-03     7.71939E-03     503.739E-03    -251.231E-03    -252.675E-03    -251.185E-03     503.581E-03    -252.564E-03     21.0372E-03    -92.5448E+06    -121.650E+06    -171.938E+06    -126.047E+06    -167.542E+06    -92.5448E+06     9.90745E+06         59.8249
            2011     3.11097E-03     185.680E-03     139.358E-03    -28.0793E-03    -48.8162E-03    -48.3532E-03     138.895E-03    -28.0793E-03     12.1121E-03     501.627E-03    -249.941E-03    -252.087E-03    -249.802E-03     501.295E-03    -251.894E-03     30.9115E-03    -68.0744E+06    -114.619E+06    -150.773E+06    -122.277E+06    -143.115E+06    -68.0744E+06     9.28946E+06         59.8053
            2012     3.89062E-03     185.743E-03     138.887E-03    -31.7041E-03    -47.0413E-03    -46.4567E-03     138.302E-03    -31.7041E-03    -9.00160E-03     500.848E-03    -249.114E-03    -251.802E-03    -249.039E-03     500.235E-03    -251.264E-03     42.3236E-03    -45.0042E+06    -104.446E+06    -134.738E+06    -118.840E+06    -120.344E+06    -45.0042E+06     5.41688E+06         59.9199
            2013     4.67254E-03     185.835E-03     139.383E-03    -33.5029E-03    -44.4188E-03    -43.7702E-03     138.734E-03    -33.5029E-03    -14.5544E-03     501.733E-03    -249.283E-03    -252.628E-03    -250.202E-03     500.694E-03    -250.669E-03     55.3963E-03    -25.5857E+06    -94.9026E+06    -118.900E+06    -113.334E+06    -100.468E+06    -25.5857E+06     438.336E+03         60.2197
            2014     5.45201E-03     185.953E-03     135.581E-03    -32.1218E-03    -40.5586E-03    -38.3626E-03     135.380E-03    -34.1166E-03    -3.16903E-03     505.521E-03    -250.245E-03    -255.751E-03    -253.823E-03     503.942E-03    -250.593E-03     68.9556E-03    -6.06942E+06    -78.4528E+06    -103.525E+06    -103.138E+06    -78.8394E+06    -6.06942E+06    -2.37367E+06         60.7252
            2015     6.22869E-03     186.085E-03     119.440E-03    -19.4353E-03    -33.5167E-03    -19.2911E-03     118.785E-03    -33.0064E-03     7.68665E-03     514.643E-03    -251.308E-03    -263.441E-03    -261.251E-03     512.452E-03    -251.308E-03     82.2469E-03     13.3550E+06    -54.3529E+06    -91.3560E+06    -91.0326E+06    -54.6763E+06     13.3550E+06     -3.3068E+06         61.5089
            2016     6.99976E-03     186.235E-03     104.709E-03    -9.74876E-03    -30.3281E-03    -8.93976E-03     103.900E-03    -30.3281E-03     12.6939E-03     527.580E-03    -252.511E-03    -274.933E-03    -272.153E-03     524.799E-03    -252.511E-03     94.2278E-03     29.9749E+06    -33.6948E+06    -79.0414E+06    -78.0427E+06    -34.6935E+06     29.9749E+06    -6.10696E+06         62.5707
            2017     7.76031E-03     186.396E-03     106.685E-03    -14.6374E-03    -30.3424E-03    -16.8048E-03     106.449E-03    -27.9391E-03     5.07584E-03     543.334E-03    -254.795E-03    -288.427E-03    -285.216E-03     540.122E-03    -254.795E-03     103.151E-03     43.6951E+06    -11.4018E+06    -66.9969E+06    -65.5631E+06    -12.8356E+06     43.6951E+06    -8.18874E+06         63.8436
            2018     8.51076E-03     186.569E-03     119.678E-03    -22.7096E-03    -34.4808E-03    -30.1725E-03     119.668E-03    -27.0083E-03     248.500E-06     560.746E-03    -258.248E-03    -303.758E-03    -300.336E-03     557.323E-03    -258.248E-03     108.569E-03     56.5383E+06     12.7422E+06    -57.1005E+06    -55.5062E+06     11.1479E+06     56.5383E+06    -9.36156E+06         65.3322
            2019     9.25097E-03     186.745E-03     126.549E-03    -25.9300E-03    -41.1915E-03    -39.8620E-03     126.532E-03    -27.2417E-03     33.6700E-06     581.297E-03    -261.907E-03    -320.011E-03    -316.639E-03     577.925E-03    -261.907E-03     110.006E-03     67.8288E+06     34.1967E+06    -48.5045E+06    -46.1557E+06     31.8478E+06     67.8288E+06    -12.7396E+06         67.2747
            2020     9.97617E-03     186.930E-03     124.243E-03    -22.8675E-03    -42.4076E-03    -37.4457E-03     124.010E-03    -27.5965E-03     6.60499E-03     601.870E-03    -265.782E-03    -335.340E-03    -332.265E-03     598.794E-03    -265.782E-03     107.101E-03     72.8342E+06     48.8385E+06    -43.8428E+06    -39.1279E+06     44.1236E+06     72.8342E+06    -16.7818E+06         70.1127
            2021     10.6887E-03     187.125E-03     124.573E-03    -24.0476E-03    -37.3228E-03    -33.5916E-03     124.259E-03    -27.4650E-03     9.83278E-03     618.050E-03    -271.096E-03    -347.100E-03    -344.378E-03     615.328E-03    -271.096E-03     102.306E-03     77.9872E+06     63.6337E+06    -39.8761E+06    -34.0396E+06     57.7972E+06     77.9872E+06    -18.7605E+06         74.0303
            2022     11.3961E-03     187.302E-03     125.862E-03    -27.2956E-03    -40.0457E-03    -39.8786E-03     125.695E-03    -27.2956E-03     3.02563E-03     630.330E-03    -276.375E-03    -354.208E-03    -351.807E-03     627.928E-03    -276.375E-03     96.9342E-03     93.7403E+06     79.6166E+06    -32.4538E+06    -26.8390E+06     80.3222E+06     87.4199E+06    -20.9243E+06         78.7320
            2023     12.0999E-03     187.461E-03     125.658E-03    -26.7885E-03    -38.2062E-03    -37.6377E-03     125.534E-03    -27.2327E-03    -111.048E-06     638.057E-03    -280.923E-03    -357.205E-03    -354.522E-03     635.374E-03    -280.923E-03     102.657E-03     95.4255E+06     69.8944E+06    -32.5932E+06    -16.4397E+06     60.0613E+06     89.1051E+06    -20.6340E+06         83.3133
            2024     12.8016E-03     187.686E-03     126.870E-03    -26.7161E-03    -41.0558E-03    -40.4982E-03     126.757E-03    -27.1603E-03    -2.79067E-03     640.834E-03    -285.352E-03    -355.893E-03    -353.269E-03     638.211E-03    -285.352E-03     101.514E-03     121.436E+06     39.8934E+06    -24.1019E+06    -4.39697E+06     20.1886E+06     121.436E+06    -8.37248E+06         86.7565
            2025     771.245E-06     187.535E-03     121.390E-03     1.17976E-03    -74.1307E-03    -57.4514E-03     110.627E-03    -4.73706E-03     68.6417E-03     520.282E-03    -259.412E-03    -260.991E-03    -259.407E-03     520.276E-03    -260.991E-03     2.79653E-03    -189.528E+06    -211.401E+06    -252.950E+06    -210.096E+06    -235.919E+06    -207.864E+06     4.95454E+06         60.5673
            2026     1.54381E-03     187.371E-03     98.9670E-03    -8.66449E-03    -38.1955E-03    -12.3916E-03     89.8992E-03    -25.4006E-03     23.6560E-03     515.857E-03    -257.058E-03    -259.327E-03    -257.034E-03     515.833E-03    -259.327E-03     7.73067E-03    -165.451E+06    -180.574E+06    -217.593E+06    -187.386E+06    -207.308E+06    -168.925E+06     7.72915E+06         60.3928
            2027     2.31886E-03     187.323E-03     99.2423E-03    -10.0283E-03    -36.5166E-03    -19.1737E-03     92.7187E-03    -20.8477E-03     13.2389E-03     510.307E-03    -253.795E-03    -257.613E-03    -253.722E-03     510.234E-03    -257.613E-03     14.0359E-03    -131.412E+06    -156.787E+06    -188.717E+06    -166.461E+06    -179.043E+06    -131.412E+06     10.0924E+06         60.1758
            2028     3.09676E-03     187.336E-03     101.140E-03    -18.5168E-03    -28.1472E-03    -24.9714E-03     100.394E-03    -20.9467E-03     10.2616E-03     505.083E-03    -249.999E-03    -255.769E-03    -249.807E-03     504.891E-03    -255.769E-03     23.0471E-03    -93.7248E+06    -133.969E+06    -162.184E+06    -147.348E+06    -148.805E+06    -93.7248E+06     12.6335E+06         59.9931
            2029     3.87935E-03     187.385E-03     107.020E-03    -19.4109E-03    -31.1842E-03    -28.2947E-03     106.561E-03    -21.8409E-03    -6.45141E-03     501.765E-03    -247.548E-03    -254.487E-03    -247.127E-03     501.344E-03    -254.487E-03     34.6737E-03    -56.8746E+06    -107.910E+06    -138.965E+06    -129.013E+06    -117.862E+06    -56.8746E+06     13.1617E+06         59.9538
            2030     4.66156E-03     187.465E-03     109.571E-03    -22.7702E-03    -33.6250E-03    -32.9830E-03     108.929E-03    -22.7702E-03    -2.55121E-03     500.402E-03    -247.781E-03    -253.117E-03    -247.001E-03     499.622E-03    -253.117E-03     47.6053E-03    -27.6874E+06    -86.6315E+06    -119.010E+06    -113.873E+06    -91.7678E+06    -27.6874E+06     9.55800E+06         60.1533
            2031     5.44541E-03     187.576E-03     105.084E-03    -23.1237E-03    -30.2539E-03    -29.3343E-03     104.165E-03    -23.1237E-03     11.2512E-03     503.144E-03    -249.944E-03    -252.933E-03    -249.846E-03     501.884E-03    -251.772E-03     61.0743E-03    -9.24302E+06    -68.3060E+06    -107.408E+06    -104.937E+06    -70.7771E+06    -9.24302E+06     4.72856E+06         60.6384
            2032     6.22606E-03     187.706E-03     103.592E-03    -16.4231E-03    -31.2455E-03    -23.8489E-03     102.217E-03    -22.4445E-03     17.1033E-03     509.566E-03    -252.055E-03    -258.061E-03    -256.264E-03     507.769E-03    -252.055E-03     73.7967E-03     8.20702E+06    -44.2308E+06    -95.8795E+06    -94.7513E+06    -45.3589E+06     8.20702E+06    -2.40036E+06         61.4080
            2033     7.00029E-03     187.868E-03     107.393E-03    -13.1034E-03    -38.4095E-03    -28.7540E-03     106.426E-03    -21.7913E-03     19.8187E-03     519.365E-03    -253.041E-03    -268.519E-03    -266.166E-03     517.012E-03    -253.041E-03     85.6791E-03     24.3278E+06    -20.5514E+06    -84.2730E+06    -82.5553E+06    -22.2690E+06     24.3278E+06    -9.70457E+06         62.4574
            2034     7.76742E-03     188.048E-03     111.942E-03    -19.4116E-03    -39.3295E-03    -36.0473E-03     111.326E-03    -22.0781E-03     15.2439E-03     535.007E-03    -254.147E-03    -281.884E-03    -279.086E-03     532.209E-03    -254.147E-03     95.2302E-03     36.7326E+06    -3.48735E+06    -73.4435E+06    -69.8638E+06    -7.06704E+06     36.7326E+06    -14.9247E+06         63.7733
            2035     8.52383E-03     188.255E-03     109.205E-03    -22.1263E-03    -34.1037E-03    -33.0639E-03     108.659E-03    -22.6191E-03     11.0642E-03     554.135E-03    -257.222E-03    -297.633E-03    -294.628E-03     551.130E-03    -257.222E-03     100.765E-03     52.2859E+06     19.1932E+06    -58.2044E+06    -53.7265E+06     14.7153E+06     52.2859E+06    -16.2471E+06         65.3367
            2036     9.26461E-03     188.478E-03     97.4064E-03    -20.7300E-03    -28.1623E-03    -26.0633E-03     97.1119E-03    -22.5345E-03    -441.996E-06     576.430E-03    -261.043E-03    -316.442E-03    -313.505E-03     573.493E-03    -261.043E-03     101.971E-03     66.2161E+06     37.7223E+06    -42.0144E+06    -38.5095E+06     34.2174E+06     66.2161E+06    -14.3392E+06         67.3387
            2037     9.99108E-03     188.708E-03     90.1603E-03    -17.2229E-03    -27.1260E-03    -21.8597E-03     89.6230E-03    -21.9519E-03     5.86751E-03     599.657E-03    -264.907E-03    -334.960E-03    -332.311E-03     597.008E-03    -264.907E-03     99.0453E-03     74.4333E+06     48.2107E+06    -29.0868E+06    -27.0383E+06     46.1621E+06     74.4333E+06    -11.2292E+06         70.1815
            2038     10.7037E-03     188.931E-03     91.3926E-03    -15.0588E-03    -27.2699E-03    -20.1685E-03     90.5505E-03    -21.3180E-03     8.51905E-03     619.129E-03    -270.407E-03    -349.791E-03    -347.456E-03     616.794E-03    -270.407E-03     94.7364E-03     92.1726E+06     73.1718E+06    -21.1766E+06    -17.9954E+06     74.0070E+06     88.1563E+06    -13.2085E+06         74.0472
            2039     11.4045E-03     189.138E-03     94.7843E-03    -18.1826E-03    -31.6537E-03    -28.2973E-03     94.2698E-03    -21.0245E-03    -6.70119E-03     634.505E-03    -275.706E-03    -359.693E-03    -357.702E-03     632.514E-03    -275.706E-03     88.6028E-03     107.584E+06     81.4051E+06    -15.7320E+06    -11.1702E+06     87.1799E+06     97.2474E+06    -16.2671E+06         78.6802
            2040     12.1009E-03     189.326E-03     100.046E-03    -21.0338E-03    -31.0220E-03    -30.6013E-03     99.6257E-03    -21.0338E-03     2.25336E-03     642.525E-03    -280.450E-03    -362.185E-03    -360.042E-03     640.382E-03    -280.450E-03     92.2321E-03     98.2920E+06     62.7003E+06    -29.2540E+06    -11.1199E+06     50.8866E+06     91.9716E+06    -12.4197E+06         83.2114
            2041     12.7997E-03     189.525E-03     103.938E-03    -21.0322E-03    -32.0426E-03    -31.3392E-03     103.234E-03    -21.0322E-03    -1.88311E-03     642.159E-03    -285.113E-03    -357.486E-03    -355.314E-03     639.987E-03    -285.113E-03     92.7410E-03     100.905E+06     35.0348E+06    -48.5142E+06    -13.4138E+06    -65.6317E+03     100.905E+06    -11.9527E+06         86.6242
            2042     764.048E-06     189.209E-03     122.143E-03     17.2309E-03    -100.055E-03    -78.2739E-03     105.660E-03     11.9331E-03     57.6944E-03     534.377E-03    -266.116E-03    -268.395E-03    -266.113E-03     534.374E-03    -268.395E-03    -1.48116E-03    -221.850E+06    -284.483E+06    -292.315E+06    -289.750E+06    -224.164E+06    -284.734E+06    -11.9701E+06         61.4300
            2043     1.53337E-03     189.069E-03     94.8922E-03    -14.8028E-03    -39.8152E-03    -12.1129E-03     83.3070E-03    -30.9199E-03     14.0729E-03     527.610E-03    -262.178E-03    -265.560E-03    -262.169E-03     527.602E-03    -265.560E-03     675.401E-06    -195.221E+06    -255.398E+06    -272.292E+06    -267.530E+06    -202.579E+06    -252.804E+06    -16.4783E+06         61.1378
            2044     2.30491E-03     188.992E-03     71.6373E-03    -5.40671E-03    -24.5144E-03     105.211E-06     64.5540E-03    -22.9429E-03     30.3925E-03     518.149E-03    -256.297E-03    -263.197E-03    -256.275E-03     518.128E-03    -263.197E-03     4.67176E-03    -159.223E+06    -221.048E+06    -244.808E+06    -239.032E+06    -175.605E+06    -210.443E+06    -18.1240E+06         60.7777
            2045     3.08251E-03     188.985E-03     68.7163E-03    -6.88211E-03    -18.6715E-03    -5.64020E-03     66.3596E-03    -17.5567E-03     20.2285E-03     510.414E-03    -251.056E-03    -260.474E-03    -250.983E-03     510.341E-03    -260.474E-03     12.2764E-03    -120.508E+06    -179.442E+06    -216.304E+06    -206.899E+06    -147.879E+06    -161.475E+06    -19.0078E+06         60.4832
            2046     3.86289E-03     189.022E-03     70.2445E-03    -7.91796E-03    -15.5078E-03    -7.13357E-03     69.0731E-03    -15.1208E-03    -4.14919E-03     505.801E-03    -247.497E-03    -258.444E-03    -247.291E-03     505.594E-03    -258.444E-03     23.1507E-03    -85.6153E+06    -135.143E+06    -184.961E+06    -171.762E+06    -121.427E+06    -112.530E+06    -17.8318E+06         60.3839
            2047     4.64730E-03     189.092E-03     71.4014E-03    -10.5206E-03    -16.0636E-03    -10.3487E-03     68.9317E-03    -13.7658E-03    -16.8968E-03     503.505E-03    -247.373E-03    -256.857E-03    -246.927E-03     503.059E-03    -256.857E-03     35.0934E-03    -57.0977E+06    -92.4505E+06    -149.948E+06    -137.340E+06    -95.0493E+06    -67.1065E+06    -12.5347E+06         60.5446
            2048     5.42932E-03     189.199E-03     79.6039E-03    -13.3298E-03    -20.2594E-03    -15.7878E-03     75.1322E-03    -13.3298E-03    -14.3784E-03     505.696E-03    -250.669E-03    -255.272E-03    -249.968E-03     504.912E-03    -255.189E-03     47.5467E-03    -26.4831E+06    -57.9260E+06    -116.211E+06    -104.986E+06    -67.6478E+06    -27.9868E+06    -10.1359E+06         61.0299
            2049     6.20813E-03     189.340E-03     89.7986E-03    -14.0026E-03    -29.1058E-03    -25.7601E-03     86.4530E-03    -14.0026E-03    -10.3846E-03     511.263E-03    -254.081E-03    -257.935E-03    -256.008E-03     510.097E-03    -254.842E-03     58.9167E-03     3.51088E+06    -29.7215E+06    -85.6377E+06    -78.6621E+06    -36.6971E+06     3.51088E+06    -10.9957E+06         61.8060
            2050     6.98283E-03     189.516E-03     93.8273E-03    -15.5672E-03    -35.7804E-03    -34.8730E-03     92.9199E-03    -15.5672E-03     2.15999E-03     519.865E-03    -255.682E-03    -266.459E-03    -264.926E-03     518.332E-03    -255.682E-03     68.2957E-03     28.0311E+06    -3.78437E+06    -63.3212E+06    -58.5427E+06    -8.56284E+06     28.0311E+06    -14.3009E+06         62.8314
            2051     7.75004E-03     189.730E-03     88.5346E-03    -15.8451E-03    -32.6960E-03    -31.1679E-03     87.9900E-03    -16.8287E-03     14.7317E-03     533.841E-03    -256.796E-03    -278.269E-03    -276.496E-03     532.068E-03    -256.796E-03     74.5009E-03     45.4449E+06     14.0394E+06    -49.7662E+06    -41.2078E+06     5.48101E+06     45.4449E+06    -19.4209E+06         64.1285
            2052     8.50612E-03     189.971E-03     79.0597E-03    -15.4209E-03    -23.8807E-03    -21.8107E-03     78.4662E-03    -16.8973E-03     13.1659E-03     551.920E-03    -259.206E-03    -292.595E-03    -290.719E-03     550.044E-03    -259.206E-03     78.0927E-03     57.5631E+06     21.4046E+06    -36.8869E+06    -26.6579E+06     11.1756E+06     57.5631E+06    -19.9636E+06         65.6673
            2053     9.24957E-03     190.231E-03     78.9410E-03    -16.0560E-03    -26.9952E-03    -26.2024E-03     78.6410E-03    -16.5488E-03     2.04693E-03     571.717E-03    -262.628E-03    -309.635E-03    -307.764E-03     569.846E-03    -262.628E-03     79.8347E-03     68.6180E+06     30.2371E+06    -20.8547E+06    -14.8708E+06     24.2531E+06     68.6180E+06    -14.2990E+06         67.5832
            2054     9.97839E-03     190.495E-03     81.7943E-03    -16.6885E-03    -32.6453E-03    -32.2961E-03     81.4451E-03    -16.6885E-03     1.84197E-03     593.135E-03    -266.574E-03    -327.134E-03    -325.381E-03     591.381E-03    -266.574E-03     79.3487E-03     80.9300E+06     47.7798E+06    -7.20773E+06    -4.56256E+06     45.1346E+06     80.9300E+06    -10.7038E+06         70.2546
            2055     10.6953E-03     190.736E-03     76.3860E-03    -14.0287E-03    -28.4490E-03    -24.7440E-03     75.5229E-03    -16.8706E-03     4.55053E-03     613.324E-03    -271.488E-03    -343.181E-03    -341.569E-03     611.711E-03    -271.488E-03     77.8672E-03     103.018E+06     67.1419E+06     1.31822E+06     2.71123E+06     69.7652E+06     99.0014E+06    -5.25216E+06         73.9288
            2056     11.4013E-03     190.974E-03     71.1864E-03    -13.8872E-03    -24.3403E-03    -20.6636E-03     70.3517E-03    -16.7291E-03     1.65077E-03     630.350E-03    -276.144E-03    -355.264E-03    -353.837E-03     628.923E-03    -276.144E-03     74.3646E-03     123.275E+06     83.9220E+06     943.953E+03     3.83404E+06     91.5579E+06     112.749E+06     1.07428E+06         78.4196
            2057     12.0989E-03     191.148E-03     69.5738E-03    -16.5280E-03    -21.4383E-03    -20.8195E-03     68.9551E-03    -16.5280E-03     9.40324E-03     639.819E-03    -280.797E-03    -358.880E-03    -357.299E-03     638.238E-03    -280.797E-03     78.6991E-03     111.066E+06     71.2608E+06    -26.2290E+06     8.33717E+06     43.2044E+06     104.556E+06     4.43827E+06         82.8696
            2058     12.7980E-03     191.355E-03     69.7186E-03    -14.6854E-03    -21.4927E-03    -19.1376E-03     68.9798E-03    -16.3018E-03     1.67148E-03     639.043E-03    -285.325E-03    -353.843E-03    -352.121E-03     637.321E-03    -285.325E-03     82.3370E-03     120.601E+06     59.4820E+06    -48.5974E+06     16.8985E+06    -6.01394E+06     120.601E+06     8.02440E+06         86.2348
            2059     758.690E-06     190.959E-03     95.5223E-03     24.0009E-03    -88.2774E-03    -61.2514E-03     50.9465E-03     41.5508E-03     23.7105E-03     554.302E-03    -274.797E-03    -279.418E-03    -274.772E-03     554.277E-03    -279.418E-03    -7.48905E-03    -164.599E+06    -231.645E+06    -245.429E+06    -241.029E+06    -168.999E+06    -231.645E+06    -15.3347E+06         63.0299
            2060     1.51857E-03     190.725E-03     82.6898E-03    -13.0462E-03    -32.8837E-03    -17.0910E-03     66.8971E-03    -13.0462E-03     2.61442E-03     544.453E-03    -269.553E-03    -274.551E-03    -269.488E-03     544.388E-03    -274.551E-03    -11.9769E-03    -144.963E+06    -233.740E+06    -258.602E+06    -247.944E+06    -155.621E+06    -233.740E+06    -32.1279E+06         62.6140
            2061     2.28880E-03     190.660E-03     70.6410E-03    -8.78648E-03    -26.5744E-03    -18.1458E-03     68.9294E-03    -15.5034E-03     15.6572E-03     531.379E-03    -260.950E-03    -271.210E-03    -260.880E-03     531.309E-03    -271.210E-03    -11.2399E-03    -124.721E+06    -217.345E+06    -259.875E+06    -243.382E+06    -141.213E+06    -217.345E+06    -43.1830E+06         62.1683
            2062     3.06223E-03     190.634E-03     57.3681E-03    -2.37321E-03    -22.5261E-03    -7.08008E-03     54.7507E-03    -15.2018E-03     17.2524E-03     521.240E-03    -255.093E-03    -267.630E-03    -255.039E-03     521.186E-03    -267.630E-03    -5.33927E-03    -100.305E+06    -183.071E+06    -249.585E+06    -227.826E+06    -122.065E+06    -183.071E+06    -51.7753E+06         61.8163
            2063     3.84108E-03     190.649E-03     56.3155E-03    -3.81706E-03    -14.3924E-03    -2.84698E-03     54.1269E-03    -13.1739E-03    -10.4936E-03     516.119E-03    -251.839E-03    -264.517E-03    -251.772E-03     516.052E-03    -264.517E-03     2.85027E-03    -77.3064E+06    -146.736E+06    -233.599E+06    -205.808E+06    -105.097E+06    -146.736E+06    -59.2124E+06         61.6860
            2064     4.61942E-03     190.720E-03     66.6153E-03    -8.84614E-03    -16.8266E-03    -10.4489E-03     63.4828E-03    -12.0913E-03    -28.7994E-03     514.237E-03    -251.476E-03    -262.924E-03    -251.346E-03     514.107E-03    -262.924E-03     11.7812E-03    -57.4342E+06    -111.040E+06    -209.802E+06    -176.530E+06    -90.7070E+06    -111.040E+06    -62.4405E+06         61.8142
            2065     5.39804E-03     190.840E-03     73.0372E-03    -12.4263E-03    -20.3849E-03    -16.3701E-03     69.0225E-03    -12.4263E-03    -27.0175E-03     514.914E-03    -254.119E-03    -261.861E-03    -253.862E-03     514.657E-03    -261.861E-03     19.7835E-03    -30.8773E+06    -78.5829E+06    -179.093E+06    -144.106E+06    -69.3051E+06    -75.1413E+06    -61.9208E+06         62.2054
            2066     6.17373E-03     190.994E-03     68.0542E-03    -13.0096E-03    -20.0553E-03    -16.8067E-03     64.8338E-03    -13.0378E-03    -13.8952E-03     519.817E-03    -258.482E-03    -262.556E-03    -259.530E-03     519.409E-03    -261.101E-03     26.0579E-03     3.23767E+06    -50.4568E+06    -145.000E+06    -111.262E+06    -42.5638E+06    -38.3926E+06    -58.7762E+06         62.8538
            2067     6.94129E-03     191.206E-03     58.9011E-03    -7.51144E-03    -16.4463E-03    -9.05242E-03     56.8471E-03    -12.8514E-03     4.91189E-03     528.623E-03    -261.735E-03    -267.730E-03    -267.198E-03     528.105E-03    -261.749E-03     30.3427E-03     28.8862E+06    -17.6035E+06    -110.087E+06    -80.0856E+06    -16.6893E+06    -2.02921E+06    -52.6163E+06         63.7313
            2068     7.70109E-03     191.431E-03     55.6168E-03    -5.56716E-03    -14.6796E-03    -7.17417E-03     54.4068E-03    -11.8625E-03     13.1099E-03     539.672E-03    -263.723E-03    -276.630E-03    -276.053E-03     539.095E-03    -263.723E-03     34.0294E-03     42.6126E+06     12.3029E+06    -81.9657E+06    -56.9190E+06     861.829E+03     29.0070E+06    -44.5543E+06         64.8111
            2069     8.45151E-03     191.703E-03     61.2361E-03    -10.2375E-03    -18.7881E-03    -17.4326E-03     60.8641E-03    -11.2211E-03     8.69455E-03     553.041E-03    -265.844E-03    -287.324E-03    -286.707E-03     552.424E-03    -265.844E-03     38.0794E-03     53.2570E+06     16.4512E+06    -65.7257E+06    -42.9196E+06    -2.77758E+06     49.6797E+06    -36.9423E+06         66.0828
            2070     9.19356E-03     191.990E-03     64.0509E-03    -11.3246E-03    -24.1640E-03    -23.8033E-03     63.6901E-03    -11.3246E-03     1.51522E-03     567.720E-03    -268.778E-03    -298.897E-03    -298.236E-03     567.060E-03    -268.778E-03     42.1136E-03     63.6807E+06     17.6978E+06    -49.8104E+06    -32.8275E+06     714.929E+03     63.6807E+06    -28.7371E+06         67.7191
            2071     9.92863E-03     192.279E-03     61.1577E-03    -11.5973E-03    -26.5849E-03    -25.6544E-03     60.2272E-03    -11.5973E-03     3.73737E-03     583.620E-03    -271.945E-03    -311.703E-03    -311.000E-03     582.918E-03    -271.945E-03     45.8455E-03     76.5951E+06     35.8744E+06    -33.8356E+06    -27.2567E+06     29.2955E+06     76.5951E+06    -17.9446E+06         70.0901
            2072     10.6536E-03     192.569E-03     61.3889E-03    -11.7211E-03    -25.6328E-03    -24.5590E-03     60.3150E-03    -11.7211E-03     9.81033E-03     599.674E-03    -275.124E-03    -324.838E-03    -324.102E-03     598.938E-03    -275.124E-03     49.1443E-03     82.3497E+06     42.2079E+06    -24.2347E+06    -22.9655E+06     40.9387E+06     82.3497E+06    -6.21219E+06         73.4698
            2073     11.3704E-03     192.787E-03     60.2889E-03    -11.7419E-03    -23.9658E-03    -23.4236E-03     59.7466E-03    -11.7419E-03     9.54725E-03     613.787E-03    -279.026E-03    -335.111E-03    -334.378E-03     613.054E-03    -279.026E-03     51.1687E-03     103.549E+06     71.6330E+06    -14.3835E+06    -13.1719E+06     76.9311E+06     97.0391E+06     3.54574E+06         77.7440
            2074     12.0810E-03     193.021E-03     57.0791E-03    -11.8945E-03    -27.3125E-03    -26.6806E-03     56.4471E-03    -11.8945E-03     13.9915E-03     624.434E-03    -282.814E-03    -341.567E-03    -340.681E-03     623.548E-03    -282.814E-03     57.0439E-03     108.646E+06     74.5363E+06    -38.0996E+06    -9.02084E+06     51.9672E+06     102.137E+06     2.84468E+06         82.0849
            2075     12.7913E-03     193.174E-03     55.0196E-03    -8.81992E-03    -21.1636E-03    -17.4627E-03     54.4738E-03    -11.9751E-03     10.5701E-03     621.692E-03    -286.222E-03    -335.726E-03    -334.662E-03     620.628E-03    -286.222E-03     62.7827E-03     120.650E+06     44.5037E+06    -58.8004E+06    -11.5546E+06    -2.74214E+06     120.650E+06     14.1174E+06         85.4076
            2076     745.812E-06     192.689E-03     97.4505E-03     20.2836E-03    -98.6142E-03    -78.7005E-03     38.5280E-03     59.2924E-03    -6.37555E-03     580.337E-03    -286.076E-03    -294.257E-03    -285.981E-03     580.242E-03    -294.257E-03    -16.8080E-03    -90.5678E+06    -113.261E+06    -142.206E+06    -117.326E+06    -117.960E+06    -110.749E+06    -8.07817E+06         65.8349
            2077     1.50122E-03     192.453E-03     58.8135E-03    -8.12774E-03    -27.0505E-03    -4.01263E-03     35.7755E-03    -8.12774E-03     11.9544E-03     565.407E-03    -279.091E-03    -286.496E-03    -278.928E-03     565.244E-03    -286.496E-03    -23.0883E-03    -78.9585E+06    -117.322E+06    -140.568E+06    -129.153E+06    -92.8872E+06    -114.809E+06    -21.3346E+06         65.5061
            2078     2.26089E-03     192.340E-03     57.8830E-03    -8.29809E-03    -24.8468E-03    -18.3126E-03     51.3488E-03    -8.29809E-03     12.3854E-03     553.595E-03    -272.157E-03    -282.169E-03    -271.981E-03     553.418E-03    -282.169E-03    -23.9795E-03    -62.1766E+06    -110.715E+06    -158.580E+06    -138.435E+06    -82.3208E+06    -110.715E+06    -38.2652E+06         65.1956
            2079     3.03003E-03     192.300E-03     59.9968E-03    -6.75564E-03    -28.2397E-03    -22.2332E-03     58.5742E-03    -11.3395E-03     2.88654E-03     546.489E-03    -268.237E-03    -278.653E-03    -268.048E-03     546.301E-03    -278.653E-03    -23.6745E-03    -44.5554E+06    -100.290E+06    -169.052E+06    -140.450E+06    -73.1571E+06    -100.290E+06    -51.1810E+06         64.9551
            2080     3.79813E-03     192.322E-03     56.9971E-03    -7.03748E-03    -19.4414E-03    -9.99986E-03     52.9808E-03    -12.4627E-03     1.12709E-03     544.021E-03    -267.694E-03    -276.590E-03    -267.397E-03     543.724E-03    -276.590E-03    -26.5172E-03    -25.7542E+06    -85.6881E+06    -172.375E+06    -136.590E+06    -61.5390E+06    -85.6881E+06    -61.8873E+06         64.8508
            2081     4.56844E-03     192.392E-03     55.5034E-03    -7.02073E-03    -14.7123E-03    -5.60410E-03     50.9573E-03    -11.5828E-03     1.69287E-03     544.085E-03    -268.752E-03    -275.957E-03    -268.149E-03     543.481E-03    -275.957E-03    -32.9985E-03    -11.3278E+06    -72.3660E+06    -176.704E+06    -132.409E+06    -55.6229E+06    -72.3660E+06    -72.9279E+06         64.9071
            2082     5.33403E-03     192.515E-03     50.2191E-03    -5.97745E-03    -12.5252E-03    -6.82280E-03     48.9483E-03    -10.4090E-03     6.00762E-03     544.690E-03    -269.359E-03    -275.717E-03    -268.217E-03     543.548E-03    -275.717E-03    -43.2934E-03     511.164E+03    -60.0421E+06    -178.154E+06    -127.322E+06    -50.3205E+06    -60.0421E+06    -80.1287E+06         65.1012
            2083     6.09559E-03     192.681E-03     45.6168E-03    -8.74405E-03    -12.3706E-03    -10.1715E-03     44.1566E-03    -9.48305E-03     4.46883E-03     545.426E-03    -269.817E-03    -275.509E-03    -268.104E-03     543.713E-03    -275.509E-03    -52.3444E-03     16.1195E+06    -42.7287E+06    -170.872E+06    -120.378E+06    -34.3737E+06    -42.7287E+06    -82.6875E+06         65.3953
            2084     6.85106E-03     192.896E-03     41.9626E-03    -3.32945E-03    -14.4352E-03    -6.90717E-03     39.7745E-03    -8.66941E-03     6.34200E-03     546.788E-03    -269.028E-03    -277.525E-03    -268.118E-03     544.685E-03    -276.332E-03    -57.1272E-03     19.7936E+06    -22.2036E+06    -160.665E+06    -114.991E+06    -25.8802E+06    -22.2036E+06    -78.4284E+06         65.7809
            2085     7.60396E-03     193.132E-03     43.5435E-03    -2.73223E-03    -15.4205E-03    -8.41162E-03     41.8464E-03    -8.04398E-03     16.1848E-03     549.287E-03    -267.909E-03    -282.202E-03    -269.335E-03     547.102E-03    -278.591E-03    -56.0060E-03     19.9034E+06    -1.57585E+06    -146.423E+06    -108.628E+06    -17.8915E+06    -1.57585E+06    -69.4410E+06         66.2495
            2086     8.35024E-03     193.415E-03     43.3808E-03    -4.95333E-03    -16.6709E-03    -12.1132E-03     41.7230E-03    -7.85328E-03     13.9037E-03     553.233E-03    -267.183E-03    -286.687E-03    -271.955E-03     551.261E-03    -279.943E-03    -49.5898E-03     25.2505E+06     5.07281E+06    -132.741E+06    -100.603E+06    -17.7625E+06     15.9474E+06    -60.1480E+06         66.8387
            2087     9.09306E-03     193.707E-03     39.6424E-03    -4.02456E-03    -12.1816E-03    -7.19901E-03     38.1386E-03    -7.50335E-03     5.42073E-03     558.832E-03    -267.680E-03    -290.891E-03    -275.730E-03     557.276E-03    -281.285E-03    -39.5488E-03     29.7744E+06     4.94271E+06    -122.035E+06    -94.2145E+06    -20.1260E+06     27.0227E+06    -52.6087E+06         67.8624
            2088     9.83027E-03     194.029E-03     41.1499E-03    -6.39590E-03    -13.6027E-03    -11.7728E-03     39.8988E-03    -6.97474E-03     7.98286E-03     564.354E-03    -268.271E-03    -296.127E-03    -280.575E-03     563.388E-03    -282.856E-03    -24.4957E-03     40.9406E+06     12.5273E+06    -103.933E+06    -80.9466E+06    -9.21025E+06     39.6914E+06    -43.7361E+06         69.7485
            2089     10.5635E-03     194.345E-03     42.3375E-03    -6.75549E-03    -16.4172E-03    -15.4410E-03     41.3612E-03    -6.75549E-03     9.26026E-03     570.151E-03    -268.951E-03    -301.285E-03    -285.926E-03     569.725E-03    -283.885E-03    -4.17345E-03     54.6753E+06     23.6427E+06    -77.8208E+06    -61.7405E+06     7.56237E+06     54.6753E+06    -31.1498E+06         72.6763
            2090     11.2991E-03     194.638E-03     42.8355E-03    -6.76429E-03    -17.3947E-03    -17.0621E-03     42.5029E-03    -6.76429E-03     4.69026E-03     577.910E-03    -272.479E-03    -305.327E-03    -292.008E-03     577.672E-03    -285.561E-03     17.2653E-03     78.0715E+06     44.5240E+06    -50.9111E+06    -44.4685E+06     38.0814E+06     78.0715E+06    -18.8448E+06         76.5478
            2091     12.0312E-03     194.890E-03     46.7239E-03    -7.07121E-03    -24.9663E-03    -24.4328E-03     46.1904E-03    -7.07121E-03     11.5856E-03     586.156E-03    -276.974E-03    -309.289E-03    -298.719E-03     585.479E-03    -286.867E-03     43.9359E-03     105.539E+06     49.1615E+06    -46.2042E+06    -26.8896E+06     29.8469E+06     105.539E+06     4.16371E+06         80.7578
            2092     12.7525E-03     195.120E-03     48.5446E-03    -4.99460E-03    -17.8103E-03    -14.8907E-03     47.9883E-03    -7.35799E-03     10.7153E-03     587.171E-03    -282.686E-03    -304.857E-03    -298.819E-03     586.147E-03    -287.699E-03     58.8513E-03     129.283E+06     31.5266E+06    -38.1874E+06    -14.9901E+06     8.32935E+06     129.283E+06     6.32948E+06         84.2484
            2093     732.801E-06     194.543E-03     93.3835E-03     16.8725E-03    -105.359E-03    -98.3643E-03     46.6955E-03     56.5656E-03    -16.9543E-03     576.477E-03    -280.331E-03    -296.436E-03    -291.099E-03     576.061E-03    -285.252E-03     12.8460E-03    -16.2357E+06    -28.1924E+06    -60.5196E+06    -26.9601E+06    -52.3079E+06    -25.6797E+06    -11.7538E+06         69.0317
            2094     1.48291E-03     194.258E-03     44.6099E-03    -9.25513E-03    -24.6855E-03    -6.64530E-03     34.0195E-03    -16.7049E-03    -14.3213E-03     582.330E-03    -285.722E-03    -297.336E-03    -292.629E-03     581.939E-03    -290.038E-03     8.98303E-03    -15.4015E+06    -31.5239E+06    -53.6239E+06    -34.9496E+06    -36.5886E+06    -29.0112E+06    -17.0319E+06         69.1867
            2095     2.23659E-03     194.143E-03     36.5268E-03    -5.42649E-03    -21.9304E-03     1.04626E-03     19.4335E-03    -11.3097E-03     7.29960E-03     592.833E-03    -288.102E-03    -305.464E-03    -301.096E-03     592.631E-03    -292.268E-03    -7.90741E-03    -7.43178E+06    -23.2111E+06    -63.8823E+06    -39.2618E+06    -32.0522E+06    -23.2111E+06    -26.6031E+06         69.3852
            2096     2.98430E-03     194.090E-03     37.6403E-03    -7.58036E-03    -23.0818E-03    -6.74777E-03     22.5455E-03    -8.81960E-03     6.38936E-03     603.624E-03    -291.495E-03    -311.708E-03    -307.720E-03     603.117E-03    -294.976E-03    -37.4004E-03     2.64812E+06    -17.3645E+06    -71.3373E+06    -42.5923E+06    -28.2526E+06    -15.2088E+06    -34.2278E+06         69.5287
            2097     3.73103E-03     194.105E-03     37.6776E-03    -5.70293E-03    -13.6963E-03    -2.24263E-03     28.4571E-03    -7.93607E-03     8.26698E-03     611.895E-03    -295.968E-03    -315.817E-03    -311.444E-03     609.898E-03    -298.343E-03    -77.2044E-03     13.8314E+06    -10.4418E+06    -75.0968E+06    -45.4961E+06    -22.6238E+06    -3.58734E+06    -38.7691E+06         69.6098
            2098     4.46702E-03     194.162E-03     31.0998E-03    -1.71418E-03    -9.97703E-03     2.08967E-03     23.7478E-03    -6.42884E-03     2.44390E-03     615.786E-03    -300.349E-03    -316.184E-03    -310.178E-03     611.071E-03    -301.640E-03    -120.851E-03     25.8079E+06    -5.85434E+06    -78.1647E+06    -49.0140E+06     -17.564E+06     8.36685E+06    -41.7696E+06         69.6288
            2099     5.19768E-03     194.281E-03     24.6086E-03     1.00897E-03    -8.56356E-03     393.628E-06     21.6757E-03    -5.01537E-03    -878.143E-06     615.521E-03    -302.676E-03    -312.635E-03    -302.783E-03     607.325E-03    -304.332E-03    -160.910E-03     37.0664E+06    -4.74105E+06    -80.9576E+06    -49.6980E+06    -18.2078E+06     19.2735E+06    -44.2688E+06         69.5722
            2100     5.92627E-03     194.434E-03     27.0330E-03    -2.04489E-03    -8.53036E-03    -4.43811E-03     25.2443E-03    -4.34848E-03    -7.10056E-03     609.785E-03    -300.396E-03    -308.714E-03    -290.669E-03     597.717E-03    -306.372E-03    -193.945E-03     45.1121E+06    -2.11373E+06    -80.0628E+06    -52.1857E+06    -12.7729E+06     27.8941E+06    -43.0972E+06         69.3858
            2101     6.66018E-03     194.617E-03     32.7214E-03    -4.44348E-03    -12.3053E-03    -11.2274E-03     31.6436E-03    -4.44348E-03    -2.10848E-03     599.566E-03    -291.460E-03    -308.158E-03    -275.412E-03     583.518E-03    -308.158E-03    -218.836E-03     46.0831E+06     3.35758E+06    -81.4343E+06    -57.8833E+06    -9.11165E+06     35.0013E+06    -41.2484E+06         69.0660
            2102     7.39761E-03     194.843E-03     30.6709E-03    -4.76626E-03    -12.4760E-03    -11.2040E-03     29.3989E-03    -4.76626E-03     13.4211E-03     587.296E-03    -278.628E-03    -309.492E-03    -258.989E-03     567.657E-03    -309.492E-03    -234.063E-03     46.9230E+06     1.75462E+06    -82.8117E+06    -60.9982E+06    -12.1852E+06     39.0494E+06    -39.1856E+06         68.6719
            2103     8.13831E-03     195.105E-03     20.3215E-03    -1.84130E-03    -12.4680E-03    -7.59338E-03     18.3468E-03    -4.74125E-03     12.1678E-03     573.586E-03    -264.265E-03    -309.409E-03    -242.197E-03     551.518E-03    -309.409E-03    -237.586E-03     49.8651E+06     1.64852E+06    -79.3111E+06    -59.9963E+06    -11.9404E+06     44.1393E+06    -35.4909E+06         68.2948
            2104     8.88402E-03     195.400E-03     18.6474E-03    -782.411E-06    -8.39328E-03    -1.63829E-03     15.3712E-03    -4.26120E-03     11.4490E-03     557.374E-03    -248.383E-03    -308.593E-03    -226.021E-03     535.012E-03    -308.593E-03    -226.694E-03     54.7579E+06     5.21996E+06     -76.215E+06    -57.7843E+06    -10.4590E+06     52.0062E+06    -33.7141E+06         68.3759
            2105     9.63445E-03     195.718E-03     24.8032E-03    -3.07623E-03    -9.75468E-03    -3.34847E-03     18.9758E-03    -3.65507E-03     15.7290E-03     538.864E-03    -231.945E-03    -307.012E-03    -211.885E-03     518.805E-03    -307.012E-03    -199.773E-03     64.5802E+06     6.19905E+06    -71.5906E+06    -51.7409E+06    -12.4015E+06     63.3310E+06    -32.9647E+06         69.5145
            2106     10.4001E-03     196.055E-03     27.0477E-03    -3.36159E-03    -12.9564E-03    -8.84222E-03     22.9335E-03    -3.36159E-03     14.5461E-03     521.353E-03    -217.282E-03    -304.194E-03    -201.474E-03     505.545E-03    -304.194E-03    -159.905E-03     79.2357E+06     6.30813E+06    -60.6604E+06    -43.7019E+06    -10.6504E+06     79.2357E+06    -27.8415E+06         71.8754
            2107     11.1752E-03     196.381E-03     24.9575E-03    -3.41247E-03    -12.6151E-03    -12.0087E-03     24.3511E-03    -3.41247E-03     7.65808E-03     508.821E-03    -208.118E-03    -300.916E-03    -197.604E-03     498.307E-03    -300.916E-03    -112.263E-03     103.282E+06     16.8269E+06    -43.7967E+06    -35.7649E+06     8.79513E+06     103.282E+06    -18.4419E+06         75.2823
            2108     11.9596E-03     196.675E-03     24.6610E-03    -3.67566E-03    -15.1316E-03    -13.8564E-03     23.3857E-03    -3.67566E-03     9.51599E-03     502.402E-03    -205.765E-03    -296.948E-03    -199.696E-03     496.333E-03    -296.948E-03    -57.5141E-03     117.641E+06     13.4630E+06    -54.6937E+06    -21.4689E+06    -19.7619E+06     117.641E+06    -5.61248E+06         79.3821
            2109     12.7664E-03     196.896E-03     29.1087E-03    -422.620E-06    -9.92913E-03    -4.50390E-03     27.0063E-03    -3.74539E-03     11.5518E-03     504.146E-03    -211.960E-03    -292.425E-03    -209.378E-03     501.563E-03    -292.425E-03    -5.09079E-03     137.138E+06     35.8634E+06    -32.9145E+06     4.37953E+06    -1.43058E+06     137.138E+06    -5.99836E+06         83.1993


