********************************************************************************
Field Output Report, written Tue May  6 06:34:54 2025

Source 1
---------

   ODB: D:/AISI_1020/Vel_20/1020_2a_32_rd_150_cal_0_v_20_f_025.odb
   Step: Step-1
   Frame: Increment   4048540: Step Time =   0.5102

Loc 1 : Nodal values from source 1

Output sorted by column "Node Label".

Field Output reported at nodes for region: DIE_2A_32_D0_36-1.Region_1
   Computation algorithm: EXTRAPOLATE_COMPUTE_AVERAGE
   Averaged at nodes
   Averaging regions: ODB_REGIONS

      Node Label     COORD.COOR1     COORD.COOR2
                          @Loc 1          @Loc 1
-------------------------------------------------
               1     22.6170E-03     167.460E-03


Field Output reported at nodes for region: DIE_2A_32_D0_36-1.Region_2
   Computation algorithm: EXTRAPOLATE_COMPUTE_AVERAGE
   Averaged at nodes
   Averaging regions: ODB_REGIONS

      Node Label     COORD.COOR1     COORD.COOR2
                          @Loc 1          @Loc 1
-------------------------------------------------
               1     22.6170E-03     167.460E-03


Field Output reported at nodes for part: WIRE_1-1
   Computation algorithm: EXTRAPOLATE_COMPUTE_AVERAGE
   Averaged at nodes
   Averaging regions: ODB_REGIONS

      Node Label     COORD.COOR1     COORD.COOR2    ER.Max. Prin    ER.Mid. Prin    ER.Min. Prin         ER.ER11         ER.ER22         ER.ER33         ER.ER12    PE.Max. Prin    PE.Mid. Prin    PE.Min. Prin         PE.PE11         PE.PE22         PE.PE33         PE.PE12     S.Max. Prin     S.Mid. Prin     S.Min. Prin           S.S11           S.S22           S.S33           S.S12            TEMP
                          @Loc 1          @Loc 1          @Loc 1          @Loc 1          @Loc 1          @Loc 1          @Loc 1          @Loc 1          @Loc 1          @Loc 1          @Loc 1          @Loc 1          @Loc 1          @Loc 1          @Loc 1          @Loc 1          @Loc 1          @Loc 1          @Loc 1          @Loc 1          @Loc 1          @Loc 1          @Loc 1          @Loc 1
-----------------------------------------------------------------------------------------------------------------------------------------------------------------------------------------------------------------------------------------------------------------------------------------------------------------------------------------------------------------------------------------------------------------
               1     17.7528E-03     57.4350E-03     996.446E-03    -117.640E-03    -588.394E-03    -118.771E-03    -587.263E-03     996.446E-03    -46.0841E-03     201.231E-03    -14.5077E-03    -186.721E-03    -31.8681E-03     46.3782E-03    -14.5077E-03     379.957E-03     212.398E+06     128.564E+06    -4.62246E+06    -4.60627E+06     212.382E+06     128.564E+06    -1.49123E+06         56.2628
               2    -392.277E-09     56.3585E-03         8.89112     958.749E-03        -9.50948        -5.94313        -2.60760         8.89112         9.91330     28.7345E-03    -14.1511E-03    -14.5843E-03    -14.4009E-03     28.7161E-03    -14.3160E-03     1.71438E-03     12.9446E+06     7.65008E+06    -143.581E+06     9.13654E+06    -143.529E+06     11.4062E+06     2.76319E+06         21.8399
               3     3.90208E-06     81.9564E-09         2.21766         2.18317        -3.88285         2.18282        -3.88250         2.21766     91.4375E-03     32.5382E-03    -15.6948E-03    -16.8436E-03    -16.8361E-03     32.5308E-03    -15.6948E-03    -1.21202E-03    -24.9462E+06    -34.2846E+06    -162.082E+06    -34.2964E+06    -162.070E+06    -24.9462E+06    -1.22554E+06         23.6697
               4     17.8128E-03     81.9564E-09         1.24080    -238.333E-03    -546.378E-03    -238.697E-03    -546.014E-03         1.24080     21.1736E-03     95.1054E-03    -10.7132E-03    -84.5853E-03    -80.5034E-03     91.0235E-03    -10.7132E-03     53.5467E-03     144.189E+06     61.6967E+06    -11.1337E+06    -7.21472E+06     140.270E+06     61.6967E+06    -24.3588E+06         40.2942
               5     17.4257E-03     113.921E-03     120.987E-03    -19.9176E-03    -45.3070E-03    -43.3343E-03     119.014E-03    -19.9176E-03     36.0084E-03     12.4696E-03     10.7107E-03    -23.1802E-03     11.5420E-03     11.6382E-03    -23.1802E-03     1.75630E-03     34.5768E+06    -18.3459E+06    -137.016E+06     32.0702E+06    -15.8393E+06    -137.016E+06     11.2415E+06         35.4552
               6     17.5474E-06     112.663E-03     489.542E-03    -90.3295E-03    -599.130E-03    -572.779E-03     463.192E-03    -90.3295E-03    -334.622E-03     27.0615E-03    -11.1320E-03    -15.9290E-03    -15.8407E-03     26.9732E-03    -11.1320E-03    -3.89208E-03     69.9819E+06     36.9624E+06     3.52874E+06     27.6918E+06     12.7994E+06     69.9819E+06    -14.9669E+06         21.3714
               7     16.7636E-03     57.0121E-03         1.00062    -52.8930E-03    -651.865E-03    -53.7262E-03    -651.031E-03         1.00062    -4.98781E-03     213.186E-03    -14.1975E-03    -198.983E-03    -42.7882E-03     56.9915E-03    -14.1975E-03     399.569E-03     191.121E+06     84.3760E+06    -6.27820E+06    -6.26255E+06     191.105E+06     84.3760E+06    -405.409E+03         54.3797
               8     15.7924E-03     56.5615E-03         1.01612     87.0553E-03    -801.037E-03     85.6513E-03    -799.633E-03         1.01612    -24.8299E-03     139.207E-03    -13.6129E-03    -125.588E-03    -32.5373E-03     46.1566E-03    -13.6129E-03     252.548E-03     132.773E+06     16.5759E+06    -32.6351E+06    -7.47322E+06     132.761E+06    -8.57424E+06     757.697E+03         49.9758
               9     14.7959E-03     56.4748E-03         1.05083     233.069E-03    -978.251E-03     231.781E-03    -976.963E-03         1.05083    -22.4834E-03     41.9907E-03    -13.4013E-03    -28.5877E-03    -12.4619E-03     25.8648E-03    -13.4013E-03     55.6774E-03     47.0685E+06    -7.41443E+06    -68.0641E+06    -5.22748E+06     44.8815E+06    -68.0641E+06     1.68661E+06         44.6606
              10     13.8116E-03     56.4484E-03         1.09900     365.433E-03        -1.15298     364.761E-03        -1.15231         1.09900    -16.8351E-03     29.0603E-03    -13.5350E-03    -15.5256E-03    -13.1892E-03     26.7239E-03    -13.5350E-03     18.9300E-03     969.146E+03    -18.9624E+06    -68.0260E+06    -343.878E+03    -17.6494E+06    -68.0260E+06     1.67291E+06         39.3046
              11     12.8231E-03     56.4342E-03         1.14806     494.367E-03        -1.32629     493.501E-03        -1.32543         1.14806    -69.4500E-03     27.6341E-03    -13.6773E-03    -13.9601E-03    -13.0828E-03     26.7568E-03    -13.6773E-03     11.8311E-03     6.10128E+06    -35.4384E+06    -56.5595E+06     5.59599E+06    -42.4901E+06    -49.0026E+06     1.08220E+06         34.5159
              12     11.8360E-03     56.4234E-03         1.19535     622.792E-03        -1.50079     622.370E-03        -1.50037         1.19535    -48.5513E-03     27.8738E-03    -13.7830E-03    -14.0967E-03    -13.3996E-03     27.2119E-03    -13.8183E-03     10.4061E-03     9.51462E+06    -33.2943E+06    -70.4440E+06     9.36334E+06    -70.2928E+06    -33.2943E+06     1.26053E+06         30.5016
              13     10.8490E-03     56.4126E-03         1.24001     747.515E-03        -1.66688     747.410E-03        -1.66678         1.24001    -22.2458E-03     27.9907E-03    -13.9207E-03    -14.0757E-03    -13.5382E-03     27.4886E-03    -13.9561E-03     9.10631E-03     11.7493E+06    -16.9307E+06    -90.7791E+06     11.6918E+06    -90.7216E+06    -16.9307E+06     1.44750E+06         27.5101
              14     9.86213E-03     56.4038E-03         1.28147     871.008E-03        -1.82769     870.355E-03        -1.82704         1.28147    -65.3878E-03     28.0752E-03    -14.0062E-03    -14.0718E-03    -13.6250E-03     27.6710E-03    -14.0487E-03     8.19702E-03     13.5240E+06    -8.10717E+06    -100.222E+06     13.4901E+06    -100.188E+06    -8.10717E+06     1.34160E+06         25.5062
              15     8.87513E-03     56.3950E-03         1.31920     986.848E-03        -1.97867     985.886E-03        -1.97771         1.31920    -13.7791E-03     28.2230E-03    -14.0855E-03    -14.1374E-03    -13.7782E-03     27.9157E-03    -14.1374E-03     7.15507E-03     14.5634E+06    -3.46748E+06    -117.637E+06     14.5547E+06    -117.628E+06    -3.46748E+06     65.8888E+03         24.0871
              16     7.88885E-03     56.3887E-03         1.35304         1.09165        -2.11086         1.08848        -2.10768         1.35304    -91.2058E-03     28.4680E-03    -14.2203E-03    -14.2475E-03    -13.9895E-03     28.2194E-03    -14.2298E-03     6.49045E-03     16.9750E+06     4.24676E+06    -130.939E+06     16.9558E+06    -130.920E+06     4.24676E+06    -296.558E+03         23.0420
              17     6.90266E-03     56.3812E-03         1.38275         1.18839        -2.23341         1.18262        -2.22765         1.38275     6.75049E-03     28.6233E-03    -14.2361E-03    -14.3871E-03    -14.1092E-03     28.4136E-03    -14.3043E-03     5.96065E-03     19.4716E+06     11.6619E+06    -136.489E+06     19.4472E+06    -136.464E+06     11.6619E+06     839.708E+03         22.4033
              18     5.91590E-03     56.3762E-03         1.40850         1.27145        -2.34237         1.25916        -2.33008         1.40850    -118.645E-03     28.7950E-03    -14.2988E-03    -14.4969E-03    -14.2810E-03     28.6473E-03    -14.3670E-03     5.01425E-03     21.0061E+06     17.0944E+06    -145.126E+06     20.9763E+06    -145.096E+06     17.0944E+06     1.96535E+06         22.1206
              19     4.93053E-03     56.3718E-03         1.43209         1.34618        -2.44257         1.31213        -2.40852         1.43209     172.189E-03     28.8292E-03    -14.3586E-03    -14.4704E-03    -14.3239E-03     28.7265E-03    -14.4024E-03     4.19830E-03     22.4767E+06     19.9196E+06    -148.665E+06     22.2247E+06    -148.642E+06     20.1486E+06     1.69961E+06         22.0144
              20     3.94369E-03     56.3678E-03         1.49350         1.42391        -2.57793         1.37694        -2.49031         1.45285    -280.959E-03     28.8036E-03    -14.3518E-03    -14.4515E-03    -14.2876E-03     28.7355E-03    -14.4475E-03     3.39184E-03     24.5440E+06     21.3724E+06    -148.846E+06     21.8440E+06    -148.827E+06     24.0533E+06     1.59932E+06         21.9464
              21     2.95787E-03     56.3647E-03         1.67140         1.46395        -2.79610         1.45062        -2.57532         1.46395     464.495E-03     28.9208E-03    -14.3918E-03    -14.5289E-03    -14.4070E-03     28.8836E-03    -14.4765E-03     2.50520E-03     26.4232E+06     19.7386E+06    -146.947E+06     19.7157E+06    -146.924E+06     26.4232E+06     1.61179E+06         21.8927
              22     1.97216E-03     56.3622E-03         2.06954         1.46565        -3.19310         1.46589        -2.58945         1.46565    -908.997E-03     28.8932E-03    -14.3817E-03    -14.5105E-03    -14.4139E-03     28.8738E-03    -14.4588E-03     1.80936E-03     25.2260E+06     15.8015E+06    -145.120E+06     15.7764E+06    -145.095E+06     25.2260E+06     196.549E+03         21.8590
              23     985.560E-06     56.3612E-03         5.61535         1.21208        -6.48166        -2.24759        -2.58491         5.17826         2.86771     28.7617E-03    -14.2503E-03    -14.5112E-03    -14.3684E-03     28.7456E-03    -14.3771E-03     1.61895E-03     18.2284E+06     10.3892E+06    -144.041E+06     11.1141E+06    -143.997E+06     17.4592E+06     1.10549E+06         21.8438
              24     896.738E-09     55.3302E-03         8.79601     688.582E-03        -9.13148        -6.15391        -2.28899         8.79601         9.01947     28.1361E-03    -13.8964E-03    -14.2402E-03    -14.1602E-03     28.1317E-03    -13.9720E-03     642.723E-06     5.89921E+06     3.44367E+06    -146.899E+06     4.87074E+06    -146.788E+06     4.36076E+06    -1.52882E+06         21.8326
              25    -1.02965E-06     54.3060E-03         8.71134     542.427E-03        -8.87371        -6.46732        -1.86396         8.71134         8.18905     28.3377E-03    -13.9983E-03    -14.3388E-03    -13.9927E-03     28.3321E-03    -14.3388E-03     719.662E-06     9.57584E+06     8.29743E+06    -142.681E+06     8.56065E+06    -142.583E+06     9.21453E+06    -2.16767E+06         21.8266
              26     494.464E-09     53.2718E-03         8.47657     568.647E-03        -8.63969        -6.75995        -1.31110         8.47657         7.40684     28.8066E-03    -14.1694E-03    -14.6379E-03    -14.3591E-03     28.7927E-03    -14.4343E-03     1.54188E-03     10.9029E+06     9.78386E+06    -137.971E+06     10.8674E+06    -137.936E+06     9.78386E+06     2.01210E+06         21.8210
              27    -115.670E-09     52.2450E-03         8.22240     685.018E-03        -8.49959        -7.01355    -801.017E-03         8.22240         6.74535     27.8238E-03    -13.7554E-03    -14.0694E-03    -13.9485E-03     27.8134E-03    -13.8659E-03     1.26144E-03     2.65125E+06     1.35451E+06    -145.352E+06     2.60814E+06    -145.309E+06     1.35451E+06     2.42962E+06         21.8063
              28    -107.280E-09     51.2203E-03         8.00541     964.151E-03        -8.52988        -7.37106    -194.672E-03         8.00541         6.19162     27.8464E-03    -13.7983E-03    -14.0479E-03    -13.7938E-03     27.8420E-03    -14.0479E-03    -26.1192E-06     13.9315E+06     12.5334E+06    -137.851E+06     12.7426E+06    -137.521E+06     13.3925E+06    -3.96886E+06         21.7850
              29    -151.867E-09     50.1908E-03         7.81705         1.20717        -8.54468        -7.63517     297.655E-03         7.81705         5.66101     28.0311E-03    -13.8721E-03    -14.1582E-03    -13.8617E-03     28.0207E-03    -14.1582E-03     373.481E-06     12.6280E+06     10.0727E+06    -140.551E+06     11.4109E+06    -140.193E+06     10.9318E+06    -3.13733E+06         21.7651
              30    -171.791E-09     49.1597E-03         7.67720         1.41334        -8.59180        -7.88755     709.094E-03         7.67720         5.09636     27.4051E-03    -13.4856E-03    -13.9191E-03    -13.7467E-03     27.3796E-03    -13.6326E-03     2.01149E-03     5.67043E+06     3.77313E+06    -144.417E+06     5.30811E+06    -144.256E+06     3.97426E+06     4.70867E+06         21.7583
              31     710.090E-09     48.1358E-03         7.42933         1.92585        -8.85952        -8.32618         1.39251         7.42933         4.65703     27.4893E-03    -13.5890E-03    -13.9005E-03    -13.8565E-03     27.4702E-03    -13.6140E-03     1.56824E-03     11.1984E+06     8.48408E+06    -136.862E+06     8.35032E+06    -136.728E+06     11.1984E+06     2.05444E+06         21.7681
              32    -724.216E-09     47.1077E-03         7.19369         2.47045        -9.12060        -8.72944         2.07929         7.19369         4.15944     27.8493E-03    -13.9035E-03    -13.9465E-03    -13.8987E-03     27.8445E-03    -13.9465E-03     889.520E-06     11.4378E+06     6.72856E+06    -136.844E+06     8.91266E+06    -136.832E+06     9.24174E+06    -742.119E+03         21.7857
              33     658.310E-09     46.0785E-03         7.12893         2.76773        -9.32935        -9.03376         2.47214         7.12893         3.73179     28.0253E-03    -13.9075E-03    -14.1181E-03    -14.0881E-03     28.0133E-03    -13.9255E-03     1.38179E-03     12.0814E+06     5.74328E+06    -141.063E+06     7.93292E+06    -141.057E+06     9.88534E+06      850.38E+03         21.8057
              34    -237.635E-09     45.0514E-03         6.98546         3.17999        -9.58400        -9.34600         2.94198         6.98546         3.43652     28.2021E-03    -13.9279E-03    -14.2743E-03    -14.1065E-03     28.1880E-03    -14.0816E-03     1.52912E-03     11.3377E+06     5.08879E+06    -146.135E+06     7.18311E+06    -146.122E+06     9.23084E+06    -33.3486E+03         21.8270
              35    -100.477E-09     44.0228E-03         6.77251         3.75399        -9.88707        -9.69948         3.56640         6.77251         3.17317     28.6409E-03    -14.2275E-03    -14.4135E-03    -14.2198E-03     28.6332E-03    -14.4135E-03     1.12223E-03     8.45946E+06     5.33698E+06    -146.621E+06     8.42553E+06    -146.587E+06     5.33698E+06    -2.17036E+06         21.8489
              36     26.4553E-09     42.9945E-03         6.60864         4.20966        -10.1524        -10.0087         4.06596         6.60864         2.83799     28.9602E-03    -14.3750E-03    -14.5859E-03    -14.5498E-03     28.9564E-03    -14.4072E-03     810.973E-06     7.58003E+06     5.95233E+06    -146.134E+06     6.93333E+06    -146.100E+06     6.56437E+06    -723.217E+03         21.8655
              37     333.185E-09     41.9645E-03         6.43037         4.57349        -10.3189        -10.2280         4.48261         6.43037         2.30033     28.8810E-03    -14.2150E-03    -14.6666E-03    -14.3896E-03     28.8769E-03    -14.4879E-03     832.328E-06     9.22279E+06     8.29611E+06    -145.490E+06     8.28856E+06    -145.482E+06     9.22279E+06     891.465E+03         21.8731
              38    -865.120E-09     40.9373E-03         6.15971         4.97441        -10.4244        -10.3666         4.91660         6.15971         1.87235     29.1035E-03    -14.3247E-03    -14.7785E-03    -14.5027E-03     29.1005E-03    -14.5976E-03     628.244E-06     12.3426E+06     10.9585E+06    -144.033E+06     12.0273E+06    -144.032E+06     11.2731E+06     303.591E+03         21.8773
              39     1.21392E-06     39.9061E-03         5.84270         5.42276        -10.5338        -10.4954         5.38432         5.84270         1.55442     29.0592E-03    -14.3466E-03    -14.7128E-03    -14.5272E-03     29.0589E-03    -14.5319E-03     195.243E-06     8.71404E+06     6.89835E+06    -147.702E+06     7.96674E+06    -147.701E+06     7.64461E+06     394.458E+03         21.8732
              40    -1.56114E-06     38.8802E-03         5.83318         5.53869        -10.6028        -10.5810         5.78733         5.56274         1.16840     28.8572E-03    -14.2886E-03    -14.5684E-03    -14.2852E-03     28.8539E-03    -14.5684E-03     583.020E-06     12.2824E+06     10.4554E+06    -144.708E+06     11.4522E+06    -144.624E+06     11.2016E+06    -2.30147E+06         21.8561
              41     1.36330E-06     37.8468E-03         6.02701         5.29172        -10.5403        -10.5326         6.01933         5.29172     661.560E-03     28.8269E-03    -14.2956E-03    -14.5315E-03    -14.4095E-03     28.7995E-03    -14.3902E-03     1.97745E-03     14.5588E+06     12.5199E+06    -141.101E+06     14.2851E+06    -140.827E+06     12.5199E+06     1.29673E+06         21.8418
              42    -1.13864E-06     36.8195E-03         6.24011         4.98337        -10.4612        -10.4600         6.23889         4.98337     162.982E-03     28.5555E-03    -14.0446E-03    -14.5115E-03    -14.1549E-03     28.5245E-03    -14.3702E-03     2.20775E-03     13.4613E+06     12.0259E+06    -143.604E+06     12.7868E+06    -143.406E+06     12.5031E+06     4.57755E+06         21.8409
              43     493.657E-09     35.7926E-03         6.47919         4.65904        -10.3718        -10.3685         6.47590         4.65904    -366.146E-03     28.8839E-03    -13.9029E-03    -14.9817E-03    -14.6492E-03     28.8770E-03    -14.2284E-03     759.044E-06     17.6556E+06     14.6330E+06    -140.930E+06     14.5372E+06    -140.834E+06     17.6556E+06    -1.87343E+06         21.8436
              44     1.03201E-06     34.7625E-03         6.63132         4.37150        -10.2419        -10.2240         6.61340         4.37150        -1.03413     28.6809E-03    -13.7899E-03    -14.8918E-03    -14.5383E-03     28.6761E-03    -14.1386E-03     628.745E-06     14.5541E+06     10.6387E+06    -144.354E+06     11.9059E+06    -144.252E+06     13.1841E+06    -3.65961E+06         21.8364
              45    -1.74474E-06     33.7347E-03         6.84346         4.00857        -10.0520        -10.0106         6.80199         4.00857        -1.65375     28.1894E-03    -13.8401E-03    -14.3488E-03    -13.8352E-03     28.1846E-03    -14.3488E-03     689.090E-06     8.33367E+06     6.94540E+06    -150.326E+06     8.28855E+06    -150.299E+06     6.96370E+06    -2.06253E+06         21.8274
              46     1.43078E-06     32.7067E-03         6.95708         3.70422        -9.84425        -9.76550         6.87833         3.70422        -2.26334     28.8614E-03    -14.2031E-03    -14.6582E-03    -14.4976E-03     28.8608E-03    -14.3632E-03     274.351E-06     6.14636E+06     5.19362E+06    -152.052E+06     5.11877E+06    -151.978E+06     6.14636E+06    -3.21213E+06         21.8354
              47    -835.719E-09     31.6782E-03         6.91147         3.47991        -9.57131        -9.44670         6.78685         3.47991        -2.84382     29.5373E-03    -14.5150E-03    -15.0222E-03    -14.8081E-03     29.5354E-03    -14.7272E-03     561.278E-06     7.40309E+06     3.96890E+06    -151.176E+06     6.39529E+06    -151.102E+06     4.90335E+06    -1.24615E+06         21.8485
              48     384.495E-09     30.6458E-03         7.00141         3.06894        -9.23747        -9.05707         6.82101         3.06894        -3.38701     29.1998E-03    -14.4867E-03    -14.7126E-03    -14.4960E-03     29.1954E-03    -14.6989E-03     856.304E-06     6.52781E+06     1.74561E+06    -152.107E+06     4.23284E+06    -152.094E+06     4.02807E+06     1.23616E+06         21.8429
              49    -332.241E-09     29.6187E-03         7.05419         2.68498        -8.90363        -8.67101         6.82158         2.68498        -3.82123     28.4884E-03    -14.0588E-03    -14.4302E-03    -14.0565E-03     28.4724E-03    -14.4164E-03     1.56018E-03     8.91902E+06     3.98511E+06    -149.105E+06     6.62458E+06    -149.093E+06     6.26758E+06     1.21007E+06         21.8255
              50    -431.158E-09     28.5890E-03         6.83566         2.42587        -8.44116        -8.14143         6.53592         2.42587        -4.21632     28.3321E-03    -13.9713E-03    -14.3620E-03    -13.9421E-03     28.3029E-03    -14.3620E-03     2.21772E-03     10.0032E+06     5.64295E+06    -144.487E+06     9.87602E+06    -144.360E+06     5.64295E+06     3.89306E+06         21.8132
              51     314.475E-09     27.5598E-03         6.64958         2.10915        -7.97126        -7.58900         6.26732         2.10915        -4.65981     27.8852E-03    -13.7928E-03    -14.0934E-03    -14.0346E-03     27.8594E-03    -13.8259E-03     2.06452E-03     2.38034E+06    -3.59306E+06    -151.367E+06    -2.00151E+06    -151.250E+06     671.568E+03     3.23872E+06         21.8000
              52     253.339E-09     26.5348E-03         6.57590         1.77627        -7.55713        -7.10582         6.12459         1.77627        -4.96315     27.4813E-03    -13.5491E-03    -13.9328E-03    -13.9231E-03     27.4716E-03    -13.5491E-03     775.305E-06     4.09722E+06    -2.81372E+06    -151.516E+06    -280.317E+03    -151.403E+06     1.45092E+06    -2.67136E+06         21.7814
              53    -49.8269E-09     25.5087E-03         6.37993         1.50690        -7.07810        -6.54151         5.84334         1.50690        -5.25586     27.7828E-03    -13.7577E-03    -14.0248E-03    -13.8733E-03     27.7821E-03    -13.9086E-03    -315.638E-06     8.32213E+06     4.53705E+06    -148.192E+06     7.05457E+06    -148.064E+06     5.67583E+06    -4.09139E+06         21.7646
              54    -224.419E-09     24.4789E-03         6.12947         1.24123        -6.55361        -5.95172         5.52758         1.24123        -5.39079     27.6118E-03    -13.7021E-03    -13.9091E-03    -13.6966E-03     27.6063E-03    -13.9091E-03     438.934E-06     3.49452E+06     1.92973E+06    -152.705E+06     2.33758E+06    -152.687E+06     3.06850E+06    -834.373E+03         21.7464
              55     105.022E-09     23.4505E-03         5.78929         1.01257        -6.00293        -5.35920         5.14557         1.01257        -5.35263     26.8700E-03    -13.3623E-03    -13.5081E-03    -13.4421E-03     26.8601E-03    -13.4184E-03     1.26444E-03    -791.065E+03    -1.54806E+06    -154.265E+06    -826.705E+03    -154.229E+06    -1.54806E+06     1.92956E+06         21.7220
              56     66.6927E-09     22.4258E-03         5.31145     894.847E-03        -5.42176        -4.75707         4.64675     894.847E-03        -5.17256     26.3823E-03    -13.1232E-03    -13.2590E-03    -13.2079E-03     26.3773E-03    -13.1694E-03     535.172E-06     2.35445E+06     1.07611E+06    -150.133E+06     1.34393E+06    -150.070E+06     2.02348E+06     3.09040E+06         21.6921
              57    -135.259E-09     21.3998E-03         4.89741     735.854E-03        -4.88752        -4.22137         4.23126     735.854E-03        -4.92748     26.2301E-03    -13.0852E-03    -13.1439E-03    -13.0957E-03     26.2280E-03    -13.1313E-03    -488.415E-06     7.78809E+06     6.12534E+06    -145.700E+06     6.78070E+06    -145.640E+06     7.07271E+06    -79.5665E+03         21.6561
              58     154.392E-09     20.3744E-03         4.57949     554.733E-03        -4.38997        -3.69733         3.88685     554.733E-03        -4.78469     25.6556E-03    -12.6617E-03    -12.9936E-03    -12.6722E-03     25.6536E-03    -12.9810E-03    -321.791E-06     11.6673E+06     10.5652E+06    -141.379E+06     11.6138E+06    -141.326E+06     10.5652E+06    -2.85236E+06         21.6128
              59    -769.222E-09     19.3468E-03         4.04719     450.631E-03        -3.75594        -3.07883         3.37008     450.631E-03        -4.39196     24.5176E-03    -12.0307E-03    -12.4872E-03    -12.1493E-03     24.4990E-03    -12.3500E-03     1.22926E-03     8.52134E+06     6.16782E+06    -143.638E+06     8.30566E+06    -143.423E+06     6.16782E+06     2.53551E+06         21.5591
              60     992.057E-09     18.3222E-03         3.40831     418.146E-03        -3.13142        -2.50037         2.77726     418.146E-03        -3.85970     22.9936E-03    -11.2467E-03    -11.7469E-03    -11.7250E-03     22.9716E-03    -11.2467E-03     1.63722E-03     7.67801E+06     2.18168E+06    -144.587E+06     3.88386E+06    -144.322E+06     5.71122E+06     6.10629E+06         21.4903
              61    -211.872E-09     17.3028E-03         2.85737     442.360E-03        -2.60380        -2.02389         2.27745     442.360E-03        -3.36435     21.3790E-03    -10.2971E-03    -11.0815E-03    -10.6498E-03     21.3686E-03    -10.7184E-03     1.13496E-03     15.2999E+06     8.93609E+06    -136.179E+06     11.6637E+06    -136.072E+06     12.4656E+06     3.90672E+06         21.4146
              62    -654.803E-09     16.2808E-03         2.33034     505.501E-03        -2.14691        -1.53510         1.71854     505.501E-03        -3.05255     20.5341E-03    -9.88920E-03    -10.6448E-03    -10.2159E-03     20.5265E-03    -10.3105E-03     447.444E-06     21.7135E+06     18.4684E+06    -128.596E+06     21.2671E+06    -128.560E+06     18.8792E+06     1.70628E+06         21.3452
              63     1.34216E-06     15.2622E-03         1.79192     584.890E-03        -1.71503        -1.09265         1.16954     584.890E-03        -2.67802     19.7792E-03    -9.69878E-03    -10.0807E-03    -10.0323E-03     19.7783E-03    -9.74642E-03    -101.841E-06     18.8783E+06     17.1416E+06    -127.127E+06     18.4668E+06    -127.126E+06     17.5524E+06     268.903E+03         21.2760
              64    -1.43815E-06     14.2431E-03         1.37597     598.695E-03        -1.31501    -702.499E-03     763.460E-03     598.695E-03        -2.24103     18.5471E-03    -9.21978E-03    -9.32767E-03    -9.27977E-03     18.5468E-03    -9.26741E-03     33.1988E-06     26.8251E+06     24.3354E+06    -118.730E+06     26.8225E+06    -118.727E+06     24.3354E+06     586.873E+03         21.1931
              65     1.55884E-06     13.2227E-03         1.08614     693.998E-03        -1.12486    -320.457E-03     281.731E-03     693.998E-03        -2.07728     16.4631E-03    -8.12547E-03    -8.33798E-03    -8.33782E-03     16.4629E-03    -8.12547E-03    -8.90679E-06     24.0048E+06     20.5637E+06    -125.173E+06     21.6530E+06    -125.099E+06     22.8410E+06     2.67966E+06         21.0945
              66    -1.21582E-06     12.2120E-03     927.697E-03     772.636E-03        -1.08598     86.7793E-03    -350.202E-03     877.774E-03        -1.76700     14.4580E-03    -7.11563E-03    -7.34297E-03    -7.26182E-03     14.4519E-03    -7.19070E-03    -439.194E-06     27.0361E+06     24.4116E+06    -123.742E+06     24.6678E+06    -123.651E+06     26.6889E+06     1.10671E+06         20.9932
              67     1.07286E-06     11.1955E-03         1.04148     804.348E-03        -1.21772     465.629E-03    -879.001E-03         1.04148        -1.47460     13.0787E-03    -6.48834E-03    -6.59066E-03    -6.50912E-03     13.0722E-03    -6.56341E-03    -366.185E-06     37.8234E+06     35.3560E+06    -112.820E+06     35.6827E+06    -112.799E+06     37.4762E+06    -793.382E+03         20.9010
              68    -965.207E-09     10.1842E-03         1.17338     872.656E-03        -1.43522     691.676E-03        -1.25424         1.17338        -1.20771     11.4729E-03    -5.67213E-03    -5.80098E-03    -5.79467E-03     11.4665E-03    -5.67213E-03    -301.327E-06     34.5773E+06     32.2178E+06    -114.951E+06     32.2022E+06    -114.936E+06     34.5773E+06    -609.443E+03         20.8267
              69     1.18423E-06     9.17486E-03         1.26064     989.865E-03        -1.70519     880.493E-03        -1.59582         1.26064        -1.06078     10.6747E-03    -5.23899E-03    -5.43600E-03    -5.43015E-03     10.6688E-03    -5.23899E-03    -414.223E-06     29.9655E+06     29.5227E+06    -121.228E+06     29.6812E+06    -121.183E+06     29.7620E+06    -2.55093E+06         20.7898
              70    -967.193E-09     8.16362E-03         1.37059         1.22773        -2.03941         1.16382        -1.97551         1.37059    -829.720E-03     10.8505E-03    -5.36471E-03    -5.48590E-03    -5.48538E-03     10.8500E-03    -5.36471E-03    -109.733E-06     28.5971E+06     26.2567E+06    -118.708E+06     28.5146E+06    -118.626E+06     26.2567E+06    -3.45354E+06         20.8032
              71     1.02601E-06     7.15303E-03         1.59166         1.45363        -2.52247         1.42946        -2.49830         1.59166    -618.051E-03     11.7001E-03    -5.78210E-03    -5.91812E-03    -5.79781E-03     11.6900E-03    -5.89234E-03     464.537E-06     27.5525E+06     23.4242E+06    -118.488E+06     25.5081E+06    -118.435E+06     25.4155E+06    -1.52391E+06         20.8761
              72    -1.21762E-06     6.14044E-03         1.76496         1.65818        -2.91824         1.64424        -2.90430         1.76496    -419.507E-03     13.4469E-03    -6.42453E-03    -7.02240E-03    -6.40267E-03     13.4250E-03    -7.02240E-03     1.31706E-03     18.1671E+06     10.5209E+06    -134.125E+06     16.1272E+06    -134.077E+06     12.5123E+06     2.27454E+06         21.0212
              73     156.452E-09     5.12512E-03         1.78495         1.76588        -2.99386         1.75429        -2.98227         1.78495    -400.748E-03     15.9524E-03    -7.37819E-03    -8.57408E-03    -8.07416E-03     15.9401E-03    -7.86582E-03     730.212E-06     6.59928E+06    -6.11896E+06    -152.485E+06    -510.880E+03    -152.438E+06     944.431E+03     2.02925E+06         21.2202
              74     1.34784E-06     4.11124E-03         1.87851         1.82351        -3.18080         1.80955        -3.16684         1.87851    -500.078E-03     19.1328E-03    -9.17706E-03    -9.95523E-03    -9.88487E-03     19.1323E-03    -9.24696E-03     176.020E-06     2.48816E+06    -8.03782E+06    -154.242E+06    -5.18245E+06    -153.635E+06    -974.433E+03    -6.58004E+06         21.4493
              75    -1.55843E-06     3.08929E-03         2.03716         1.87009        -3.38054         1.98473        -3.37361         1.91559    -385.033E-03     23.3561E-03    -11.5490E-03    -11.8067E-03    -11.5473E-03     23.3544E-03    -11.8067E-03    -135.965E-06    -8.44095E+06    -13.5837E+06    -154.395E+06    -9.17061E+06    -153.665E+06    -13.5837E+06    -9.66452E+06         21.7328
              76     1.03602E-06     2.06420E-03         2.07050         1.91465        -3.43611         2.06617        -3.43179         1.91465    -140.350E-03     27.7787E-03    -13.3603E-03    -14.4180E-03    -13.3583E-03     27.7767E-03    -14.4180E-03    -45.4372E-06    -23.8783E+06    -29.6481E+06    -166.754E+06    -25.0565E+06    -165.576E+06    -29.6481E+06     5.69075E+06         22.2130
              77    -3.01414E-06     1.03274E-03         2.12573         2.07420        -3.67676         2.10790        -3.67618         2.09145     112.816E-03     31.1346E-03    -14.8450E-03    -16.2894E-03    -15.4149E-03     31.1301E-03    -15.7150E-03    -346.362E-06    -23.9755E+06    -32.7343E+06    -164.343E+06    -29.7061E+06    -163.282E+06    -28.0651E+06     8.02827E+06         23.1005
              78     983.252E-06     81.9564E-09         2.17392         2.08656        -3.73203         2.08632        -3.73179         2.17392     19.5268E-03     32.2549E-03    -15.7434E-03    -16.5116E-03    -16.3133E-03     32.2505E-03    -15.9372E-03    -345.967E-06    -8.79123E+06    -28.0791E+06    -160.231E+06    -28.2777E+06    -160.032E+06    -8.79123E+06     3.00885E+06         23.6954
              79     1.96805E-03     81.9564E-09         2.10080         1.98345        -3.55560         1.98334        -3.55550         2.10080    -3.19711E-03     31.1368E-03    -15.1790E-03    -15.9569E-03    -15.1779E-03     31.1356E-03    -15.9569E-03     457.297E-06     186.603E+03    -15.8356E+06    -158.124E+06    -16.2555E+06    -157.704E+06     186.603E+03    -473.188E+03         23.7750
              80     2.95410E-03     81.9564E-09         2.05869         1.98245        -3.52582         1.98240        -3.52577         2.05869     28.8745E-03     29.5599E-03    -14.0762E-03    -15.4819E-03    -14.0734E-03     29.5571E-03    -15.4819E-03     644.588E-06    -6.91019E+06    -11.1514E+06    -160.115E+06    -8.54765E+06    -159.881E+06    -9.74784E+06    -4.81680E+06         23.9193
              81     3.94020E-03     81.9564E-09         2.03565         1.95362        -3.47485         1.95332        -3.47455         2.03565    -50.2975E-03     28.0550E-03    -13.0867E-03    -14.9678E-03    -13.0799E-03     28.0481E-03    -14.9678E-03     1.04478E-03    -6.44857E+06    -16.6368E+06    -165.805E+06    -6.45594E+06    -165.798E+06    -16.6368E+06    -953.599E+03         24.1467
              82     4.92826E-03     81.9564E-09         2.01035         1.86098        -3.35869         1.86062        -3.35833         2.01035    -81.3171E-03     26.3221E-03    -11.9132E-03    -14.4096E-03    -11.9045E-03     26.3134E-03    -14.4096E-03     1.15317E-03    -3.34484E+06    -26.4532E+06    -171.317E+06    -3.61808E+06    -171.044E+06    -26.4532E+06    -5.07639E+06         24.4757
              83     5.91715E-03     81.9564E-09         1.97645         1.75051        -3.21772         1.75045        -3.21765         1.97645    -23.8147E-03     24.3752E-03    -10.6102E-03    -13.7639E-03    -10.6000E-03     24.3651E-03    -13.7639E-03     1.18648E-03     176.900E+03    -41.9310E+06    -165.982E+06    -124.580E+03    -165.681E+06    -41.9310E+06    -6.36271E+06         24.9195
              84     6.90804E-03     81.9564E-09         1.93719         1.65335        -3.08289         1.65312        -3.08266         1.93719    -44.2073E-03     22.6459E-03    -9.54093E-03    -13.1041E-03    -9.52381E-03     22.6288E-03    -13.1041E-03     1.46196E-03     3.76678E+06    -59.0796E+06    -168.697E+06     3.57739E+06    -168.507E+06    -59.0796E+06    -5.37149E+06         25.4842
              85     7.89866E-03     81.9564E-09         1.89371         1.52588        -2.92177         1.52556        -2.92145         1.89371    -74.0698E-03     20.9501E-03    -8.50676E-03    -12.4407E-03    -8.48998E-03     20.9333E-03    -12.4407E-03     1.39177E-03     8.04819E+06    -77.1369E+06    -169.351E+06     7.61739E+06    -168.920E+06    -77.1369E+06    -8.63111E+06         26.1661
              86     8.89255E-03     81.9564E-09         1.84287         1.34614        -2.69807         1.34604        -2.69797         1.84287    -24.0049E-03     19.3217E-03    -7.55596E-03    -11.7624E-03    -7.52584E-03     19.2915E-03    -11.7624E-03     1.68439E-03     11.5555E+06    -94.3127E+06    -148.588E+06     11.1640E+06    -148.197E+06    -94.3127E+06    -7.79874E+06         26.9498
              87     9.88409E-03     81.9564E-09         1.78520         1.18972        -2.47660         1.18966        -2.47654         1.78520     24.2309E-03     17.8131E-03    -6.67865E-03    -11.1355E-03    -6.64824E-03     17.7827E-03    -11.1355E-03     1.64760E-03     14.3250E+06    -103.050E+06    -122.046E+06     13.8602E+06    -120.837E+06    -103.794E+06    -7.55631E+06         27.8057
              88     10.8808E-03     81.9564E-09         1.72475         1.05713        -2.27721         1.05706        -2.27714         1.72475     30.3541E-03     16.2980E-03    -5.75327E-03    -10.5459E-03    -5.72176E-03     16.2665E-03    -10.5459E-03     1.55774E-03     15.5370E+06    -84.7480E+06    -107.436E+06     14.9444E+06    -84.1555E+06    -107.436E+06    -7.68401E+06         28.6827
              89     11.8735E-03     81.9564E-09         1.66123     873.996E-03        -2.03536     873.953E-03        -2.03532         1.66123    -785.790E-06     14.9192E-03    -4.94227E-03    -9.97829E-03    -4.90134E-03     14.8783E-03    -9.97829E-03     1.79259E-03     14.7520E+06    -40.4855E+06    -109.134E+06     14.4574E+06    -40.1908E+06    -109.134E+06    -2.31777E+06         29.7538
              90     12.8716E-03     81.9564E-09         1.59251     669.420E-03        -1.77513     669.292E-03        -1.77500         1.59251    -32.8508E-03     13.8366E-03    -4.33250E-03    -9.50210E-03    -4.25962E-03     13.7637E-03    -9.50210E-03     2.17561E-03     26.8442E+06    -4.28294E+06    -97.9526E+06     11.3687E+06     11.1925E+06    -97.9526E+06    -2.07977E+06         31.2899
              91     13.8656E-03     81.9564E-09         1.51949     481.344E-03        -1.52604     481.235E-03        -1.52593         1.51949    -16.7001E-03     12.8919E-03    -3.69273E-03    -9.19625E-03    -3.61808E-03     12.8173E-03    -9.19625E-03     2.14729E-03     55.5344E+06     5.61249E+06    -64.0139E+06     6.42248E+06     54.7244E+06    -64.0139E+06     53.1593E+03         33.1999
              92     14.8645E-03     81.9564E-09         1.44276     267.087E-03        -1.24100     267.074E-03        -1.24099         1.44276     650.242E-06     12.2127E-03    -3.16286E-03    -9.04984E-03    -3.07934E-03     12.1292E-03    -9.04984E-03    -681.874E-06     92.0263E+06     15.4126E+06    -19.8416E+06     3.41129E+06     91.4339E+06    -7.24789E+06    -1.30374E+06         35.2867
              93     15.8661E-03     81.9564E-09         1.36240     59.9667E-03    -949.313E-03     59.6972E-03    -949.044E-03         1.36240    -24.4272E-03     12.4166E-03    -3.44923E-03    -8.96563E-03    -3.09858E-03     12.0660E-03    -8.96563E-03     1.60487E-03     116.114E+06     46.2362E+06    -10.8318E+06    -5.51990E+06     110.802E+06     46.2362E+06     13.9584E+06         37.4241
              94     16.8474E-03     81.9564E-09         1.28113    -132.212E-03    -681.042E-03    -132.657E-03    -680.597E-03         1.28113    -9.78133E-03     53.9279E-03    -7.27122E-03    -46.7520E-03    -41.8821E-03     51.6028E-03    -9.81592E-03     29.7904E-03     131.626E+06     63.1731E+06    -17.7163E+06    -10.7765E+06     124.687E+06     63.1731E+06     6.04678E+06         39.3891
              95     17.7490E-03     1.17591E-03         1.23135    -251.380E-03    -519.989E-03    -251.613E-03    -519.756E-03         1.23135     15.4245E-03     131.828E-03    -11.3300E-03    -120.677E-03    -98.6891E-03     109.840E-03    -11.3300E-03     133.483E-03     156.135E+06     88.9656E+06    -4.00746E+06    -2.04743E+06     154.175E+06     88.9656E+06    -12.3902E+06         40.2753
              96     17.7528E-03     2.39493E-03         1.20221    -262.200E-03    -482.257E-03    -264.694E-03    -479.764E-03         1.20221     36.5633E-03     189.836E-03    -12.2251E-03    -177.731E-03    -111.819E-03     123.924E-03    -12.2251E-03     277.655E-03     161.998E+06     101.758E+06     235.787E+03     250.505E+03     161.983E+06     101.758E+06     849.242E+03         40.7729
              97     17.7470E-03     3.53773E-03         1.15331    -241.755E-03    -454.098E-03    -245.978E-03    -449.875E-03         1.15331     59.0869E-03     224.457E-03    -12.6398E-03    -211.862E-03    -104.144E-03     116.740E-03    -12.6398E-03     375.662E-03     157.887E+06     93.0176E+06    -8.15867E+06    -8.14337E+06     157.871E+06     93.0176E+06     749.469E+03         41.8910
              98     17.7585E-03     4.64873E-03         1.08589    -231.250E-03    -384.021E-03    -234.732E-03    -380.539E-03         1.08589     10.0215E-03     240.805E-03    -12.7137E-03    -228.102E-03    -96.7404E-03     109.444E-03    -12.7137E-03     420.921E-03     168.006E+06     109.080E+06    -753.227E+03    -725.662E+03     167.978E+06     109.080E+06     1.16185E+06         43.1122
              99     17.7650E-03     5.72880E-03         1.00171    -199.215E-03    -309.890E-03    -265.356E-03    -243.749E-03         1.00171    -8.00937E-03     243.607E-03    -12.6333E-03    -230.979E-03    -90.3259E-03     102.954E-03    -12.6333E-03     433.431E-03     172.881E+06     121.558E+06     700.573E+03      808.58E+03     172.773E+06     121.558E+06     4.18334E+06         44.3118
             100     17.7649E-03     6.80667E-03     902.648E-03    -97.4413E-03    -289.278E-03    -286.357E-03    -100.363E-03     902.648E-03     45.1956E-03     240.112E-03    -12.6782E-03    -227.436E-03    -81.6620E-03     94.3384E-03    -12.6782E-03     432.979E-03     174.643E+06     125.036E+06    -1.10404E+06    -931.804E+03     174.471E+06     125.036E+06     5.49492E+06         45.4049
             101     17.7721E-03     7.85787E-03     789.544E-03     22.4979E-03    -287.086E-03    -284.338E-03     19.7502E-03     789.544E-03     24.9209E-03     239.558E-03    -12.7710E-03    -226.787E-03    -74.2386E-03     87.0098E-03    -12.7710E-03     437.572E-03     178.552E+06     130.135E+06    -377.608E+03    -286.315E+03     178.460E+06     130.135E+06     2.54536E+06         46.3825
             102     17.7672E-03     8.92911E-03     662.696E-03     170.583E-03    -307.668E-03    -305.088E-03     168.004E-03     662.696E-03    -64.1764E-03     240.988E-03    -12.9082E-03    -228.078E-03    -73.9460E-03     86.8557E-03    -12.9082E-03     440.640E-03     179.939E+06     140.337E+06    -704.828E+03    -689.320E+03     179.923E+06     140.337E+06     901.476E+03         47.2562
             103     17.7644E-03     9.98592E-03     535.954E-03     356.391E-03    -338.626E-03    -336.119E-03     365.885E-03     523.954E-03    -40.9524E-03     235.542E-03    -13.1844E-03    -222.355E-03    -68.0516E-03     81.2389E-03    -13.1844E-03     432.771E-03     177.462E+06     136.838E+06    -3.38917E+06    -3.37153E+06     177.444E+06     136.838E+06     633.263E+03         48.0226
             104     17.7629E-03     11.0098E-03     553.039E-03     375.711E-03    -336.693E-03    -336.032E-03     552.377E-03     375.711E-03     45.2771E-03     226.011E-03    -13.3581E-03    -212.652E-03    -61.5786E-03     74.9374E-03    -13.3581E-03     416.872E-03     174.080E+06     127.420E+06    -8.51135E+06    -8.50739E+06     174.076E+06     127.420E+06    -177.568E+03         48.6986
             105     17.7614E-03     12.0632E-03     725.374E-03     217.971E-03    -355.014E-03    -354.420E-03     724.781E-03     217.971E-03     25.4235E-03     219.916E-03    -13.3131E-03    -206.605E-03    -60.9456E-03     74.2567E-03    -13.3131E-03     404.525E-03     176.674E+06     121.636E+06    -2.96888E+06    -2.95957E+06     176.665E+06     121.636E+06      1.1858E+06         49.2966
             106     17.7642E-03     13.1149E-03     967.542E-03     51.3166E-03    -411.240E-03    -411.213E-03     967.515E-03     51.3166E-03    -10.7048E-03     222.182E-03    -13.3345E-03    -208.849E-03    -63.7324E-03     77.0658E-03    -13.3345E-03     407.364E-03     176.492E+06     123.811E+06    -5.01618E+06    -4.94069E+06     176.417E+06     123.811E+06    -1.61748E+06         49.8186
             107     17.7552E-03     14.1889E-03         1.21860    -119.621E-03    -455.561E-03    -455.097E-03         1.21814    -119.621E-03     37.5597E-03     227.760E-03    -13.6304E-03    -214.131E-03    -63.1874E-03     76.8160E-03    -13.6304E-03     419.035E-03     176.166E+06     129.937E+06    -7.17863E+06    -7.07159E+06     176.059E+06     129.937E+06    -559.881E+03         50.2652
             108     17.7565E-03     15.2430E-03         1.39357    -291.764E-03    -444.168E-03    -443.699E-03         1.39310    -291.764E-03     35.2292E-03     230.026E-03    -14.0772E-03    -215.951E-03    -51.9777E-03     66.0521E-03    -14.0772E-03     429.794E-03     177.731E+06     130.494E+06    -2.65410E+06    -2.60674E+06     177.683E+06     130.494E+06     2.73766E+06         50.6486
             109     17.7561E-03     16.2543E-03         1.58399    -426.974E-03    -484.442E-03    -445.903E-03         1.58377    -465.293E-03     24.9926E-03     222.946E-03    -14.2268E-03    -208.722E-03    -40.9882E-03     55.2129E-03    -14.2268E-03     420.796E-03     179.084E+06     125.947E+06    -1.64213E+06    -1.61090E+06     179.053E+06     125.947E+06     2.30074E+06         50.9954
             110     17.7621E-03     17.2743E-03         1.82051    -495.678E-03    -638.960E-03    -495.462E-03         1.82029    -638.960E-03     34.6947E-03     211.853E-03    -14.1017E-03    -197.757E-03    -37.4887E-03     51.5850E-03    -14.1017E-03     399.806E-03     180.500E+06     123.183E+06    -2.42288E+06    -2.36339E+06     180.441E+06     123.183E+06    -323.215E+03         51.3109
             111     17.7590E-03     18.3034E-03         2.06509    -542.830E-03    -810.744E-03    -542.814E-03         2.06507    -810.744E-03     12.6488E-03     210.300E-03    -14.0147E-03    -196.296E-03    -42.5671E-03     56.5711E-03    -14.0147E-03     394.211E-03     182.419E+06     126.976E+06    -1.97127E+06    -1.93495E+06     182.382E+06     126.976E+06    -1.98123E+06         51.5866
             112     17.7549E-03     19.3610E-03         2.28736    -555.026E-03    -979.327E-03    -554.968E-03         2.28730    -979.327E-03    -7.80535E-03     215.006E-03    -14.0979E-03    -200.920E-03    -48.7626E-03     62.8480E-03    -14.0979E-03     400.671E-03     180.530E+06     128.802E+06    -6.89924E+06    -6.89787E+06     180.529E+06     128.802E+06    -490.781E+03         51.8216
             113     17.7515E-03     20.4026E-03         2.48569    -566.744E-03        -1.14342    -566.450E-03         2.48540        -1.14342     23.6189E-03     218.418E-03    -14.3044E-03    -204.127E-03    -47.9777E-03     62.2682E-03    -14.3044E-03     407.888E-03     180.886E+06     131.662E+06    -8.55322E+06    -8.51443E+06     180.847E+06     131.662E+06     1.59638E+06         52.0245
             114     17.7530E-03     21.4412E-03         2.67090    -589.475E-03        -1.30052    -589.216E-03         2.67064        -1.30052     48.0164E-03     216.231E-03    -14.4600E-03    -201.787E-03    -41.3695E-03     55.8144E-03    -14.4600E-03     406.479E-03     185.141E+06     127.369E+06    -4.10453E+06    -4.05549E+06     185.092E+06     127.369E+06     2.93056E+06         52.2054
             115     17.7529E-03     22.4630E-03         2.84410    -608.600E-03        -1.44853    -608.569E-03         2.84407        -1.44853    -3.97754E-03     210.873E-03    -14.6284E-03    -196.259E-03    -32.5396E-03     47.1541E-03    -14.6284E-03     399.193E-03     187.401E+06     128.310E+06    -3.84474E+06    -3.83341E+06     187.389E+06     128.310E+06     955.486E+03         52.3702
             116     17.7552E-03     23.4772E-03         3.04148    -648.273E-03        -1.58530    -648.212E-03         3.04141        -1.58530     5.44536E-03     208.335E-03    -14.6151E-03    -193.730E-03    -29.5507E-03     44.1551E-03    -14.6151E-03     395.246E-03     190.763E+06     131.073E+06    -3.11789E+06    -3.09896E+06     190.744E+06     131.073E+06     1.27450E+06         52.5309
             117     17.7570E-03     24.5111E-03         3.19955    -652.997E-03        -1.70951    -652.783E-03         3.19933        -1.70951     54.3471E-03     210.447E-03    -14.4397E-03    -196.017E-03    -33.0699E-03     47.5001E-03    -14.4397E-03     398.378E-03     193.910E+06     129.009E+06    -1.16794E+06    -1.14898E+06     193.891E+06     129.009E+06     1.43713E+06         52.6952
             118     17.7559E-03     25.5505E-03         3.31013    -641.986E-03        -1.82227    -641.802E-03         3.30995        -1.82227     45.9147E-03     216.131E-03    -14.3698E-03    -201.771E-03    -37.9848E-03     52.3447E-03    -14.3698E-03     408.008E-03     195.131E+06     128.213E+06    -3.81224E+06    -3.80982E+06     195.128E+06     128.213E+06    -388.410E+03         52.8643
             119     17.7539E-03     26.5875E-03         3.43547    -669.438E-03        -1.92244    -669.427E-03         3.43546        -1.92244     8.61281E-03     217.209E-03    -14.4147E-03    -202.803E-03    -38.2600E-03     52.6651E-03    -14.4147E-03     410.038E-03     195.667E+06     124.989E+06    -5.80960E+06    -5.79743E+06     195.655E+06     124.989E+06    -1.48339E+06         53.0325
             120     17.7549E-03     27.6081E-03         3.55731    -702.912E-03        -2.00751    -702.885E-03         3.55728        -2.00751    -15.8580E-03     217.831E-03    -14.4347E-03    -203.405E-03    -36.6905E-03     51.1167E-03    -14.4347E-03     411.982E-03     196.980E+06     122.919E+06    -4.18300E+06    -4.17087E+06     196.968E+06     122.919E+06    -1.47841E+06         53.1916
             121     17.7566E-03     28.6491E-03         3.65087    -706.651E-03        -2.07663    -706.595E-03         3.65081        -2.07663     511.706E-06     223.329E-03    -14.4422E-03    -208.891E-03    -40.2378E-03     54.6759E-03    -14.4422E-03     421.640E-03     198.266E+06     131.901E+06    -3.10424E+06    -3.10084E+06     198.263E+06     131.901E+06    -812.932E+03         53.3348
             122     17.7510E-03     29.6954E-03         3.69971    -694.684E-03        -2.12931    -694.656E-03         3.69968        -2.12931     15.9044E-03     229.142E-03    -14.6082E-03    -214.536E-03    -41.5813E-03     56.1871E-03    -14.6082E-03     432.747E-03     197.083E+06     136.744E+06    -5.60371E+06    -5.59093E+06     197.070E+06     136.744E+06     747.681E+03         53.4584
             123     17.7522E-03     30.7186E-03         3.73427    -708.962E-03        -2.16539    -708.943E-03         3.73425        -2.16539    -12.9130E-03     229.448E-03    -14.7681E-03    -214.684E-03    -34.8930E-03     49.6564E-03    -14.7681E-03     435.914E-03     198.727E+06     133.627E+06    -4.23687E+06    -4.18275E+06     198.673E+06     133.627E+06     3.16862E+06         53.5756
             124     17.7574E-03     31.7262E-03         3.75748    -720.480E-03        -2.18395    -720.457E-03         3.75746        -2.18395    -7.28542E-03     223.360E-03    -14.6811E-03    -208.682E-03    -30.8550E-03     45.5334E-03    -14.6811E-03     425.224E-03     200.029E+06     130.401E+06    -1.89613E+06    -1.85340E+06     199.986E+06     130.401E+06     2.25445E+06         53.6922
             125     17.7548E-03     32.7476E-03         3.74142    -699.196E-03        -2.18394    -699.189E-03         3.74141        -2.18394     40.0101E-06     214.598E-03    -14.5960E-03    -200.005E-03    -32.6257E-03     47.2192E-03    -14.5960E-03     406.824E-03     196.427E+06     132.293E+06    -4.66894E+06    -4.60758E+06     196.365E+06     132.293E+06    -2.32181E+06         53.7992
             126     17.7527E-03     33.7655E-03         3.70655    -695.292E-03        -2.16665    -695.100E-03         3.70636        -2.16665    -46.4006E-03     209.319E-03    -14.5831E-03    -194.738E-03    -35.1469E-03     49.7277E-03    -14.5831E-03     395.027E-03     196.019E+06     138.775E+06    -6.48269E+06    -6.41806E+06     195.955E+06     138.775E+06    -1.89044E+06         53.9035
             127     17.7550E-03     34.7977E-03         3.65272    -691.285E-03        -2.13245    -691.086E-03         3.65252        -2.13245    -50.1096E-03     211.134E-03    -14.3981E-03    -196.735E-03    -37.9467E-03     52.3455E-03    -14.3981E-03     397.747E-03     199.295E+06     126.924E+06    -1.24520E+06    -1.21206E+06     199.262E+06     126.924E+06     2.31720E+06         54.0164
             128     17.7560E-03     35.8508E-03         3.58085    -664.132E-03        -2.08024    -664.038E-03         3.58076        -2.08024    -35.8246E-03     217.150E-03    -14.4313E-03    -202.718E-03    -40.5746E-03     55.0065E-03    -14.4313E-03     408.842E-03     198.445E+06     126.483E+06    -4.66538E+06    -4.45985E+06     198.240E+06     126.483E+06    -2.54523E+06         54.1372
             129     17.7469E-03     36.8826E-03         3.51012    -664.991E-03        -2.01080    -664.883E-03         3.51002        -2.01080    -40.7520E-03     219.121E-03    -14.6751E-03    -204.445E-03    -39.3332E-03     54.0093E-03    -14.6751E-03     413.127E-03     200.124E+06     137.100E+06    -6.23745E+06    -6.01165E+06     199.898E+06     137.100E+06    -1.99726E+06         54.2682
             130     17.7544E-03     37.9037E-03         3.37573    -654.172E-03        -1.92649    -654.087E-03         3.37564        -1.92649    -35.9725E-03     215.982E-03    -14.6889E-03    -201.296E-03    -33.6842E-03     48.3707E-03    -14.6889E-03     409.093E-03     201.209E+06     126.733E+06    -2.99340E+06    -2.94207E+06     201.157E+06     126.733E+06     2.65264E+06         54.4116
             131     17.7539E-03     38.9258E-03         3.21401    -621.637E-03        -1.82800    -621.537E-03         3.21391        -1.82800    -4.29088E-03     214.955E-03    -14.5433E-03    -200.418E-03    -33.1563E-03     47.6931E-03    -14.5433E-03     407.401E-03     198.711E+06     118.876E+06    -3.52808E+06    -3.52491E+06     198.708E+06     118.876E+06    -23.7851E+03         54.5561
             132     17.7556E-03     39.9639E-03         3.08435    -609.343E-03        -1.71393    -609.299E-03         3.08430        -1.71393     11.8791E-03     220.854E-03    -14.4957E-03    -206.366E-03    -39.6236E-03     54.1116E-03    -14.4957E-03     416.770E-03     198.508E+06     126.448E+06    -5.04812E+06    -4.98947E+06     198.449E+06     126.448E+06    -2.82832E+06         54.6832
             133     17.7488E-03     41.0165E-03         2.93064    -595.367E-03        -1.58582    -595.344E-03         2.93062        -1.58582    -17.0381E-03     229.136E-03    -14.6473E-03    -214.501E-03    -40.8009E-03     55.4359E-03    -14.6473E-03     433.017E-03     200.406E+06     131.128E+06    -4.62375E+06    -4.51665E+06     200.299E+06     131.128E+06    -150.509E+03         54.7881
             134     17.7542E-03     42.0401E-03         2.70776    -549.598E-03        -1.44746    -549.529E-03         2.70769        -1.44746    -28.9600E-03     230.647E-03    -14.8075E-03    -215.851E-03    -34.9613E-03     49.7571E-03    -14.8075E-03     438.351E-03     201.427E+06     132.156E+06    -4.07555E+06    -3.99526E+06     201.347E+06     132.156E+06     503.832E+03         54.8851
             135     17.7523E-03     43.0471E-03         2.49546    -516.264E-03        -1.29936    -516.204E-03         2.49540        -1.29936    -9.56309E-03     228.088E-03    -14.7360E-03    -213.360E-03    -35.5663E-03     50.2941E-03    -14.7360E-03     432.949E-03     201.740E+06     135.521E+06    -4.31982E+06    -4.25201E+06     201.672E+06     135.521E+06     207.395E+03         54.9759
             136     17.7542E-03     44.0930E-03         2.31657    -512.297E-03        -1.14123    -512.183E-03         2.31645        -1.14123    -15.8520E-03     225.956E-03    -14.6497E-03    -211.315E-03    -37.0629E-03     51.7038E-03    -14.6497E-03     428.149E-03     204.219E+06     133.498E+06    -1.35666E+06    -1.31811E+06     204.180E+06     133.498E+06     1.66927E+06         55.0504
             137     17.7529E-03     45.1049E-03         2.09863    -485.707E-03    -975.010E-03    -485.581E-03         2.09851    -975.010E-03    -34.2286E-03     222.435E-03    -14.6949E-03    -207.749E-03    -35.0593E-03     49.7450E-03    -14.6949E-03     421.741E-03     206.141E+06     133.859E+06    -1.74294E+06    -1.74207E+06     206.140E+06     133.859E+06    -307.037E+03         55.1174
             138     17.7525E-03     46.1253E-03         1.84646    -431.725E-03    -802.913E-03    -431.450E-03         1.84618    -802.913E-03    -43.0452E-03     218.034E-03    -14.6146E-03    -203.427E-03    -36.2286E-03     50.8351E-03    -14.6146E-03     412.361E-03     206.248E+06     132.463E+06    -5.14828E+06    -5.14821E+06     206.247E+06     132.463E+06    -91.8482E+03         55.1885
             139     17.7559E-03     47.1617E-03         1.59866    -394.178E-03    -626.307E-03    -393.917E-03         1.59840    -626.307E-03    -38.3592E-03     220.413E-03    -14.5280E-03    -205.893E-03    -40.9031E-03     55.4234E-03    -14.5280E-03     415.244E-03     205.633E+06     134.788E+06    -5.15075E+06    -5.14727E+06     205.629E+06     134.788E+06     511.835E+03         55.2612
             140     17.7487E-03     48.2087E-03         1.37060    -375.420E-03    -446.561E-03    -375.270E-03         1.37045    -446.561E-03    -27.0649E-03     220.994E-03    -14.6231E-03    -206.377E-03    -39.1159E-03     53.7330E-03    -14.6231E-03     417.058E-03     209.031E+06     134.567E+06    -225.305E+03    -168.820E+03     208.975E+06     134.567E+06     2.95190E+06         55.3352
             141     17.7559E-03     49.2169E-03         1.12874    -266.158E-03    -352.420E-03    -351.798E-03         1.12841    -266.457E-03    -43.4375E-03     213.283E-03    -14.7407E-03    -198.546E-03    -29.7750E-03     44.5125E-03    -14.7407E-03     405.022E-03     208.591E+06     131.198E+06    -6.35597E+06    -6.20991E+06     208.445E+06     131.198E+06    -847.794E+03         55.4205
             142     17.7545E-03     50.2200E-03     882.183E-03    -87.7754E-03    -325.048E-03    -323.512E-03     880.647E-03    -87.7754E-03    -75.6935E-03     211.382E-03    -14.6048E-03    -196.779E-03    -33.1560E-03     47.7593E-03    -14.6048E-03     399.821E-03     212.233E+06     139.625E+06    -5.21790E+06    -5.02723E+06     212.042E+06     139.625E+06     29.3977E+03         55.5117
             143     17.7543E-03     51.2943E-03     637.161E-03     88.1870E-03    -276.503E-03    -274.315E-03     634.972E-03     88.1870E-03    -89.2565E-03     219.974E-03    -14.4304E-03    -205.546E-03    -39.0074E-03     53.4363E-03    -14.4304E-03     415.316E-03     212.005E+06     129.972E+06    -2.32620E+06    -2.22823E+06     211.907E+06     129.972E+06     3.05949E+06         55.5946
             144     17.7576E-03     52.3145E-03     430.344E-03     240.887E-03    -246.198E-03    -244.600E-03     410.226E-03     259.407E-03    -64.6508E-03     225.079E-03    -14.5301E-03    -210.551E-03    -37.3384E-03     51.8673E-03    -14.5301E-03     426.399E-03     208.976E+06     133.629E+06    -5.98458E+06    -5.94641E+06     208.938E+06     133.629E+06    -2.19218E+06         55.6772
             145     17.7519E-03     53.3398E-03     425.083E-03     195.419E-03    -236.042E-03    -234.684E-03     194.061E-03     425.083E-03    -48.1956E-03     222.576E-03    -14.6376E-03    -207.937E-03    -36.6974E-03     51.3358E-03    -14.6376E-03     421.416E-03     215.445E+06     148.085E+06    -604.634E+03    -527.050E+03     215.368E+06     148.085E+06     53.9891E+03         55.7642
             146     17.7563E-03     54.3716E-03     583.495E-03    -10.9440E-03    -212.101E-03    -199.775E-03    -23.2708E-03     583.495E-03    -57.8818E-03     220.343E-03    -14.5854E-03    -205.756E-03    -35.1600E-03     49.7463E-03    -14.5854E-03     417.550E-03     211.891E+06     135.758E+06    -3.24047E+06    -3.20078E+06     211.852E+06     135.758E+06     2.04131E+06         55.8619
             147     17.7554E-03     55.3822E-03     731.852E-03    -128.744E-03    -270.729E-03    -163.783E-03    -235.690E-03     731.852E-03    -74.3744E-03     216.767E-03    -14.5148E-03    -202.253E-03    -37.2454E-03     51.7589E-03    -14.5148E-03     409.388E-03     211.201E+06     136.333E+06    -4.57566E+06    -4.56946E+06     211.195E+06     136.333E+06     789.390E+03         55.9770
             148     17.7522E-03     56.4293E-03     869.713E-03    -145.143E-03    -424.007E-03    -148.925E-03    -420.226E-03     869.713E-03    -53.0337E-03     211.416E-03    -14.5642E-03    -196.853E-03    -37.8763E-03     52.4390E-03    -14.5642E-03     398.135E-03     214.741E+06     140.476E+06    -2.93246E+06    -2.91036E+06     214.719E+06     140.476E+06    -492.553E+03         56.1041
             149     17.7621E-03     58.4452E-03         1.10892    -91.7022E-03    -756.544E-03    -93.4887E-03    -754.757E-03         1.10892    -68.7931E-03     201.289E-03    -14.2136E-03    -187.073E-03    -36.6861E-03     50.9028E-03    -14.2136E-03     378.121E-03     213.444E+06     127.015E+06    -2.76559E+06    -2.76086E+06     213.439E+06     127.015E+06    -869.374E+03         56.4497
             150     17.7530E-03     59.5458E-03         1.20665    -83.4398E-03    -896.564E-03    -84.5511E-03    -895.452E-03         1.20665    -48.7196E-03     219.401E-03    -14.3402E-03    -205.062E-03    -47.7074E-03     62.0467E-03    -14.3402E-03     410.028E-03     210.941E+06     137.846E+06    -4.81662E+06    -4.78307E+06     210.908E+06     137.846E+06    -2.46445E+06         56.6064
             151     17.7439E-03     60.5889E-03         1.29080    -67.5323E-03        -1.00492    -67.6185E-03        -1.00484         1.29080    -17.9580E-03     225.860E-03    -14.9525E-03    -210.910E-03    -37.6253E-03     52.5762E-03    -14.9525E-03     426.676E-03     213.416E+06     141.897E+06    -4.56796E+06    -4.45854E+06     213.307E+06     141.897E+06     1.19976E+06         56.7306
             152     17.7542E-03     61.5580E-03         1.35882    -48.7873E-03        -1.09930    -49.4884E-03        -1.09860         1.35882    -47.2784E-03     211.440E-03    -15.0359E-03    -196.403E-03    -23.0993E-03     38.1359E-03    -15.0359E-03     403.220E-03     215.218E+06     134.268E+06    -3.75459E+06    -3.67203E+06     215.135E+06     134.268E+06     3.46767E+06         56.8874
             153     17.7563E-03     62.5680E-03         1.40858    -35.8510E-03        -1.17864    -36.9423E-03        -1.17755         1.40858    -70.0718E-03     199.701E-03    -14.5596E-03    -185.143E-03    -30.0057E-03     44.5640E-03    -14.5596E-03     377.129E-03     210.799E+06     129.435E+06    -7.71175E+06    -7.68662E+06     210.774E+06     129.435E+06    -1.08763E+06         57.0635
             154     17.7533E-03     63.6285E-03         1.44110    -14.0394E-03        -1.24406    -15.1162E-03        -1.24298         1.44110    -72.5275E-03     207.937E-03    -14.3699E-03    -193.570E-03    -40.1025E-03     54.4700E-03    -14.3699E-03     390.207E-03     213.573E+06     130.252E+06    -4.25818E+06    -4.22843E+06     213.544E+06     130.252E+06    -721.478E+03         57.1964
             155     17.7538E-03     64.6863E-03         1.45693    -6.95521E-03        -1.27955    -7.92530E-03        -1.27858         1.45693    -69.2857E-03     223.108E-03    -14.5847E-03    -208.524E-03    -39.4938E-03     54.0782E-03    -14.5847E-03     421.317E-03     217.174E+06     133.187E+06    -2.25396E+06    -2.21984E+06     217.140E+06     133.187E+06    -878.794E+03         57.2933
             156     17.7508E-03     65.7128E-03         1.45620    -6.28288E-03        -1.26671    -6.99872E-03        -1.26599         1.45620    -59.9888E-03     226.542E-03    -14.8429E-03    -211.700E-03    -34.9014E-03     49.7436E-03    -14.8429E-03     429.970E-03     218.381E+06     140.888E+06    -5.25125E+06    -5.21673E+06     218.347E+06     140.888E+06    -837.440E+03         57.3897
             157     17.7531E-03     66.7219E-03         1.43808     5.90942E-03        -1.25171     5.25359E-03        -1.25105         1.43808    -57.1501E-03     222.335E-03    -14.8405E-03    -207.495E-03    -32.5282E-03     47.3683E-03    -14.8405E-03     422.338E-03     222.560E+06     142.795E+06    -2.53201E+06    -2.42665E+06     222.454E+06     142.795E+06     4.22637E+06         57.4963
             158     17.7551E-03     67.7476E-03         1.40171     1.64199E-03        -1.22603     1.11682E-03        -1.22550         1.40171    -50.7681E-03     212.867E-03    -14.6334E-03    -198.235E-03    -28.5283E-03     43.1602E-03    -14.6334E-03     404.759E-03     222.245E+06     126.159E+06     602.133E+03     724.918E+03     222.122E+06     126.159E+06     1.68328E+06         57.6002
             159     17.7597E-03     68.7454E-03         1.34774    -10.7109E-03        -1.16828    -10.9718E-03        -1.16802         1.34774    -23.2713E-03     208.606E-03    -14.4496E-03    -194.160E-03    -33.4998E-03     47.9457E-03    -14.4496E-03     394.069E-03     219.010E+06     127.253E+06    -5.27418E+06    -5.17326E+06     218.909E+06     127.253E+06    -4.60370E+06         57.6995
             160     17.7492E-03     69.8073E-03         1.27778    -19.7897E-03        -1.10185    -19.8229E-03        -1.10181         1.27778    -6.55264E-03     217.929E-03    -14.4071E-03    -203.524E-03    -46.3382E-03     60.7432E-03    -14.4071E-03     407.597E-03     222.771E+06     137.173E+06    -6.06390E+06    -5.86554E+06     222.573E+06     137.173E+06     757.686E+03         57.7809
             161     17.7509E-03     70.8794E-03         1.19363    -38.4741E-03        -1.00019    -38.9655E-03    -999.698E-03         1.19363    -36.6042E-03     227.039E-03    -14.7698E-03    -212.268E-03    -40.4053E-03     55.1754E-03    -14.7698E-03     428.284E-03     222.054E+06     131.134E+06    -3.08736E+06    -2.93991E+06     221.907E+06     131.134E+06     2.04006E+06         57.8331
             162     17.7479E-03     71.8605E-03         1.09546    -48.1209E-03    -876.481E-03    -48.6880E-03    -875.914E-03         1.09546    -41.3591E-03     219.861E-03    -15.0526E-03    -204.810E-03    -27.4936E-03     42.5453E-03    -15.0526E-03     418.843E-03     222.556E+06     132.242E+06    -4.97645E+06    -4.94045E+06     222.520E+06     132.242E+06    -570.061E+03         57.9057
             163     17.7554E-03     72.8682E-03     983.612E-03    -52.9240E-03    -743.573E-03    -53.0439E-03    -743.453E-03     983.612E-03    -16.7766E-03     210.473E-03    -14.7591E-03    -195.717E-03    -27.2632E-03     42.0187E-03    -14.7591E-03     400.198E-03     225.142E+06     122.363E+06    -2.46919E+06    -2.44109E+06     225.114E+06     122.363E+06     2.50701E+06         58.0057
             164     17.7552E-03     73.9132E-03     859.414E-03    -74.1006E-03    -589.475E-03    -74.2736E-03    -589.302E-03     859.414E-03    -15.5368E-03     216.759E-03    -14.4804E-03    -202.285E-03    -37.0195E-03     51.4939E-03    -14.4804E-03     409.432E-03     220.417E+06     115.130E+06    -6.15506E+06    -6.06106E+06     220.323E+06     115.130E+06    -1.56930E+06         58.0905
             165     17.7488E-03     74.9636E-03     723.043E-03    -81.4303E-03    -441.085E-03    -81.9923E-03    -440.523E-03     723.043E-03    -27.0227E-03     227.082E-03    -14.5985E-03    -212.492E-03    -43.7322E-03     58.3227E-03    -14.5985E-03     427.558E-03     227.449E+06     129.135E+06    -4.20329E+06    -4.08095E+06     227.326E+06     129.135E+06    -653.261E+03         58.1488
             166     17.7501E-03     76.0039E-03     577.198E-03    -95.9129E-03    -268.390E-03    -104.514E-03    -259.788E-03     577.198E-03     8.60906E-03     227.637E-03    -14.8339E-03    -212.808E-03    -36.3661E-03     51.1952E-03    -14.8339E-03     431.452E-03     229.667E+06     125.674E+06    -1.71240E+06    -1.66310E+06     229.618E+06     125.674E+06     1.67640E+06         58.2009
             167     17.7520E-03     76.9908E-03     425.439E-03    -45.4758E-03    -148.440E-03    -130.295E-03    -63.6209E-03     425.439E-03     38.3068E-03     215.883E-03    -14.8568E-03    -201.026E-03    -28.8256E-03     43.6825E-03    -14.8568E-03     410.549E-03     225.787E+06     121.301E+06    -5.70479E+06    -5.68176E+06     225.764E+06     121.301E+06     874.593E+03         58.2755
             168     17.7533E-03     78.0088E-03     295.964E-03     105.432E-03    -146.989E-03    -145.339E-03     132.073E-03     267.672E-03     42.4929E-03     209.388E-03    -14.6682E-03    -194.719E-03    -29.9241E-03     44.5929E-03    -14.6682E-03     397.172E-03     234.073E+06     125.997E+06     1.98604E+06     2.05295E+06     234.006E+06     125.997E+06     3.84603E+06         58.3587
             169     17.7563E-03     79.0590E-03     332.394E-03     103.402E-03    -169.220E-03    -167.470E-03     330.644E-03     103.402E-03     58.4515E-03     215.477E-03    -14.5731E-03    -200.905E-03    -34.4427E-03     49.0147E-03    -14.5731E-03     407.907E-03     228.649E+06     120.114E+06    -5.73014E+06    -5.49449E+06     228.414E+06     120.114E+06    -2.39657E+06         58.4273
             170     17.7482E-03     80.0838E-03     531.099E-03    -65.3449E-03    -190.452E-03    -188.265E-03     528.912E-03    -65.3449E-03     79.1764E-03     221.823E-03    -14.5885E-03    -207.234E-03    -37.9708E-03     52.5596E-03    -14.5885E-03     419.398E-03     230.306E+06     119.715E+06    -6.92903E+06    -6.63017E+06     230.007E+06     119.715E+06    -1.12075E+06         58.4907
             171     17.7564E-03     81.1296E-03     743.366E-03    -187.834E-03    -261.806E-03    -213.782E-03     741.701E-03    -234.193E-03     72.0295E-03     225.653E-03    -14.5653E-03    -211.087E-03    -37.3353E-03     51.9017E-03    -14.5653E-03     427.516E-03     231.441E+06     111.198E+06    -3.64520E+06    -3.43551E+06     231.231E+06     111.198E+06     208.331E+03         58.5603
             172     17.7500E-03     82.1476E-03     956.050E-03    -237.295E-03    -401.215E-03    -236.936E-03     955.691E-03    -401.215E-03     40.0400E-03     226.722E-03    -14.5868E-03    -212.137E-03    -38.6337E-03     53.2190E-03    -14.5868E-03     429.108E-03     230.952E+06     112.004E+06    -6.16571E+06    -6.03168E+06     230.818E+06     112.004E+06    -1.35542E+06         58.6408
             173     17.7516E-03     83.1854E-03         1.15649    -255.282E-03    -566.461E-03    -255.013E-03         1.15623    -566.461E-03     38.9149E-03     222.677E-03    -14.6429E-03    -208.035E-03    -35.8970E-03     50.5392E-03    -14.6429E-03     421.852E-03     233.010E+06     107.082E+06    -2.19628E+06    -2.13685E+06     232.950E+06     107.082E+06     369.690E+03         58.7259
             174     17.7523E-03     84.1912E-03         1.35886    -283.959E-03    -728.196E-03    -283.767E-03         1.35867    -728.196E-03     32.4184E-03     216.311E-03    -14.5602E-03    -201.749E-03    -28.7138E-03     43.2753E-03    -14.5602E-03     411.802E-03     227.837E+06     86.9139E+06    -1.34770E+06    -1.27067E+06     227.760E+06     86.9139E+06     768.977E+03         58.8227
             175     17.7595E-03     85.2033E-03         1.54094    -300.409E-03    -884.912E-03    -300.379E-03         1.54091    -884.912E-03     11.8206E-03     215.406E-03    -14.3141E-03    -201.094E-03    -33.6565E-03     47.9679E-03    -14.3141E-03     408.208E-03     226.140E+06     85.4978E+06    -5.75581E+06    -5.62920E+06     226.013E+06     85.4978E+06    -505.639E+03         58.9330
             176     17.7509E-03     86.2689E-03         1.71378    -307.063E-03        -1.03422    -306.914E-03         1.71363        -1.03422     26.6066E-03     224.549E-03    -14.2390E-03    -210.312E-03    -40.5610E-03     54.7974E-03    -14.2390E-03     424.264E-03     222.932E+06     78.9241E+06    -9.20683E+06    -9.09941E+06     222.825E+06     78.9241E+06    -4.90528E+06         59.0169
             177     17.7554E-03     87.3030E-03         1.89123    -328.402E-03        -1.17387    -328.249E-03         1.89108        -1.17387     29.6619E-03     233.918E-03    -14.2538E-03    -219.665E-03    -36.8249E-03     51.0774E-03    -14.2538E-03     444.905E-03     219.582E+06     60.1763E+06     1.24404E+06     1.28021E+06     219.546E+06     60.1763E+06    -1.41000E+06         59.0813
             178     17.7602E-03     88.3137E-03         2.06170    -365.148E-03        -1.30401    -365.122E-03         2.06168        -1.30401     14.9999E-03     236.502E-03    -14.1265E-03    -222.376E-03    -39.6465E-03     53.7723E-03    -14.1265E-03     449.081E-03     219.036E+06     57.7986E+06     1.22616E+06     1.29449E+06     218.967E+06     57.7986E+06    -2.18729E+06         59.1540
             179     17.7499E-03     89.3700E-03         2.21681    -384.820E-03        -1.42346    -384.753E-03         2.21674        -1.42346     26.0130E-03     236.641E-03    -14.1628E-03    -222.476E-03    -42.5322E-03     56.6965E-03    -14.1628E-03     448.209E-03     215.686E+06     56.8243E+06     750.878E+03     817.316E+03     215.619E+06     56.8243E+06    -3.03635E+06         59.2061
             180     17.7579E-03     90.3753E-03         2.33179    -378.652E-03        -1.52936    -378.237E-03         2.33137        -1.52936     60.7328E-03     228.918E-03    -14.2580E-03    -214.661E-03    -32.2373E-03     46.4949E-03    -14.2580E-03     436.397E-03     189.963E+06     40.9837E+06    -7.44053E+06    -6.51694E+06     189.040E+06     40.9837E+06    -9.68593E+06         59.2545
             181     17.7604E-03     91.3604E-03         2.43602    -382.273E-03        -1.61987    -381.791E-03         2.43554        -1.61987     70.7533E-03     212.782E-03    -14.1027E-03    -198.679E-03    -27.8079E-03     41.9112E-03    -14.1027E-03     405.442E-03     161.266E+06     43.1139E+06    -4.94655E+06    -3.46362E+06     159.783E+06     43.1139E+06    -15.6142E+06         59.3310
             182     17.7612E-03     92.3959E-03         2.52795    -391.647E-03        -1.69576    -391.497E-03         2.52780        -1.69576     40.1433E-03     208.368E-03    -13.9169E-03    -194.449E-03    -34.3741E-03     48.2935E-03    -13.9169E-03     394.182E-03     132.545E+06      54.415E+06     311.265E+03     2.54335E+06     130.313E+06      54.415E+06    -16.3015E+06         59.4109
             183     17.7604E-03     93.4327E-03         2.58658    -400.334E-03        -1.75776    -400.252E-03         2.58649        -1.75776     31.1444E-03     211.283E-03    -13.8323E-03    -197.449E-03    -39.1477E-03     52.9813E-03    -13.8323E-03     398.211E-03     96.0330E+06     63.8467E+06    -8.80192E+06    -5.57223E+06     92.8033E+06     63.8467E+06    -18.0578E+06         59.4910
             184     17.7671E-03     94.4660E-03         2.64696    -409.327E-03        -1.80299    -409.083E-03         2.64672        -1.80299     51.6893E-03     216.792E-03    -13.8284E-03    -202.965E-03    -41.4685E-03     55.2961E-03    -13.8284E-03     408.451E-03     89.2354E+06     67.2733E+06    -1.42622E+06     548.946E+03     68.4447E+06     86.0888E+06    -11.4628E+06         59.5735
             185     17.7635E-03     95.5295E-03         2.68183    -406.251E-03        -1.83016    -406.050E-03         2.68163        -1.83016     31.6813E-03     224.066E-03    -14.0319E-03    -210.034E-03    -38.8072E-03     52.8391E-03    -14.0319E-03     424.216E-03     102.734E+06     44.5938E+06    -8.70297E+06    -4.48756E+06     40.3784E+06     102.734E+06    -12.2316E+06         59.6345
             186     17.7686E-03     96.5365E-03         2.67350    -405.054E-03        -1.84115    -405.049E-03         2.67350        -1.84115     587.743E-06     220.826E-03    -14.1572E-03    -206.668E-03    -32.1405E-03     46.2987E-03    -14.1572E-03     420.224E-03     118.125E+06     22.1906E+06    -6.71624E+06    -2.91778E+06     18.3921E+06     118.125E+06    -8.72008E+06         59.6780
             187     17.7727E-03     97.5362E-03         2.66483    -402.982E-03        -1.83496    -402.867E-03         2.66472        -1.83496     30.2218E-03     209.564E-03    -14.0011E-03    -195.563E-03    -33.2898E-03     47.2913E-03    -14.0011E-03     396.914E-03     128.654E+06     11.3817E+06    -9.53372E+06    -6.31154E+06     8.15951E+06     128.654E+06    -6.37918E+06         59.6904
             188     17.7670E-03     98.5842E-03         2.62185    -387.908E-03        -1.81080    -387.761E-03         2.62170        -1.81080     40.5312E-03     202.542E-03    -14.0502E-03    -188.490E-03    -31.8476E-03     45.8996E-03    -14.0502E-03     383.102E-03     132.613E+06     10.4554E+06    -18.6863E+06    -2.64336E+06    -5.58755E+06     132.613E+06    -4.43191E+06         59.6217
             189     17.7722E-03     99.5851E-03         2.55133    -381.518E-03        -1.77017    -381.386E-03         2.55119        -1.77017    -9.31105E-03     195.623E-03    -14.1777E-03    -181.442E-03    -24.9332E-03     39.1148E-03    -14.1777E-03     371.582E-03     125.962E+06     7.28432E+06    -23.6558E+06    -3.15484E+06    -13.2166E+06     125.962E+06    -6.83312E+06         59.4523
             190     17.7670E-03     100.595E-03         2.47980    -372.625E-03        -1.71301    -372.526E-03         2.47970        -1.71301    -26.7942E-03     195.901E-03    -14.1515E-03    -181.747E-03    -27.4362E-03     41.5896E-03    -14.1515E-03     371.228E-03     124.797E+06     9.52891E+06    -27.4997E+06    -1.14851E+06    -16.8223E+06     124.797E+06    -5.62669E+06         59.1381
             191     17.7690E-03     101.668E-03         2.39426    -357.521E-03        -1.63995    -357.518E-03         2.39426        -1.63995    -1.12069E-03     209.313E-03    -14.3495E-03    -194.963E-03    -26.4711E-03     40.8206E-03    -14.3495E-03     398.423E-03     119.106E+06     2.15754E+06    -41.6461E+06    -884.325E+03    -38.6042E+06     119.106E+06    -4.23072E+06         58.6361
             192     17.7650E-03     102.670E-03         2.27266    -339.014E-03        -1.55296    -339.010E-03         2.27265        -1.55296     6.23626E-03     216.986E-03    -14.6993E-03    -202.286E-03    -17.8113E-03     32.5110E-03    -14.6993E-03     416.189E-03     110.149E+06     -8.8379E+06    -60.1331E+06    -11.3437E+06    -57.6273E+06     110.149E+06    -6.89931E+06         57.9558
             193     17.7673E-03     103.670E-03         2.13530    -316.703E-03        -1.45270    -316.696E-03         2.13530        -1.45270     8.40461E-03     217.651E-03    -14.8175E-03    -202.832E-03    -16.4963E-03     31.3148E-03    -14.8175E-03     417.737E-03     110.056E+06    -3.53951E+06    -65.7328E+06    -4.55732E+06    -64.7150E+06     110.056E+06    -5.36815E+06         57.0713
             194     17.7619E-03     104.689E-03         1.97434    -298.207E-03        -1.34009    -298.203E-03         1.97434        -1.34009     4.12786E-03     215.556E-03    -14.6764E-03    -200.878E-03    -17.0762E-03     31.7542E-03    -14.6764E-03     413.554E-03     105.835E+06     867.616E+03    -82.8242E+06    -770.693E+03    -81.1859E+06     105.835E+06    -11.3720E+06         55.9312
             195     17.7790E-03     105.663E-03         1.80911    -300.383E-03        -1.21452    -300.370E-03         1.80909        -1.21452     7.33435E-03     198.472E-03    -14.0812E-03    -184.390E-03    -22.8945E-03     36.9762E-03    -14.0812E-03     377.683E-03     118.732E+06     36.0829E+06    -76.5249E+06     32.8738E+06    -73.3158E+06     118.732E+06     7.14660E+06         54.5107
             196     17.7715E-03     106.660E-03         1.62307    -279.006E-03        -1.07536    -278.831E-03         1.62290        -1.07536    -16.4547E-03     177.606E-03    -13.1842E-03    -164.423E-03    -43.8814E-03     57.0644E-03    -13.1842E-03     325.237E-03     84.9188E+06     1.81345E+06    -98.4249E+06    -16.5723E+06    -80.0392E+06     84.9188E+06    -5.16930E+06         52.7103
             197     17.7706E-03     107.736E-03         1.39627    -229.265E-03    -925.109E-03    -228.932E-03         1.39594    -925.109E-03    -1.21510E-03     176.310E-03    -12.6245E-03    -163.685E-03    -57.4578E-03     70.0823E-03    -12.6245E-03     315.139E-03     60.7115E+06    -2.70292E+06    -116.902E+06    -18.9007E+06    -100.704E+06     60.7115E+06    -12.2780E+06         50.4170
             198     17.7853E-03     108.790E-03         1.14134    -169.078E-03    -767.093E-03    -168.853E-03         1.14112    -767.093E-03     11.6729E-03     173.278E-03    -12.3525E-03    -160.925E-03    -58.3008E-03     70.6536E-03    -12.3525E-03     308.210E-03     53.9157E+06      4.3186E+06    -126.509E+06    -855.558E+03    -121.335E+06     53.9157E+06    -9.58705E+06         47.6207
             199     17.7711E-03     109.819E-03     910.736E-03    -145.283E-03    -603.128E-03    -145.203E-03     910.656E-03    -603.128E-03    -3.64399E-03     164.337E-03    -12.1806E-03    -152.158E-03    -67.7720E-03     79.9505E-03    -12.1806E-03     279.142E-03     71.1470E+06     3.04499E+06    -125.783E+06     17.9370E+06    -110.708E+06     41.1805E+06     16.3334E+06         44.4147
             200     17.7648E-03     110.906E-03     714.644E-03    -137.376E-03    -434.789E-03    -137.289E-03     714.557E-03    -434.789E-03    -2.00176E-03     150.628E-03    -12.6600E-03    -137.968E-03    -63.8392E-03     76.4997E-03    -12.6600E-03     251.791E-03     44.1972E+06     6.62258E+06    -110.976E+06    -13.0664E+06    -61.3208E+06     14.2307E+06     22.8482E+06         41.1144
             201     17.7487E-03     111.935E-03     464.090E-03    -89.9607E-03    -266.708E-03    -89.5103E-03     463.640E-03    -266.708E-03     8.04043E-03     128.467E-03    -14.2513E-03    -114.214E-03    -31.0050E-03     45.2577E-03    -14.2513E-03     227.698E-03     10.9528E+06    -10.9273E+06    -80.0528E+06    -43.8900E+06    -32.8180E+06    -3.31926E+06     7.83846E+06         38.2171
             202     17.7304E-03     112.920E-03     220.837E-03    -42.6319E-03    -114.419E-03    -53.9498E-03     219.461E-03    -101.724E-03     35.3485E-03     65.3874E-03    -2.29886E-03    -63.0884E-03     534.500E-06     18.7099E-03    -19.2443E-03     110.034E-03     40.6381E+06     -95.265E+03    -87.3170E+06     31.5150E+06    -18.8588E+06    -59.4303E+06     22.0478E+06         36.1952
             203     16.4904E-03     113.632E-03     131.100E-03    -21.0575E-03    -53.8317E-03    -32.0604E-03     129.408E-03    -41.1371E-03     33.1225E-03     15.7794E-03     7.83765E-03    -23.6173E-03     10.2239E-03     13.3931E-03    -23.6173E-03     7.21336E-03     45.6997E+06    -22.6415E+06    -86.7087E+06     2.92016E+06     15.4059E+06    -81.9766E+06     20.1532E+06         34.4280
             204     15.5113E-03     113.443E-03     149.727E-03    -21.7023E-03    -83.2836E-03    -17.0956E-03     145.120E-03    -83.2836E-03     51.7142E-03     36.4399E-03    -9.58157E-03    -26.8593E-03    -10.3527E-03     34.4428E-03    -24.0911E-03     8.43609E-03     52.0402E+06    -18.1755E+06    -48.2339E+06    -40.1132E+06     15.5836E+06     10.1603E+06     6.30721E+06         32.2129
             205     14.5823E-03     113.248E-03     182.226E-03    -32.6869E-03    -122.966E-03    -27.9420E-03     177.481E-03    -122.966E-03     57.0803E-03     54.4948E-03    -23.2858E-03    -31.2072E-03    -31.1320E-03     54.4197E-03    -23.2858E-03    -824.248E-06     33.2738E+06    -2.36229E+06    -61.2208E+06    -55.4042E+06    -8.17889E+06     33.2738E+06    -17.4738E+06         29.8139
             206     13.6440E-03     113.107E-03     219.865E-03    -60.3604E-03    -157.066E-03    -54.1039E-03     213.608E-03    -157.066E-03     77.4020E-03     55.9076E-03    -21.6379E-03    -34.2674E-03    -34.0841E-03     55.7243E-03    -21.6379E-03    -7.90540E-03     9.60998E+06    -4.74280E+06    -57.0968E+06    -54.2825E+06    -7.55710E+06     9.60998E+06    -10.0325E+06         27.6267
             207     12.6958E-03     113.000E-03     238.223E-03    -81.2580E-03    -185.691E-03    -75.1678E-03     232.133E-03    -185.691E-03     77.9804E-03     54.5767E-03    -20.1176E-03    -34.4587E-03    -34.1437E-03     54.2617E-03    -20.1176E-03    -10.5280E-03     12.5930E+06     1.56672E+06    -50.8719E+06    -49.3144E+06      9.1995E+03     12.5930E+06    -7.77922E+06         25.9112
             208     11.7431E-03     112.914E-03     267.759E-03    -112.940E-03    -210.115E-03    -112.200E-03     267.018E-03    -210.115E-03     28.4638E-03     49.7500E-03    -18.7581E-03    -30.9903E-03    -30.7159E-03     49.4757E-03    -18.7581E-03    -9.31680E-03     23.7199E+06     4.05422E+06    -45.9344E+06    -41.9061E+06      25.963E+03     23.7199E+06    -12.8876E+06         24.5517
             209     10.7826E-03     112.849E-03     302.130E-03    -159.357E-03    -230.099E-03    -159.291E-03     302.063E-03    -230.099E-03     5.59223E-03     45.2463E-03    -17.5763E-03    -27.6702E-03    -27.5246E-03     45.1007E-03    -17.5763E-03    -6.45911E-03     28.7540E+06    -4.82632E+06    -39.8965E+06    -37.3924E+06    -7.33038E+06     28.7540E+06    -5.99964E+06         23.4908
             210     9.81570E-03     112.796E-03     311.750E-03    -182.665E-03    -246.655E-03    -182.557E-03     311.642E-03    -246.655E-03     8.40396E-03     41.9108E-03    -16.4656E-03    -25.4465E-03    -25.3540E-03     41.8182E-03    -16.4656E-03    -4.98598E-03     25.1307E+06     1.19988E+06    -44.3365E+06    -44.2877E+06     1.15108E+06     25.1307E+06    -1.24349E+06         22.8213
             211     8.84581E-03     112.755E-03     315.747E-03    -191.487E-03    -261.908E-03    -191.257E-03     315.517E-03    -261.908E-03    -1.15061E-03     38.4380E-03    -15.3707E-03    -23.0675E-03    -22.9964E-03     38.3669E-03    -15.3707E-03    -4.17782E-03     8.09249E+06     1.66968E+06    -51.6776E+06    -51.1819E+06     1.17403E+06     8.09249E+06    -4.55107E+06         22.4780
             212     7.87214E-03     112.721E-03     339.556E-03    -206.576E-03    -276.711E-03    -206.443E-03     339.423E-03    -276.711E-03    -8.37761E-03     35.0440E-03    -14.3786E-03    -20.6645E-03    -20.6039E-03     34.9834E-03    -14.3786E-03    -3.67211E-03     3.49510E+06    -3.82597E+06    -48.7219E+06    -46.3343E+06     727.216E+03    -3.44564E+06    -10.1509E+06         22.2541
             213     6.89516E-03     112.697E-03     378.655E-03    -234.326E-03    -290.238E-03    -234.138E-03     378.468E-03    -290.238E-03     18.2458E-03     32.0433E-03    -13.5927E-03    -18.4489E-03    -18.3961E-03     31.9905E-03    -13.5927E-03    -3.25841E-03     13.2725E+06    -4.03458E+06    -37.6775E+06    -34.7929E+06     21.6268E+03     6.33178E+06    -10.4125E+06         22.0432
             214     5.91475E-03     112.675E-03     402.370E-03    -273.314E-03    -300.561E-03    -272.471E-03     401.527E-03    -300.561E-03    -15.2212E-03     29.0526E-03    -12.9281E-03    -16.1249E-03    -16.0830E-03     29.0107E-03    -12.9281E-03    -2.75125E-03     10.2935E+06    -4.58192E+06    -30.3405E+06    -28.9857E+06    -5.93664E+06     10.2935E+06    -5.71132E+06         21.8518
             215     4.93288E-03     112.661E-03     396.405E-03    -285.620E-03    -308.220E-03    -284.882E-03     395.668E-03    -308.220E-03    -40.4029E-03     26.8405E-03    -12.3426E-03    -14.4990E-03    -14.4665E-03     26.8080E-03    -12.3426E-03    -2.30882E-03     4.52081E+06    -1.98099E+06    -26.3402E+06    -25.2125E+06    -3.10875E+06     4.52081E+06    -5.10523E+06         21.6879
             216     3.94796E-03     112.650E-03     393.337E-03    -273.247E-03    -318.589E-03    -271.822E-03     391.911E-03    -318.589E-03    -52.4032E-03     25.2499E-03    -11.8879E-03    -13.3620E-03    -13.3365E-03     25.2244E-03    -11.8879E-03    -1.98304E-03     8.18398E+06     4.10804E+06    -21.1799E+06    -19.8546E+06     2.78275E+06     8.18398E+06    -5.63523E+06         21.5579
             217     2.96222E-03     112.642E-03     418.199E-03    -292.670E-03    -333.025E-03    -290.797E-03     416.326E-03    -333.025E-03    -14.4944E-03     23.8523E-03    -11.4799E-03    -12.3715E-03    -12.3534E-03     23.8342E-03    -11.4799E-03    -1.59552E-03     9.53732E+06     5.13412E+06    -20.4435E+06    -18.8244E+06     5.83507E+06     7.21728E+06    -6.51828E+06         21.4508
             218     1.97721E-03     112.638E-03     455.490E-03    -328.994E-03    -353.527E-03    -338.835E-03     453.443E-03    -341.639E-03    -22.5786E-03     21.9437E-03    -10.1509E-03    -11.7918E-03    -10.5027E-03     21.9055E-03    -11.4018E-03    -2.02059E-03     11.6503E+06    -12.7961E+06    -31.9022E+06    -7.95043E+06    -7.34196E+06    -17.7556E+06    -12.5870E+06         21.3691
             219     984.899E-06     112.634E-03     482.432E-03    -216.460E-03    -482.748E-03    -468.048E-03     467.732E-03    -216.460E-03    -217.877E-03     23.7926E-03    -10.0714E-03    -13.7208E-03    -12.3933E-03     23.7160E-03    -11.3223E-03    -3.32835E-03     40.6593E+06     2.02326E+06    -19.6531E+06     15.3689E+06    -5.91289E+06     13.5735E+06    -16.1169E+06         21.3550
             220    -12.9897E-06     111.612E-03     743.600E-03    -310.415E-03    -570.624E-03    -549.282E-03     728.066E-03    -316.223E-03    -252.082E-03     23.7085E-03    -9.13643E-03    -14.5715E-03    -11.4098E-03     23.5834E-03    -12.1730E-03    -4.04985E-03     36.8679E+06    -14.3141E+06    -33.8823E+06     12.5685E+06    -23.2413E+06    -655.712E+03    -17.4542E+06         21.2679
             221     5.98407E-06     110.594E-03         1.27992    -616.758E-03    -739.661E-03    -730.989E-03         1.27706    -622.566E-03    -34.4827E-03     17.0160E-03    -6.31494E-03    -10.7006E-03    -7.57536E-03     16.9273E-03    -9.35153E-03    -1.52248E-03    -6.94825E+06    -60.7012E+06    -69.5844E+06    -33.2348E+06    -59.5273E+06    -44.4718E+06    -7.13823E+06         20.9910
             222    -3.21158E-06     109.581E-03         1.70883    -740.535E-03        -1.02398        -1.02265         1.70750    -740.535E-03     120.213E-03     10.8255E-03    -4.34549E-03    -6.47989E-03    -5.66708E-03     10.7979E-03    -5.13077E-03    -82.6255E-06    -36.6235E+06    -70.5317E+06    -79.8931E+06    -60.2976E+06    -71.9701E+06    -54.7805E+06     50.2515E+03         20.6604
             223     1.25512E-06     108.571E-03         2.14665    -954.129E-03        -1.17228        -1.16989         2.14426    -954.129E-03     177.173E-03     6.52165E-03    -2.68950E-03    -3.83212E-03    -3.02507E-03     6.49988E-03    -3.47478E-03    -486.481E-06    -76.6784E+06    -103.668E+06    -122.054E+06    -104.436E+06    -90.9665E+06    -106.997E+06    -2.51735E+06         20.4010
             224    -423.000E-09     107.568E-03         2.71732        -1.25786        -1.39805        -1.39615         2.71542        -1.25786     52.3549E-03     4.02122E-03    -1.74444E-03    -2.27672E-03    -2.09978E-03     4.01922E-03    -1.91938E-03     190.366E-06    -103.579E+06    -133.160E+06    -157.963E+06    -147.367E+06    -104.428E+06    -142.907E+06    -3.48002E+06         20.2330
             225    -131.325E-09     106.563E-03         3.19253        -1.46629        -1.65086        -1.64838         3.19005        -1.46629     93.2789E-03     2.10273E-03    -961.359E-06    -1.14135E-03    -962.661E-06     2.09898E-03    -1.13630E-03     130.157E-06    -104.776E+06    -146.854E+06    -161.296E+06    -149.903E+06    -106.422E+06    -156.601E+06     1.03395E+06         20.1326
             226     151.712E-09     105.562E-03         3.56754        -1.65564        -1.79710        -1.79491         3.56535        -1.65564     172.837E-03     1.23899E-03    -593.427E-06    -645.589E-06    -587.568E-06     1.18097E-03    -593.427E-06     560.336E-06    -68.2923E+06    -99.7217E+06    -121.820E+06    -97.9039E+06    -92.2087E+06    -99.7217E+06     9.72086E+06         20.1004
             227    -285.849E-09     104.560E-03         3.97783        -1.82723        -1.99546        -1.99514         3.97751        -1.82723     82.7672E-03     1.63585E-03    -748.906E-06    -887.022E-06    -825.146E-06     1.57398E-03    -748.906E-06     660.364E-06    -16.5335E+06    -25.1686E+06    -64.7907E+06    -23.1526E+06    -58.1716E+06    -25.1686E+06     15.0922E+06         20.1250
             228     473.872E-09     103.559E-03         4.41813        -1.99877        -2.22223        -2.21975         4.41566        -1.99877     233.078E-03     2.65516E-03    -1.26661E-03    -1.38847E-03    -1.36753E-03     2.63422E-03    -1.26661E-03     580.257E-06     10.2359E+06     6.70305E+06    -21.9002E+06    -301.029E+03    -11.3633E+06     6.70305E+06     14.0630E+06         20.1848
             229    -417.272E-09     102.554E-03         4.74427        -2.14896        -2.35484        -2.34549         4.73492        -2.14896     496.766E-03     4.52495E-03    -2.24662E-03    -2.27844E-03    -2.23387E-03     4.48037E-03    -2.24662E-03     1.09515E-03     27.4483E+06     17.6062E+06     11.1740E+06     17.9030E+06     20.7193E+06     17.6062E+06     7.99807E+06         20.2856
             230     294.555E-09     101.549E-03         4.91510        -2.16702        -2.46650        -2.44731         4.89591        -2.16702     746.120E-03     7.57095E-03    -3.71378E-03    -3.85744E-03    -3.81355E-03     7.52706E-03    -3.71378E-03     1.33172E-03     45.0582E+06     30.1997E+06     27.4594E+06     31.1344E+06     41.3833E+06     30.1997E+06     4.55543E+06         20.4345
             231    -21.8965E-09     100.539E-03         5.14673        -2.22079        -2.62701        -2.58932         5.10903        -2.22079         1.06486     11.2526E-03    -5.50180E-03    -5.75096E-03    -5.71879E-03     11.2204E-03    -5.50180E-03     1.47739E-03     75.6142E+06     67.1784E+06     50.1174E+06     64.4924E+06     59.4872E+06     68.9303E+06     963.947E+03         20.6159
             232     193.858E-09     99.5243E-03         5.54262        -2.36527        -2.83648        -2.76975         5.47588        -2.36527         1.48248     14.0241E-03    -6.94925E-03    -7.07508E-03    -7.04362E-03     13.9927E-03    -6.94925E-03     1.60933E-03     96.3200E+06     94.3297E+06     53.5686E+06     94.1705E+06     53.9661E+06     96.0816E+06    -2.66668E+06         20.8026
             233    -191.274E-09     98.5093E-03         5.79485        -2.39274        -3.02522        -2.90352         5.67315        -2.39274         2.03100     16.4426E-03    -8.10080E-03    -8.34236E-03    -8.30996E-03     16.4102E-03    -8.10080E-03     1.78465E-03     101.840E+06     98.7039E+06     35.9169E+06     98.3509E+06     36.5082E+06     101.601E+06    -5.92213E+06         20.9802
             234     618.821E-09     97.4915E-03         5.86167        -2.29036        -3.22049        -3.01634         5.65752        -2.29036         2.67921     19.3894E-03    -9.42357E-03    -9.96689E-03    -9.62095E-03     19.3646E-03    -9.74471E-03     1.57165E-03     108.140E+06     100.570E+06     26.8848E+06     104.753E+06     27.3741E+06     103.468E+06    -6.16918E+06         21.1506
             235    -1.34010E-06     96.4701E-03         6.01274        -2.22317        -3.42648        -3.07823         5.66449        -2.22317         3.52290     21.8134E-03    -10.7340E-03    -11.0794E-03    -10.7428E-03     21.7979E-03    -11.0551E-03     1.39174E-03     114.621E+06     108.901E+06     27.0065E+06     113.256E+06     27.3239E+06     109.949E+06    -2.09297E+06         21.3096
             236     1.36770E-06     95.4451E-03         6.32251        -2.18197        -3.74431        -3.15331         5.73152        -2.18197         4.70636     23.7385E-03    -11.7064E-03    -12.0316E-03    -12.0132E-03     23.7201E-03    -11.7064E-03     1.60771E-03     110.608E+06     108.562E+06     18.0458E+06     108.352E+06     18.2557E+06     110.608E+06    -1.48313E+06         21.4438
             237    -778.697E-09     94.4231E-03         6.58421        -1.95565        -4.24183        -3.38123         5.72361        -1.95565         5.84494     25.2466E-03    -12.3617E-03    -12.8841E-03    -12.6454E-03     25.2295E-03    -12.5832E-03     1.60589E-03     99.6700E+06     96.0827E+06     2.64825E+03     98.2339E+06     440.860E+03     97.0806E+06    -6.54201E+06         21.5464
             238     283.771E-09     93.3926E-03         6.74409        -1.68133        -4.67835        -3.43827         5.50402        -1.68133         7.07022     25.9103E-03    -12.6784E-03    -13.2307E-03    -12.6600E-03     25.8918E-03    -13.2307E-03     1.68766E-03     100.346E+06     95.2955E+06    -6.09919E+06     100.078E+06    -5.83194E+06     95.2955E+06    -3.65068E+06         21.6274
             239    -995.890E-09     92.3701E-03         7.01800        -1.46901        -5.16370        -3.43344         5.28774        -1.46901         8.49127     27.1071E-03    -13.1863E-03    -13.9203E-03    -13.5797E-03     27.0972E-03    -13.5171E-03     1.14115E-03     92.8569E+06     84.7318E+06    -20.1351E+06     86.8917E+06    -19.8341E+06      90.396E+06    -3.91245E+06         21.7009
             240     1.86023E-06     91.3406E-03         7.50858        -1.15636        -5.97313        -3.61365         5.14910        -1.15636         10.2241     28.9876E-03    -14.2348E-03    -14.7520E-03    -14.7468E-03     28.9824E-03    -14.2348E-03     918.672E-06     71.5234E+06     65.3186E+06    -38.8485E+06     64.6693E+06    -38.1992E+06     71.5234E+06    -8.18738E+06         21.7571
             241    -1.63776E-06     90.3094E-03         7.94787    -812.324E-03        -6.74932        -3.76121         4.95976    -812.324E-03         11.8239     29.1296E-03    -14.4038E-03    -14.7256E-03    -14.5103E-03     29.1221E-03    -14.6117E-03     1.14382E-03     65.0884E+06     56.5751E+06    -49.4666E+06     64.1757E+06    -49.0944E+06     57.1156E+06    -5.40950E+06         21.7869
             242     1.10473E-06     89.2798E-03         8.28541    -448.651E-03        -7.43634        -3.82059         4.66966    -448.651E-03         13.2188     28.8322E-03    -14.0975E-03    -14.7349E-03    -14.5141E-03     28.8193E-03    -14.3054E-03     1.45917E-03     59.0436E+06     44.3651E+06    -60.0718E+06     52.2550E+06    -59.9889E+06     51.0708E+06     471.738E+03         21.8069
             243    -192.380E-09     88.2526E-03         8.72293    -20.2325E-03        -8.31962        -3.80903         4.21235    -20.2325E-03         15.0195     29.4996E-03    -14.3964E-03    -15.1027E-03    -14.8161E-03     29.4897E-03    -14.6732E-03     1.11266E-03     46.7919E+06     37.6667E+06    -66.8150E+06     39.7384E+06    -66.4671E+06     44.3724E+06    -2.38186E+06         21.8255
             244    -388.205E-09     87.2209E-03         9.09813     499.210E-03        -9.25098        -3.87830         3.72545     499.210E-03         16.6947     29.7116E-03    -14.5249E-03    -15.1866E-03    -14.9050E-03     29.7069E-03    -14.8017E-03     825.631E-06     43.5599E+06     40.8451E+06    -73.0598E+06     42.8607E+06    -72.6558E+06     41.1403E+06    -6.67190E+06         21.8314
             245     1.14133E-06     86.1906E-03         9.38575     965.703E-03        -10.0109        -3.98434         3.35923     965.703E-03         17.9495     29.1761E-03    -14.3616E-03    -14.8147E-03    -14.8038E-03     29.1652E-03    -14.3616E-03     1.37977E-03     25.9121E+06     23.9277E+06    -96.8345E+06     23.7621E+06    -96.6689E+06     25.9121E+06    -4.36365E+06         21.8176
             246    -999.747E-09     85.1629E-03         9.71697         1.32911        -10.6859        -3.94249         2.97358         1.32911         19.1883     29.1379E-03    -14.3289E-03    -14.8090E-03    -14.3807E-03     29.1214E-03    -14.7407E-03     1.68603E-03     19.0026E+06     14.8407E+06    -113.976E+06     17.1817E+06    -113.845E+06     16.5299E+06    -4.13839E+06         21.7949
             247     134.995E-09     84.1318E-03         10.1492         1.78625        -11.6038        -3.94595         2.49136         1.78625         20.7737     29.1895E-03    -14.3204E-03    -14.8687E-03    -14.3088E-03     29.1779E-03    -14.8687E-03     1.32134E-03     16.1693E+06     9.94965E+06    -123.478E+06     16.0657E+06    -123.374E+06     9.94965E+06    -3.61955E+06         21.7742
             248    -457.574E-09     83.1036E-03         10.5034         2.26808        -12.4601        -3.96910         2.01242         2.26808         22.1674     28.4224E-03    -13.9547E-03    -14.4669E-03    -14.3284E-03     28.4204E-03    -14.0912E-03     264.636E-06     12.4067E+06     1.69620E+06    -130.992E+06     5.40998E+06    -130.959E+06     8.65984E+06    -2.09896E+06         21.7558
             249     1.29581E-06     82.0775E-03         10.6644         2.77536        -13.1123        -3.91106         1.46318         2.77536         23.1571     28.0485E-03    -13.7410E-03    -14.3073E-03    -14.1102E-03     28.0420E-03    -13.9315E-03     601.834E-06     10.8132E+06    -1.22578E+06    -137.754E+06     3.39417E+06    -137.299E+06     5.73786E+06    -6.63773E+06         21.7415
             250    -1.74960E-06     81.0459E-03         10.9414         3.26405        -13.8870        -3.84904     903.475E-03         3.26405         24.3658     28.1366E-03    -13.8328E-03    -14.3036E-03    -13.8235E-03     28.1272E-03    -14.3036E-03     1.23045E-03     5.73608E+06    -650.401E+03    -143.881E+06     5.10511E+06    -143.250E+06    -650.401E+03    -2.09219E+06         21.7359
             251     1.16929E-06     80.0201E-03         11.2995         3.69658        -14.6793        -3.80848     428.626E-03         3.69658         25.6289     28.3680E-03    -13.7889E-03    -14.5786E-03    -14.2909E-03     28.3606E-03    -14.0692E-03     1.11570E-03     6.11740E+06     398.973E+03    -144.390E+06     1.45619E+06    -144.136E+06     4.80628E+06     1.49142E+06         21.7471
             252    -117.459E-09     78.9900E-03         11.4831         4.26244        -15.4575        -3.84694    -127.479E-03         4.26244         26.6804     28.7551E-03    -13.9960E-03    -14.7588E-03    -14.4950E-03     28.7447E-03    -14.2493E-03     1.33799E-03     2.34689E+06    -3.92533E+06    -149.011E+06    -2.13199E+06    -148.940E+06     481.982E+03    -1.65823E+06         21.7766
             253    -423.699E-09     77.9625E-03         11.5748         4.79118        -16.1077        -3.86288    -670.006E-03         4.79118         27.4963     29.3254E-03    -14.4355E-03    -14.8899E-03    -14.4281E-03     29.3181E-03    -14.8899E-03     1.05873E-03    -611.575E+03    -3.43524E+06    -149.394E+06    -616.731E+03    -149.389E+06    -3.43524E+06     269.595E+03         21.8088
             254     5.73422E-09     76.9316E-03         11.5449         5.21943        -16.5079        -3.84916        -1.11383         5.21943         27.9182     29.6752E-03    -14.5504E-03    -15.1247E-03    -14.9150E-03     29.6667E-03    -14.7515E-03     1.14407E-03    -526.266E+03    -3.68947E+06    -149.744E+06    -2.76615E+06    -149.709E+06    -1.48502E+06     1.29870E+06         21.8293
             255     738.811E-09     75.9011E-03         11.3976         5.70916        -16.8650        -3.84444        -1.62296         5.70916         28.1735     29.2001E-03    -14.3599E-03    -14.8400E-03    -14.7178E-03     29.1849E-03    -14.4668E-03     1.63214E-03    -380.399E+03    -3.27203E+06    -148.548E+06    -2.67924E+06    -148.454E+06    -1.06758E+06     3.67606E+06         21.8437
             256    -978.853E-09     74.8740E-03         11.2577         6.13410        -17.1566        -3.77995        -2.11895         6.13410         28.3646     29.2500E-03    -14.5428E-03    -14.7070E-03    -14.5344E-03     29.2416E-03    -14.7070E-03     1.04309E-03     1.15898E+06     372.044E+03    -146.892E+06     1.05611E+06    -146.789E+06     372.044E+03     305.334E+03         21.8590
             257     860.100E-09     73.8445E-03         11.0511         6.47787        -17.2829        -3.75603        -2.47578         6.47787         28.3048     29.6220E-03    -14.7136E-03    -14.9079E-03    -14.7130E-03     29.6215E-03    -14.9079E-03     222.144E-06     9.13292E+06     6.95413E+06    -144.967E+06     8.94357E+06    -144.778E+06     6.95413E+06    -5.19452E+06         21.8650
             258    -1.16016E-06     72.8142E-03         10.6320         6.87828        -17.2607        -3.77935        -2.84931         6.87828         27.8764     29.4390E-03    -14.5564E-03    -14.8828E-03    -14.5542E-03     29.4369E-03    -14.8828E-03     437.409E-06     7.89792E+06     5.10886E+06    -146.469E+06     6.99721E+06    -146.278E+06     5.81888E+06    -1.59220E+06         21.8584
             259     792.117E-09     71.7854E-03         10.0665         7.24493        -17.0724        -3.70118        -3.30468         7.24493         27.1344     29.4776E-03    -14.5350E-03    -14.9428E-03    -14.7410E-03     29.4652E-03    -14.7244E-03     1.38918E-03     9.64406E+06     7.84150E+06    -144.107E+06     7.74080E+06    -144.006E+06     9.64406E+06     3.90518E+06         21.8439
             260    -370.579E-09     70.7522E-03         9.49296         7.47674        -16.7472        -3.60018        -3.65406         7.47674         26.2397     28.8427E-03    -14.1591E-03    -14.6837E-03    -14.6643E-03     28.8233E-03    -14.1591E-03     1.83873E-03     10.5653E+06     8.63212E+06    -142.700E+06     8.55467E+06    -142.623E+06     10.5653E+06     3.33525E+06         21.8203
             261     964.885E-09     69.7283E-03         8.88179         7.70575        -16.3874        -3.62713        -3.87847         7.70575         25.2679     28.2133E-03    -13.9217E-03    -14.2921E-03    -14.2183E-03     28.2036E-03    -13.9858E-03     1.09920E-03     8.50261E+06     7.42079E+06    -142.018E+06     7.34530E+06    -141.943E+06     8.50261E+06    -788.762E+03         21.7981
             262    -1.08505E-06     68.6992E-03         8.30852         7.81000        -15.9292        -3.66404        -4.10022         7.95360         24.0897     28.4172E-03    -14.0881E-03    -14.3294E-03    -14.0875E-03     28.4166E-03    -14.3294E-03     288.037E-06     15.1507E+06     14.7279E+06    -136.931E+06     14.8351E+06    -136.856E+06     14.9691E+06    -3.25895E+06         21.7854
             263     735.143E-09     67.6699E-03         8.12308         7.40248        -15.3263        -3.68046        -4.24341         8.12308         22.7219     28.1096E-03    -13.9640E-03    -14.1447E-03    -13.9595E-03     28.1016E-03    -14.1413E-03     883.722E-06     9.15490E+06     7.79450E+06    -141.485E+06     9.12610E+06    -141.456E+06     7.79450E+06    -409.076E+03         21.7763
             264    -759.790E-09     66.6416E-03         8.27931         6.68254        -14.7617        -3.77916        -4.30002         8.27931         21.4379     27.7326E-03    -13.8105E-03    -13.9222E-03    -13.8060E-03     27.7247E-03    -13.9188E-03     815.845E-06     2.05656E+06    -639.964E+03    -149.922E+06     2.04503E+06    -149.910E+06    -639.964E+03     376.523E+03         21.7772
             265     530.321E-09     65.6168E-03         8.49775         5.98656        -14.2578        -3.82525        -4.44603         8.49775         20.2343     28.3256E-03    -13.9986E-03    -14.3285E-03    -13.9898E-03     28.3169E-03    -14.3285E-03     873.695E-06     5.61343E+06     2.33451E+06    -143.893E+06     3.84966E+06    -143.890E+06     4.09571E+06    -384.726E+03         21.7926
             266    -961.876E-09     64.5835E-03         8.67421         5.30976        -13.7273        -3.85700        -4.56059         8.67421         19.0241     28.5773E-03    -14.1133E-03    -14.4639E-03    -14.2189E-03     28.5540E-03    -14.3349E-03     1.98272E-03     9.40161E+06     3.85392E+06    -137.131E+06     7.61745E+06    -137.108E+06     5.61512E+06     1.36453E+06         21.8064
             267     1.14277E-06     63.5560E-03         8.73630         4.67369        -13.1973        -4.09082        -4.43277         8.73630         17.8653     28.0072E-03    -13.6912E-03    -14.3155E-03    -14.2990E-03     27.9906E-03    -13.6912E-03     1.52000E-03     9.23573E+06    -2.12950E+06    -141.515E+06     1.61563E+06    -141.473E+06     5.44923E+06     2.43173E+06         21.8081
             268    -63.3771E-09     62.5324E-03         8.81155         4.05809        -12.6262        -4.33072        -4.23742         8.81155         16.6835     27.8709E-03    -13.4457E-03    -14.4259E-03    -13.9371E-03     27.8669E-03    -13.9305E-03     820.472E-06     11.8530E+06    -2.56801E+06    -142.904E+06     4.25540E+06    -142.885E+06     5.01072E+06     1.29948E+06         21.8044
             269    -985.897E-09     61.4992E-03         8.94064         3.37170        -12.0280        -4.49104        -4.16527         8.94064         15.3958     27.7729E-03    -13.5441E-03    -14.2297E-03    -13.5346E-03     27.7634E-03    -14.2297E-03     1.19743E-03     13.0552E+06     2.80191E+06    -140.910E+06     9.64371E+06    -140.910E+06     6.21296E+06     108.554E+03         21.8057
             270     624.225E-09     60.4751E-03         9.01872         2.69795        -11.4733        -4.78944        -3.98592         9.01872         14.1426     28.0474E-03    -13.7577E-03    -14.2899E-03    -14.0810E-03     28.0393E-03    -13.9585E-03     1.02502E-03     10.6606E+06     5.45859E+06    -143.663E+06     7.21997E+06    -143.634E+06     8.86963E+06    -1.59310E+06         21.8168
             271     7.11379E-09     59.4464E-03         9.03456         2.19298        -10.9538        -5.08158        -3.67928         9.03456         13.0689     28.7691E-03    -14.1636E-03    -14.6053E-03    -14.4931E-03     28.7672E-03    -14.2739E-03     564.822E-06     10.3549E+06     7.32327E+06    -144.726E+06     9.01015E+06    -144.622E+06     8.56394E+06    -3.88946E+06         21.8294
             272    -204.018E-09     58.4159E-03         9.08139         1.66976        -10.4525        -5.30635        -3.47644         9.08139         11.9798     28.6097E-03    -14.2279E-03    -14.3821E-03    -14.2258E-03     28.6076E-03    -14.3821E-03     598.856E-06     13.9728E+06     10.5775E+06    -141.816E+06     12.6048E+06    -141.688E+06     11.8182E+06    -314.087E+03         21.8351
             273     94.1322E-09     57.3888E-03         9.05801         1.22121        -9.97602        -5.64770        -3.10710         9.05801         10.8885     28.4409E-03    -14.1162E-03    -14.3250E-03    -14.1013E-03     28.4260E-03    -14.3250E-03     1.36933E-03     12.0437E+06     6.13303E+06    -146.565E+06     8.19927E+06    -146.477E+06     9.88913E+06     3.68476E+06         21.8391
             274     16.7709E-03     55.9580E-03     868.159E-03    -81.9454E-03    -474.789E-03    -84.0783E-03    -472.657E-03     868.159E-03    -11.8130E-03     212.575E-03    -14.2023E-03    -198.372E-03    -42.0301E-03     56.2329E-03    -14.2023E-03     398.903E-03     187.665E+06     82.6691E+06    -6.93322E+06    -6.91998E+06     187.652E+06     82.6691E+06    -678.497E+03         54.2429
             275     15.7831E-03     55.5421E-03     873.980E-03     41.6208E-03    -592.332E-03     38.5369E-03    -589.248E-03     873.980E-03    -48.6859E-03     135.316E-03    -13.6588E-03    -121.659E-03    -30.0118E-03     43.6693E-03    -13.6588E-03     245.522E-03     131.572E+06     5.75289E+06    -27.8409E+06    -12.1112E+06     131.538E+06    -9.94273E+06     669.323E+03         49.8849
             276     14.7984E-03     55.4449E-03     901.631E-03     163.303E-03    -736.551E-03     160.377E-03    -733.624E-03     901.631E-03    -50.2466E-03     43.5477E-03    -13.4596E-03    -30.0917E-03    -13.5422E-03     26.9982E-03    -13.4596E-03     57.9989E-03     50.5313E+06    -12.5890E+06    -65.2139E+06    -9.84561E+06     47.7878E+06    -65.2139E+06     681.515E+03         44.6137
             277     13.8102E-03     55.4216E-03     943.793E-03     290.091E-03    -897.294E-03     289.048E-03    -896.251E-03     943.793E-03    -37.2123E-03     29.0463E-03    -13.5292E-03    -15.5184E-03    -13.1390E-03     26.6669E-03    -13.5292E-03     19.4517E-03    -446.685E+03    -20.7603E+06    -72.0549E+06    -3.15218E+06    -18.0549E+06    -72.0549E+06    -615.251E+03         39.2877
             278     12.8230E-03     55.4078E-03     986.876E-03     410.257E-03        -1.05814     408.919E-03        -1.05680     986.876E-03    -83.7759E-03     27.9046E-03    -13.6766E-03    -14.2316E-03    -13.1584E-03     26.8314E-03    -13.6766E-03     13.2192E-03     2.74438E+06    -37.7898E+06    -57.7343E+06     2.34447E+06    -42.9691E+06    -52.1551E+06     276.541E+03         34.5197
             279     11.8356E-03     55.3954E-03         1.02806     526.412E-03        -1.21407     525.888E-03        -1.21354         1.02806    -56.6326E-03     28.0589E-03    -13.8069E-03    -14.2583E-03    -13.4980E-03     27.2986E-03    -13.8069E-03     11.1822E-03     7.57102E+06    -36.8740E+06    -70.8514E+06     7.37809E+06    -70.6584E+06    -36.8740E+06     1.26900E+06         30.5227
             280     10.8490E-03     55.3855E-03         1.06683     635.181E-03        -1.35843     635.029E-03        -1.35828         1.06683    -23.3802E-03     28.1881E-03    -13.9400E-03    -14.2546E-03    -13.6938E-03     27.6274E-03    -13.9400E-03     9.67681E-03     11.1668E+06    -18.8071E+06    -90.6386E+06     11.0889E+06    -90.5608E+06    -18.8071E+06     2.01994E+06         27.5379
             281     9.86227E-03     55.3758E-03         1.10385     723.873E-03        -1.48193     723.174E-03        -1.48123         1.10385    -55.8030E-03     28.1078E-03    -13.9906E-03    -14.1203E-03    -13.6390E-03     27.6699E-03    -14.0340E-03     8.52917E-03     13.1819E+06    -7.78711E+06    -99.5152E+06     13.1195E+06    -99.4529E+06    -7.78711E+06     2.27167E+06         25.5317
             282     8.87557E-03     55.3680E-03         1.13879     826.619E-03        -1.61548     825.673E-03        -1.61453         1.13879    -19.6698E-03     28.1570E-03    -14.0383E-03    -14.1178E-03    -13.6944E-03     27.8130E-03    -14.1178E-03     7.56980E-03     14.2286E+06    -4.18631E+06    -116.073E+06     14.1989E+06    -116.043E+06    -4.18631E+06     1.16190E+06         24.1070
             283     7.88883E-03     55.3600E-03         1.16908     943.627E-03        -1.75706     940.873E-03        -1.75430         1.16908    -82.6920E-03     28.3831E-03    -14.1598E-03    -14.2229E-03    -13.8892E-03     28.0965E-03    -14.2069E-03     6.94343E-03     14.5187E+06    -88.8224E+03    -131.492E+06     14.5118E+06    -131.485E+06    -88.8224E+03    -417.602E+03         23.0551
             284     6.90227E-03     55.3540E-03         1.19385         1.03399        -1.86715         1.02923        -1.86239         1.19385    -2.92425E-03     28.5321E-03    -14.2172E-03    -14.3151E-03    -14.0074E-03     28.3063E-03    -14.2991E-03     6.17837E-03     15.8688E+06     7.63152E+06    -138.159E+06     15.8530E+06    -138.143E+06     7.63152E+06     199.288E+03         22.4081
             285     5.91599E-03     55.3477E-03         1.21513         1.09975        -1.95321         1.08757        -1.94104         1.21513    -130.018E-03     28.7059E-03    -14.2619E-03    -14.4447E-03    -14.1635E-03     28.5490E-03    -14.3860E-03     5.15539E-03     17.9679E+06     15.1697E+06    -144.502E+06     17.9526E+06    -144.487E+06     15.1697E+06     827.176E+03         22.1186
             286     4.92957E-03     55.3432E-03         1.23432         1.17201        -2.04564         1.13949        -2.01312         1.23432     138.480E-03     28.9701E-03    -14.3803E-03    -14.5901E-03    -14.4346E-03     28.8680E-03    -14.4336E-03     4.18529E-03     21.5847E+06     18.5079E+06    -148.759E+06     19.7955E+06    -148.748E+06     20.2862E+06     754.484E+03         22.0103
             287     3.94425E-03     55.3397E-03         1.29215         1.23623        -2.16740         1.18501        -2.07533         1.25130    -304.645E-03     28.9989E-03    -14.4361E-03    -14.5624E-03    -14.4953E-03     28.9318E-03    -14.4361E-03     3.39787E-03     24.0746E+06     19.6071E+06    -148.879E+06     20.0769E+06    -148.858E+06     23.5839E+06     1.76801E+06         21.9426
             288     2.95813E-03     55.3359E-03         1.45708         1.26469        -2.35989         1.23025        -2.13306         1.26469     394.970E-03     28.8162E-03    -14.3524E-03    -14.4633E-03    -14.3426E-03     28.7779E-03    -14.4348E-03     2.51832E-03     25.6093E+06     19.9579E+06    -145.789E+06     19.9347E+06    -145.766E+06     25.6093E+06     1.46603E+06         21.8889
             289     1.97171E-03     55.3342E-03         1.84559         1.27992        -2.76404         1.24004        -2.15849         1.27992    -871.021E-03     28.8790E-03    -14.3053E-03    -14.5726E-03    -14.4523E-03     28.8610E-03    -14.4076E-03     1.74115E-03     26.2357E+06     16.2113E+06    -143.751E+06     16.1566E+06    -143.696E+06     26.2357E+06     780.392E+03         21.8548
             290     986.437E-06     55.3322E-03         5.45698     989.138E-03        -6.08901        -2.46615        -2.21960         5.04285         2.55487     28.5817E-03    -14.1122E-03    -14.4691E-03    -14.4028E-03     28.5732E-03    -14.1699E-03     1.06228E-03     15.5955E+06     7.79633E+06    -144.502E+06     8.46246E+06    -144.399E+06     14.8263E+06    -339.174E+03         21.8379
             291     16.7733E-03     54.9384E-03     724.634E-03    -89.7617E-03    -294.808E-03    -107.386E-03    -277.184E-03     724.634E-03    -30.7385E-03     214.321E-03    -14.2199E-03    -200.102E-03    -40.8102E-03     55.0290E-03    -14.2199E-03     403.053E-03     187.794E+06     82.1638E+06    -6.50825E+06    -6.47856E+06     187.764E+06     82.1638E+06     1.23327E+06         54.1317
             292     15.7849E-03     54.5087E-03     720.545E-03    -7.63545E-03    -363.538E-03    -11.7536E-03    -359.420E-03     720.545E-03    -51.1155E-03     134.539E-03    -13.7480E-03    -120.793E-03    -29.6685E-03     43.4147E-03    -13.7480E-03     243.829E-03     133.711E+06     9.25803E+06    -26.6355E+06    -8.81805E+06     133.570E+06    -8.41767E+06     349.997E+03         49.8096
             293     14.7974E-03     54.4204E-03     740.679E-03     91.8510E-03    -477.790E-03     87.7979E-03    -473.737E-03     740.679E-03    -56.0601E-03     43.8945E-03    -13.5429E-03    -30.3536E-03    -14.0340E-03     27.5749E-03    -13.5429E-03     58.6343E-03     51.3263E+06    -9.46647E+06    -65.0018E+06    -6.97124E+06     48.8311E+06    -65.0018E+06    -1.22727E+06         44.5749
             294     13.8089E-03     54.3936E-03     776.035E-03     217.011E-03    -631.162E-03     216.310E-03    -630.461E-03     776.035E-03    -34.1643E-03     29.5156E-03    -13.5955E-03    -15.9202E-03    -13.3183E-03     26.9137E-03    -13.5955E-03     20.3668E-03    -18.2753E+03    -21.3747E+06    -73.2736E+06    -2.33374E+06    -19.0592E+06    -73.2736E+06    -652.706E+03         39.2750
             295     12.8222E-03     54.3806E-03     811.953E-03     326.353E-03    -772.863E-03     325.576E-03    -772.086E-03     811.953E-03    -52.2735E-03     28.4019E-03    -13.7235E-03    -14.6810E-03    -13.6055E-03     27.3265E-03    -13.7235E-03     13.3952E-03     2.13126E+06    -39.9553E+06    -58.1713E+06     1.84149E+06    -43.8422E+06    -53.9946E+06     375.252E+03         34.5276
             296     11.8353E-03     54.3679E-03     846.750E-03     409.023E-03    -888.742E-03     408.592E-03    -888.311E-03     846.750E-03    -44.3249E-03     28.2952E-03    -13.8294E-03    -14.4727E-03    -13.6889E-03     27.5114E-03    -13.8294E-03     11.4224E-03     4.83001E+06    -39.7100E+06    -71.2014E+06     4.65471E+06    -71.0261E+06    -39.7100E+06     1.04741E+06         30.5480
             297     10.8487E-03     54.3576E-03     880.488E-03     497.596E-03        -1.00910     497.237E-03        -1.00874     880.488E-03    -37.8750E-03     28.2710E-03    -13.9477E-03    -14.3302E-03    -13.7443E-03     27.6851E-03    -13.9477E-03     9.90259E-03     8.36186E+06    -22.8303E+06    -91.1573E+06     8.30384E+06    -91.0993E+06    -22.8303E+06     1.55225E+06         27.5693
             298     9.86208E-03     54.3484E-03     912.546E-03     585.980E-03        -1.12952     584.935E-03        -1.12848     912.546E-03    -69.8274E-03     28.2822E-03    -14.0386E-03    -14.2470E-03    -13.7833E-03     27.8228E-03    -14.0428E-03     8.77371E-03     12.7361E+06    -9.32096E+06    -99.6335E+06     12.6933E+06    -99.5908E+06    -9.32096E+06     1.94384E+06         25.5599
             299     8.87534E-03     54.3402E-03     942.145E-03     676.361E-03        -1.24753     675.252E-03        -1.24643     942.145E-03    -39.4202E-03     28.3034E-03    -14.0907E-03    -14.2129E-03    -13.8164E-03     27.9453E-03    -14.1291E-03     7.74434E-03     15.2166E+06    -2.05906E+06    -114.858E+06     15.1463E+06    -114.787E+06    -2.05906E+06     2.46840E+06         24.1290
             300     7.88860E-03     54.3327E-03     968.088E-03     768.286E-03        -1.36018     766.039E-03        -1.35793     968.088E-03    -77.1743E-03     28.4156E-03    -14.1699E-03    -14.2461E-03    -13.9218E-03     28.1366E-03    -14.2153E-03     6.84750E-03     15.1419E+06     3.19778E+06    -130.336E+06     15.0998E+06    -130.294E+06     3.19778E+06     1.53211E+06         23.0697
             301     6.90228E-03     54.3255E-03     990.382E-03     840.028E-03        -1.44810     835.609E-03        -1.44368     990.382E-03     3.89251E-03     28.5704E-03    -14.2753E-03    -14.2959E-03    -14.0753E-03     28.3637E-03    -14.2892E-03     5.91049E-03     14.9729E+06     8.18121E+06    -138.726E+06     14.9654E+06    -138.718E+06     8.18121E+06    -119.143E+03         22.4145
             302     5.91612E-03     54.3199E-03         1.01021     904.063E-03        -1.52920     890.370E-03        -1.51551         1.01021    -136.869E-03     28.6528E-03    -14.2914E-03    -14.3623E-03    -14.1547E-03     28.5094E-03    -14.3556E-03     4.92694E-03     15.9540E+06     13.2821E+06    -144.155E+06     15.9465E+06    -144.147E+06     13.2821E+06    -652.642E+03         22.1178
             303     4.92990E-03     54.3147E-03         1.02964     983.912E-03        -1.62862     954.531E-03        -1.59594         1.02635     97.7906E-03     28.8294E-03    -14.3342E-03    -14.4962E-03    -14.3293E-03     28.7300E-03    -14.4016E-03     4.12533E-03     18.0805E+06     14.3919E+06    -149.935E+06     16.2964E+06    -149.929E+06     16.1703E+06     217.763E+03         22.0055
             304     3.94397E-03     54.3106E-03         1.08026         1.03697        -1.73143     984.848E-03        -1.63856         1.03951    -291.913E-03     28.9755E-03    -14.3984E-03    -14.5773E-03    -14.5077E-03     28.9118E-03    -14.4043E-03     3.26948E-03     20.5542E+06     15.8522E+06    -149.046E+06     17.0638E+06    -149.036E+06     19.3318E+06     617.232E+03         21.9380
             305     2.95817E-03     54.3081E-03         1.22825         1.05520        -1.90310     998.116E-03        -1.67297         1.05520     352.694E-03     28.8468E-03    -14.3231E-03    -14.5236E-03    -14.4391E-03     28.8119E-03    -14.3727E-03     2.41820E-03     21.7261E+06     16.9192E+06    -144.503E+06     16.9003E+06    -144.484E+06     21.7261E+06     565.521E+03         21.8851
             306     1.97223E-03     54.3054E-03         1.60697         1.07740        -2.29909         1.02454        -1.71667         1.07740    -766.710E-03     28.7002E-03    -14.1374E-03    -14.5626E-03    -14.3515E-03     28.6769E-03    -14.3250E-03     1.98829E-03     21.5594E+06     14.5288E+06    -143.553E+06     14.4830E+06    -143.508E+06     21.5594E+06     1.63078E+06         21.8484
             307     986.721E-06     54.3030E-03         5.29483     816.395E-03        -5.72317        -2.71840        -1.79440         4.90085         2.34723     28.4897E-03    -14.0079E-03    -14.4812E-03    -14.1597E-03     28.4765E-03    -14.3162E-03     1.29493E-03     15.2475E+06     10.6834E+06    -142.603E+06     10.7810E+06    -142.520E+06     15.0669E+06     60.8337E+03         21.8306
             308     16.7593E-03     53.8894E-03     570.556E-03    -10.3436E-03    -191.046E-03    -152.979E-03    -48.4113E-03     570.556E-03    -19.3411E-03     214.540E-03    -14.3442E-03    -200.196E-03    -39.4234E-03     53.7674E-03    -14.3442E-03     403.957E-03     188.891E+06     83.7247E+06    -5.58033E+06    -5.50839E+06     188.819E+06     83.7247E+06     1.03109E+06         54.0315
             309     15.7822E-03     53.4844E-03     556.079E-03    -6.56834E-03    -167.681E-03    -62.6659E-03    -111.584E-03     556.079E-03    -24.9363E-03     133.158E-03    -13.8932E-03    -119.267E-03    -29.5371E-03     43.4285E-03    -13.8932E-03     240.765E-03     133.311E+06     12.4819E+06    -29.3162E+06    -7.13396E+06     133.121E+06    -9.51021E+06    -222.969E+03         49.7438
             310     14.7929E-03     53.3904E-03     567.454E-03     36.1217E-03    -217.932E-03     28.0045E-03    -209.815E-03     567.454E-03    -31.5402E-03     44.4418E-03    -13.6588E-03    -30.7835E-03    -14.7325E-03     28.3908E-03    -13.6588E-03     58.3286E-03     49.4019E+06    -7.25926E+06    -66.7515E+06    -5.26663E+06     47.4093E+06    -66.7515E+06    -141.454E+03         44.5440
             311     13.8082E-03     53.3671E-03     595.456E-03     124.759E-03    -331.854E-03     123.201E-03    -330.296E-03     595.456E-03    -27.0811E-03     30.0991E-03    -13.6792E-03    -16.4185E-03    -14.0029E-03     27.6835E-03    -13.6792E-03     20.0317E-03    -1.31791E+06    -20.8725E+06    -73.8964E+06    -2.54052E+06    -19.6499E+06    -73.8964E+06     100.734E+03         39.2695
             312     12.8212E-03     53.3516E-03     625.257E-03     213.730E-03    -446.406E-03     211.515E-03    -444.191E-03     625.257E-03    -57.8259E-03     28.7100E-03    -13.7801E-03    -14.9317E-03    -13.8912E-03     27.6695E-03    -13.7801E-03     13.2536E-03     1.20757E+06    -38.9222E+06    -61.1474E+06     978.604E+03    -45.3947E+06    -54.4459E+06     1.38266E+06         34.5423
             313     11.8351E-03     53.3408E-03     654.497E-03     281.917E-03    -542.543E-03     280.386E-03    -541.013E-03     654.497E-03    -60.3563E-03     28.4808E-03    -13.8727E-03    -14.6143E-03    -13.8451E-03     27.7116E-03    -13.8727E-03     11.3997E-03     4.91906E+06    -39.2967E+06    -71.0137E+06     4.78541E+06    -70.8800E+06    -39.2967E+06     2.17148E+06         30.5787
             314     10.8482E-03     53.3297E-03     683.112E-03     352.854E-03    -642.628E-03     351.812E-03    -641.587E-03     683.112E-03    -57.3961E-03     28.3950E-03    -13.9606E-03    -14.4411E-03    -13.8433E-03     27.7972E-03    -13.9606E-03     10.0136E-03     7.56153E+06    -26.7963E+06    -90.4813E+06     7.48666E+06    -90.4065E+06    -26.7963E+06     639.744E+03         27.6050
             315     9.86162E-03     53.3207E-03     709.631E-03     444.824E-03    -760.901E-03     443.187E-03    -759.264E-03     709.631E-03    -81.1443E-03     28.4512E-03    -14.0544E-03    -14.4004E-03    -13.9486E-03     27.9994E-03    -14.0544E-03     8.74003E-03     9.74471E+06    -12.9344E+06    -101.546E+06     9.69140E+06    -101.492E+06    -12.9344E+06     965.803E+03         25.5914
             316     8.87532E-03     53.3122E-03     732.896E-03     524.231E-03    -861.001E-03     522.916E-03    -859.685E-03     732.896E-03    -58.5142E-03     28.5805E-03    -14.1331E-03    -14.4481E-03    -14.1033E-03     28.2357E-03    -14.1331E-03     7.64032E-03     12.2081E+06    -2.04957E+06    -115.004E+06     12.1341E+06    -114.930E+06    -2.04957E+06     2.72706E+06         24.1536
             317     7.88934E-03     53.3047E-03     754.045E-03     579.410E-03    -934.398E-03     576.635E-03    -931.623E-03     754.045E-03    -91.4746E-03     28.5815E-03    -14.1873E-03    -14.3939E-03    -14.1301E-03     28.3180E-03    -14.1875E-03     6.70418E-03     14.1399E+06     4.77214E+06    -127.628E+06     14.0895E+06    -127.578E+06     4.77214E+06     2.23726E+06         23.0864
             318     6.90291E-03     53.2976E-03     773.908E-03     635.704E-03        -1.00599     630.330E-03        -1.00062     773.908E-03     6.18994E-03     28.5570E-03    -14.2223E-03    -14.3343E-03    -14.1317E-03     28.3546E-03    -14.2225E-03     5.84512E-03     15.2128E+06     7.03196E+06    -136.976E+06     15.2009E+06    -136.964E+06     7.03196E+06    -42.9434E+03         22.4214
             319     5.91661E-03     53.2916E-03     791.768E-03     700.656E-03        -1.08418     684.777E-03        -1.06831     791.768E-03    -121.242E-03     28.5970E-03    -14.2579E-03    -14.3390E-03    -14.1960E-03     28.4623E-03    -14.2662E-03     4.77797E-03     15.4300E+06     10.0218E+06    -145.566E+06     15.4224E+06    -145.558E+06     10.0218E+06    -471.377E+03         22.1154
             320     4.93045E-03     53.2868E-03     809.663E-03     770.196E-03        -1.17194     738.255E-03        -1.13670     806.367E-03     78.1288E-03     28.6008E-03    -14.2642E-03    -14.3368E-03    -14.1983E-03     28.5045E-03    -14.3064E-03     4.05061E-03     15.7256E+06     12.8492E+06    -150.287E+06     15.7228E+06    -150.284E+06     12.8492E+06     561.549E+03         21.9986
             321     3.94407E-03     53.2820E-03     869.753E-03     814.493E-03        -1.27585     772.991E-03        -1.18245     817.852E-03    -251.760E-03     28.6637E-03    -14.2803E-03    -14.3838E-03    -14.2710E-03     28.6036E-03    -14.3331E-03     3.13661E-03     17.3466E+06     13.4232E+06    -149.280E+06     15.8336E+06    -149.276E+06     14.9316E+06    -37.3691E+03         21.9311
             322     2.95825E-03     53.2795E-03         1.02006     829.298E-03        -1.44753     790.026E-03        -1.21750     829.298E-03     317.667E-03     28.7601E-03    -14.2932E-03    -14.4676E-03    -14.3815E-03     28.7252E-03    -14.3444E-03     2.44933E-03     20.8515E+06     13.8340E+06    -144.754E+06     14.7221E+06    -144.735E+06     19.9446E+06     694.223E+03         21.8798
             323     1.97260E-03     53.2770E-03         1.40307     841.683E-03        -1.84201     816.140E-03        -1.25508     841.683E-03    -720.361E-03     28.5778E-03    -14.1663E-03    -14.4118E-03    -14.2139E-03     28.5529E-03    -14.3393E-03     1.97435E-03     20.3859E+06     13.3887E+06    -142.903E+06     13.3664E+06    -142.881E+06     20.3859E+06     583.773E+03         21.8432
             324     984.921E-06     53.2763E-03         5.08142     708.233E-03        -5.38084        -2.96509        -1.28829         4.66220         2.11875     28.5991E-03    -14.1122E-03    -14.4870E-03    -14.1991E-03     28.5842E-03    -14.3852E-03     1.53691E-03     14.2969E+06     11.3422E+06    -140.775E+06     11.8775E+06    -140.751E+06     13.7373E+06     502.107E+03         21.8248
             325     16.7733E-03     52.8688E-03     406.553E-03     186.429E-03    -198.128E-03    -197.201E-03     185.502E-03     406.553E-03    -13.6922E-03     214.089E-03    -14.3676E-03    -199.722E-03    -38.7870E-03     53.1542E-03    -14.3676E-03     403.391E-03     189.005E+06     86.1450E+06    -5.38464E+06    -5.21364E+06     188.834E+06     86.1450E+06     1.13405E+06         53.9500
             326     15.7762E-03     52.4508E-03     381.661E-03     148.744E-03    -122.156E-03    -114.289E-03     140.877E-03     381.661E-03    -33.0659E-03     130.879E-03    -13.9438E-03    -116.937E-03    -28.0545E-03     41.9966E-03    -13.9438E-03     236.685E-03     131.207E+06     6.78674E+06    -29.6824E+06    -10.0974E+06     130.907E+06    -12.4978E+06     581.572E+03         49.6946
             327     14.7948E-03     52.3634E-03     384.212E-03     118.885E-03    -90.0803E-03    -42.2856E-03     71.0901E-03     384.212E-03    -39.2413E-03     43.9920E-03    -13.7459E-03    -30.2488E-03    -14.9115E-03     28.6547E-03    -13.7459E-03     56.8095E-03     49.0970E+06    -10.4540E+06    -67.5739E+06    -8.36084E+06     47.0038E+06    -67.5739E+06     214.035E+03         44.5245
             328     13.8067E-03     52.3371E-03     405.513E-03     124.946E-03    -112.886E-03     7.82724E-03     4.23240E-03     405.513E-03    -44.7428E-03     30.4599E-03    -13.7515E-03    -16.7097E-03    -14.4156E-03     28.1658E-03    -13.7515E-03     19.5384E-03    -1.88335E+06    -22.7299E+06    -73.6830E+06    -4.35086E+06    -20.2624E+06    -73.6830E+06     1.34452E+06         39.2721
             329     12.8213E-03     52.3245E-03     430.341E-03     134.801E-03    -146.144E-03     75.4550E-03    -86.7980E-03     430.341E-03    -89.8299E-03     28.8353E-03    -13.8420E-03    -14.9961E-03    -14.0327E-03     27.8719E-03    -13.8420E-03     12.8281E-03     127.291E+03    -39.9404E+06    -60.0779E+06     4.28094E+03    -46.8371E+06    -53.0581E+06     1.64078E+06         34.5628
             330     11.8338E-03     52.3121E-03     454.044E-03     166.576E-03    -200.524E-03     157.052E-03    -191.000E-03     454.044E-03    -63.1739E-03     28.6507E-03    -13.9235E-03    -14.7341E-03    -13.9747E-03     27.8913E-03    -13.9235E-03     11.3366E-03     4.68022E+06    -37.9639E+06    -70.9341E+06     4.59041E+06    -70.8442E+06    -37.9639E+06     2.05771E+06         30.6143
             331     10.8481E-03     52.3021E-03     475.641E-03     228.779E-03    -283.206E-03     225.898E-03    -280.324E-03     475.641E-03    -65.3825E-03     28.6795E-03    -14.0035E-03    -14.6823E-03    -14.1167E-03     28.1140E-03    -14.0035E-03     9.81174E-03     8.07490E+06    -23.5429E+06    -89.1988E+06     7.93908E+06    -89.0629E+06    -23.5429E+06     1.76844E+06         27.6451
             332     9.86158E-03     52.2926E-03     495.416E-03     291.274E-03    -367.855E-03     287.520E-03    -364.102E-03     495.416E-03    -87.2281E-03     28.6664E-03    -14.0688E-03    -14.6016E-03    -14.1656E-03     28.2304E-03    -14.0688E-03     8.62585E-03     8.89928E+06    -11.9048E+06    -102.590E+06     8.78396E+06    -102.475E+06    -11.9048E+06     1.59438E+06         25.6265
             333     8.87555E-03     52.2839E-03     513.773E-03     339.089E-03    -432.653E-03     337.549E-03    -431.113E-03     513.773E-03    -49.2586E-03     28.6893E-03    -14.1064E-03    -14.5843E-03    -14.2468E-03     28.3518E-03    -14.1064E-03     7.59555E-03     10.5215E+06    -5.10951E+06    -115.454E+06     10.4886E+06    -115.421E+06    -5.10951E+06     1.25176E+06         24.1809
             334     7.88931E-03     52.2766E-03     531.402E-03     385.153E-03    -492.675E-03     379.275E-03    -486.797E-03     531.402E-03    -101.063E-03     28.6880E-03    -14.1374E-03    -14.5502E-03    -14.2805E-03     28.4182E-03    -14.1374E-03     6.80273E-03     14.2448E+06     2.28842E+06    -125.797E+06     14.2355E+06    -125.787E+06     2.28842E+06     879.973E+03         23.1050
             335     6.90335E-03     52.2696E-03     547.662E-03     439.972E-03    -560.884E-03     431.804E-03    -552.716E-03     547.662E-03    -25.7258E-03     28.6405E-03    -14.1619E-03    -14.4773E-03    -14.2679E-03     28.4311E-03    -14.1619E-03     5.96913E-03     16.2395E+06     7.42116E+06    -135.950E+06     16.2199E+06    -135.930E+06     7.42116E+06     1.00955E+06         22.4298
             336     5.91716E-03     52.2636E-03     561.667E-03     496.578E-03    -626.973E-03     476.602E-03    -606.997E-03     561.667E-03    -126.216E-03     28.5660E-03    -14.1815E-03    -14.3832E-03    -14.2427E-03     28.4255E-03    -14.1815E-03     4.87458E-03     16.3880E+06     10.2166E+06    -145.491E+06     16.3704E+06    -145.474E+06     10.2166E+06     609.490E+03         22.1141
             337     4.93102E-03     52.2585E-03     576.867E-03     549.853E-03    -693.038E-03     507.629E-03    -648.197E-03     574.250E-03     56.5049E-03     28.4734E-03    -14.1787E-03    -14.2942E-03    -14.1716E-03     28.3789E-03    -14.2069E-03     4.00026E-03     17.0376E+06     13.7267E+06    -150.063E+06     17.0352E+06    -150.060E+06     13.7267E+06     200.886E+03         21.9925
             338     3.94478E-03     52.2545E-03     664.438E-03     581.005E-03    -813.863E-03     548.902E-03    -701.686E-03     584.364E-03    -239.688E-03     28.3742E-03    -14.1206E-03    -14.2541E-03    -14.0700E-03     28.3126E-03    -14.2431E-03     3.19833E-03     18.3241E+06     15.9823E+06    -150.108E+06     18.2228E+06    -150.107E+06     16.0829E+06     94.4615E+03         21.9228
             339     2.95817E-03     52.2508E-03     864.760E-03     586.854E-03        -1.02207     593.808E-03    -751.114E-03     586.854E-03     306.104E-03     28.4533E-03    -14.1438E-03    -14.3105E-03    -14.1089E-03     28.4183E-03    -14.3105E-03     2.38898E-03     21.9201E+06     17.3275E+06    -146.016E+06     18.2222E+06    -146.004E+06     21.0132E+06    -149.367E+03         21.8703
             340     1.97158E-03     52.2492E-03         1.24318     586.400E-03        -1.40311     581.121E-03    -741.055E-03     586.400E-03    -642.038E-03     28.7269E-03    -14.2393E-03    -14.4882E-03    -14.3947E-03     28.7082E-03    -14.3141E-03     1.70632E-03     27.1517E+06     15.1404E+06    -140.109E+06     15.1029E+06    -140.072E+06     27.1517E+06     201.983E+03         21.8346
             341     987.318E-06     52.2470E-03         4.86125     636.230E-03        -5.08166        -3.23276    -756.335E-03         4.40492         1.93188     28.3594E-03    -14.0132E-03    -14.3468E-03    -14.2780E-03     28.3483E-03    -14.0709E-03     1.31319E-03     16.0368E+06     6.96219E+06    -141.656E+06     7.56370E+06    -141.609E+06     15.3884E+06     1.53576E+06         21.8135
             342     16.7616E-03     51.8331E-03     424.016E-03     225.562E-03    -223.739E-03    -222.906E-03     413.382E-03     235.362E-03    -29.4709E-03     214.581E-03    -14.3230E-03    -200.260E-03    -38.5249E-03     52.8468E-03    -14.3230E-03     404.589E-03     188.546E+06     84.1474E+06    -7.16976E+06    -7.01036E+06     188.387E+06     84.1474E+06    -165.174E+03         53.8787
             343     15.7852E-03     51.4272E-03     424.397E-03     192.495E-03    -183.709E-03    -178.782E-03     411.246E-03     200.719E-03    -67.7554E-03     131.088E-03    -13.9775E-03    -117.111E-03    -26.8233E-03     40.8002E-03    -13.9775E-03     238.105E-03     134.169E+06     11.9039E+06    -28.5820E+06    -9.10415E+06     133.666E+06    -7.07135E+06     1.81369E+06         49.6549
             344     14.7900E-03     51.3333E-03     414.055E-03     163.328E-03    -137.059E-03    -132.146E-03     376.977E-03     195.493E-03    -69.9890E-03     45.2179E-03    -13.7967E-03    -31.4241E-03    -14.6442E-03     28.4380E-03    -13.7967E-03     59.0862E-03     49.0556E+06    -12.1781E+06    -70.3090E+06    -8.94017E+06     45.8176E+06    -70.3090E+06     980.176E+03         44.5114
             345     13.8069E-03     51.3083E-03     388.827E-03     145.910E-03    -93.2047E-03    -87.9114E-03     319.720E-03     209.723E-03    -48.3664E-03     30.6418E-03    -13.8103E-03    -16.8345E-03    -14.7311E-03     28.5385E-03    -13.8103E-03     18.8125E-03    -1.30798E+06    -24.2875E+06    -75.8112E+06    -4.34302E+06    -21.2525E+06    -75.8112E+06     1.26425E+06         39.2785
             346     12.8198E-03     51.2963E-03     380.880E-03     124.277E-03    -60.5143E-03    -42.2685E-03     259.182E-03     227.729E-03    -87.6275E-03     29.0404E-03    -13.8915E-03    -15.1529E-03    -14.2102E-03     28.0977E-03    -13.8915E-03     12.7668E-03     1.69823E+06    -41.1952E+06    -59.0912E+06     1.41184E+06    -46.4367E+06    -53.5633E+06     1.25748E+06         34.5871
             347     11.8343E-03     51.2841E-03     363.902E-03     125.285E-03    -41.4326E-03     22.3665E-03     180.401E-03     244.986E-03    -61.4303E-03     29.0169E-03    -13.9588E-03    -15.0653E-03    -14.3119E-03     28.2635E-03    -13.9588E-03     11.3569E-03     6.30811E+06    -38.2490E+06    -71.3392E+06     6.22568E+06    -71.2568E+06    -38.2490E+06     625.587E+03         30.6537
             348     10.8475E-03     51.2737E-03     337.570E-03     160.169E-03    -51.0095E-03     87.7043E-03     99.1573E-03     259.868E-03    -76.8054E-03     28.9200E-03    -14.0263E-03    -14.9004E-03    -14.3557E-03     28.3752E-03    -14.0263E-03     9.70298E-03     10.4934E+06    -21.8937E+06    -89.6516E+06     10.3999E+06    -89.5581E+06    -21.8937E+06     2.38928E+06         27.6887
             349     9.86197E-03     51.2643E-03     325.193E-03     186.540E-03    -65.3966E-03     128.856E-03     44.6210E-03     272.860E-03    -97.4345E-03     28.8957E-03    -14.0697E-03    -14.8311E-03    -14.3975E-03     28.4622E-03    -14.0697E-03     8.63631E-03     13.7128E+06    -9.33181E+06    -101.225E+06     13.6230E+06    -101.135E+06    -9.33181E+06     2.34430E+06         25.6645
             350     8.87567E-03     51.2560E-03     320.989E-03     203.662E-03    -75.7729E-03     151.856E-03     11.4088E-03     285.613E-03    -20.8276E-03     28.7645E-03    -14.0888E-03    -14.6778E-03    -14.3512E-03     28.4379E-03    -14.0888E-03     7.49253E-03     15.6611E+06    -2.82535E+06    -114.407E+06     15.6518E+06    -114.397E+06    -2.82535E+06     431.567E+03         24.2105
             351     7.88963E-03     51.2483E-03     326.267E-03     232.230E-03    -108.491E-03     175.142E-03    -24.1894E-03     299.054E-03    -67.6425E-03     28.7200E-03    -14.1091E-03    -14.6115E-03    -14.3496E-03     28.4581E-03    -14.1091E-03     6.70714E-03     16.4521E+06     3.27915E+06    -126.833E+06     16.4344E+06    -126.815E+06     3.27915E+06     868.973E+03         23.1255
             352     6.90356E-03     51.2415E-03     331.451E-03     266.645E-03    -145.410E-03     220.580E-03    -79.6079E-03     311.713E-03    -19.5612E-03     28.6858E-03    -14.1342E-03    -14.5506E-03    -14.3499E-03     28.4851E-03    -14.1342E-03     5.85833E-03     17.3529E+06     11.2591E+06    -135.839E+06     17.2139E+06    -135.807E+06     11.3660E+06     1.73861E+06         22.4407
             353     5.91761E-03     51.2355E-03     350.020E-03     296.629E-03    -190.813E-03     260.961E-03    -127.021E-03     321.896E-03    -96.1461E-03     28.5411E-03    -14.1327E-03    -14.4070E-03    -14.2628E-03     28.3969E-03    -14.1327E-03     4.95282E-03     18.5824E+06     13.8404E+06    -143.865E+06     18.4602E+06    -143.850E+06     13.9473E+06     566.998E+03         22.1167
             354     4.93140E-03     51.2307E-03     398.419E-03     323.217E-03    -262.903E-03     283.281E-03    -155.038E-03     330.491E-03     76.0582E-03     28.4157E-03    -14.1285E-03    -14.2864E-03    -14.1856E-03     28.3149E-03    -14.1285E-03     4.12232E-03     19.4989E+06     14.3359E+06    -149.960E+06     19.4971E+06    -149.958E+06     14.3359E+06    -471.607E+03         21.9896
             355     3.94506E-03     51.2265E-03     533.399E-03     337.813E-03    -409.171E-03     308.832E-03    -184.603E-03     337.813E-03    -234.517E-03     28.3331E-03    -14.0788E-03    -14.2547E-03    -14.1165E-03     28.2705E-03    -14.1544E-03     3.22533E-03     21.8384E+06     17.8399E+06    -149.771E+06     20.0598E+06    -149.769E+06     19.6170E+06    -55.4395E+03         21.9159
             356     2.95864E-03     51.2235E-03     753.304E-03     338.529E-03    -633.027E-03     351.001E-03    -230.725E-03     338.529E-03     245.932E-03     28.3014E-03    -14.0660E-03    -14.2365E-03    -14.0903E-03     28.2708E-03    -14.1816E-03     2.21338E-03     23.8846E+06     18.8068E+06    -145.996E+06     18.7905E+06    -145.980E+06     23.8846E+06     198.508E+03         21.8569
             357     1.97274E-03     51.2203E-03         1.14322     329.127E-03        -1.01701     355.823E-03    -229.607E-03     329.127E-03    -596.804E-03     28.3589E-03    -14.0237E-03    -14.3361E-03    -14.1828E-03     28.3386E-03    -14.1567E-03     1.84066E-03     24.3163E+06     14.8166E+06    -142.146E+06     14.7813E+06    -142.111E+06     24.3163E+06     682.159E+03         21.8148
             358     986.174E-06     51.2185E-03         4.71242     643.158E-03        -4.90783        -3.51965    -196.392E-03         4.16379         1.77568     28.1310E-03    -13.8697E-03    -14.2616E-03    -14.0295E-03     28.1167E-03    -14.0876E-03     990.561E-06     19.3338E+06     12.4357E+06    -139.067E+06     12.5208E+06    -138.882E+06     19.0643E+06    -1.32883E+06         21.7919
             359     16.7740E-03     50.8018E-03     656.897E-03     59.4318E-03    -260.108E-03    -259.009E-03     655.798E-03     59.4318E-03    -43.9056E-03     212.605E-03    -14.2692E-03    -198.338E-03    -36.9295E-03     51.1959E-03    -14.2692E-03     401.322E-03     185.749E+06     79.2259E+06    -7.79100E+06    -7.70577E+06     185.664E+06     79.2259E+06     53.7789E+03         53.8116
             360     15.7733E-03     50.4043E-03     696.191E-03     15.5228E-03    -245.146E-03    -242.862E-03     693.908E-03     15.5228E-03    -60.7338E-03     132.850E-03    -14.0255E-03    -118.826E-03    -26.0528E-03     40.0766E-03    -14.0255E-03     241.189E-03     133.185E+06     8.37109E+06    -27.1083E+06    -12.1400E+06     132.828E+06    -6.24047E+06    -329.986E+03         49.6163
             361     14.7918E-03     50.3010E-03     690.204E-03     2.04828E-03    -222.959E-03    -220.656E-03     687.901E-03     2.04828E-03    -63.1953E-03     45.4355E-03    -13.8637E-03    -31.5720E-03    -15.7594E-03     29.6230E-03    -13.8637E-03     57.7853E-03     52.5552E+06    -13.6446E+06    -63.7099E+06    -8.50457E+06     47.4151E+06    -63.7099E+06     1.69627E+06         44.5015
             362     13.8051E-03     50.2803E-03     637.057E-03     8.52127E-03    -175.508E-03    -174.604E-03     636.154E-03     8.52127E-03    -35.4339E-03     29.6613E-03    -13.8364E-03    -15.8255E-03    -14.1855E-03     28.0214E-03    -13.8364E-03     16.5518E-03    -2.26653E+06    -24.2789E+06    -74.7218E+06    -4.65025E+06    -21.8951E+06    -74.7218E+06     1.10411E+06         39.2906
             363     12.8193E-03     50.2675E-03     600.223E-03     18.2805E-03    -146.229E-03    -144.403E-03     598.396E-03     18.2805E-03    -68.0419E-03     29.1492E-03    -13.9100E-03    -15.2422E-03    -14.3747E-03     28.2816E-03    -13.9100E-03     12.2571E-03     25.5287E+03    -41.5476E+06    -60.5096E+06    -319.604E+03    -45.1752E+06    -56.5369E+06     61.6040E+03         34.6149
             364     11.8332E-03     50.2551E-03     568.516E-03     28.2001E-03    -121.052E-03    -119.108E-03     566.572E-03     28.2001E-03    -64.6241E-03     29.2147E-03    -13.9620E-03    -15.2592E-03    -14.5947E-03     28.5501E-03    -13.9620E-03     10.7002E-03     5.37644E+06    -41.2617E+06    -71.7279E+06     5.32274E+06    -71.6742E+06    -41.2617E+06    -293.555E+03         30.6961
             365     10.8479E-03     50.2455E-03     522.640E-03     37.3904E-03    -84.0245E-03    -79.3996E-03     518.015E-03     37.3904E-03    -75.4448E-03     28.9896E-03    -14.0145E-03    -14.9828E-03    -14.4769E-03     28.4838E-03    -14.0145E-03     9.36637E-03     10.1877E+06    -24.7738E+06    -91.2447E+06     10.1600E+06    -91.2170E+06    -24.7738E+06     785.933E+03         27.7347
             366     9.86151E-03     50.2355E-03     483.651E-03     45.0920E-03    -52.0816E-03    -44.2363E-03     475.806E-03     45.0920E-03    -95.3417E-03     28.9098E-03    -14.0541E-03    -14.8611E-03    -14.4387E-03     28.4873E-03    -14.0541E-03     8.52585E-03     14.7257E+06    -10.3769E+06    -100.377E+06     14.7077E+06    -100.359E+06    -10.3769E+06     1.09267E+06         25.7044
             367     8.87606E-03     50.2276E-03     459.447E-03     52.0042E-03    -32.5775E-03    -26.0327E-03     452.902E-03     52.0042E-03    -25.3153E-03     28.8746E-03    -14.0883E-03    -14.7878E-03    -14.4679E-03     28.5547E-03    -14.0883E-03     7.43980E-03     17.4492E+06     926.240E+03    -113.710E+06     17.3938E+06    -113.654E+06     926.240E+03     1.75250E+06         24.2418
             368     7.88995E-03     50.2202E-03     455.190E-03     59.3866E-03    -35.7353E-03    -17.0226E-03     436.477E-03     59.3866E-03    -85.1471E-03     28.7656E-03    -14.0979E-03    -14.6674E-03    -14.4016E-03     28.4998E-03    -14.0979E-03     6.76678E-03     17.4134E+06     6.55317E+06    -127.825E+06     17.3438E+06    -127.755E+06     6.55317E+06     2.53146E+06         23.1477
             369     6.90400E-03     50.2132E-03     444.844E-03     66.9641E-03    -33.1976E-03     5.40341E-03     406.243E-03     66.9641E-03    -42.5617E-03     28.5879E-03    -14.0995E-03    -14.4883E-03    -14.2817E-03     28.3813E-03    -14.0995E-03     5.92965E-03     17.6522E+06     11.0032E+06    -134.401E+06     17.5217E+06    -134.378E+06     11.1101E+06     1.40429E+06         22.4529
             370     5.91773E-03     50.2078E-03     450.062E-03     73.2119E-03    -42.9860E-03     34.0989E-03     372.977E-03     73.2119E-03    -88.0726E-03     28.4979E-03    -14.1069E-03    -14.3905E-03    -14.2374E-03     28.3448E-03    -14.1069E-03     5.10500E-03     18.6811E+06     14.4570E+06    -143.168E+06     18.4524E+06    -143.166E+06     14.6846E+06     208.374E+03         22.1194
             371     4.93152E-03     50.2027E-03     495.104E-03     76.7638E-03    -86.1126E-03     61.6236E-03     347.367E-03     76.7638E-03     76.8388E-03     28.4867E-03    -14.0887E-03    -14.3971E-03    -14.2908E-03     28.3803E-03    -14.0887E-03     4.22641E-03     18.9601E+06     15.0087E+06    -149.648E+06     18.8372E+06    -149.646E+06     15.1293E+06    -3.96785E+03         21.9858
             372     3.94537E-03     50.1989E-03     614.999E-03     79.7281E-03    -205.643E-03     59.8002E-03     349.555E-03     79.7281E-03    -198.715E-03     28.3985E-03    -14.0639E-03    -14.3353E-03    -14.2736E-03     28.3368E-03    -14.0639E-03     3.21657E-03     21.2530E+06     16.9160E+06    -149.560E+06     18.6275E+06    -149.558E+06     19.5395E+06     152.141E+03         21.9081
             373     2.95957E-03     50.1950E-03     800.769E-03     86.0862E-03    -402.551E-03     57.8083E-03     340.410E-03     86.0862E-03     215.427E-03     28.2026E-03    -14.0227E-03    -14.1816E-03    -14.1459E-03     28.1669E-03    -14.0227E-03     2.42510E-03     23.9495E+06     17.8265E+06    -146.260E+06     17.8158E+06    -146.249E+06     23.9495E+06     568.041E+03         21.8428
             374     1.97289E-03     50.1934E-03         1.16649     91.2952E-03    -774.598E-03     86.7386E-03     305.151E-03     91.2952E-03    -572.052E-03     27.8953E-03    -13.8646E-03    -14.0317E-03    -13.9000E-03     27.8734E-03    -13.9744E-03     1.82478E-03     21.7619E+06     17.2738E+06    -141.658E+06     17.2547E+06    -141.639E+06     21.7619E+06    -416.221E+03         21.7933
             375     986.126E-06     50.1905E-03         4.62913     649.667E-03        -4.79558        -3.76727     295.880E-03         3.95461         1.61196     27.8651E-03    -13.8060E-03    -14.0589E-03    -13.7920E-03     27.8511E-03    -14.0589E-03     972.538E-06     15.9176E+06     13.6514E+06    -140.310E+06     14.3114E+06    -140.122E+06     15.0695E+06    -2.30838E+06         21.7697
             376     16.7713E-03     49.8064E-03     916.187E-03    -120.754E-03    -312.759E-03    -311.984E-03     915.412E-03    -120.754E-03    -33.6345E-03     213.493E-03    -14.4052E-03    -199.093E-03    -37.6592E-03     52.0593E-03    -14.4052E-03     402.312E-03     186.567E+06     83.3971E+06    -9.12954E+06    -8.99796E+06     186.436E+06     83.3971E+06     1.01477E+06         53.7406
             377     15.7773E-03     49.3635E-03     972.612E-03    -173.949E-03    -302.973E-03    -302.362E-03     972.001E-03    -173.949E-03    -31.1138E-03     136.146E-03    -14.0444E-03    -122.105E-03    -30.0128E-03     44.0535E-03    -14.0444E-03     245.500E-03     131.751E+06     8.87092E+06    -28.1237E+06    -11.0699E+06     131.586E+06    -8.01831E+06     688.666E+03         49.5788
             378     14.7950E-03     49.2748E-03     996.102E-03    -196.256E-03    -301.856E-03    -301.188E-03     995.435E-03    -196.256E-03    -47.9208E-03     43.1807E-03    -13.8126E-03    -29.3670E-03    -15.5001E-03     29.3138E-03    -13.8126E-03     53.9715E-03     49.9470E+06    -11.3487E+06    -64.1366E+06    -7.40080E+06     45.9990E+06    -64.1366E+06     1.03064E+06         44.4988
             379     13.8064E-03     49.2521E-03     977.052E-03    -197.221E-03    -280.275E-03    -279.783E-03     976.560E-03    -197.221E-03    -44.6352E-03     29.3467E-03    -13.8135E-03    -15.5317E-03    -13.6794E-03     27.4944E-03    -13.8135E-03     17.1444E-03    -637.772E+03    -21.9026E+06    -72.1480E+06    -2.33704E+06    -20.2034E+06    -72.1480E+06     1.69989E+06         39.3073
             380     12.8198E-03     49.2385E-03     949.162E-03    -193.719E-03    -255.092E-03    -252.854E-03     948.413E-03    -195.208E-03    -57.1706E-03     29.0902E-03    -13.9095E-03    -15.1824E-03    -14.3492E-03     28.2569E-03    -13.9095E-03     12.0062E-03     2.05832E+06    -38.8931E+06    -58.3512E+06     1.80798E+06    -43.7541E+06    -53.2398E+06     158.539E+03         34.6465
             381     11.8342E-03     49.2264E-03     946.304E-03    -191.723E-03    -250.378E-03    -248.172E-03     945.587E-03    -193.212E-03    -55.8608E-03     29.0829E-03    -13.9585E-03    -15.1318E-03    -14.5058E-03     28.4569E-03    -13.9585E-03     10.3799E-03     3.85174E+06    -40.8738E+06    -72.2174E+06     3.82872E+06    -72.1944E+06    -40.8738E+06    -269.675E+03         30.7407
             382     10.8479E-03     49.2169E-03     947.207E-03    -190.438E-03    -251.460E-03    -250.490E-03     946.238E-03    -190.438E-03    -67.0013E-03     28.9540E-03    -14.0014E-03    -14.9603E-03    -14.4620E-03     28.4557E-03    -14.0014E-03     9.29594E-03     6.98338E+06    -27.2216E+06    -91.6671E+06     6.95843E+06    -91.6421E+06    -27.2216E+06    -568.267E+03         27.7818
             383     9.86226E-03     49.2075E-03     936.184E-03    -187.023E-03    -244.040E-03    -242.392E-03     934.536E-03    -187.023E-03    -82.7829E-03     28.8547E-03    -14.0339E-03    -14.8255E-03    -14.3876E-03     28.4168E-03    -14.0339E-03     8.67699E-03     10.3140E+06    -15.0130E+06    -101.503E+06     10.2908E+06    -101.480E+06    -15.0130E+06    -40.7216E+03         25.7454
             384     8.87566E-03     49.1991E-03     913.896E-03    -184.006E-03    -224.158E-03    -222.929E-03     912.667E-03    -184.006E-03    -28.1067E-03     28.8632E-03    -14.0784E-03    -14.7863E-03    -14.4558E-03     28.5327E-03    -14.0784E-03     7.54586E-03     13.5105E+06    -2.05332E+06    -115.394E+06     13.4522E+06    -115.336E+06    -2.05332E+06     2.12447E+06         24.2742
             385     7.89011E-03     49.1919E-03     899.266E-03    -180.818E-03    -212.677E-03    -203.483E-03     891.478E-03    -182.224E-03    -96.0076E-03     28.7572E-03    -14.0923E-03    -14.6647E-03    -14.4007E-03     28.4932E-03    -14.0923E-03     6.74571E-03     17.0008E+06     6.34311E+06    -126.759E+06     16.9421E+06    -126.700E+06     6.34311E+06     2.42578E+06         23.1709
             386     6.90381E-03     49.1854E-03     900.207E-03    -179.439E-03    -213.984E-03    -203.331E-03     890.960E-03    -180.845E-03    -56.0202E-03     28.5660E-03    -14.0860E-03    -14.4804E-03    -14.2661E-03     28.3517E-03    -14.0860E-03     6.04469E-03     18.7230E+06     9.93882E+06    -132.527E+06     18.7089E+06    -132.513E+06     9.93882E+06     1.29459E+06         22.4657
             387     5.91759E-03     49.1797E-03     905.785E-03    -178.660E-03    -218.337E-03    -202.404E-03     889.853E-03    -178.660E-03    -112.780E-03     28.5801E-03    -14.1050E-03    -14.4749E-03    -14.3212E-03     28.4264E-03    -14.1050E-03     5.09843E-03     18.8545E+06     15.4296E+06    -143.193E+06     18.2267E+06    -143.178E+06     16.0431E+06     1.28746E+06         22.1226
             388     4.93159E-03     49.1748E-03     898.893E-03    -175.525E-03    -213.927E-03    -174.245E-03     861.986E-03    -178.300E-03     21.6581E-03     28.5370E-03    -14.0737E-03    -14.4627E-03    -14.3580E-03     28.4323E-03    -14.0737E-03     4.21502E-03     18.5217E+06     16.7418E+06    -149.338E+06     17.8988E+06    -149.329E+06     17.3553E+06     1.02700E+06         21.9836
             389     3.94589E-03     49.1705E-03     947.715E-03    -178.067E-03    -259.127E-03    -171.753E-03     863.117E-03    -180.841E-03    -178.056E-03     28.3495E-03    -14.0068E-03    -14.3433E-03    -14.2764E-03     28.2826E-03    -14.0068E-03     3.33003E-03     19.2632E+06     16.1250E+06    -149.101E+06     18.3073E+06    -149.092E+06     17.0720E+06    -202.240E+03         21.9024
             390     2.95924E-03     49.1682E-03         1.08899    -179.400E-03    -398.158E-03    -199.667E-03     890.498E-03    -179.400E-03     213.747E-03     28.1094E-03    -13.9567E-03    -14.1541E-03    -14.1120E-03     28.0683E-03    -13.9576E-03     2.63087E-03     22.4899E+06     18.2667E+06    -146.614E+06     19.2793E+06    -146.602E+06     21.4650E+06    -1.06472E+06         21.8351
             391     1.97334E-03     49.1649E-03         1.36295    -161.841E-03    -695.410E-03    -221.162E-03     888.706E-03    -161.841E-03    -487.822E-03     27.8819E-03    -13.8809E-03    -14.0011E-03    -13.9585E-03     27.8570E-03    -13.8985E-03     1.93990E-03     24.7358E+06     17.3897E+06    -140.689E+06     17.3718E+06    -140.671E+06     24.7358E+06    -714.744E+03         21.7858
             392     987.003E-06     49.1647E-03         4.61692     633.019E-03        -4.75025        -4.06036     795.098E-03         3.76495         1.47572     27.5991E-03    -13.6571E-03    -13.9412E-03    -13.8315E-03     27.5797E-03    -13.7473E-03     1.70999E-03     15.2835E+06     9.24016E+06    -141.393E+06     9.99405E+06    -141.299E+06     14.4354E+06     2.22642E+06         21.7628
             393     16.7493E-03     48.7578E-03         1.17761    -294.392E-03    -368.790E-03    -358.647E-03         1.17742    -304.346E-03    -25.6883E-03     212.939E-03    -14.5185E-03    -198.429E-03    -39.0552E-03     53.5649E-03    -14.5185E-03     400.327E-03     188.469E+06     83.7367E+06    -5.71638E+06    -5.60490E+06     188.358E+06     83.7367E+06     1.20714E+06         53.6660
             394     15.7824E-03     48.3328E-03         1.25921    -335.875E-03    -398.648E-03    -367.882E-03         1.25901    -366.441E-03    -27.9633E-03     133.655E-03    -14.0308E-03    -119.631E-03    -31.2999E-03     45.3242E-03    -14.0308E-03     240.687E-03     132.235E+06     14.4489E+06    -29.5740E+06    -6.13238E+06     132.140E+06    -8.89778E+06     2.70599E+06         49.5437
             395     14.7918E-03     48.2478E-03         1.30647    -355.265E-03    -419.345E-03    -377.624E-03         1.30624    -396.754E-03    -36.8292E-03     42.8399E-03    -13.7505E-03    -29.0889E-03    -14.2176E-03     27.9686E-03    -13.7505E-03     54.5825E-03     46.8247E+06    -9.05982E+06    -71.6024E+06    -5.70430E+06     43.4692E+06    -71.6024E+06     1.70096E+06         44.4953
             396     13.8061E-03     48.2234E-03         1.32366    -369.747E-03    -423.178E-03    -387.021E-03         1.32316    -405.402E-03    -51.8503E-03     29.9842E-03    -13.8087E-03    -16.1742E-03    -14.1153E-03     27.9252E-03    -13.8087E-03     18.4642E-03    -468.683E+03    -19.8357E+06    -73.1976E+06    -1.44386E+06    -18.8605E+06    -73.1976E+06     1.77159E+06         39.3218
             397     12.8202E-03     48.2099E-03         1.32255    -377.244E-03    -416.293E-03    -382.556E-03         1.32193    -410.362E-03    -63.2644E-03     29.0682E-03    -13.9136E-03    -15.1563E-03    -14.2153E-03     28.1272E-03    -13.9136E-03     12.7319E-03     2.68493E+06    -36.6609E+06    -57.0394E+06     2.42181E+06    -42.6104E+06    -50.8268E+06     2.08162E+06         34.6784
             398     11.8335E-03     48.1979E-03         1.33110    -381.678E-03    -419.236E-03    -385.177E-03         1.33055    -415.192E-03    -59.8344E-03     29.0239E-03    -13.9630E-03    -15.0683E-03    -14.3994E-03     28.3549E-03    -13.9630E-03     10.7068E-03     4.95663E+06    -40.5098E+06    -72.3986E+06     4.81294E+06    -72.2549E+06    -40.5098E+06      603.06E+03         30.7851
             399     10.8478E-03     48.1883E-03         1.36301    -396.393E-03    -433.137E-03    -409.465E-03         1.36202    -419.076E-03    -82.9132E-03     28.9173E-03    -14.0096E-03    -14.9142E-03    -14.4033E-03     28.4064E-03    -14.0096E-03     9.40573E-03     7.06974E+06    -27.9109E+06    -91.3406E+06     7.00220E+06    -91.2731E+06    -27.9109E+06    -26.1724E+03         27.8288
             400     9.86146E-03     48.1792E-03         1.38404    -406.249E-03    -442.842E-03    -426.566E-03         1.38281    -421.295E-03    -94.2272E-03     28.9098E-03    -14.0469E-03    -14.8666E-03    -14.4122E-03     28.4554E-03    -14.0469E-03     8.85852E-03     8.94814E+06    -15.9782E+06    -102.172E+06     8.89151E+06    -102.115E+06    -15.9782E+06     562.967E+03         25.7866
             401     8.87602E-03     48.1707E-03         1.37343    -403.926E-03    -435.675E-03    -415.436E-03         1.37265    -423.392E-03    -23.9659E-03     28.8406E-03    -14.0724E-03    -14.7705E-03    -14.4195E-03     28.4896E-03    -14.0724E-03     7.76991E-03     11.8287E+06    -7.05020E+06    -115.989E+06     11.8012E+06    -115.962E+06    -7.05020E+06    -51.4657E+03         24.3072
             402     7.88973E-03     48.1636E-03         1.36835    -407.318E-03    -427.626E-03    -405.729E-03         1.36601    -426.871E-03    -62.3879E-03     28.7740E-03    -14.1040E-03    -14.6709E-03    -14.4061E-03     28.5091E-03    -14.1040E-03     6.74712E-03     15.6631E+06     4.30523E+06    -126.701E+06     15.6426E+06    -126.681E+06     4.30523E+06     124.256E+03         23.1950
             403     6.90375E-03     48.1576E-03         1.38589    -417.691E-03    -435.839E-03    -419.607E-03         1.38249    -430.525E-03    -19.8764E-03     28.7274E-03    -14.1024E-03    -14.6249E-03    -14.4164E-03     28.5189E-03    -14.1024E-03     5.98977E-03     18.2683E+06     10.8031E+06    -132.806E+06     18.2436E+06    -132.781E+06     10.8031E+06     1.69116E+06         22.4797
             404     5.91783E-03     48.1513E-03         1.40757    -427.422E-03    -449.423E-03    -435.252E-03         1.39846    -432.483E-03    -96.2380E-03     28.6367E-03    -14.0960E-03    -14.5403E-03    -14.3869E-03     28.4833E-03    -14.0960E-03     5.10150E-03     19.7916E+06     15.3255E+06    -142.421E+06     19.2690E+06    -142.391E+06     15.8183E+06     1.92053E+06         22.1292
             405     4.93200E-03     48.1468E-03         1.41053    -431.026E-03    -449.680E-03    -430.428E-03         1.39405    -433.800E-03     12.1085E-03     28.4687E-03    -14.0716E-03    -14.3965E-03    -14.2898E-03     28.3620E-03    -14.0716E-03     4.25402E-03     20.4998E+06     17.8807E+06    -148.711E+06     19.9969E+06    -148.701E+06     18.3735E+06     1.08518E+06         21.9887
             406     3.94523E-03     48.1429E-03         1.42353    -435.115E-03    -459.701E-03    -415.645E-03         1.38224    -437.890E-03    -161.853E-03     28.2819E-03    -14.0223E-03    -14.2598E-03    -14.1898E-03     28.2119E-03    -14.0223E-03     3.39904E-03     21.0724E+06     17.8295E+06    -147.306E+06     21.0589E+06    -147.292E+06     17.8295E+06    -532.368E+03         21.9072
             407     2.95965E-03     48.1400E-03         1.49783    -446.623E-03    -521.769E-03    -415.349E-03         1.39141    -446.623E-03     198.288E-03     28.1052E-03    -13.9924E-03    -14.1133E-03    -14.0507E-03     28.0634E-03    -14.0132E-03     2.64743E-03     23.7501E+06     18.7584E+06    -146.596E+06     20.1470E+06    -146.582E+06     22.3470E+06    -1.13959E+06         21.8407
             408     1.97261E-03     48.1383E-03         1.70917    -453.899E-03    -725.979E-03    -448.094E-03         1.43128    -453.899E-03    -433.179E-03     28.0299E-03    -13.9706E-03    -14.0588E-03    -14.0076E-03     27.9995E-03    -13.9914E-03     2.24624E-03     26.4361E+06     15.4396E+06    -143.562E+06     15.4297E+06    -143.552E+06     26.4361E+06     505.436E+03         21.7947
             409     986.491E-06     48.1358E-03         4.64834     735.099E-03        -4.87207        -4.40124         1.42577         3.48684         1.36140     27.7757E-03    -13.7761E-03    -13.9993E-03    -13.9650E-03     27.7539E-03    -13.7886E-03     1.79784E-03     19.1338E+06     10.3688E+06    -139.140E+06     10.2952E+06    -139.067E+06     19.1338E+06     1.71594E+06         21.7730
             410     16.7762E-03     47.7216E-03         1.43893    -402.244E-03    -489.066E-03    -402.136E-03         1.43882    -489.066E-03    -15.1697E-03     213.172E-03    -14.3516E-03    -198.828E-03    -39.9526E-03     54.2969E-03    -14.3516E-03     400.942E-03     186.286E+06     82.0759E+06    -2.88049E+06    -2.84820E+06     186.254E+06     82.0759E+06     2.00788E+06         53.6050
             411     15.7794E-03     47.3106E-03         1.55126    -437.368E-03    -559.279E-03    -437.218E-03         1.55111    -559.279E-03    -22.3668E-03     130.610E-03    -13.9340E-03    -116.679E-03    -27.1179E-03     41.0487E-03    -13.9340E-03     236.963E-03     132.058E+06     10.2123E+06    -27.7100E+06    -7.29282E+06     132.003E+06    -10.1496E+06     1.61794E+06         49.5176
             412     14.7919E-03     47.2171E-03         1.61614    -455.346E-03    -597.351E-03    -455.212E-03         1.61601    -597.351E-03    -21.0775E-03     43.3752E-03    -13.7969E-03    -29.5777E-03    -13.9211E-03     27.7186E-03    -13.7969E-03     55.5639E-03     48.0828E+06    -10.1610E+06    -65.7397E+06    -7.25990E+06     45.1817E+06    -65.7397E+06     2.21322E+06         44.4908
             413     13.8063E-03     47.1955E-03         1.66524    -490.324E-03    -614.000E-03    -489.989E-03         1.66490    -614.000E-03    -35.8088E-03     30.0062E-03    -13.8567E-03    -16.1490E-03    -14.2582E-03     28.1154E-03    -13.8567E-03     17.9159E-03    -2.96986E+06    -20.3982E+06    -69.2422E+06    -3.63028E+06    -19.7378E+06    -69.2422E+06     2.17564E+06         39.3366
             414     12.8192E-03     47.1813E-03         1.70816    -525.767E-03    -625.498E-03    -525.236E-03         1.70763    -625.498E-03    -66.3472E-03     29.0972E-03    -13.9432E-03    -15.1559E-03    -14.1987E-03     28.1401E-03    -13.9432E-03     12.8364E-03     690.036E+03    -35.7298E+06    -56.2791E+06     442.274E+03    -42.4042E+06    -49.3570E+06     2.52010E+06         34.7096
             415     11.8337E-03     47.1692E-03         1.73593    -541.885E-03    -635.780E-03    -541.503E-03         1.73555    -635.780E-03    -50.5858E-03     28.9721E-03    -13.9932E-03    -14.9861E-03    -14.3264E-03     28.3124E-03    -13.9932E-03     10.6154E-03     3.97957E+06    -39.0910E+06    -70.7774E+06     3.80191E+06    -70.5997E+06    -39.0910E+06     1.86624E+06         30.8288
             416     10.8474E-03     47.1602E-03         1.76719    -560.198E-03    -645.792E-03    -559.587E-03         1.76658    -645.792E-03    -61.4427E-03     28.9189E-03    -14.0434E-03    -14.8819E-03    -14.3654E-03     28.4024E-03    -14.0434E-03     9.45217E-03     6.74445E+06    -27.2320E+06    -90.9044E+06     6.63915E+06    -90.7991E+06    -27.2320E+06     823.681E+03         27.8751
             417     9.86167E-03     47.1506E-03         1.79955    -581.492E-03    -655.481E-03    -580.632E-03         1.79869    -655.481E-03    -84.5976E-03     28.9320E-03    -14.0851E-03    -14.8500E-03    -14.3764E-03     28.4584E-03    -14.0851E-03     9.03863E-03     10.2534E+06    -15.2132E+06    -101.577E+06     10.2096E+06    -101.534E+06    -15.2132E+06     351.541E+03         25.8276
             418     8.87529E-03     47.1425E-03         1.82984    -602.263E-03    -664.618E-03    -601.781E-03         1.82936    -664.618E-03    -26.3366E-03     28.9004E-03    -14.1085E-03    -14.7937E-03    -14.4253E-03     28.5320E-03    -14.1085E-03     7.96834E-03     12.7921E+06    -7.86456E+06    -115.053E+06     12.7749E+06    -115.036E+06    -7.86456E+06    -953.486E+03         24.3405
             419     7.88942E-03     47.1355E-03         1.85964    -626.999E-03    -672.757E-03    -625.575E-03         1.85822    -672.757E-03    -65.4167E-03     28.9217E-03    -14.1384E-03    -14.7835E-03    -14.5023E-03     28.6404E-03    -14.1384E-03     6.97334E-03     13.8218E+06     1.85881E+06    -128.267E+06     13.8064E+06    -128.252E+06     1.85881E+06    -800.481E+03         23.2201
             420     6.90372E-03     47.1289E-03         1.87786    -641.608E-03    -680.120E-03    -639.598E-03         1.87585    -680.120E-03    -27.8795E-03     28.8377E-03    -14.1259E-03    -14.7111E-03    -14.4889E-03     28.6154E-03    -14.1259E-03     6.19368E-03     15.6603E+06     7.50616E+06    -134.016E+06     15.6430E+06    -133.999E+06     7.50616E+06     972.163E+03         22.4955
             421     5.91780E-03     47.1235E-03         1.90204    -656.782E-03    -688.463E-03    -653.312E-03         1.89730    -687.193E-03    -90.7701E-03     28.6402E-03    -14.1063E-03    -14.5336E-03    -14.3628E-03     28.4694E-03    -14.1063E-03     5.40026E-03     18.5953E+06     10.9366E+06    -141.037E+06     18.5786E+06    -141.021E+06     10.9366E+06     963.353E+03         22.1386
             422     4.93126E-03     47.1188E-03         1.93719    -682.266E-03    -699.457E-03    -679.737E-03         1.92766    -692.456E-03     19.1770E-03     28.4964E-03    -14.1114E-03    -14.3845E-03    -14.2655E-03     28.3774E-03    -14.1114E-03     4.48563E-03     21.0683E+06     16.5073E+06    -147.729E+06     20.7156E+06    -147.720E+06     16.8504E+06    -242.696E+03         21.9987
             423     3.94574E-03     47.1151E-03         1.95900    -696.120E-03    -709.762E-03    -684.549E-03         1.93379    -696.120E-03    -156.587E-03     28.3217E-03    -14.0948E-03    -14.2269E-03    -14.1359E-03     28.2481E-03    -14.1122E-03     3.49637E-03     22.2875E+06     19.2585E+06    -147.740E+06     20.8140E+06    -147.704E+06     20.6952E+06     311.950E+03         21.9203
             424     2.95855E-03     47.1126E-03         1.98338    -704.717E-03    -728.531E-03    -655.148E-03         1.91220    -706.917E-03     189.657E-03     28.2426E-03    -14.0839E-03    -14.1592E-03    -14.0794E-03     28.2002E-03    -14.1212E-03     2.66153E-03     24.0767E+06     19.0755E+06    -146.356E+06     19.4224E+06    -146.325E+06     23.6985E+06     407.405E+03         21.8558
             425     1.97281E-03     47.1104E-03         2.14962    -729.241E-03    -869.848E-03    -670.153E-03         1.95212    -731.441E-03    -417.797E-03     28.2337E-03    -14.0830E-03    -14.1508E-03    -14.1017E-03     28.2046E-03    -14.1029E-03     2.21625E-03     25.1845E+06     16.1652E+06    -143.809E+06     16.1587E+06    -143.802E+06     25.1845E+06    -179.335E+03         21.8114
             426     986.489E-06     47.1082E-03         4.74574     861.710E-03        -5.05852        -4.71685         2.04245         3.22333         1.15168     28.0186E-03    -13.9901E-03    -14.0290E-03    -13.9922E-03     28.0032E-03    -14.0116E-03     1.48929E-03     18.0438E+06     10.1993E+06    -139.736E+06     11.2887E+06    -139.728E+06     16.9458E+06    -336.531E+03         21.7904
             427     16.7673E-03     46.6962E-03         1.68046    -429.064E-03    -672.348E-03    -428.910E-03         1.68031    -672.348E-03    -19.9855E-03     213.994E-03    -14.2740E-03    -199.724E-03    -39.7839E-03     54.0535E-03    -14.2740E-03     402.911E-03     184.006E+06     82.7302E+06    -7.60501E+06    -7.60275E+06     184.004E+06     82.7302E+06     441.364E+03         53.5481
             428     15.7819E-03     46.2844E-03         1.82834    -495.112E-03    -749.785E-03    -494.767E-03         1.82799    -749.785E-03    -36.3389E-03     132.294E-03    -13.9184E-03    -118.376E-03    -26.4894E-03     40.4071E-03    -13.9184E-03     240.677E-03     132.112E+06     10.4706E+06    -27.3649E+06    -9.84287E+06     132.060E+06    -6.99907E+06     1.20687E+06         49.4914
             429     14.7928E-03     46.1894E-03         1.92761    -543.416E-03    -795.215E-03    -542.879E-03         1.92707    -795.215E-03    -55.4512E-03     43.6906E-03    -13.8174E-03    -29.8727E-03    -13.8961E-03     27.7140E-03    -13.8174E-03     56.9674E-03     48.0423E+06    -10.6022E+06    -62.7097E+06    -8.15944E+06     45.5996E+06    -62.7097E+06     1.97559E+06         44.4898
             430     13.8051E-03     46.1664E-03         1.99745    -591.096E-03    -819.251E-03    -590.645E-03         1.99700    -819.251E-03    -54.8594E-03     29.8890E-03    -13.8850E-03    -16.0036E-03    -13.9392E-03     27.8246E-03    -13.8850E-03     18.3868E-03    -3.14063E+06    -20.7695E+06    -67.4296E+06    -3.74409E+06    -20.1660E+06    -67.4296E+06     1.83913E+06         39.3534
             431     12.8200E-03     46.1528E-03         2.07338    -650.652E-03    -837.768E-03    -650.078E-03         2.07280    -837.768E-03    -77.9207E-03     29.1306E-03    -13.9902E-03    -15.1426E-03    -14.1813E-03     28.1693E-03    -13.9902E-03     12.8867E-03     1.42313E+06    -34.3684E+06    -54.7934E+06     1.23500E+06    -42.5830E+06    -46.3907E+06     1.90531E+06         34.7404
             432     11.8329E-03     46.1408E-03         2.13169    -691.170E-03    -854.225E-03    -690.777E-03         2.13130    -854.225E-03    -57.0814E-03     28.9097E-03    -14.0575E-03    -14.8572E-03    -14.1266E-03     28.1792E-03    -14.0575E-03     11.1498E-03     5.58837E+06    -34.4224E+06    -69.2761E+06     5.49104E+06    -69.1787E+06    -34.4224E+06     2.13633E+06         30.8715
             433     10.8470E-03     46.1316E-03         2.16958    -712.062E-03    -870.394E-03    -711.643E-03         2.16917    -870.394E-03    -58.6071E-03     29.0309E-03    -14.1164E-03    -14.9197E-03    -14.3491E-03     28.4603E-03    -14.1164E-03     9.93860E-03     9.29055E+06    -23.3279E+06    -89.5511E+06     9.22998E+06    -89.4906E+06    -23.3279E+06     956.621E+03         27.9203
             434     9.86066E-03     46.1223E-03         2.21852    -743.831E-03    -886.781E-03    -743.043E-03         2.21773    -886.781E-03    -94.1098E-03     29.0327E-03    -14.1473E-03    -14.8889E-03    -14.3859E-03     28.5297E-03    -14.1473E-03     9.33706E-03     11.4875E+06    -15.3653E+06    -101.178E+06     11.4732E+06    -101.164E+06    -15.3653E+06    -113.044E+03         25.8678
             435     8.87479E-03     46.1141E-03         2.28286    -793.030E-03    -901.891E-03    -792.591E-03         2.28242    -901.891E-03    -40.6553E-03     29.0317E-03    -14.1730E-03    -14.8598E-03    -14.4657E-03     28.6376E-03    -14.1730E-03     8.24757E-03     12.9385E+06    -8.76120E+06    -114.457E+06     12.9331E+06    -114.451E+06    -8.76120E+06     186.020E+03         24.3736
             436     7.88901E-03     46.1068E-03         2.33748    -838.123E-03    -914.471E-03    -836.786E-03         2.33614    -914.471E-03    -83.1666E-03     29.0474E-03    -14.2045E-03    -14.8424E-03    -14.5417E-03     28.7467E-03    -14.2045E-03     7.23222E-03     14.2469E+06     154.753E+03    -128.974E+06     14.2424E+06    -128.969E+06     154.753E+03     117.015E+03         23.2458
             437     6.90299E-03     46.1007E-03         2.36793    -859.845E-03    -925.604E-03    -858.205E-03         2.36629    -925.604E-03    -46.7400E-03     28.9203E-03    -14.2003E-03    -14.7197E-03    -14.4819E-03     28.6824E-03    -14.2003E-03     6.40608E-03     15.0565E+06     5.30131E+06    -134.790E+06     15.0561E+06    -134.789E+06     5.30131E+06     103.382E+03         22.5133
             438     5.91683E-03     46.0954E-03         2.40160    -879.033E-03    -936.807E-03    -875.506E-03         2.39807    -936.807E-03    -98.4789E-03     28.7618E-03    -14.1948E-03    -14.5671E-03    -14.3914E-03     28.5862E-03    -14.1948E-03     5.48948E-03     16.6883E+06     9.54210E+06    -139.469E+06     16.6838E+06    -139.464E+06     9.54210E+06    -303.217E+03         22.1503
             439     4.93127E-03     46.0908E-03         2.44210    -907.254E-03    -949.023E-03    -902.172E-03         2.43553    -947.545E-03     6.24748E-03     28.6089E-03    -14.2154E-03    -14.3934E-03    -14.2675E-03     28.4830E-03    -14.2154E-03     4.62656E-03     18.6283E+06     14.5288E+06    -148.103E+06     18.2732E+06    -148.091E+06     14.8720E+06    -1.00964E+06         22.0097
             440     3.94437E-03     46.0873E-03         2.48715    -939.600E-03    -965.686E-03    -931.700E-03         2.46958    -956.023E-03    -157.607E-03     28.5301E-03    -14.2272E-03    -14.3032E-03    -14.2071E-03     28.4515E-03    -14.2446E-03     3.62532E-03     21.8011E+06     18.3599E+06    -149.096E+06     19.0678E+06    -149.057E+06     21.0542E+06    -121.930E+03         21.9341
             441     2.95889E-03     46.0847E-03         2.53088    -961.241E-03    -990.598E-03    -941.488E-03         2.48398    -963.441E-03     164.134E-03     28.5410E-03    -14.2315E-03    -14.3097E-03    -14.2442E-03     28.4929E-03    -14.2489E-03     2.85146E-03     24.6239E+06     19.1649E+06    -145.247E+06     19.1227E+06    -145.205E+06     24.6239E+06     650.736E+03         21.8719
             442     1.97240E-03     46.0821E-03         2.63697    -965.381E-03        -1.10062    -967.895E-03         2.50644    -967.582E-03    -366.919E-03     28.4861E-03    -14.2029E-03    -14.2832E-03    -14.2528E-03     28.4558E-03    -14.2029E-03     2.22638E-03     24.3558E+06     17.1811E+06    -143.170E+06     17.1627E+06    -143.151E+06     24.3558E+06    -524.439E+03         21.8286
             443     986.254E-06     46.0809E-03         4.92819     899.994E-03        -5.26261        -5.01699         2.50197         3.08059         1.02713     28.2219E-03    -14.0370E-03    -14.1849E-03    -14.1600E-03     28.2060E-03    -14.0460E-03     1.60103E-03     17.9874E+06     10.7516E+06    -141.808E+06     11.8389E+06    -141.797E+06     16.8894E+06    -291.571E+03         21.8093
             444     16.7693E-03     45.6712E-03         1.93130    -467.594E-03    -851.805E-03    -467.422E-03         1.93113    -851.805E-03    -34.6189E-03     212.855E-03    -14.3779E-03    -198.484E-03    -39.1487E-03     53.5192E-03    -14.3779E-03     400.667E-03     183.018E+06     81.1370E+06    -7.92734E+06    -7.92271E+06     183.014E+06     81.1370E+06     429.457E+03         53.4868
             445     15.7782E-03     45.2536E-03         2.09758    -549.367E-03    -935.323E-03    -549.020E-03         2.09723    -935.323E-03    -48.3220E-03     132.027E-03    -13.9886E-03    -118.042E-03    -28.1870E-03     42.1723E-03    -13.9886E-03     239.163E-03     131.143E+06     10.0229E+06    -27.0780E+06    -10.1532E+06     131.061E+06    -6.81934E+06     1.78116E+06         49.4608
             446     14.7925E-03     45.1639E-03         2.23085    -628.234E-03    -987.400E-03    -627.632E-03         2.23025    -987.400E-03    -75.0854E-03     43.5892E-03    -13.8277E-03    -29.7609E-03    -13.7917E-03     27.6200E-03    -13.8277E-03     57.4423E-03     49.1041E+06    -11.0526E+06    -63.8818E+06    -7.49605E+06     45.5475E+06    -63.8818E+06     1.92113E+06         44.4896
             447     13.8052E-03     45.1369E-03         2.31832    -687.211E-03        -1.01857    -686.762E-03         2.31787        -1.01857    -62.3834E-03     29.8538E-03    -13.9145E-03    -15.9390E-03    -13.5513E-03     27.4661E-03    -13.9145E-03     19.5411E-03    -2.28163E+06    -20.9202E+06    -68.6956E+06    -2.88925E+06    -20.3125E+06    -68.6956E+06     1.13047E+06         39.3697
             448     12.8183E-03     45.1244E-03         2.40719    -750.992E-03        -1.04485    -750.590E-03         2.40679        -1.04485    -53.5007E-03     28.9758E-03    -14.0449E-03    -14.9339E-03    -13.9149E-03     27.9568E-03    -14.0449E-03     13.2125E-03     2.61934E+06    -36.5971E+06    -54.5762E+06     2.48054E+06    -42.6488E+06    -48.3856E+06     736.679E+03         34.7693
             449     11.8321E-03     45.1129E-03         2.50533    -822.181E-03        -1.06882    -821.882E-03         2.50503        -1.06882    -47.5639E-03     29.0841E-03    -14.1265E-03    -14.9627E-03    -14.1462E-03     28.2675E-03    -14.1265E-03     11.8322E-03     8.17808E+06    -36.5255E+06    -69.2248E+06     8.08349E+06    -69.1302E+06    -36.5255E+06     931.419E+03         30.9120
             450     10.8456E-03     45.1025E-03         2.58618    -880.735E-03        -1.09081    -880.327E-03         2.58577        -1.09081    -62.4365E-03     29.1899E-03    -14.2156E-03    -14.9783E-03    -14.3750E-03     28.5865E-03    -14.2156E-03     10.2368E-03     11.3666E+06    -20.9629E+06    -88.9156E+06     11.3328E+06    -88.8819E+06    -20.9629E+06     1.62693E+06         27.9640
             451     9.86001E-03     45.0941E-03         2.65491    -927.562E-03        -1.11155    -926.716E-03         2.65406        -1.11155    -104.958E-03     29.2710E-03    -14.2461E-03    -15.0282E-03    -14.5188E-03     28.7616E-03    -14.2461E-03     9.44217E-03     12.3028E+06    -13.5487E+06    -100.276E+06     12.2767E+06    -100.250E+06    -13.5487E+06     1.31304E+06         25.9070
             452     8.87390E-03     45.0852E-03         2.71884    -972.172E-03        -1.13145    -971.641E-03         2.71831        -1.13145    -44.6842E-03     29.2110E-03    -14.2599E-03    -14.9525E-03    -14.5477E-03     28.8062E-03    -14.2599E-03     8.37788E-03     14.1057E+06    -8.95663E+06    -113.901E+06     14.0930E+06    -113.888E+06    -8.95663E+06     586.871E+03         24.4063
             453     7.88794E-03     45.0785E-03         2.78595        -1.02406        -1.14986        -1.02279         2.78467        -1.14986    -82.8199E-03     29.1193E-03    -14.3138E-03    -14.8048E-03    -14.5062E-03     28.8207E-03    -14.3138E-03     7.20888E-03     15.7544E+06     2.11274E+06    -129.667E+06     15.7377E+06    -129.650E+06     2.11274E+06     943.827E+03         23.2716
             454     6.90212E-03     45.0722E-03         2.84685        -1.06888        -1.16629        -1.06727         2.84523        -1.16629    -42.8506E-03     29.0576E-03    -14.3356E-03    -14.7223E-03    -14.4809E-03     28.8162E-03    -14.3356E-03     6.46624E-03     16.6783E+06     9.10233E+06    -134.670E+06     16.6651E+06    -134.657E+06     9.10233E+06     692.278E+03         22.5324
             455     5.91653E-03     45.0669E-03         2.89538        -1.10434        -1.18120        -1.10193         2.89297        -1.18120    -72.3047E-03     28.9475E-03    -14.3431E-03    -14.6052E-03    -14.4257E-03     28.7680E-03    -14.3431E-03     5.55266E-03     17.1540E+06     12.6761E+06    -138.265E+06     17.1495E+06    -138.261E+06     12.6761E+06    -402.099E+03         22.1648
             456     4.92994E-03     45.0628E-03         2.93405        -1.12811        -1.19612        -1.12347         2.92940        -1.19612     16.9044E-03     28.8553E-03    -14.3645E-03    -14.4914E-03    -14.3649E-03     28.7288E-03    -14.3645E-03     4.66167E-03     17.3723E+06     15.2371E+06    -147.587E+06     17.3618E+06    -147.576E+06     15.2371E+06    -858.386E+03         22.0229
             457     3.94443E-03     45.0591E-03         2.99829        -1.17378        -1.21471        -1.16697         2.98635        -1.20958    -136.944E-03     28.8358E-03    -14.3845E-03    -14.4516E-03    -14.3696E-03     28.7538E-03    -14.3845E-03     3.72115E-03     19.7962E+06     16.9656E+06    -149.764E+06     17.9821E+06    -149.749E+06     18.7647E+06    -1.32349E+06         21.9484
             458     2.95785E-03     45.0563E-03         3.07696        -1.21343        -1.25712        -1.22653         3.04638        -1.21343     141.527E-03     28.8363E-03    -14.3930E-03    -14.4425E-03    -14.3917E-03     28.7855E-03    -14.3930E-03     2.95401E-03     23.7558E+06     18.2075E+06    -145.559E+06     18.1819E+06    -145.534E+06     23.7558E+06    -854.144E+03         21.8879
             459     1.97218E-03     45.0541E-03         3.12897        -1.20347        -1.32144        -1.23683         3.04435        -1.20347    -319.934E-03     28.7927E-03    -14.3450E-03    -14.4466E-03    -14.4163E-03     28.7623E-03    -14.3450E-03     2.22237E-03     24.8612E+06     15.5789E+06    -143.042E+06     15.5558E+06    -143.018E+06     24.8612E+06    -525.608E+03         21.8467
             460     986.416E-06     45.0523E-03         5.06847     992.301E-03        -5.46910        -5.28673         2.98336         2.89504     976.250E-03     28.4800E-03    -14.1144E-03    -14.3652E-03    -14.2729E-03     28.4646E-03    -14.1912E-03     1.61040E-03     17.6807E+06     9.02321E+06    -144.637E+06     10.0639E+06    -144.624E+06     16.6273E+06    -494.696E+03         21.8296
             461     16.7595E-03     44.6310E-03         2.19213    -528.832E-03        -1.02645    -528.674E-03         2.19197        -1.02645    -39.5495E-03     213.000E-03    -14.4608E-03    -198.548E-03    -38.8206E-03     53.2725E-03    -14.4608E-03     400.937E-03     182.549E+06     81.0534E+06    -6.17635E+06    -6.16323E+06     182.536E+06     81.0534E+06     874.624E+03         53.4276
             462     15.7820E-03     44.2279E-03         2.36519    -609.179E-03        -1.11530    -609.065E-03         2.36507        -1.11530    -28.9028E-03     130.388E-03    -14.0589E-03    -116.333E-03    -28.2427E-03     42.2979E-03    -14.0589E-03     235.797E-03     129.659E+06     9.71969E+06    -27.5283E+06    -9.61334E+06     129.563E+06    -8.09971E+06     2.11228E+06         49.4299
             463     14.7915E-03     44.1355E-03         2.51503    -696.514E-03        -1.17398    -696.352E-03         2.51487        -1.17398    -37.1343E-03     44.3546E-03    -13.8806E-03    -30.4714E-03    -13.8115E-03     27.6946E-03    -13.8806E-03     59.0150E-03     49.5958E+06    -9.60408E+06    -64.9489E+06     -5.8315E+06     45.8232E+06    -64.9489E+06     2.10064E+06         44.4857
             464     13.8045E-03     44.1096E-03         2.63890    -786.153E-03        -1.21233    -785.950E-03         2.63869        -1.21233    -46.9245E-03     30.0443E-03    -13.9851E-03    -16.0567E-03    -13.5311E-03     27.5187E-03    -13.9851E-03     20.2212E-03    -410.328E+03    -20.3531E+06    -67.6078E+06    -1.39712E+06    -19.3663E+06    -67.6078E+06     1.51116E+06         39.3827
             465     12.8169E-03     44.0963E-03         2.74483    -860.339E-03        -1.24545    -860.169E-03         2.74466        -1.24545    -40.6209E-03     28.9121E-03    -14.1318E-03    -14.7835E-03    -13.7246E-03     27.8532E-03    -14.1318E-03     13.4205E-03     2.20673E+06    -37.9980E+06    -51.9745E+06     2.09638E+06    -42.1348E+06    -47.7273E+06     363.758E+03         34.7960
             466     11.8306E-03     44.0838E-03         2.85937    -942.379E-03        -1.27653    -942.186E-03         2.85918        -1.27653    -46.2419E-03     29.2961E-03    -14.2060E-03    -15.0973E-03    -14.2956E-03     28.4943E-03    -14.2060E-03     11.7499E-03     5.83516E+06    -39.6652E+06    -69.8154E+06     5.76436E+06    -69.7446E+06    -39.6652E+06     124.720E+03         30.9510
             467     10.8449E-03     44.0743E-03         2.97869        -1.03463        -1.30483        -1.03446         2.97852        -1.30483    -49.1328E-03     29.3599E-03    -14.3032E-03    -15.0617E-03    -14.4866E-03     28.7847E-03    -14.3032E-03     10.0248E-03     9.69335E+06    -21.7647E+06    -90.1618E+06       9.645E+06    -90.1135E+06    -21.7647E+06     1.44452E+06         28.0067
             468     9.85855E-03     44.0647E-03         3.07476        -1.10517        -1.33028        -1.10476         3.07435        -1.33028    -78.9242E-03     29.3949E-03    -14.3557E-03    -15.0421E-03    -14.5578E-03     28.9107E-03    -14.3557E-03     9.21612E-03     13.3748E+06    -8.65441E+06    -98.5161E+06     13.3351E+06    -98.4763E+06    -8.65441E+06     2.05979E+06         25.9453
             469     8.87322E-03     44.0568E-03         3.14608        -1.15284        -1.35452        -1.15242         3.14566        -1.35452    -22.8131E-03     29.3431E-03    -14.3725E-03    -14.9715E-03    -14.5920E-03     28.9636E-03    -14.3725E-03     8.12693E-03     15.1187E+06    -4.78652E+06    -113.598E+06     15.0973E+06    -113.577E+06    -4.78652E+06     1.24939E+06         24.4381
             470     7.88732E-03     44.0498E-03         3.22123        -1.21014        -1.37782        -1.20901         3.22010        -1.37782    -67.6729E-03     29.2314E-03    -14.4266E-03    -14.8041E-03    -14.5191E-03     28.9465E-03    -14.4266E-03     7.05581E-03     17.0458E+06     4.68210E+06    -130.007E+06     17.0199E+06    -129.981E+06     4.68210E+06     650.344E+03         23.2967
             471     6.90131E-03     44.0437E-03         3.29640        -1.26515        -1.39940        -1.26387         3.29512        -1.39940    -54.4837E-03     29.1414E-03    -14.4704E-03    -14.6714E-03    -14.4411E-03     28.9111E-03    -14.4704E-03     6.30751E-03     19.9066E+06     13.5345E+06    -133.593E+06     19.8886E+06    -133.575E+06     13.5345E+06     125.502E+03         22.5509
             472     5.91491E-03     44.0384E-03         3.37042        -1.31577        -1.41899        -1.31416         3.36881        -1.41899    -70.9069E-03     29.1331E-03    -14.5001E-03    -14.6339E-03    -14.4655E-03     28.9646E-03    -14.5001E-03     5.38496E-03     21.3441E+06     17.1635E+06    -138.472E+06     21.3428E+06    -138.470E+06     17.1635E+06     122.641E+03         22.1796
             473     4.92963E-03     44.0343E-03         3.44293        -1.37403        -1.43509        -1.37139         3.44028        -1.43509    -6.74163E-03     29.1730E-03    -14.5231E-03    -14.6501E-03    -14.5328E-03     29.0557E-03    -14.5231E-03     4.50122E-03     20.3544E+06     18.4097E+06    -146.582E+06     20.3424E+06    -146.570E+06     18.4097E+06     213.085E+03         22.0382
             474     3.94329E-03     44.0305E-03         3.50537        -1.42145        -1.44876        -1.41613         3.49729        -1.44600    -150.835E-03     29.1463E-03    -14.5274E-03    -14.6187E-03    -14.5390E-03     29.0666E-03    -14.5274E-03     3.70548E-03     19.1837E+06     17.8093E+06    -149.631E+06     18.2771E+06    -149.615E+06     18.7005E+06    -663.550E+03         21.9642
             475     2.95791E-03     44.0279E-03         3.54635        -1.43939        -1.47451        -1.44153         3.52613        -1.45216     108.023E-03     29.1183E-03    -14.5220E-03    -14.5956E-03    -14.5462E-03     29.0689E-03    -14.5220E-03     2.90305E-03     21.3938E+06     16.6858E+06    -146.724E+06     16.6704E+06    -146.709E+06     21.3938E+06    -1.47820E+06         21.9045
             476     1.97184E-03     44.0252E-03         3.59231        -1.44788        -1.51787        -1.44881         3.53173        -1.45636    -320.358E-03     29.0168E-03    -14.4592E-03    -14.5569E-03    -14.5031E-03     28.9897E-03    -14.4861E-03     2.14460E-03     22.9442E+06     13.2537E+06    -143.315E+06     13.2427E+06    -143.304E+06     22.9442E+06    -797.476E+03         21.8664
             477     986.005E-06     44.0241E-03         5.20069         1.14775        -5.71470        -5.57374         3.55047         2.65701     901.159E-03     28.7871E-03    -14.3158E-03    -14.4712E-03    -14.3380E-03     28.7737E-03    -14.4356E-03     1.47019E-03     15.4586E+06     8.02366E+06    -145.315E+06     9.56787E+06    -145.298E+06     13.8974E+06    -1.01210E+06         21.8513
             478     16.7674E-03     43.5948E-03         2.43251    -571.714E-03        -1.19524    -571.552E-03         2.43234        -1.19524    -33.0578E-03     213.448E-03    -14.4641E-03    -198.994E-03    -37.4936E-03     51.9469E-03    -14.4641E-03     402.535E-03     182.231E+06     81.5533E+06    -4.30684E+06    -4.27940E+06     182.204E+06     81.5533E+06     1.38294E+06         53.3708
             479     15.7755E-03     43.2020E-03         2.63336    -674.572E-03        -1.28914    -674.456E-03         2.63325        -1.28914    -30.6160E-03     129.944E-03    -14.1482E-03    -115.802E-03    -26.6398E-03     40.7816E-03    -14.1482E-03     235.305E-03     128.979E+06     10.2482E+06    -27.9869E+06    -8.12506E+06     128.920E+06    -9.55431E+06     1.26423E+06         49.3940
             480     14.7892E-03     43.1064E-03         2.79621    -769.759E-03        -1.35362    -769.657E-03         2.79610        -1.35362    -30.6531E-03     45.3866E-03    -13.9890E-03    -31.3960E-03    -14.7220E-03     28.7127E-03    -13.9890E-03     60.0060E-03     47.8784E+06    -9.30794E+06    -67.7383E+06    -6.75416E+06     45.3246E+06    -67.7383E+06     1.72565E+06         44.4737
             481     13.8029E-03     43.0816E-03         2.95592    -885.000E-03        -1.39828    -884.818E-03         2.95573        -1.39828    -51.9024E-03     30.5370E-03    -14.0499E-03    -16.4851E-03    -14.0776E-03     28.1295E-03    -14.0499E-03     19.8574E-03    -407.982E+03    -18.9380E+06    -70.0647E+06    -1.75800E+06    -17.5879E+06    -70.0647E+06     1.57539E+06         39.3918
             482     12.8166E-03     43.0680E-03         3.09481    -986.849E-03        -1.43685    -986.559E-03         3.09452        -1.43685    -67.2514E-03     29.2166E-03    -14.1824E-03    -15.0373E-03    -14.0572E-03     28.2365E-03    -14.1824E-03     12.9965E-03     2.69522E+06    -34.9559E+06    -53.6602E+06     2.59636E+06    -41.0624E+06    -47.4549E+06     1.05033E+06         34.8218
             483     11.8300E-03     43.0551E-03         3.20570        -1.06587        -1.47341        -1.06556         3.20539        -1.47341    -71.4120E-03     29.2644E-03    -14.2639E-03    -15.0073E-03    -14.2785E-03     28.5357E-03    -14.2639E-03     11.1575E-03     5.76642E+06    -37.0534E+06    -70.4077E+06     5.73341E+06    -70.3747E+06    -37.0534E+06     557.933E+03         30.9899
             484     10.8441E-03     43.0451E-03         3.32524        -1.15375        -1.50851        -1.15350         3.32500        -1.50851    -64.4451E-03     29.3697E-03    -14.3465E-03    -15.0293E-03    -14.5239E-03     28.8642E-03    -14.3465E-03     9.40972E-03     8.77777E+06    -22.6353E+06    -90.6731E+06     8.74563E+06    -90.6409E+06    -22.6353E+06     305.611E+03         28.0487
             485     9.85863E-03     43.0362E-03         3.45542        -1.25199        -1.54089        -1.25155         3.45498        -1.54089    -88.0267E-03     29.3041E-03    -14.4066E-03    -14.9014E-03    -14.4669E-03     28.8696E-03    -14.4066E-03     8.71354E-03     12.0271E+06    -9.37412E+06    -98.7160E+06     12.0024E+06    -98.6914E+06    -9.37412E+06     793.679E+03         25.9827
             486     8.87223E-03     43.0275E-03         3.56625        -1.33776        -1.56992        -1.33739         3.56587        -1.56992    -32.8302E-03     29.2574E-03    -14.4503E-03    -14.8084E-03    -14.4620E-03     28.9110E-03    -14.4503E-03     7.76013E-03     15.9989E+06    -2.99652E+06    -113.367E+06     15.9848E+06    -113.353E+06    -2.99652E+06     940.584E+03         24.4687
             487     7.88654E-03     43.0213E-03         3.65514        -1.40604        -1.59622        -1.40518         3.65428        -1.59622    -66.9838E-03     29.3221E-03    -14.5103E-03    -14.8117E-03    -14.5423E-03     29.0528E-03    -14.5103E-03     6.86117E-03     19.3660E+06     5.45742E+06    -128.579E+06     19.3529E+06    -128.566E+06     5.45742E+06    -119.374E+03         23.3205
             488     6.90062E-03     43.0149E-03         3.73442        -1.46079        -1.62092        -1.45996         3.73359        -1.62092    -68.2223E-03     29.2842E-03    -14.5588E-03    -14.7251E-03    -14.5163E-03     29.0754E-03    -14.5588E-03     6.02186E-03     20.7595E+06     13.2494E+06    -133.532E+06     20.7544E+06    -133.526E+06     13.2494E+06    -567.048E+03         22.5672
             489     5.91497E-03     43.0100E-03         3.82655        -1.52717        -1.64327        -1.52638         3.82576        -1.64327    -65.1242E-03     29.2538E-03    -14.5859E-03    -14.6677E-03    -14.5065E-03     29.1036E-03    -14.5968E-03     5.10782E-03     20.8826E+06     16.4675E+06    -139.569E+06     20.8797E+06    -139.566E+06     16.4675E+06     401.541E+03         22.1904
             490     4.92859E-03     43.0050E-03         3.92335        -1.60878        -1.65910        -1.60753         3.92209        -1.65910    -10.7989E-03     29.3228E-03    -14.6222E-03    -14.6998E-03    -14.5852E-03     29.2191E-03    -14.6332E-03     4.24077E-03     20.9271E+06     18.7494E+06    -147.014E+06     20.9165E+06    -147.004E+06     18.7494E+06     1.28312E+06         22.0492
             491     3.94326E-03     43.0022E-03         3.96398        -1.64164        -1.66909        -1.63663         3.95898        -1.66909    -148.366E-03     29.3943E-03    -14.6486E-03    -14.7455E-03    -14.6744E-03     29.3233E-03    -14.6486E-03     3.52448E-03     22.2498E+06     20.1286E+06    -147.526E+06     20.5539E+06    -147.505E+06     21.8035E+06     1.11638E+06         21.9775
             492     2.95718E-03     42.9985E-03         3.97471        -1.64133        -1.68321        -1.62674         3.96013        -1.68321     110.971E-03     29.3254E-03    -14.6113E-03    -14.7142E-03    -14.6480E-03     29.2808E-03    -14.6329E-03     2.74707E-03     21.8494E+06     18.2761E+06    -146.066E+06     18.2597E+06    -146.050E+06     21.8494E+06    -210.583E+03         21.9194
             493     1.97175E-03     42.9972E-03         4.06843        -1.67567        -1.74018        -1.67307         4.02546        -1.69981    -283.774E-03     29.2140E-03    -14.5594E-03    -14.6547E-03    -14.5815E-03     29.1893E-03    -14.6079E-03     2.07478E-03     21.0969E+06     14.4709E+06    -145.190E+06     14.4676E+06    -145.186E+06     21.0969E+06    -468.543E+03         21.8836
             494     985.770E-06     42.9948E-03         5.37962         1.25147        -5.96995        -5.86521         4.07538         2.45096     801.150E-03     29.0813E-03    -14.4605E-03    -14.6211E-03    -14.5657E-03     29.0689E-03    -14.5035E-03     1.36467E-03     14.7416E+06     9.20020E+06    -145.427E+06     9.69065E+06    -145.409E+06     14.2338E+06    -316.357E+03         21.8688
             495     16.7662E-03     42.5797E-03         2.62936    -584.524E-03        -1.35559    -584.398E-03         2.62924        -1.35559    -30.0722E-03     215.847E-03    -14.5608E-03    -201.296E-03    -37.2845E-03     51.8355E-03    -14.5608E-03     407.339E-03     180.339E+06     80.6285E+06    -5.00573E+06    -4.94586E+06     180.279E+06     80.6285E+06     1.10240E+06         53.3036
             496     15.7732E-03     42.1688E-03         2.87872    -727.321E-03        -1.45391    -727.134E-03         2.87854        -1.45391    -49.5808E-03     130.660E-03    -14.2567E-03    -116.409E-03    -27.5562E-03     41.8076E-03    -14.2567E-03     235.902E-03     129.913E+06     8.81940E+06    -25.0121E+06    -6.81946E+06     129.838E+06    -9.29807E+06     1.77829E+06         49.3498
             497     14.7885E-03     42.0788E-03         3.07739    -855.032E-03        -1.52303    -854.885E-03         3.07724        -1.52303    -45.6279E-03     44.8777E-03    -14.0735E-03    -30.8042E-03    -15.3901E-03     29.4636E-03    -14.0735E-03     57.5288E-03     48.7803E+06    -8.76557E+06    -64.9134E+06    -6.25787E+06     46.2726E+06    -64.9134E+06     1.02681E+06         44.4589
             498     13.8021E-03     42.0514E-03         3.24500    -972.558E-03        -1.57310    -972.435E-03         3.24488        -1.57310    -45.4245E-03     30.7535E-03    -14.0753E-03    -16.6793E-03    -14.5671E-03     28.6413E-03    -14.0753E-03     18.6818E-03    -787.256E+03    -18.5942E+06    -71.6396E+06    -1.45938E+06    -17.9221E+06    -71.6396E+06     854.919E+03         39.3989
             499     12.8167E-03     42.0396E-03         3.40524        -1.09301        -1.61742        -1.09273         3.40496        -1.61742    -68.6935E-03     29.4307E-03    -14.1765E-03    -15.2584E-03    -14.4083E-03     28.5806E-03    -14.1765E-03     12.2029E-03     3.41221E+06    -33.8554E+06    -55.8226E+06     3.31388E+06    -40.7093E+06    -48.8703E+06     1.11769E+06         34.8461
             500     11.8306E-03     42.0262E-03         3.54239        -1.19230        -1.65918        -1.19203         3.54212        -1.65918    -66.8043E-03     29.2064E-03    -14.2484E-03    -14.9653E-03    -14.2909E-03     28.5320E-03    -14.2484E-03     10.7561E-03     6.75078E+06    -37.4067E+06    -69.5582E+06     6.72033E+06    -69.5277E+06    -37.4067E+06     1.13982E+06         31.0278
             501     10.8443E-03     42.0163E-03         3.66573        -1.28027        -1.69959        -1.28008         3.66554        -1.69959    -58.4674E-03     29.1412E-03    -14.3193E-03    -14.8293E-03    -14.3536E-03     28.6656E-03    -14.3193E-03     9.08008E-03     10.2667E+06    -26.6112E+06    -90.3751E+06     10.2515E+06    -90.3600E+06    -26.6112E+06     348.059E+03         28.0897
             502     9.85816E-03     42.0071E-03         3.80450        -1.38333        -1.73808        -1.38293         3.80410        -1.73808    -88.0719E-03     29.1656E-03    -14.3976E-03    -14.7730E-03    -14.3900E-03     28.7826E-03    -14.3976E-03     8.14481E-03     13.4573E+06    -12.8278E+06    -99.9719E+06     13.4475E+06    -99.9621E+06    -12.8278E+06    -384.074E+03         26.0187
             503     8.87226E-03     41.9996E-03         3.94498        -1.49260        -1.77293        -1.49234         3.94472        -1.77293    -45.9681E-03     29.0637E-03    -14.4450E-03    -14.6206E-03    -14.2916E-03     28.7564E-03    -14.4666E-03     7.28543E-03     16.3596E+06    -4.56543E+06    -112.986E+06     16.3540E+06    -112.981E+06    -4.56543E+06    -67.2982E+03         24.4979
             504     7.88594E-03     41.9919E-03         4.06173        -1.58255        -1.80374        -1.58220         4.06138        -1.80374    -54.1783E-03     29.1933E-03    -14.5213E-03    -14.6723E-03    -14.4052E-03     28.9478E-03    -14.5428E-03     6.52583E-03     17.9405E+06     2.44479E+06    -127.602E+06     17.9387E+06    -127.601E+06     2.44479E+06    -124.696E+03         23.3425
             505     6.90028E-03     41.9865E-03         4.17486        -1.66426        -1.83072        -1.66388         4.17447        -1.83072    -40.2229E-03     29.3779E-03    -14.6054E-03    -14.7720E-03    -14.5796E-03     29.1856E-03    -14.6054E-03     5.80529E-03     18.5147E+06     10.2299E+06    -134.253E+06     18.5125E+06    -134.250E+06     10.2299E+06     104.020E+03         22.5817
             506     5.91424E-03     41.9807E-03         4.27043        -1.73766        -1.85336        -1.73731         4.27008        -1.85336    -42.4839E-03     29.4036E-03    -14.6332E-03    -14.7694E-03    -14.6200E-03     29.2651E-03    -14.6442E-03     4.89238E-03     19.0921E+06     15.0722E+06    -140.292E+06     19.0873E+06    -140.288E+06     15.0722E+06     751.650E+03         22.1984
             507     4.92876E-03     41.9769E-03         4.33351        -1.78530        -1.87279        -1.78429         4.33250        -1.87279     28.2188E-03     29.4080E-03    -14.6661E-03    -14.7414E-03    -14.6391E-03     29.3166E-03    -14.6770E-03     3.99779E-03     20.0314E+06     18.2205E+06    -147.448E+06     19.8188E+06    -147.442E+06     18.4270E+06     887.736E+03         22.0548
             508     3.94261E-03     41.9723E-03         4.40180        -1.83367        -1.88997        -1.82955         4.39767        -1.88997    -116.821E-03     29.4194E-03    -14.6618E-03    -14.7574E-03    -14.6544E-03     29.3575E-03    -14.7029E-03     3.26706E-03     23.0929E+06     20.5970E+06    -146.678E+06     20.8312E+06    -146.664E+06     22.8452E+06     1.08020E+06         21.9851
             509     2.95741E-03     41.9702E-03         4.45569        -1.87285        -1.90678        -1.86431         4.44531        -1.90492     86.9674E-03     29.4032E-03    -14.6542E-03    -14.7487E-03    -14.6493E-03     29.3666E-03    -14.7170E-03     2.51526E-03     25.2935E+06     20.6905E+06    -144.660E+06     20.6662E+06    -144.635E+06     25.2935E+06     1.14800E+06         21.9299
             510     1.97118E-03     41.9675E-03         4.52916        -1.89765        -1.95275        -1.90868         4.50076        -1.91332    -227.204E-03     29.4434E-03    -14.6639E-03    -14.7798E-03    -14.7360E-03     29.4212E-03    -14.6855E-03     1.94516E-03     24.5851E+06     17.2993E+06    -144.980E+06     17.2850E+06    -144.966E+06     24.5851E+06     348.415E+03         21.8941
             511     986.011E-06     41.9663E-03         5.50988         1.32941        -6.15435        -6.08746         4.51455         2.25785     628.682E-03     29.1804E-03    -14.4328E-03    -14.7480E-03    -14.6014E-03     29.1702E-03    -14.5692E-03     1.25112E-03     16.5284E+06     11.3405E+06    -145.175E+06     11.3364E+06    -145.171E+06     16.5284E+06     326.542E+03         21.8773
             512     16.7517E-03     41.5365E-03         2.83557    -614.636E-03        -1.50506    -614.532E-03         2.83546        -1.50506    -34.0945E-03     215.114E-03    -14.6183E-03    -200.505E-03    -37.7239E-03     52.3330E-03    -14.6183E-03     405.531E-03     178.733E+06     78.4167E+06    -6.52802E+06    -6.40709E+06     178.612E+06     78.4167E+06    -188.487E+03         53.2254
             513     15.7766E-03     41.1428E-03         3.09338    -763.746E-03        -1.60678    -763.595E-03         3.09323        -1.60678    -40.3337E-03     128.554E-03    -14.2608E-03    -114.295E-03    -27.9808E-03     42.2393E-03    -14.2608E-03     231.530E-03     129.634E+06     9.69837E+06    -25.4561E+06    -7.02274E+06     129.526E+06    -8.62701E+06     21.2958E+03         49.3035
             514     14.7882E-03     41.0467E-03         3.32566    -923.435E-03        -1.68053    -923.307E-03         3.32553        -1.68053    -40.8300E-03     44.5551E-03    -14.0347E-03    -30.5205E-03    -15.1304E-03     29.1650E-03    -14.0347E-03     56.6135E-03     51.2098E+06    -7.78214E+06    -65.2676E+06    -3.18550E+06     46.6131E+06    -65.2676E+06     1.07756E+06         44.4434
             515     13.8036E-03     41.0239E-03         3.50628        -1.05128        -1.73610        -1.05120         3.50619        -1.73610    -36.9009E-03     30.4615E-03    -14.0475E-03    -16.4155E-03    -14.5349E-03     28.5808E-03    -14.0475E-03     17.8282E-03     1.02534E+06    -18.4029E+06    -71.9426E+06     771.615E+03    -18.1492E+06    -71.9426E+06     1.26188E+06         39.4029
             516     12.8166E-03     41.0093E-03         3.67263        -1.17021        -1.78675        -1.17005         3.67246        -1.78675    -47.3640E-03     29.3457E-03    -14.1614E-03    -15.1887E-03    -14.3590E-03     28.5159E-03    -14.1614E-03     12.0079E-03     4.42742E+06    -32.9826E+06    -55.0284E+06     4.31766E+06    -40.5391E+06    -47.3622E+06     1.41374E+06         34.8665
             517     11.8310E-03     40.9983E-03         3.84751        -1.30141        -1.83463        -1.30126         3.84736        -1.83463    -41.2356E-03     29.1805E-03    -14.2258E-03    -14.9631E-03    -14.3166E-03     28.5340E-03    -14.2258E-03     10.5875E-03     7.61231E+06    -37.0512E+06    -68.7036E+06     7.58170E+06    -68.6730E+06    -37.0512E+06     1.30973E+06         31.0621
             518     10.8446E-03     40.9874E-03         4.00934        -1.42114        -1.87944        -1.42108         4.00928        -1.87944    -29.3250E-03     29.0266E-03    -14.2950E-03    -14.7395E-03    -14.2330E-03     28.5201E-03    -14.2950E-03     9.33738E-03     11.4889E+06    -27.1169E+06    -89.7827E+06     11.4658E+06    -89.7597E+06    -27.1169E+06    -24.4429E+03         28.1279
             519     9.85868E-03     40.9785E-03         4.15007        -1.52557        -1.92166        -1.52539         4.14989        -1.92166    -56.9165E-03     29.0649E-03    -14.3851E-03    -14.6847E-03    -14.3032E-03     28.6834E-03    -14.3851E-03     8.10110E-03     15.0858E+06    -13.0784E+06    -100.506E+06     15.0609E+06    -100.481E+06    -13.0784E+06    -443.428E+03         26.0524
             520     8.87244E-03     40.9707E-03         4.28993        -1.62846        -1.96138        -1.62832         4.28979        -1.96138    -30.8034E-03     29.0713E-03    -14.4414E-03    -14.6324E-03    -14.3173E-03     28.7778E-03    -14.4629E-03     7.12595E-03     16.9388E+06    -3.90935E+06    -113.280E+06     16.9284E+06    -113.270E+06    -3.90935E+06     463.385E+03         24.5250
             521     7.88622E-03     40.9638E-03         4.44146        -1.74507        -1.99692        -1.74470         4.44109        -1.99692    -57.4211E-03     29.1254E-03    -14.5182E-03    -14.6082E-03    -14.3554E-03     28.8941E-03    -14.5398E-03     6.32273E-03     18.3793E+06     3.17595E+06    -127.099E+06     18.3760E+06    -127.096E+06     3.17595E+06     473.068E+03         23.3625
             522     6.89988E-03     40.9570E-03         4.57498        -1.85016        -2.02645        -1.84974         4.57457        -2.02645    -38.6741E-03     29.2857E-03    -14.5960E-03    -14.6896E-03    -14.4967E-03     29.1169E-03    -14.6201E-03     5.41252E-03     19.9992E+06     12.2827E+06    -135.041E+06     19.6982E+06    -135.037E+06     12.5798E+06     279.454E+03         22.5942
             523     5.91451E-03     40.9521E-03         4.65855        -1.90764        -2.05214        -1.90720         4.65811        -2.05214    -44.8277E-03     29.4550E-03    -14.6427E-03    -14.8120E-03    -14.6661E-03     29.3333E-03    -14.6668E-03     4.61269E-03     20.7108E+06     18.2694E+06    -140.677E+06     20.3999E+06    -140.663E+06     18.5666E+06     1.01040E+06         22.2049
             524     4.92864E-03     40.9474E-03         4.72138        -1.94809        -2.07823        -1.94673         4.72002        -2.07823     43.4974E-03     29.4931E-03    -14.6786E-03    -14.8143E-03    -14.7298E-03     29.4086E-03    -14.6786E-03     3.83857E-03     21.3922E+06     20.2322E+06    -146.146E+06     20.7996E+06    -146.130E+06     20.8091E+06     476.686E+03         22.0576
             525     3.94327E-03     40.9440E-03         4.83332        -2.03448        -2.10084        -2.03098         4.82982        -2.10084    -71.9149E-03     29.3690E-03    -14.6353E-03    -14.7335E-03    -14.6267E-03     29.3163E-03    -14.6894E-03     3.01626E-03     22.9669E+06     20.8473E+06    -147.589E+06     20.8431E+06    -147.585E+06     22.9669E+06    -332.449E+03         21.9869
             526     2.95672E-03     40.9407E-03         4.92262        -2.10342        -2.12219        -2.10842         4.91594        -2.11051     51.2957E-03     29.3550E-03    -14.6424E-03    -14.7121E-03    -14.6157E-03     29.3235E-03    -14.7073E-03     2.31992E-03     25.3414E+06     19.5883E+06    -144.418E+06     19.5753E+06    -144.405E+06     25.3414E+06     905.326E+03         21.9327
             527     1.97172E-03     40.9387E-03         4.94384        -2.10875        -2.13532        -2.11903         4.92755        -2.10875    -172.571E-03     29.3952E-03    -14.6315E-03    -14.7638E-03    -14.6764E-03     29.3742E-03    -14.6978E-03     1.88358E-03     26.0955E+06     16.9145E+06    -143.352E+06     16.8997E+06    -143.337E+06     26.0955E+06     975.688E+03         21.8964
             528     985.950E-06     40.9366E-03         5.55603         1.43402        -6.28027        -6.23923         4.92234         2.02667     525.873E-03     29.2341E-03    -14.4451E-03    -14.7887E-03    -14.5862E-03     29.2235E-03    -14.6371E-03     1.18472E-03     18.8639E+06     13.2013E+06    -143.889E+06     13.7339E+06    -143.886E+06     18.3292E+06     276.673E+03         21.8801
             529     16.7730E-03     40.5139E-03         3.06261    -673.297E-03        -1.64374    -673.255E-03         3.06257        -1.64374    -23.1210E-03     214.142E-03    -14.4469E-03    -199.706E-03    -38.2919E-03     52.7283E-03    -14.4469E-03     403.658E-03     179.770E+06     81.5544E+06    -6.35375E+06    -6.22866E+06     179.645E+06     81.5544E+06    -711.559E+03         53.1476
             530     15.7758E-03     40.1136E-03         3.30945    -819.822E-03        -1.74730    -819.787E-03         3.30942        -1.74730    -14.1947E-03     128.580E-03    -14.1241E-03    -114.459E-03    -25.6775E-03     39.7983E-03    -14.1241E-03     232.892E-03     127.625E+06     11.5059E+06    -28.5253E+06    -8.37775E+06     127.477E+06    -8.49312E+06    -1.01385E+06         49.2563
             531     14.7906E-03     40.0184E-03         3.53505    -968.774E-03        -1.82555    -968.746E-03         3.53502        -1.82555    -13.5525E-03     44.4070E-03    -13.9545E-03    -30.4511E-03    -14.8669E-03     28.8227E-03    -13.9545E-03     56.8248E-03     48.4960E+06    -10.4749E+06    -69.9156E+06    -7.24918E+06     45.2703E+06    -69.9156E+06     1.19673E+06         44.4205
             532     13.8029E-03     39.9943E-03         3.74047        -1.11726        -1.88699        -1.11722         3.74043        -1.88699    -27.7884E-03     30.0276E-03    -13.9946E-03    -16.0322E-03    -14.1970E-03     28.1924E-03    -13.9946E-03     17.4605E-03     470.670E+03    -20.0288E+06    -73.5311E+06    -2.96553E+06    -16.5926E+06    -73.5311E+06     1.66982E+06         39.4007
             533     12.8175E-03     39.9810E-03         3.93031        -1.25103        -1.94337        -1.25099         3.93027        -1.94337    -28.0410E-03     29.1128E-03    -14.1181E-03    -14.9983E-03    -14.2032E-03     28.3177E-03    -14.1181E-03     11.6836E-03     3.13646E+06    -35.5983E+06    -54.6724E+06     2.97508E+06    -40.4505E+06    -49.6589E+06     445.794E+03         34.8817
             534     11.8307E-03     39.9690E-03         4.12578        -1.39536        -1.99682        -1.39532         4.12573        -1.99682    -28.3290E-03     28.9955E-03    -14.2011E-03    -14.8020E-03    -14.2046E-03     28.3981E-03    -14.2011E-03     10.1448E-03     9.08154E+06    -36.5083E+06    -68.4162E+06     9.06458E+06    -68.3992E+06    -36.5083E+06     264.253E+03         31.0921
             535     10.8448E-03     39.9593E-03         4.31529        -1.54083        -2.04645        -1.54080         4.31525        -2.04645    -21.7265E-03     28.9880E-03    -14.2939E-03    -14.7011E-03    -14.2127E-03     28.4996E-03    -14.2939E-03     9.16333E-03     12.8686E+06    -22.6173E+06    -88.8863E+06     12.8179E+06    -88.8356E+06    -22.6173E+06     35.0912E+03         28.1626
             536     9.85825E-03     39.9497E-03         4.48309        -1.66539        -2.09223        -1.66528         4.48298        -2.09223    -43.6361E-03     28.9842E-03    -14.3809E-03    -14.6077E-03    -14.2368E-03     28.6133E-03    -14.3809E-03     7.96378E-03     14.8817E+06    -10.3253E+06    -100.941E+06     14.8350E+06    -100.894E+06    -10.3253E+06     235.162E+03         26.0834
             537     8.87231E-03     39.9422E-03         4.63961        -1.78257        -2.13443        -1.78241         4.63945        -2.13443    -11.0104E-03     29.1082E-03    -14.4545E-03    -14.6551E-03    -14.3750E-03     28.8281E-03    -14.4545E-03     6.96338E-03     17.0313E+06    -1.52171E+06    -114.320E+06     17.0151E+06    -114.304E+06    -1.52171E+06     752.581E+03         24.5497
             538     7.88658E-03     39.9349E-03         4.79277        -1.90086        -2.17212        -1.90045         4.79236        -2.17212    -40.3590E-03     29.2030E-03    -14.5198E-03    -14.6835E-03    -14.4557E-03     28.9752E-03    -14.5198E-03     6.29583E-03     18.6943E+06     6.52892E+06    -126.177E+06     18.6842E+06    -126.167E+06     6.52892E+06     1.09166E+06         23.3802
             539     6.90091E-03     39.9286E-03         4.91053        -1.98623        -2.20588        -1.98583         4.91013        -2.20588    -41.4080E-03     29.2108E-03    -14.5587E-03    -14.6523E-03    -14.4593E-03     29.0420E-03    -14.5828E-03     5.39845E-03     19.5052E+06     13.5827E+06    -135.274E+06     19.2035E+06    -135.269E+06     13.8799E+06     562.936E+03         22.6036
             540     5.91435E-03     39.9230E-03         5.01396        -2.06017        -2.23733        -2.05976         5.01355        -2.23733    -46.7821E-03     29.3039E-03    -14.6008E-03    -14.7037E-03    -14.5586E-03     29.1847E-03    -14.6267E-03     4.55765E-03     19.9373E+06     17.8834E+06    -141.455E+06     19.6264E+06    -141.442E+06     18.1806E+06     490.893E+03         22.2069
             541     4.92894E-03     39.9183E-03         5.12800        -2.14861        -2.26460        -2.14772         5.12711        -2.26460     6.89116E-03     29.3874E-03    -14.6343E-03    -14.7539E-03    -14.6727E-03     29.3080E-03    -14.6361E-03     3.69462E-03     20.5724E+06     18.8718E+06    -144.657E+06     20.1816E+06    -144.636E+06     19.2421E+06     377.889E+03         22.0565
             542     3.94298E-03     39.9151E-03         5.22267        -2.22232        -2.28502        -2.22009         5.22044        -2.28502    -81.3018E-03     29.3692E-03    -14.6168E-03    -14.7528E-03    -14.6906E-03     29.3201E-03    -14.6299E-03     2.93576E-03     20.8719E+06     18.1887E+06    -147.174E+06     19.1182E+06    -147.165E+06     19.9335E+06     145.471E+03         21.9841
             543     2.95788E-03     39.9120E-03         5.28120        -2.26137        -2.30866        -2.26759         5.27759        -2.29883     6.35767E-03     29.2358E-03    -14.5462E-03    -14.6897E-03    -14.5739E-03     29.2036E-03    -14.6298E-03     2.33508E-03     21.8770E+06     18.4053E+06    -145.749E+06     18.4030E+06    -145.747E+06     21.8770E+06     527.700E+03         21.9272
             544     1.97138E-03     39.9096E-03         5.32561        -2.28528        -2.32107        -2.28891         5.31786        -2.30968    -116.164E-03     29.2086E-03    -14.5170E-03    -14.6918E-03    -14.5448E-03     29.1876E-03    -14.6431E-03     1.89714E-03     24.5038E+06     17.0213E+06    -141.962E+06     17.0176E+06    -141.958E+06     24.5038E+06     529.153E+03         21.8898
             545     985.422E-06     39.9081E-03         5.59788         1.55995        -6.42603        -6.39485         5.36284         1.76380     495.747E-03     29.1774E-03    -14.4451E-03    -14.7325E-03    -14.5740E-03     29.1671E-03    -14.5933E-03     1.03244E-03     17.3702E+06     11.0769E+06    -144.516E+06     11.6094E+06    -144.514E+06     16.8354E+06     347.368E+03         21.8748
             546     16.7683E-03     39.4982E-03         3.24221    -705.837E-03        -1.77157    -705.789E-03         3.24216        -1.77157    -6.54802E-03     213.965E-03    -14.3407E-03    -199.630E-03    -37.8276E-03     52.1626E-03    -14.3407E-03     403.658E-03     179.325E+06     82.5071E+06    -8.01374E+06    -7.94140E+06     179.253E+06     82.5071E+06    -1.61906E+06         53.0564
             547     15.7783E-03     39.0844E-03         3.51792    -879.934E-03        -1.87579    -879.895E-03         3.51788        -1.87579    -16.0121E-03     132.759E-03    -14.0787E-03    -118.681E-03    -26.0476E-03     40.1257E-03    -14.0787E-03     241.277E-03     125.930E+06     12.7377E+06    -30.7754E+06    -11.7248E+06     125.620E+06    -6.00289E+06     1.01256E+06         49.1930
             548     14.7905E-03     38.9899E-03         3.73590        -1.02120        -1.95722        -1.02118         3.73588        -1.95722    -6.31922E-03     44.6664E-03    -13.9233E-03    -30.7402E-03    -15.1782E-03     29.1044E-03    -13.9233E-03     57.0838E-03     47.7551E+06    -11.9765E+06    -67.7724E+06    -10.2242E+06     46.0028E+06    -67.7724E+06     1.39861E+06         44.3861
             549     13.8049E-03     38.9659E-03         3.95279        -1.17380        -2.02359        -1.17374         3.95273        -2.02359    -26.4333E-03     29.8734E-03    -13.9487E-03    -15.9219E-03    -14.1152E-03     28.0668E-03    -13.9487E-03     17.2627E-03     1.60622E+06    -20.2579E+06    -71.1918E+06    -4.31152E+06    -14.3401E+06    -71.1918E+06    -378.035E+03         39.3914
             550     12.8178E-03     38.9520E-03         4.17769        -1.33941        -2.08461        -1.33934         4.17763        -2.08461    -31.4331E-03     28.8363E-03    -14.0617E-03    -14.7772E-03    -14.0092E-03     28.0683E-03    -14.0617E-03     11.4298E-03     2.49028E+06    -37.1388E+06    -54.9843E+06     2.33624E+06    -40.9517E+06    -51.0174E+06    -1.49305E+06         34.8924
             551     11.8319E-03     38.9411E-03         4.39029        -1.49361        -2.14183        -1.49354         4.39023        -2.14183    -32.0154E-03     28.8282E-03    -14.1471E-03    -14.6887E-03    -14.1171E-03     28.2566E-03    -14.1471E-03     9.88901E-03     7.69481E+06    -39.0379E+06    -69.1091E+06     7.60722E+06    -69.0215E+06    -39.0379E+06    -1.14725E+06         31.1185
             552     10.8451E-03     38.9304E-03         4.58944        -1.64389        -2.19530        -1.64373         4.58928        -2.19530    -54.8194E-03     28.8482E-03    -14.2465E-03    -14.6089E-03    -14.1506E-03     28.3899E-03    -14.2465E-03     8.86597E-03     11.8970E+06    -24.2251E+06    -89.4707E+06     11.8606E+06    -89.4344E+06    -24.2251E+06     209.589E+03         28.1944
             553     9.85936E-03     38.9216E-03         4.77626        -1.78742        -2.24450        -1.78708         4.77591        -2.24450    -84.7059E-03     28.8975E-03    -14.3451E-03    -14.5564E-03    -14.1989E-03     28.5400E-03    -14.3451E-03     7.81540E-03     15.0222E+06    -9.46245E+06    -101.124E+06     14.9617E+06    -101.064E+06    -9.46245E+06     1.08862E+06         26.1121
             554     8.87296E-03     38.9134E-03         4.94799        -1.91783        -2.28915        -1.91755         4.94770        -2.28915    -28.2056E-03     29.0003E-03    -14.4140E-03    -14.5870E-03    -14.3075E-03     28.7209E-03    -14.4140E-03     6.94647E-03     16.2889E+06    -2.03585E+06    -114.576E+06     16.2484E+06    -114.535E+06    -2.03585E+06     1.21895E+06         24.5724
             555     7.88682E-03     38.9062E-03         5.09101        -2.02200        -2.33011        -2.02176         5.09076        -2.33011    -25.1031E-03     29.1344E-03    -14.4759E-03    -14.6589E-03    -14.4276E-03     28.9031E-03    -14.4759E-03     6.33277E-03     17.4965E+06     5.24720E+06    -126.154E+06     17.4854E+06    -126.143E+06     5.24720E+06     1.11157E+06         23.3957
             556     6.90063E-03     38.8999E-03         5.21764        -2.11333        -2.36859        -2.11312         5.21743        -2.36859    -52.8867E-03     29.2335E-03    -14.5264E-03    -14.7072E-03    -14.5307E-03     29.0569E-03    -14.5264E-03     5.54047E-03     18.9751E+06     12.6026E+06    -134.346E+06     18.9692E+06    -134.340E+06     12.6026E+06     702.847E+03         22.6100
             557     5.91538E-03     38.8942E-03         5.36038        -2.22323        -2.40263        -2.22308         5.36023        -2.40263    -33.3961E-03     29.2188E-03    -14.5571E-03    -14.6620E-03    -14.5372E-03     29.0958E-03    -14.5589E-03     4.61142E-03     20.0015E+06     16.9658E+06    -141.038E+06     19.9982E+06    -141.035E+06     16.9658E+06    -179.035E+03         22.2052
             558     4.92900E-03     38.8896E-03         5.48612        -2.32618        -2.42856        -2.32591         5.48584        -2.42856     16.4029E-03     29.1931E-03    -14.5758E-03    -14.6181E-03    -14.5376E-03     29.1152E-03    -14.5784E-03     3.66154E-03     20.7718E+06     18.5968E+06    -145.415E+06     20.7649E+06    -145.408E+06     18.5968E+06     269.833E+03         22.0517
             559     3.94346E-03     38.8859E-03         5.54983        -2.37316        -2.44899        -2.37226         5.54892        -2.44899    -46.0109E-03     29.2492E-03    -14.5771E-03    -14.6725E-03    -14.6150E-03     29.1991E-03    -14.5847E-03     2.94359E-03     21.7146E+06     19.3008E+06    -146.652E+06     21.1587E+06    -146.644E+06     19.8491E+06     1.02167E+06         21.9791
             560     2.95735E-03     38.8831E-03         5.59218        -2.39198        -2.47277        -2.39040         5.59060        -2.47277     19.7598E-03     29.2409E-03    -14.5144E-03    -14.7268E-03    -14.6288E-03     29.2093E-03    -14.5808E-03     2.32308E-03     23.2451E+06     20.3804E+06    -145.746E+06     20.6573E+06    -145.741E+06     22.9634E+06     483.831E+03         21.9205
             561     1.97173E-03     38.8813E-03         5.68493        -2.45024        -2.50438        -2.45392         5.68211        -2.49788    -66.9427E-03     29.1236E-03    -14.4394E-03    -14.6846E-03    -14.5525E-03     29.1019E-03    -14.5498E-03     1.93014E-03     23.9840E+06     17.7867E+06    -142.596E+06     17.7151E+06    -142.525E+06     23.9840E+06     1.61803E+06         21.8792
             562     986.581E-06     38.8780E-03         5.79300         1.52093        -6.56241        -6.54340         5.76808         1.52684     403.570E-03     28.9563E-03    -14.3585E-03    -14.5979E-03    -14.3952E-03     28.9443E-03    -14.5492E-03     1.22906E-03     18.0973E+06     13.0211E+06    -143.195E+06     13.4502E+06    -143.083E+06     17.5569E+06     411.683E+03         21.8598
             563     16.7674E-03     38.4768E-03         3.36935    -707.264E-03        -1.88514    -707.199E-03         3.36929        -1.88514    -12.5039E-03     213.257E-03    -14.4225E-03    -198.838E-03    -37.3927E-03     51.8113E-03    -14.4225E-03     402.177E-03     178.395E+06     78.3998E+06    -7.28963E+06    -7.22070E+06     178.326E+06     78.3998E+06     250.251E+03         52.9421
             564     15.7752E-03     38.0548E-03         3.66945    -892.955E-03        -1.98995    -892.862E-03         3.66936        -1.98995    -35.3785E-03     134.461E-03    -14.1196E-03    -120.342E-03    -29.1594E-03     43.2789E-03    -14.1196E-03     242.957E-03     127.092E+06     13.6615E+06    -28.8383E+06    -10.4389E+06     126.705E+06    -4.35096E+06     976.393E+03         49.1137
             565     14.7913E-03     37.9597E-03         3.93107        -1.07770        -2.07394        -1.07762         3.93099        -2.07394    -19.7680E-03     43.9446E-03    -13.8836E-03    -30.0588E-03    -15.3832E-03     29.2690E-03    -13.8836E-03     55.2810E-03     49.3475E+06    -7.90965E+06    -63.2176E+06    -6.44260E+06     47.8804E+06    -63.2176E+06    -384.686E+03         44.3451
             566     13.8052E-03     37.9375E-03         4.16403        -1.24466        -2.14336        -1.24459         4.16396        -2.14336    -22.1330E-03     29.6151E-03    -13.8824E-03    -15.7306E-03    -13.9902E-03     27.8747E-03    -13.8824E-03     16.8633E-03     2.46327E+06    -16.4304E+06    -70.4137E+06    -442.189E+03    -13.5250E+06    -70.4137E+06    -1.96781E+06         39.3770
             567     12.8188E-03     37.9240E-03         4.39671        -1.41418        -2.20770        -1.41409         4.39662        -2.20770    -38.6494E-03     28.6519E-03    -13.9884E-03    -14.6669E-03    -13.8947E-03     27.8797E-03    -13.9884E-03     11.4346E-03     3.61449E+06    -37.0445E+06    -58.0733E+06     3.38386E+06    -41.1549E+06    -53.7322E+06    -1.65115E+06         34.8992
             568     11.8320E-03     37.9121E-03         4.62135        -1.58359        -2.26808        -1.58354         4.62130        -2.26808    -29.3614E-03     28.6572E-03    -14.0793E-03    -14.5860E-03    -14.0051E-03     28.0763E-03    -14.0793E-03     9.91523E-03     6.60357E+06    -42.8463E+06    -70.5838E+06     6.50765E+06    -70.4879E+06    -42.8463E+06    -1.09511E+06         31.1419
             569     10.8461E-03     37.9026E-03         4.83031        -1.74031        -2.32436        -1.74017         4.83017        -2.32436    -47.8542E-03     28.6833E-03    -14.1831E-03    -14.5087E-03    -14.0385E-03     28.2132E-03    -14.1831E-03     8.96072E-03     10.0178E+06    -28.3860E+06    -90.3541E+06     9.99481E+06    -90.3312E+06    -28.3860E+06    -314.138E+03         28.2237
             570     9.85917E-03     37.8928E-03         5.02340        -1.88800        -2.37646        -1.88772         5.02311        -2.37646    -67.6904E-03     28.7838E-03    -14.2975E-03    -14.4905E-03    -14.0952E-03     28.3885E-03    -14.2975E-03     8.20466E-03     12.5542E+06    -11.9221E+06    -102.109E+06     12.5140E+06    -102.069E+06    -11.9221E+06     950.650E+03         26.1387
             571     8.87329E-03     37.8852E-03         5.19612        -2.01653        -2.42459        -2.01633         5.19592        -2.42459    -18.1126E-03     28.9642E-03    -14.3711E-03    -14.5937E-03    -14.2958E-03     28.6663E-03    -14.3711E-03     7.16670E-03     15.2640E+06    -2.89221E+06    -114.034E+06     15.2196E+06    -113.990E+06    -2.89221E+06     1.69822E+06         24.5934
             572     7.88706E-03     37.8776E-03         5.35953        -2.13333        -2.46919        -2.13310         5.35929        -2.46919    -36.6440E-03     29.0760E-03    -14.4231E-03    -14.6533E-03    -14.4185E-03     28.8412E-03    -14.4231E-03     6.37407E-03     18.0572E+06     3.66845E+06    -125.675E+06     18.0407E+06    -125.659E+06     3.66845E+06     1.01875E+06         23.4095
             573     6.90143E-03     37.8710E-03         5.52063        -2.25616        -2.50910        -2.25591         5.52038        -2.50910    -81.8561E-03     29.1615E-03    -14.4656E-03    -14.6961E-03    -14.5185E-03     28.9838E-03    -14.4656E-03     5.55082E-03     19.8334E+06     10.4001E+06    -133.688E+06     19.8299E+06    -133.684E+06     10.4001E+06     291.077E+03         22.6147
             574     5.91515E-03     37.8654E-03         5.65136        -2.35421        -2.54367        -2.35413         5.65128        -2.54367    -44.0751E-03     29.1413E-03    -14.5012E-03    -14.6408E-03    -14.5169E-03     29.0173E-03    -14.5012E-03     4.62785E-03     20.8842E+06     16.2376E+06    -140.163E+06     20.8812E+06    -140.160E+06     16.2376E+06    -356.162E+03         22.2017
             575     4.92966E-03     37.8612E-03         5.75134        -2.42623        -2.57495        -2.42606         5.75117        -2.57495     24.0740E-03     29.0748E-03    -14.5122E-03    -14.5635E-03    -14.4553E-03     28.9888E-03    -14.5345E-03     3.85759E-03     21.7882E+06     19.5869E+06    -146.656E+06     21.7849E+06    -146.653E+06     19.5869E+06    -114.702E+03         22.0447
             576     3.94334E-03     37.8571E-03         5.85255        -2.50122        -2.60315        -2.50082         5.85214        -2.60315    -22.1684E-03     29.1159E-03    -14.5280E-03    -14.5885E-03    -14.5030E-03     29.0592E-03    -14.5569E-03     3.10328E-03     22.8143E+06     21.5709E+06    -147.027E+06     22.8095E+06    -147.023E+06     21.5709E+06     832.626E+03         21.9727
             577     2.95767E-03     37.8546E-03         5.93622        -2.56562        -2.62703        -2.56552         5.93563        -2.62653    -3.94386E-03     29.2343E-03    -14.5472E-03    -14.6878E-03    -14.6482E-03     29.2014E-03    -14.5539E-03     2.37476E-03     24.9333E+06     20.9641E+06    -144.833E+06     21.2608E+06    -144.789E+06     24.5927E+06     1.64281E+06         21.9158
             578     1.97227E-03     37.8518E-03         6.01956        -2.61503        -2.65757        -2.63318         6.01840        -2.63827    -33.7191E-03     29.0699E-03    -14.4543E-03    -14.6160E-03    -14.5444E-03     29.0491E-03    -14.5050E-03     1.81766E-03     25.7437E+06     17.8197E+06    -142.825E+06     17.6821E+06    -142.687E+06     25.7437E+06     1.66565E+06         21.8737
             579     985.224E-06     37.8512E-03         6.04999         1.32604        -6.60880        -6.60412         6.04530         1.32604     236.079E-03     28.8396E-03    -14.3311E-03    -14.5085E-03    -14.3889E-03     28.8181E-03    -14.4291E-03     1.74836E-03     19.6535E+06     14.3386E+06    -141.803E+06     15.1237E+06    -141.568E+06     18.6340E+06     1.24378E+06         21.8490
             580     16.7574E-03     37.4456E-03         3.51158    -728.323E-03        -1.98265    -728.262E-03         3.51152        -1.98265    -21.3920E-03     212.568E-03    -14.4624E-03    -198.110E-03    -39.5259E-03     53.9841E-03    -14.4624E-03     399.645E-03     180.017E+06     80.4441E+06    -5.55752E+06    -5.46077E+06     179.920E+06     80.4441E+06     1.53084E+06         52.8204
             581     15.7802E-03     37.0211E-03         3.79563    -903.693E-03        -2.08696    -903.591E-03         3.79553        -2.08696    -30.4453E-03     131.866E-03    -13.9976E-03    -117.871E-03    -30.1840E-03     44.1794E-03    -13.9976E-03     237.447E-03     127.075E+06     14.1618E+06    -29.5793E+06    -6.76592E+06     126.864E+06    -8.44093E+06    -573.909E+03         49.0384
             582     14.7940E-03     36.9332E-03         4.08570        -1.11232        -2.17302        -1.11222         4.08560        -2.17302    -32.7634E-03     42.2708E-03    -13.7529E-03    -28.5141E-03    -14.1666E-03     27.9232E-03    -13.7529E-03     53.4968E-03     47.7871E+06    -6.14722E+06    -65.9302E+06    -5.59030E+06     47.2302E+06    -65.9302E+06    -682.599E+03         44.3062
             583     13.8059E-03     36.9081E-03         4.34937        -1.30872        -2.24525        -1.30867         4.34933        -2.24525    -21.5304E-03     29.1622E-03    -13.8097E-03    -15.3496E-03    -13.5238E-03     27.3363E-03    -13.8097E-03     16.8586E-03    -736.322E+03    -16.3992E+06    -72.0521E+06    -3.82937E+06    -13.3062E+06    -72.0521E+06    -708.149E+03         39.3610
             584     12.8196E-03     36.8963E-03         4.58551        -1.48034        -2.31214        -1.48029         4.58545        -2.31214    -25.8705E-03     28.4544E-03    -13.9344E-03    -14.5240E-03    -13.7453E-03     27.6757E-03    -13.9344E-03     11.4586E-03     429.389E+03    -36.8780E+06    -60.5016E+06     204.898E+03    -41.8045E+06    -55.3505E+06    -1.50938E+06         34.9037
             585     11.8329E-03     36.8839E-03         4.80939        -1.64690        -2.37563        -1.64688         4.80936        -2.37563    -18.4872E-03     28.5212E-03    -14.0345E-03    -14.4961E-03    -13.8749E-03     27.9000E-03    -14.0345E-03     10.1679E-03     4.82026E+06    -43.5737E+06    -71.1605E+06     4.72710E+06    -71.0673E+06    -43.5737E+06    -757.783E+03         31.1631
             586     10.8461E-03     36.8743E-03         5.02516        -1.81030        -2.43544        -1.81029         5.02514        -2.43544    -19.1590E-03     28.5479E-03    -14.1384E-03    -14.4184E-03    -13.9561E-03     28.0855E-03    -14.1384E-03     8.86527E-03     8.47554E+06    -29.9779E+06    -90.9119E+06     8.44357E+06    -90.8799E+06    -29.9779E+06    -73.4962E+03         28.2513
             587     9.85989E-03     36.8650E-03         5.23762        -1.96937        -2.49090        -1.96934         5.23759        -2.49090    -25.5064E-03     28.7026E-03    -14.2537E-03    -14.4531E-03    -14.0460E-03     28.2955E-03    -14.2537E-03     8.31948E-03     11.6453E+06    -13.8306E+06    -103.449E+06     11.6355E+06    -103.439E+06    -13.8306E+06     32.6457E+03         26.1640
             588     8.87339E-03     36.8561E-03         5.43446        -2.11809        -2.54138        -2.11805         5.43441        -2.54138    -6.93126E-03     28.9153E-03    -14.3330E-03    -14.5820E-03    -14.2775E-03     28.6108E-03    -14.3330E-03     7.22995E-03     14.9282E+06    -3.02784E+06    -114.070E+06     14.9145E+06    -114.056E+06    -3.02784E+06     636.072E+03         24.6134
             589     7.88771E-03     36.8493E-03         5.61071        -2.24901        -2.58680        -2.24889         5.61058        -2.58680    -26.9842E-03     29.0324E-03    -14.3777E-03    -14.6541E-03    -14.4114E-03     28.7897E-03    -14.3777E-03     6.48991E-03     17.4731E+06     3.06763E+06    -124.600E+06     17.4531E+06    -124.580E+06     3.06763E+06     1.00523E+06         23.4227
             590     6.90140E-03     36.8423E-03         5.77229        -2.36931        -2.62703        -2.36918         5.77216        -2.62703    -52.2244E-03     29.0058E-03    -14.4141E-03    -14.5926E-03    -14.4005E-03     28.8137E-03    -14.4141E-03     5.75147E-03     19.2448E+06     8.00517E+06    -132.671E+06     19.2338E+06    -132.660E+06     8.00517E+06     119.576E+03         22.6190
             591     5.91580E-03     36.8370E-03         5.89561        -2.45894        -2.66306        -2.45886         5.89553        -2.66306    -43.7671E-03     28.9789E-03    -14.4439E-03    -14.5361E-03    -14.3780E-03     28.8447E-03    -14.4678E-03     4.79800E-03     20.6727E+06     14.1172E+06    -140.187E+06     20.6651E+06    -140.179E+06     14.1172E+06    -456.585E+03         22.1983
             592     4.92937E-03     36.8324E-03         5.99276        -2.52445        -2.69793        -2.52438         5.99269        -2.69793    -9.62871E-03     29.0413E-03    -14.4740E-03    -14.5678E-03    -14.4240E-03     28.9429E-03    -14.5193E-03     4.12393E-03     21.2309E+06     18.2551E+06    -147.618E+06     21.2273E+06    -147.615E+06     18.2551E+06     85.9486E+03         22.0387
             593     3.94361E-03     36.8288E-03         6.11823        -2.62674        -2.72844        -2.62641         6.11790        -2.72844    -54.7289E-03     29.1372E-03    -14.5256E-03    -14.6120E-03    -14.5224E-03     29.0690E-03    -14.5470E-03     3.41420E-03     22.0840E+06     19.8978E+06    -148.380E+06     20.7455E+06    -148.374E+06     21.2297E+06     925.329E+03         21.9665
             594     2.95771E-03     36.8252E-03         6.21966        -2.71659        -2.74695        -2.71675         6.21933        -2.74646    -68.6879E-03     29.1130E-03    -14.5097E-03    -14.6041E-03    -14.5210E-03     29.0743E-03    -14.5541E-03     2.56556E-03     23.9871E+06     20.1864E+06    -144.667E+06     20.1995E+06    -144.621E+06     23.9281E+06     1.78511E+06         21.9112
             595     1.97151E-03     36.8236E-03         6.26580        -2.74327        -2.76307        -2.75577         6.26550        -2.75026     42.0480E-03     29.1300E-03    -14.4834E-03    -14.6472E-03    -14.5802E-03     29.1073E-03    -14.5277E-03     1.90208E-03     27.5459E+06     19.1990E+06    -140.253E+06     19.1293E+06    -140.183E+06     27.5459E+06     274.691E+03         21.8726
             596     986.896E-06     36.8219E-03         6.26317         1.11769        -6.61741        -6.61603         6.26228         1.11719     120.760E-03     28.8838E-03    -14.2736E-03    -14.6104E-03    -14.4233E-03     28.8595E-03    -14.4364E-03     1.91126E-03     21.8143E+06     15.1596E+06    -141.032E+06     15.5102E+06    -140.903E+06     21.3352E+06     1.46450E+06         21.8489
             597     16.7714E-03     36.4091E-03         3.65746    -762.571E-03        -2.06539    -762.513E-03         3.65740        -2.06539    -16.2779E-03     212.230E-03    -14.3605E-03    -197.872E-03    -41.1283E-03     55.4863E-03    -14.3605E-03     398.469E-03     180.754E+06     86.8778E+06    -6.36956E+06    -6.15131E+06     180.536E+06     86.8778E+06    -317.791E+03         52.7042
             598     15.7855E-03     35.9968E-03         3.94198    -955.773E-03        -2.16702    -955.717E-03         3.94193        -2.16702    -18.4114E-03     130.726E-03    -13.8522E-03    -116.875E-03    -28.1077E-03     41.9591E-03    -13.8522E-03     236.883E-03     125.570E+06     12.6765E+06    -30.5488E+06    -8.76269E+06     125.431E+06    -8.97018E+06     1.42358E+06         48.9671
             599     14.7939E-03     35.9053E-03         4.20902        -1.14184        -2.25321        -1.14177         4.20894        -2.25321    -25.0453E-03     43.2163E-03    -13.6884E-03    -29.5241E-03    -13.4247E-03     27.1170E-03    -13.6884E-03     56.5245E-03     47.6363E+06    -9.22259E+06    -65.3544E+06    -9.13829E+06     47.5520E+06    -65.3544E+06     923.766E+03         44.2655
             600     13.8075E-03     35.8809E-03         4.48056        -1.33855        -2.32839        -1.33852         4.48053        -2.32839    -9.29859E-03     29.1640E-03    -13.7797E-03    -15.3820E-03    -13.4066E-03     27.1886E-03    -13.7797E-03     17.6567E-03     2.48623E+06    -18.1156E+06    -69.1548E+06    -3.90996E+06    -11.7194E+06    -69.1548E+06    -607.606E+03         39.3438
             601     12.8195E-03     35.8681E-03         4.74199        -1.53340        -2.39819        -1.53337         4.74196        -2.39819    -17.2951E-03     28.3192E-03    -13.9144E-03    -14.4081E-03    -13.5428E-03     27.4539E-03    -13.9144E-03     12.0092E-03     1.22120E+06    -36.5093E+06    -60.1444E+06     986.318E+03    -43.3555E+06    -53.0634E+06    -885.092E+03         34.9076
             602     11.8331E-03     35.8558E-03         4.97211        -1.70375        -2.46406        -1.70372         4.97209        -2.46406    -16.6644E-03     28.5104E-03    -14.0149E-03    -14.5058E-03    -13.8533E-03     27.8579E-03    -14.0149E-03     10.4252E-03     3.60528E+06    -42.4883E+06    -71.4846E+06     3.46870E+06    -71.3480E+06    -42.4883E+06    -50.2235E+03         31.1837
             603     10.8468E-03     35.8463E-03         5.19334        -1.86905        -2.52644        -1.86899         5.19328        -2.52644    -32.7741E-03     28.5496E-03    -14.1019E-03    -14.4578E-03    -13.9632E-03     28.0550E-03    -14.1019E-03     9.16438E-03     6.65572E+06    -31.7720E+06    -91.0576E+06     6.63114E+06    -91.0330E+06    -31.7720E+06    -190.454E+03         28.2785
             604     9.86021E-03     35.8366E-03         5.41770        -2.03996        -2.58430        -2.03989         5.41762        -2.58430    -37.7217E-03     28.7266E-03    -14.2038E-03    -14.5277E-03    -14.0879E-03     28.2868E-03    -14.2038E-03     8.64871E-03     10.1557E+06    -17.1076E+06    -103.694E+06     10.1428E+06    -103.682E+06    -17.1076E+06    -620.401E+03         26.1892
             605     8.87404E-03     35.8280E-03         5.62656        -2.19985        -2.63648        -2.19982         5.62653        -2.63648    -24.6688E-03     28.7604E-03    -14.2814E-03    -14.4802E-03    -14.1437E-03     28.4268E-03    -14.2842E-03     7.54736E-03     12.4733E+06    -6.92363E+06    -115.087E+06     12.4650E+06    -115.078E+06    -6.92363E+06    -277.365E+03         24.6334
             606     7.88761E-03     35.8205E-03         5.80222        -2.32811        -2.68359        -2.32807         5.80219        -2.68359    -10.4574E-03     28.8400E-03    -14.3456E-03    -14.4947E-03    -14.2223E-03     28.5705E-03    -14.3485E-03     6.79962E-03     15.0993E+06     359.192E+03    -124.415E+06     15.0860E+06    -124.402E+06     359.192E+03     141.481E+03         23.4358
             607     6.90184E-03     35.8141E-03         5.96135        -2.44258        -2.72668        -2.44254         5.96131        -2.72668    -11.3410E-03     28.8844E-03    -14.3929E-03    -14.4927E-03    -14.2639E-03     28.6680E-03    -14.4052E-03     6.09203E-03     18.0727E+06     6.03315E+06    -131.529E+06     18.0534E+06    -131.510E+06     6.03315E+06    -36.8503E+03         22.6241
             608     5.91522E-03     35.8084E-03         6.11132        -2.55841        -2.76467        -2.55839         6.11129        -2.76467    -21.6190E-03     28.9484E-03    -14.4361E-03    -14.5128E-03    -14.3229E-03     28.7948E-03    -14.4724E-03     5.12359E-03     19.1121E+06     11.2976E+06    -140.672E+06     19.1041E+06    -140.664E+06     11.2976E+06     37.8211E+03         22.1968
             609     4.92936E-03     35.8042E-03         6.23501        -2.66066        -2.79580        -2.66065         6.23500        -2.79580    -3.04893E-03     29.1087E-03    -14.5048E-03    -14.6040E-03    -14.4724E-03     29.0010E-03    -14.5287E-03     4.32385E-03     19.0658E+06     15.5768E+06    -148.731E+06     19.0597E+06    -148.725E+06     15.5768E+06     713.459E+03         22.0350
             610     3.94343E-03     35.7996E-03         6.33362        -2.74261        -2.81923        -2.74254         6.33354        -2.81923    -20.3346E-03     29.1737E-03    -14.5596E-03    -14.6140E-03    -14.5404E-03     29.1002E-03    -14.5596E-03     3.55015E-03     21.4065E+06     18.9860E+06    -148.915E+06     19.8706E+06    -148.900E+06     20.5067E+06     533.541E+03         21.9625
             611     2.95758E-03     35.7971E-03         6.39503        -2.79236        -2.83651        -2.79178         6.39444        -2.83651    -101.016E-03     29.1127E-03    -14.5265E-03    -14.5863E-03    -14.4983E-03     29.0747E-03    -14.5764E-03     2.52448E-03     24.5172E+06     21.0540E+06    -144.325E+06     21.0386E+06    -144.309E+06     24.5172E+06    -683.165E+03         21.9069
             612     1.97176E-03     35.7946E-03         6.44334        -2.82897        -2.85163        -2.83008         6.44165        -2.84884     65.9589E-03     29.1356E-03    -14.4652E-03    -14.6706E-03    -14.5344E-03     29.1102E-03    -14.5759E-03     2.10351E-03     26.7690E+06     20.4393E+06    -139.242E+06     20.4319E+06    -139.235E+06     26.7690E+06    -278.610E+03         21.8698
             613     985.458E-06     35.7926E-03         6.47775     903.212E-03        -6.61551        -6.61219         6.47493     902.716E-03    -40.5297E-03     29.0459E-03    -14.1756E-03    -14.8704E-03    -14.6296E-03     29.0286E-03    -14.3991E-03     1.47849E-03     22.6979E+06     16.7994E+06    -139.113E+06     16.7498E+06    -139.064E+06     22.6979E+06    -602.272E+03         21.8497
             614     16.7693E-03     35.3737E-03         3.74372    -780.326E-03        -2.13256    -780.260E-03         3.74365        -2.13256    -8.76510E-03     210.883E-03    -14.1984E-03    -196.686E-03    -39.2051E-03     53.4021E-03    -14.1984E-03     396.894E-03     177.222E+06     81.0394E+06    -7.85495E+06    -7.65934E+06     177.027E+06     81.0394E+06    -325.552E+03         52.5946
             615     15.7796E-03     34.9734E-03         4.05242    -993.596E-03        -2.23059    -993.530E-03         4.05236        -2.23059    -12.7558E-03     131.222E-03    -13.8541E-03    -117.368E-03    -26.2792E-03     40.1334E-03    -13.8541E-03     238.591E-03     127.168E+06     12.1996E+06    -26.2652E+06    -10.9966E+06     127.044E+06    -2.94516E+06     1.71982E+06         48.8942
             616     14.7935E-03     34.8754E-03         4.32556        -1.18181        -2.31572        -1.18174         4.32549        -2.31572    -6.64671E-03     43.8596E-03    -13.7331E-03    -30.1244E-03    -13.9692E-03     27.7044E-03    -13.7331E-03     57.3959E-03     52.8123E+06    -9.05911E+06    -57.7901E+06    -7.60360E+06     51.3568E+06    -57.7901E+06    -586.879E+03         44.2232
             617     13.8067E-03     34.8540E-03         4.58572        -1.36933        -2.39219        -1.36931         4.58569        -2.39219     14.6139E-03     29.1671E-03    -13.7846E-03    -15.3821E-03    -13.3690E-03     27.1541E-03    -13.7846E-03     17.9930E-03     3.70235E+06    -19.1873E+06    -68.0634E+06    -2.28279E+06    -13.2022E+06    -68.0634E+06    -1.21007E+06         39.3274
             618     12.8201E-03     34.8400E-03         4.84933        -1.56479        -2.46420        -1.56474         4.84928        -2.46420    -25.2270E-03     28.4677E-03    -13.9041E-03    -14.5668E-03    -13.5945E-03     27.4954E-03    -13.9041E-03     12.7627E-03     1.03783E+06    -39.8842E+06    -59.7749E+06     678.866E+03    -44.1262E+06    -55.1740E+06     871.083E+03         34.9119
             619     11.8333E-03     34.8278E-03         5.10156        -1.75402        -2.53191        -1.75397         5.10151        -2.53191    -23.8716E-03     28.4940E-03    -14.0074E-03    -14.4956E-03    -13.7879E-03     27.7862E-03    -14.0074E-03     10.8539E-03     3.78589E+06    -43.7671E+06    -70.7547E+06     3.71848E+06    -70.6873E+06    -43.7671E+06     608.847E+03         31.2049
             620     10.8465E-03     34.8183E-03         5.33523        -1.92990        -2.59517        -1.92982         5.33515        -2.59517    -33.1139E-03     28.6602E-03    -14.1095E-03    -14.5599E-03    -13.9980E-03     28.0983E-03    -14.1095E-03     9.78798E-03     6.89428E+06    -30.6738E+06    -91.0918E+06     6.88074E+06    -91.0783E+06    -30.6738E+06     45.3143E+03         28.3062
             621     9.86036E-03     34.8082E-03         5.54908        -2.09317        -2.65402        -2.09309         5.54900        -2.65402    -28.5801E-03     28.7775E-03    -14.2044E-03    -14.5777E-03    -14.0819E-03     28.2818E-03    -14.2044E-03     9.18307E-03     9.16537E+06    -17.5949E+06    -103.947E+06     9.13758E+06    -103.919E+06    -17.5949E+06     478.368E+03         26.2147
             622     8.87405E-03     34.8000E-03         5.74683        -2.23990        -2.70863        -2.23987         5.74680        -2.70863    -15.3230E-03     28.7041E-03    -14.2721E-03    -14.4335E-03    -14.0460E-03     28.3194E-03    -14.2749E-03     8.09744E-03     10.6794E+06    -10.5990E+06    -114.842E+06     10.6430E+06    -114.805E+06    -10.5990E+06    -10.1369E+03         24.6536
             623     7.88765E-03     34.7923E-03         5.93673        -2.37984        -2.75884        -2.37980         5.93669        -2.75884    -4.40992E-03     28.7295E-03    -14.3250E-03    -14.4048E-03    -14.0612E-03     28.4129E-03    -14.3519E-03     7.33996E-03     12.0781E+06    -4.44754E+06    -124.395E+06     12.0631E+06     -124.38E+06    -4.44754E+06    -832.969E+03         23.4495
             624     6.90101E-03     34.7857E-03         6.10996        -2.50557        -2.80431        -2.50544         6.10983        -2.80431    -24.5690E-03     28.9032E-03    -14.3954E-03    -14.5080E-03    -14.2328E-03     28.6645E-03    -14.4318E-03     6.39483E-03     14.0512E+06     2.37845E+06    -131.966E+06     14.0387E+06    -131.953E+06     2.37845E+06    -536.951E+03         22.6303
             625     5.91518E-03     34.7802E-03         6.27331        -2.63050        -2.84381        -2.63034         6.27315        -2.84381    -17.9252E-03     29.1058E-03    -14.4889E-03    -14.6176E-03    -14.4437E-03     28.9443E-03    -14.5012E-03     5.26398E-03     16.4182E+06     9.15934E+06    -141.598E+06     16.4049E+06    -141.585E+06     9.15934E+06     431.577E+03         22.1964
             626     4.92927E-03     34.7751E-03         6.41760        -2.75098        -2.87425        -2.75093         6.41754        -2.87425     19.8122E-03     29.1804E-03    -14.5455E-03    -14.6359E-03    -14.5254E-03     29.0700E-03    -14.5455E-03     4.38716E-03     18.0304E+06     14.0567E+06    -148.663E+06     18.0129E+06    -148.646E+06     14.0567E+06     407.023E+03         22.0317
             627     3.94340E-03     34.7714E-03         6.51189        -2.82944        -2.89509        -2.82924         6.51170        -2.89509     42.1196E-03     29.1824E-03    -14.5670E-03    -14.6154E-03    -14.5383E-03     29.1054E-03    -14.5670E-03     3.63179E-03     19.6248E+06     17.4523E+06    -147.591E+06     19.4193E+06    -147.574E+06     17.6411E+06    -605.530E+03         21.9593
             628     2.95755E-03     34.7679E-03         6.55336        -2.86194        -2.91214        -2.86060         6.55202        -2.91214    -101.579E-03     29.2231E-03    -14.5724E-03    -14.6499E-03    -14.6045E-03     29.1833E-03    -14.5780E-03     2.58604E-03     22.7720E+06     19.1022E+06    -144.549E+06     19.5233E+06    -144.519E+06     22.3208E+06    -1.87889E+06         21.9033
             629     1.97170E-03     34.7663E-03         6.62113        -2.89907        -2.93848        -2.90488         6.61470        -2.92625     152.995E-03     29.1736E-03    -14.4680E-03    -14.7052E-03    -14.6176E-03     29.1524E-03    -14.5344E-03     1.91150E-03     25.3698E+06     18.5038E+06    -140.171E+06     18.4699E+06    -140.137E+06     25.3698E+06    -1.83382E+06         21.8647
             630     986.001E-06     34.7635E-03         6.65635     719.921E-03        -6.59903        -6.58479         6.64211     719.921E-03    -217.378E-03     28.8859E-03    -14.0795E-03    -14.8065E-03    -14.5598E-03     28.8742E-03    -14.3146E-03     1.19742E-03     20.3123E+06     14.5184E+06    -140.763E+06     15.1424E+06    -140.702E+06     19.6273E+06    -2.33120E+06         21.8430
             631     16.7758E-03     34.3633E-03         3.80351    -786.541E-03        -2.18189    -786.422E-03         3.80340        -2.18189    -16.5397E-03     209.001E-03    -14.1639E-03    -194.839E-03    -38.6719E-03     52.8338E-03    -14.1639E-03     393.301E-03     176.620E+06     79.0079E+06    -5.33415E+06    -5.28027E+06     176.566E+06     79.0079E+06     1.21132E+06         52.4923
             632     15.7816E-03     33.9402E-03         4.10947    -993.925E-03        -2.27610    -993.885E-03         4.10943        -2.27610    -6.29205E-03     131.418E-03    -13.8298E-03    -117.591E-03    -26.7818E-03     40.6089E-03    -13.8298E-03     238.772E-03     129.151E+06     12.9545E+06    -22.3356E+06    -7.08234E+06     128.930E+06    -2.07790E+06    -1.02747E+06         48.8291
             633     14.7952E-03     33.8505E-03         4.40829        -1.21235        -2.36020        -1.21231         4.40826        -2.36020    -4.79228E-03     42.8209E-03    -13.7286E-03    -29.0943E-03    -13.4027E-03     27.1293E-03    -13.7286E-03     56.1692E-03     54.5536E+06    -7.68851E+06    -55.6918E+06    -4.79189E+06     51.6570E+06    -55.6918E+06    -944.235E+03         44.1894
             634     13.8061E-03     33.8253E-03         4.67489        -1.40826        -2.43664        -1.40823         4.67487        -2.43664     20.6272E-03     29.1060E-03    -13.8076E-03    -15.3001E-03    -13.1024E-03     26.9083E-03    -13.8076E-03     18.5799E-03     994.900E+03    -21.0717E+06    -67.9245E+06    -3.95849E+06    -16.1183E+06    -67.9245E+06     1.30829E+06         39.3147
             635     12.8195E-03     33.8124E-03         4.92560        -1.59132        -2.50929        -1.59127         4.92555        -2.50929    -12.0231E-03     28.4980E-03    -13.9388E-03    -14.5641E-03    -13.5676E-03     27.5015E-03    -13.9388E-03     12.9344E-03    -1.24120E+06    -40.2643E+06    -57.7114E+06    -1.45395E+06    -43.6167E+06    -54.1462E+06     1.46100E+06         34.9180
             636     11.8325E-03     33.8000E-03         5.17925        -1.77687        -2.57846        -1.77682         5.17920        -2.57846    -10.4397E-03     28.5708E-03    -14.0340E-03    -14.5458E-03    -13.7708E-03     27.7959E-03    -14.0340E-03     11.4020E-03     2.72514E+06    -44.5782E+06    -69.9189E+06     2.70009E+06    -69.8939E+06    -44.5782E+06     372.919E+03         31.2277
             637     10.8462E-03     33.7900E-03         5.42346        -1.96292        -2.64320        -1.96288         5.42341        -2.64320    -821.851E-06     28.7770E-03    -14.1457E-03    -14.6374E-03    -14.0400E-03     28.1796E-03    -14.1457E-03     10.0983E-03     6.40832E+06    -30.2871E+06    -92.1302E+06     6.37804E+06    -92.0999E+06    -30.2871E+06     898.547E+03         28.3356
             638     9.85977E-03     33.7801E-03         5.64642        -2.13217        -2.70305        -2.13212         5.64637        -2.70305     3.06540E-03     28.7635E-03    -14.2447E-03    -14.5212E-03    -14.0212E-03     28.2635E-03    -14.2447E-03     9.23310E-03     9.43741E+06    -16.5799E+06    -103.592E+06     9.39147E+06    -103.547E+06    -16.5799E+06     1.31536E+06         26.2415
             639     8.87324E-03     33.7718E-03         5.84913        -2.28125        -2.75846        -2.28119         5.84907        -2.75846    -9.07271E-03     28.7611E-03    -14.3219E-03    -14.4400E-03    -14.0395E-03     28.3606E-03    -14.3219E-03     8.25987E-03     12.1419E+06    -9.14633E+06    -113.423E+06     12.1075E+06    -113.389E+06    -9.14633E+06     315.423E+03         24.6745
             640     7.88695E-03     33.7642E-03         6.04598        -2.42951        -2.80900        -2.42946         6.04593        -2.80900    -12.4710E-03     28.9200E-03    -14.3802E-03    -14.5390E-03    -14.2009E-03     28.6060E-03    -14.4043E-03     7.33439E-03     13.5057E+06    -1.84457E+06    -124.347E+06     13.4938E+06    -124.335E+06    -1.84457E+06    -336.278E+03         23.4640
             641     6.90088E-03     33.7573E-03         6.22204        -2.56000        -2.85399        -2.55968         6.22171        -2.85399    -60.2816E-03     29.0509E-03    -14.4493E-03    -14.6006E-03    -14.3445E-03     28.8189E-03    -14.4734E-03     6.31719E-03     13.8587E+06     4.51197E+06    -132.815E+06     13.8522E+06    -132.808E+06     4.51197E+06    -221.823E+03         22.6376
             642     5.91498E-03     33.7511E-03         6.37243        -2.67245        -2.89369        -2.67205         6.37202        -2.89369    -31.5049E-03     29.1482E-03    -14.5223E-03    -14.6259E-03    -14.4677E-03     28.9900E-03    -14.5223E-03     5.22358E-03     15.0762E+06     8.33993E+06    -142.256E+06     15.0488E+06    -142.229E+06     8.33993E+06    -330.149E+03         22.1976
             643     4.92913E-03     33.7468E-03         6.49898        -2.76827        -2.92838        -2.76790         6.49861        -2.92838    -13.2021E-03     29.1941E-03    -14.5531E-03    -14.6412E-03    -14.5277E-03     29.0806E-03    -14.5531E-03     4.44969E-03     17.2696E+06     11.0600E+06    -147.624E+06     17.2419E+06    -147.597E+06     11.0600E+06    -641.955E+03         22.0307
             644     3.94323E-03     33.7422E-03         6.60996        -2.85640        -2.95733        -2.85552         6.60909        -2.95733     50.9526E-03     29.2220E-03    -14.5809E-03    -14.6410E-03    -14.5613E-03     29.1423E-03    -14.5809E-03     3.69876E-03     18.3906E+06     15.1152E+06    -146.594E+06     18.1126E+06    -146.580E+06     15.3784E+06    -1.01808E+06         21.9581
             645     2.95739E-03     33.7394E-03         6.69795        -2.92529        -2.97982        -2.92230         6.69496        -2.97982    -103.640E-03     29.3087E-03    -14.5816E-03    -14.7265E-03    -14.6816E-03     29.2638E-03    -14.5816E-03     2.77165E-03     20.1773E+06     17.1441E+06    -144.878E+06     17.5676E+06    -144.850E+06     19.7262E+06    -1.43614E+06         21.9008
             646     1.97203E-03     33.7367E-03         6.77649        -2.97374        -3.00726        -2.97090         6.76216        -2.99577     271.064E-03     29.2660E-03    -14.4803E-03    -14.7854E-03    -14.7620E-03     29.2425E-03    -14.4803E-03     1.98317E-03     22.9857E+06     14.9861E+06    -141.805E+06     14.9299E+06    -141.749E+06     22.9857E+06    -2.41933E+06         21.8591
             647     986.720E-06     33.7354E-03         6.83404     503.253E-03        -6.53854        -6.50585         6.80135     503.253E-03    -346.553E-03     28.6642E-03    -14.1160E-03    -14.5478E-03    -14.2837E-03     28.6545E-03    -14.3704E-03     1.14374E-03     16.2929E+06     9.91807E+06    -144.953E+06     10.5528E+06    -144.903E+06     15.6079E+06    -2.64955E+06         21.8349
             648     16.7639E-03     33.3245E-03         3.85774    -793.070E-03        -2.21298    -792.961E-03         3.85763        -2.21298    -16.1952E-03     207.784E-03    -14.2980E-03    -193.488E-03    -38.7834E-03     53.0788E-03    -14.2980E-03     390.529E-03     177.803E+06     87.3867E+06    -5.48856E+06    -5.41962E+06     177.734E+06     87.3867E+06    -879.483E+03         52.3948
             649     15.7860E-03     32.9169E-03         4.15384        -1.00224        -2.30222        -1.00219         4.15379        -2.30222    -12.0529E-03     131.798E-03    -13.8666E-03    -117.933E-03    -27.6252E-03     41.4904E-03    -13.8666E-03     239.503E-03     129.125E+06     13.7370E+06    -23.8712E+06    -6.20372E+06     128.820E+06    -3.62505E+06    -169.855E+03         48.7662
             650     14.7931E-03     32.8231E-03         4.44108        -1.21422        -2.38462        -1.21418         4.44104        -2.38462    -13.9543E-03     44.0903E-03    -13.7454E-03    -30.3464E-03    -13.0657E-03     26.8097E-03    -13.7454E-03     59.3755E-03     50.0821E+06    -9.02812E+06    -60.8138E+06    -7.25454E+06     48.3085E+06    -60.8138E+06     1.12606E+06         44.1573
             651     13.8066E-03     32.7984E-03         4.71930        -1.41997        -2.46149        -1.41995         4.71928        -2.46149     20.0723E-03     29.7106E-03    -13.8506E-03    -15.8621E-03    -13.4049E-03     27.2533E-03    -13.8506E-03     19.8461E-03     521.046E+03    -19.9164E+06    -67.5342E+06    -3.61373E+06    -15.7816E+06    -67.5342E+06     2.32686E+06         39.3038
             652     12.8189E-03     32.7839E-03         4.97945        -1.61676        -2.53428        -1.61673         4.97942        -2.53428     4.03554E-03     28.5546E-03    -13.9882E-03    -14.5718E-03    -13.5758E-03     27.5586E-03    -13.9882E-03     12.9130E-03     1.79117E+06    -36.8146E+06    -55.7117E+06     1.65194E+06    -42.3783E+06    -50.0087E+06     1.33816E+06         34.9267
             653     11.8322E-03     32.7725E-03         5.22519        -1.79423        -2.60351        -1.79421         5.22517        -2.60351    -4.25872E-03     28.6823E-03    -14.0788E-03    -14.6124E-03    -13.8380E-03     27.9079E-03    -14.0788E-03     11.4635E-03     5.04421E+06    -42.2887E+06    -70.6550E+06     4.98701E+06    -70.5978E+06    -42.2887E+06     1.08792E+06         31.2536
             654     10.8457E-03     32.7610E-03         5.46545        -1.96972        -2.66921        -1.96966         5.46539        -2.66921    -12.1788E-03     28.8738E-03    -14.1946E-03    -14.6850E-03    -14.0898E-03     28.2786E-03    -14.1946E-03     10.0655E-03     7.68135E+06    -27.4244E+06    -93.1707E+06     7.61731E+06    -93.1067E+06    -27.4244E+06     1.51166E+06         28.3683
             655     9.85954E-03     32.7524E-03         5.70061        -2.14927        -2.73021        -2.14919         5.70054        -2.73021    -4.18520E-03     28.8178E-03    -14.2941E-03    -14.5258E-03    -14.0715E-03     28.3635E-03    -14.2941E-03     8.82076E-03     9.51756E+06    -12.9293E+06    -102.517E+06     9.45049E+06    -102.450E+06    -12.9293E+06     1.60035E+06         26.2706
             656     8.87306E-03     32.7433E-03         5.91916        -2.31606        -2.78549        -2.31602         5.91912        -2.78549     1.70981E-03     28.8677E-03    -14.3526E-03    -14.5154E-03    -14.1355E-03     28.4877E-03    -14.3526E-03     8.06485E-03     10.2336E+06    -8.42585E+06    -112.569E+06     10.1837E+06    -112.519E+06    -8.42585E+06     849.718E+03         24.6970
             657     7.88700E-03     32.7357E-03         6.11479        -2.46474        -2.83484        -2.46462         6.11466        -2.83484     23.4853E-03     29.0827E-03    -14.4170E-03    -14.6653E-03    -14.3735E-03     28.7909E-03    -14.4170E-03     7.10068E-03     11.5209E+06    -2.03914E+06    -124.760E+06     11.5143E+06    -124.753E+06    -2.03914E+06     54.7855E+03         23.4796
             658     6.90120E-03     32.7285E-03         6.28276        -2.59092        -2.87867        -2.59046         6.28230        -2.87867    -42.3025E-03     29.0678E-03    -14.4610E-03    -14.6062E-03    -14.3839E-03     28.8488E-03    -14.4644E-03     6.15379E-03     13.7284E+06     3.56307E+06    -132.448E+06     13.7218E+06    -132.441E+06     3.56307E+06    -54.8949E+03         22.6460
             659     5.91499E-03     32.7228E-03         6.42148        -2.69302        -2.91818        -2.69226         6.42072        -2.91818    -578.556E-06     29.0656E-03    -14.5151E-03    -14.5501E-03    -14.3889E-03     28.9078E-03    -14.5184E-03     5.21167E-03     15.1864E+06     7.62401E+06    -142.161E+06     15.1627E+06    -142.137E+06     7.62401E+06    -489.923E+03         22.2007
             660     4.92899E-03     32.7177E-03         6.53924        -2.77570        -2.95511        -2.77481         6.53835        -2.95511    -16.6798E-03     29.1943E-03    -14.5498E-03    -14.6444E-03    -14.5349E-03     29.0849E-03    -14.5498E-03     4.35771E-03     15.6012E+06     8.82534E+06    -147.483E+06     15.5806E+06    -147.463E+06     8.82534E+06    -620.268E+03         22.0328
             661     3.94320E-03     32.7137E-03         6.65393        -2.85548        -2.99023        -2.85403         6.65248        -2.99023     41.5487E-03     29.2435E-03    -14.5715E-03    -14.6725E-03    -14.5993E-03     29.1703E-03    -14.5715E-03     3.55151E-03     16.7964E+06     12.5624E+06    -146.026E+06     16.0397E+06    -146.014E+06     13.3074E+06    -929.201E+03         21.9598
             662     2.95744E-03     32.7103E-03         6.77318        -2.94744        -3.02033        -2.94214         6.76788        -3.02033    -153.664E-03     29.2160E-03    -14.5166E-03    -14.6998E-03    -14.5817E-03     29.1712E-03    -14.5899E-03     2.77850E-03     18.7843E+06     16.0729E+06    -145.188E+06     16.0544E+06    -145.170E+06     18.7843E+06    -1.27522E+06         21.8994
             663     1.97168E-03     32.7077E-03         6.88618        -3.01735        -3.06282        -3.02340         6.86614        -3.03674     270.482E-03     29.1625E-03    -14.4598E-03    -14.7026E-03    -14.5682E-03     29.1366E-03    -14.5683E-03     2.09179E-03     19.5659E+06     13.9708E+06    -143.158E+06     13.9286E+06    -143.116E+06     19.5659E+06    -1.11791E+06         21.8566
             664     985.678E-06     32.7070E-03         6.94909     332.063E-03        -6.46825        -6.41317         6.89401     332.063E-03    -571.130E-03     29.0055E-03    -14.3401E-03    -14.6650E-03    -14.5409E-03     28.9966E-03    -14.4554E-03     1.00202E-03     12.6551E+06     8.55003E+06    -147.076E+06     8.48020E+06    -147.006E+06     12.6551E+06    -2.18399E+06         21.8381
             665     16.7695E-03     32.2874E-03         3.89568    -814.368E-03        -2.22671    -814.341E-03         3.89566        -2.22671     15.0431E-03     208.470E-03    -14.3958E-03    -194.079E-03    -36.3516E-03     50.7434E-03    -14.3958E-03     392.871E-03     174.995E+06     79.8811E+06    -7.51154E+06    -7.45849E+06     174.942E+06     79.8811E+06    -2.46745E+06         52.2991
             666     15.7770E-03     31.8914E-03         4.18442        -1.02388        -2.30970        -1.02382         4.18436        -2.30970    -4.69398E-03     131.107E-03    -14.0662E-03    -117.044E-03    -27.5646E-03     41.6276E-03    -14.0662E-03     237.519E-03     127.383E+06     7.35072E+06    -24.0151E+06    -11.4230E+06     127.245E+06    -5.10355E+06     435.414E+03         48.6954
             667     14.7915E-03     31.7954E-03         4.44831        -1.21205        -2.38905        -1.21199         4.44825        -2.38905    -6.03863E-03     45.8254E-03    -13.8884E-03    -31.9365E-03    -14.6735E-03     28.5624E-03    -13.8884E-03     61.0047E-03     49.5705E+06    -10.5375E+06    -60.3466E+06    -10.1887E+06     49.2218E+06    -60.3466E+06     1.52837E+06         44.1194
             668     13.8045E-03     31.7695E-03         4.71712        -1.41261        -2.46574        -1.41258         4.71710        -2.46574     21.7178E-03     30.3794E-03    -13.9037E-03    -16.4752E-03    -14.1082E-03     28.0125E-03    -13.9037E-03     19.7741E-03    -866.869E+03    -18.8751E+06    -70.4457E+06    -3.93614E+06    -15.8059E+06    -70.4457E+06      52.872E+03         39.2926
             669     12.8188E-03     31.7565E-03         4.99099        -1.62055        -2.53859        -1.62054         4.99098        -2.53859     3.49878E-03     28.9064E-03    -14.0210E-03    -14.8888E-03    -13.9140E-03     27.9317E-03    -14.0210E-03     12.8831E-03     1.88553E+06    -35.9760E+06    -56.8477E+06     1.57616E+06    -42.3225E+06    -50.1918E+06     1.50826E+06         34.9369
             670     11.8319E-03     31.7440E-03         5.25235        -1.81190        -2.60698        -1.81187         5.25232        -2.60698     9.94693E-03     28.8510E-03    -14.1008E-03    -14.7577E-03    -14.0021E-03     28.0953E-03    -14.1008E-03     11.3467E-03     4.68302E+06    -41.3262E+06    -70.7813E+06     4.51278E+06    -70.6111E+06    -41.3262E+06     2.41193E+06         31.2825
             671     10.8456E-03     31.7330E-03         5.48775        -1.98157        -2.67141        -1.98146         5.48765        -2.67141    -17.9117E-03     28.8724E-03    -14.2075E-03    -14.6715E-03    -14.1123E-03     28.3132E-03    -14.2075E-03     9.76313E-03     6.93457E+06    -27.1227E+06    -93.6542E+06     6.86862E+06    -93.5882E+06    -27.1227E+06     2.00655E+06         28.4042
             672     9.85931E-03     31.7236E-03         5.70503        -2.14134        -2.73225        -2.14123         5.70493        -2.73225    -13.5004E-03     28.9232E-03    -14.3038E-03    -14.6219E-03    -14.2069E-03     28.5082E-03    -14.3038E-03     8.43937E-03     9.06149E+06    -11.5129E+06    -102.482E+06     8.99394E+06    -102.414E+06    -11.5129E+06     2.07161E+06         26.3020
             673     8.87327E-03     31.7155E-03         5.92154        -2.30302        -2.78872        -2.30297         5.92148        -2.78872     5.10234E-03     28.9642E-03    -14.3350E-03    -14.6293E-03    -14.2729E-03     28.6078E-03    -14.3350E-03     7.84509E-03     10.7212E+06    -8.51537E+06    -110.983E+06     10.6505E+06    -110.912E+06    -8.51537E+06     1.86955E+06         24.7205
             674     7.88719E-03     31.7066E-03         6.12244        -2.45894        -2.83945        -2.45864         6.12214        -2.83945     54.9172E-03     28.9772E-03    -14.3872E-03    -14.5896E-03    -14.2964E-03     28.6840E-03    -14.3872E-03     7.09289E-03     11.8988E+06    -4.09583E+06    -124.927E+06     11.8668E+06    -124.895E+06    -4.09583E+06     392.138E+03         23.4954
             675     6.90114E-03     31.7004E-03         6.29168        -2.59056        -2.88425        -2.58997         6.29109        -2.88425    -5.68171E-03     29.0109E-03    -14.4382E-03    -14.5730E-03    -14.3538E-03     28.7950E-03    -14.4415E-03     6.11064E-03     12.4573E+06     1.52993E+06    -132.309E+06     12.4428E+06    -132.294E+06     1.52993E+06    -95.8993E+03         22.6543
             676     5.91508E-03     31.6941E-03         6.43545        -2.69837        -2.92415        -2.69738         6.43445        -2.92415     38.0356E-03     29.0924E-03    -14.4943E-03    -14.5987E-03    -14.4351E-03     28.9322E-03    -14.4977E-03     5.25272E-03     13.1930E+06     6.89048E+06    -141.826E+06     13.1740E+06    -141.807E+06     6.89048E+06     35.7308E+03         22.2036
             677     4.92924E-03     31.6891E-03         6.56698        -2.79435        -2.95970        -2.79309         6.56572        -2.95970     8.95149E-03     29.1699E-03    -14.5271E-03    -14.6431E-03    -14.5362E-03     29.0630E-03    -14.5271E-03     4.30273E-03     14.5857E+06     9.91443E+06    -147.160E+06     14.5748E+06    -147.149E+06     9.91443E+06    -509.503E+03         22.0338
             678     3.94343E-03     31.6848E-03         6.68715        -2.88095        -2.99022        -2.87902         6.68522        -2.99022     57.7129E-03     29.1698E-03    -14.5327E-03    -14.6369E-03    -14.5629E-03     29.0988E-03    -14.5356E-03     3.50268E-03     16.6309E+06     12.2599E+06    -146.011E+06     16.1444E+06    -146.006E+06     12.7416E+06    -802.939E+03         21.9604
             679     2.95770E-03     31.6815E-03         6.78828        -2.95840        -3.01472        -2.95077         6.78064        -3.01472    -188.659E-03     29.0525E-03    -14.4414E-03    -14.6107E-03    -14.4296E-03     29.0115E-03    -14.5815E-03     2.62607E-03     19.4512E+06     15.0168E+06    -145.823E+06     15.9062E+06    -145.811E+06     18.5495E+06    -859.535E+03         21.9001
             680     1.97132E-03     31.6795E-03         6.90139        -3.00662        -3.07633        -3.03520         6.87565        -3.02200     273.510E-03     29.0389E-03    -14.3786E-03    -14.6599E-03    -14.3553E-03     29.0156E-03    -14.6599E-03     2.00242E-03     19.4015E+06     12.9810E+06    -143.673E+06     12.9653E+06    -143.657E+06     19.4015E+06    -156.137E+03         21.8595
             681     985.692E-06     31.6771E-03         6.94058     230.624E-03        -6.34931        -6.26755         6.85881     230.624E-03    -798.548E-03     29.3345E-03    -14.4683E-03    -14.8660E-03    -14.6047E-03     29.3235E-03    -14.7185E-03     1.21647E-03     12.6991E+06     7.61235E+06    -147.447E+06     8.82008E+06    -147.405E+06     11.4492E+06    -323.716E+03         21.8470
             682     16.7585E-03     31.2572E-03         3.89485    -817.189E-03        -2.22265    -817.144E-03         3.89481        -2.22265     14.0830E-03     211.848E-03    -14.5413E-03    -197.314E-03    -35.7178E-03     50.2513E-03    -14.5413E-03     399.734E-03     174.426E+06     76.8597E+06    -7.86786E+06    -7.84094E+06     174.399E+06     76.8597E+06     605.630E+03         52.2001
             683     15.7751E-03     30.8606E-03         4.17360        -1.01599        -2.29919        -1.01595         4.17356        -2.29919     10.4229E-03     129.530E-03    -14.2397E-03    -115.298E-03    -28.8388E-03     43.0707E-03    -14.2397E-03     232.818E-03     126.447E+06     4.90612E+06    -22.3977E+06    -13.6488E+06     126.423E+06    -3.81871E+06    -1.28232E+06         48.6244
             684     14.7897E-03     30.7654E-03         4.45145        -1.22122        -2.37480        -1.22117         4.45141        -2.37480     12.3091E-03     45.0773E-03    -13.9853E-03    -31.0924E-03    -15.7856E-03     29.7705E-03    -13.9853E-03     57.5366E-03     51.5550E+06    -10.7503E+06    -54.5549E+06    -10.3883E+06     51.1930E+06    -54.5549E+06    -1.17175E+06         44.0849
             685     13.8050E-03     30.7408E-03         4.71234        -1.41836        -2.44915        -1.41832         4.71230        -2.44915     25.6534E-03     30.2183E-03    -13.9308E-03    -16.2862E-03    -14.3093E-03     28.2415E-03    -13.9308E-03     18.0416E-03    -2.73811E+06    -21.1738E+06    -70.7707E+06    -6.12790E+06    -17.7840E+06    -70.7707E+06    -16.4872E+03         39.2836
             686     12.8180E-03     30.7280E-03         4.96371        -1.60607        -2.52074        -1.60605         4.96369        -2.52074    -5.47245E-03     29.0622E-03    -14.0212E-03    -15.0438E-03    -14.2025E-03     28.2209E-03    -14.0212E-03     12.0440E-03    -2.92777E+06    -38.3192E+06    -58.8084E+06    -3.27541E+06    -43.9436E+06    -52.8364E+06     1.54908E+06         34.9481
             687     11.8323E-03     30.7153E-03         5.21805        -1.79381        -2.58871        -1.79373         5.21798        -2.58871     19.2658E-03     28.9459E-03    -14.0808E-03    -14.8722E-03    -14.2091E-03     28.2828E-03    -14.0808E-03     10.6338E-03     948.581E+03    -42.5930E+06    -70.0909E+06     757.768E+03    -69.9001E+06    -42.5930E+06     2.50027E+06         31.3125
             688     10.8460E-03     30.7049E-03         5.46359        -1.97785        -2.65220        -1.97775         5.46349        -2.65220     9.43876E-03     28.7457E-03    -14.1590E-03    -14.5938E-03    -14.0906E-03     28.2424E-03    -14.1590E-03     9.27529E-03     5.04649E+06    -31.2448E+06    -93.2513E+06     4.96166E+06    -93.1665E+06    -31.2448E+06     2.08525E+06         28.4412
             689     9.85966E-03     30.6951E-03         5.68222        -2.13916        -2.71120        -2.13907         5.68214        -2.71120     8.79363E-03     28.8494E-03    -14.2599E-03    -14.5927E-03    -14.1797E-03     28.4364E-03    -14.2599E-03     8.40536E-03     7.76892E+06    -14.7207E+06    -103.086E+06     7.72599E+06    -103.043E+06    -14.7207E+06     1.58052E+06         26.3339
             690     8.87383E-03     30.6867E-03         5.87287        -2.27430        -2.76692        -2.27416         5.87274        -2.76692    -4.66767E-03     28.9252E-03    -14.2983E-03    -14.6265E-03    -14.2853E-03     28.5841E-03    -14.2983E-03     7.67218E-03     10.5322E+06    -9.03742E+06    -110.020E+06     10.4874E+06    -109.975E+06    -9.03742E+06     1.99023E+06         24.7440
             691     7.88749E-03     30.6787E-03         6.05883        -2.41207        -2.81953        -2.41169         6.05844        -2.81953     37.5583E-03     28.8598E-03    -14.3524E-03    -14.5069E-03    -14.2226E-03     28.5755E-03    -14.3524E-03     6.97871E-03     12.7614E+06    -3.78208E+06    -123.393E+06     12.7106E+06    -123.342E+06    -3.78208E+06     1.64734E+06         23.5105
             692     6.90112E-03     30.6716E-03         6.24862        -2.56202        -2.86661        -2.56121         6.24781        -2.86661    -21.7197E-03     28.9593E-03    -14.4193E-03    -14.5409E-03    -14.3314E-03     28.7498E-03    -14.4193E-03     6.00130E-03     12.9157E+06     3.05398E+06    -133.043E+06     12.8841E+06    -133.011E+06     3.05398E+06     1.20538E+06         22.6608
             693     5.91541E-03     30.6655E-03         6.42073        -2.69755        -2.90567        -2.69646         6.41964        -2.90567     9.83889E-03     29.0868E-03    -14.4612E-03    -14.6266E-03    -14.4726E-03     28.9328E-03    -14.4612E-03     5.16283E-03     12.7783E+06     7.44006E+06    -140.770E+06     12.7620E+06    -140.753E+06     7.44006E+06     580.430E+03         22.2033
             694     4.92948E-03     30.6605E-03         6.54812        -2.79396        -2.93743        -2.79232         6.54647        -2.93743    -35.7349E-03     29.0918E-03    -14.4765E-03    -14.6159E-03    -14.5057E-03     28.9817E-03    -14.4765E-03     4.36267E-03     13.7060E+06     9.26212E+06    -146.390E+06     13.6734E+06    -146.357E+06     9.26212E+06    -1.19887E+06         22.0302
             695     3.94360E-03     30.6561E-03         6.66311        -2.88161        -2.96232        -2.87798         6.65948        -2.96232     78.5370E-03     29.0266E-03    -14.4655E-03    -14.5605E-03    -14.4649E-03     28.9575E-03    -14.4920E-03     3.42439E-03     15.5931E+06     11.5169E+06    -147.171E+06     15.1188E+06    -147.145E+06     11.9648E+06    -1.45973E+06         21.9572
             696     2.95744E-03     30.6531E-03         6.74945        -2.95361        -2.97872        -2.94280         6.73865        -2.97872    -181.537E-03     28.9656E-03    -14.4180E-03    -14.5465E-03    -14.3808E-03     28.9284E-03    -14.5465E-03     2.50067E-03     19.0427E+06     15.3145E+06    -146.365E+06     16.2112E+06    -146.360E+06     18.1409E+06    -540.129E+03         21.9004
             697     1.97178E-03     30.6506E-03         6.81553        -2.98321        -3.01885        -2.97278         6.77481        -2.98855     389.753E-03     29.0420E-03    -14.4011E-03    -14.6407E-03    -14.4061E-03     29.0183E-03    -14.6120E-03     2.02592E-03     21.2728E+06     13.0280E+06    -143.761E+06     13.0054E+06    -143.738E+06     21.2728E+06     561.658E+03         21.8615
             698     985.371E-06     30.6487E-03         6.93120     38.6890E-03        -6.14526        -6.02213         6.80852     38.2403E-03    -904.025E-03     29.1639E-03    -14.4565E-03    -14.7070E-03    -14.4789E-03     29.1507E-03    -14.6715E-03     1.40419E-03     13.8136E+06     5.55636E+06    -148.142E+06     6.78045E+06    -148.117E+06     12.5637E+06     1.33216E+06         21.8449
             699     16.7583E-03     30.2223E-03         3.86604    -800.392E-03        -2.19984    -800.357E-03         3.86600        -2.19984     7.85384E-03     212.678E-03    -14.5875E-03    -198.100E-03    -37.8280E-03     52.4059E-03    -14.5875E-03     400.469E-03     177.110E+06     85.8400E+06    -7.28446E+06    -7.25689E+06     177.082E+06     85.8400E+06     1.39709E+06         52.1011
             700     15.7768E-03     29.8282E-03         4.13161    -998.798E-03        -2.26943    -998.755E-03         4.13157        -2.26943     4.40054E-03     126.263E-03    -14.1762E-03    -112.094E-03    -28.3674E-03     42.5367E-03    -14.1762E-03     226.520E-03     128.476E+06     15.0078E+06    -24.7204E+06    -9.15554E+06     128.446E+06    -528.003E+03    -1.42991E+06         48.5624
             701     14.7928E-03     29.7363E-03         4.40725        -1.21098        -2.34098        -1.21093         4.40721        -2.34098     6.83358E-03     43.7274E-03    -13.8943E-03    -29.8334E-03    -15.0745E-03     28.9686E-03    -13.8943E-03     55.2667E-03     49.9150E+06    -9.50227E+06    -59.4876E+06    -7.41837E+06     47.8311E+06    -59.4876E+06    -658.322E+03         44.0550
             702     13.8049E-03     29.7124E-03         4.67413        -1.41327        -2.41268        -1.41324         4.67409        -2.41268     26.0016E-03     29.9043E-03    -13.8839E-03    -16.0203E-03    -14.1943E-03     28.0782E-03    -13.8839E-03     17.2633E-03    -2.91966E+06    -21.8147E+06    -71.7137E+06    -5.69246E+06    -19.0419E+06    -71.7137E+06     1.65694E+06         39.2749
             703     12.8194E-03     29.6991E-03         4.91543        -1.59376        -2.48182        -1.59374         4.91541        -2.48182     7.92041E-03     28.9640E-03    -13.9802E-03    -14.9864E-03    -14.2094E-03     28.1870E-03    -13.9802E-03     11.5744E-03    -2.15038E+06    -37.0915E+06    -60.0929E+06    -2.37713E+06    -44.4167E+06    -52.5409E+06     1.90408E+06         34.9589
             704     11.8331E-03     29.6868E-03         5.14736        -1.75977        -2.54827        -1.75972         5.14730        -2.54827     19.9710E-03     28.7976E-03    -14.0434E-03    -14.7617E-03    -14.1375E-03     28.1734E-03    -14.0434E-03     10.3191E-03     1.86882E+06    -41.4959E+06    -70.6296E+06     1.74311E+06    -70.5039E+06    -41.4959E+06     1.81050E+06         31.3412
             705     10.8468E-03     29.6768E-03         5.38482        -1.93602        -2.61130        -1.93597         5.38477        -2.61130     11.0561E-03     28.6656E-03    -14.1134E-03    -14.5604E-03    -14.0466E-03     28.1518E-03    -14.1134E-03     9.36148E-03     4.81149E+06    -31.8973E+06    -92.4507E+06     4.70285E+06    -92.3420E+06    -31.8973E+06     2.04326E+06         28.4765
             706     9.86024E-03     29.6669E-03         5.61153        -2.11107        -2.66945        -2.11099         5.61145        -2.66945     21.7888E-03     28.7345E-03    -14.2133E-03    -14.5252E-03    -14.0792E-03     28.2885E-03    -14.2133E-03     8.72163E-03     6.97697E+06    -16.6887E+06    -103.531E+06     6.90701E+06    -103.461E+06    -16.6887E+06     2.03942E+06         26.3646
             707     8.87374E-03     29.6580E-03         5.80109        -2.24977        -2.72324        -2.24965         5.80097        -2.72324     19.1302E-03     28.8524E-03    -14.2635E-03    -14.5894E-03    -14.2443E-03     28.5073E-03    -14.2635E-03     7.69074E-03     8.36450E+06    -9.67475E+06    -110.219E+06     8.31888E+06    -110.173E+06    -9.67475E+06     2.07031E+06         24.7664
             708     7.88786E-03     29.6507E-03         5.97830        -2.38070        -2.77373        -2.38037         5.97797        -2.77373     55.0421E-03     28.8894E-03    -14.3051E-03    -14.5845E-03    -14.3152E-03     28.6201E-03    -14.3051E-03     6.81276E-03     9.62185E+06    -4.57826E+06    -121.617E+06     9.57435E+06    -121.569E+06    -4.57826E+06     2.14242E+06         23.5242
             709     6.90188E-03     29.6430E-03         6.16396        -2.52428        -2.81902        -2.52342         6.16310        -2.81902    -33.8641E-03     28.8575E-03    -14.3549E-03    -14.5028E-03    -14.2906E-03     28.6453E-03    -14.3549E-03     6.03220E-03     11.8832E+06     1.57453E+06    -132.312E+06     11.8592E+06    -132.288E+06     1.57453E+06     1.49504E+06         22.6646
             710     5.91561E-03     29.6371E-03         6.33295        -2.65503        -2.85665        -2.65390         6.33183        -2.85665    -2.60707E-03     28.9382E-03    -14.3990E-03    -14.5397E-03    -14.3840E-03     28.7825E-03    -14.3990E-03     5.16889E-03     14.6319E+06     7.13610E+06    -139.306E+06     14.6134E+06    -139.287E+06     7.13610E+06     56.2291E+03         22.1986
             711     4.92974E-03     29.6317E-03         6.45384        -2.74700        -2.88743        -2.74531         6.45215        -2.88743    -46.3245E-03     28.9893E-03    -14.4306E-03    -14.5594E-03    -14.4501E-03     28.8800E-03    -14.4306E-03     4.33794E-03     16.2267E+06     10.8926E+06    -146.369E+06     16.1840E+06    -146.326E+06     10.8926E+06    -1.05679E+06         22.0222
             712     3.94381E-03     29.6277E-03         6.56271        -2.83068        -2.91230        -2.82506         6.55709        -2.91230     144.134E-03     28.9499E-03    -14.4276E-03    -14.5227E-03    -14.4322E-03     28.8830E-03    -14.4512E-03     3.35619E-03     16.3485E+06     13.0551E+06    -148.907E+06     15.8707E+06    -148.877E+06     13.5029E+06    -1.12884E+06         21.9497
             713     2.95793E-03     29.6245E-03         6.64375        -2.89713        -2.93164        -2.87998         6.62660        -2.93164    -196.916E-03     28.9498E-03    -14.4124E-03    -14.5373E-03    -14.4409E-03     28.9151E-03    -14.4742E-03     2.42661E-03     18.7329E+06     14.6461E+06    -146.884E+06     15.1066E+06    -146.879E+06     18.2670E+06    -763.363E+03         21.8945
             714     1.97157E-03     29.6222E-03         6.72297        -2.93863        -2.97154        -2.89954         6.66597        -2.95364     440.315E-03     28.9691E-03    -14.4134E-03    -14.5557E-03    -14.4947E-03     28.9462E-03    -14.4516E-03     1.99303E-03     20.9624E+06     12.8252E+06    -144.783E+06     12.8037E+06    -144.762E+06     20.9624E+06     598.677E+03         21.8545
             715     986.653E-06     29.6192E-03         6.91959    -140.610E-03        -5.95327        -5.79220         6.75897    -141.059E-03    -983.717E-03     28.7304E-03    -14.2385E-03    -14.4922E-03    -14.2949E-03     28.7120E-03    -14.4173E-03     1.73326E-03     14.8965E+06     7.46530E+06    -146.778E+06     8.76598E+06    -146.753E+06     13.5707E+06     1.50347E+06         21.8316
             716     16.7699E-03     29.1930E-03         3.82851    -795.745E-03        -2.15888    -795.728E-03         3.82849        -2.15888     13.3318E-03     212.894E-03    -14.3702E-03    -198.531E-03    -39.0969E-03     53.4600E-03    -14.3702E-03     400.829E-03     177.788E+06     87.3530E+06    -5.45260E+06    -5.44539E+06     177.781E+06     87.3530E+06     115.710E+03         52.0042
             717     15.7825E-03     28.8013E-03         4.07616    -991.290E-03        -2.22010    -991.252E-03         4.07612        -2.22010    -13.7890E-03     126.751E-03    -13.9862E-03    -112.770E-03    -25.9369E-03     39.9183E-03    -13.9862E-03     229.194E-03     128.647E+06     14.6748E+06    -23.8344E+06    -6.88864E+06     128.578E+06    -2.20251E+06     501.231E+03         48.4991
             718     14.7916E-03     28.7077E-03         4.31671        -1.17854        -2.28690        -1.17846         4.31663        -2.28690     1.71502E-03     43.6955E-03    -13.7892E-03    -29.9055E-03    -14.6484E-03     28.4385E-03    -13.7892E-03     55.8264E-03     46.9442E+06    -9.70180E+06    -65.1991E+06    -7.76450E+06     45.0069E+06    -65.1991E+06     1.92051E+06         44.0181
             719     13.8066E-03     28.6838E-03         4.57238        -1.37072        -2.35668        -1.37066         4.57232        -2.35668     33.4321E-03     29.6122E-03    -13.8046E-03    -15.8073E-03    -13.9824E-03     27.7873E-03    -13.8046E-03     17.2415E-03    -2.83937E+06    -20.3449E+06    -74.7548E+06    -4.04934E+06    -19.1349E+06    -74.7548E+06     2.19255E+06         39.2608
             720     12.8197E-03     28.6704E-03         4.83009        -1.56517        -2.42394        -1.56514         4.83006        -2.42394     27.2849E-03     28.7035E-03    -13.9353E-03    -14.7706E-03    -13.9523E-03     27.8852E-03    -13.9353E-03     11.8014E-03     1.08608E+06    -35.5012E+06    -60.2875E+06     877.364E+03    -44.2888E+06    -51.2912E+06     2.28195E+06         34.9650
             721     11.8332E-03     28.6589E-03         5.05824        -1.73540        -2.48754        -1.73533         5.05817        -2.48754     37.7515E-03     28.6745E-03    -14.0140E-03    -14.6675E-03    -14.0305E-03     28.0375E-03    -14.0140E-03     10.3862E-03     3.82808E+06    -40.3299E+06    -71.4270E+06     3.67423E+06    -71.2732E+06    -40.3299E+06     2.46872E+06         31.3662
             722     10.8466E-03     28.6486E-03         5.26640        -1.88631        -2.54826        -1.88625         5.26634        -2.54826     30.8261E-03     28.6989E-03    -14.0862E-03    -14.6193E-03    -14.1125E-03     28.1921E-03    -14.0862E-03     9.30445E-03     5.59318E+06    -30.0316E+06    -92.0028E+06     5.45551E+06    -91.8651E+06    -30.0316E+06     2.63074E+06         28.5095
             723     9.86046E-03     28.6388E-03         5.47723        -2.04312        -2.60580        -2.04308         5.47719        -2.60580     23.2475E-03     28.7537E-03    -14.1693E-03    -14.5878E-03    -14.1607E-03     28.3265E-03    -14.1693E-03     8.53315E-03     7.71630E+06    -15.9914E+06    -103.155E+06     7.61369E+06    -103.053E+06    -15.9914E+06     2.85987E+06         26.3936
             724     8.87428E-03     28.6298E-03         5.69082        -2.20663        -2.65839        -2.20657         5.69076        -2.65839     13.9061E-03     28.7678E-03    -14.2160E-03    -14.5529E-03    -14.2264E-03     28.4413E-03    -14.2160E-03     7.47222E-03     9.66844E+06    -8.06007E+06    -110.290E+06     9.59011E+06    -110.211E+06    -8.06007E+06     2.66857E+06         24.7869
             725     7.88829E-03     28.6217E-03         5.88657        -2.35873        -2.70452        -2.35844         5.88627        -2.70452     66.7639E-03     28.8134E-03    -14.2528E-03    -14.5606E-03    -14.3074E-03     28.5601E-03    -14.2528E-03     6.59399E-03     11.1672E+06    -2.62301E+06    -121.077E+06     11.1197E+06    -121.030E+06    -2.62301E+06     2.21726E+06         23.5359
             726     6.90216E-03     28.6153E-03         6.03680        -2.47069        -2.74525        -2.47000         6.03611        -2.74525    -15.6503E-03     28.7885E-03    -14.2809E-03    -14.5068E-03    -14.2993E-03     28.5810E-03    -14.2809E-03     5.97391E-03     13.0861E+06     1.37761E+06    -130.122E+06     13.0612E+06    -130.097E+06     1.37761E+06     861.815E+03         22.6665
             727     5.91608E-03     28.6084E-03         6.16252        -2.56171        -2.78293        -2.56055         6.16136        -2.78293     29.7060E-03     28.7740E-03    -14.3194E-03    -14.4547E-03    -14.2974E-03     28.6167E-03    -14.3194E-03     5.16870E-03     14.8882E+06     5.86327E+06     -138.56E+06     14.8693E+06    -138.541E+06     5.86327E+06    -845.913E+03         22.1916
             728     4.93002E-03     28.6036E-03         6.29673        -2.66770        -2.81605        -2.66587         6.29490        -2.81605    -26.3200E-03     28.8257E-03    -14.3676E-03    -14.4589E-03    -14.3565E-03     28.7234E-03    -14.3676E-03     4.18432E-03     16.3826E+06     11.7473E+06    -146.584E+06     16.3613E+06    -146.563E+06     11.7473E+06    -865.172E+03         22.0115
             729     3.94390E-03     28.5990E-03         6.41461        -2.76178        -2.84144        -2.75573         6.40856        -2.84144     162.976E-03     28.8829E-03    -14.3910E-03    -14.4922E-03    -14.4292E-03     28.8199E-03    -14.3910E-03     3.25325E-03     17.7293E+06     14.9805E+06    -149.276E+06     16.4735E+06    -149.266E+06     16.2256E+06    -421.381E+03         21.9382
             730     2.95796E-03     28.5962E-03         6.49946        -2.82188        -2.86378        -2.80148         6.47724        -2.86195    -264.855E-03     28.9116E-03    -14.3651E-03    -14.5469E-03    -14.5135E-03     28.8782E-03    -14.3651E-03     2.38492E-03     19.0972E+06     13.4702E+06    -148.331E+06     13.9308E+06    -148.326E+06     18.6313E+06     80.9219E+03         21.8809
             731     1.97272E-03     28.5932E-03         6.62695        -2.86124        -2.94547        -2.86326         6.55812        -2.87462     427.316E-03     28.6840E-03    -14.2380E-03    -14.4462E-03    -14.3698E-03     28.6624E-03    -14.2929E-03     1.92005E-03     19.8079E+06     11.2029E+06    -145.722E+06     11.1911E+06    -145.710E+06     19.8079E+06    -193.069E+03         21.8391
             732     985.849E-06     28.5917E-03         6.77681    -225.738E-03        -5.72827        -5.52684         6.57538    -225.738E-03        -1.11304     28.3978E-03    -14.0545E-03    -14.3441E-03    -14.0699E-03     28.3740E-03    -14.3047E-03     1.99624E-03     14.8412E+06     7.97207E+06    -144.585E+06     10.0796E+06    -144.512E+06     12.6611E+06     1.40458E+06         21.8177
             733     16.7735E-03     28.1756E-03         3.76037    -797.802E-03        -2.10094    -797.745E-03         3.76031        -2.10094     13.5562E-03     213.016E-03    -14.2247E-03    -198.800E-03    -38.5095E-03     52.7247E-03    -14.2247E-03     401.557E-03     176.720E+06     80.8444E+06    -5.80447E+06    -5.75625E+06     176.672E+06     80.8444E+06     872.667E+03         51.8942
             734     15.7766E-03     27.7711E-03         3.98261    -975.656E-03        -2.15318    -975.601E-03         3.98255        -2.15318    -3.18408E-03     129.350E-03    -13.9052E-03    -115.453E-03    -26.4407E-03     40.3380E-03    -13.9052E-03     234.096E-03     126.785E+06     9.13419E+06    -23.6218E+06    -9.88155E+06     126.655E+06    -4.47539E+06     1.70223E+06         48.4194
             735     14.7950E-03     27.6795E-03         4.21009        -1.14703        -2.21445        -1.14694         4.21000        -2.21445     10.2785E-03     43.0168E-03    -13.7303E-03    -29.2862E-03    -14.8256E-03     28.5562E-03    -13.7303E-03     54.4451E-03     46.4058E+06    -10.8668E+06    -63.3325E+06    -9.48902E+06     45.0280E+06    -63.3325E+06     1.32661E+06         43.9709
             736     13.8068E-03     27.6557E-03         4.44832        -1.32247        -2.28127        -1.32237         4.44821        -2.28127     47.8527E-03     29.1669E-03    -13.7403E-03    -15.4257E-03    -13.6029E-03     27.3441E-03    -13.7403E-03     16.9343E-03    -4.23331E+06    -20.4364E+06    -73.8814E+06    -5.41403E+06    -19.2557E+06    -73.8814E+06     2.27524E+06         39.2391
             737     12.8200E-03     27.6426E-03         4.69264        -1.50761        -2.34652        -1.50756         4.69259        -2.34652     27.6824E-03     28.3571E-03    -13.8859E-03    -14.4740E-03    -13.7143E-03     27.5973E-03    -13.8859E-03     11.2809E-03    -1.38624E+06    -36.7363E+06    -59.6439E+06    -1.66099E+06    -44.7802E+06    -51.3252E+06     2.87641E+06         34.9649
             738     11.8335E-03     27.6304E-03         4.92235        -1.68437        -2.40794        -1.68428         4.92226        -2.40794     38.8040E-03     28.5236E-03    -13.9643E-03    -14.5667E-03    -13.9778E-03     27.9348E-03    -13.9643E-03     9.95421E-03     2.04342E+06    -41.3266E+06    -71.3527E+06     1.84345E+06    -71.1528E+06    -41.3266E+06     3.01973E+06         31.3869
             739     10.8476E-03     27.6205E-03         5.13053        -1.83988        -2.46562        -1.83978         5.13043        -2.46562     49.0289E-03     28.6929E-03    -14.0301E-03    -14.6698E-03    -14.2054E-03     28.2285E-03    -14.0301E-03     8.92552E-03     5.85891E+06    -30.2390E+06    -91.6607E+06     5.71054E+06    -91.5123E+06    -30.2390E+06     3.05661E+06         28.5399
             740     9.86131E-03     27.6103E-03         5.33242        -1.99183        -2.51957        -1.99177         5.33236        -2.51957     32.9728E-03     28.7371E-03    -14.0948E-03    -14.6451E-03    -14.2369E-03     28.3289E-03    -14.0948E-03     8.36002E-03     9.29947E+06    -16.5812E+06    -102.366E+06     9.18874E+06    -102.255E+06    -16.5812E+06     2.80753E+06         26.4202
             741     8.87534E-03     27.6016E-03         5.53501        -2.14691        -2.56852        -2.14685         5.53496        -2.56852     5.17121E-03     28.6362E-03    -14.1361E-03    -14.5005E-03    -14.1799E-03     28.3156E-03    -14.1361E-03     7.38735E-03     12.2980E+06    -8.09608E+06    -110.228E+06     12.2305E+06    -110.160E+06    -8.09608E+06     2.35041E+06         24.8050
             742     7.88876E-03     27.5937E-03         5.71064        -2.27775        -2.61207        -2.27745         5.71035        -2.61207     56.5771E-03     28.6460E-03    -14.1840E-03    -14.4626E-03    -14.2072E-03     28.3906E-03    -14.1840E-03     6.60350E-03     14.7269E+06    -520.286E+03    -120.832E+06     14.6845E+06    -120.790E+06    -520.286E+03     2.27276E+06         23.5453
             743     6.90280E-03     27.5866E-03         5.84539        -2.37655        -2.65199        -2.37590         5.84474        -2.65199    -9.94675E-03     28.7632E-03    -14.2129E-03    -14.5504E-03    -14.3518E-03     28.5646E-03    -14.2129E-03     5.81312E-03     16.4133E+06     5.19301E+06    -128.136E+06     16.3803E+06    -128.103E+06     5.19301E+06     1.29834E+06         22.6671
             744     5.91671E-03     27.5806E-03         5.97916        -2.48047        -2.68854        -2.47906         5.97775        -2.68854     55.9992E-03     28.6682E-03    -14.2355E-03    -14.4326E-03    -14.2919E-03     28.5275E-03    -14.2355E-03     4.89539E-03     16.3880E+06      8.9384E+06    -137.398E+06     16.3772E+06    -137.387E+06      8.9384E+06     146.714E+03         22.1848
             745     4.93047E-03     27.5749E-03         6.11182        -2.58743        -2.71887        -2.58463         6.10902        -2.71887    -40.5771E-03     28.6152E-03    -14.2668E-03    -14.3483E-03    -14.2508E-03     28.5177E-03    -14.2668E-03     4.06205E-03     15.0242E+06     11.7307E+06    -147.319E+06     14.9927E+06    -147.312E+06     11.7545E+06    -152.126E+03         22.0008
             746     3.94453E-03     27.5710E-03         6.21608        -2.66432        -2.74244        -2.65736         6.20912        -2.74244     130.059E-03     28.6969E-03    -14.2751E-03    -14.4212E-03    -14.3608E-03     28.6365E-03    -14.2751E-03     3.19196E-03     15.4686E+06     13.3924E+06    -149.580E+06     14.1860E+06    -149.566E+06     14.6612E+06     353.546E+03         21.9258
             747     2.95867E-03     27.5672E-03         6.32126        -2.72995        -2.77229        -2.71913         6.29754        -2.75940    -277.523E-03     28.6276E-03    -14.2127E-03    -14.4149E-03    -14.3447E-03     28.5934E-03    -14.2486E-03     2.39171E-03     17.3413E+06     12.9974E+06    -148.055E+06     13.2908E+06    -148.037E+06     17.0300E+06     273.119E+03         21.8655
             748     1.97227E-03     27.5654E-03         6.44371        -2.76231        -2.85729        -2.77635         6.36277        -2.76231     494.263E-03     28.4854E-03    -14.0983E-03    -14.3873E-03    -14.2768E-03     28.4656E-03    -14.1891E-03     1.82635E-03     19.4727E+06     10.2392E+06    -145.326E+06     10.2176E+06    -145.304E+06     19.4727E+06    -702.992E+03         21.8225
             749     986.497E-06     27.5636E-03         6.57839    -324.766E-03        -5.44705        -5.19351         6.32484    -324.766E-03        -1.25398     28.1565E-03    -13.9157E-03    -14.2413E-03    -14.1491E-03     28.1358E-03    -13.9871E-03     1.85153E-03     11.5988E+06     2.16604E+06    -147.413E+06     2.95225E+06    -147.345E+06     10.7444E+06     1.18560E+06         21.8031
             750     16.7647E-03     27.1531E-03         3.65277    -783.610E-03        -2.02677    -783.532E-03         3.65269        -2.02677     16.2999E-03     210.930E-03    -14.2205E-03    -196.722E-03    -38.8067E-03     53.0147E-03    -14.2205E-03     397.099E-03     176.242E+06     78.1149E+06    -7.40601E+06    -7.35309E+06     176.189E+06     78.1149E+06     490.020E+03         51.7660
             751     15.7845E-03     26.7390E-03         3.85569    -947.219E-03        -2.07027    -947.144E-03         3.85561        -2.07027     19.4921E-03     129.216E-03    -13.8391E-03    -115.384E-03    -27.7399E-03     41.5716E-03    -13.8391E-03     233.537E-03     125.767E+06     12.2785E+06    -27.5723E+06    -9.47850E+06     125.554E+06    -5.60257E+06     2.26109E+06         48.3271
             752     14.7950E-03     26.6527E-03         4.08330        -1.11828        -2.12543        -1.11815         4.08317        -2.12543     29.2754E-03     42.3803E-03    -13.6382E-03    -28.7411E-03    -14.0840E-03     27.7233E-03    -13.6382E-03     54.1816E-03     46.2047E+06    -9.45322E+06    -65.5097E+06    -7.85884E+06     44.6103E+06    -65.5097E+06     2.53273E+06         43.9133
             753     13.8084E-03     26.6276E-03         4.30927        -1.28492        -2.18768        -1.28476         4.30911        -2.18768     57.4878E-03     29.3036E-03    -13.6749E-03    -15.6277E-03    -13.6329E-03     27.3088E-03    -13.6749E-03     17.6921E-03    -3.20699E+06    -21.6828E+06    -75.0581E+06    -5.25015E+06    -19.6397E+06    -75.0581E+06     3.12331E+06         39.2070
             754     12.8217E-03     26.6148E-03         4.52396        -1.44377        -2.24936        -1.44370         4.52389        -2.24936     33.3080E-03     28.3262E-03    -13.8099E-03    -14.5189E-03    -13.7189E-03     27.5262E-03    -13.8099E-03     11.5601E-03    -791.080E+03    -38.1905E+06    -60.1839E+06    -1.10786E+06    -44.6673E+06    -53.3903E+06     2.81849E+06         34.9575
             755     11.8347E-03     26.6025E-03         4.75099        -1.61368        -2.30804        -1.61361         4.75092        -2.30804     32.4841E-03     28.4514E-03    -13.8849E-03    -14.5745E-03    -13.9457E-03     27.8226E-03    -13.8849E-03     10.2618E-03     3.62487E+06    -43.0164E+06    -70.8060E+06     3.46913E+06    -70.6503E+06    -43.0164E+06     2.36525E+06         31.4025
             756     10.8481E-03     26.5919E-03         4.97055        -1.78331        -2.36212        -1.78322         4.97046        -2.36212     15.2402E-03     28.5810E-03    -13.9559E-03    -14.6331E-03    -14.1559E-03     28.1038E-03    -13.9559E-03     9.02565E-03     7.75425E+06    -30.8891E+06    -92.0351E+06     7.64187E+06    -91.9227E+06    -30.8891E+06     2.89683E+06         28.5660
             757     9.86208E-03     26.5824E-03         5.16469        -1.93452        -2.41117        -1.93440         5.16457        -2.41117     24.4029E-03     28.6154E-03    -14.0270E-03    -14.5921E-03    -14.1727E-03     28.1960E-03    -14.0270E-03     8.46717E-03     10.3173E+06    -15.8989E+06    -101.591E+06     10.2087E+06    -101.482E+06    -15.8989E+06     2.90134E+06         26.4431
             758     8.87557E-03     26.5731E-03         5.33276        -2.06067        -2.45593        -2.06059         5.33267        -2.45593     21.3808E-03     28.5668E-03    -14.0611E-03    -14.5067E-03    -14.1809E-03     28.2411E-03    -14.0611E-03     7.42568E-03     12.7729E+06    -8.27295E+06    -109.690E+06     12.7159E+06    -109.633E+06    -8.27295E+06     1.80685E+06         24.8196
             759     7.88961E-03     26.5661E-03         5.47407        -2.16281        -2.49791        -2.16254         5.47380        -2.49791     53.1839E-03     28.5819E-03    -14.1043E-03    -14.4783E-03    -14.2219E-03     28.3255E-03    -14.1043E-03     6.62441E-03     15.1661E+06     249.630E+03    -120.288E+06     15.1222E+06    -120.244E+06     249.630E+03     1.92670E+06         23.5516
             760     6.90323E-03     26.5579E-03         5.61837        -2.27331        -2.53689        -2.27239         5.61745        -2.53689    -37.4427E-03     28.6113E-03    -14.1332E-03    -14.4783E-03    -14.2749E-03     28.4079E-03    -14.1332E-03     5.85946E-03     15.8636E+06     7.11703E+06    -127.748E+06     15.8253E+06    -127.709E+06     7.11703E+06     2.17893E+06         22.6652
             761     5.91754E-03     26.5525E-03         5.76828        -2.39769        -2.56948        -2.39571         5.76630        -2.56948     46.3889E-03     28.5846E-03    -14.1484E-03    -14.4365E-03    -14.3017E-03     28.4498E-03    -14.1484E-03     4.79152E-03     15.9458E+06     11.8512E+06    -136.538E+06     15.9107E+06    -136.503E+06     11.8512E+06     1.88372E+06         22.1770
             762     4.93123E-03     26.5473E-03         5.87532        -2.47944        -2.59523        -2.47569         5.87157        -2.59523    -54.4841E-03     28.4850E-03    -14.1477E-03    -14.3375E-03    -14.2392E-03     28.3866E-03    -14.1477E-03     4.08436E-03     15.0189E+06     12.4131E+06    -147.485E+06     14.9623E+06    -147.453E+06     12.4369E+06     1.81296E+06         21.9900
             763     3.94495E-03     26.5424E-03         5.96075        -2.53861        -2.61772        -2.52879         5.95092        -2.61772     151.669E-03     28.3752E-03    -14.1164E-03    -14.2579E-03    -14.1729E-03     28.3131E-03    -14.1393E-03     3.19570E-03     14.3242E+06     12.5252E+06    -149.893E+06     14.1612E+06    -149.878E+06     12.6736E+06     1.34165E+06         21.9132
             764     2.95870E-03     26.5395E-03         6.06040        -2.60578        -2.64723        -2.58960         6.03314        -2.63616    -234.691E-03     28.2667E-03    -14.0668E-03    -14.1995E-03    -14.0815E-03     28.2338E-03    -14.1519E-03     2.32628E-03     16.4501E+06     13.1205E+06    -146.151E+06     13.4144E+06    -146.134E+06     16.1387E+06     217.393E+03         21.8515
             765     1.97249E-03     26.5373E-03         6.17663        -2.64448        -2.72229        -2.62717         6.08612        -2.64910     531.419E-03     28.3681E-03    -14.0538E-03    -14.3143E-03    -14.2277E-03     28.3437E-03    -14.1161E-03     2.01781E-03     17.4344E+06     8.36204E+06    -145.774E+06     8.34265E+06    -145.755E+06     17.4344E+06     372.423E+03         21.8073
             766     986.799E-06     26.5351E-03         6.40955    -439.091E-03        -5.16792        -4.87161         6.11325    -439.091E-03        -1.36186     28.0051E-03    -13.8074E-03    -14.1975E-03    -14.1802E-03     27.9877E-03    -13.8074E-03     1.40444E-03     10.3957E+06     761.506E+03    -149.161E+06     2.02021E+06    -149.097E+06     9.07252E+06    -653.600E+03         21.7860
             767     16.7722E-03     26.1163E-03         3.53012    -751.042E-03        -1.93675    -750.998E-03         3.53008        -1.93675     13.0273E-03     209.256E-03    -14.1752E-03    -195.094E-03    -38.9748E-03     53.1365E-03    -14.1752E-03     393.664E-03     174.986E+06     80.2488E+06    -7.52911E+06    -7.52091E+06     174.977E+06     80.2488E+06    -669.041E+03         51.6259
             768     15.7837E-03     25.7161E-03         3.72208    -910.142E-03        -1.97150    -910.097E-03         3.72204        -1.97150     15.3848E-03     128.863E-03    -13.7892E-03    -115.080E-03    -26.4429E-03     40.2256E-03    -13.7892E-03     234.022E-03     123.411E+06     12.8836E+06    -28.3580E+06    -9.32109E+06     123.237E+06    -5.97937E+06     2.86286E+06         48.2223
             769     14.7947E-03     25.6238E-03         3.93290        -1.08058        -2.02007        -1.08046         3.93278        -2.02007     39.7049E-03     43.7161E-03    -13.6325E-03    -30.0810E-03    -13.7163E-03     27.3514E-03    -13.6325E-03     57.3160E-03     46.3795E+06    -10.2122E+06    -66.0592E+06    -8.04723E+06     44.2145E+06    -66.0592E+06     5.36689E+06         43.8388
             770     13.8083E-03     25.5999E-03         4.14667        -1.24508        -2.07684        -1.24495         4.14653        -2.07684     43.6288E-03     29.8210E-03    -13.6786E-03    -16.1413E-03    -14.0677E-03     27.7473E-03    -13.6786E-03     18.4489E-03    -1.10221E+06    -21.6865E+06    -73.3949E+06    -4.75823E+06    -18.0305E+06    -73.3949E+06     3.73373E+06         39.1601
             771     12.8212E-03     25.5868E-03         4.34526        -1.39040        -2.13328        -1.39035         4.34521        -2.13328     16.7559E-03     28.6556E-03    -13.7766E-03    -14.8816E-03    -13.9871E-03     27.7612E-03    -13.7766E-03     12.3263E-03    -248.729E+03    -39.4225E+06    -59.0877E+06    -516.741E+03    -44.0953E+06    -54.1469E+06     2.16649E+06         34.9392
             772     11.8352E-03     25.5744E-03         4.55137        -1.54794        -2.18700        -1.54787         4.55130        -2.18700     29.1961E-03     28.5783E-03    -13.8259E-03    -14.7597E-03    -14.0834E-03     27.9020E-03    -13.8259E-03     10.6989E-03     3.25153E+06    -45.7634E+06    -71.2469E+06     3.11478E+06    -71.1102E+06    -45.7634E+06     2.54984E+06         31.4102
             773     10.8490E-03     25.5640E-03         4.75239        -1.70278        -2.23650        -1.70268         4.75229        -2.23650    -3.26118E-03     28.5389E-03    -13.8941E-03    -14.6526E-03    -14.1414E-03     28.0278E-03    -13.8941E-03     9.32808E-03     6.19602E+06    -32.7808E+06    -92.4867E+06     6.07424E+06    -92.3650E+06    -32.7808E+06     3.21674E+06         28.5867
             774     9.86250E-03     25.5541E-03         4.92055        -1.82801        -2.28218        -1.82778         4.92033        -2.28218     18.2535E-03     28.5518E-03    -13.9660E-03    -14.5906E-03    -14.1778E-03     28.1390E-03    -13.9660E-03     8.38293E-03     8.86141E+06    -15.9842E+06    -100.387E+06     8.74937E+06    -100.275E+06    -15.9842E+06     3.15273E+06         26.4613
             775     8.87643E-03     25.5454E-03         5.06963        -1.93740        -2.32527        -1.93722         5.06945        -2.32527     33.3440E-03     28.5197E-03    -13.9851E-03    -14.5359E-03    -14.2154E-03     28.1992E-03    -13.9851E-03     7.38094E-03     10.1116E+06    -9.58764E+06    -108.678E+06     10.0352E+06    -108.602E+06    -9.58764E+06     2.33930E+06         24.8298
             776     7.89022E-03     25.5373E-03         5.22651        -2.05376        -2.36525        -2.05311         5.22587        -2.36525     79.7784E-03     28.5054E-03    -14.0106E-03    -14.4953E-03    -14.2438E-03     28.2538E-03    -14.0106E-03     6.54574E-03     11.6160E+06    -2.48090E+06    -121.008E+06     11.5593E+06    -120.952E+06    -2.48090E+06     2.10483E+06         23.5535
             777     6.90422E-03     25.5306E-03         5.38245        -2.17427        -2.39998        -2.17307         5.38125        -2.39998     2.53411E-03     28.3741E-03    -14.0291E-03    -14.3451E-03    -14.1456E-03     28.1746E-03    -14.0291E-03     5.81167E-03     12.5275E+06     3.71325E+06    -127.993E+06     12.4582E+06    -127.924E+06     3.71325E+06     2.78664E+06         22.6588
             778     5.91748E-03     25.5239E-03         5.50296        -2.26933        -2.42879        -2.26695         5.50058        -2.42879     79.5842E-03     28.3959E-03    -14.0407E-03    -14.3560E-03    -14.2165E-03     28.2564E-03    -14.0407E-03     4.83821E-03     12.5248E+06     7.98601E+06    -136.034E+06     12.4567E+06    -135.966E+06     7.98601E+06     2.72091E+06         22.1644
             779     4.93189E-03     25.5194E-03         5.59078        -2.33677        -2.45368        -2.33218         5.58620        -2.45368    -42.1877E-03     28.3862E-03    -14.0349E-03    -14.3521E-03    -14.2578E-03     28.2920E-03    -14.0349E-03     4.00082E-03     13.6049E+06     11.1314E+06    -146.802E+06     13.5531E+06    -146.750E+06     11.1314E+06     2.60009E+06         21.9758
             780     3.94561E-03     25.5148E-03         5.67211        -2.40030        -2.47623        -2.38806         5.65988        -2.47623     181.751E-03     28.0984E-03    -13.9654E-03    -14.1322E-03    -14.0137E-03     28.0380E-03    -14.0235E-03     3.12889E-03     14.0640E+06     11.8199E+06    -148.929E+06     13.3008E+06    -148.891E+06     12.5450E+06     2.13577E+06         21.8985
             781     2.95905E-03     25.5120E-03         5.75755        -2.45922        -2.49860        -2.42772         5.72605        -2.49860    -210.332E-03     28.0185E-03    -13.9545E-03    -14.0637E-03    -13.9476E-03     27.9868E-03    -14.0388E-03     2.28964E-03     14.5741E+06     12.1938E+06    -145.647E+06     12.1767E+06    -145.630E+06     14.5741E+06     1.36055E+06         21.8360
             782     1.97257E-03     25.5094E-03         5.91239        -2.50507        -2.60122        -2.48915         5.81224        -2.51700     553.105E-03     28.0996E-03    -13.9619E-03    -14.1374E-03    -14.0386E-03     28.0736E-03    -14.0347E-03     2.08675E-03     15.8275E+06     9.70975E+06    -145.452E+06      9.6924E+06    -145.435E+06     15.8275E+06     758.937E+03         21.7913
             783     986.326E-06     25.5069E-03         6.20126    -508.442E-03        -4.88517        -4.53876         5.85485    -508.442E-03        -1.47253     27.9436E-03    -13.8426E-03    -14.1005E-03    -13.9648E-03     27.9298E-03    -13.9645E-03     896.400E-06     12.3182E+06     5.96314E+06    -147.529E+06     7.20998E+06    -147.453E+06     10.9950E+06    -1.93543E+06         21.7695
             784     16.7721E-03     25.0875E-03         3.39536    -720.456E-03        -1.83152    -720.360E-03         3.39527        -1.83152     17.2060E-03     208.712E-03    -14.1726E-03    -194.554E-03    -37.3464E-03     51.5042E-03    -14.1726E-03     393.345E-03     172.843E+06     81.3451E+06    -6.50677E+06    -6.49264E+06     172.829E+06     81.3451E+06     714.817E+03         51.4742
             785     15.7818E-03     24.6922E-03         3.56659    -875.952E-03        -1.85682    -875.943E-03         3.56658        -1.85682    -88.7811E-06     130.135E-03    -13.8685E-03    -116.277E-03    -25.9043E-03     39.7620E-03    -13.8685E-03     236.554E-03     121.455E+06     10.4030E+06    -25.9875E+06    -11.2913E+06     121.310E+06    -4.14827E+06     3.46778E+06         48.1009
             786     14.7932E-03     24.5945E-03         3.75130        -1.02881        -1.89807        -1.02873         3.75122        -1.89807     32.7226E-03     44.9600E-03    -13.7066E-03    -31.2545E-03    -14.7743E-03     28.4798E-03    -13.7066E-03     58.5673E-03     46.3508E+06    -11.9497E+06    -63.2776E+06    -10.0412E+06     44.4423E+06    -63.2776E+06     4.80325E+06         43.7473
             787     13.8074E-03     24.5717E-03         3.95360        -1.18457        -1.94937        -1.18443         3.95346        -1.94937     45.4887E-03     30.0220E-03    -13.7075E-03    -16.3143E-03    -14.4334E-03     28.1410E-03    -13.7075E-03     17.6654E-03    -541.856E+03    -19.8382E+06    -69.6464E+06    -4.58849E+06    -15.7915E+06    -69.6464E+06     4.09490E+06         39.0995
             788     12.8219E-03     24.5581E-03         4.14961        -1.33410        -2.00024        -1.33397         4.14948        -2.00024     30.9887E-03     28.9317E-03    -13.7819E-03    -15.1529E-03    -14.3431E-03     28.1219E-03    -13.7819E-03     11.8065E-03    -1.12006E+06    -37.4549E+06    -57.0716E+06    -1.75291E+06    -43.4072E+06    -50.4864E+06     3.41477E+06         34.9097
             789     11.8355E-03     24.5464E-03         4.32222        -1.46459        -2.04856        -1.46420         4.32184        -2.04856     67.9402E-03     28.6897E-03    -13.7903E-03    -14.9069E-03    -14.2920E-03     28.0748E-03    -13.7903E-03     10.2462E-03     662.672E+03    -45.9444E+06    -72.1844E+06     495.311E+03    -72.0171E+06    -45.9444E+06     3.22395E+06         31.4101
             790     10.8491E-03     24.5359E-03         4.48530        -1.58898        -2.09436        -1.58862         4.48494        -2.09436     56.6531E-03     28.5863E-03    -13.8304E-03    -14.7637E-03    -14.2885E-03     28.1111E-03    -13.8304E-03     8.99584E-03     4.55796E+06    -33.8717E+06    -92.2733E+06     4.42497E+06    -92.1403E+06    -33.8717E+06     3.22000E+06         28.6017
             791     9.86325E-03     24.5260E-03         4.64358        -1.70565        -2.13754        -1.70535         4.64328        -2.13754     59.7434E-03     28.4890E-03    -13.8897E-03    -14.6032E-03    -14.2268E-03     28.1126E-03    -13.8897E-03     7.99307E-03     8.02294E+06    -15.9054E+06    -99.6759E+06     7.88877E+06    -99.5418E+06    -15.9054E+06     3.30181E+06         26.4746
             792     8.87702E-03     24.5175E-03         4.79287        -1.81469        -2.17804        -1.81442         4.79260        -2.17804     51.6552E-03     28.3848E-03    -13.9013E-03    -14.4843E-03    -14.1855E-03     28.0860E-03    -13.9013E-03     7.11720E-03     9.45856E+06    -8.74401E+06    -107.759E+06     9.33615E+06    -107.636E+06    -8.74401E+06     3.51528E+06         24.8348
             793     7.89091E-03     24.5093E-03         4.94725        -1.92971        -2.21492        -1.92875         4.94629        -2.21492     108.934E-03     28.3404E-03    -13.9065E-03    -14.4352E-03    -14.1989E-03     28.1041E-03    -13.9065E-03     6.32133E-03     9.89528E+06    -4.98914E+06    -121.846E+06     9.82056E+06    -121.771E+06    -4.98914E+06     2.95602E+06         23.5504
             794     6.90461E-03     24.5026E-03         5.09068        -2.03691        -2.24680        -2.03558         5.08936        -2.24680     44.6154E-03     28.2537E-03    -13.9041E-03    -14.3501E-03    -14.1720E-03     28.0756E-03    -13.9041E-03     5.47417E-03     11.3925E+06     194.543E+03    -127.743E+06     11.3248E+06    -127.675E+06     194.543E+03     2.77023E+06         22.6468
             795     5.91861E-03     24.4965E-03         5.20306        -2.12493        -2.27350        -2.12260         5.20072        -2.27350     99.7193E-03     28.1059E-03    -13.9082E-03    -14.1986E-03    -14.0689E-03     27.9793E-03    -13.9113E-03     4.59230E-03     12.9335E+06     5.67317E+06    -134.718E+06     12.8623E+06    -134.647E+06     5.67317E+06     2.80228E+06         22.1456
             796     4.93202E-03     24.4910E-03         5.29197        -2.19791        -2.29554        -2.19267         5.28672        -2.29554    -51.0736E-03     28.0638E-03    -13.9337E-03    -14.1303E-03    -14.0420E-03     27.9786E-03    -13.9368E-03     3.76632E-03     14.2259E+06     10.6014E+06    -146.472E+06     13.2487E+06    -146.415E+06     11.5220E+06     2.73441E+06         21.9557
             797     3.94590E-03     24.4877E-03         5.36199        -2.25272        -2.31437        -2.24070         5.34997        -2.31437     143.422E-03     27.9937E-03    -13.8969E-03    -14.0962E-03    -14.0068E-03     27.9394E-03    -13.9321E-03     2.98660E-03     15.1075E+06     13.2516E+06    -148.043E+06     13.5312E+06    -147.987E+06     14.7727E+06     2.95562E+06         21.8796
             798     2.95933E-03     24.4843E-03         5.43491        -2.30160        -2.33680        -2.27164         5.40144        -2.33329    -253.478E-03     27.8957E-03    -13.8643E-03    -14.0316E-03    -13.9633E-03     27.8625E-03    -13.8995E-03     2.33963E-03     15.2370E+06     12.3343E+06    -144.435E+06     12.4602E+06    -144.405E+06     15.0820E+06     1.83274E+06         21.8179
             799     1.97321E-03     24.4817E-03         5.57634        -2.34279        -2.44248        -2.32198         5.46315        -2.35011     571.606E-03     27.7588E-03    -13.8221E-03    -13.9365E-03    -13.8649E-03     27.7393E-03    -13.8742E-03     1.74445E-03     16.9157E+06     10.6119E+06    -143.972E+06     10.6027E+06    -143.963E+06     16.9157E+06     210.603E+03         21.7738
             800     986.414E-06     24.4798E-03         5.90243    -557.844E-03        -4.54413        -4.15472         5.51302    -557.844E-03        -1.50496     27.6175E-03    -13.7308E-03    -13.8864E-03    -13.7217E-03     27.6085E-03    -13.8864E-03     914.492E-06     10.8179E+06     5.87885E+06    -148.795E+06     6.07682E+06    -148.780E+06     10.6049E+06    -603.920E+03         21.7516
             801     16.7686E-03     24.0662E-03         3.26150    -716.032E-03        -1.71321    -715.894E-03         3.26136        -1.71321     36.5203E-03     207.860E-03    -14.2940E-03    -193.579E-03    -35.7098E-03     49.9916E-03    -14.2940E-03     392.118E-03     171.267E+06     81.4794E+06    -6.16775E+06    -6.09404E+06     171.194E+06     81.4794E+06     2.85769E+06         51.3160
             802     15.7774E-03     23.6607E-03         3.39971    -851.182E-03        -1.72795    -851.128E-03         3.39965        -1.72795     20.3404E-03     132.128E-03    -13.9899E-03    -118.146E-03    -28.2392E-03     42.2210E-03    -13.9899E-03     238.526E-03     120.748E+06     11.2556E+06    -25.9750E+06    -11.1349E+06     120.580E+06    -3.41636E+06     3.45701E+06         47.9674
             803     14.7944E-03     23.5663E-03         3.55141    -977.490E-03        -1.76098    -977.396E-03         3.55131        -1.76098     36.6673E-03     44.8245E-03    -13.7196E-03    -31.1052E-03    -16.3660E-03     30.0854E-03    -13.7196E-03     56.1339E-03     46.4813E+06    -10.6232E+06    -62.0640E+06    -9.11863E+06     44.9767E+06    -62.0640E+06     3.33821E+06         43.6445
             804     13.8082E-03     23.5424E-03         3.72006        -1.10419        -1.80674        -1.10397         3.71984        -1.80674     64.2949E-03     29.7809E-03    -13.6610E-03    -16.1188E-03    -14.5189E-03     28.1810E-03    -13.6610E-03     16.2085E-03    -416.549E+03    -20.0892E+06    -68.7203E+06    -4.50956E+06    -15.9961E+06    -68.7203E+06     4.24573E+06         39.0288
             805     12.8221E-03     23.5298E-03         3.90279        -1.24816        -1.85284        -1.24795         3.90258        -1.85284     53.3156E-03     28.8306E-03    -13.7322E-03    -15.1014E-03    -14.4436E-03     28.1729E-03    -13.7322E-03     10.6189E-03     339.390E+03    -35.4516E+06    -55.6420E+06    -367.419E+03    -43.0728E+06    -47.3139E+06     4.18499E+06         34.8710
             806     11.8364E-03     23.5181E-03         4.05816        -1.36397        -1.89652        -1.36358         4.05778        -1.89652     69.9373E-03     28.7156E-03    -13.7263E-03    -14.9983E-03    -14.4846E-03     28.2019E-03    -13.7263E-03     9.38758E-03     4.16493E+06    -41.3566E+06    -70.9062E+06     3.93004E+06    -70.6713E+06    -41.3566E+06     3.67725E+06         31.4023
             807     10.8507E-03     23.5075E-03         4.20253        -1.46782        -1.93847        -1.46747         4.20218        -1.93847     66.1394E-03     28.5771E-03    -13.7345E-03    -14.8510E-03    -14.4553E-03     28.1814E-03    -13.7345E-03     8.22505E-03     7.19735E+06    -31.5153E+06    -92.1677E+06     7.07612E+06    -92.0465E+06    -31.5153E+06      3.1429E+06         28.6106
             808     9.86437E-03     23.4982E-03         4.36340        -1.59223        -1.97761        -1.59206         4.36323        -1.97761     51.3145E-03     28.3199E-03    -13.7669E-03    -14.5563E-03    -14.2524E-03     28.0160E-03    -13.7669E-03     7.17320E-03     9.21305E+06    -15.4808E+06    -100.051E+06     9.08114E+06    -99.9195E+06    -15.4808E+06     3.45895E+06         26.4822
             809     8.87822E-03     23.4893E-03         4.50631        -1.70421        -2.01258        -1.70401         4.50612        -2.01258     20.4928E-03     28.1190E-03    -13.7737E-03    -14.3464E-03    -14.1031E-03     27.8757E-03    -13.7737E-03     6.38431E-03     11.2302E+06    -7.21973E+06    -108.089E+06     11.0409E+06    -107.899E+06    -7.21973E+06     4.50345E+06         24.8343
             810     7.89182E-03     23.4819E-03         4.62415        -1.79171        -2.04418        -1.79088         4.62332        -2.04418     81.2580E-03     28.1082E-03    -13.7708E-03    -14.3387E-03    -14.1460E-03     27.9155E-03    -13.7708E-03     5.68611E-03     11.7333E+06    -2.97897E+06    -120.593E+06     11.5848E+06    -120.445E+06    -2.97897E+06     4.16741E+06         23.5417
             811     6.90575E-03     23.4744E-03         4.73410        -1.87547        -2.07300        -1.87374         4.73237        -2.07300    -7.78316E-03     28.0041E-03    -13.7522E-03    -14.2520E-03    -14.1106E-03     27.8628E-03    -13.7522E-03     4.83911E-03     12.1960E+06     1.03958E+06    -126.985E+06     12.1092E+06    -126.899E+06     1.03958E+06     3.31180E+06         22.6295
             812     5.91952E-03     23.4690E-03         4.83690        -1.95833        -2.09803        -1.95560         4.83417        -2.09803     47.8200E-03     27.7372E-03    -13.7464E-03    -13.9911E-03    -13.8868E-03     27.6360E-03    -13.7495E-03     4.09174E-03     13.1323E+06     5.41431E+06    -134.077E+06     13.0484E+06    -133.993E+06     5.41431E+06     3.32190E+06         22.1209
             813     4.93281E-03     23.4642E-03         4.92846        -2.02726        -2.11864        -2.02215         4.92335        -2.11864    -59.1604E-03     27.6223E-03    -13.7703E-03    -13.8520E-03    -13.7652E-03     27.5487E-03    -13.7836E-03     3.45760E-03     14.5481E+06     9.12351E+06    -145.652E+06     13.5729E+06    -145.597E+06     10.0442E+06     2.82926E+06         21.9283
             814     3.94609E-03     23.4598E-03         5.01093        -2.08969        -2.14200        -2.08442         4.99738        -2.13371     162.774E-03     27.7321E-03    -13.7927E-03    -13.9390E-03    -13.8831E-03     27.6864E-03    -13.8028E-03     2.74078E-03     16.7211E+06     12.8001E+06    -147.854E+06     14.1706E+06    -147.824E+06     15.3210E+06     1.85863E+06         21.8536
             815     2.96012E-03     23.4571E-03         5.07965        -2.13295        -2.17502        -2.12878         5.04184        -2.14137    -253.036E-03     27.7278E-03    -13.7606E-03    -13.9673E-03    -13.9362E-03     27.6966E-03    -13.7606E-03     2.26978E-03     18.8508E+06     14.6865E+06    -142.914E+06     14.7921E+06    -142.864E+06     18.6958E+06     1.97002E+06         21.7942
             816     1.97342E-03     23.4541E-03         5.17240        -2.14845        -2.24908        -2.12648         5.04979        -2.14845     549.812E-03     27.4949E-03    -13.6695E-03    -13.8251E-03    -13.8031E-03     27.4786E-03    -13.6751E-03     1.55555E-03     19.4146E+06     11.5637E+06    -142.760E+06     11.5239E+06    -142.720E+06     19.4146E+06     1.81781E+06         21.7516
             817     987.032E-06     23.4533E-03         5.51338    -570.572E-03        -4.15358        -3.73670         5.09650    -570.572E-03        -1.49474     27.1095E-03    -13.4873E-03    -13.6220E-03    -13.5802E-03     27.1014E-03    -13.5210E-03     1.14433E-03     9.15973E+06     3.33948E+06    -148.973E+06     3.69545E+06    -148.950E+06     8.78124E+06     1.54973E+06         21.7285
             818     16.7635E-03     23.0453E-03         3.09261    -700.534E-03        -1.58292    -700.415E-03         3.09249        -1.58292     28.5800E-03     208.580E-03    -14.4296E-03    -194.158E-03    -36.9345E-03     51.3561E-03    -14.4296E-03     392.617E-03     169.424E+06     82.1891E+06    -7.13833E+06    -7.06144E+06     169.347E+06     82.1891E+06     2.86070E+06         51.1584
             819     15.7779E-03     22.6248E-03         3.20234    -812.301E-03        -1.58670    -812.188E-03         3.20223        -1.58670     31.9707E-03     132.051E-03    -14.0006E-03    -118.054E-03    -31.4928E-03     45.4901E-03    -14.0006E-03     236.100E-03     120.781E+06     11.1828E+06    -23.8353E+06    -10.7611E+06     120.494E+06    -1.60346E+06     4.31805E+06         47.8297
             820     14.7957E-03     22.5363E-03         3.33194    -926.972E-03        -1.61143    -926.801E-03         3.33176        -1.61143     39.3366E-03     42.8041E-03    -13.6180E-03    -29.1863E-03    -16.6738E-03     30.2917E-03    -13.6180E-03     50.9852E-03     47.1182E+06    -10.7705E+06    -59.1582E+06    -9.11288E+06     45.4606E+06    -59.1582E+06     3.65839E+06         43.5339
             821     13.8104E-03     22.5144E-03         3.47554        -1.03437        -1.65060        -1.03407         3.47524        -1.65060     71.9109E-03     29.3923E-03    -13.5171E-03    -15.8749E-03    -14.5195E-03     28.0369E-03    -13.5171E-03     14.6650E-03    -628.941E+03    -20.4510E+06    -69.1010E+06    -5.04703E+06    -16.0329E+06    -69.1010E+06     2.90255E+06         38.9478
             822     12.8241E-03     22.5009E-03         3.62103        -1.14237        -1.69132        -1.14219         3.62085        -1.69132     44.7935E-03     28.3931E-03    -13.5716E-03    -14.8266E-03    -14.3345E-03     27.9010E-03    -13.5716E-03     9.13289E-03     1.09924E+06    -36.0895E+06    -56.2855E+06     776.301E+03    -42.9141E+06    -49.1379E+06     2.96802E+06         34.8232
             823     11.8381E-03     22.4897E-03         3.77266        -1.25556        -1.73029        -1.25533         3.77243        -1.73029     49.7848E-03     28.3655E-03    -13.5650E-03    -14.8114E-03    -14.4122E-03     27.9664E-03    -13.5650E-03     8.21861E-03     6.11966E+06    -42.0306E+06    -70.3886E+06     5.87678E+06    -70.1457E+06    -42.0306E+06     3.57213E+06         31.3861
             824     10.8519E-03     22.4793E-03         3.91857        -1.36581        -1.76650        -1.36559         3.91836        -1.76650     47.2848E-03     28.3190E-03    -13.5648E-03    -14.7633E-03    -14.4473E-03     28.0030E-03    -13.5648E-03     7.30488E-03     9.33119E+06    -31.6700E+06    -91.6618E+06     9.16170E+06    -91.4923E+06    -31.6700E+06     3.94632E+06         28.6118
             825     9.86647E-03     22.4701E-03         4.05389        -1.47286        -1.79939        -1.47277         4.05379        -1.79939     34.6062E-03     28.0911E-03    -13.5870E-03    -14.5078E-03    -14.2689E-03     27.8521E-03    -13.5870E-03     6.33117E-03     11.5807E+06    -15.0181E+06    -101.203E+06     11.4085E+06    -101.031E+06    -15.0181E+06     4.24772E+06         26.4829
             826     8.87995E-03     22.4622E-03         4.17711        -1.56743        -1.82869        -1.56724         4.17692        -1.82869    -1.72314E-03     27.8620E-03    -13.5812E-03    -14.2816E-03    -14.0909E-03     27.6713E-03    -13.5812E-03     5.64630E-03     13.1280E+06    -5.39963E+06    -108.453E+06     12.8870E+06    -108.212E+06    -5.39963E+06     5.24421E+06         24.8276
             827     7.89372E-03     22.4539E-03         4.27385        -1.63940        -1.85532        -1.63826         4.27270        -1.85532     77.4498E-03     27.6956E-03    -13.5689E-03    -14.1272E-03    -13.9730E-03     27.5414E-03    -13.5689E-03     5.04655E-03     14.0354E+06      390.44E+03    -118.598E+06     13.7917E+06    -118.354E+06      390.44E+03     5.51945E+06         23.5274
             828     6.90739E-03     22.4473E-03         4.35747        -1.70450        -1.88027        -1.70262         4.35558        -1.88027     14.5707E-03     27.5033E-03    -13.5506E-03    -13.9521E-03    -13.8420E-03     27.3932E-03    -13.5506E-03     4.24938E-03     14.3342E+06     3.74040E+06    -126.300E+06     14.1672E+06    -126.133E+06     3.74040E+06     4.68871E+06         22.6071
             829     5.92050E-03     22.4420E-03         4.44029        -1.76820        -1.90339        -1.76503         4.43712        -1.90339     73.9409E-03     27.3483E-03    -13.5420E-03    -13.8059E-03    -13.7300E-03     27.2723E-03    -13.5420E-03     3.48586E-03     14.1142E+06      6.3431E+06    -134.469E+06     13.9955E+06    -134.350E+06      6.3431E+06     4.11131E+06         22.0918
             830     4.93398E-03     22.4371E-03         4.52080        -1.82614        -1.92444        -1.81985         4.51450        -1.92444    -53.3947E-03     27.2030E-03    -13.5409E-03    -13.6621E-03    -13.5923E-03     27.1484E-03    -13.5561E-03     2.95764E-03     14.7865E+06     9.71142E+06    -143.511E+06     14.7220E+06    -143.446E+06     9.71142E+06     2.94298E+06         21.8962
             831     3.94716E-03     22.4330E-03         4.61832        -1.89420        -1.94934        -1.88525         4.60109        -1.94106     195.437E-03     27.1906E-03    -13.5640E-03    -13.6261E-03    -13.5692E-03     27.1489E-03    -13.5791E-03     2.59428E-03     16.7419E+06     12.1297E+06    -146.243E+06     15.1286E+06    -146.230E+06     13.7299E+06     1.15453E+06         21.8217
             832     2.96016E-03     22.4295E-03         4.71763        -1.93947        -2.00280        -1.95426         4.67564        -1.94601    -203.824E-03     27.2677E-03    -13.5803E-03    -13.6868E-03    -13.6584E-03     27.2426E-03    -13.5835E-03     1.97782E-03     20.1090E+06     13.4827E+06    -144.177E+06     14.3670E+06    -144.128E+06     19.1763E+06     2.03224E+06         21.7635
             833     1.97384E-03     22.4278E-03         4.80712        -1.93871        -2.09215        -1.96062         4.67558        -1.93871     558.149E-03     27.1834E-03    -13.5082E-03    -13.6748E-03    -13.6588E-03     27.1707E-03    -13.5114E-03     1.40236E-03     22.3462E+06     12.0855E+06    -141.220E+06     12.0227E+06    -141.158E+06     22.3462E+06     2.89910E+06         21.7214
             834     987.130E-06     22.4259E-03         5.08332    -519.101E-03        -3.78235        -3.34718         4.64814    -519.101E-03        -1.40593     26.7447E-03    -13.2849E-03    -13.4599E-03    -13.4299E-03     26.7378E-03    -13.3079E-03     862.663E-06     12.3190E+06     5.51264E+06    -145.000E+06     5.63127E+06    -144.953E+06     12.1535E+06     2.56573E+06         21.6984
             835     16.7600E-03     22.0091E-03         2.89044    -659.765E-03        -1.44002    -659.690E-03         2.89036        -1.44002     15.0929E-03     208.996E-03    -14.3651E-03    -194.642E-03    -40.0682E-03     54.4227E-03    -14.3651E-03     392.061E-03     167.778E+06     84.0189E+06    -7.28655E+06    -7.17281E+06     167.664E+06     84.0189E+06     3.18261E+06         51.0043
             836     15.7853E-03     21.5907E-03         2.97752    -757.839E-03        -1.43313    -757.733E-03         2.97742        -1.43313     849.009E-06     129.240E-03    -13.7970E-03    -115.448E-03    -32.2312E-03     46.0233E-03    -13.7970E-03     230.319E-03     121.332E+06     14.7771E+06     -23.038E+06    -10.1260E+06     121.007E+06     2.18997E+06     5.00250E+06         47.6912
             837     14.7995E-03     21.5087E-03         3.09010    -860.298E-03        -1.45003    -860.061E-03         3.08987        -1.45003     22.8912E-03     40.5206E-03    -13.3672E-03    -27.1538E-03    -15.6456E-03     29.0125E-03    -13.3672E-03     47.2696E-03     47.8622E+06    -9.30007E+06    -59.2837E+06    -7.89363E+06     46.4558E+06    -59.2837E+06     3.46747E+06         43.4144
             838     13.8131E-03     21.4845E-03         3.22146    -961.664E-03        -1.48242    -961.389E-03         3.22118        -1.48242     60.0513E-03     28.8104E-03    -13.2910E-03    -15.5202E-03    -14.3381E-03     27.6282E-03    -13.2910E-03     13.2632E-03    -41.1662E+03    -18.9816E+06    -68.4496E+06    -3.84670E+06    -15.1760E+06    -68.4496E+06     2.48423E+06         38.8545
             839     12.8276E-03     21.4738E-03         3.33570        -1.04463        -1.51666        -1.04452         3.33559        -1.51666     35.7950E-03     27.8132E-03    -13.3379E-03    -14.4819E-03    -14.0903E-03     27.4217E-03    -13.3379E-03     8.07106E-03    -231.944E+03    -38.6548E+06    -55.2114E+06    -507.312E+03    -42.8645E+06    -50.7263E+06     2.63418E+06         34.7642
             840     11.8408E-03     21.4612E-03         3.46623        -1.14144        -1.54980        -1.14121         3.46600        -1.54980     57.5688E-03     27.7818E-03    -13.3255E-03    -14.4664E-03    -14.1098E-03     27.4252E-03    -13.3255E-03     7.68363E-03     2.78552E+06    -46.3389E+06    -71.8987E+06     2.60118E+06    -71.7144E+06    -46.3389E+06     2.88531E+06         31.3602
             841     10.8551E-03     21.4518E-03         3.59976        -1.24725        -1.58005        -1.24704         3.59955        -1.58005     47.9333E-03     27.8047E-03    -13.3315E-03    -14.4829E-03    -14.2283E-03     27.5501E-03    -13.3315E-03     6.52457E-03     7.30930E+06    -34.7221E+06    -92.4507E+06     7.04032E+06    -92.1818E+06    -34.7221E+06     4.48504E+06         28.6044
             842     9.86819E-03     21.4424E-03         3.70398        -1.32622        -1.60755        -1.32573         3.70349        -1.60755     68.8260E-03     27.6999E-03    -13.3471E-03    -14.3580E-03    -14.1630E-03     27.5049E-03    -13.3471E-03     5.69464E-03     10.4768E+06    -17.5317E+06    -101.043E+06     10.1822E+06    -100.748E+06    -17.5317E+06     5.33816E+06         26.4758
             843     8.88246E-03     21.4347E-03         3.79996        -1.39809        -1.63314        -1.39755         3.79942        -1.63314     52.0141E-03     27.5310E-03    -13.3249E-03    -14.2071E-03    -14.0497E-03     27.3736E-03    -13.3249E-03     5.10839E-03     12.5282E+06    -7.36668E+06    -108.206E+06     12.2769E+06    -107.954E+06    -7.36668E+06     5.41031E+06         24.8139
             844     7.89592E-03     21.4268E-03         3.89067        -1.46855        -1.65663        -1.46694         3.88906        -1.65663     117.895E-03     27.1748E-03    -13.2999E-03    -13.8753E-03    -13.7503E-03     27.0497E-03    -13.2999E-03     4.49542E-03     15.1735E+06    -496.241E+03    -117.221E+06     14.9097E+06    -116.957E+06    -496.241E+03     5.84447E+06         23.5067
             845     6.90880E-03     21.4208E-03         3.97121        -1.52728        -1.67811        -1.52520         3.96913        -1.67811     55.0850E-03     26.9751E-03    -13.2929E-03    -13.6819E-03    -13.5932E-03     26.8863E-03    -13.2929E-03     3.77687E-03     16.3428E+06     5.60878E+06    -125.505E+06     16.0905E+06    -125.252E+06     5.60878E+06     5.79355E+06         22.5791
             846     5.92239E-03     21.4147E-03         4.05317        -1.59031        -1.69706        -1.58732         4.05018        -1.69706     92.7220E-03     26.8933E-03    -13.2755E-03    -13.6178E-03    -13.5620E-03     26.8375E-03    -13.2755E-03     2.94248E-03     16.2442E+06     8.23192E+06    -133.785E+06     16.0478E+06    -133.589E+06     8.23192E+06     5.16456E+06         22.0584
             847     4.93542E-03     21.4109E-03         4.12162        -1.64366        -1.71290        -1.63627         4.11423        -1.71290    -72.0077E-03     26.7171E-03    -13.2520E-03    -13.4658E-03    -13.4232E-03     26.6796E-03    -13.2570E-03     2.44352E-03     16.5559E+06     9.71283E+06    -140.920E+06     16.4722E+06    -140.837E+06     9.71283E+06     3.44432E+06         21.8615
             848     3.94824E-03     21.4065E-03         4.17355        -1.67896        -1.72816        -1.66035         4.15494        -1.72816     161.309E-03     26.6103E-03    -13.2605E-03    -13.3495E-03    -13.3124E-03     26.5782E-03    -13.2655E-03     2.23278E-03     17.9562E+06     13.1703E+06    -144.910E+06     17.0492E+06    -144.863E+06     14.0309E+06     2.43497E+06         21.7871
             849     2.96135E-03     21.4031E-03         4.25386        -1.72171        -1.76901        -1.70350         4.20902        -1.74236    -211.565E-03     26.5339E-03    -13.2370E-03    -13.2964E-03    -13.2321E-03     26.5183E-03    -13.2857E-03     1.50434E-03     19.2899E+06     13.9284E+06    -144.633E+06     14.8784E+06    -144.593E+06     18.2994E+06     2.07413E+06         21.7278
             850     1.97401E-03     21.4008E-03         4.39199        -1.74749        -1.88786        -1.74829         4.25329        -1.74836     545.826E-03     26.5389E-03    -13.1970E-03    -13.3422E-03    -13.2390E-03     26.5299E-03    -13.2912E-03     1.18668E-03     23.1626E+06     11.2523E+06    -139.835E+06     11.2802E+06    -139.805E+06     23.1047E+06     1.94513E+06         21.6841
             851     987.282E-06     21.3995E-03         4.68667    -506.173E-03        -3.43071        -2.99011         4.24606    -506.173E-03        -1.30592     26.4096E-03    -13.1419E-03    -13.2677E-03    -13.1927E-03     26.4031E-03    -13.2104E-03     410.367E-06     17.2490E+06     8.07565E+06    -141.455E+06     8.38656E+06    -141.409E+06     16.8913E+06     1.04569E+06         21.6614
             852     16.7753E-03     20.9763E-03         2.69506    -629.020E-03        -1.28642    -628.813E-03         2.69486        -1.28642     42.0316E-03     209.835E-03    -14.0843E-03    -195.766E-03    -43.7688E-03     57.8373E-03    -14.0843E-03     392.548E-03     166.868E+06     83.7809E+06    -6.45366E+06    -6.33522E+06     166.750E+06     83.7809E+06     3.56072E+06         50.8463
             853     15.7893E-03     20.5610E-03         2.75671    -713.035E-03        -1.26960    -712.849E-03         2.75652        -1.26960     20.3344E-03     126.513E-03    -13.4352E-03    -113.084E-03    -30.4884E-03     43.9170E-03    -13.4352E-03     226.600E-03     121.515E+06     16.3763E+06    -21.4111E+06    -7.99283E+06     121.386E+06     3.08670E+06     2.91200E+06         47.5436
             854     14.8039E-03     20.4804E-03         2.83735    -794.318E-03        -1.27851    -794.057E-03         2.83709        -1.27851     35.8396E-03     39.3699E-03    -13.0716E-03    -26.2966E-03    -14.5193E-03     27.5927E-03    -13.0716E-03     46.4660E-03     48.6220E+06    -6.90754E+06    -56.2865E+06    -5.54601E+06     47.2605E+06    -56.2865E+06     2.80608E+06         43.2797
             855     13.8177E-03     20.4570E-03         2.93313    -868.605E-03        -1.30417    -868.255E-03         2.93278        -1.30417     61.9898E-03     28.1069E-03    -13.0219E-03    -15.0860E-03    -13.9777E-03     26.9985E-03    -13.0219E-03     12.5320E-03     1.86463E+06    -19.3770E+06    -66.5950E+06    -1.62913E+06    -15.8832E+06    -66.5950E+06     3.67250E+06         38.7452
             856     12.8304E-03     20.4461E-03         3.04680    -956.989E-03        -1.33158    -956.760E-03         3.04657        -1.33158     43.6486E-03     27.1652E-03    -13.0741E-03    -14.0961E-03    -13.7648E-03     26.8339E-03    -13.0741E-03     7.33054E-03     1.69710E+06    -37.5449E+06    -54.2419E+06     1.29157E+06    -42.7077E+06    -48.6736E+06     3.90305E+06         34.6908
             857     11.8441E-03     20.4346E-03         3.14934        -1.03703        -1.35723        -1.03674         3.14905        -1.35723     58.4923E-03     27.2408E-03    -13.0773E-03    -14.1727E-03    -13.8512E-03     26.9192E-03    -13.0773E-03     7.21019E-03     3.17407E+06    -42.4428E+06    -72.6391E+06     2.87390E+06    -72.3389E+06    -42.4428E+06     4.15508E+06         31.3225
             858     10.8572E-03     20.4239E-03         3.23033        -1.09147        -1.38178        -1.09117         3.23003        -1.38178     32.3610E-03     27.2066E-03    -13.0741E-03    -14.1432E-03    -13.9252E-03     26.9885E-03    -13.0741E-03     5.94897E-03     5.49855E+06    -33.7422E+06    -93.9936E+06     5.18495E+06    -93.6800E+06    -33.7422E+06      4.8799E+06         28.5877
             859     9.87143E-03     20.4157E-03         3.31111        -1.14683        -1.40618        -1.14616         3.31044        -1.40618     63.9093E-03     27.1545E-03    -13.0680E-03    -14.0938E-03    -13.9285E-03     26.9892E-03    -13.0680E-03     5.20321E-03     8.59430E+06    -19.6264E+06    -100.024E+06     8.29032E+06    -99.7197E+06    -19.6264E+06     5.38971E+06         26.4607
             860     8.88453E-03     20.4070E-03         3.40358        -1.22380        -1.42900        -1.22314         3.40292        -1.42900     69.9186E-03     26.9788E-03    -13.0376E-03    -13.9432E-03    -13.8150E-03     26.8505E-03    -13.0376E-03     4.54705E-03     11.1853E+06    -10.2262E+06    -108.396E+06     10.9587E+06    -108.169E+06    -10.2262E+06     5.02129E+06         24.7925
             861     7.89810E-03     20.4009E-03         3.50037        -1.30715        -1.44783        -1.30599         3.49921        -1.44783     96.8812E-03     26.7451E-03    -13.0017E-03    -13.7440E-03    -13.6478E-03     26.6490E-03    -13.0017E-03     3.92730E-03     13.3614E+06    -2.82543E+06    -117.325E+06     13.0840E+06    -117.048E+06    -2.82543E+06     5.79332E+06         23.4790
             862     6.91138E-03     20.3940E-03         3.57079        -1.35960        -1.46289        -1.35738         3.56858        -1.46289    -541.538E-06     26.4444E-03    -12.9768E-03    -13.4684E-03    -13.3992E-03     26.3753E-03    -12.9768E-03     3.28525E-03     15.5023E+06     4.41355E+06    -124.719E+06     15.1987E+06    -124.415E+06     4.41355E+06     6.28729E+06         22.5450
             863     5.92411E-03     20.3888E-03         3.61734        -1.39309        -1.47649        -1.38946         3.61371        -1.47649     55.9472E-03     26.2617E-03    -12.9485E-03    -13.3140E-03    -13.2700E-03     26.2177E-03    -12.9485E-03     2.61788E-03     17.4937E+06     8.37281E+06    -131.019E+06     17.2721E+06    -130.798E+06     8.37281E+06     5.51924E+06         22.0196
             864     4.93705E-03     20.3846E-03         3.67370        -1.43670        -1.48860        -1.42995         3.66694        -1.48860    -49.8193E-03     26.2829E-03    -12.9003E-03    -13.3837E-03    -13.3553E-03     26.2545E-03    -12.9003E-03     2.05609E-03     18.2632E+06     9.95302E+06    -138.703E+06     18.1303E+06    -138.570E+06     9.95302E+06     4.40872E+06         21.8217
             865     3.95014E-03     20.3808E-03         3.71872        -1.47019        -1.50196        -1.45579         3.70136        -1.49901     161.144E-03     25.9999E-03    -12.8600E-03    -13.1409E-03    -13.1245E-03     25.9835E-03    -12.8600E-03     1.54101E-03     18.8341E+06     13.8988E+06    -144.454E+06     17.8734E+06    -144.354E+06     14.7594E+06     3.96177E+06         21.7471
             866     2.96252E-03     20.3772E-03         3.75641        -1.49760        -1.51656        -1.45399         3.70984        -1.51360    -221.976E-03     25.6573E-03    -12.7981E-03    -12.8597E-03    -12.7972E-03     25.6485E-03    -12.8519E-03     1.11987E-03     20.2570E+06     16.9676E+06    -142.389E+06     17.5503E+06    -142.337E+06     19.6230E+06     2.40523E+06         21.6858
             867     1.97498E-03     20.3754E-03         3.89379        -1.53445        -1.61945        -1.48015         3.75726        -1.53722     474.698E-03     25.6215E-03    -12.7508E-03    -12.8709E-03    -12.7452E-03     25.6159E-03    -12.8709E-03     880.471E-06     21.5183E+06     14.1019E+06    -138.949E+06     14.1529E+06    -138.942E+06     21.4605E+06     791.182E+03         21.6406
             868     987.227E-06     20.3730E-03         4.29167    -498.257E-03        -3.05283        -2.60340         3.84224    -498.257E-03        -1.32640     25.6471E-03    -12.7072E-03    -12.9396E-03    -12.7093E-03     25.6429E-03    -12.9333E-03     289.273E-06     16.8657E+06     10.7510E+06    -139.975E+06     11.2704E+06    -139.944E+06     16.3146E+06    -1.03839E+06         21.6179
             869     16.7749E-03     19.9355E-03         2.48130    -589.638E-03        -1.12448    -589.413E-03         2.48107        -1.12448     30.2786E-03     208.089E-03    -13.8266E-03    -194.275E-03    -45.7745E-03     59.5878E-03    -13.8266E-03     388.311E-03     166.358E+06     86.8747E+06    -6.60215E+06    -6.58145E+06     166.337E+06     86.8747E+06     1.11664E+06         50.6695
             870     15.7980E-03     19.5376E-03         2.50448    -654.602E-03        -1.09883    -654.458E-03         2.50433        -1.09883     34.0384E-03     124.490E-03    -13.1069E-03    -111.388E-03    -28.3767E-03     41.4786E-03    -13.1069E-03     224.591E-03     119.698E+06     18.1419E+06    -21.4646E+06    -5.18446E+06     119.655E+06     1.90436E+06     1.64512E+06         47.3724
             871     14.8077E-03     19.4517E-03         2.56608    -724.885E-03        -1.09981    -724.735E-03         2.56593        -1.09981     33.3815E-03     40.0653E-03    -12.8201E-03    -27.2450E-03    -13.6698E-03     26.4901E-03    -12.8201E-03     49.4565E-03     46.9120E+06     -6.0193E+06    -55.3105E+06    -4.77227E+06     45.6650E+06    -55.3105E+06     3.77270E+06         43.1190
             872     13.8214E-03     19.4303E-03         2.64233    -784.044E-03        -1.11791    -783.608E-03         2.64189        -1.11791     67.4329E-03     27.9107E-03    -12.7699E-03    -15.1425E-03    -13.9467E-03     26.7149E-03    -12.7699E-03     13.2670E-03     3.50069E+06    -20.0348E+06    -68.3147E+06    -1.80299E+06    -14.7311E+06    -68.3147E+06     4.45512E+06         38.6124
             873     12.8347E-03     19.4193E-03         2.73365    -856.684E-03        -1.13807    -856.300E-03         2.73326        -1.13807     64.5793E-03     26.9741E-03    -12.7984E-03    -14.1803E-03    -13.7788E-03     26.5725E-03    -12.7984E-03     8.02295E-03     2.72126E+06    -36.6615E+06    -59.3991E+06     2.13914E+06    -43.5908E+06    -51.8877E+06     4.95973E+06         34.5981
             874     11.8478E-03     19.4074E-03         2.81099    -911.267E-03        -1.15701    -910.695E-03         2.81042        -1.15701     78.1681E-03     26.9351E-03    -12.8086E-03    -14.1352E-03    -13.8068E-03     26.6067E-03    -12.8086E-03     7.25175E-03     5.98614E+06    -40.1349E+06    -72.7419E+06     5.41795E+06    -72.1737E+06    -40.1349E+06     6.43393E+06         31.2706
             875     10.8613E-03     19.3977E-03         2.86250    -940.330E-03        -1.17598    -939.720E-03         2.86189        -1.17598     62.2573E-03     26.7685E-03    -12.7889E-03    -13.9893E-03    -13.7744E-03     26.5536E-03    -12.7889E-03     5.84437E-03     8.81164E+06    -31.4858E+06    -93.4881E+06     8.46582E+06    -93.1423E+06    -31.4858E+06     5.73331E+06         28.5613
             876     9.87391E-03     19.3885E-03         2.92775    -989.844E-03        -1.19520    -989.205E-03         2.92711        -1.19520     65.5726E-03     26.5745E-03    -12.7740E-03    -13.8079E-03    -13.6640E-03     26.4306E-03    -12.7740E-03     4.79503E-03     11.2760E+06    -17.9698E+06    -100.077E+06     11.0223E+06    -99.8229E+06    -17.9698E+06     5.25605E+06         26.4373
             877     8.88759E-03     19.3814E-03         3.01408        -1.06342        -1.21213        -1.06280         3.01345        -1.21213     44.6097E-03     26.4237E-03    -12.7331E-03    -13.6929E-03    -13.5876E-03     26.3185E-03    -12.7331E-03     4.08432E-03     12.7860E+06    -9.84471E+06    -108.316E+06     12.4976E+06    -108.028E+06    -9.84471E+06     5.75598E+06         24.7628
             878     7.90040E-03     19.3741E-03         3.08191        -1.12843        -1.22501        -1.12753         3.08101        -1.22501     60.6062E-03     26.2706E-03    -12.6776E-03    -13.5938E-03    -13.5205E-03     26.1973E-03    -12.6776E-03     3.36908E-03     14.0499E+06    -3.69342E+06    -118.093E+06     13.7355E+06    -117.779E+06    -3.69342E+06     6.23433E+06         23.4432
             879     6.91377E-03     19.3685E-03         3.11745        -1.15790        -1.23543        -1.15619         3.11574        -1.23543    -535.309E-06     25.9183E-03    -12.6182E-03    -13.3019E-03    -13.2548E-03     25.8712E-03    -12.6182E-03     2.66373E-03     16.2390E+06     2.44841E+06    -123.602E+06     15.9582E+06    -123.321E+06     2.44841E+06     6.08805E+06         22.5041
             880     5.92617E-03     19.3638E-03         3.14841        -1.17233        -1.24644        -1.16824         3.14433        -1.24644     83.7099E-03     25.7045E-03    -12.5704E-03    -13.1351E-03    -13.1030E-03     25.6724E-03    -12.5704E-03     2.19916E-03     18.0552E+06     9.02276E+06    -128.735E+06     17.8615E+06    -128.541E+06     9.02276E+06     5.28298E+06         21.9752
             881     4.93901E-03     19.3584E-03         3.19667        -1.20855        -1.25751        -1.20184         3.18997        -1.25751    -9.37767E-03     25.6145E-03    -12.4959E-03    -13.1196E-03    -13.1013E-03     25.5962E-03    -12.4959E-03     1.57435E-03     19.1412E+06     11.7638E+06    -137.582E+06     18.9533E+06    -137.394E+06     11.7638E+06     5.40027E+06         21.7749
             882     3.95210E-03     19.3556E-03         3.25376        -1.25143        -1.27117        -1.24161         3.23799        -1.26521     157.546E-03     25.2791E-03    -12.4033E-03    -12.8773E-03    -12.8707E-03     25.2725E-03    -12.4033E-03     988.537E-06     19.6273E+06     14.9206E+06    -141.723E+06     19.5035E+06    -141.599E+06     14.9206E+06     4.26485E+06         21.6985
             883     2.96416E-03     19.3531E-03         3.30493        -1.26834        -1.30012        -1.25388         3.26059        -1.27023    -208.220E-03     24.8664E-03    -12.3227E-03    -12.5443E-03    -12.5311E-03     24.8614E-03    -12.3310E-03     851.125E-06     20.7522E+06     17.7604E+06    -140.744E+06     18.8468E+06    -140.633E+06     19.5552E+06     3.54388E+06         21.6359
             884     1.97621E-03     19.3501E-03         3.39751        -1.27931        -1.38669        -1.24593         3.25864        -1.28121     458.232E-03     24.5401E-03    -12.1999E-03    -12.3403E-03    -12.2534E-03     24.5374E-03    -12.2842E-03     567.745E-06     21.1797E+06     16.4125E+06    -136.720E+06     16.8697E+06    -136.639E+06     20.6415E+06     1.73601E+06         21.5893
             885     988.342E-06     19.3493E-03         3.75693    -419.565E-03        -2.60440        -2.15904         3.31156    -419.565E-03        -1.19584     24.4527E-03    -12.0743E-03    -12.3785E-03    -12.1332E-03     24.4430E-03    -12.3099E-03     779.571E-06     14.3550E+06     10.7441E+06    -138.920E+06     11.8114E+06    -138.811E+06     13.1782E+06     1.00377E+06         21.5650
             886     16.7859E-03     18.8966E-03         2.26924    -570.260E-03    -955.693E-03    -570.203E-03         2.26919    -955.693E-03     7.23606E-03     204.358E-03    -13.6390E-03    -190.729E-03    -44.3682E-03     57.9969E-03    -13.6390E-03     381.565E-03     162.959E+06     84.5585E+06    -5.94934E+06    -5.89340E+06     162.903E+06     84.5585E+06    -1.44371E+06         50.4646
             887     15.7974E-03     18.5161E-03         2.24733    -595.834E-03    -921.293E-03    -595.796E-03         2.24729    -921.293E-03     16.8955E-03     123.972E-03    -12.9546E-03    -111.023E-03    -27.1596E-03     40.1084E-03    -12.9546E-03     224.366E-03     116.041E+06     16.5123E+06    -23.0645E+06    -5.69534E+06     115.591E+06    -407.063E+03     2.35309E+06         47.1661
             888     14.8092E-03     18.4238E-03         2.27910    -638.606E-03    -914.607E-03    -638.462E-03         2.27896    -914.607E-03     25.6928E-03     41.4421E-03    -12.6781E-03    -28.7654E-03    -14.1144E-03     26.7911E-03    -12.6781E-03     52.6710E-03     47.1503E+06    -7.23790E+06    -55.9850E+06    -5.73902E+06     45.6514E+06    -55.9850E+06     5.97934E+06         42.9257
             889     13.8227E-03     18.4034E-03         2.34968    -699.737E-03    -925.198E-03    -699.100E-03         2.34904    -925.198E-03     74.4616E-03     28.0194E-03    -12.6144E-03    -15.4054E-03    -14.1092E-03     26.7231E-03    -12.6144E-03     13.8605E-03     3.28793E+06    -20.1135E+06    -66.2813E+06     -3.7975E+06    -13.0281E+06    -66.2813E+06     5.39134E+06         38.4513
             890     12.8365E-03     18.3917E-03         2.39770    -735.834E-03    -938.436E-03    -735.229E-03         2.39710    -938.436E-03     76.3020E-03     27.1986E-03    -12.5986E-03    -14.6057E-03    -14.1719E-03     26.7648E-03    -12.5986E-03     8.43807E-03     712.581E+03    -38.3664E+06    -59.9154E+06    -361.519E+03    -44.5012E+06    -52.7065E+06     5.61245E+06         34.4807
             891     11.8503E-03     18.3813E-03         2.43592    -760.523E-03    -952.102E-03    -759.876E-03         2.43527    -952.102E-03     81.1592E-03     26.9274E-03    -12.5509E-03    -14.3851E-03    -14.0348E-03     26.5771E-03    -12.5509E-03     7.53326E-03     5.20599E+06    -43.1701E+06    -72.8120E+06     4.71104E+06    -72.3171E+06    -43.1701E+06     5.83017E+06         31.2001
             892     10.8637E-03     18.3707E-03         2.50066    -812.395E-03    -965.051E-03    -811.801E-03         2.50007    -965.051E-03     63.7925E-03     26.5990E-03    -12.5036E-03    -14.1048E-03    -13.8863E-03     26.3805E-03    -12.5036E-03     5.86480E-03     9.78621E+06    -31.8541E+06    -92.1627E+06     9.42786E+06    -91.8043E+06    -31.8541E+06     5.96405E+06         28.5235
             893     9.87762E-03     18.3630E-03         2.56532    -866.838E-03    -975.671E-03    -866.327E-03         2.56481    -975.671E-03     59.3154E-03     26.2236E-03    -12.4626E-03    -13.7682E-03    -13.6419E-03     26.0972E-03    -12.4626E-03     4.46398E-03     12.8315E+06    -17.6069E+06    -100.237E+06     12.5320E+06    -99.9378E+06    -17.6069E+06     5.80363E+06         26.4055
             894     8.88996E-03     18.3552E-03         2.58981    -883.395E-03    -985.160E-03    -882.897E-03         2.58931    -985.160E-03     45.8267E-03     25.9905E-03    -12.3871E-03    -13.6057E-03    -13.5229E-03     25.9077E-03    -12.3871E-03     3.54974E-03     15.7907E+06    -10.1898E+06    -108.426E+06     15.4667E+06    -108.102E+06    -10.1898E+06     6.30259E+06         24.7244
             895     7.90368E-03     18.3484E-03         2.60616    -894.815E-03    -995.810E-03    -892.754E-03         2.60410    -995.810E-03     105.862E-03     25.6888E-03    -12.3164E-03    -13.3747E-03    -13.3298E-03     25.6439E-03    -12.3164E-03     2.54418E-03     18.6415E+06    -1.62124E+06    -117.452E+06     18.3148E+06    -117.126E+06    -1.62124E+06     6.59979E+06         23.3983
             896     6.91594E-03     18.3436E-03         2.65580    -936.453E-03        -1.00615    -934.093E-03         2.65344        -1.00615     65.5802E-03     25.4257E-03    -12.2270E-03    -13.2008E-03    -13.1770E-03     25.4018E-03    -12.2270E-03     1.87522E-03     19.7880E+06     4.85299E+06    -121.904E+06     19.4727E+06    -121.589E+06     4.85299E+06     6.63794E+06         22.4540
             897     5.92924E-03     18.3382E-03         2.71173    -976.388E-03        -1.02039    -980.730E-03         2.70856        -1.01288     95.9584E-03     25.1105E-03    -12.1329E-03    -12.9787E-03    -12.9627E-03     25.0945E-03    -12.1329E-03     1.50783E-03     20.0001E+06     10.5468E+06    -128.719E+06     19.7095E+06    -128.429E+06     10.5468E+06     6.47297E+06         21.9213
             898     4.94168E-03     18.3342E-03         2.73705    -993.759E-03        -1.02439    -993.921E-03         2.72970        -1.01688    -36.0362E-03     24.6280E-03    -12.0347E-03    -12.5945E-03    -12.5865E-03     24.6200E-03    -12.0347E-03     1.04549E-03     20.5917E+06     12.6059E+06    -136.292E+06     20.3608E+06    -136.061E+06     12.6059E+06     5.92058E+06         21.7182
             899     3.95319E-03     18.3308E-03         2.75761        -1.01111        -1.02447    -997.165E-03         2.74062        -1.02143     125.036E-03     24.3998E-03    -11.9314E-03    -12.4692E-03    -12.4660E-03     24.3967E-03    -11.9314E-03     603.015E-06     20.9922E+06     14.5012E+06    -138.714E+06     20.8017E+06    -138.524E+06     14.5012E+06     5.20494E+06         21.6406
             900     2.96592E-03     18.3290E-03         2.81516        -1.02328        -1.07231        -1.02680         2.76965        -1.02328    -199.773E-03     24.0846E-03    -11.8118E-03    -12.2730E-03    -12.2709E-03     24.0825E-03    -11.8118E-03     473.938E-06     20.9034E+06     18.5194E+06    -139.095E+06     20.2712E+06    -138.902E+06     18.9587E+06     5.11942E+06         21.5780
             901     1.97757E-03     18.3268E-03         2.90384        -1.02323        -1.16681        -1.01923         2.75626        -1.02323     442.956E-03     23.5390E-03    -11.6391E-03    -11.9004E-03    -11.8439E-03     23.5376E-03    -11.6941E-03     386.216E-06     24.7191E+06     17.7362E+06    -133.169E+06     18.1412E+06    -133.035E+06     24.1809E+06     3.52473E+06         21.5293
             902     988.397E-06     18.3258E-03         3.18090    -302.939E-03        -2.17531        -1.74524         2.75083    -302.939E-03    -980.727E-03     23.1543E-03    -11.3948E-03    -11.7599E-03    -11.6936E-03     23.1431E-03    -11.4499E-03     936.022E-06     18.1412E+06     9.38765E+06    -136.463E+06     10.2051E+06    -136.297E+06     17.1578E+06     3.89576E+06         21.4996
             903     16.7805E-03     17.8690E-03         2.04782    -552.974E-03    -782.669E-03    -552.939E-03         2.04778    -782.669E-03     12.4189E-03     202.243E-03    -13.6190E-03    -188.634E-03    -41.6232E-03     55.2324E-03    -13.6190E-03     378.610E-03     159.507E+06     77.9590E+06    -6.40016E+06    -6.24449E+06     159.351E+06     77.9590E+06    -567.564E+03         50.2221
             904     15.7956E-03     17.4848E-03         2.00725    -555.874E-03    -739.440E-03    -555.829E-03         2.00721    -739.440E-03     15.3241E-03     124.489E-03    -12.9886E-03    -111.507E-03    -28.8918E-03     41.8734E-03    -12.9886E-03     223.824E-03     112.962E+06     8.37111E+06    -22.3715E+06    -10.9155E+06     112.364E+06    -2.48615E+06     2.24636E+06         46.9205
             905     14.8116E-03     17.3987E-03         1.99729    -563.563E-03    -724.515E-03    -563.189E-03         1.99691    -724.515E-03     51.6642E-03     42.0580E-03    -12.6081E-03    -29.4530E-03    -15.8960E-03     28.5010E-03    -12.6081E-03     52.1006E-03     48.0625E+06    -10.8771E+06    -54.8609E+06    -8.51209E+06     45.6975E+06    -54.8609E+06     4.89951E+06         42.7005
             906     13.8246E-03     17.3746E-03         2.03093    -593.568E-03    -727.989E-03    -592.734E-03         2.03010    -727.989E-03     91.7844E-03     28.2721E-03    -12.4520E-03    -15.8217E-03    -14.6039E-03     27.0543E-03    -12.4520E-03     13.0168E-03     4.04550E+06    -20.3917E+06    -65.4539E+06    -3.02777E+06    -13.3184E+06    -65.4539E+06     6.10040E+06         38.2636
             907     12.8393E-03     17.3653E-03         2.05834    -614.556E-03    -734.830E-03    -613.975E-03         2.05776    -734.830E-03     60.2254E-03     27.1437E-03    -12.4094E-03    -14.7402E-03    -14.4345E-03     26.8380E-03    -12.4094E-03     7.04851E-03     3.16972E+06    -36.4194E+06    -56.3742E+06     2.14238E+06    -43.4112E+06    -48.3551E+06     5.50837E+06         34.3380
             908     11.8530E-03     17.3540E-03         2.08232    -636.936E-03    -741.748E-03    -636.421E-03         2.08180    -741.748E-03     58.4399E-03     26.8995E-03    -12.3169E-03    -14.5920E-03    -14.3180E-03     26.6256E-03    -12.3169E-03     6.62213E-03     6.67213E+06    -40.1808E+06    -72.3020E+06     6.31248E+06    -71.9424E+06    -40.1808E+06     4.97544E+06         31.1088
             909     10.8672E-03     17.3447E-03         2.12367    -678.126E-03    -747.311E-03    -677.585E-03         2.12312    -747.311E-03     58.0850E-03     26.4729E-03    -12.2212E-03    -14.2623E-03    -14.1136E-03     26.3242E-03    -12.2212E-03     4.80063E-03     9.85799E+06    -29.8522E+06    -91.9063E+06     9.56332E+06    -91.6116E+06    -29.8522E+06     5.43587E+06         28.4731
             910     9.87994E-03     17.3369E-03         2.15221    -704.881E-03    -751.064E-03    -704.088E-03         2.15141    -751.064E-03     66.2721E-03     26.0470E-03    -12.1259E-03    -13.9287E-03    -13.8453E-03     25.9636E-03    -12.1259E-03     3.54636E-03     13.7283E+06    -15.9553E+06    -99.9698E+06     13.4140E+06    -99.6555E+06    -15.9553E+06     5.96003E+06         26.3647
             911     8.89433E-03     17.3294E-03         2.14218    -687.495E-03    -755.666E-03    -686.656E-03         2.14134    -755.666E-03     37.1765E-03     25.5627E-03    -12.0028E-03    -13.5619E-03    -13.5166E-03     25.5173E-03    -12.0028E-03     2.51184E-03     16.5491E+06    -8.48040E+06    -108.748E+06     16.2031E+06    -108.402E+06    -8.48040E+06     6.50845E+06         24.6763
             912     7.90641E-03     17.3237E-03         2.14553    -680.419E-03    -763.439E-03    -678.215E-03         2.14332    -763.439E-03     87.4136E-03     25.0916E-03    -11.8827E-03    -13.2104E-03    -13.1927E-03     25.0740E-03    -11.8827E-03     1.52425E-03     18.7985E+06    -1.57662E+06    -116.997E+06     18.4525E+06    -116.651E+06    -1.57662E+06     6.73793E+06         23.3434
             913     6.91975E-03     17.3183E-03         2.19980    -728.543E-03    -770.764E-03    -725.882E-03         2.19714    -770.764E-03     47.3810E-03     24.6870E-03    -11.7537E-03    -12.9343E-03    -12.9259E-03     24.6786E-03    -11.7537E-03     1.02070E-03     21.0999E+06     4.16445E+06    -121.502E+06     20.7144E+06    -121.116E+06     4.16445E+06     7.31931E+06         22.3920
             914     5.93196E-03     17.3139E-03         2.24581    -767.936E-03    -780.536E-03    -771.837E-03         2.24220    -773.025E-03     73.7930E-03     24.1884E-03    -11.6403E-03    -12.5486E-03    -12.5437E-03     24.1834E-03    -11.6403E-03     738.553E-06     23.0444E+06     10.5317E+06    -127.721E+06     22.6359E+06    -127.313E+06     10.5317E+06     7.78660E+06         21.8538
             915     4.94377E-03     17.3106E-03         2.24466    -765.975E-03    -780.401E-03    -766.597E-03         2.23777    -772.890E-03    -19.0253E-03     23.7432E-03    -11.5395E-03    -12.2043E-03    -12.2018E-03     23.7407E-03    -11.5395E-03     411.224E-06     23.3613E+06     15.2961E+06    -134.169E+06     23.0052E+06    -133.813E+06     15.2961E+06     7.34683E+06         21.6492
             916     3.95585E-03     17.3076E-03         2.25265    -768.384E-03    -788.439E-03    -759.416E-03         2.22999    -774.748E-03     178.256E-03     23.3660E-03    -11.4237E-03    -11.9426E-03    -11.9419E-03     23.3653E-03    -11.4237E-03     101.509E-06     23.1970E+06     16.1113E+06    -137.505E+06     22.8658E+06    -137.174E+06     16.1113E+06     7.13955E+06         21.5720
             917     2.96694E-03     17.3053E-03         2.30398    -776.435E-03    -830.118E-03    -774.788E-03         2.24865    -776.435E-03    -146.415E-03     23.0635E-03    -11.3123E-03    -11.7510E-03    -11.7500E-03     23.0625E-03    -11.3123E-03    -107.738E-06     25.4322E+06     19.9493E+06    -135.514E+06     23.1667E+06    -135.289E+06     21.9898E+06     5.83215E+06         21.5107
             918     1.97834E-03     17.3048E-03         2.39580    -778.247E-03    -921.223E-03    -770.707E-03         2.24528    -778.247E-03     378.576E-03     22.6839E-03    -11.1489E-03    -11.5349E-03    -11.5338E-03     22.6829E-03    -11.1489E-03     13.1317E-06     29.8647E+06     20.0125E+06    -129.998E+06     19.8798E+06    -129.865E+06     29.8647E+06     4.39982E+06         21.4625
             919     990.160E-06     17.3027E-03         2.65599    -168.814E-03        -1.79488        -1.39099         2.25209    -168.814E-03    -827.500E-03     21.9029E-03    -10.6689E-03    -11.2339E-03    -11.0179E-03     21.8976E-03    -10.8795E-03     664.567E-06     24.1323E+06     13.1387E+06    -131.920E+06     14.4431E+06    -131.807E+06     22.7152E+06     4.02595E+06         21.4280
             920     16.7742E-03     16.8316E-03         1.79524    -496.207E-03    -607.001E-03    -495.941E-03         1.79497    -607.001E-03     33.1322E-03     201.528E-03    -13.7273E-03    -187.806E-03    -41.1095E-03     54.8312E-03    -13.7273E-03     377.106E-03     158.865E+06     76.4049E+06    -6.86157E+06    -6.73836E+06     158.742E+06     76.4049E+06     1.02881E+06         49.9405
             921     15.7950E-03     16.4534E-03         1.75666    -493.024E-03    -568.548E-03    -505.361E-03         1.75642    -555.980E-03     31.7878E-03     122.175E-03    -13.0120E-03    -109.167E-03    -31.7552E-03     44.7631E-03    -13.0120E-03     216.682E-03     112.592E+06     9.61595E+06     -21.614E+06    -10.5325E+06     112.277E+06    -1.15065E+06     1.75022E+06         46.6418
             922     14.8117E-03     16.3687E-03         1.73368    -484.993E-03    -555.872E-03    -507.273E-03         1.73291    -532.822E-03     70.3061E-03     41.4165E-03    -12.4532E-03    -28.9674E-03    -17.2835E-03     29.7326E-03    -12.4532E-03     48.1061E-03     45.6133E+06    -10.5738E+06    -57.0749E+06    -8.09448E+06     43.1339E+06    -57.0749E+06     2.45729E+06         42.4474
             923     13.8291E-03     16.3472E-03         1.71919    -481.811E-03    -545.657E-03    -498.131E-03         1.71815    -528.301E-03     92.4875E-03     28.3361E-03    -12.2115E-03    -16.1286E-03    -15.2203E-03     27.4278E-03    -12.2115E-03     11.1117E-03     2.28270E+06    -19.3734E+06    -67.3262E+06    -3.19612E+06    -13.8946E+06    -67.3262E+06     4.55250E+06         38.0499
             924     12.8423E-03     16.3382E-03         1.72486    -489.781E-03    -546.249E-03    -508.074E-03         1.72450    -527.603E-03     34.2352E-03     26.9581E-03    -12.1199E-03    -14.8445E-03    -14.6498E-03     26.7634E-03    -12.1199E-03     5.59380E-03     3.17175E+06    -37.2163E+06    -55.2218E+06     2.24472E+06    -42.0764E+06    -49.4346E+06     4.86568E+06         34.1707
             925     11.8569E-03     16.3269E-03         1.73574    -502.149E-03    -546.782E-03    -522.108E-03         1.73540    -526.485E-03     34.4273E-03     26.6924E-03    -11.9872E-03    -14.7163E-03    -14.5506E-03     26.5267E-03    -11.9872E-03     4.95345E-03     7.24232E+06    -41.1584E+06    -72.0996E+06     6.89385E+06    -71.7511E+06    -41.1584E+06     4.79689E+06         30.9966
             926     10.8704E-03     16.3189E-03         1.72091    -502.353E-03    -533.978E-03    -510.432E-03         1.72047    -525.453E-03     58.2608E-03     26.2171E-03    -11.8476E-03    -14.3817E-03    -14.3144E-03     26.1498E-03    -11.8476E-03     3.09534E-03     11.6500E+06    -29.3948E+06    -91.2962E+06     11.3751E+06    -91.0213E+06    -29.3948E+06     5.23320E+06         28.4094
             927     9.88515E-03     16.3108E-03         1.71198    -501.508E-03    -525.762E-03    -500.425E-03         1.71089    -525.762E-03     85.3198E-03     25.6281E-03    -11.6988E-03    -13.9370E-03    -13.9064E-03     25.5975E-03    -11.6988E-03     1.97429E-03     14.7772E+06    -16.7875E+06    -100.942E+06     14.4421E+06    -100.607E+06    -16.7875E+06     6.11954E+06         26.3138
             928     8.89747E-03     16.3048E-03         1.73201    -502.577E-03    -540.991E-03    -516.273E-03         1.73085    -526.137E-03     37.9828E-03     24.9896E-03    -11.5362E-03    -13.4556E-03    -13.4433E-03     24.9773E-03    -11.5362E-03     1.06520E-03     17.0393E+06    -7.93226E+06    -108.863E+06     16.6192E+06    -108.443E+06    -7.93226E+06     7.19008E+06         24.6174
             929     7.91119E-03     16.2989E-03         1.74280    -500.247E-03    -552.366E-03    -524.660E-03         1.74033    -525.486E-03     68.6976E-03     24.3809E-03    -11.3632E-03    -13.0196E-03    -13.0150E-03     24.3763E-03    -11.3632E-03     376.587E-06     19.4368E+06    -2.75153E+06    -116.374E+06     19.0295E+06    -115.966E+06    -2.75153E+06     7.31215E+06         23.2776
             930     6.92317E-03     16.2946E-03         1.73023    -503.329E-03    -537.408E-03    -512.401E-03         1.72727    -525.382E-03     41.3683E-03     23.7210E-03    -11.2082E-03    -12.5142E-03    -12.5101E-03     23.7168E-03    -11.2082E-03    -143.246E-06     21.8887E+06     3.51408E+06    -121.556E+06     21.4892E+06    -121.157E+06     3.51408E+06     7.41429E+06         22.3187
             931     5.93497E-03     16.2909E-03         1.72086    -502.707E-03    -527.767E-03    -499.191E-03         1.71734    -527.767E-03     57.1689E-03     23.1365E-03    -11.0811E-03    -12.0566E-03    -12.0510E-03     23.1308E-03    -11.0811E-03    -430.239E-06     23.4175E+06     10.4182E+06    -125.737E+06     22.9709E+06    -125.290E+06     10.4182E+06     8.02698E+06         21.7741
             932     4.94675E-03     16.2875E-03         1.73628    -513.751E-03    -533.477E-03    -508.862E-03         1.72959    -531.673E-03    -15.7553E-03     22.6852E-03    -10.9750E-03    -11.7113E-03    -11.7072E-03     22.6811E-03    -10.9750E-03    -513.417E-06     24.3238E+06     16.6570E+06    -132.645E+06     23.8673E+06    -132.189E+06     16.6570E+06     8.34947E+06         21.5679
             933     3.95787E-03     16.2852E-03         1.77172    -530.541E-03    -559.427E-03    -531.490E-03         1.74689    -533.646E-03     185.016E-03     22.2497E-03    -10.8620E-03    -11.3881E-03    -11.3844E-03     22.2460E-03    -10.8620E-03    -560.501E-06     25.4535E+06     20.3306E+06    -135.571E+06     25.0459E+06    -135.164E+06     20.3306E+06     8.00177E+06         21.4919
             934     2.96876E-03     16.2839E-03         1.81521    -531.442E-03    -604.020E-03    -543.804E-03         1.75499    -531.442E-03    -118.463E-03     21.8793E-03    -10.7538E-03    -11.1255E-03    -11.1221E-03     21.8759E-03    -10.7538E-03    -601.425E-06     28.6615E+06     24.0913E+06    -131.197E+06     26.2749E+06    -130.907E+06     26.1880E+06     6.62879E+06         21.4328
             935     1.97973E-03     16.2821E-03         1.90170    -525.220E-03    -690.073E-03    -540.787E-03         1.75241    -525.220E-03     308.906E-03     21.5273E-03    -10.6231E-03    -10.9042E-03    -10.9019E-03     21.5251E-03    -10.6231E-03    -440.378E-06     32.8428E+06     24.4090E+06    -126.907E+06     24.2796E+06    -126.778E+06     32.8428E+06     4.09822E+06         21.3879
             936     989.798E-06     16.2828E-03         2.14765    -7.86241E-03        -1.45032        -1.03437         1.73170    -7.86241E-03    -786.182E-03     20.9257E-03    -10.2131E-03    -10.7125E-03    -10.4972E-03     20.9211E-03    -10.4237E-03     85.3056E-06     27.9383E+06     19.9786E+06    -127.365E+06     21.3478E+06    -127.317E+06     26.5211E+06     2.18220E+06         21.3569
             937     16.7731E-03     15.7875E-03         1.53946    -404.023E-03    -459.883E-03    -434.566E-03         1.53916    -429.042E-03     37.9979E-03     203.563E-03    -13.7520E-03    -189.811E-03    -44.8319E-03     58.5835E-03    -13.7520E-03     379.063E-03     158.857E+06     79.2040E+06    -5.17943E+06    -5.09536E+06     158.773E+06     79.2040E+06     2.03481E+06         49.6245
             938     15.7997E-03     15.4206E-03         1.48185    -364.684E-03    -443.122E-03    -436.963E-03         1.48155    -370.544E-03     28.6744E-03     117.098E-03    -12.8197E-03    -104.278E-03    -33.8474E-03     46.6668E-03    -12.8197E-03     204.529E-03     113.232E+06     11.1931E+06    -20.2600E+06    -9.14763E+06     112.984E+06     328.925E+03     1.90377E+06         46.3363
             939     14.8184E-03     15.3387E-03         1.44977    -340.265E-03    -439.487E-03    -438.868E-03         1.44915    -340.265E-03     26.5596E-03     39.2214E-03    -12.1265E-03    -27.0972E-03    -17.3203E-03     29.4446E-03    -12.1265E-03     42.1514E-03     43.9782E+06    -10.5728E+06    -57.5456E+06    -8.00650E+06     41.4119E+06    -57.5456E+06     2.37176E+06         42.1690
             940     13.8319E-03     15.3201E-03         1.41092    -327.863E-03    -412.822E-03    -411.651E-03         1.40974    -327.863E-03     70.6635E-03     27.5666E-03    -11.8719E-03    -15.6976E-03    -15.2051E-03     27.0740E-03    -11.8719E-03     7.53588E-03    -215.265E+03    -18.9442E+06    -64.5764E+06    -4.09811E+06    -15.0613E+06    -64.5764E+06     3.34827E+06         37.8109
             941     12.8476E-03     15.3106E-03         1.38695    -319.563E-03    -397.764E-03    -396.772E-03         1.38596    -319.563E-03     71.0835E-03     26.5794E-03    -11.7431E-03    -14.8441E-03    -14.7535E-03     26.4888E-03    -11.7431E-03     3.37423E-03     1.07727E+06    -37.5662E+06    -51.1733E+06     224.415E+03    -40.7970E+06    -47.0898E+06     3.99307E+06         33.9805
             942     11.8618E-03     15.3009E-03         1.36573    -311.666E-03    -385.222E-03    -384.152E-03         1.36466    -311.666E-03     69.9769E-03     26.2765E-03    -11.5532E-03    -14.7371E-03    -14.6682E-03     26.2076E-03    -11.5532E-03     3.06758E-03     5.35027E+06    -41.8638E+06    -72.0890E+06     5.07238E+06    -71.8111E+06    -41.8638E+06     3.54124E+06         30.8658
             943     10.8765E-03     15.2923E-03         1.32569    -298.256E-03    -358.776E-03    -351.379E-03         1.32485    -304.814E-03     60.2633E-03     25.6988E-03    -11.3711E-03    -14.3408E-03    -14.3241E-03     25.6821E-03    -11.3711E-03     1.21902E-03     10.7317E+06    -29.5161E+06    -92.3046E+06     10.4723E+06    -92.0451E+06    -29.5161E+06     4.45517E+06         28.3317
             944     9.88936E-03     15.2863E-03         1.29663    -292.307E-03    -332.371E-03    -323.453E-03         1.29547    -300.073E-03     70.9308E-03     24.9917E-03    -11.1748E-03    -13.8228E-03    -13.8164E-03     24.9853E-03    -11.1748E-03     216.897E-06     15.3772E+06    -16.8657E+06    -101.420E+06     15.0426E+06    -101.085E+06    -16.8657E+06     6.01627E+06         26.2501
             945     8.90336E-03     15.2799E-03         1.30234    -294.302E-03    -335.984E-03    -333.699E-03         1.30126    -295.509E-03     49.7074E-03     24.2760E-03    -10.9754E-03    -13.3021E-03    -13.2900E-03     24.2638E-03    -10.9754E-03    -695.222E-06     19.1507E+06    -5.98952E+06    -108.984E+06     18.7609E+06    -108.594E+06    -5.98952E+06     6.87235E+06         24.5460
             946     7.91527E-03     15.2755E-03         1.31034    -288.819E-03    -348.733E-03    -345.152E-03         1.30676    -288.819E-03     100.213E-03     23.4053E-03    -10.7766E-03    -12.6306E-03    -12.6103E-03     23.3851E-03    -10.7766E-03    -1.32422E-03     22.2562E+06     1.23649E+06    -115.927E+06     21.7879E+06    -115.459E+06     1.23649E+06     8.00541E+06         23.2005
             947     6.92764E-03     15.2718E-03         1.27044    -273.765E-03    -319.411E-03    -306.580E-03         1.26658    -282.735E-03     77.3489E-03     22.6712E-03    -10.6076E-03    -12.0650E-03    -12.0457E-03     22.6519E-03    -10.6076E-03    -1.46016E-03     23.2397E+06     9.03585E+06    -121.006E+06     22.7503E+06    -120.517E+06     9.03585E+06     8.27831E+06         22.2359
             948     5.93930E-03     15.2687E-03         1.22446    -258.292E-03    -292.827E-03    -266.755E-03         1.22163    -281.529E-03     54.5602E-03     22.0306E-03    -10.4481E-03    -11.5838E-03    -11.5623E-03     22.0092E-03    -10.4481E-03    -1.61917E-03     24.1984E+06     14.7821E+06    -124.568E+06     23.6821E+06    -124.051E+06     14.7821E+06     8.63014E+06         21.6855
             949     4.94997E-03     15.2662E-03         1.23788    -268.273E-03    -300.983E-03    -278.524E-03         1.22968    -282.540E-03    -46.7566E-03     21.3742E-03    -10.3140E-03    -11.0612E-03    -11.0391E-03     21.3520E-03    -10.3140E-03    -1.58214E-03     25.9546E+06     18.6384E+06    -131.103E+06     25.4529E+06    -130.601E+06     18.6384E+06     8.78568E+06         21.4756
             950     3.96035E-03     15.2644E-03         1.25814    -281.334E-03    -310.019E-03    -290.167E-03         1.23828    -281.334E-03     77.4517E-03     20.9283E-03    -10.2054E-03    -10.7235E-03    -10.7065E-03     20.9113E-03    -10.2054E-03    -1.38499E-03     26.9540E+06     23.5336E+06    -131.591E+06     26.5551E+06    -131.192E+06     23.5336E+06     7.81690E+06         21.4002
             951     2.97094E-03     15.2627E-03         1.28937    -277.845E-03    -343.866E-03    -290.018E-03         1.23552    -277.845E-03    -147.181E-03     20.4941E-03    -10.1080E-03    -10.3865E-03    -10.3705E-03     20.4803E-03    -10.1102E-03    -1.21016E-03     29.1100E+06     26.3538E+06    -127.275E+06     27.0183E+06    -127.045E+06     28.2152E+06     5.47682E+06         21.3436
             952     1.98039E-03     15.2625E-03         1.38738    -270.093E-03    -449.575E-03    -292.173E-03         1.22998    -270.093E-03     275.567E-03     20.1447E-03    -10.0428E-03    -10.1020E-03    -10.0804E-03     20.1370E-03    -10.0567E-03    -815.285E-06     34.2566E+06     27.3258E+06    -123.685E+06     27.2443E+06    -123.604E+06     34.2566E+06     3.13745E+06         21.3028
             953     990.495E-06     15.2617E-03         1.62150     160.192E-03        -1.11828    -689.336E-03         1.19256     160.192E-03    -707.501E-03     19.9265E-03    -9.85760E-03    -10.0689E-03    -10.0318E-03     19.9250E-03    -9.89318E-03    -306.742E-06     28.2919E+06     22.3543E+06    -123.929E+06     22.9894E+06    -123.901E+06     27.6290E+06     1.41631E+06         21.2812
             954     16.7742E-03     14.7323E-03         1.32612    -250.600E-03    -422.650E-03    -422.374E-03         1.32585    -250.600E-03     28.9181E-03     201.728E-03    -13.4421E-03    -188.286E-03    -49.0360E-03     62.4778E-03    -13.4421E-03     373.427E-03     158.601E+06     82.5504E+06    -5.53682E+06    -5.44050E+06     158.504E+06     82.5504E+06     2.13901E+06         49.2817
             955     15.8086E-03     14.3871E-03         1.21011    -183.927E-03    -384.038E-03    -383.713E-03         1.20978    -183.927E-03     20.3988E-03     109.860E-03    -12.3302E-03    -97.5293E-03    -32.2138E-03     44.5443E-03    -12.3302E-03     190.781E-03     113.407E+06     12.5667E+06    -20.5937E+06    -8.79124E+06     113.252E+06     919.438E+03     987.316E+03         46.0045
             956     14.8248E-03     14.3115E-03         1.13875    -147.206E-03    -350.104E-03    -349.784E-03         1.13843    -147.206E-03     2.03043E-03     36.5973E-03    -11.6189E-03    -24.9806E-03    -16.5867E-03     28.2034E-03    -11.6189E-03     37.5830E-03     43.5828E+06    -9.41337E+06    -58.7486E+06    -6.94013E+06     41.1096E+06    -58.7486E+06     2.11030E+06         41.8608
             957     13.8411E-03     14.2922E-03         1.08502    -128.309E-03    -308.229E-03    -307.415E-03         1.08420    -128.309E-03     38.4954E-03     26.3550E-03    -11.3764E-03    -14.9814E-03    -14.6398E-03     26.0134E-03    -11.3764E-03     5.37899E-03     277.268E+03    -18.2956E+06    -64.5944E+06    -2.18024E+06    -15.8381E+06    -64.5944E+06     3.24696E+06         37.5452
             958     12.8540E-03     14.2850E-03         1.02591    -114.035E-03    -263.423E-03    -262.290E-03         1.02478    -114.035E-03     73.1032E-03     25.6979E-03    -11.2632E-03    -14.4428E-03    -14.3992E-03     25.6542E-03    -11.2632E-03     1.90539E-03     3.19038E+06    -34.4506E+06    -49.0610E+06     2.76369E+06    -40.0234E+06    -43.0615E+06     2.69597E+06         33.7691
             959     11.8684E-03     14.2738E-03     989.062E-03    -100.846E-03    -239.555E-03    -237.974E-03     987.482E-03    -100.846E-03     81.7587E-03     25.4835E-03    -11.0662E-03    -14.4313E-03    -14.3855E-03     25.4378E-03    -11.0662E-03     2.20434E-03     7.50547E+06    -36.6936E+06    -71.5537E+06     7.24937E+06    -71.2976E+06    -36.6936E+06     2.86479E+06         30.7171
             960     10.8822E-03     14.2675E-03     957.635E-03    -87.5243E-03    -222.663E-03    -221.002E-03     955.973E-03    -87.5243E-03     48.1114E-03     25.0404E-03    -10.8544E-03    -14.1972E-03    -14.1946E-03     25.0377E-03    -10.8544E-03     286.595E-06     10.8462E+06    -25.8387E+06    -93.8606E+06     10.6438E+06    -93.6582E+06    -25.8387E+06     3.37904E+06         28.2340
             961     9.89627E-03     14.2614E-03     901.198E-03    -74.9170E-03    -183.262E-03    -180.949E-03     898.885E-03    -74.9170E-03     53.2448E-03     24.4002E-03    -10.6064E-03    -13.7982E-03    -13.7925E-03     24.3946E-03    -10.6064E-03    -666.616E-06     14.7380E+06    -14.1170E+06    -102.153E+06     14.5102E+06    -101.925E+06    -14.1170E+06     4.46772E+06         26.1670
             962     8.90882E-03     14.2565E-03     851.752E-03    -64.3321E-03    -142.791E-03    -140.913E-03     849.874E-03    -64.3321E-03     57.7147E-03     23.5020E-03    -10.3567E-03    -13.1456E-03    -13.1087E-03     23.4651E-03    -10.3567E-03    -2.07847E-03     19.0079E+06    -2.56558E+06    -109.992E+06     18.6880E+06    -109.672E+06    -2.56558E+06     6.28380E+06         24.4593
             963     7.92161E-03     14.2532E-03     829.970E-03    -55.4321E-03    -120.936E-03    -117.174E-03     826.208E-03    -55.4321E-03     80.0525E-03     22.3481E-03    -10.1171E-03    -12.2306E-03    -12.1734E-03     22.2910E-03    -10.1171E-03    -2.76841E-03     21.8965E+06     5.23296E+06    -115.670E+06     21.4032E+06    -115.177E+06     5.23296E+06     8.13203E+06         23.1122
             964     6.93242E-03     14.2501E-03     811.800E-03    -47.0978E-03    -105.134E-03    -100.684E-03     807.351E-03    -47.0978E-03     52.4818E-03     21.4411E-03    -9.92055E-03    -11.5205E-03    -11.4671E-03     21.3876E-03    -9.92055E-03    -2.57748E-03     24.4930E+06     13.4473E+06    -119.352E+06     23.9762E+06    -118.835E+06     13.4473E+06     8.41324E+06         22.1450
             965     5.94329E-03     14.2477E-03     786.854E-03    -38.6625E-03    -92.6840E-03    -87.4038E-03     781.574E-03    -38.6625E-03     53.8528E-03     20.7774E-03    -9.75006E-03    -11.0273E-03    -10.9658E-03     20.7159E-03    -9.75006E-03    -2.69201E-03     26.8462E+06     20.9158E+06    -124.032E+06     26.3742E+06    -123.560E+06     20.9158E+06     8.28450E+06         21.5906
             966     4.95388E-03     14.2462E-03     758.081E-03    -30.2045E-03    -78.6211E-03    -69.9025E-03     749.362E-03    -30.2045E-03     1.63417E-03     20.0921E-03    -9.58080E-03    -10.5105E-03    -10.4534E-03     20.0350E-03    -9.58080E-03    -2.58073E-03     28.6216E+06     23.7814E+06    -128.859E+06     28.1356E+06    -128.373E+06     23.7814E+06     8.71793E+06         21.3767
             967     3.96374E-03     14.2444E-03     734.907E-03    -23.6233E-03    -69.2245E-03    -41.7878E-03     707.470E-03    -23.6233E-03     81.0972E-03     19.3887E-03    -9.44077E-03    -9.94755E-03    -9.90533E-03     19.3465E-03    -9.44077E-03    -2.17179E-03     29.3399E+06     25.0071E+06    -128.450E+06     28.9511E+06    -128.061E+06     25.0071E+06     7.72290E+06         21.2991
             968     2.97277E-03     14.2437E-03     748.113E-03    -23.4043E-03    -83.0136E-03    -9.65835E-03     674.758E-03    -23.4043E-03    -90.8891E-03     18.9341E-03    -9.35859E-03    -9.57591E-03    -9.53987E-03     18.9003E-03    -9.36076E-03    -1.92255E-03     31.4154E+06     27.5244E+06    -123.378E+06     29.8871E+06    -123.216E+06     28.8903E+06     4.42786E+06         21.2438
             969     1.98214E-03     14.2434E-03     886.770E-03    -32.4091E-03    -210.458E-03    -5.01993E-03     681.331E-03    -32.4091E-03     292.359E-03     18.6814E-03    -9.27226E-03    -9.40944E-03    -9.32020E-03     18.6632E-03    -9.34334E-03    -1.27798E-03     36.2081E+06     29.3814E+06    -120.746E+06     29.6838E+06    -120.704E+06     35.8635E+06     1.77533E+06         21.2087
             970     990.906E-06     14.2426E-03         1.19049     279.743E-03    -819.575E-03    -357.928E-03     728.841E-03     279.743E-03    -574.748E-03     18.5480E-03    -9.21266E-03    -9.33551E-03    -9.23973E-03     18.5449E-03    -9.30538E-03    -341.690E-06     32.7383E+06     26.3773E+06    -119.696E+06     27.5945E+06    -119.669E+06     31.4935E+06     976.655E+03         21.1946
             971     16.8039E-03     13.7016E-03         1.13113    -74.8049E-03    -428.900E-03    -428.640E-03         1.13087    -74.8049E-03     17.7037E-03     198.596E-03    -12.8593E-03    -185.738E-03    -52.1733E-03     65.0314E-03    -12.8593E-03     365.935E-03     157.210E+06     81.4407E+06    -7.17737E+06    -7.02706E+06     157.060E+06     81.4407E+06     744.498E+03         48.9037
             972     15.8176E-03     13.3546E-03     964.462E-03    -1.14429E-03    -347.029E-03    -346.621E-03     964.053E-03    -1.14429E-03     28.8037E-03     106.241E-03    -11.7002E-03    -94.5415E-03    -28.9062E-03     40.6061E-03    -11.7002E-03     186.411E-03     112.517E+06     12.1993E+06    -18.6049E+06    -7.71363E+06     112.370E+06     1.45516E+06     2.12101E+06         45.6343
             973     14.8351E-03     13.2856E-03     845.016E-03     41.8661E-03    -262.298E-03    -261.441E-03     844.159E-03     41.8661E-03     50.4513E-03     34.5565E-03    -11.0956E-03    -23.4635E-03    -15.4875E-03     26.5804E-03    -11.0956E-03     35.8948E-03     42.4041E+06    -8.64490E+06    -56.1276E+06    -7.53681E+06     41.2960E+06    -56.1276E+06     2.12434E+06         41.5113
             974     13.8466E-03     13.2660E-03     772.719E-03     67.0168E-03    -208.995E-03    -207.432E-03     771.156E-03     67.0168E-03     63.3316E-03     25.4260E-03    -10.8684E-03    -14.5599E-03    -14.1222E-03     24.9884E-03    -10.8684E-03     5.51422E-03    -188.641E+03    -17.9822E+06    -62.2209E+06    -2.87535E+06    -15.2955E+06    -62.2209E+06     1.60437E+06         37.2443
             975     12.8614E-03     13.2596E-03     698.128E-03     87.9651E-03    -151.184E-03    -149.955E-03     696.899E-03     87.9651E-03     56.1182E-03     24.7363E-03    -10.7593E-03    -13.9828E-03    -13.9170E-03     24.6704E-03    -10.7593E-03     1.78987E-03     3.03564E+06    -32.0968E+06    -47.7440E+06     2.57475E+06    -39.7829E+06    -39.5970E+06     1.56109E+06         33.5333
             976     11.8742E-03     13.2489E-03     629.271E-03     107.460E-03    -103.363E-03    -101.229E-03     627.137E-03     107.460E-03     61.5122E-03     24.5919E-03    -10.5526E-03    -14.0504E-03    -13.9860E-03     24.5275E-03    -10.5526E-03     1.93317E-03     6.78531E+06    -34.0136E+06    -71.5497E+06     6.59203E+06    -71.3564E+06    -34.0136E+06     2.38583E+06         30.5465
             977     10.8880E-03     13.2427E-03     572.419E-03     126.439E-03    -71.1114E-03    -68.7736E-03     570.081E-03     126.439E-03     31.0805E-03     24.3257E-03    -10.3210E-03    -14.0138E-03    -14.0098E-03     24.3217E-03    -10.3210E-03    -427.068E-06     11.2037E+06    -22.5877E+06    -94.1126E+06     11.0682E+06    -93.9771E+06    -22.5877E+06     2.62901E+06         28.1079
             978     9.90127E-03     13.2371E-03     522.158E-03     145.094E-03    -39.2027E-03    -29.8985E-03     512.853E-03     145.094E-03     58.7659E-03     23.7260E-03    -10.0447E-03    -13.6862E-03    -13.6614E-03     23.7011E-03    -10.0447E-03    -1.39638E-03     15.0428E+06    -9.19111E+06    -103.518E+06     14.9110E+06    -103.386E+06    -9.19111E+06     3.27994E+06         26.0579
             979     8.91505E-03     13.2334E-03     474.899E-03     142.607E-03     13.9611E-03     22.9553E-03     446.201E-03     162.311E-03     76.3410E-03     22.6775E-03    -9.73631E-03    -12.9418E-03    -12.8711E-03     22.6069E-03    -9.73631E-03    -3.01853E-03     18.3545E+06    -632.779E+03    -111.589E+06     18.1344E+06    -111.369E+06    -632.779E+03     5.04240E+06         24.3560
             980     7.92650E-03     13.2320E-03     442.387E-03     139.899E-03     51.4630E-03     84.0702E-03     373.397E-03     176.281E-03     61.0810E-03     21.4996E-03    -9.43714E-03    -12.0618E-03    -11.9649E-03     21.4027E-03    -9.43714E-03    -3.56499E-03     22.1511E+06     6.49847E+06    -115.135E+06     21.8284E+06    -114.813E+06     6.49847E+06     6.15452E+06         23.0132
             981     6.93806E-03     13.2299E-03     443.962E-03     156.710E-03     36.7207E-03     119.020E-03     331.063E-03     187.310E-03     33.2178E-03     20.3520E-03    -9.18715E-03    -11.1641E-03    -11.0622E-03     20.2501E-03    -9.18715E-03    -3.53470E-03     26.5842E+06     15.3780E+06    -117.827E+06     26.1919E+06    -117.435E+06     15.3780E+06     6.95081E+06         22.0481
             982     5.94808E-03     13.2283E-03     447.276E-03     179.369E-03     14.3020E-03     133.277E-03     309.759E-03     197.910E-03     56.1617E-03     19.4216E-03    -8.99202E-03    -10.4291E-03    -10.3193E-03     19.3118E-03    -8.99202E-03    -3.59145E-03     28.7357E+06     24.0221E+06    -123.818E+06     28.3284E+06    -123.411E+06     24.0221E+06     7.75291E+06         21.4927
             983     4.95777E-03     13.2271E-03     427.331E-03     199.356E-03     14.5768E-03     164.758E-03     268.672E-03     207.834E-03     50.7592E-03     18.6963E-03    -8.79700E-03    -9.89822E-03    -9.79145E-03     18.5896E-03    -8.79700E-03    -3.43907E-03     29.3611E+06     26.4538E+06    -127.540E+06     28.9563E+06    -127.135E+06     26.4538E+06     7.93556E+06         21.2756
             984     3.96694E-03     13.2270E-03     429.577E-03     210.573E-03    -486.199E-06     197.204E-03     228.028E-03     214.432E-03     139.101E-03     17.9106E-03    -8.62278E-03    -9.28688E-03    -9.20321E-03     17.8270E-03    -8.62278E-03    -2.95538E-03     31.8398E+06     27.6433E+06    -124.837E+06     31.5166E+06    -124.514E+06     27.6433E+06     6.93775E+06         21.1944
             985     2.97550E-03     13.2263E-03     457.861E-03     216.648E-03    -41.1194E-03     216.846E-03     199.896E-03     216.648E-03    -58.4282E-03     17.3103E-03    -8.52004E-03    -8.79003E-03    -8.73307E-03     17.2533E-03    -8.52004E-03    -2.40645E-03     34.8708E+06     31.4890E+06    -119.003E+06     34.7207E+06    -118.853E+06     31.4890E+06     4.39456E+06         21.1388
             986     1.98378E-03     13.2259E-03     606.496E-03     210.917E-03    -184.161E-03     234.048E-03     188.286E-03     210.917E-03     259.486E-03     17.0747E-03    -8.41281E-03    -8.66160E-03    -8.57575E-03     17.0460E-03    -8.46995E-03    -1.62414E-03     39.8252E+06     32.4399E+06    -115.954E+06     33.8119E+06    -115.922E+06     38.4210E+06     1.48032E+06         21.1082
             987     991.890E-06     13.2261E-03     915.970E-03     449.587E-03    -718.331E-03    -39.1257E-03     236.765E-03     449.587E-03    -548.860E-03     16.7522E-03    -8.23287E-03    -8.51939E-03    -8.45622E-03     16.7462E-03    -8.29001E-03    -554.899E-06     33.7693E+06     26.0676E+06    -120.694E+06     26.6076E+06    -120.652E+06     33.1874E+06     1.39427E+06         21.0967
             988     16.7989E-03     12.6608E-03     886.412E-03     97.4160E-03    -376.712E-03    -376.484E-03     886.184E-03     97.4160E-03     3.56907E-03     195.146E-03    -12.5150E-03    -182.632E-03    -53.4765E-03     65.9907E-03    -12.5150E-03     358.305E-03     155.453E+06     77.2051E+06    -6.90370E+06    -6.76775E+06     155.317E+06     77.2051E+06     193.645E+03         48.4586
             989     15.8275E-03     12.3276E-03     722.779E-03     174.809E-03    -293.352E-03    -292.955E-03     722.382E-03     174.809E-03     15.4874E-03     105.350E-03    -11.2885E-03    -94.0614E-03    -29.6019E-03     40.8907E-03    -11.2885E-03     184.973E-03     110.665E+06     10.0376E+06    -17.8014E+06    -9.38426E+06     110.391E+06     1.89379E+06     3.09159E+06         45.2008
             990     14.8388E-03     12.2598E-03     574.897E-03     223.663E-03    -193.700E-03    -191.520E-03     572.718E-03     223.663E-03     53.0688E-03     34.1766E-03    -10.6550E-03    -23.5238E-03    -15.2414E-03     25.8942E-03    -10.6550E-03     36.1367E-03     44.9008E+06    -8.98417E+06    -52.3733E+06    -7.35074E+06     43.2674E+06    -52.3733E+06     2.16283E+06         41.1105
             991     13.8551E-03     12.2407E-03     495.367E-03     238.285E-03    -121.522E-03    -117.896E-03     474.422E-03     255.603E-03     87.5680E-03     24.8155E-03    -10.4054E-03    -14.4112E-03    -13.9873E-03     24.3916E-03    -10.4054E-03     5.32430E-03     1.81518E+06    -18.6060E+06    -59.5083E+06    -2.07883E+06    -14.7120E+06    -59.5083E+06     134.990E+03         36.9016
             992     12.8668E-03     12.2358E-03     467.778E-03     214.206E-03    -62.7584E-03    -60.3932E-03     395.660E-03     283.959E-03     59.1630E-03     23.9127E-03    -10.2799E-03    -13.6360E-03    -13.5534E-03     23.8302E-03    -10.2799E-03     1.96550E-03     2.71972E+06    -31.9903E+06    -46.5035E+06     2.40754E+06    -40.5344E+06    -37.6472E+06     628.209E+03         33.2670
             993     11.8809E-03     12.2241E-03     435.129E-03     195.909E-03    -10.6291E-03     27.8165E-03     282.110E-03     310.482E-03     67.1131E-03     23.9312E-03    -10.0560E-03    -13.8829E-03    -13.8018E-03     23.8501E-03    -10.0560E-03     2.23027E-03     6.87912E+06    -31.5251E+06    -70.9438E+06     6.72857E+06    -70.7933E+06    -31.5251E+06     1.26901E+06         30.3506
             994     10.8943E-03     12.2195E-03     404.837E-03     210.155E-03     1.21278E-03     98.4823E-03     183.494E-03     334.228E-03     62.8887E-03     23.6492E-03    -9.79508E-03    -13.8631E-03    -13.8586E-03     23.6448E-03    -9.79508E-03    -559.363E-06     10.8101E+06    -20.5051E+06    -94.7772E+06     10.7349E+06    -94.7020E+06    -20.5051E+06     1.46889E+06         27.9531
             995     9.90783E-03     12.2134E-03     398.715E-03     237.171E-03    -19.0941E-03     133.741E-03     126.147E-03     356.904E-03     86.5057E-03     22.8996E-03    -9.49240E-03    -13.4138E-03    -13.3643E-03     22.8501E-03    -9.49240E-03    -2.18587E-03     14.8249E+06    -6.44091E+06    -104.936E+06     14.7406E+06    -104.852E+06    -6.44091E+06     2.19836E+06         25.9238
             996     8.91964E-03     12.2124E-03     397.077E-03     252.757E-03    -31.1893E-03     182.420E-03     56.7945E-03     379.431E-03     82.5699E-03     21.8809E-03    -9.13891E-03    -12.7428E-03    -12.6219E-03     21.7600E-03    -9.13891E-03    -4.01853E-03     19.2918E+06     631.884E+03    -111.356E+06     19.1976E+06    -111.262E+06     631.884E+03     2.78771E+06         24.2376
             997     7.93200E-03     12.2108E-03     399.867E-03     278.617E-03    -58.6172E-03     250.451E-03    -30.4508E-03     399.867E-03     79.8162E-03     20.7692E-03    -8.78854E-03    -11.9798E-03    -11.8196E-03     20.6090E-03    -8.78854E-03    -4.51739E-03     23.7389E+06     7.49591E+06    -115.340E+06     23.6378E+06    -115.239E+06     7.49591E+06     3.07884E+06         22.9065
             998     6.94284E-03     12.2108E-03     416.293E-03     327.655E-03    -123.805E-03     318.089E-03    -114.238E-03     416.293E-03     60.7269E-03     19.4793E-03    -8.48020E-03    -10.9979E-03    -10.8245E-03     19.3060E-03    -8.48020E-03    -4.53904E-03     27.1198E+06     16.6763E+06    -119.541E+06     26.8974E+06    -119.318E+06     16.6763E+06     5.18886E+06         21.9495
             999     5.95285E-03     12.2102E-03     427.962E-03     380.184E-03    -186.800E-03     372.764E-03    -179.380E-03     427.962E-03     51.7147E-03     18.2209E-03    -8.23022E-03    -9.99027E-03    -9.82225E-03     18.0528E-03    -8.23022E-03    -4.30379E-03     30.4696E+06     25.8661E+06    -123.664E+06     29.8018E+06    -123.309E+06     26.1796E+06     7.17371E+06         21.3967
            1000     4.96176E-03     12.2100E-03     435.400E-03     415.940E-03    -227.091E-03     407.203E-03    -218.354E-03     435.400E-03     13.9990E-03     17.2905E-03    -8.01373E-03    -9.27663E-03    -9.10944E-03     17.1233E-03    -8.01373E-03    -4.17343E-03     33.7213E+06     31.0456E+06    -124.723E+06     32.2919E+06    -124.428E+06     32.1808E+06     6.55299E+06         21.1782
            1001     3.97027E-03     12.2103E-03     457.874E-03     422.275E-03    -259.981E-03     413.325E-03    -234.878E-03     441.720E-03     105.472E-03     16.4637E-03    -7.81150E-03    -8.65201E-03    -8.51222E-03     16.3240E-03    -7.81150E-03    -3.68657E-03     36.3262E+06     33.4652E+06    -120.175E+06     35.3526E+06    -120.023E+06     34.2870E+06     4.24779E+06         21.0958
            1002     2.97831E-03     12.2105E-03     497.824E-03     433.407E-03    -316.296E-03     400.140E-03    -239.437E-03     454.232E-03    -103.907E-03     15.7334E-03    -7.67019E-03    -8.06251E-03    -7.98095E-03     15.6518E-03    -7.67019E-03    -2.73087E-03     38.8328E+06     35.2285E+06    -116.147E+06     37.0389E+06    -116.068E+06     36.9436E+06     3.28023E+06         21.0389
            1003     1.98536E-03     12.2107E-03     607.135E-03     462.986E-03    -456.399E-03     436.123E-03    -294.714E-03     472.312E-03     192.370E-03     15.3586E-03    -7.55679E-03    -7.80091E-03    -7.76713E-03     15.3248E-03    -7.55679E-03    -1.66816E-03     41.3531E+06     33.1133E+06    -114.151E+06     34.0728E+06    -114.051E+06     40.2935E+06     3.55043E+06         21.0077
            1004     993.636E-06     12.2094E-03     811.927E-03     627.012E-03    -824.667E-03     283.216E-03    -348.526E-03     679.581E-03    -434.884E-03     14.8604E-03    -7.30646E-03    -7.55398E-03    -7.50710E-03     14.8511E-03    -7.34399E-03    -758.314E-06     34.9871E+06     28.2097E+06    -118.575E+06     28.2850E+06    -118.477E+06     34.8135E+06     2.22597E+06         20.9960
            1005     16.8006E-03     11.6054E-03     641.961E-03     264.431E-03    -311.798E-03    -310.824E-03     640.986E-03     264.431E-03     44.5825E-03     189.447E-03    -12.4553E-03    -176.993E-03    -53.5046E-03     65.9590E-03    -12.4553E-03     346.375E-03     153.016E+06     74.3078E+06    -7.58834E+06    -7.53792E+06     152.966E+06     74.3078E+06     888.604E+03         47.9346
            1006     15.8274E-03     11.3004E-03     524.045E-03     300.979E-03    -232.414E-03    -231.652E-03     480.614E-03     343.649E-03     21.9364E-03     100.834E-03    -11.0775E-03    -89.7560E-03    -32.0089E-03     43.0872E-03    -11.0775E-03     173.362E-03     111.098E+06     9.26989E+06    -17.7283E+06    -10.0219E+06     110.796E+06     1.86544E+06     956.060E+03         44.6928
            1007     14.8471E-03     11.2325E-03     463.320E-03     273.116E-03    -145.844E-03    -141.792E-03     334.707E-03     397.677E-03     41.7118E-03     33.7898E-03    -10.3111E-03    -23.4814E-03    -16.0455E-03     26.3540E-03    -10.3111E-03     34.4539E-03     48.0960E+06    -7.09157E+06    -45.8553E+06    -5.57979E+06     46.5842E+06    -45.8553E+06     426.441E+03         40.6501
            1008     13.8593E-03     11.2173E-03     446.012E-03     222.622E-03    -72.9284E-03    -42.1263E-03     200.895E-03     436.938E-03     95.9752E-03     24.2088E-03    -10.0014E-03    -14.2086E-03    -13.8611E-03     23.8612E-03    -10.0014E-03     5.18693E-03     2.57598E+06    -18.6438E+06    -56.1932E+06    -979.182E+03    -15.0887E+06    -56.1932E+06    -538.324E+03         36.5109
            1009     12.8735E-03     11.2117E-03     471.738E-03     184.831E-03    -58.1352E-03     51.6388E-03     75.0566E-03     471.738E-03     56.0346E-03     23.5605E-03    -9.83294E-03    -13.7302E-03    -13.6580E-03     23.4883E-03    -9.83294E-03     2.29212E-03     3.60696E+06    -30.8027E+06    -47.8474E+06     3.29799E+06    -41.3483E+06    -36.9928E+06    -324.421E+03         32.9639
            1010     11.8856E-03     11.2013E-03     504.220E-03     189.167E-03    -92.5561E-03     144.717E-03    -48.1062E-03     504.220E-03     47.6247E-03     23.4939E-03    -9.57843E-03    -13.9234E-03    -13.8463E-03     23.4168E-03    -9.57843E-03     1.98287E-03     7.56733E+06    -28.3357E+06    -70.2121E+06     7.45299E+06    -70.0978E+06    -28.3357E+06    -207.165E+03         30.1265
            1011     10.8993E-03     11.1951E-03     534.338E-03     230.163E-03    -162.741E-03     224.724E-03    -157.302E-03     534.338E-03     51.3732E-03     23.0286E-03    -9.27936E-03    -13.7569E-03    -13.7173E-03     22.9890E-03    -9.27936E-03    -1.54736E-03     12.0815E+06    -17.1749E+06      -95.29E+06     12.0079E+06    -95.2164E+06    -17.1749E+06    -278.755E+03         27.7746
            1012     9.91234E-03     11.1921E-03     562.301E-03     298.337E-03    -257.935E-03     295.405E-03    -255.002E-03     562.301E-03     45.8260E-03     22.0809E-03    -8.95397E-03    -13.1313E-03    -13.0195E-03     21.9690E-03    -8.95397E-03    -3.49171E-03     16.2085E+06    -2.02090E+06    -105.243E+06     16.1518E+06    -105.186E+06    -2.02090E+06    -25.0210E+03         25.7721
            1013     8.92536E-03     11.1906E-03     588.167E-03     367.890E-03    -357.777E-03     365.568E-03    -355.455E-03     588.167E-03     35.0761E-03     21.0099E-03    -8.57643E-03    -12.4336E-03    -12.2442E-03     20.8204E-03    -8.57643E-03    -4.95735E-03     20.5035E+06     4.41724E+06    -111.674E+06     20.4527E+06    -111.623E+06     4.41724E+06     158.026E+03         24.1092
            1014     7.93673E-03     11.1916E-03     611.670E-03     435.286E-03    -445.298E-03     431.631E-03    -441.643E-03     611.670E-03     77.0501E-03     19.9221E-03    -8.19977E-03    -11.7225E-03    -11.4962E-03     19.6958E-03    -8.19977E-03    -5.31902E-03     24.6506E+06     11.2418E+06    -116.484E+06     24.6217E+06    -116.455E+06     11.2418E+06     1.29633E+06         22.7972
            1015     6.94754E-03     11.1922E-03     632.731E-03     495.650E-03    -521.720E-03     492.149E-03    -518.219E-03     632.731E-03     70.0169E-03     18.6941E-03    -7.85917E-03    -10.8349E-03    -10.5816E-03     18.4408E-03    -7.85917E-03    -5.41426E-03     28.9231E+06     21.3488E+06    -121.985E+06     27.5791E+06    -121.898E+06     22.6060E+06     3.31597E+06         21.8548
            1016     5.95721E-03     11.1937E-03     650.453E-03     555.836E-03    -601.033E-03     555.104E-03    -600.301E-03     650.453E-03     39.8030E-03     17.2722E-03    -7.54215E-03    -9.72988E-03    -9.48050E-03     17.0228E-03    -7.54215E-03    -5.13903E-03     33.5283E+06     28.5914E+06    -123.167E+06     30.2967E+06    -123.015E+06     31.6707E+06     4.21466E+06         21.3098
            1017     4.96580E-03     11.1941E-03     663.783E-03     610.588E-03    -668.942E-03     607.458E-03    -665.812E-03     663.783E-03    -36.2342E-03     15.9427E-03    -7.27919E-03    -8.66346E-03    -8.44995E-03     15.7292E-03    -7.27919E-03    -4.55512E-03     38.2583E+06     34.7779E+06    -120.654E+06     34.6625E+06    -120.539E+06     38.2583E+06     2.63722E+06         21.0920
            1018     3.97365E-03     11.1954E-03     674.587E-03     641.040E-03    -713.196E-03     631.254E-03    -703.409E-03     674.587E-03     60.0517E-03     15.0306E-03    -7.06640E-03    -7.96439E-03    -7.79285E-03     14.8590E-03    -7.06640E-03    -3.94042E-03     41.5108E+06     37.6102E+06    -118.169E+06     38.0692E+06    -118.135E+06     41.0180E+06     1.47719E+06         21.0087
            1019     2.98035E-03     11.1966E-03     689.642E-03     658.142E-03    -746.578E-03     630.631E-03    -719.066E-03     689.642E-03    -78.9948E-03     14.3653E-03    -6.88263E-03    -7.48262E-03    -7.38247E-03     14.2651E-03    -6.88263E-03    -2.90096E-03     43.3396E+06     38.6555E+06    -116.324E+06     39.1052E+06    -116.281E+06     42.8468E+06     2.25902E+06         20.9506
            1020     1.98783E-03     11.1962E-03     743.132E-03     692.834E-03    -833.127E-03     653.696E-03    -765.472E-03     714.616E-03     153.385E-03     13.7000E-03    -6.72454E-03    -6.97550E-03    -6.92761E-03     13.6549E-03    -6.72740E-03    -1.84934E-03     45.7476E+06     38.9628E+06    -114.036E+06     38.8819E+06    -113.955E+06     45.7476E+06     2.70680E+06         20.9165
            1021     993.183E-06     11.1970E-03     914.167E-03     762.451E-03        -1.06132     574.079E-03    -844.430E-03     885.650E-03    -366.502E-03     13.2021E-03    -6.56876E-03    -6.63353E-03    -6.57660E-03     13.1856E-03    -6.60917E-03    -873.922E-06     42.3104E+06     36.7337E+06    -111.909E+06     36.8470E+06    -111.849E+06     42.1368E+06     994.627E+03         20.9035
            1022     16.7976E-03     10.5516E-03     523.020E-03     335.660E-03    -278.581E-03    -277.752E-03     434.237E-03     423.615E-03     38.1439E-03     186.221E-03    -12.4164E-03    -173.804E-03    -54.9023E-03     67.3189E-03    -12.4164E-03     338.283E-03     153.092E+06     77.7153E+06    -8.20274E+06    -8.15957E+06     153.049E+06     77.7153E+06     328.784E+03         47.3328
            1023     15.8336E-03     10.2645E-03     516.191E-03     230.836E-03    -174.085E-03    -173.535E-03     241.028E-03     505.451E-03     10.0051E-03     93.3771E-03    -10.8686E-03    -82.5090E-03    -33.0673E-03     43.9355E-03    -10.8686E-03     156.445E-03     110.949E+06     9.82869E+06    -16.0962E+06    -7.97785E+06     110.804E+06     1.85615E+06    -267.580E+03         44.1052
            1024     14.8507E-03     10.2086E-03     563.778E-03     127.668E-03    -111.787E-03    -83.3194E-03     99.2004E-03     563.778E-03     15.5052E-03     32.6436E-03    -10.0234E-03    -22.6210E-03    -16.2056E-03     26.2282E-03    -10.0234E-03     31.7652E-03     48.5469E+06    -7.62347E+06    -41.2208E+06    -6.82660E+06     47.7500E+06    -41.2208E+06    -960.960E+03         40.1165
            1025     13.8649E-03     10.1930E-03     609.425E-03     106.525E-03    -136.696E-03     34.8656E-03    -65.0368E-03     609.425E-03     62.9624E-03     24.3351E-03    -9.67452E-03    -14.6610E-03    -14.3220E-03     23.9960E-03    -9.67452E-03     5.25607E-03     3.94975E+06    -20.4898E+06    -50.1145E+06    -2.63905E+06    -13.9010E+06    -50.1145E+06    -1.79263E+06         36.0650
            1026     12.8777E-03     10.1880E-03     649.995E-03     169.958E-03    -241.519E-03     162.362E-03    -233.923E-03     649.995E-03     51.5375E-03     23.7801E-03    -9.43565E-03    -14.3493E-03    -14.2954E-03     23.7262E-03    -9.43565E-03     2.11281E-03     3.25330E+06    -27.2727E+06      -46.28E+06     2.91786E+06    -41.9447E+06    -31.2726E+06    -2.30006E+06         32.6223
            1027     11.8929E-03     10.1776E-03     688.304E-03     247.084E-03    -356.924E-03     246.102E-03    -355.941E-03     688.304E-03     44.3048E-03     23.3977E-03    -9.10974E-03    -14.2958E-03    -14.2312E-03     23.3330E-03    -9.10974E-03     1.12842E-03     7.79482E+06    -20.9997E+06    -69.7715E+06     7.59074E+06    -69.5674E+06    -20.9997E+06    -2.32258E+06         29.8748
            1028     10.9062E-03     10.1728E-03     725.622E-03     328.113E-03    -478.419E-03     327.156E-03    -477.462E-03     725.622E-03     45.3461E-03     22.3012E-03    -8.74848E-03    -13.5580E-03    -13.4796E-03     22.2228E-03    -8.74848E-03    -3.05669E-03     13.1995E+06    -11.9039E+06    -95.6977E+06     13.0020E+06    -95.5001E+06    -11.9039E+06    -3.32857E+06         27.5783
            1029     9.91900E-03     10.1708E-03     759.840E-03     442.696E-03    -623.903E-03     442.485E-03    -623.692E-03     759.840E-03     27.6563E-03     21.0672E-03    -8.41468E-03    -12.6543E-03    -12.4633E-03     20.8762E-03    -8.41468E-03    -4.97309E-03     18.9899E+06     5.09214E+06    -105.138E+06     18.8171E+06    -104.965E+06     5.09214E+06    -3.06403E+06         25.6106
            1030     8.92993E-03     10.1710E-03     788.957E-03     548.729E-03    -752.969E-03     548.577E-03    -752.817E-03     788.957E-03     13.3625E-03     19.9906E-03    -8.05605E-03    -11.9350E-03    -11.6407E-03     19.6963E-03    -8.05605E-03    -6.02613E-03     23.0580E+06     14.2747E+06    -112.838E+06     22.9904E+06    -112.771E+06     14.2747E+06    -2.31705E+06         23.9790
            1031     7.94100E-03     10.1726E-03     814.249E-03     618.873E-03    -848.948E-03     617.636E-03    -847.711E-03     814.249E-03     56.5177E-03     18.9368E-03    -7.69475E-03    -11.2434E-03    -10.9036E-03     18.5970E-03    -7.69475E-03    -6.30019E-03     28.5360E+06     20.3723E+06    -119.228E+06     26.3219E+06    -119.187E+06     22.5452E+06    -659.733E+03         22.6929
            1032     6.95138E-03     10.1747E-03     838.408E-03     666.584E-03    -921.021E-03     665.279E-03    -919.716E-03     838.408E-03     46.3403E-03     17.7395E-03    -7.35110E-03    -10.3891E-03    -10.0555E-03     17.4059E-03    -7.35110E-03    -6.05092E-03     35.6302E+06     26.9737E+06    -122.937E+06     28.5582E+06    -122.909E+06     34.0168E+06     907.242E+03         21.7706
            1033     5.96101E-03     10.1776E-03     862.088E-03     720.080E-03    -994.822E-03     719.583E-03    -994.324E-03     862.088E-03     20.2139E-03     16.3149E-03    -6.99509E-03    -9.31926E-03    -9.02459E-03     16.0202E-03    -6.99509E-03    -5.46104E-03     39.4974E+06     31.6761E+06    -120.618E+06     31.6053E+06    -120.547E+06     39.4974E+06    -584.348E+03         21.2385
            1034     4.96907E-03     10.1801E-03     883.382E-03     785.400E-03        -1.07879     783.897E-03        -1.07728     883.382E-03    -3.07149E-03     14.8619E-03    -6.67926E-03    -8.18165E-03    -7.95108E-03     14.6313E-03    -6.67926E-03    -4.58223E-03     39.5490E+06     35.5824E+06    -119.347E+06     35.5048E+06    -119.270E+06     39.5490E+06    -2.54455E+06         21.0243
            1035     3.97562E-03     10.1821E-03     900.679E-03     857.276E-03        -1.16039     853.719E-03        -1.15466     898.511E-03     98.2863E-03     13.8934E-03    -6.45488E-03    -7.43826E-03    -7.27008E-03     13.7252E-03    -6.45488E-03    -3.75922E-03     43.2182E+06     38.5095E+06    -120.546E+06     38.4509E+06    -120.487E+06     43.2182E+06    -1.66133E+06         20.9387
            1036     2.98306E-03     10.1830E-03     917.348E-03     894.617E-03        -1.20563     896.389E-03        -1.19535     905.291E-03    -1.77806E-03     13.1519E-03    -6.25993E-03    -6.89205E-03    -6.78892E-03     13.0488E-03    -6.25993E-03    -2.83902E-03     47.7394E+06     40.7201E+06    -116.930E+06     40.6932E+06    -116.903E+06     47.7394E+06    -50.3519E+03         20.8787
            1037     1.98861E-03     10.1847E-03     932.908E-03     899.056E-03        -1.22895     891.761E-03        -1.20025     911.512E-03     172.716E-03     12.4490E-03    -6.07528E-03    -6.37409E-03    -6.32399E-03     12.4018E-03    -6.07815E-03    -1.77035E-03     51.4228E+06     40.7965E+06    -111.975E+06     40.7750E+06    -111.954E+06     51.4228E+06    -629.776E+03         20.8437
            1038     995.161E-06     10.1846E-03         1.05638     889.879E-03        -1.34195     787.850E-03        -1.22842         1.04488    -293.938E-03     11.8236E-03    -5.83253E-03    -5.99144E-03    -5.97359E-03     11.8086E-03    -5.83539E-03    -754.983E-06     44.6184E+06     36.1384E+06    -111.765E+06     36.1111E+06    -111.738E+06     44.6184E+06    -1.11001E+06         20.8296
            1039     16.7990E-03     9.47511E-03     579.781E-03     238.527E-03    -265.428E-03    -263.002E-03     242.101E-03     573.780E-03    -6.94108E-03     181.474E-03    -12.1806E-03    -169.292E-03    -55.6192E-03     67.8007E-03    -12.1806E-03     327.988E-03     153.619E+06     80.7200E+06    -5.32005E+06    -5.29792E+06     153.596E+06     80.7200E+06    -52.3191E+03         46.6504
            1040     15.8388E-03     9.23837E-03     658.773E-03     60.4050E-03    -162.208E-03    -130.319E-03     28.5160E-03     658.773E-03     24.4544E-03     83.4753E-03    -10.5968E-03    -72.8808E-03    -30.2271E-03     40.8216E-03    -10.5968E-03     138.000E-03     108.206E+06     9.04134E+06    -16.9477E+06    -6.84704E+06     108.168E+06    -1.02106E+06     546.881E+03         43.4251
            1041     14.8530E-03     9.18088E-03     720.526E-03     31.2872E-03    -190.588E-03    -4.57619E-03    -154.725E-03     720.526E-03     18.4582E-03     32.7105E-03    -9.76350E-03    -22.9491E-03    -16.6253E-03     26.3867E-03    -9.76350E-03     30.1019E-03     49.3792E+06    -5.85127E+06    -40.9849E+06    -5.53075E+06     49.0587E+06    -40.9849E+06    -64.0024E+03         39.4904
            1042     13.8688E-03     9.16928E-03     770.771E-03     124.631E-03    -334.381E-03     123.042E-03    -332.792E-03     770.771E-03     45.2308E-03     24.8844E-03    -9.34766E-03    -15.5386E-03    -15.3451E-03     24.6910E-03    -9.34766E-03     4.01813E-03     6.40212E+06    -19.3014E+06    -49.1598E+06    -2.59242E+06    -10.3068E+06    -49.1598E+06    -3.45623E+06         35.5682
            1043     12.8842E-03     9.16344E-03     817.086E-03     241.259E-03    -497.669E-03     239.987E-03    -496.396E-03     817.086E-03     48.8185E-03     23.8414E-03    -9.02969E-03    -14.8178E-03    -14.7581E-03     23.7818E-03    -9.02969E-03     2.41002E-03     3.69742E+06    -26.6832E+06    -48.7226E+06     2.71675E+06    -42.9547E+06    -31.4704E+06    -5.67705E+06         32.2696
            1044     11.8981E-03     9.15399E-03     861.609E-03     347.209E-03    -648.878E-03     346.168E-03    -647.837E-03     861.609E-03     55.1088E-03     23.0906E-03    -8.67387E-03    -14.4244E-03    -14.3548E-03     23.0210E-03    -8.67387E-03     1.15933E-03     10.6213E+06    -15.2522E+06    -70.3323E+06     10.0489E+06    -69.7599E+06    -15.2522E+06    -6.06256E+06         29.6105
            1045     10.9122E-03     9.15118E-03     903.675E-03     461.138E-03    -802.198E-03     460.123E-03    -801.184E-03     903.675E-03     49.5376E-03     21.6178E-03    -8.29796E-03    -13.3244E-03    -13.2475E-03     21.5409E-03    -8.29796E-03    -3.01896E-03     15.9049E+06    -2.05911E+06    -95.1156E+06     15.4966E+06    -94.7074E+06    -2.05911E+06    -5.97182E+06         27.3667
            1046     9.92387E-03     9.15102E-03     941.472E-03     588.222E-03    -963.801E-03     587.165E-03    -962.744E-03     941.472E-03     59.9356E-03     20.2032E-03    -7.95086E-03    -12.2540E-03    -12.0499E-03     19.9990E-03    -7.95086E-03    -5.02321E-03     20.8903E+06     12.1669E+06    -107.405E+06     18.6774E+06    -106.966E+06     13.9407E+06    -6.42387E+06         25.4463
            1047     8.93544E-03     9.15232E-03     974.640E-03     691.360E-03        -1.09865     690.060E-03        -1.09735     974.640E-03     79.9887E-03     18.9435E-03    -7.59965E-03    -11.3443E-03    -11.0162E-03     18.6154E-03    -7.59965E-03    -6.23864E-03     26.7265E+06     20.1753E+06    -113.910E+06     21.9853E+06    -113.553E+06     24.5596E+06    -5.90119E+06         23.8565
            1048     7.94565E-03     9.15502E-03         1.00475     768.118E-03        -1.20552     766.939E-03        -1.20434         1.00475     84.9641E-03     17.6869E-03    -7.26545E-03    -10.4217E-03    -10.0427E-03     17.3079E-03    -7.26545E-03    -6.47594E-03     32.8193E+06     25.1793E+06    -122.113E+06     25.6252E+06    -121.922E+06     32.1822E+06    -4.34167E+06         22.6039
            1049     6.95469E-03     9.15879E-03         1.03282     839.277E-03        -1.30749     838.220E-03        -1.30643         1.03282     63.9352E-03     16.4311E-03    -6.96045E-03    -9.47077E-03    -9.12496E-03     16.0853E-03    -6.96045E-03    -5.93990E-03     41.4944E+06     31.1458E+06    -122.959E+06     30.9629E+06    -122.776E+06     41.4944E+06    -3.97058E+06         21.7055
            1050     5.96284E-03     9.16242E-03         1.05862     907.258E-03        -1.39510     906.875E-03        -1.39472         1.05862     34.5281E-03     15.3175E-03    -6.65249E-03    -8.66451E-03    -8.38108E-03     15.0341E-03    -6.65249E-03    -5.18046E-03     45.6960E+06     35.5871E+06    -118.438E+06     35.3463E+06    -118.197E+06     45.6960E+06    -5.56287E+06         21.1892
            1051     4.97060E-03     9.16685E-03         1.08163     971.197E-03        -1.47105     970.968E-03        -1.47082         1.08163     26.6029E-03     14.2740E-03    -6.34718E-03    -7.92592E-03    -7.71776E-03     14.0658E-03    -6.34718E-03    -4.24866E-03     43.5269E+06     36.7665E+06    -120.955E+06     36.5409E+06    -120.730E+06     43.5269E+06    -5.76163E+06         20.9838
            1052     3.97811E-03     9.16921E-03         1.10176         1.03956        -1.56340         1.03983        -1.56150         1.09959     87.1440E-03     13.1667E-03    -6.08700E-03    -7.07912E-03    -6.94658E-03     13.0342E-03    -6.08700E-03    -3.23548E-03     42.7244E+06     37.0302E+06    -123.251E+06     36.8889E+06    -123.110E+06     42.7244E+06    -4.64787E+06         20.9005
            1053     2.98353E-03     9.17158E-03         1.12716         1.09212        -1.64236         1.10992        -1.63899         1.10597    -1.00185E-03     12.3025E-03    -5.89701E-03    -6.40519E-03    -6.32420E-03     12.2215E-03    -5.89701E-03    -2.41980E-03     46.5180E+06     37.6439E+06    -118.480E+06     37.4611E+06    -118.297E+06     46.5180E+06    -4.42144E+06         20.8401
            1054     1.98967E-03     9.17321E-03         1.14359         1.09639        -1.66087         1.13081        -1.64809         1.09639     132.408E-03     11.7379E-03    -5.72589E-03    -6.01255E-03    -5.97820E-03     11.7036E-03    -5.72589E-03    -1.43969E-03     50.8724E+06     37.2120E+06    -112.945E+06     37.0619E+06    -112.795E+06     50.8724E+06    -3.80964E+06         20.8048
            1055     994.811E-06     9.17355E-03         1.20233         1.03875        -1.68063         1.00100        -1.61468         1.17414    -306.490E-03     11.0766E-03    -5.43565E-03    -5.64165E-03    -5.63312E-03     11.0681E-03    -5.43565E-03    -633.132E-06     41.0799E+06     32.9855E+06    -116.454E+06     33.0292E+06    -116.396E+06     40.9782E+06    -2.89663E+06         20.7916
            1056     16.8198E-03     8.42414E-03     713.005E-03     72.1918E-03    -249.559E-03    -238.184E-03     60.8166E-03     713.005E-03     8.50362E-03     178.233E-03    -11.8931E-03    -166.340E-03    -55.6251E-03     67.5181E-03    -11.8931E-03     321.717E-03     151.764E+06     80.3746E+06    -5.36525E+06    -5.34136E+06     151.740E+06     80.3746E+06     27.2774E+03         45.8733
            1057     15.8375E-03     8.21019E-03     799.666E-03    -19.3597E-03    -236.752E-03    -93.0876E-03    -163.025E-03     799.666E-03     49.2656E-03     77.3288E-03    -10.3423E-03    -66.9880E-03    -28.3288E-03     38.6697E-03    -10.3423E-03     125.410E-03     106.693E+06     6.13965E+06    -15.0796E+06    -9.65245E+06     106.655E+06     750.827E+03     490.686E+03         42.6372
            1058     14.8575E-03     8.15239E-03     864.658E-03     64.9383E-03    -385.510E-03     63.4870E-03    -384.059E-03     864.658E-03     22.2482E-03     32.0541E-03    -9.49700E-03    -22.5609E-03    -17.5146E-03     27.0078E-03    -9.49700E-03     25.6337E-03     54.0787E+06    -7.84612E+06    -36.3431E+06    -8.20967E+06     53.8307E+06    -35.7315E+06    -318.181E+03         38.7585
            1059     13.8740E-03     8.14472E-03     919.486E-03     196.545E-03    -571.305E-03     195.496E-03    -570.256E-03     919.486E-03     45.8851E-03     24.3396E-03    -9.01575E-03    -15.3281E-03    -15.2897E-03     24.3012E-03    -9.01575E-03     1.86344E-03     8.20565E+06    -19.6065E+06    -46.7899E+06    -5.45727E+06    -5.94354E+06    -46.7899E+06    -4.78715E+06         35.0115
            1060     12.8879E-03     8.13931E-03     971.358E-03     313.100E-03    -738.969E-03     312.174E-03    -738.043E-03     971.358E-03     48.9464E-03     23.3366E-03    -8.67875E-03    -14.6640E-03    -14.6049E-03     23.2775E-03    -8.67875E-03     2.29327E-03     1.36858E+06    -25.6656E+06    -48.8869E+06    -797.064E+03    -42.0344E+06    -30.3525E+06    -9.13722E+06         31.9025
            1061     11.9026E-03     8.13122E-03         1.02113     449.276E-03    -920.344E-03     448.439E-03    -919.506E-03         1.02113     62.9424E-03     22.2343E-03    -8.33735E-03    -13.9050E-03    -13.8257E-03     22.1551E-03    -8.33735E-03     839.204E-06     6.77257E+06    -12.1434E+06    -72.7012E+06     4.93814E+06    -70.8668E+06    -12.1434E+06    -10.8904E+06         29.3340
            1062     10.9152E-03     8.13023E-03         1.06635     599.534E-03        -1.10759     598.807E-03        -1.10686         1.06635     36.1426E-03     20.8064E-03    -7.98687E-03    -12.8238E-03    -12.7451E-03     20.7278E-03    -7.98687E-03    -3.11335E-03     12.0689E+06     3.67122E+06    -96.8060E+06     10.9406E+06    -95.6777E+06     3.67122E+06    -10.1283E+06         27.1449
            1063     9.92791E-03     8.13147E-03         1.10647     723.042E-03        -1.26874     722.151E-03        -1.26785         1.10647     33.2964E-03     19.3523E-03    -7.64848E-03    -11.7052E-03    -11.5485E-03     19.1956E-03    -7.64848E-03    -4.31935E-03     21.4273E+06     16.9199E+06    -108.423E+06     17.5397E+06    -107.379E+06     19.7640E+06    -10.6572E+06         25.2892
            1064     8.93846E-03     8.13470E-03         1.14383     807.407E-03        -1.39916     806.232E-03        -1.39798         1.14383     70.8423E-03     17.9007E-03    -7.33435E-03    -10.5668E-03    -10.3413E-03     17.6752E-03    -7.33435E-03    -4.98187E-03     31.9838E+06     23.0161E+06    -116.532E+06     22.1414E+06    -115.657E+06     31.9838E+06    -10.6406E+06         23.7543
            1065     7.94770E-03     8.13925E-03         1.17955     896.575E-03        -1.52673     895.749E-03        -1.52590         1.17955     76.0753E-03     16.5495E-03    -7.03836E-03    -9.51148E-03    -9.25547E-03     16.2935E-03    -7.03836E-03    -5.09167E-03     36.9986E+06     26.9236E+06    -124.173E+06     26.1835E+06    -123.433E+06     36.9986E+06    -10.0491E+06         22.5437
            1066     6.95610E-03     8.14386E-03         1.21156         1.00071        -1.66331         1.00004        -1.66264         1.21156     53.3820E-03     15.4337E-03    -6.77972E-03    -8.65353E-03    -8.41091E-03     15.1911E-03    -6.77972E-03    -4.76244E-03     41.7839E+06     31.7925E+06    -123.651E+06     30.9957E+06    -122.854E+06     41.7839E+06    -10.6011E+06         21.6732
            1067     5.96360E-03     8.14888E-03         1.23886         1.08288        -1.77052         1.08247        -1.77010         1.23886     43.1307E-03     14.5840E-03    -6.54492E-03    -8.03861E-03    -7.82925E-03     14.3747E-03    -6.54492E-03    -4.29020E-03     44.7407E+06     33.8920E+06    -120.530E+06     33.2461E+06    -119.884E+06     44.7407E+06    -9.54785E+06         21.1732
            1068     4.97097E-03     8.15303E-03         1.26348         1.14007        -1.84086         1.13963        -1.84042         1.26348     6.95841E-03     13.8539E-03    -6.32182E-03    -7.53166E-03    -7.38380E-03     13.7060E-03    -6.32182E-03    -3.48332E-03     45.4879E+06     34.5756E+06    -124.552E+06     34.1485E+06    -124.125E+06     45.4879E+06    -8.03483E+06         20.9797
            1069     3.97752E-03     8.15754E-03         1.28567         1.20220        -1.91684         1.20160        -1.91624         1.28567     19.0348E-03     13.0654E-03    -6.09486E-03    -6.96994E-03    -6.88867E-03     12.9842E-03    -6.09486E-03    -2.51067E-03     45.5689E+06     35.2310E+06    -125.091E+06     34.8788E+06    -124.738E+06     45.5689E+06    -7.26578E+06         20.9070
            1070     2.98404E-03     8.16028E-03         1.31050         1.25939        -2.00218         1.26680        -2.00046         1.30138    -43.0604E-03     12.2748E-03    -5.86675E-03    -6.40743E-03    -6.35936E-03     12.2267E-03    -5.86675E-03    -1.85431E-03     43.4121E+06     35.9150E+06    -120.037E+06     35.5720E+06    -119.619E+06     43.3375E+06    -7.93300E+06         20.8517
            1071     1.98954E-03     8.16222E-03         1.34341         1.28844        -2.07671         1.32391        -2.06976         1.30098     100.898E-03     11.6018E-03    -5.69371E-03    -5.90823E-03    -5.88488E-03     11.5784E-03    -5.69371E-03    -1.23260E-03     43.0456E+06     34.1016E+06    -119.634E+06     33.8856E+06    -119.343E+06     42.9710E+06    -5.90532E+06         20.8164
            1072     995.097E-06     8.16377E-03         1.36613         1.26140        -2.07434         1.25711        -2.03674         1.33283    -220.383E-03     11.0816E-03    -5.49383E-03    -5.58831E-03    -5.58168E-03     11.0750E-03    -5.49383E-03    -514.908E-06     35.7729E+06     28.9215E+06    -119.955E+06     30.0245E+06    -119.888E+06     34.6027E+06    -3.12220E+06         20.8037
            1073     16.8031E-03     7.37355E-03     839.463E-03    -42.0808E-03    -271.784E-03    -212.361E-03    -101.504E-03     839.463E-03     36.1987E-03     173.477E-03    -11.7453E-03    -161.732E-03    -57.2351E-03     68.9799E-03    -11.7453E-03     309.850E-03     150.528E+06     80.2282E+06    -7.05397E+06    -6.99205E+06     150.466E+06     80.2282E+06     863.361E+03         44.9923
            1074     15.8452E-03     7.17288E-03     926.459E-03    -32.1752E-03    -370.259E-03    -49.0879E-03    -353.346E-03     926.459E-03     24.4291E-03     71.4645E-03    -10.0955E-03    -61.3705E-03    -29.9795E-03     40.0735E-03    -10.0955E-03     109.747E-03     108.365E+06     11.0417E+06    -13.1012E+06    -13.0414E+06     108.305E+06     11.0417E+06    -440.773E+03         41.7536
            1075     14.8654E-03     7.12835E-03     994.465E-03     109.047E-03    -579.041E-03     108.236E-03    -578.230E-03     994.465E-03     29.5246E-03     29.3402E-03    -9.12028E-03    -20.2213E-03    -17.0430E-03     26.1619E-03    -9.12028E-03     19.5249E-03     58.6813E+06    -9.87567E+06    -34.7657E+06    -11.7177E+06     58.4060E+06    -32.6484E+06    -1.10364E+06         37.9447
            1076     13.8779E-03     7.11989E-03         1.05437     250.146E-03    -776.694E-03     249.155E-03    -775.704E-03         1.05437     52.3140E-03     22.8784E-03    -8.65302E-03    -14.2274E-03    -14.2168E-03     22.8677E-03    -8.65302E-03     612.564E-06     10.3239E+06    -20.2277E+06    -45.5647E+06    -9.04360E+06    -860.197E+03    -45.5647E+06    -5.40696E+06         34.3824
            1077     12.8931E-03     7.11648E-03         1.11098     398.303E-03    -980.041E-03     397.811E-03    -979.550E-03         1.11098     51.9231E-03     22.1673E-03    -8.36560E-03    -13.8084E-03    -13.7632E-03     22.1220E-03    -8.36560E-03     1.53474E-03    -1.33248E+06    -26.4775E+06    -44.8307E+06    -5.51828E+06    -38.0805E+06    -29.0418E+06    -11.3583E+06         31.4691
            1078     11.9055E-03     7.10919E-03         1.16427     551.148E-03        -1.18161     550.480E-03        -1.18094         1.16427     56.7098E-03     20.9018E-03    -8.06563E-03    -12.8447E-03    -12.7658E-03     20.8229E-03    -8.06563E-03     273.528E-06     2.24781E+06    -14.2591E+06     -74.226E+06    -1.32308E+06    -70.6551E+06    -14.2591E+06    -15.5027E+06         29.0229
            1079     10.9183E-03     7.11051E-03         1.21334     693.885E-03        -1.36786     693.452E-03        -1.36743         1.21334     23.7378E-03     19.3010E-03    -7.80295E-03    -11.5044E-03    -11.4394E-03     19.2361E-03    -7.80295E-03    -2.75667E-03     8.88969E+06     2.36400E+06    -100.228E+06     5.81500E+06    -97.1530E+06     2.36400E+06    -17.5270E+06         26.9264
            1080     9.92837E-03     7.11304E-03         1.25888     810.136E-03        -1.52279     810.076E-03        -1.52273         1.25888     7.14138E-03     17.9768E-03    -7.56810E-03    -10.4123E-03    -10.3350E-03     17.8996E-03    -7.56810E-03    -2.82046E-03     20.4549E+06     14.6891E+06    -111.058E+06     13.9242E+06    -108.355E+06     18.5169E+06    -17.7735E+06         25.1566
            1081     8.93814E-03     7.11824E-03         1.30144     925.817E-03        -1.67519     925.782E-03        -1.67516         1.30144     13.8552E-03     16.9580E-03    -7.37904E-03    -9.57994E-03    -9.48405E-03     16.8621E-03    -7.37904E-03    -3.00707E-03     34.9234E+06     23.4625E+06    -120.783E+06     21.3618E+06    -118.683E+06     34.9234E+06    -16.5329E+06         23.6913
            1082     7.94705E-03     7.12368E-03         1.34003         1.04237        -1.83316         1.04219        -1.83298         1.34003     34.0618E-03     16.0446E-03    -7.16486E-03    -8.88027E-03    -8.77582E-03     15.9401E-03    -7.16486E-03    -2.94471E-03     40.2656E+06     28.3258E+06    -126.179E+06     26.5564E+06    -124.410E+06     40.2656E+06    -16.1667E+06         22.5315
            1083     6.95497E-03     7.13004E-03         1.37411         1.14524        -1.97935         1.14500        -1.97912         1.37411     17.3081E-03     15.2321E-03    -6.95821E-03    -8.27350E-03    -8.17717E-03     15.1358E-03    -6.95821E-03    -2.69066E-03     41.6084E+06     30.3799E+06    -126.708E+06     28.7012E+06    -125.030E+06     41.6084E+06    -15.9073E+06         21.6924
            1084     5.96270E-03     7.13485E-03         1.40408         1.23081        -2.10121         1.23024        -2.10064         1.40408     43.1415E-03     14.5490E-03    -6.78948E-03    -7.75926E-03    -7.67608E-03     14.4658E-03    -6.78948E-03    -2.42714E-03     44.7834E+06     32.6800E+06    -127.310E+06     31.4871E+06    -126.117E+06     44.7834E+06    -13.4981E+06         21.2070
            1085     4.96940E-03     7.14079E-03         1.43122         1.29732        -2.18471         1.29660        -2.18398         1.43122     21.9771E-03     14.0147E-03    -6.63408E-03    -7.38099E-03    -7.31427E-03     13.9480E-03    -6.63408E-03    -2.18943E-03     46.2773E+06     33.1853E+06    -128.534E+06     32.4492E+06    -127.798E+06     46.2773E+06    -10.5799E+06         21.0226
            1086     3.97610E-03     7.14459E-03         1.45563         1.36302        -2.25829         1.36229        -2.25756         1.45563     25.5449E-03     13.5412E-03    -6.45387E-03    -7.08724E-03    -7.04858E-03     13.5025E-03    -6.45387E-03    -1.68516E-03     44.1051E+06     31.8431E+06    -126.946E+06     31.1846E+06    -126.288E+06     44.1051E+06    -9.92935E+06         20.9622
            1087     2.98290E-03     7.14857E-03         1.47783         1.41262        -2.32510         1.41111        -2.32359         1.47783    -23.0908E-03     12.9279E-03    -6.22987E-03    -6.69761E-03    -6.67628E-03     12.9066E-03    -6.22987E-03    -1.19311E-03     35.3237E+06     30.3627E+06    -123.663E+06     29.8353E+06    -123.061E+06     35.2491E+06    -9.21371E+06         20.9166
            1088     1.98895E-03     7.15143E-03         1.51416         1.45014        -2.40652         1.46130        -2.40106         1.49754     81.9397E-03     12.3390E-03    -6.07335E-03    -6.26544E-03    -6.25618E-03     12.3297E-03    -6.07335E-03    -659.171E-06     33.4362E+06     28.1517E+06    -127.059E+06     27.9514E+06    -126.784E+06     33.3616E+06    -6.01114E+06         20.8851
            1089     994.453E-06     7.15272E-03         1.56565         1.46352        -2.49223         1.46357        -2.47566         1.54903    -142.717E-03     11.9068E-03    -5.90505E-03    -6.00188E-03    -5.93945E-03     11.8995E-03    -5.96017E-03     41.9535E-06     32.1343E+06     25.3949E+06    -124.310E+06     26.3722E+06    -124.218E+06     31.0658E+06    -2.85907E+06         20.8752
            1090     16.8206E-03     6.31032E-03     952.027E-03    -101.499E-03    -341.108E-03    -195.966E-03    -246.641E-03     952.027E-03     20.3725E-03     167.050E-03    -11.5366E-03    -155.516E-03    -61.4523E-03     72.9867E-03    -11.5366E-03     292.148E-03     152.954E+06     84.4829E+06    -4.99321E+06    -4.85898E+06     152.819E+06     84.4829E+06     1.76427E+06         44.0183
            1091     15.8531E-03     6.13999E-03         1.03913    -17.3909E-03    -513.276E-03    -17.4790E-03    -513.188E-03         1.03913    -4.75606E-03     62.7464E-03    -9.70755E-03    -53.0435E-03    -29.5542E-03     39.2571E-03    -9.70755E-03     90.7570E-03     109.591E+06     15.8671E+06    -12.7583E+06    -11.8515E+06     109.398E+06     15.1536E+06    -20.5447E+03         40.8104
            1092     14.8697E-03     6.10374E-03         1.10980     150.127E-03    -744.460E-03     149.292E-03    -743.625E-03         1.10980     24.0948E-03     26.6057E-03    -8.67319E-03    -17.9361E-03    -15.6142E-03     24.2838E-03    -8.67319E-03     15.0052E-03     61.1810E+06    -13.9333E+06    -42.4763E+06    -15.2493E+06     60.9913E+06    -40.9706E+06     556.904E+03         37.1047
            1093     13.8845E-03     6.09825E-03         1.17387     306.569E-03    -964.222E-03     305.650E-03    -963.304E-03         1.17387     46.0231E-03     21.2193E-03    -8.26422E-03    -12.9588E-03    -12.9281E-03     21.1885E-03    -8.26422E-03     526.705E-06     15.3168E+06    -21.2155E+06    -54.1793E+06    -13.3357E+06     7.43700E+06    -54.1793E+06    -5.74602E+06         33.7219
            1094     12.8954E-03     6.09401E-03         1.23442     473.244E-03        -1.18819     472.941E-03        -1.18788         1.23442     38.3922E-03     20.2795E-03    -8.08432E-03    -12.2049E-03    -12.1569E-03     20.2316E-03    -8.08432E-03     1.85853E-03    -2.76387E+06    -27.9974E+06    -46.2268E+06    -9.34597E+06    -33.0047E+06    -34.6374E+06    -13.2198E+06         30.9930
            1095     11.9084E-03     6.08944E-03         1.29101     638.128E-03        -1.40833     637.970E-03        -1.40817         1.29101     27.2538E-03     18.7669E-03    -7.90335E-03    -10.8739E-03    -10.8283E-03     18.7213E-03    -7.90335E-03     637.222E-06     1.55292E+06    -21.7666E+06    -73.3283E+06    -4.53966E+06    -67.2357E+06    -21.7666E+06    -19.9047E+06         28.6983
            1096     10.9174E-03     6.09264E-03         1.34408     769.617E-03        -1.59246     769.458E-03        -1.59230         1.34408     29.8974E-03     17.2750E-03    -7.82084E-03    -9.46277E-03    -9.43748E-03     17.2498E-03    -7.82084E-03    -860.340E-06     8.24679E+06    -3.81918E+06    -102.730E+06     2.10941E+06    -96.5929E+06    -3.81918E+06    -24.9337E+06         26.7348
            1097     9.92643E-03     6.09657E-03         1.39471     893.896E-03        -1.75883     893.613E-03        -1.75854         1.39471     48.9517E-03     16.5890E-03    -7.75609E-03    -8.83767E-03    -8.78848E-03     16.5633E-03    -7.77959E-03    -372.221E-06     16.2333E+06     10.4822E+06    -116.655E+06     8.03917E+06    -111.218E+06     13.2398E+06    -25.6140E+06         25.0763
            1098     8.93456E-03     6.10214E-03         1.44152         1.03776        -1.94097         1.03751        -1.94072         1.44152     46.5706E-03     16.2897E-03    -7.71947E-03    -8.57149E-03    -8.51919E-03     16.2609E-03    -7.74297E-03    -244.673E-06     27.6627E+06     18.3305E+06    -127.612E+06     14.3608E+06    -123.153E+06     27.1739E+06    -24.6238E+06         23.6958
            1099     7.94261E-03     6.10873E-03         1.48240         1.17498        -2.11657         1.17469        -2.11629         1.48240     53.4111E-03     16.1106E-03    -7.66783E-03    -8.44358E-03    -8.42103E-03     16.0881E-03    -7.66783E-03    -150.461E-06     35.2690E+06     23.5121E+06    -131.828E+06     20.1494E+06    -128.465E+06     35.2690E+06    -22.0784E+06         22.5948
            1100     6.95091E-03     6.11486E-03         1.51865         1.26876        -2.25325         1.26857        -2.25306         1.51865     24.8997E-03     15.7916E-03    -7.54943E-03    -8.24220E-03    -8.22250E-03     15.7719E-03    -7.54943E-03    -28.5186E-06     36.7294E+06     26.6305E+06    -131.590E+06     24.0519E+06    -129.011E+06     36.7294E+06    -19.8179E+06         21.7868
            1101     5.95830E-03     6.12145E-03         1.55179         1.35893        -2.37964         1.35849        -2.37921         1.55179     37.0880E-03     15.4589E-03    -7.45225E-03    -8.00642E-03    -7.99109E-03     15.4436E-03    -7.45225E-03    -44.0291E-06     39.6916E+06     27.1650E+06    -135.276E+06     25.2629E+06    -133.374E+06     39.6916E+06    -17.0717E+06         21.3066
            1102     4.96609E-03     6.12657E-03         1.57922         1.45883        -2.50421         1.45836        -2.50375         1.57922     38.7223E-03     15.1513E-03    -7.32897E-03    -7.82281E-03    -7.80612E-03     15.1347E-03    -7.32897E-03    -140.461E-06     38.7233E+06     25.8069E+06    -133.592E+06     24.7101E+06    -132.495E+06     38.7233E+06    -12.8979E+06         21.1194
            1103     3.97361E-03     6.13172E-03         1.60206         1.51124        -2.58048         1.51070        -2.57994         1.60206     52.6428E-03     14.6984E-03    -7.17073E-03    -7.52808E-03    -7.51679E-03     14.6871E-03    -7.17073E-03    -234.426E-06     32.2300E+06     25.2808E+06    -129.488E+06     25.2406E+06    -128.576E+06     31.3588E+06    -11.6252E+06         21.0661
            1104     2.97998E-03     6.13576E-03         1.62713         1.54286        -2.62905         1.54184        -2.62802         1.62713    -6.55238E-03     14.3387E-03    -7.07190E-03    -7.26660E-03    -7.25951E-03     14.3338E-03    -7.07408E-03    -182.687E-06     31.4413E+06     24.6069E+06    -130.742E+06     24.7832E+06    -130.047E+06     30.5700E+06    -10.0441E+06         21.0321
            1105     1.98697E-03     6.13910E-03         1.65809         1.59109        -2.70890         1.58935        -2.70715         1.65809     35.2134E-03     14.1106E-03    -6.99144E-03    -7.11918E-03    -7.11570E-03     14.1093E-03    -6.99362E-03    -53.4923E-06     34.8124E+06     23.5614E+06    -131.902E+06     23.1725E+06    -131.513E+06     34.8124E+06    -7.59284E+06         21.0114
            1106     993.768E-06     6.14068E-03         1.72003         1.63811        -2.84030         1.62994        -2.83212         1.72003    -107.725E-03     13.6977E-03    -6.68012E-03    -7.01761E-03    -6.70774E-03     13.6868E-03    -6.97905E-03     659.955E-06     26.9286E+06     16.5571E+06    -133.067E+06     19.1742E+06    -132.857E+06     24.1011E+06    -2.55269E+06         21.0140
            1107     16.8202E-03     5.24207E-03         1.04995    -147.123E-03    -414.935E-03    -180.282E-03    -381.776E-03         1.04995     815.243E-06     162.783E-03    -11.3692E-03    -151.420E-03    -66.0743E-03     77.4376E-03    -11.3692E-03     277.266E-03     152.055E+06     84.1561E+06    -2.83054E+06    -2.36196E+06     151.587E+06     84.1561E+06     4.40887E+06         42.9384
            1108     15.8593E-03     5.11223E-03         1.13669    -3.92857E-03    -640.995E-03    -4.07187E-03    -640.852E-03         1.13669    -1.24687E-03     55.4793E-03    -9.39733E-03    -46.0907E-03    -29.2032E-03     38.5918E-03    -9.39733E-03     73.5977E-03     108.529E+06     17.4215E+06    -12.0284E+06    -10.6381E+06     107.852E+06     16.7080E+06     5.96542E+06         39.8073
            1109     14.8760E-03     5.07885E-03         1.20987     185.800E-03    -892.559E-03     185.518E-03    -892.277E-03         1.20987     11.5676E-03     24.4192E-03    -8.35885E-03    -16.0694E-03    -14.1901E-03     22.5399E-03    -8.35885E-03     12.2083E-03     67.0907E+06    -14.3397E+06    -44.6057E+06    -16.2188E+06     66.7913E+06    -42.4272E+06     2.62187E+06         36.2656
            1110     13.8864E-03     5.07968E-03         1.27703     369.703E-03        -1.13967     369.290E-03        -1.13926         1.27703     40.7013E-03     19.2603E-03    -7.98475E-03    -11.2854E-03    -11.1341E-03     19.1091E-03    -7.98475E-03     1.75715E-03     23.6658E+06    -20.6386E+06    -65.9407E+06    -14.4104E+06     17.4376E+06    -65.9407E+06    -6.66986E+06         33.0906
            1111     12.8984E-03     5.07255E-03         1.34049     537.543E-03        -1.36913     537.343E-03        -1.36893         1.34049     30.7318E-03     17.9499E-03    -7.92544E-03    -10.0320E-03    -9.81665E-03     17.7491E-03    -7.93993E-03     4.12371E-03     462.855E+03    -30.9394E+06    -55.1528E+06    -9.50079E+06    -26.6348E+06    -49.4937E+06    -15.2433E+06         30.5547
            1112     11.9062E-03     5.07369E-03         1.40083     694.585E-03        -1.58316     694.473E-03        -1.58305         1.40083     28.4104E-03     16.4671E-03    -7.64895E-03    -8.82115E-03    -8.40695E-03     16.3744E-03    -7.97047E-03     2.49887E-03     3.74567E+06    -33.3808E+06    -70.6829E+06    -4.74028E+06    -61.5707E+06    -34.0070E+06    -23.0317E+06         28.4223
            1113     10.9137E-03     5.07602E-03         1.45794     843.686E-03        -1.78218     843.437E-03        -1.78193         1.45794     33.2467E-03     15.7019E-03    -7.38105E-03    -8.32546E-03    -7.52980E-03     15.6223E-03    -8.09718E-03     2.10874E-03     7.18246E+06    -18.5021E+06    -103.930E+06    -1.14375E+06    -95.6039E+06    -18.5021E+06    -29.1856E+06         26.6111
            1114     9.92058E-03     5.08157E-03         1.51120     996.546E-03        -1.98015     996.277E-03        -1.97988         1.51120     27.6987E-03     15.8158E-03    -7.50318E-03    -8.31667E-03    -7.47020E-03     15.7185E-03    -8.25235E-03     2.55989E-03     11.4421E+06    -2.89968E+06    -121.999E+06     3.35418E+06    -113.911E+06    -2.89968E+06    -31.6393E+06         25.0865
            1115     8.92760E-03     5.08654E-03         1.56000         1.13579        -2.16563         1.13555        -2.16539         1.56000     25.8867E-03     16.1927E-03    -7.75935E-03    -8.43571E-03    -7.71591E-03     16.0984E-03    -8.38483E-03     2.69122E-03     17.5147E+06     6.13355E+06    -135.727E+06     8.62254E+06    -128.800E+06     8.09937E+06    -31.3476E+06         23.8059
            1116     7.93547E-03     5.09313E-03         1.60432         1.26284        -2.33280         1.26259        -2.33255         1.60432     30.8939E-03     16.6831E-03    -8.06289E-03    -8.62204E-03    -8.10248E-03     16.5971E-03    -8.49638E-03     2.61792E-03     25.2152E+06     15.8183E+06    -141.281E+06     14.8088E+06    -135.936E+06     20.8803E+06    -28.5421E+06         22.7701
            1117     6.94318E-03     5.09934E-03         1.64424         1.37481        -2.48023         1.37465        -2.48007         1.64424     22.4957E-03     17.0695E-03    -8.34324E-03    -8.72718E-03    -8.45450E-03     16.9963E-03    -8.54265E-03     2.50050E-03     30.3196E+06     21.0914E+06    -139.559E+06     18.5415E+06    -135.965E+06     29.2752E+06    -23.2895E+06         21.9907
            1118     5.95188E-03     5.10583E-03         1.67969         1.47696        -2.62118         1.47689        -2.62112         1.67969     1.97439E-03     17.2225E-03    -8.47980E-03    -8.74302E-03    -8.63476E-03     17.1656E-03    -8.53115E-03     2.22277E-03     31.1674E+06     20.7044E+06    -142.259E+06     18.4679E+06    -140.023E+06     31.1674E+06    -18.6824E+06         21.4953
            1119     4.95999E-03     5.11141E-03         1.70896         1.57854        -2.75640         1.57850        -2.75637         1.70896     1.16158E-03     17.0895E-03    -8.43578E-03    -8.65439E-03    -8.59341E-03     17.0484E-03    -8.45561E-03     1.91470E-03     27.1773E+06     19.9942E+06    -140.146E+06     19.5145E+06    -138.441E+06     25.9518E+06    -16.3963E+06         21.2749
            1120     3.96804E-03     5.11661E-03         1.73198         1.64731        -2.84575         1.64716        -2.84559         1.73198     36.5543E-03     16.9346E-03    -8.35865E-03    -8.57682E-03    -8.53397E-03     16.9116E-03    -8.37848E-03     1.38553E-03     24.3967E+06     20.6785E+06    -134.992E+06     21.5786E+06    -133.795E+06     22.2999E+06    -13.4356E+06         21.2167
            1121     2.97649E-03     5.12143E-03         1.75557         1.69471        -2.91206         1.69931        -2.91170         1.75060     962.853E-06     16.8152E-03    -8.35286E-03    -8.46263E-03    -8.45021E-03     16.8050E-03    -8.35504E-03     907.636E-06     27.9941E+06     20.2173E+06    -137.126E+06     20.4771E+06    -136.514E+06     27.1228E+06    -9.68373E+06         21.1987
            1122     1.98426E-03     5.12385E-03         1.77933         1.73108        -2.96960         1.74557        -2.96799         1.76323     80.9417E-03     16.6427E-03    -8.28561E-03    -8.35727E-03    -8.35119E-03     16.6388E-03    -8.28779E-03     495.332E-06     28.2902E+06     13.7660E+06    -137.020E+06     13.3465E+06    -136.600E+06     28.2902E+06    -7.86435E+06         21.1930
            1123     992.300E-06     5.12701E-03         1.78738         1.75468        -2.99207         1.75862        -2.98488         1.77624    -85.3189E-03     16.2641E-03    -7.80121E-03    -8.46274E-03    -8.21210E-03     16.2572E-03    -8.04502E-03     494.600E-06     16.3949E+06     1.37789E+06    -143.018E+06     3.98565E+06    -142.799E+06     13.5674E+06    -2.67843E+06         21.2079
            1124     16.8190E-03     4.16670E-03         1.13223    -152.957E-03    -504.322E-03    -154.805E-03    -502.474E-03         1.13223     15.1783E-03     154.100E-03    -11.3735E-03    -142.743E-03    -69.1792E-03     80.5368E-03    -11.3735E-03     251.430E-03     146.668E+06     79.4818E+06    -6.82619E+06    -6.26989E+06     146.111E+06     79.4818E+06     6.58211E+06         41.7345
            1125     15.8614E-03     4.08036E-03         1.21720     19.7931E-03    -753.260E-03     19.5709E-03    -753.038E-03         1.21720     21.6271E-03     47.1458E-03    -9.30514E-03    -37.8566E-03    -28.7331E-03     38.0222E-03    -9.30514E-03     51.0943E-03     109.371E+06     22.0073E+06    -11.6347E+06    -10.8714E+06     108.680E+06     21.9351E+06     8.38695E+06         38.7000
            1126     14.8767E-03     4.05949E-03         1.29210     210.952E-03        -1.00979     210.608E-03        -1.00945         1.29210     31.0520E-03     21.9712E-03    -8.07608E-03    -13.9033E-03    -12.4028E-03     20.7045E-03    -8.30993E-03     10.4106E-03     75.4462E+06    -6.01036E+06    -35.5693E+06    -8.01691E+06     75.2742E+06    -33.3907E+06     2.62572E+06         35.4347
            1127     13.8875E-03     4.06016E-03         1.36246     409.651E-03        -1.27076     409.241E-03        -1.27035         1.36246     42.3545E-03     17.3154E-03    -7.77237E-03    -9.54881E-03    -8.68717E-03     16.6876E-03    -8.00622E-03     5.56099E-03     30.5060E+06    -11.2271E+06    -72.6385E+06    -7.65735E+06     26.9363E+06    -72.6385E+06    -4.45748E+06         32.5577
            1128     12.8935E-03     4.05689E-03         1.42896     588.776E-03        -1.51458     588.575E-03        -1.51438         1.42896     20.8012E-03     16.5142E-03    -7.61872E-03    -8.89611E-03    -7.73755E-03     15.8074E-03    -8.07048E-03     7.44685E-03     4.27527E+06    -30.3500E+06    -72.3706E+06    -7.90581E+06    -18.1690E+06    -72.3706E+06    -15.0478E+06         30.2231
            1129     11.9007E-03     4.05762E-03         1.49257     742.902E-03        -1.73005     742.682E-03        -1.72984         1.49257     30.4821E-03     15.1585E-03    -6.86530E-03    -8.28986E-03    -6.55871E-03     14.8519E-03    -8.28986E-03     4.84323E-03     5.39957E+06    -50.4020E+06    -74.1544E+06    -4.48852E+06    -56.3491E+06    -58.3192E+06    -23.5606E+06         28.2508
            1130     10.9063E-03     4.06253E-03         1.55309     906.489E-03        -1.94841     906.253E-03        -1.94818         1.55309     34.1451E-03     15.2615E-03    -6.67006E-03    -8.59143E-03    -6.32808E-03     14.9195E-03    -8.59143E-03     5.13723E-03     8.43919E+06    -45.3983E+06    -102.581E+06    -248.492E+03    -93.8931E+06    -45.3983E+06    -29.7591E+06         26.6088
            1131     9.91210E-03     4.06578E-03         1.60889         1.07662        -2.17076         1.07653        -2.17067         1.60889     11.8003E-03     15.9506E-03    -7.02579E-03    -8.92778E-03    -6.74841E-03     15.6732E-03    -8.92778E-03     4.93363E-03     12.4506E+06    -28.0578E+06    -125.016E+06     3.33625E+06    -115.902E+06    -28.0578E+06    -34.1377E+06         25.2389
            1132     8.91901E-03     4.07151E-03         1.65972         1.21846        -2.36535         1.21834        -2.36522         1.65972     16.6933E-03     16.7481E-03    -7.51412E-03    -9.23715E-03    -7.25692E-03     16.4909E-03    -9.23715E-03     4.88623E-03     14.7447E+06    -15.4965E+06    -142.574E+06     6.55266E+06    -134.382E+06    -15.4965E+06    -34.7562E+06         24.0696
            1133     7.92575E-03     4.07636E-03         1.70696         1.33751        -2.52982         1.33735        -2.52966         1.70696     24.8061E-03     17.7108E-03    -8.18006E-03    -9.53170E-03    -7.96995E-03     17.5007E-03    -9.53170E-03     4.59275E-03     16.4811E+06    -109.837E+03    -150.849E+06     9.89468E+06    -144.263E+06    -109.837E+03    -32.4295E+06         23.1026
            1134     6.93414E-03     4.08253E-03         1.74989         1.46611        -2.69371         1.46598        -2.69359         1.74989     18.2990E-03     18.6088E-03    -8.84132E-03    -9.76722E-03    -8.67322E-03     18.4407E-03    -9.76722E-03     4.25322E-03     19.9433E+06     9.49603E+06    -151.228E+06     11.8335E+06    -147.003E+06     13.3807E+06    -25.6539E+06         22.3493
            1135     5.94270E-03     4.08794E-03         1.78695         1.57960        -2.84077         1.57954        -2.84071         1.78695    -12.1623E-03     19.2802E-03    -9.38079E-03    -9.89932E-03    -9.25991E-03     19.1440E-03    -9.88398E-03     3.90567E-03     19.5906E+06     10.1550E+06    -148.645E+06     12.8792E+06    -146.178E+06     14.3996E+06    -19.8785E+06         21.8246
            1136     4.95224E-03     4.09406E-03         1.81873         1.66872        -2.95772         1.66862        -2.95762         1.81873     4.33875E-03     19.6828E-03    -9.72421E-03    -9.95880E-03    -9.64051E-03     19.5838E-03    -9.94347E-03     3.37014E-03     17.6316E+06     12.2799E+06    -145.770E+06     14.1402E+06    -143.662E+06     13.6635E+06    -18.3346E+06         21.5341
            1137     3.96156E-03     4.09901E-03         1.84218         1.77113        -3.08185         1.77092        -3.08164         1.84218     51.2875E-03     19.9077E-03    -9.85256E-03    -10.0559E-03    -9.86105E-03     19.8469E-03    -9.98660E-03     2.62338E-03     16.5810E+06     13.2170E+06    -144.760E+06     13.2417E+06    -143.484E+06     15.2800E+06    -13.6996E+06         21.4300
            1138     2.97127E-03     4.10314E-03         1.86220         1.84010        -3.16791         1.85159        -3.16770         1.85049     9.93387E-03     20.0044E-03    -9.90977E-03    -10.0949E-03    -9.98919E-03     19.9728E-03    -9.98388E-03     1.89884E-03     14.9028E+06     11.8411E+06    -143.489E+06     11.4626E+06    -143.035E+06     14.8272E+06    -8.20314E+06         21.4141
            1139     1.98109E-03     4.10733E-03         1.86997         1.83652        -3.17168         1.85860        -3.17093         1.84713     44.9174E-03     20.0031E-03    -9.91214E-03    -10.0907E-03    -10.0745E-03     19.9868E-03    -9.91214E-03     1.31327E-03     15.0141E+06     5.18833E+06    -142.698E+06     4.95446E+06    -142.464E+06     15.0141E+06    -5.76653E+06         21.4226
            1140     990.854E-06     4.10822E-03         1.87245         1.82321        -3.16955         1.82670        -3.16191         1.86132    -180.357E-03     19.5501E-03    -9.51180E-03    -10.0377E-03    -9.99793E-03     19.5452E-03    -9.54675E-03     582.533E-06     8.59050E+06    -4.55128E+06    -147.486E+06    -3.21286E+06    -147.093E+06     6.85921E+06    -5.70515E+06         21.4397
            1141     16.8255E-03     3.09697E-03         1.19751    -138.339E-03    -587.832E-03    -140.765E-03    -585.406E-03         1.19751     18.7878E-03     137.809E-03    -11.2406E-03    -126.597E-03    -69.8410E-03     81.0531E-03    -11.2406E-03     209.297E-03     143.209E+06     76.8342E+06    -6.59116E+06    -6.40131E+06     143.019E+06     76.8342E+06     3.32314E+06         40.5254
            1142     15.8596E-03     3.04868E-03         1.28029     53.0581E-03    -850.666E-03     52.6291E-03    -850.237E-03         1.28029     863.403E-06     36.2784E-03    -9.21870E-03    -27.0688E-03    -23.7739E-03     32.9910E-03    -9.22626E-03     24.6861E-03     111.883E+06     29.1610E+06    -4.74127E+06    -3.37160E+06     111.578E+06     28.0959E+06     5.04365E+06         37.6429
            1143     14.8749E-03     3.04122E-03         1.35636     233.727E-03        -1.10412     233.609E-03        -1.10401         1.35636     12.3516E-03     18.2292E-03    -7.66074E-03    -10.5714E-03    -9.15737E-03     17.6281E-03    -8.47364E-03     5.86030E-03     78.6036E+06    -5.06958E+06    -30.0425E+06    -4.31899E+06     77.8531E+06    -30.0425E+06     5.96092E+06         34.7513
            1144     13.8780E-03     3.04643E-03         1.42997     421.577E-03        -1.35897     421.559E-03        -1.35895         1.42997     7.63631E-03     15.8643E-03    -7.18435E-03    -8.67975E-03    -6.72215E-03     15.0502E-03    -8.32788E-03     7.77440E-03     39.7397E+06    -7.26507E+06    -75.2173E+06    -5.53381E+06     38.0085E+06    -75.2173E+06     1.00980E+06         32.2228
            1145     12.8865E-03     3.03848E-03         1.50029     614.198E-03        -1.61645     614.161E-03        -1.61641         1.50029    -3.24374E-03     15.4729E-03    -6.64498E-03    -8.82730E-03    -6.23793E-03     14.7140E-03    -8.47544E-03     7.53386E-03     11.8321E+06    -23.6618E+06    -90.0859E+06    -3.88038E+06    -7.94936E+06    -90.0859E+06    -11.8091E+06         30.0695
            1146     11.8919E-03     3.04624E-03         1.56649     798.575E-03        -1.86556     798.432E-03        -1.86542         1.56649     6.20852E-03     14.8160E-03    -5.99505E-03    -8.82043E-03    -5.52671E-03     14.3477E-03    -8.82043E-03     6.02331E-03     7.03198E+06    -57.8083E+06    -86.7490E+06    -1.64787E+06    -52.4177E+06    -83.4597E+06    -21.6714E+06         28.2510
            1147     10.8963E-03     3.04615E-03         1.62843     970.759E-03        -2.10285     970.530E-03        -2.10262         1.62843     7.64653E-03     15.6664E-03    -6.42264E-03    -9.24341E-03    -5.91136E-03     15.1551E-03    -9.24341E-03     6.57917E-03     9.73101E+06    -69.7537E+06    -101.793E+06     1.69579E+06    -90.4857E+06    -73.0255E+06    -28.1619E+06         26.7978
            1148     9.90303E-03     3.05144E-03         1.68597         1.13339        -2.32145         1.13323        -2.32129         1.68597     2.00151E-03     16.5967E-03    -6.88834E-03    -9.70948E-03    -6.48778E-03     16.1961E-03    -9.70948E-03     6.07832E-03     13.1343E+06    -56.0553E+06    -126.194E+06     5.28577E+06    -118.345E+06    -56.0553E+06    -31.9413E+06         25.5980
            1149     8.90864E-03     3.05456E-03         1.73899         1.28074        -2.51760         1.28063        -2.51749         1.73899     27.9991E-03     17.7705E-03    -7.60147E-03    -10.1717E-03    -7.25032E-03     17.4194E-03    -10.1717E-03     5.89939E-03     14.3028E+06    -39.2349E+06    -145.414E+06     7.09486E+06    -138.206E+06    -39.2349E+06    -32.9785E+06         24.5420
            1150     7.91659E-03     3.05925E-03         1.78772         1.41357        -2.69434         1.41342        -2.69419         1.78772     39.9109E-03     18.9391E-03    -8.33182E-03    -10.6086E-03    -8.06299E-03     18.6703E-03    -10.6086E-03     5.37166E-03     11.0850E+06    -25.2527E+06    -159.418E+06     5.41701E+06    -153.750E+06    -25.2527E+06    -30.1714E+06         23.6428
            1151     6.92426E-03     3.06342E-03         1.83156         1.54259        -2.86309         1.54248        -2.86297         1.83156     18.0988E-03     20.1054E-03    -9.10942E-03    -10.9963E-03    -8.90296E-03     19.8989E-03    -10.9963E-03     4.86119E-03     8.62376E+06    -13.2026E+06    -162.109E+06     4.81630E+06    -158.301E+06    -13.2026E+06    -25.0242E+06         22.9139
            1152     5.93344E-03     3.06860E-03         1.86955         1.65865        -3.01281         1.65845        -3.01261         1.86955     20.4904E-03     21.2030E-03    -9.89959E-03    -11.3033E-03    -9.74305E-03     21.0464E-03    -11.3033E-03     4.38143E-03     9.30478E+06    -6.11918E+06    -154.527E+06     6.49032E+06    -151.713E+06    -6.11918E+06    -21.2646E+06         22.3653
            1153     4.94310E-03     3.07331E-03         1.90188         1.75209        -3.13416         1.75176        -3.13383         1.90188     24.9238E-03     22.2529E-03    -10.6870E-03    -11.5650E-03    -10.5672E-03     22.1331E-03    -11.5650E-03     3.93970E-03     10.4148E+06    -664.776E+03    -153.311E+06     7.45766E+06    -151.377E+06     359.010E+03    -17.2149E+06         21.9999
            1154     3.95439E-03     3.07819E-03         1.92678         1.84556        -3.24976         1.84528        -3.24948         1.92678     8.33512E-03     23.0341E-03    -11.2600E-03    -11.7740E-03    -11.1778E-03     22.9519E-03    -11.7740E-03     3.32547E-03     9.79379E+06     4.93359E+06    -154.374E+06     6.55002E+06    -153.421E+06     7.22432E+06    -11.9470E+06         21.8053
            1155     2.96515E-03     3.08256E-03         1.94775         1.90851        -3.33583         1.91503        -3.33561         1.94100    -22.7018E-03     23.5600E-03    -11.6414E-03    -11.9190E-03    -11.6291E-03     23.5119E-03    -11.8831E-03     2.55216E-03     9.51138E+06     5.20931E+06    -149.598E+06     4.87916E+06    -149.192E+06     9.43580E+06    -7.78204E+06         21.7369
            1156     1.97678E-03     3.08510E-03         1.96274         1.92439        -3.36998         1.93970        -3.36935         1.94681     34.7146E-03     23.8321E-03    -11.8110E-03    -12.0213E-03    -11.9257E-03     23.8100E-03    -11.8845E-03     1.72528E-03     10.0043E+06     1.67314E+06    -146.872E+06     1.52074E+06    -146.720E+06     10.0043E+06    -4.05973E+06         21.7276
            1157     988.893E-06     3.08801E-03         2.00199         1.89866        -3.37891         1.96465        -3.37492         1.93202    -126.674E-03     23.6044E-03    -11.6749E-03    -11.9294E-03    -11.7686E-03     23.5971E-03    -11.8284E-03     606.290E-06     471.067E+03    -7.47189E+06    -150.426E+06    -5.28951E+06    -150.037E+06    -2.10029E+06    -5.77289E+06         21.7310
            1158     16.8377E-03     2.04125E-03         1.24448    -142.387E-03    -629.794E-03    -143.927E-03    -628.255E-03         1.24448     2.11037E-03     109.897E-03    -10.5192E-03    -99.4376E-03    -65.7443E-03     76.4369E-03    -10.7526E-03     144.244E-03     140.671E+06     75.5869E+06     53.2415E+03     80.4337E+03     140.644E+06     75.5869E+06     374.710E+03         39.5640
            1159     15.8655E-03     2.01980E-03         1.32598     71.2570E-03    -916.562E-03     70.9123E-03    -916.218E-03         1.32598    -7.49603E-03     22.6592E-03    -7.70685E-03    -14.9526E-03    -13.1075E-03     22.1275E-03    -9.02024E-03     4.32500E-03     105.660E+06     23.5210E+06    -6.11161E+06    -3.75985E+06     104.302E+06     22.5282E+06     7.28206E+06         37.0306
            1160     14.8672E-03     2.03429E-03         1.40362     254.306E-03        -1.17982     254.238E-03        -1.17975         1.40362     12.7437E-03     15.3538E-03    -6.60872E-03    -8.74559E-03    -6.24893E-03     14.9940E-03    -8.74559E-03     2.65509E-03     80.2917E+06    -5.21562E+06    -27.9810E+06    -7.11447E+06     78.3231E+06    -24.1135E+06     10.0492E+06         34.5004
            1161     13.8748E-03     2.02400E-03         1.47930     439.897E-03        -1.43520     439.866E-03        -1.43517         1.47930     525.735E-06     14.7099E-03    -5.96564E-03    -8.74540E-03    -5.46323E-03     14.2075E-03    -8.74540E-03     6.26888E-03     50.4542E+06    -3.65439E+06    -68.2058E+06    -2.76321E+06     49.5630E+06    -68.2058E+06     1.87041E+06         32.2276
            1162     12.8792E-03     2.02936E-03         1.55186     638.727E-03        -1.70212     638.572E-03        -1.70196         1.55186     10.7551E-03     14.0583E-03    -5.10629E-03    -8.95250E-03    -4.74030E-03     13.6923E-03    -8.95250E-03     5.21439E-03     21.3616E+06    -15.7749E+06    -97.4916E+06     3.28056E+06     2.30615E+06    -97.4916E+06    -7.77741E+06         30.2149
            1163     11.8818E-03     2.02854E-03         1.62010     832.115E-03        -1.95684     831.875E-03        -1.95660         1.62010     29.6274E-03     14.8516E-03    -5.45196E-03    -9.39865E-03    -5.06645E-03     14.4661E-03    -9.39865E-03     5.44815E-03     11.7218E+06    -53.2186E+06    -98.1646E+06     6.42720E+06    -47.9240E+06    -98.1646E+06    -16.9878E+06         28.5400
            1164     10.8889E-03     2.03283E-03         1.68364         1.01320        -2.19544         1.01300        -2.19525         1.68364    -7.66258E-03     16.0862E-03    -6.17528E-03    -9.90999E-03    -5.81407E-03     15.7250E-03    -9.90999E-03     5.51274E-03     12.7463E+06    -80.6417E+06    -103.290E+06     7.52113E+06    -88.1889E+06    -90.5174E+06    -22.1613E+06         27.2740
            1165     9.89270E-03     2.03427E-03         1.74219         1.18414        -2.42262         1.18401        -2.42249         1.74219    -14.6508E-03     17.2546E-03    -6.81073E-03    -10.4440E-03    -6.48770E-03     16.9316E-03    -10.4440E-03     5.44464E-03     12.7894E+06    -80.1314E+06    -124.689E+06     7.65743E+06    -119.557E+06    -80.1314E+06    -25.7601E+06         26.2351
            1166     8.90063E-03     2.03742E-03         1.79587         1.33411        -2.62054         1.33389        -2.62032         1.79587     38.6618E-03     18.6668E-03    -7.67100E-03    -10.9978E-03    -7.40512E-03     18.4010E-03    -10.9978E-03     5.16282E-03     11.6596E+06    -65.7411E+06    -146.993E+06     7.12005E+06    -142.453E+06    -65.7411E+06    -25.8673E+06         25.2807
            1167     7.90718E-03     2.04032E-03         1.84500         1.47057        -2.80168         1.47037        -2.80148         1.84500     42.1842E-03     20.0480E-03    -8.49611E-03    -11.5543E-03    -8.28687E-03     19.8387E-03    -11.5543E-03     4.78935E-03     9.24851E+06    -50.2216E+06    -165.523E+06     6.05587E+06    -162.331E+06    -50.2216E+06    -22.6719E+06         24.4404
            1168     6.91611E-03     2.04356E-03         1.88871         1.60475        -2.97715         1.60467        -2.97707         1.88871     399.847E-06     21.4607E-03    -9.37946E-03    -12.0830E-03    -9.21787E-03     21.2991E-03    -12.0830E-03     4.37483E-03     8.11493E+06    -34.3115E+06    -167.054E+06     5.49017E+06    -164.430E+06    -34.3115E+06    -20.9678E+06         23.7342
            1169     5.92523E-03     2.04710E-03         1.92600         1.72172        -3.13084         1.72148        -3.13060         1.92600     25.2146E-03     22.8939E-03    -10.3234E-03    -12.5710E-03    -10.2043E-03     22.7748E-03    -12.5710E-03     3.93022E-03     7.79785E+06    -20.6458E+06    -160.594E+06     5.55357E+06    -158.350E+06    -20.6458E+06    -18.8693E+06         23.1734
            1170     4.93586E-03     2.05049E-03         1.95824         1.80583        -3.25006         1.80548        -3.24971         1.95824     37.4845E-03     24.2806E-03    -11.2565E-03    -13.0231E-03    -11.1714E-03     24.1955E-03    -13.0231E-03     3.38975E-03     6.09337E+06    -11.4052E+06    -161.734E+06     4.78828E+06    -160.429E+06    -11.4052E+06    -14.1152E+06         22.7593
            1171     3.94655E-03     2.05420E-03         1.98864         1.86694        -3.34215         1.86673        -3.34194         1.98864    -2.73461E-03     25.6630E-03    -12.2414E-03    -13.4210E-03    -12.1800E-03     25.6017E-03    -13.4210E-03     2.98340E-03     4.55051E+06    -3.75694E+06    -160.838E+06     2.66134E+06    -160.216E+06    -2.49000E+06    -9.90896E+06         22.4844
            1172     2.95971E-03     2.05708E-03         2.01669         1.93907        -3.44288         1.93896        -3.44277         2.01669    -29.0436E-03     26.8201E-03    -13.1096E-03    -13.7110E-03    -13.0691E-03     26.7796E-03    -13.7110E-03     2.44843E-03     5.73302E+06    -2.23096E+06    -155.066E+06    -1.77800E+06    -154.778E+06     4.99190E+06    -5.67195E+06         22.3296
            1173     1.97292E-03     2.06022E-03         2.06103         2.00410        -3.54648         2.03750        -3.54567         2.02682     65.6264E-03     27.4485E-03    -13.5851E-03    -13.8643E-03    -13.5698E-03     27.4332E-03    -13.8643E-03     1.47132E-03     8.04614E+06    -5.56076E+06    -149.770E+06    -5.70137E+06    -149.629E+06     8.04614E+06    -3.15315E+06         22.2557
            1174     985.926E-06     2.06180E-03         2.08149         1.96936        -3.51378         2.07859        -3.51087         1.96936     20.9544E-03     27.7126E-03    -13.5479E-03    -14.1651E-03    -13.5436E-03     27.7083E-03    -14.1651E-03     464.170E-06    -7.34331E+06    -17.8791E+06    -157.600E+06    -15.6601E+06    -156.934E+06    -10.2282E+06     1.20825E+06         22.2229
            1175     16.8697E-03     1.01238E-03         1.27216    -139.136E-03    -661.973E-03    -139.387E-03    -661.722E-03         1.27216    -3.96607E-03     73.3158E-03    -8.61367E-03    -64.7931E-03    -52.1356E-03     62.1641E-03    -10.1194E-03     67.6312E-03     135.416E+06     69.9107E+06    -7.66900E+06    -4.18711E+06     131.934E+06     69.9107E+06     2.35390E+06         39.2840
            1176     15.8578E-03     1.01371E-03         1.35334     67.3460E-03    -943.861E-03     67.1564E-03    -943.672E-03         1.35334    -5.61890E-03     13.7784E-03    -4.85752E-03    -8.92156E-03    -4.65761E-03     13.5785E-03    -8.92156E-03    -221.184E-06     107.250E+06     29.9923E+06    -11.2652E+06    -7.37194E+06     103.357E+06     29.9923E+06     12.1296E+06         37.1561
            1177     14.8652E-03     1.01189E-03         1.43281     264.935E-03        -1.22326     264.861E-03        -1.22319         1.43281     13.5198E-03     13.4429E-03    -4.47090E-03    -8.97221E-03    -4.27730E-03     13.2493E-03    -8.97221E-03     1.03991E-03     87.3784E+06     5.51011E+06    -23.3241E+06    -3.11321E+06     85.8374E+06    -13.1597E+06     4.45026E+06         34.9043
            1178     13.8703E-03     1.01430E-03         1.50932     467.975E-03        -1.49788     467.892E-03        -1.49779         1.50932    -8.51373E-03     13.5249E-03    -4.45170E-03    -9.07353E-03    -4.22305E-03     13.2963E-03    -9.07353E-03     3.73091E-03     55.3118E+06     3.75771E+06    -62.3229E+06     4.22174E+06     54.8478E+06    -62.3229E+06    -57.8461E+03         32.7687
            1179     12.8718E-03     1.01366E-03         1.58229     662.642E-03        -1.75890     662.432E-03        -1.75869         1.58229    -2.97539E-03     13.6522E-03    -4.30706E-03    -9.34489E-03    -4.13202E-03     13.4772E-03    -9.34489E-03     3.27789E-03     25.2475E+06    -7.05280E+06    -97.7973E+06     9.20256E+06     8.99214E+06    -97.7973E+06    -3.83155E+06         30.8368
            1180     11.8781E-03     1.01563E-03         1.65119     856.127E-03        -2.00927     855.875E-03        -2.00902         1.65119     35.5111E-03     14.9110E-03    -5.08404E-03    -9.82641E-03    -4.92663E-03     14.7536E-03    -9.82641E-03     3.19326E-03     14.6841E+06    -44.6219E+06    -105.532E+06     12.5975E+06    -42.5353E+06    -105.532E+06    -8.13445E+06         29.2645
            1181     10.8804E-03     1.01583E-03         1.71538         1.03977        -2.25031         1.03962        -2.25017         1.71538     26.3750E-03     16.2462E-03    -5.86521E-03    -10.3807E-03    -5.73557E-03     16.1166E-03    -10.3807E-03     3.01145E-03     14.9162E+06    -84.6413E+06    -105.874E+06     13.1319E+06    -86.1419E+06    -102.589E+06    -12.5714E+06         28.1401
            1182     9.88844E-03     1.01799E-03         1.77518         1.19920        -2.47447         1.19913        -2.47440         1.77518     17.1888E-03     17.6922E-03    -6.73794E-03    -10.9548E-03    -6.61149E-03     17.5658E-03    -10.9548E-03     3.12610E-03     13.3321E+06    -96.8631E+06    -122.329E+06     11.3041E+06    -119.929E+06    -97.2349E+06    -14.6344E+06         27.2190
            1183     8.89318E-03     1.01874E-03         1.83075         1.35362        -2.68564         1.35336        -2.68538         1.83075     26.8247E-03     19.1377E-03    -7.57805E-03    -11.5589E-03    -7.47446E-03     19.0341E-03    -11.5589E-03     3.00220E-03     10.7526E+06    -87.3591E+06    -148.530E+06     9.03995E+06    -146.818E+06    -87.3591E+06    -14.6246E+06         26.3368
            1184     7.90183E-03     1.02057E-03         1.88074         1.50860        -2.88544         1.50824        -2.88508         1.88074    -809.796E-06     20.7504E-03    -8.54175E-03    -12.2083E-03    -8.45972E-03     20.6683E-03    -12.2083E-03     2.74729E-03     8.60894E+06    -69.3720E+06    -168.495E+06     7.44530E+06    -167.332E+06    -69.3720E+06    -13.3360E+06         25.5378
            1185     6.90959E-03     1.02228E-03         1.92434         1.64198        -3.05691         1.64179        -3.05673         1.92434    -29.6203E-03     22.3471E-03    -9.51110E-03    -12.8358E-03    -9.44332E-03     22.2793E-03    -12.8358E-03     2.65954E-03     6.37557E+06    -51.1660E+06    -168.241E+06     5.31362E+06    -167.179E+06    -51.1660E+06    -11.7838E+06         24.8491
            1186     5.91952E-03     1.02378E-03         1.96226         1.75047        -3.19724         1.75037        -3.19715         1.96226    -20.3153E-03     24.0134E-03    -10.5700E-03    -13.4427E-03    -10.5163E-03     23.9597E-03    -13.4427E-03     2.39786E-03     3.08940E+06    -36.1753E+06    -164.846E+06     2.11662E+06    -163.874E+06    -36.1753E+06    -11.2456E+06         24.2846
            1187     4.93002E-03     1.02605E-03         1.99521         1.84306        -3.32229         1.84278        -3.32202         1.99521    -12.1592E-03     25.7380E-03    -11.7009E-03    -14.0370E-03    -11.6672E-03     25.7044E-03    -14.0370E-03     2.02120E-03    -768.660E+03    -22.5083E+06    -168.005E+06    -1.31583E+06    -167.458E+06    -22.5083E+06     -8.3681E+06         23.8474
            1188     3.94245E-03     1.02778E-03         2.02460         1.91181        -3.42628         1.91156        -3.42603         2.02460     4.89207E-03     27.3987E-03    -12.8389E-03    -14.5593E-03    -12.8156E-03     27.3754E-03    -14.5593E-03     1.77151E-03    -3.69554E+06    -13.3363E+06    -164.936E+06    -3.95901E+06    -164.672E+06    -13.3363E+06    -4.93535E+06         23.5310
            1189     2.95494E-03     1.02931E-03         2.05291         1.96798        -3.50835         1.96790        -3.50826         2.05291     7.80520E-03     28.8951E-03    -13.8788E-03    -15.0155E-03    -13.8628E-03     28.8791E-03    -15.0155E-03     1.41405E-03    -2.35646E+06    -8.46325E+06    -159.050E+06    -6.48907E+06    -158.864E+06    -4.51640E+06    -4.06358E+06         23.3188
            1190     1.96938E-03     1.03093E-03         2.10331         2.00871        -3.59550         2.03336        -3.59513         2.07829     22.3445E-03     30.1592E-03    -14.7822E-03    -15.3769E-03    -14.7758E-03     30.1528E-03    -15.3769E-03     871.867E-06     4.11591E+06    -13.1340E+06    -154.982E+06    -13.4208E+06    -154.695E+06     4.11591E+06    -1.84709E+06         23.1897
            1191     985.131E-06     1.03286E-03         2.13264         2.04680        -3.66067         2.08837        -3.66008         2.09048     82.9954E-03     30.9346E-03    -15.0260E-03    -15.9088E-03    -15.3099E-03     30.9314E-03    -15.6216E-03     128.499E-06    -8.18450E+06    -25.8670E+06    -160.392E+06    -24.5260E+06    -159.688E+06    -10.2293E+06     4.19678E+06         23.1218
            1192     986.507E-06     57.3890E-03         5.79758         1.44604        -6.93115        -2.02206        -3.02991         5.36444         3.18037     28.6852E-03    -14.2387E-03    -14.4464E-03    -14.3016E-03     28.6693E-03    -14.3675E-03     1.54603E-03     20.4265E+06     12.1076E+06    -144.985E+06     13.1323E+06    -144.932E+06     19.3492E+06     1.90699E+06         21.8427
            1193     1.97196E-03     57.3911E-03         2.26179         1.66330        -3.60704         1.63227        -2.97752         1.66330    -989.689E-03     28.9529E-03    -14.3817E-03    -14.5706E-03    -14.4902E-03     28.9308E-03    -14.4400E-03     1.94561E-03     27.4085E+06     19.0766E+06    -144.866E+06     19.0596E+06    -144.849E+06     27.4085E+06     612.960E+03         21.8586
            1194     2.95765E-03     57.3933E-03         1.84221         1.65011        -3.17541         1.61501        -2.94821         1.65011     504.703E-03     28.9141E-03    -14.3806E-03    -14.5334E-03    -14.4091E-03     28.8757E-03    -14.4664E-03     2.54888E-03     25.2408E+06     21.0511E+06    -148.216E+06     21.0352E+06    -148.200E+06     25.2408E+06     1.33755E+06         21.8938
            1195     3.94420E-03     57.3958E-03         1.66048         1.60648        -2.94875         1.54549        -2.86100         1.63372    -317.652E-03     28.7776E-03    -14.3247E-03    -14.4524E-03    -14.2738E-03     28.7115E-03    -14.4372E-03     3.34550E-03     22.9349E+06     21.3542E+06    -149.149E+06     21.3320E+06    -149.126E+06     22.9349E+06     1.70541E+06         21.9482
            1196     4.92988E-03     57.4001E-03         1.61074         1.52020        -2.81462         1.48499        -2.77941         1.61074     135.173E-03     28.7128E-03    -14.3140E-03    -14.3984E-03    -14.2251E-03     28.6177E-03    -14.3922E-03     4.03168E-03     21.7791E+06     19.1766E+06    -149.366E+06     20.6467E+06    -149.335E+06     20.2775E+06     1.82152E+06         22.0180
            1197     5.91685E-03     57.4043E-03         1.58442         1.42582        -2.69466         1.41074        -2.67958         1.58442    -157.998E-03     28.8335E-03    -14.3390E-03    -14.4948E-03    -14.3456E-03     28.7019E-03    -14.3566E-03     4.74739E-03     21.3389E+06     16.9799E+06    -145.528E+06     20.5625E+06    -145.493E+06     17.7214E+06     1.86860E+06         22.1236
            1198     6.90201E-03     57.4099E-03         1.55410         1.32596        -2.56532         1.32005        -2.55941         1.55410     14.6878E-03     28.7935E-03    -14.3177E-03    -14.4759E-03    -14.2883E-03     28.6059E-03    -14.3177E-03     5.66171E-03     19.9657E+06     13.6593E+06    -135.955E+06     19.9379E+06    -135.927E+06     13.6593E+06     1.71600E+06         22.3994
            1199     7.88849E-03     57.4161E-03         1.51941         1.21943        -2.42767         1.21632        -2.42456         1.51941    -94.6313E-03     28.5491E-03    -14.2565E-03    -14.2931E-03    -14.0477E-03     28.3141E-03    -14.2668E-03     6.32423E-03     18.2069E+06     8.19882E+06    -130.002E+06     18.1733E+06    -129.969E+06     8.19882E+06     1.21379E+06         23.0299
            1200     8.87514E-03     57.4232E-03         1.48137         1.11995        -2.29385         1.11860        -2.29250         1.48137    -31.4881E-03     28.3820E-03    -14.1575E-03    -14.2250E-03    -13.9236E-03     28.0940E-03    -14.1710E-03     6.96077E-03     15.0013E+06    -2.29470E+06    -117.464E+06     14.9697E+06    -117.432E+06    -2.29470E+06     479.255E+03         24.0685
            1201     9.86151E-03     57.4308E-03         1.44063         1.00674        -2.14147         1.00570        -2.14043         1.44063    -92.3199E-03     28.2396E-03    -14.0769E-03    -14.1664E-03    -13.7807E-03     27.8572E-03    -14.0803E-03     7.98857E-03     11.9180E+06    -10.7048E+06    -101.722E+06     11.8850E+06    -101.689E+06    -10.7048E+06     807.659E+03         25.4826
            1202     10.8482E-03     57.4407E-03         1.39605     865.459E-03        -1.95852     865.230E-03        -1.95829         1.39605    -39.3518E-03     28.0331E-03    -13.9571E-03    -14.0829E-03    -13.6088E-03     27.5944E-03    -13.9925E-03     8.54187E-03     9.34557E+06    -19.7547E+06    -90.6040E+06     9.29179E+06    -90.5502E+06    -19.7547E+06     1.37097E+06         27.4845
            1203     11.8354E-03     57.4497E-03         1.34728     722.517E-03        -1.77203     722.189E-03        -1.77171         1.34728    -51.8117E-03     27.8555E-03    -13.8266E-03    -14.0358E-03    -13.4317E-03     27.2866E-03    -13.8618E-03     9.61914E-03     6.09257E+06    -35.2842E+06    -69.8067E+06     6.01493E+06    -69.7290E+06    -35.2842E+06     550.021E+03         30.4828
            1204     12.8223E-03     57.4628E-03         1.29531     580.601E-03        -1.58274     580.240E-03        -1.58238         1.29531    -53.9622E-03     27.9241E-03    -13.7453E-03    -14.1823E-03    -13.4566E-03     27.1984E-03    -13.7453E-03     10.9518E-03     3.26539E+06    -37.3051E+06    -55.6084E+06     2.98759E+06    -43.5350E+06    -49.1007E+06     1.20717E+06         34.5133
            1205     13.8086E-03     57.4741E-03         1.24099     432.837E-03        -1.38523     432.503E-03        -1.38490         1.24099    -22.8413E-03     28.4210E-03    -13.5841E-03    -14.8370E-03    -12.6920E-03     26.2978E-03    -13.6059E-03     17.4628E-03     367.466E+03    -19.7685E+06    -65.6794E+06    -586.995E+03    -18.8140E+06    -65.6794E+06     2.40362E+06         39.3246
            1206     14.7997E-03     57.5028E-03         1.18665     281.954E-03        -1.18528     281.167E-03        -1.18450         1.18665    -33.1804E-03     40.8304E-03    -13.4868E-03    -27.3405E-03    -13.6763E-03     27.1880E-03    -13.5087E-03     52.0541E-03     50.8185E+06    -7.04657E+06    -61.6942E+06    -4.77868E+06     48.5506E+06    -61.6942E+06     1.10537E+06         44.7083
            1207     15.7846E-03     57.5815E-03         1.14426     136.837E-03        -1.00120     136.085E-03        -1.00045         1.14426    -37.8915E-03     141.179E-03    -13.6266E-03    -127.547E-03    -30.1708E-03     43.8029E-03    -13.6266E-03     256.441E-03     133.700E+06     11.6752E+06    -30.0932E+06    -9.54590E+06     133.685E+06    -8.85706E+06     676.655E+03         50.0826
            1208     16.7736E-03     58.0648E-03         1.11874    -11.5573E-03    -837.439E-03    -12.5181E-03    -836.478E-03         1.11874    -31.9506E-03     215.398E-03    -13.9833E-03    -201.411E-03    -40.7369E-03     54.7237E-03    -13.9833E-03     405.323E-03     188.868E+06     78.5079E+06    -7.61870E+06    -7.60885E+06     188.858E+06     78.5079E+06     301.588E+03         54.5487
            1209     986.060E-06     58.4178E-03         5.95004         1.75705        -7.41578        -1.77369        -3.39786         5.46287         3.43951     28.6958E-03    -14.2266E-03    -14.4690E-03    -14.2956E-03     28.6859E-03    -14.3901E-03     1.17589E-03     17.9888E+06     12.6347E+06    -144.622E+06     13.6375E+06    -144.547E+06     16.9115E+06     8.24131E+03         21.8380
            1210     1.97190E-03     58.4198E-03         2.47950         1.83002        -4.01647         1.77223        -3.30920         1.83002        -1.16118     28.7663E-03    -14.2816E-03    -14.4839E-03    -14.3391E-03     28.7449E-03    -14.4050E-03     1.91002E-03     23.2130E+06     16.8323E+06    -146.931E+06     16.8129E+06    -146.911E+06     23.2130E+06     712.092E+03         21.8539
            1211     2.95844E-03     58.4214E-03         1.99645         1.80559        -3.49833         1.74389        -3.24577         1.80559     518.747E-03     28.7930E-03    -14.3669E-03    -14.4252E-03    -14.3439E-03     28.7548E-03    -14.4099E-03     2.52474E-03     23.9578E+06     19.8977E+06    -149.315E+06     19.8672E+06    -149.284E+06     23.9578E+06     1.80708E+06         21.8905
            1212     3.94380E-03     58.4247E-03         1.81370         1.77109        -3.28209         1.70075        -3.18320         1.78515    -387.031E-03     28.8614E-03    -14.3771E-03    -14.4834E-03    -14.3940E-03     28.7948E-03    -14.3999E-03     3.37177E-03     22.0678E+06     20.5660E+06    -149.994E+06     20.5565E+06    -149.949E+06     22.0324E+06     2.63477E+06         21.9474
            1213     4.93040E-03     58.4278E-03         1.76365         1.68558        -3.15071         1.64905        -3.11418         1.76365     137.892E-03     28.8911E-03    -14.3637E-03    -14.5266E-03    -14.3994E-03     28.7982E-03    -14.3980E-03     4.00263E-03     20.6349E+06     19.7042E+06    -149.632E+06     19.7076E+06    -149.576E+06     20.5762E+06     2.61260E+06         22.0201
            1214     5.91581E-03     58.4329E-03         1.73751         1.56994        -3.01124         1.55366        -2.99497         1.73751    -169.339E-03     28.8082E-03    -14.3057E-03    -14.5022E-03    -14.3040E-03     28.6793E-03    -14.3749E-03     4.69067E-03     19.5000E+06     16.8339E+06    -145.858E+06     18.7069E+06    -145.806E+06     17.5754E+06     2.30263E+06         22.1250
            1215     6.90258E-03     58.4382E-03         1.70483         1.45783        -2.86931         1.45143        -2.86292         1.70483     20.1618E-03     28.7215E-03    -14.2634E-03    -14.4585E-03    -14.2260E-03     28.5406E-03    -14.3151E-03     5.55653E-03     17.2350E+06     10.9558E+06    -135.966E+06     17.1880E+06    -135.919E+06     10.9558E+06     2.24040E+06         22.3950
            1216     7.88852E-03     58.4441E-03         1.66703         1.34191        -2.71832         1.33858        -2.71499         1.66703    -98.6604E-03     28.6791E-03    -14.2666E-03    -14.4131E-03    -14.1808E-03     28.4496E-03    -14.2694E-03     6.26313E-03     15.6398E+06     5.97357E+06    -129.110E+06     15.5902E+06    -129.060E+06     5.97357E+06     1.76932E+06         23.0182
            1217     8.87473E-03     58.4512E-03         1.62563         1.23488        -2.56816         1.23341        -2.56669         1.62563    -29.6606E-03     28.6141E-03    -14.2007E-03    -14.4142E-03    -14.1303E-03     28.3329E-03    -14.2035E-03     6.92231E-03     14.4678E+06    -1.86983E+06    -116.975E+06     14.4244E+06    -116.932E+06    -1.86983E+06     1.01341E+06         24.0508
            1218     9.86109E-03     58.4590E-03         1.58165         1.11839        -2.40942         1.11710        -2.40813         1.58165    -61.1491E-03     28.4792E-03    -14.1245E-03    -14.3596E-03    -14.0048E-03     28.1245E-03    -14.1245E-03     7.73631E-03     12.1721E+06    -11.8712E+06    -103.001E+06     12.1251E+06    -102.953E+06    -11.8712E+06     1.21285E+06         25.4601
            1219     10.8477E-03     58.4680E-03         1.53404     973.329E-03        -2.22245     972.869E-03        -2.22199         1.53404    -7.52744E-03     28.3412E-03    -14.0441E-03    -14.3050E-03    -13.8780E-03     27.9141E-03    -14.0441E-03     8.46777E-03     9.38534E+06    -22.4097E+06    -90.0795E+06     9.33645E+06    -90.0306E+06    -22.4097E+06     1.28030E+06         27.4603
            1220     11.8338E-03     58.4780E-03         1.48213     819.241E-03        -2.02038     818.908E-03        -2.02005         1.48213    -55.4599E-03     28.1750E-03    -13.9434E-03    -14.2394E-03    -13.7171E-03     27.6527E-03    -13.9434E-03     9.31050E-03     5.73094E+06    -35.5204E+06    -68.6245E+06     5.68442E+06    -68.5780E+06    -35.5204E+06     1.04120E+06         30.4650
            1221     12.8213E-03     58.4891E-03         1.42639     660.083E-03        -1.81212     659.697E-03        -1.81173         1.42639    -57.2305E-03     28.1461E-03    -13.8271E-03    -14.3234E-03    -13.5566E-03     27.3794E-03    -13.8271E-03     11.2042E-03     1.31723E+06    -38.2579E+06    -59.2714E+06     1.19815E+06    -45.1647E+06    -52.2455E+06     1.26710E+06         34.5125
            1222     13.8076E-03     58.5045E-03         1.36716     485.969E-03        -1.58586     485.493E-03        -1.58538         1.36716    -20.5424E-03     28.6000E-03    -13.6833E-03    -14.9179E-03    -13.3436E-03     27.0476E-03    -13.7051E-03     15.6535E-03    -331.589E+03    -21.8471E+06    -69.2923E+06    -3.42584E+06    -18.7529E+06    -69.2923E+06     1.45583E+06         39.3444
            1223     14.7959E-03     58.5222E-03         1.30695     318.966E-03        -1.36119     317.819E-03        -1.36005         1.30695    -38.2578E-03     43.7223E-03    -13.6588E-03    -30.0635E-03    -15.0650E-03     28.7456E-03    -13.6806E-03     54.9365E-03     50.8216E+06    -10.9155E+06    -62.3623E+06    -9.27320E+06     49.1792E+06    -62.3623E+06     2.92733E+06         44.7565
            1224     15.7746E-03     58.6281E-03         1.25659     173.219E-03        -1.17030     172.238E-03        -1.16932         1.25659    -52.3493E-03     136.576E-03    -13.7412E-03    -122.834E-03    -25.4448E-03     39.1870E-03    -13.7412E-03     249.254E-03     134.864E+06     7.36684E+06    -29.5913E+06    -11.3428E+06     134.605E+06    -10.6224E+06     1.75548E+06         50.1869
            1225     16.7900E-03     59.0473E-03         1.22131     9.63173E-03    -990.590E-03     9.04240E-03    -990.000E-03         1.22131    -23.8053E-03     217.026E-03    -14.0561E-03    -202.970E-03    -40.8001E-03     54.8559E-03    -14.0561E-03     408.713E-03     189.504E+06     82.8062E+06    -7.49411E+06    -7.46790E+06     189.478E+06     82.8062E+06    -1.66156E+06         54.6979
            1226     985.666E-06     59.4461E-03         6.04798         2.07321        -7.84055        -1.58729        -3.62608         5.49401         3.76708     28.6876E-03    -14.1879E-03    -14.4994E-03    -14.3489E-03     28.6788E-03    -14.3295E-03     1.10057E-03     14.4883E+06     10.6477E+06    -145.779E+06     11.4818E+06    -145.717E+06     13.5928E+06    -1.68869E+06         21.8318
            1227     1.97241E-03     59.4477E-03         2.68408         1.94479        -4.34452         1.90979        -3.57022         1.94479        -1.24569     28.6048E-03    -14.2273E-03    -14.3767E-03    -14.2115E-03     28.5847E-03    -14.3726E-03     1.83423E-03     20.3568E+06     15.0021E+06    -147.614E+06     14.9892E+06    -147.601E+06     20.3568E+06     585.942E+03         21.8478
            1228     2.95791E-03     59.4501E-03         2.17225         1.93004        -3.81428         1.89256        -3.53459         1.93004     565.440E-03     28.7017E-03    -14.2953E-03    -14.4057E-03    -14.3041E-03     28.6650E-03    -14.3602E-03     2.47238E-03     21.6741E+06     17.0946E+06    -151.068E+06     17.0705E+06    -151.043E+06     21.6741E+06     1.48138E+06         21.8856
            1229     3.94476E-03     59.4525E-03         1.97370         1.91208        -3.59637         1.85800        -3.48541         1.91681    -404.606E-03     28.8865E-03    -14.3538E-03    -14.5325E-03    -14.4609E-03     28.8211E-03    -14.3599E-03     3.34238E-03     19.7460E+06     17.4131E+06    -151.397E+06     18.1468E+06    -151.347E+06     18.9626E+06     2.67782E+06         21.9443
            1230     4.92987E-03     59.4570E-03         1.89843         1.82305        -3.43839         1.78342        -3.39876         1.89843     214.457E-03     28.9577E-03    -14.3825E-03    -14.5756E-03    -14.4756E-03     28.8634E-03    -14.3882E-03     4.03743E-03     20.4000E+06     17.7301E+06    -150.621E+06     18.4679E+06    -150.552E+06     19.5932E+06     3.26663E+06         22.0200
            1231     5.91619E-03     59.4609E-03         1.87073         1.68499        -3.27642         1.66968        -3.26110         1.87073    -139.396E-03     28.8339E-03    -14.3236E-03    -14.5104E-03    -14.3214E-03     28.7024E-03    -14.3811E-03     4.74226E-03     20.2007E+06     16.3793E+06    -145.716E+06     18.2273E+06    -145.606E+06     18.2424E+06     3.61123E+06         22.1250
            1232     6.90222E-03     59.4662E-03         1.83529         1.57165        -3.13188         1.56489        -3.12512         1.83529     42.0013E-03     28.7427E-03    -14.2633E-03    -14.4795E-03    -14.2479E-03     28.5628E-03    -14.3149E-03     5.54918E-03     17.1530E+06     10.1780E+06    -135.206E+06     17.0547E+06    -135.108E+06     10.1780E+06     2.73420E+06         22.3896
            1233     7.88850E-03     59.4727E-03         1.79588         1.46607        -2.98793         1.46266        -2.98452         1.79588    -77.7929E-03     28.8018E-03    -14.2709E-03    -14.5318E-03    -14.3113E-03     28.5813E-03    -14.2709E-03     6.16109E-03     16.0063E+06     4.14174E+06    -128.045E+06     15.9674E+06    -128.006E+06     4.14174E+06     1.18149E+06         23.0061
            1234     8.87450E-03     59.4792E-03         1.75320         1.34674        -2.82470         1.34525        -2.82321         1.75320    -356.659E-06     28.7999E-03    -14.2256E-03    -14.5759E-03    -14.2943E-03     28.5183E-03    -14.2256E-03     6.94461E-03     14.5634E+06    -3.09844E+06    -117.571E+06     14.5325E+06    -117.540E+06    -3.09844E+06     838.664E+03         24.0332
            1235     9.86056E-03     59.4875E-03         1.70623         1.20324        -2.63578         1.20218        -2.63472         1.70623    -34.8331E-03     28.6894E-03    -14.1581E-03    -14.5366E-03    -14.1844E-03     28.3372E-03    -14.1581E-03     7.76122E-03     12.8698E+06    -13.3678E+06    -103.445E+06     12.8329E+06    -103.408E+06    -13.3678E+06     1.16405E+06         25.4381
            1236     10.8467E-03     59.4958E-03         1.65439         1.04764        -2.43471         1.04711        -2.43418         1.65439     7.14330E-03     28.6581E-03    -14.0850E-03    -14.5819E-03    -14.1359E-03     28.2120E-03    -14.0850E-03     8.70860E-03     10.0839E+06    -25.2272E+06    -89.7268E+06     10.0452E+06    -89.6881E+06    -25.2272E+06     1.39279E+06         27.4367
            1237     11.8335E-03     59.5064E-03         1.59844     893.240E-03        -2.22762     892.891E-03        -2.22727         1.59844    -60.4659E-03     28.6140E-03    -14.0117E-03    -14.6096E-03    -14.0835E-03     28.0879E-03    -14.0117E-03     9.47644E-03     6.26127E+06    -37.2684E+06    -68.8195E+06     6.14680E+06    -68.7050E+06    -37.2684E+06     1.90613E+06         30.4479
            1238     12.8190E-03     59.5170E-03         1.53896     727.324E-03        -2.00752     726.861E-03        -2.00706         1.53896    -65.5203E-03     28.4349E-03    -13.9118E-03    -14.5262E-03    -13.8085E-03     27.7172E-03    -13.9118E-03     10.8889E-03     1.52868E+06    -39.0340E+06    -60.2468E+06     1.31596E+06    -44.8861E+06    -54.1819E+06     1.62211E+06         34.5123
            1239     13.8076E-03     59.5309E-03         1.47607     547.733E-03        -1.77258     547.078E-03        -1.77192         1.47607    -5.89439E-03     29.7165E-03    -13.8018E-03    -15.9149E-03    -14.2661E-03     28.0676E-03    -13.8018E-03     16.4636E-03    -304.933E+03    -23.7679E+06    -76.0086E+06    -4.61278E+06    -19.4600E+06    -76.0086E+06     2.31997E+06         39.3638
            1240     14.7893E-03     59.5556E-03         1.41181     369.647E-03        -1.53557     368.781E-03        -1.53471         1.41181    -6.71405E-03     43.8796E-03    -13.7487E-03    -30.1308E-03    -14.0250E-03     27.7739E-03    -13.7487E-03     55.9556E-03     49.4311E+06    -10.8512E+06    -72.1475E+06    -8.12764E+06     46.7075E+06    -72.1475E+06     2.39534E+06         44.8095
            1241     15.7881E-03     59.6486E-03         1.35498     190.218E-03        -1.30799     189.406E-03        -1.30718         1.35498    -19.7604E-03     132.525E-03    -14.0187E-03    -118.503E-03    -30.0822E-03     44.1040E-03    -14.0187E-03     239.035E-03     136.194E+06     15.4930E+06    -30.1691E+06    -5.56117E+06     135.790E+06    -8.71057E+06     293.492E+03         50.2690
            1242     16.7565E-03     60.0655E-03         1.31048     15.7878E-03        -1.10099     15.4913E-03        -1.10069         1.31048     13.5342E-03     217.124E-03    -14.6240E-03    -202.498E-03    -42.3403E-03     56.9664E-03    -14.6240E-03     406.779E-03     193.893E+06     91.1960E+06    -3.49525E+06    -3.42869E+06     193.827E+06     91.1960E+06     352.844E+03         54.8033
            1243     986.559E-06     60.4746E-03         6.10151         2.38261        -8.22540        -1.41047        -3.87381         5.54300         4.16526     28.4112E-03    -14.0092E-03    -14.4016E-03    -14.2917E-03     28.4017E-03    -14.1096E-03     1.19785E-03     15.2978E+06     8.20502E+06    -145.076E+06     9.07586E+06    -145.051E+06     14.4023E+06    -1.63463E+06         21.8226
            1244     1.97175E-03     60.4760E-03         2.84110         2.05791        -4.62508         2.02001        -3.80399         2.05791        -1.26132     28.6770E-03    -14.2421E-03    -14.4341E-03    -14.3595E-03     28.6582E-03    -14.2979E-03     1.75365E-03     20.3087E+06     13.7458E+06    -148.551E+06     13.7312E+06    -148.537E+06     20.3087E+06    -232.341E+03         21.8435
            1245     2.95880E-03     60.4778E-03         2.33538         2.04759        -4.10936         2.04087        -3.81486         2.04759     660.747E-03     28.7364E-03    -14.2849E-03    -14.4509E-03    -14.3556E-03     28.6969E-03    -14.3407E-03     2.57247E-03     18.9319E+06     15.6228E+06    -152.893E+06     15.6018E+06    -152.872E+06     18.9319E+06     1.64023E+06         21.8832
            1246     3.94377E-03     60.4814E-03         2.10083         2.01481        -3.84138         1.96483        -3.72831         2.03773    -384.510E-03     28.8474E-03    -14.3389E-03    -14.5084E-03    -14.4332E-03     28.7826E-03    -14.3493E-03     3.33123E-03     17.2011E+06     15.1478E+06    -152.451E+06     15.9259E+06    -152.414E+06     16.3857E+06     2.08315E+06         21.9422
            1247     4.93047E-03     60.4850E-03         2.01420         1.91048        -3.65425         1.86609        -3.60986         2.01420     231.978E-03     28.7993E-03    -14.3472E-03    -14.4525E-03    -14.3441E-03     28.7070E-03    -14.3633E-03     3.97795E-03     19.2551E+06     15.4045E+06    -151.588E+06     17.3382E+06    -151.534E+06     17.2676E+06     2.65272E+06         22.0185
            1248     5.91636E-03     60.4893E-03         1.98216         1.78708        -3.50550         1.77014        -3.48855         1.98216    -156.235E-03     28.8574E-03    -14.3391E-03    -14.5182E-03    -14.3804E-03     28.7254E-03    -14.3449E-03     4.75782E-03     19.6236E+06     13.0798E+06    -146.437E+06     17.6561E+06    -146.333E+06     14.9429E+06     3.56034E+06         22.1229
            1249     6.90225E-03     60.4946E-03         1.94570         1.68259        -3.36868         1.67551        -3.36161         1.94570     47.4092E-03     28.8900E-03    -14.2966E-03    -14.5925E-03    -14.4050E-03     28.7025E-03    -14.2966E-03     5.67784E-03     18.0146E+06     8.05391E+06    -133.572E+06     17.9247E+06    -133.482E+06     8.05391E+06     2.61615E+06         22.3826
            1250     7.88827E-03     60.5008E-03         1.90567         1.56779        -3.21405         1.56420        -3.21046         1.90567    -75.5593E-03     28.8885E-03    -14.2695E-03    -14.6187E-03    -14.3816E-03     28.6514E-03    -14.2695E-03     6.39768E-03     16.7563E+06     2.30645E+06    -127.029E+06     16.7281E+06    -127.001E+06     2.30645E+06     1.07968E+06         22.9928
            1251     8.87425E-03     60.5079E-03         1.86070         1.42549        -3.02654         1.42366        -3.02471         1.86070    -2.64291E-03     28.8496E-03    -14.2323E-03    -14.6184E-03    -14.3281E-03     28.5594E-03    -14.2323E-03     7.06358E-03     14.2761E+06    -4.88202E+06    -117.870E+06     14.2469E+06    -117.841E+06    -4.88202E+06     922.916E+03         24.0149
            1252     9.86048E-03     60.5154E-03         1.80992         1.26667        -2.82339         1.26557        -2.82229         1.80992    -60.5284E-03     28.8522E-03    -14.1724E-03    -14.6834E-03    -14.3084E-03     28.4772E-03    -14.1724E-03     8.02905E-03     11.9362E+06    -14.8542E+06    -103.340E+06     11.8743E+06    -103.278E+06    -14.8542E+06     351.441E+03         25.4156
            1253     10.8468E-03     60.5245E-03         1.75438         1.11447        -2.61843         1.11412        -2.61808         1.75438    -6.47920E-03     28.9197E-03    -14.1083E-03    -14.8188E-03    -14.3442E-03     28.4451E-03    -14.1083E-03     9.05101E-03     10.0511E+06    -27.4835E+06    -90.6189E+06     9.96519E+06     -90.533E+06    -27.4835E+06     919.935E+03         27.4125
            1254     11.8321E-03     60.5346E-03         1.69528     955.103E-03        -2.40010     954.769E-03        -2.39977         1.69528    -56.7406E-03     28.8884E-03    -14.0564E-03    -14.8387E-03    -14.2620E-03     28.3117E-03    -14.0564E-03     9.96073E-03     7.28429E+06    -37.7333E+06    -69.9530E+06     7.14709E+06    -69.8159E+06    -37.7333E+06     2.14494E+06         30.4305
            1255     12.8193E-03     60.5457E-03         1.63251     778.165E-03        -2.16936     777.795E-03        -2.16899         1.63251    -54.5616E-03     29.0980E-03    -13.9935E-03    -15.1070E-03    -14.3084E-03     28.2994E-03    -13.9935E-03     11.6713E-03     3.29510E+06    -37.1210E+06    -58.5281E+06     2.80045E+06    -44.1027E+06    -51.0518E+06     2.50659E+06         34.5116
            1256     13.8031E-03     60.5595E-03         1.56668     609.274E-03        -1.93871     608.872E-03        -1.93831         1.56668    -12.2775E-03     29.9843E-03    -13.8622E-03    -16.1220E-03    -14.1016E-03     27.9639E-03    -13.8622E-03     18.1521E-03     2.10883E+06    -23.6477E+06    -78.1512E+06    -1.37286E+06    -20.1660E+06    -78.1512E+06     1.58763E+06         39.3853
            1257     14.7938E-03     60.5847E-03         1.49972     429.316E-03        -1.69805     428.773E-03        -1.69750         1.49972    -16.8829E-03     43.0074E-03    -13.8427E-03    -29.1616E-03    -14.8403E-03     28.6861E-03    -13.8427E-03     54.2996E-03     54.6249E+06    -10.3695E+06    -70.5077E+06    -4.77280E+06     49.0282E+06    -70.5077E+06    -340.112E+03         44.8581
            1258     15.7742E-03     60.6704E-03         1.43806     227.515E-03        -1.44320     226.862E-03        -1.44255         1.43806    -18.0453E-03     140.271E-03    -14.2786E-03    -125.990E-03    -36.3343E-03     50.6151E-03    -14.2786E-03     250.707E-03     137.317E+06     16.0265E+06    -27.1992E+06    -7.39016E+06     137.074E+06    -3.53900E+06    -972.142E+03         50.3504
            1259     16.7421E-03     61.1293E-03         1.38436     40.0289E-03        -1.20766     39.4351E-03        -1.20707         1.38436    -2.40639E-03     218.298E-03    -14.8414E-03    -203.457E-03    -39.9338E-03     54.7750E-03    -14.8414E-03     409.700E-03     191.729E+06     86.5039E+06    -6.16733E+06    -6.10667E+06     191.668E+06     86.5039E+06     1.25619E+06         54.9314
            1260     986.588E-06     61.5039E-03         6.19005         2.77610        -8.69278        -1.19658        -4.09062         5.56056         4.53553     28.0918E-03    -13.7989E-03    -14.2930E-03    -13.9099E-03     28.0807E-03    -14.1708E-03     1.32672E-03     16.8633E+06     5.83053E+06    -144.626E+06     9.23584E+06    -144.610E+06     13.4422E+06     61.1208E+03         21.8143
            1261     1.97275E-03     61.5038E-03         3.04354         2.17364        -4.95499         2.14587        -4.05731         2.17364        -1.41273     28.7012E-03    -14.1765E-03    -14.5242E-03    -14.4737E-03     28.6798E-03    -14.2056E-03     1.87152E-03     20.9482E+06     11.0824E+06    -149.730E+06     11.0648E+06    -149.712E+06     20.9482E+06     407.805E+03         21.8405
            1262     2.95778E-03     61.5065E-03         2.43712         2.16090        -4.33712         2.12470        -4.02470         2.16090     722.074E-03     28.8711E-03    -14.2953E-03    -14.5755E-03    -14.5046E-03     28.8291E-03    -14.3242E-03     2.66537E-03     18.8317E+06     14.3185E+06    -152.937E+06     14.6052E+06    -152.919E+06     18.5275E+06     1.05611E+06         21.8832
            1263     3.94457E-03     61.5097E-03         2.17495         2.09732        -4.01292         2.01120        -3.89101         2.13915    -374.804E-03     28.6999E-03    -14.2886E-03    -14.4110E-03    -14.3063E-03     28.6344E-03    -14.3279E-03     3.34124E-03     16.0626E+06     12.4624E+06    -153.364E+06     15.7835E+06    -153.334E+06     12.7117E+06     1.53621E+06         21.9409
            1264     4.93021E-03     61.5131E-03         2.10604         1.98254        -3.83224         1.93178        -3.78148         2.10604     249.725E-03     28.7361E-03    -14.3037E-03    -14.4326E-03    -14.3269E-03     28.6407E-03    -14.3141E-03     4.03245E-03     15.9336E+06     10.8754E+06    -153.137E+06     15.8940E+06    -153.097E+06     10.8754E+06     1.98954E+06         22.0143
            1265     5.91644E-03     61.5177E-03         2.07166         1.88419        -3.70611         1.86399        -3.68591         2.07166    -152.335E-03     28.8180E-03    -14.3027E-03    -14.5152E-03    -14.3794E-03     28.6822E-03    -14.3027E-03     4.82669E-03     16.1975E+06     10.0505E+06    -146.447E+06     16.1652E+06    -146.415E+06     10.0505E+06     1.82675E+06         22.1169
            1266     6.90249E-03     61.5230E-03         2.03541         1.77319        -3.56310         1.76429        -3.55420         2.03541     72.8445E-03     28.8804E-03    -14.2652E-03    -14.6148E-03    -14.4202E-03     28.6858E-03    -14.2652E-03     5.78074E-03     16.1144E+06     4.66297E+06    -132.408E+06     16.0896E+06    -132.383E+06     4.66297E+06     1.44202E+06         22.3734
            1267     7.88837E-03     61.5294E-03         1.99358         1.63082        -3.37948         1.62652        -3.37517         1.99358    -70.6685E-03     28.9409E-03    -14.2550E-03    -14.6860E-03    -14.4398E-03     28.6948E-03    -14.2550E-03     6.53055E-03     14.6413E+06     422.204E+03    -126.938E+06     14.5987E+06    -126.895E+06     422.204E+03     1.49001E+06         22.9785
            1268     8.87443E-03     61.5361E-03         1.94513         1.47895        -3.18020         1.47685        -3.17810         1.94513     21.8187E-03     28.9007E-03    -14.2282E-03    -14.6732E-03    -14.3809E-03     28.6084E-03    -14.2282E-03     7.10202E-03     12.9405E+06    -5.77929E+06    -116.970E+06     12.8790E+06    -116.909E+06    -5.77929E+06     749.084E+03         23.9955
            1269     9.86049E-03     61.5439E-03         1.89144         1.32793        -2.98045         1.32690        -2.97942         1.89144    -47.6563E-03     28.9468E-03    -14.1806E-03    -14.7684E-03    -14.3770E-03     28.5553E-03    -14.1806E-03     8.20390E-03     10.9730E+06    -14.5105E+06    -102.286E+06     10.8990E+06    -102.213E+06    -14.5105E+06    -289.592E+03         25.3918
            1270     10.8461E-03     61.5532E-03         1.83406         1.17919        -2.77823         1.17897        -2.77801         1.83406     19.8466E-03     28.9517E-03    -14.1259E-03    -14.8314E-03    -14.3325E-03     28.4528E-03    -14.1259E-03     9.28464E-03     8.56321E+06    -26.7375E+06    -92.0694E+06     8.44757E+06    -91.9537E+06    -26.7375E+06    -138.818E+03         27.3870
            1271     11.8329E-03     61.5629E-03         1.77315         1.00970        -2.54683         1.00965        -2.54678         1.77315    -17.4822E-03     29.0308E-03    -14.0724E-03    -14.9652E-03    -14.3227E-03     28.3884E-03    -14.0724E-03     10.5185E-03     6.51196E+06    -37.4972E+06    -71.7381E+06     6.30089E+06    -71.5271E+06    -37.4972E+06     1.47054E+06         30.4120
            1272     12.8181E-03     61.5746E-03         1.70799     821.196E-03        -2.30031     821.132E-03        -2.30025         1.70799    -18.1778E-03     29.1401E-03    -14.0114E-03    -15.1316E-03    -14.2219E-03     28.2304E-03    -14.0114E-03     12.4988E-03     3.79063E+06    -35.8227E+06    -58.4630E+06     3.15407E+06    -44.2379E+06    -49.4112E+06     2.26772E+06         34.5112
            1273     13.8060E-03     61.5888E-03         1.63914     639.131E-03        -2.05547     638.968E-03        -2.05530         1.63914     2.32428E-03     30.1561E-03    -13.8875E-03    -16.2691E-03    -14.2175E-03     28.1045E-03    -13.8875E-03     18.5517E-03     3.69373E+06    -21.0376E+06    -74.1424E+06    -578.929E+03    -16.7649E+06    -74.1424E+06     307.223E+03         39.4064
            1274     14.7902E-03     61.6106E-03         1.56866     457.225E-03        -1.80703     456.731E-03        -1.80653         1.56866    -18.6384E-03     45.2008E-03    -13.9025E-03    -31.2952E-03    -15.9504E-03     29.8560E-03    -13.9025E-03     57.7378E-03     52.9886E+06    -9.48744E+06    -68.0134E+06    -5.62262E+06     49.1238E+06    -68.0134E+06    -391.856E+03         44.9055
            1275     15.7750E-03     61.7106E-03         1.50167     267.911E-03        -1.55663     267.463E-03        -1.55618         1.50167    -26.9469E-03     145.942E-03    -14.1478E-03    -131.794E-03    -31.7062E-03     45.8541E-03    -14.1478E-03     265.083E-03     137.132E+06     15.7143E+06    -29.7365E+06    -10.5286E+06     136.934E+06    -3.29536E+06     789.735E+03         50.4629
            1276     16.7736E-03     62.1709E-03         1.43930     69.2887E-03        -1.30521     68.6854E-03        -1.30461         1.43930    -22.4489E-03     216.201E-03    -14.4318E-03    -201.773E-03    -37.9455E-03     52.3734E-03    -14.4318E-03     407.661E-03     192.062E+06     84.9443E+06    -10.0701E+06    -9.99959E+06     191.991E+06     84.9443E+06     14.2344E+03         55.1001
            1277     986.163E-06     62.5293E-03         6.30207         3.15080        -9.19919        -1.04009        -4.23376         5.52752         4.82525     28.1610E-03    -13.7676E-03    -14.3933E-03    -14.1085E-03     28.1477E-03    -14.0391E-03     1.38305E-03     16.4902E+06     4.22680E+06      -146.1E+06     7.62707E+06    -146.079E+06     13.0691E+06     1.58905E+06         21.8113
            1278     1.97275E-03     62.5333E-03         3.26357         2.24340        -5.25719         2.24283        -4.23646         2.24340        -1.65042     28.6151E-03    -14.1098E-03    -14.5050E-03    -14.3793E-03     28.5916E-03    -14.2120E-03     1.98293E-03     20.8195E+06     12.0016E+06    -150.061E+06     11.9885E+06    -150.048E+06     20.8195E+06     925.354E+03         21.8346
            1279     2.95846E-03     62.5349E-03         2.51956         2.23233        -4.50890         2.16626        -4.15560         2.23233     718.492E-03     28.7356E-03    -14.1854E-03    -14.5505E-03    -14.4100E-03     28.6970E-03    -14.2873E-03     2.51504E-03     18.5318E+06     13.7502E+06    -151.896E+06     14.7644E+06    -151.894E+06     17.5151E+06    -282.977E+03         21.8772
            1280     3.94410E-03     62.5375E-03         2.25010         2.18592        -4.18879         2.08547        -4.04459         2.20634    -439.397E-03     28.6710E-03    -14.2514E-03    -14.4199E-03    -14.3236E-03     28.6036E-03    -14.2803E-03     3.38194E-03     16.3924E+06     10.2568E+06    -154.112E+06     16.3755E+06    -154.095E+06     10.2568E+06     189.828E+03         21.9357
            1281     4.93071E-03     62.5416E-03         2.17836         2.07839        -4.01382         2.02391        -3.95719         2.17621     274.401E-03     28.7223E-03    -14.2796E-03    -14.4429E-03    -14.3402E-03     28.6195E-03    -14.2796E-03     4.18560E-03     16.0361E+06     8.87895E+06    -154.747E+06     16.0096E+06    -154.721E+06     8.87895E+06     1.19002E+06         22.0087
            1282     5.91643E-03     62.5459E-03         2.14255         1.94145        -3.84682         1.91812        -3.82348         2.14255    -146.648E-03     28.8291E-03    -14.2804E-03    -14.5484E-03    -14.4050E-03     28.6856E-03    -14.2804E-03     4.96868E-03     15.9767E+06     9.68272E+06    -145.344E+06     15.9503E+06    -145.317E+06     9.68272E+06     497.315E+03         22.1104
            1283     6.90257E-03     62.5513E-03         2.10252         1.81097        -3.67971         1.79970        -3.66844         2.10252     84.2559E-03     28.8873E-03    -14.2584E-03    -14.6294E-03    -14.4333E-03     28.6912E-03    -14.2584E-03     5.80799E-03     15.0119E+06     5.43276E+06    -132.760E+06     14.9781E+06    -132.726E+06     5.43276E+06     494.157E+03         22.3635
            1284     7.88854E-03     62.5579E-03         2.05724         1.67915        -3.50166         1.67359        -3.49610         2.05724    -75.7180E-03     28.9541E-03    -14.2592E-03    -14.6960E-03    -14.4563E-03     28.7145E-03    -14.2592E-03     6.44804E-03     14.0852E+06     2.74310E+06    -127.022E+06     14.0386E+06    -126.975E+06     2.74310E+06     1.25105E+06         22.9630
            1285     8.87438E-03     62.5645E-03         2.00729         1.53579        -3.30957         1.53350        -3.30727         2.00729     48.3262E-03     28.9740E-03    -14.2380E-03    -14.7369E-03    -14.4465E-03     28.6836E-03    -14.2380E-03     7.08477E-03     12.9524E+06    -2.97950E+06    -115.594E+06     12.8905E+06    -115.532E+06    -2.97950E+06     422.553E+03         23.9747
            1286     9.86022E-03     62.5725E-03         1.95265         1.37927        -3.10302         1.37840        -3.10215         1.95265    -38.2737E-03     28.9441E-03    -14.1949E-03    -14.7522E-03    -14.3521E-03     28.5440E-03    -14.1949E-03     8.29166E-03     10.8900E+06    -11.7308E+06    -101.429E+06     10.8246E+06    -101.364E+06    -11.7308E+06    -280.342E+03         25.3663
            1287     10.8468E-03     62.5815E-03         1.89366         1.21815        -2.88858         1.21789        -2.88833         1.89366     19.2927E-03     28.9305E-03    -14.1397E-03    -14.7965E-03    -14.3017E-03     28.4356E-03    -14.1397E-03     9.24587E-03     7.86501E+06    -24.2206E+06    -92.6108E+06     7.77299E+06    -92.5188E+06    -24.2206E+06    -292.366E+03         27.3593
            1288     11.8324E-03     62.5913E-03         1.83089         1.05045        -2.66005         1.05039        -2.65999         1.83089    -16.1774E-03     29.0315E-03    -14.0666E-03    -14.9713E-03    -14.3049E-03     28.3650E-03    -14.0666E-03     10.6819E-03     4.70047E+06    -39.1672E+06    -73.9215E+06     4.46440E+06    -73.6854E+06    -39.1672E+06     521.197E+03         30.3909
            1289     12.8191E-03     62.6038E-03         1.76415     860.999E-03        -2.41043     860.909E-03        -2.41034         1.76415    -17.3600E-03     29.0162E-03    -13.9931E-03    -15.0259E-03    -14.1910E-03     28.1812E-03    -13.9931E-03     11.9954E-03     1.82251E+06    -37.1517E+06    -59.5492E+06     1.12296E+06    -43.4974E+06     -52.504E+06     1.31236E+06         34.5070
            1290     13.8051E-03     62.6154E-03         1.69312     658.347E-03        -2.14446     658.050E-03        -2.14416         1.69312     10.2948E-03     30.3870E-03    -13.8966E-03    -16.4901E-03    -14.3366E-03     28.2335E-03    -13.8966E-03     18.6856E-03     627.856E+03    -19.5257E+06    -72.9725E+06    -4.32879E+06    -14.5690E+06    -72.9725E+06     942.372E+03         39.4222
            1291     14.7910E-03     62.6441E-03         1.61921     462.998E-03        -1.87987     462.520E-03        -1.87939         1.61921    -842.102E-06     45.1069E-03    -13.8725E-03    -31.2315E-03    -14.9337E-03     28.8091E-03    -13.8725E-03     58.9495E-03     49.8269E+06    -10.0871E+06    -69.5882E+06    -8.75895E+06     48.4988E+06    -69.5882E+06    -88.6726E+03         44.9535
            1292     15.7800E-03     62.7350E-03         1.54643     274.075E-03        -1.62479     273.658E-03        -1.62437         1.54643    -11.4519E-03     140.037E-03    -13.9582E-03    -126.078E-03    -26.3682E-03     40.3275E-03    -13.9582E-03     256.397E-03     136.050E+06     14.7714E+06    -31.1462E+06    -9.60246E+06     135.912E+06    -6.63516E+06     1.41836E+06         50.5677
            1293     16.7778E-03     63.1852E-03         1.47605     83.6736E-03        -1.37186     82.9850E-03        -1.37117         1.47605    -14.1042E-03     214.840E-03    -14.1904E-03    -200.652E-03    -38.7811E-03     52.9689E-03    -14.1904E-03     405.184E-03     193.718E+06     85.0241E+06    -6.74205E+06    -6.68241E+06     193.658E+06     85.0241E+06     1.41002E+06         55.2360
            1294     986.742E-06     63.5592E-03         6.34104         3.48446        -9.59574    -929.481E-03        -4.35652         5.51576         5.17852     28.4014E-03    -13.9805E-03    -14.4199E-03    -14.4015E-03     28.3830E-03    -13.9805E-03     1.67853E-03     15.8943E+06     5.43242E+06    -145.344E+06     7.29973E+06    -145.318E+06     14.0011E+06     1.33949E+06         21.8106
            1295     1.97157E-03     63.5606E-03         3.38151         2.28157        -5.42430         2.22682        -4.26962         2.28157        -1.70430     28.5880E-03    -14.1842E-03    -14.4030E-03    -14.2871E-03     28.5637E-03    -14.2758E-03     1.97824E-03     19.8690E+06     14.0080E+06    -150.658E+06     14.2727E+06    -150.650E+06     19.5962E+06     220.746E+03         21.8259
            1296     2.95866E-03     63.5631E-03         2.61639         2.25806        -4.64165         2.19883        -4.22409         2.25806     791.629E-03     28.5029E-03    -14.1529E-03    -14.3502E-03    -14.1931E-03     28.4665E-03    -14.2735E-03     2.43344E-03     18.0919E+06     15.2941E+06    -151.245E+06     16.2626E+06    -151.228E+06     17.1065E+06    -778.092E+03         21.8660
            1297     3.94482E-03     63.5660E-03         2.33060         2.23925        -4.33497         2.16730        -4.17167         2.23925    -512.814E-03     28.6573E-03    -14.2303E-03    -14.4277E-03    -14.3350E-03     28.5936E-03    -14.2592E-03     3.26086E-03     17.8025E+06     12.3694E+06    -154.895E+06     16.7824E+06    -154.878E+06     13.3728E+06    -1.33869E+06         21.9285
            1298     4.93042E-03     63.5694E-03         2.22496         2.14322        -4.13659         2.08679        -4.07249         2.21728     246.359E-03     28.7331E-03    -14.2565E-03    -14.4765E-03    -14.3699E-03     28.6265E-03    -14.2565E-03     4.25936E-03     16.8657E+06     9.64344E+06    -155.089E+06     16.8374E+06    -155.060E+06     9.64344E+06    -588.243E+03         22.0058
            1299     5.91689E-03     63.5744E-03         2.18426         1.97163        -3.92992         1.94336        -3.90165         2.18426    -204.467E-03     28.8541E-03    -14.2625E-03    -14.5911E-03    -14.4426E-03     28.7056E-03    -14.2625E-03     5.06123E-03     16.8144E+06     9.97676E+06    -144.487E+06     16.7700E+06    -144.442E+06     9.97676E+06    -239.785E+03         22.1067
            1300     6.90243E-03     63.5798E-03         2.14132         1.83278        -3.75007         1.81933        -3.73663         2.14132     43.0724E-03     28.9614E-03    -14.2660E-03    -14.6965E-03    -14.4987E-03     28.7636E-03    -14.2660E-03     5.84460E-03     16.2241E+06     8.29296E+06    -133.976E+06     16.1851E+06    -133.937E+06     8.29296E+06     390.285E+03         22.3539
            1301     7.88847E-03     63.5862E-03         2.09476         1.72311        -3.59217         1.71538        -3.58444         2.09476    -111.937E-03     28.9850E-03    -14.2625E-03    -14.7237E-03    -14.4809E-03     28.7421E-03    -14.2625E-03     6.49504E-03     14.6032E+06     3.63909E+06    -127.365E+06     14.5416E+06    -127.304E+06     3.63909E+06     1.23883E+06         22.9464
            1302     8.87439E-03     63.5933E-03         2.04553         1.58593        -3.40494         1.58306        -3.40207         2.04553     43.0165E-03     28.9613E-03    -14.2363E-03    -14.7262E-03    -14.4353E-03     28.6704E-03    -14.2363E-03     7.09332E-03     12.6396E+06    -2.93412E+06    -114.169E+06     12.5639E+06    -114.093E+06    -2.93412E+06     630.555E+03         23.9521
            1303     9.86056E-03     63.6007E-03         1.99113         1.41417        -3.18520         1.41295        -3.18397         1.99113    -50.0812E-03     28.9828E-03    -14.1991E-03    -14.7883E-03    -14.4029E-03     28.5974E-03    -14.1991E-03     8.15267E-03     10.6158E+06    -11.0749E+06    -100.305E+06     10.5507E+06    -100.240E+06    -11.0749E+06    -313.612E+03         25.3384
            1304     10.8462E-03     63.6101E-03         1.93100         1.23938        -2.95812         1.23898        -2.95771         1.93100     12.3223E-03     29.0418E-03    -14.1529E-03    -14.8958E-03    -14.4235E-03     28.5694E-03    -14.1529E-03     9.05798E-03     7.83945E+06    -23.9412E+06    -93.5766E+06     7.76026E+06    -93.4974E+06    -23.9412E+06    -178.950E+03         27.3285
            1305     11.8326E-03     63.6199E-03         1.86648         1.06709        -2.72736         1.06693        -2.72720         1.86648    -28.4066E-03     29.0123E-03    -14.0859E-03    -14.9316E-03    -14.3092E-03     28.3899E-03    -14.0859E-03     10.3237E-03     4.34200E+06    -38.4252E+06    -74.0509E+06     4.19545E+06    -73.9044E+06    -38.4252E+06     103.082E+03         30.3653
            1306     12.8187E-03     63.6320E-03         1.79822     882.951E-03        -2.48090     882.739E-03        -2.48069         1.79822    -29.5059E-03     29.1989E-03    -14.0112E-03    -15.1897E-03    -14.3571E-03     28.3662E-03    -14.0112E-03     11.9975E-03     1.50284E+06    -37.6318E+06    -59.7279E+06     900.259E+03    -43.7884E+06    -52.9687E+06     748.544E+03         34.4963
            1307     13.8042E-03     63.6456E-03         1.72619     686.438E-03        -2.21615     686.056E-03        -2.21576         1.72619    -5.41712E-03     30.1582E-03    -13.9119E-03    -16.2465E-03    -14.1470E-03     28.0587E-03    -13.9119E-03     18.3958E-03     1.91985E+06    -20.0353E+06    -73.2785E+06    -2.66271E+06    -15.4527E+06    -73.2785E+06     1.53940E+06         39.4303
            1308     14.7922E-03     63.6702E-03         1.65079     479.576E-03        -1.93972     479.124E-03        -1.93927         1.65079    -4.86265E-03     44.3923E-03    -13.8957E-03    -30.4935E-03    -14.6591E-03     28.5580E-03    -13.8957E-03     57.7332E-03     52.5615E+06    -11.0220E+06    -65.2663E+06    -8.75741E+06     50.2969E+06    -65.2663E+06     953.005E+03         44.9890
            1309     15.7774E-03     63.7655E-03         1.57379     274.525E-03        -1.66633     274.098E-03        -1.66590         1.57379    -12.3969E-03     135.296E-03    -14.0521E-03    -121.241E-03    -27.6081E-03     41.6631E-03    -14.0521E-03     245.872E-03     135.135E+06     9.79568E+06    -27.1843E+06    -10.7808E+06     135.069E+06    -6.54225E+06     1.09299E+06         50.6326
            1310     16.7669E-03     64.1927E-03         1.49609     84.7866E-03        -1.40707     84.1520E-03        -1.40643         1.49609    -12.3717E-03     217.899E-03    -14.3743E-03    -203.525E-03    -39.5708E-03     53.9448E-03    -14.3743E-03     410.860E-03     192.687E+06     82.6484E+06    -5.71394E+06    -5.68470E+06     192.658E+06     82.6484E+06     562.837E+03         55.3228
            1311     985.736E-06     64.5878E-03         6.37373         3.82452        -9.94729    -826.442E-03        -4.42934         5.50675         5.55680     28.5043E-03    -14.0950E-03    -14.4087E-03    -14.1623E-03     28.4864E-03    -14.3235E-03     1.71941E-03     13.9707E+06     6.51101E+06    -144.014E+06     8.39042E+06    -144.000E+06     12.0775E+06     256.873E+03         21.8062
            1312     1.97281E-03     64.5887E-03         3.49576         2.31434        -5.57289         2.21447        -4.29161         2.31434        -1.72060     28.4862E-03    -14.1630E-03    -14.3227E-03    -14.1645E-03     28.4642E-03    -14.2992E-03     1.87211E-03     19.5503E+06     11.8406E+06    -150.638E+06     12.1014E+06    -150.626E+06     19.2775E+06    -689.217E+03         21.8184
            1313     2.95816E-03     64.5912E-03         2.68593         2.27761        -4.73552         2.20670        -4.25629         2.27761     904.763E-03     28.4881E-03    -14.2164E-03    -14.2715E-03    -14.1790E-03     28.4479E-03    -14.2688E-03     2.56701E-03     18.8075E+06     14.3688E+06    -150.290E+06     15.0228E+06    -150.260E+06     18.1232E+06    -482.544E+03         21.8590
            1314     3.94451E-03     64.5939E-03         2.35405         2.25146        -4.38168         2.16503        -4.19583         2.25464    -504.736E-03     28.5940E-03    -14.2120E-03    -14.3825E-03    -14.2841E-03     28.5293E-03    -14.2458E-03     3.28640E-03     15.4764E+06     11.6814E+06    -154.683E+06     14.4397E+06    -154.650E+06     12.6848E+06    -1.08935E+06         21.9249
            1315     4.93096E-03     64.5978E-03         2.23403         2.14928        -4.16386         2.07908        -4.08814         2.22851     303.656E-03     28.7559E-03    -14.2330E-03    -14.5235E-03    -14.4205E-03     28.6530E-03    -14.2330E-03     4.18892E-03     13.4251E+06     6.14308E+06    -154.137E+06     13.3917E+06    -154.103E+06     6.14308E+06    -2.12921E+06         22.0051
            1316     5.91642E-03     64.6026E-03         2.19432         1.99596        -3.97537         1.96344        -3.94284         2.19432    -180.173E-03     28.7904E-03    -14.2381E-03    -14.5518E-03    -14.3985E-03     28.6371E-03    -14.2381E-03     5.11876E-03     13.4042E+06     5.01617E+06    -144.854E+06     13.3514E+06    -144.802E+06     5.01617E+06    -1.68520E+06         22.1039
            1317     6.90283E-03     64.6083E-03         2.15339         1.86656        -3.80603         1.84963        -3.78910         2.15339     67.6818E-03     28.8984E-03    -14.2472E-03    -14.6511E-03    -14.4421E-03     28.6894E-03    -14.2472E-03     6.00196E-03     13.5343E+06     5.25635E+06    -135.570E+06     13.4843E+06    -135.520E+06     5.25635E+06     11.5442E+03         22.3444
            1318     7.88840E-03     64.6148E-03         2.10810         1.73965        -3.63227         1.73037        -3.62300         2.10810    -112.932E-03     28.9749E-03    -14.2369E-03    -14.7384E-03    -14.4822E-03     28.7187E-03    -14.2369E-03     6.66660E-03     12.7451E+06     211.378E+03    -127.990E+06     12.6854E+06    -127.930E+06     211.378E+03     1.15573E+06         22.9291
            1319     8.87446E-03     64.6215E-03         2.05888         1.60119        -3.44471         1.59748        -3.44100         2.05888     51.3978E-03     29.0349E-03    -14.2162E-03    -14.8205E-03    -14.5124E-03     28.7269E-03    -14.2162E-03     7.31167E-03     11.2944E+06    -5.58800E+06    -112.543E+06     11.2063E+06    -112.454E+06    -5.58800E+06     809.640E+03         23.9275
            1320     9.86017E-03     64.6296E-03         2.00488         1.43861        -3.23146         1.43703        -3.22988         2.00488    -53.9318E-03     29.1287E-03    -14.2033E-03    -14.9300E-03    -14.5458E-03     28.7444E-03    -14.2033E-03     8.17759E-03      8.7162E+06    -11.9743E+06    -100.061E+06     8.65028E+06    -99.9954E+06    -11.9743E+06     122.531E+03         25.3076
            1321     10.8462E-03     64.6385E-03         1.94515         1.25572        -2.99824         1.25515        -2.99767         1.94515     12.5286E-03     29.1701E-03    -14.1618E-03    -15.0154E-03    -14.5327E-03     28.6874E-03    -14.1618E-03     9.16821E-03     5.32950E+06    -26.4242E+06    -93.5125E+06     5.24936E+06    -93.4324E+06    -26.4242E+06     173.542E+03         27.2944
            1322     11.8318E-03     64.6487E-03         1.87994         1.06718        -2.75151         1.06691        -2.75125         1.87994    -28.4197E-03     29.1885E-03    -14.1048E-03    -15.0890E-03    -14.4776E-03     28.5771E-03    -14.1048E-03     10.3123E-03     2.21982E+06    -40.6576E+06    -73.1033E+06     1.99558E+06    -72.8790E+06    -40.6576E+06    -255.236E+03         30.3352
            1323     12.8181E-03     64.6604E-03         1.81054     886.512E-03        -2.50249     886.276E-03        -2.50226         1.81054    -20.1701E-03     29.2337E-03    -14.0292E-03    -15.2056E-03    -14.3521E-03     28.3802E-03    -14.0292E-03     12.1357E-03    -714.451E+03    -37.9833E+06    -64.5669E+06    -1.09530E+06    -45.2089E+06    -56.9605E+06    -570.230E+03         34.4795
            1324     13.8047E-03     64.6750E-03         1.73792     699.777E-03        -2.24512     699.335E-03        -2.24468         1.73792    -33.1178E-06     30.1712E-03    -13.9389E-03    -16.2327E-03    -14.3705E-03     28.3090E-03    -13.9389E-03     17.7585E-03     283.765E+03    -21.1921E+06    -76.5691E+06    -4.51886E+06    -16.3895E+06    -76.5691E+06     475.764E+03         39.4296
            1325     14.7901E-03     64.6977E-03         1.66203     498.081E-03        -1.97203     497.494E-03        -1.97144         1.66203    -4.60537E-03     44.8914E-03    -13.9678E-03    -30.9229E-03    -15.1360E-03     29.1045E-03    -13.9678E-03     57.4737E-03     53.3356E+06    -9.21633E+06    -62.2340E+06    -6.79545E+06     50.9147E+06    -62.2340E+06     1.47139E+06         45.0099
            1326     15.7772E-03     64.7967E-03         1.58260     291.441E-03        -1.69301     290.976E-03        -1.69255         1.58260    -18.8435E-03     135.029E-03    -14.2136E-03    -120.812E-03    -29.9674E-03     44.1838E-03    -14.2136E-03     243.963E-03     135.332E+06     11.9166E+06    -25.1681E+06    -8.39660E+06     135.178E+06    -4.70114E+06     564.069E+03         50.6811
            1327     16.7610E-03     65.2178E-03         1.49909     90.6636E-03        -1.41017     90.1864E-03        -1.40969         1.49909    -9.68424E-03     218.946E-03    -14.6221E-03    -204.322E-03    -39.5135E-03     54.1369E-03    -14.6221E-03     412.565E-03     192.636E+06     86.1459E+06    -7.39076E+06    -7.34549E+06     192.591E+06     86.1459E+06    -678.360E+03         55.4019
            1328     986.081E-06     65.6146E-03         6.42013         4.14996        -10.3400    -777.051E-03        -4.39839         5.40555         5.87435     28.3612E-03    -14.0055E-03    -14.3563E-03    -14.0556E-03     28.3432E-03    -14.2881E-03     1.47340E-03     12.7543E+06     5.05254E+06    -146.082E+06     5.80002E+06    -146.071E+06     11.9955E+06     242.764E+03         21.7955
            1329     1.97194E-03     65.6173E-03         3.68754         2.30515        -5.76903         2.27242        -4.35390         2.30515        -1.87495     28.4365E-03    -14.1134E-03    -14.3227E-03    -14.1583E-03     28.4105E-03    -14.2518E-03     2.06034E-03     20.4459E+06     10.0532E+06    -148.727E+06     10.0354E+06    -148.709E+06     20.4459E+06    -78.6855E+03         21.8135
            1330     2.95875E-03     65.6189E-03         2.74146         2.28395        -4.80712         2.20613        -4.27179         2.28395     931.040E-03     28.5364E-03    -14.2222E-03    -14.3141E-03    -14.2509E-03     28.4987E-03    -14.2477E-03     2.48361E-03     18.1578E+06     13.0400E+06    -149.870E+06     13.4216E+06    -149.841E+06     17.7463E+06    -773.242E+03         21.8573
            1331     3.94488E-03     65.6220E-03         2.34348         2.24640        -4.37235         2.11658        -4.15283         2.25379    -538.903E-03     28.6727E-03    -14.2445E-03    -14.4288E-03    -14.3557E-03     28.6044E-03    -14.2493E-03     3.38516E-03     14.6930E+06     12.5970E+06    -152.632E+06     14.2828E+06    -152.598E+06     12.9728E+06    -935.364E+03         21.9238
            1332     4.93028E-03     65.6262E-03         2.21959         2.13659        -4.14313         2.04973        -4.05627         2.21959     368.203E-03     28.7503E-03    -14.2567E-03    -14.4942E-03    -14.3932E-03     28.6493E-03    -14.2567E-03     4.16288E-03     13.2629E+06     8.92594E+06    -153.011E+06     13.2398E+06    -152.988E+06     8.92594E+06    -1.62225E+06         22.0045
            1333     5.91686E-03     65.6306E-03         2.18424         2.00084        -3.97401         1.96489        -3.93805         2.18424    -144.488E-03     28.7462E-03    -14.2351E-03    -14.5108E-03    -14.3575E-03     28.5929E-03    -14.2351E-03     5.10125E-03     10.8581E+06     2.81628E+06    -144.977E+06     10.8223E+06    -144.941E+06     2.81628E+06    -1.85243E+06         22.1018
            1334     6.90255E-03     65.6368E-03         2.14519         1.87476        -3.81180         1.85572        -3.79276         2.14519     121.993E-03     28.7537E-03    -14.2203E-03    -14.5325E-03    -14.3216E-03     28.5428E-03    -14.2203E-03     6.02074E-03     9.45851E+06    -349.882E+03    -137.194E+06      9.3683E+06    -137.104E+06    -349.882E+03    -1.51989E+06         22.3359
            1335     7.88895E-03     65.6431E-03         2.10023         1.72280        -3.61559         1.71352        -3.60632         2.10023    -88.8552E-03     28.8701E-03    -14.2096E-03    -14.6599E-03    -14.3963E-03     28.6065E-03    -14.2096E-03     6.74199E-03     10.3568E+06    -2.57469E+06    -128.760E+06     10.2782E+06    -128.682E+06    -2.57469E+06    -513.866E+03         22.9117
            1336     8.87464E-03     65.6503E-03         2.04980         1.58349        -3.42556         1.57935        -3.42143         2.04980     67.8540E-03     29.1073E-03    -14.1905E-03    -14.9179E-03    -14.5797E-03     28.7690E-03    -14.1905E-03     7.67336E-03     9.96249E+06    -7.53168E+06    -111.747E+06     9.91236E+06    -111.697E+06    -7.53168E+06     391.875E+03         23.9009
            1337     9.86033E-03     65.6584E-03         1.99557         1.43833        -3.22835         1.43652        -3.22654         1.99557    -33.4498E-03     29.2831E-03    -14.2017E-03    -15.0837E-03    -14.6804E-03     28.8798E-03    -14.2017E-03     8.41716E-03     8.23054E+06    -11.6172E+06    -100.180E+06     8.15236E+06    -100.102E+06    -11.6172E+06     707.371E+03         25.2734
            1338     10.8460E-03     65.6672E-03         1.93651         1.25639        -2.99409         1.25559        -2.99329         1.93651     37.7604E-03     29.2925E-03    -14.1691E-03    -15.1282E-03    -14.6285E-03     28.7928E-03    -14.1691E-03     9.34327E-03     6.45322E+06    -25.5996E+06    -92.3123E+06     6.33215E+06    -92.1912E+06    -25.5996E+06     287.476E+03         27.2568
            1339     11.8320E-03     65.6778E-03         1.87188         1.06811        -2.74667         1.06789        -2.74644         1.87188    -14.7893E-03     29.3387E-03    -14.1059E-03    -15.2395E-03    -14.5705E-03     28.6697E-03    -14.1059E-03     10.8074E-03     3.79940E+06    -42.2004E+06    -72.1116E+06     3.60418E+06    -71.9163E+06    -42.2004E+06    -1.13468E+06         30.3012
            1340     12.8174E-03     65.6893E-03         1.80284     884.250E-03        -2.49594     884.133E-03        -2.49582         1.80284     3.54041E-03     29.4445E-03    -14.0283E-03    -15.4191E-03    -14.5150E-03     28.5404E-03    -14.0283E-03     12.5614E-03    -195.167E+03    -39.9243E+06    -66.8655E+06    -513.970E+03    -45.4272E+06    -61.0438E+06    -1.15656E+06         34.4569
            1341     13.8034E-03     65.7033E-03         1.73007     689.813E-03        -2.23123     689.364E-03        -2.23079         1.73007     28.8449E-03     30.6673E-03    -13.9538E-03    -16.7146E-03    -14.6506E-03     28.6034E-03    -13.9538E-03     18.7394E-03    -1.04645E+06    -21.3623E+06    -80.7144E+06    -5.33061E+06    -17.0781E+06    -80.7144E+06    -705.770E+03         39.4218
            1342     14.7890E-03     65.7288E-03         1.65379     501.660E-03        -1.97012     500.979E-03        -1.96944         1.65379     10.0746E-03     45.3625E-03    -14.0152E-03    -31.3481E-03    -15.5589E-03     29.5733E-03    -14.0152E-03     58.2376E-03     51.7614E+06    -9.74076E+06    -64.3156E+06    -8.51045E+06     50.5311E+06    -64.3156E+06    -1.23967E+06         45.0238
            1343     15.7755E-03     65.8233E-03         1.57258     304.971E-03        -1.70138     304.345E-03        -1.70076         1.57258    -3.05247E-03     136.842E-03    -14.2649E-03    -122.577E-03    -30.4706E-03     44.7360E-03    -14.2649E-03     247.269E-03     134.404E+06     8.59017E+06    -24.7736E+06    -8.11878E+06     134.091E+06    -7.75209E+06    -1.04970E+06         50.7333
            1344     16.7575E-03     66.2559E-03         1.48420     101.601E-03        -1.40564     100.937E-03        -1.40498         1.48420     4.09812E-03     218.579E-03    -14.6408E-03    -203.938E-03    -38.5955E-03     53.2363E-03    -14.6408E-03     412.171E-03     194.212E+06     84.9947E+06    -4.69055E+06    -4.61239E+06     194.134E+06     84.9947E+06     1.74719E+06         55.4933
            1345     986.865E-06     66.6437E-03         6.42469         4.46509        -10.6804    -768.599E-03        -4.28547         5.26347         6.18444     28.0715E-03    -13.9608E-03    -14.1109E-03    -14.0411E-03     28.0559E-03    -14.0149E-03     1.31108E-03     12.4847E+06     4.80466E+06    -148.120E+06     6.13191E+06    -148.099E+06     11.1365E+06     307.904E+03         21.7850
            1346     1.97279E-03     66.6448E-03         3.85291         2.25083        -5.88960         2.26388        -4.30057         2.25083        -2.01703     28.5223E-03    -14.1488E-03    -14.3736E-03    -14.3250E-03     28.4944E-03    -14.1695E-03     2.08155E-03     22.2745E+06     12.7448E+06    -146.897E+06     12.7290E+06    -146.881E+06     22.2745E+06     14.6097E+03         21.8115
            1347     2.95845E-03     66.6472E-03         2.80258         2.24652        -4.83733         2.20202        -4.23678         2.24652     993.822E-03     28.7042E-03    -14.2346E-03    -14.4699E-03    -14.4128E-03     28.6678E-03    -14.2553E-03     2.49957E-03     19.5914E+06     15.1229E+06    -149.212E+06     15.1068E+06    -149.196E+06     19.5914E+06    -1.02100E+06         21.8594
            1348     3.94415E-03     66.6503E-03         2.33706         2.21510        -4.33771         2.08525        -4.09267         2.22187    -593.350E-03     28.7144E-03    -14.2833E-03    -14.4317E-03    -14.3601E-03     28.6502E-03    -14.2907E-03     3.26551E-03     17.2618E+06     15.1410E+06    -151.780E+06     15.6313E+06    -151.764E+06     16.7557E+06    -981.492E+03         21.9254
            1349     4.93091E-03     66.6543E-03         2.18720         2.11065        -4.08523         2.01311        -3.98769         2.18720     352.822E-03     28.7794E-03    -14.2915E-03    -14.4887E-03    -14.3779E-03     28.6760E-03    -14.2988E-03     4.21552E-03     15.4736E+06     13.8361E+06    -152.065E+06     15.1233E+06    -152.059E+06     14.1801E+06    -397.859E+03         22.0061
            1350     5.91633E-03     66.6591E-03         2.15211         1.98293        -3.92592         1.94253        -3.88552         2.15211    -200.549E-03     28.8243E-03    -14.2720E-03    -14.5532E-03    -14.4131E-03     28.6843E-03    -14.2720E-03     4.90064E-03     13.9493E+06     7.68587E+06    -143.714E+06     13.9146E+06    -143.680E+06     7.68587E+06    -1.32370E+06         22.1027
            1351     6.90275E-03     66.6647E-03         2.11447         1.85321        -3.76261         1.83557        -3.74497         2.11447     136.703E-03     28.7413E-03    -14.2414E-03    -14.4996E-03    -14.3057E-03     28.5475E-03    -14.2414E-03     5.75109E-03     12.9056E+06     1.63499E+06    -136.467E+06     12.8267E+06    -136.388E+06     1.63499E+06    -2.43995E+06         22.3305
            1352     7.88866E-03     66.6713E-03         2.07035         1.69588        -3.56257         1.68740        -3.55409         2.07035    -61.2619E-03     28.8337E-03    -14.2126E-03    -14.6204E-03    -14.3664E-03     28.5797E-03    -14.2126E-03     6.61491E-03     11.4357E+06    -4.03497E+06    -129.886E+06     11.2995E+06    -129.750E+06    -4.03497E+06    -2.56652E+06         22.8957
            1353     8.87486E-03     66.6789E-03         2.01988         1.55187        -3.36865         1.54759        -3.36438         2.01988     76.2053E-03     29.0148E-03    -14.1805E-03    -14.8344E-03    -14.5081E-03     28.6885E-03    -14.1805E-03     7.51664E-03     10.5875E+06    -10.2085E+06    -113.262E+06     10.4660E+06    -113.140E+06    -10.2085E+06    -820.483E+03         23.8733
            1354     9.86058E-03     66.6873E-03         1.96509         1.40251        -3.16751         1.40046        -3.16546         1.96509    -12.2493E-03     29.1876E-03    -14.1870E-03    -15.0022E-03    -14.5994E-03     28.7848E-03    -14.1870E-03     8.39136E-03     9.68092E+06    -12.6989E+06    -99.7934E+06     9.58791E+06    -99.7004E+06    -12.6989E+06     392.592E+03         25.2362
            1355     10.8461E-03     66.6963E-03         1.90600         1.23573        -2.94365         1.23469        -2.94262         1.90600     62.9501E-03     29.2793E-03    -14.1564E-03    -15.1273E-03    -14.6112E-03     28.7633E-03    -14.1564E-03     9.48703E-03     8.39346E+06    -24.8649E+06    -90.6541E+06     8.29012E+06    -90.5508E+06    -24.8649E+06    -654.354E+03         27.2151
            1356     11.8318E-03     66.7062E-03         1.84239         1.05797        -2.70889         1.05785        -2.70877         1.84239    -15.9681E-03     29.3055E-03    -14.0946E-03    -15.2166E-03    -14.4957E-03     28.5846E-03    -14.0946E-03     11.1950E-03     5.49360E+06    -40.8073E+06    -70.8479E+06     5.35435E+06    -70.7086E+06    -40.8073E+06    -1.60109E+06         30.2609
            1357     12.8183E-03     66.7188E-03         1.77452     872.020E-03        -2.45948     871.987E-03        -2.45945         1.77452     5.06878E-03     29.4739E-03    -14.0225E-03    -15.4533E-03    -14.4412E-03     28.4618E-03    -14.0225E-03     13.2861E-03     2.41027E+06    -39.8933E+06    -63.0725E+06     2.18183E+06    -45.1495E+06    -57.5879E+06    -2.35661E+06         34.4265
            1358     13.8038E-03     66.7324E-03         1.70275     682.551E-03        -2.19986     682.223E-03        -2.19954         1.70275     34.4357E-03     30.8538E-03    -13.9307E-03    -16.9232E-03    -14.4942E-03     28.4248E-03    -13.9307E-03     20.2994E-03     2.37546E+06    -20.3070E+06    -78.3999E+06    -734.377E+03    -17.1972E+06    -78.3999E+06    -2.15528E+06         39.4095
            1359     14.7901E-03     66.7582E-03         1.62716     496.626E-03        -1.94027     496.165E-03        -1.93981         1.62716     16.5560E-03     46.0443E-03    -13.9468E-03    -32.0965E-03    -15.0421E-03     28.9900E-03    -13.9468E-03     60.9984E-03     53.4310E+06    -7.03620E+06    -65.9713E+06    -5.02981E+06     51.4246E+06    -65.9713E+06    -1.25694E+06         45.0416
            1360     15.7740E-03     66.8550E-03         1.54429     295.127E-03        -1.66716     294.622E-03        -1.66665         1.54429     10.0203E-03     138.896E-03    -14.1871E-03    -124.707E-03    -30.6908E-03     44.8805E-03    -14.1871E-03     251.718E-03     133.283E+06     9.95032E+06    -29.9057E+06    -11.0557E+06     132.970E+06    -8.58655E+06    -618.769E+03         50.7932
            1361     16.7672E-03     67.2850E-03         1.45095     93.2823E-03        -1.37549     92.6549E-03        -1.37486         1.45095     9.04936E-03     215.329E-03    -14.5034E-03    -200.825E-03    -37.1719E-03     51.6750E-03    -14.5034E-03     406.188E-03     192.627E+06     77.0379E+06    -7.05994E+06    -6.98529E+06     192.552E+06     77.0379E+06     829.548E+03         55.5865
            1362     986.109E-06     67.6712E-03         6.43580         4.79202        -11.0229    -788.035E-03        -4.15936         5.15232         6.53323     28.2303E-03    -14.0499E-03    -14.1802E-03    -14.0693E-03     28.2218E-03    -14.1523E-03     1.04337E-03     13.9645E+06     10.2897E+06    -144.980E+06     10.9444E+06    -144.955E+06     13.2843E+06    -1.15219E+06         21.7841
            1363     1.97253E-03     67.6730E-03         3.95766         2.17658        -5.92132         2.15709        -4.12075         2.17658        -2.18007     28.4969E-03    -14.1603E-03    -14.3368E-03    -14.2716E-03     28.4723E-03    -14.2008E-03     1.91858E-03     19.5237E+06     14.0546E+06    -147.688E+06     14.0429E+06    -147.676E+06     19.5237E+06    -1.05216E+06         21.8124
            1364     2.95837E-03     67.6761E-03         2.82622         2.16933        -4.78042         2.15647        -4.11068         2.16933         1.06677     28.7327E-03    -14.2463E-03    -14.4866E-03    -14.4183E-03     28.6910E-03    -14.2729E-03     2.67726E-03     20.0388E+06     15.6245E+06    -148.988E+06     15.6232E+06    -148.987E+06     20.0388E+06    -101.028E+03         21.8638
            1365     3.94457E-03     67.6782E-03         2.32636         2.15204        -4.26536         2.05588        -3.99744         2.15459    -614.147E-03     28.8841E-03    -14.3180E-03    -14.5666E-03    -14.4982E-03     28.8230E-03    -14.3253E-03     3.21545E-03     18.0682E+06     15.6264E+06    -152.433E+06     15.7752E+06    -152.423E+06     17.9102E+06     488.523E+03         21.9314
            1366     4.93021E-03     67.6826E-03         2.13868         2.06665        -3.99430         1.96859        -3.88375         2.12619     339.251E-03     28.9067E-03    -14.3309E-03    -14.5767E-03    -14.4709E-03     28.8112E-03    -14.3412E-03     4.05060E-03     15.8236E+06     13.8694E+06    -149.666E+06     15.4474E+06    -149.634E+06     14.2135E+06    -328.193E+03         22.0122
            1367     5.91642E-03     67.6878E-03         2.09308         1.93606        -3.82034         1.88907        -3.77335         2.09308    -245.275E-03     28.8517E-03    -14.3155E-03    -14.5373E-03    -14.4087E-03     28.7260E-03    -14.3185E-03     4.65503E-03     15.3156E+06     8.50713E+06    -142.113E+06     15.2585E+06    -142.056E+06     8.50713E+06    -2.28766E+06         22.1085
            1368     6.90211E-03     67.6927E-03         2.05680         1.81179        -3.66310         1.79236        -3.64367         2.05680     124.743E-03     28.8947E-03    -14.2873E-03    -14.6070E-03    -14.4261E-03     28.7138E-03    -14.2873E-03     5.56293E-03     14.9976E+06     2.33358E+06    -135.583E+06     14.9194E+06    -135.504E+06     2.33358E+06    -2.83424E+06         22.3306
            1369     7.88838E-03     67.6999E-03         2.01559         1.67543        -3.48941         1.66566        -3.47963         2.01559    -71.5685E-03     28.9604E-03    -14.2657E-03    -14.6933E-03    -14.4530E-03     28.7201E-03    -14.2657E-03     6.45522E-03     13.5020E+06    -3.13458E+06    -128.870E+06     13.3759E+06    -128.744E+06    -3.13458E+06    -3.33471E+06         22.8829
            1370     8.87404E-03     67.7072E-03         1.96740         1.50708        -3.27670         1.50248        -3.27210         1.96740     84.7746E-03     28.9636E-03    -14.2354E-03    -14.7283E-03    -14.4206E-03     28.6558E-03    -14.2354E-03     7.28388E-03     12.0055E+06    -8.90877E+06    -115.555E+06     11.8381E+06    -115.387E+06    -8.90877E+06    -2.48126E+06         23.8455
            1371     9.86022E-03     67.7160E-03         1.91234         1.34014        -3.05722         1.33832        -3.05540         1.91234    -25.5794E-03     28.9999E-03    -14.2214E-03    -14.7810E-03    -14.4066E-03     28.6255E-03    -14.2214E-03     8.05282E-03     11.3326E+06    -10.9763E+06    -100.252E+06     11.2098E+06    -100.129E+06    -10.9763E+06    -777.366E+03         25.1967
            1372     10.8466E-03     67.7248E-03         1.85330         1.19918        -2.85757         1.19838        -2.85677         1.85330     46.6343E-03     29.0706E-03    -14.1775E-03    -14.8972E-03    -14.4369E-03     28.6103E-03    -14.1775E-03     8.90209E-03     9.09729E+06    -21.7689E+06    -89.2905E+06     9.00589E+06    -89.1991E+06    -21.7689E+06    -1.09781E+06         27.1678
            1373     11.8325E-03     67.7353E-03         1.79137         1.03492        -2.63487         1.03474        -2.63469         1.79137    -12.1595E-03     29.0971E-03    -14.1060E-03    -14.9956E-03    -14.3299E-03     28.4314E-03    -14.1060E-03     10.6739E-03     6.34859E+06    -36.8561E+06    -69.3967E+06     6.20346E+06    -69.2515E+06    -36.8561E+06    -2.16030E+06         30.2083
            1374     12.8183E-03     67.7469E-03         1.72551     851.760E-03        -2.39213     851.671E-03        -2.39204         1.72551     22.5059E-03     29.0754E-03    -14.0145E-03    -15.0618E-03    -14.1028E-03     28.1164E-03    -14.0145E-03     12.8145E-03     3.25856E+06    -37.0644E+06    -61.0735E+06     2.85669E+06    -43.7730E+06    -53.9630E+06    -3.38123E+06         34.3793
            1375     13.8055E-03     67.7615E-03         1.65586     673.556E-03        -2.14760     673.281E-03        -2.14733         1.65586     41.8198E-03     30.1685E-03    -13.8883E-03    -16.2791E-03    -13.8428E-03     27.7322E-03    -13.8883E-03     19.9201E-03     1.01855E+06    -20.2882E+06    -76.1081E+06    -1.82317E+06    -17.4464E+06    -76.1081E+06    -3.73725E+06         39.3872
            1376     14.7916E-03     67.7871E-03         1.58184     481.633E-03        -1.88122     481.327E-03        -1.88091         1.58184     20.8418E-03     44.7249E-03    -13.8344E-03    -30.8881E-03    -13.8677E-03     27.7045E-03    -13.8344E-03     59.7507E-03     50.7281E+06    -8.36883E+06    -67.4669E+06    -6.73869E+06     49.0980E+06    -67.4669E+06     25.3144E+03         45.0586
            1377     15.7847E-03     67.8813E-03         1.49742     270.017E-03        -1.59524     269.861E-03        -1.59508         1.49742    -1.58285E-03     140.902E-03    -13.9633E-03    -126.935E-03    -29.3155E-03     43.2828E-03    -13.9633E-03     257.024E-03     133.802E+06     11.5402E+06    -31.0095E+06    -10.6422E+06     133.611E+06    -8.63655E+06     2.90468E+06         50.8599
            1378     16.7565E-03     68.3260E-03         1.39956     75.1734E-03        -1.31034     74.9435E-03        -1.31011         1.39956     1.98075E-03     216.120E-03    -14.2691E-03    -201.851E-03    -39.0434E-03     53.3120E-03    -14.2691E-03     407.307E-03     193.079E+06     79.9906E+06    -8.64587E+06    -8.51955E+06     192.953E+06     79.9906E+06    -1.11199E+06         55.6833
            1379     986.161E-06     68.6993E-03         6.62665         4.95640        -11.3810    -821.225E-03        -4.00494         5.02821         6.95801     28.5495E-03    -14.1875E-03    -14.3620E-03    -14.2171E-03     28.5392E-03    -14.3220E-03     1.05837E-03     17.4916E+06     14.4325E+06     -142.38E+06     14.4693E+06    -142.326E+06     17.4008E+06    -1.41713E+06         21.7916
            1380     1.97200E-03     68.7011E-03         4.06134         2.09204        -5.94392         2.04937        -3.93195         2.09204        -2.28832     28.6146E-03    -14.2599E-03    -14.3544E-03    -14.2747E-03     28.5894E-03    -14.3144E-03     2.01618E-03     18.6604E+06     14.5595E+06    -147.767E+06     14.5427E+06    -147.751E+06     18.6604E+06     231.500E+03         21.8172
            1381     2.95867E-03     68.7038E-03         2.81199         2.07687        -4.67989         2.05131        -3.91921         2.07687         1.16764     28.7156E-03    -14.2887E-03    -14.4270E-03    -14.3470E-03     28.6763E-03    -14.3294E-03     2.54626E-03     18.0848E+06     15.5375E+06    -149.643E+06     15.5365E+06    -149.642E+06     18.0848E+06     297.342E+03         21.8682
            1382     3.94423E-03     68.7072E-03         2.30690         2.06473        -4.16178         2.00412        -3.85900         2.06473    -579.358E-03     29.0720E-03    -14.3703E-03    -14.7023E-03    -14.6421E-03     29.0119E-03    -14.3703E-03     3.22449E-03     18.0216E+06     15.4260E+06    -152.392E+06     16.6998E+06    -152.365E+06     16.7202E+06    -23.9081E+03         21.9384
            1383     4.92972E-03     68.7112E-03         2.09995         1.99554        -3.88922         1.92241        -3.76071         2.04458     415.144E-03     29.0992E-03    -14.4035E-03    -14.6958E-03    -14.6054E-03     29.0118E-03    -14.4065E-03     3.89233E-03     17.7536E+06     14.7226E+06    -147.723E+06     17.6992E+06    -147.668E+06     14.7226E+06    -843.935E+03         22.0219
            1384     5.91579E-03     68.7157E-03         2.01442         1.85868        -3.66695         1.80390        -3.61217         2.01442    -192.732E-03     29.0022E-03    -14.3980E-03    -14.6033E-03    -14.4803E-03     28.8822E-03    -14.4010E-03     4.55703E-03     16.4071E+06     10.8370E+06    -140.243E+06     16.3543E+06    -140.190E+06     10.8370E+06    -1.85050E+06         22.1192
            1385     6.90199E-03     68.7216E-03         1.97683         1.73002        -3.50187         1.70303        -3.47488         1.97683     154.712E-03     29.1244E-03    -14.3742E-03    -14.7487E-03    -14.5817E-03     28.9574E-03    -14.3742E-03     5.37580E-03     13.9906E+06     3.53385E+06    -134.508E+06     13.9104E+06    -134.428E+06     3.53385E+06    -3.18217E+06         22.3361
            1386     7.88735E-03     68.7282E-03         1.93563         1.61143        -3.34558         1.59877        -3.33292         1.93563    -83.3588E-03     29.1236E-03    -14.3639E-03    -14.7578E-03    -14.5380E-03     28.9038E-03    -14.3639E-03     6.18062E-03     13.2845E+06    -571.004E+03    -127.180E+06     13.1605E+06    -127.056E+06    -571.004E+03    -3.70859E+06         22.8730
            1387     8.87365E-03     68.7359E-03         1.88932         1.45258        -3.14388         1.44678        -3.13808         1.88932     97.2477E-03     29.0062E-03    -14.3306E-03    -14.6755E-03    -14.3915E-03     28.7222E-03    -14.3306E-03     6.99467E-03     12.3272E+06    -6.52428E+06    -116.708E+06     12.1956E+06    -116.577E+06    -6.52428E+06    -3.37932E+06         23.8182
            1388     9.85956E-03     68.7443E-03         1.83645         1.28765        -2.92781         1.28566        -2.92582         1.83645    -38.1379E-03     29.0188E-03    -14.2812E-03    -14.7402E-03    -14.3814E-03     28.6600E-03    -14.2812E-03     7.87009E-03     10.6135E+06    -13.4748E+06    -101.305E+06     10.4298E+06    -101.121E+06    -13.4748E+06    -2.65531E+06         25.1552
            1389     10.8452E-03     68.7537E-03         1.77944         1.14868        -2.73259         1.14797        -2.73188         1.77944     44.9686E-03     28.9792E-03    -14.2284E-03    -14.7541E-03    -14.3502E-03     28.5752E-03    -14.2284E-03     8.35854E-03     10.0290E+06    -22.6451E+06    -88.2716E+06     9.85383E+06    -88.0964E+06    -22.6451E+06    -2.43902E+06         27.1142
            1390     11.8316E-03     68.7634E-03         1.71981     997.983E-03        -2.52789     997.812E-03        -2.52772         1.71981    -2.22109E-03     28.8253E-03    -14.1363E-03    -14.6933E-03    -14.1088E-03     28.2408E-03    -14.1363E-03     9.90694E-03     8.58421E+06    -37.6508E+06    -68.5948E+06     8.36356E+06    -68.1385E+06    -37.8864E+06    -3.06430E+06         30.1416
            1391     12.8183E-03     68.7759E-03         1.65678     825.036E-03        -2.29829     824.922E-03        -2.29818         1.65678     26.8439E-03     28.8508E-03    -14.0298E-03    -14.8227E-03    -13.9707E-03     27.9988E-03    -14.0298E-03     12.0575E-03     5.03240E+06    -38.2484E+06    -58.3285E+06     4.58623E+06    -41.7135E+06    -54.4172E+06    -3.38280E+06         34.3125
            1392     13.8045E-03     68.7890E-03         1.58952     637.719E-03        -2.04859     637.521E-03        -2.04840         1.58952     31.5974E-03     29.4339E-03    -13.8949E-03    -15.5391E-03    -13.5092E-03     27.4039E-03    -13.8949E-03     17.8999E-03    -761.688E+03    -21.1561E+06    -76.8333E+06    -2.30774E+06    -19.6100E+06    -76.8333E+06    -1.84728E+06         39.3490
            1393     14.7935E-03     68.8144E-03         1.51687     448.505E-03        -1.78914     448.214E-03        -1.78885         1.51687     7.46541E-03     43.6021E-03    -13.8229E-03    -29.7788E-03    -13.7862E-03     27.6095E-03    -13.8229E-03     57.0488E-03     46.7849E+06    -11.9685E+06    -70.8958E+06    -10.0533E+06     44.8697E+06    -70.8958E+06     697.678E+03         45.0612
            1394     15.7764E-03     68.9081E-03         1.43219     255.250E-03        -1.51911     255.105E-03        -1.51896         1.43219    -13.9446E-03     136.673E-03    -13.8362E-03    -122.839E-03    -25.0037E-03     38.8374E-03    -13.8362E-03     250.351E-03     134.040E+06     6.54070E+06    -27.0134E+06    -7.61965E+06     133.830E+06    -12.6425E+06     474.534E+03         50.9131
            1395     16.7956E-03     69.3529E-03         1.33159     66.9545E-03        -1.24125     66.9169E-03        -1.24121         1.33159     3.07652E-03     217.009E-03    -14.1226E-03    -202.891E-03    -40.9013E-03     55.0190E-03    -14.1226E-03     408.617E-03     196.317E+06     81.6209E+06    -4.36837E+06    -4.08980E+06     196.038E+06     81.6209E+06    -45.1341E+03         55.7661
            1396     986.252E-06     69.7274E-03         7.00903         4.86187        -11.6610    -827.557E-03        -3.82440         4.86187         7.32624     28.6742E-03    -14.1647E-03    -14.5098E-03    -14.4642E-03     28.6606E-03    -14.1967E-03     1.37846E-03     16.9875E+06     10.6666E+06    -144.084E+06     10.6150E+06    -144.032E+06     16.9875E+06    -25.0933E+03         21.8051
            1397     1.97212E-03     69.7299E-03         4.17115         2.00455        -5.96425         1.95112        -3.74423         2.00455        -2.33792     29.0704E-03    -14.4385E-03    -14.6322E-03    -14.6010E-03     29.0533E-03    -14.4525E-03     1.68453E-03     23.6174E+06     16.5162E+06    -146.169E+06     16.5023E+06    -146.155E+06     23.6174E+06     421.738E+03         21.8296
            1398     2.95759E-03     69.7317E-03         2.80343         1.98009        -4.57473         1.91504        -3.68634         1.98009         1.23280     28.9826E-03    -14.4341E-03    -14.5490E-03    -14.4544E-03     28.9485E-03    -14.4945E-03     2.34884E-03     21.2137E+06     19.1513E+06    -149.101E+06     19.6352E+06    -149.093E+06     20.7217E+06    -365.498E+03         21.8768
            1399     3.94387E-03     69.7362E-03         2.26042         1.96162        -4.01251         1.90360        -3.65569         1.96162    -629.110E-03     29.0338E-03    -14.4222E-03    -14.6118E-03    -14.4912E-03     28.9711E-03    -14.4800E-03     3.28918E-03     20.1923E+06     16.9578E+06    -151.934E+06     19.9159E+06    -151.906E+06     17.2069E+06    -1.14075E+06         21.9463
            1400     4.92975E-03     69.7398E-03         2.02642         1.90339        -3.72393         1.83938        -3.57699         1.94350     450.434E-03     29.2757E-03    -14.4732E-03    -14.8016E-03    -14.7071E-03     29.1925E-03    -14.4847E-03     3.81504E-03     19.0259E+06     14.9208E+06    -147.404E+06     18.9887E+06    -147.367E+06     14.9208E+06    -1.04170E+06         22.0322
            1401     5.91533E-03     69.7445E-03         1.91574         1.77638        -3.48337         1.71387        -3.42086         1.91574    -187.362E-03     29.4004E-03    -14.5116E-03    -14.8873E-03    -14.7757E-03     29.2888E-03    -14.5116E-03     4.41925E-03     18.8221E+06     14.6621E+06    -138.183E+06     18.7822E+06    -138.143E+06     14.6621E+06    -1.44320E+06         22.1310
            1402     6.90066E-03     69.7504E-03         1.87802         1.62570        -3.29555         1.59400        -3.26385         1.87802     166.148E-03     29.3251E-03    -14.5061E-03    -14.8176E-03    -14.6583E-03     29.1658E-03    -14.5061E-03     5.26963E-03     18.4506E+06     9.69748E+06    -131.697E+06     18.3598E+06    -131.607E+06     9.69748E+06    -3.21458E+06         22.3420
            1403     7.88676E-03     69.7571E-03         1.83463         1.49272        -3.12230         1.47634        -3.10592         1.83463    -64.0290E-03     29.2768E-03    -14.4742E-03    -14.8012E-03    -14.5885E-03     29.0642E-03    -14.4742E-03     6.09609E-03     16.7304E+06     1.96526E+06    -126.556E+06     16.5905E+06    -126.416E+06     1.96526E+06    -4.02393E+06         22.8635
            1404     8.87228E-03     69.7644E-03         1.78835         1.38106        -2.96797         1.37291        -2.95982         1.78835     124.937E-03     29.1554E-03    -14.4290E-03    -14.7260E-03    -14.4563E-03     28.8857E-03    -14.4290E-03     6.84495E-03     14.9209E+06    -5.38375E+06    -116.736E+06     14.7542E+06    -116.570E+06    -5.38375E+06    -3.84535E+06         23.7910
            1405     9.85853E-03     69.7728E-03         1.73985         1.25256        -2.79216         1.24952        -2.78912         1.73985    -11.7199E-03     29.0363E-03    -14.3486E-03    -14.6900E-03    -14.3151E-03     28.6613E-03    -14.3486E-03     8.02196E-03     13.3261E+06    -16.0631E+06    -100.993E+06     13.1135E+06    -100.781E+06    -16.0631E+06    -4.00891E+06         25.1126
            1406     10.8447E-03     69.7827E-03         1.68717         1.08986        -2.57767         1.08831        -2.57612         1.68717     78.9821E-03     29.0243E-03    -14.2701E-03    -14.7587E-03    -14.3310E-03     28.5966E-03    -14.2701E-03     8.60858E-03     11.2681E+06    -27.8019E+06    -87.3571E+06     10.9735E+06    -87.0626E+06    -27.8019E+06    -4.31745E+06         27.0565
            1407     11.8307E-03     69.7915E-03         1.62960     925.501E-03        -2.36362     925.153E-03        -2.36327         1.62960     10.7751E-03     28.8498E-03    -14.1809E-03    -14.6742E-03    -14.1219E-03     28.2975E-03    -14.1809E-03     9.64503E-03     7.96052E+06    -41.6534E+06    -68.7100E+06     7.61869E+06    -68.1325E+06    -41.8890E+06    -3.80042E+06         30.0675
            1408     12.8173E-03     69.8040E-03         1.56828     767.953E-03        -2.14723     767.673E-03        -2.14695         1.56828     25.2540E-03     28.8182E-03    -14.0831E-03    -14.7365E-03    -13.8725E-03     27.9542E-03    -14.0831E-03     12.0706E-03     3.35084E+06    -40.2753E+06    -57.3099E+06     3.03908E+06    -41.7464E+06    -55.5269E+06    -2.69526E+06         34.2370
            1409     13.8038E-03     69.8182E-03         1.50341     593.022E-03        -1.91242     592.649E-03        -1.91205         1.50341     26.3333E-03     29.6867E-03    -13.9649E-03    -15.7213E-03    -13.9543E-03     27.9197E-03    -13.9649E-03     17.1730E-03    -1.92541E+06    -22.7029E+06    -76.6517E+06    -2.10729E+06    -22.5210E+06    -76.6517E+06    -687.952E+03         39.3009
            1410     14.7897E-03     69.8402E-03         1.43336     416.460E-03        -1.67432     415.993E-03        -1.67385         1.43336     19.0359E-03     43.7890E-03    -13.8948E-03    -29.8939E-03    -13.9614E-03     27.8565E-03    -13.8948E-03     56.2189E-03     49.6221E+06    -9.75386E+06    -71.2463E+06    -4.32234E+06     44.1906E+06    -71.2463E+06    -265.349E+03         45.0543
            1411     15.7814E-03     69.9388E-03         1.35056     244.108E-03        -1.42385     243.628E-03        -1.42337         1.35056     10.4608E-03     132.194E-03    -14.0678E-03    -118.128E-03    -27.7103E-03     41.7763E-03    -14.0678E-03     239.479E-03     136.665E+06     11.5794E+06    -29.3235E+06    -6.49579E+06     136.397E+06    -10.9803E+06    -1.62884E+06         50.9326
            1412     16.7550E-03     70.3451E-03         1.24902     57.7029E-03        -1.14588     57.0883E-03        -1.14526         1.24902     9.22415E-03     217.130E-03    -14.4994E-03    -202.633E-03    -40.9646E-03     55.4612E-03    -14.4994E-03     407.945E-03     195.827E+06     79.3174E+06    -6.13655E+06    -5.92059E+06     195.611E+06     79.3174E+06     83.6584E+03         55.8046
            1413     986.369E-06     70.7576E-03         7.39451         4.69337        -11.8609    -874.759E-03        -3.59165         4.69337         7.60767     29.1049E-03    -14.3328E-03    -14.7724E-03    -14.7020E-03     29.0918E-03    -14.3902E-03     1.46334E-03     18.6830E+06     11.8871E+06    -144.160E+06     11.8458E+06    -144.118E+06     18.6830E+06     1.46393E+06         21.8260
            1414     1.97128E-03     70.7582E-03         4.27764         1.89445        -5.94636         1.83281        -3.50153         1.89445        -2.39580     29.3893E-03    -14.5927E-03    -14.7969E-03    -14.7245E-03     29.3742E-03    -14.6501E-03     1.55219E-03     24.7928E+06     16.7803E+06    -145.808E+06     16.7752E+06    -145.803E+06     24.7928E+06    -433.320E+03         21.8478
            1415     2.95723E-03     70.7612E-03         2.80672         1.86498        -4.45514         1.78254        -3.43096         1.86498         1.25610     29.3096E-03    -14.6132E-03    -14.6967E-03    -14.6076E-03     29.2771E-03    -14.6698E-03     2.35162E-03     22.1220E+06     19.2663E+06    -147.900E+06     19.7476E+06    -147.889E+06     21.6301E+06    -987.292E+03         21.8923
            1416     3.94308E-03     70.7638E-03         2.16818         1.83883        -3.79510         1.74321        -3.37013         1.83883    -718.832E-03     29.2469E-03    -14.5702E-03    -14.6764E-03    -14.5504E-03     29.1889E-03    -14.6382E-03     3.15015E-03     20.2461E+06     17.4084E+06    -151.163E+06     20.0559E+06    -151.153E+06     17.5889E+06    -768.254E+03         21.9587
            1417     4.92926E-03     70.7691E-03         1.89244         1.79181        -3.46878         1.69868        -3.29789         1.81467     449.486E-03     29.4097E-03    -14.5949E-03    -14.8143E-03    -14.7184E-03     29.3299E-03    -14.6111E-03     3.74926E-03     19.0650E+06     13.8345E+06    -146.618E+06     19.0412E+06    -146.594E+06     13.8345E+06    -1.34279E+06         22.0419
            1418     5.91426E-03     70.7738E-03         1.78781         1.68305        -3.25413         1.61287        -3.18395         1.78781    -233.985E-03     29.5243E-03    -14.5982E-03    -14.9259E-03    -14.8113E-03     29.4145E-03    -14.6030E-03     4.38269E-03     19.2507E+06     11.0276E+06    -136.138E+06     19.1495E+06    -136.037E+06     11.0276E+06    -3.26622E+06         22.1389
            1419     6.90024E-03     70.7791E-03         1.75417         1.53143        -3.07292         1.49810        -3.03959         1.75417     144.873E-03     29.4708E-03    -14.5933E-03    -14.8772E-03    -14.7112E-03     29.3048E-03    -14.5933E-03     5.39008E-03     19.6214E+06     7.59734E+06    -129.555E+06     19.4775E+06    -129.411E+06     7.59734E+06    -3.90422E+06         22.3447
            1420     7.88583E-03     70.7859E-03         1.71376         1.39232        -2.89658         1.37374        -2.87800         1.71376    -65.1488E-03     29.3637E-03    -14.5625E-03    -14.8011E-03    -14.5807E-03     29.1433E-03    -14.5625E-03     6.21550E-03     18.7340E+06     2.07627E+06    -125.736E+06     18.5721E+06    -125.575E+06     2.07627E+06    -4.20353E+06         22.8526
            1421     8.87188E-03     70.7933E-03         1.66962         1.28413        -2.74997         1.27435        -2.74020         1.66962     116.688E-03     29.2593E-03    -14.5014E-03    -14.7582E-03    -14.4736E-03     28.9747E-03    -14.5014E-03     7.03646E-03     16.6837E+06    -6.11664E+06    -115.656E+06     16.4653E+06    -115.438E+06    -6.11664E+06    -4.85944E+06         23.7634
            1422     9.85771E-03     70.8013E-03         1.62404         1.17666        -2.59949         1.17235        -2.59518         1.62404    -11.1354E-03     29.1441E-03    -14.4174E-03    -14.7295E-03    -14.3501E-03     28.7648E-03    -14.4174E-03     8.10021E-03     15.3616E+06    -16.1489E+06    -99.9180E+06     15.0601E+06    -99.6166E+06    -16.1489E+06    -5.20520E+06         25.0693
            1423     10.8442E-03     70.8111E-03         1.57524         1.02579        -2.40046         1.02350        -2.39818         1.57524     79.6877E-03     29.0630E-03    -14.3361E-03    -14.7320E-03    -14.3039E-03     28.6349E-03    -14.3361E-03     8.61400E-03     12.7288E+06    -27.5212E+06    -87.2887E+06     12.3735E+06    -86.9334E+06    -27.5212E+06    -4.63678E+06         26.9970
            1424     11.8300E-03     70.8209E-03         1.52087     847.383E-03        -2.17328     846.633E-03        -2.17253         1.52087     10.3538E-03     29.0812E-03    -14.2630E-03    -14.8237E-03    -14.3160E-03     28.5734E-03    -14.2630E-03     9.35038E-03     8.46668E+06    -39.0486E+06    -68.7724E+06     8.09347E+06    -68.3992E+06    -39.0486E+06    -3.84140E+06         29.9918
            1425     12.8164E-03     70.8314E-03         1.46182     692.474E-03        -1.95986     692.005E-03        -1.95939         1.46182     45.5378E-03     28.9245E-03    -14.1641E-03    -14.7619E-03    -13.9744E-03     28.1370E-03    -14.1641E-03     11.4942E-03     4.20171E+06    -39.4759E+06    -59.8171E+06     3.84252E+06    -44.2898E+06    -54.6440E+06    -2.30461E+06         34.1602
            1426     13.8036E-03     70.8471E-03         1.40005     550.959E-03        -1.75773     550.075E-03        -1.75685         1.40005     54.9529E-03     29.9879E-03    -14.0388E-03    -15.9477E-03    -14.0758E-03     28.1159E-03    -14.0388E-03     17.6458E-03     683.872E+03    -23.4030E+06    -76.5577E+06    -552.806E+03    -22.1663E+06    -76.5577E+06    -1.52780E+06         39.2514
            1427     14.7889E-03     70.8704E-03         1.33407     389.624E-03        -1.54001     388.652E-03        -1.53904         1.33407     45.1910E-03     43.5671E-03    -13.9938E-03    -29.5701E-03    -14.9029E-03     28.8999E-03    -13.9938E-03     54.6299E-03     49.0679E+06    -11.1749E+06    -73.8375E+06    -5.96340E+06     43.8564E+06    -73.8375E+06    -1.96009E+06         45.0424
            1428     15.7759E-03     70.9604E-03         1.25344     216.546E-03        -1.29418     215.991E-03        -1.29363         1.25344     18.3310E-03     136.396E-03    -14.3229E-03    -122.069E-03    -33.5472E-03     47.8744E-03    -14.3229E-03     244.461E-03     134.926E+06     9.42623E+06    -32.4134E+06    -7.59334E+06     134.782E+06    -15.2497E+06     528.198E+03         50.9466
            1429     16.7523E-03     71.4037E-03         1.15142     40.9056E-03        -1.02062     40.1658E-03        -1.01988         1.15142     12.6759E-03     218.377E-03    -14.8420E-03    -203.534E-03    -39.6408E-03     54.4837E-03    -14.8420E-03     410.470E-03     196.849E+06     80.2586E+06    -5.51422E+06    -5.46252E+06     196.797E+06     80.2586E+06     1.19636E+06         55.8522
            1430     984.859E-06     71.7854E-03         7.76998         4.49233        -12.0241        -1.01158        -3.24253         4.49233         7.83887     29.4722E-03    -14.6042E-03    -14.8680E-03    -14.6994E-03     29.4556E-03    -14.7562E-03     1.58357E-03     16.4331E+06     11.4622E+06    -144.608E+06     11.4027E+06    -144.548E+06     16.4331E+06     2.65027E+06         21.8470
            1431     1.97155E-03     71.7881E-03         4.38095         1.73161        -5.88038         1.69992        -3.19935         1.73161        -2.53635     29.5405E-03    -14.7328E-03    -14.8075E-03    -14.7288E-03     29.5191E-03    -14.7902E-03     1.86095E-03     22.9096E+06     16.1566E+06    -144.781E+06     16.1451E+06    -144.769E+06     22.9096E+06     455.493E+03         21.8650
            1432     2.95687E-03     71.7897E-03         2.79582         1.71534        -4.28366         1.66788        -3.15572         1.71534         1.26566     29.6774E-03    -14.7940E-03    -14.8833E-03    -14.8427E-03     29.6470E-03    -14.8042E-03     2.28903E-03     21.2494E+06     16.9358E+06    -146.500E+06     16.9291E+06    -146.493E+06     21.2494E+06    -811.691E+03         21.9084
            1433     3.94250E-03     71.7933E-03         2.06842         1.69263        -3.53648         1.57852        -3.04658         1.69263    -742.919E-03     29.7145E-03    -14.7989E-03    -14.9149E-03    -14.8467E-03     29.6565E-03    -14.8091E-03     3.16798E-03     19.0524E+06     15.4178E+06    -150.345E+06     17.4118E+06    -150.335E+06     17.0480E+06    -1.21803E+06         21.9739
            1434     4.92756E-03     71.7979E-03         1.74159         1.64739        -3.16734         1.52455        -2.96668         1.66377     475.351E-03     29.4935E-03    -14.6903E-03    -14.8028E-03    -14.6466E-03     29.4085E-03    -14.7614E-03     3.86899E-03     19.0897E+06     11.8688E+06    -143.961E+06     18.9959E+06    -143.867E+06     11.8688E+06    -2.97546E+06         22.0521
            1435     5.91426E-03     71.8028E-03         1.63576         1.55835        -2.97436         1.47615        -2.89216         1.63576    -226.822E-03     29.4411E-03    -14.6270E-03    -14.8138E-03    -14.6240E-03     29.3225E-03    -14.6982E-03     4.54609E-03     19.2063E+06     7.78938E+06    -133.527E+06     19.0088E+06    -133.330E+06     7.78938E+06    -5.12485E+06         22.1445
            1436     6.89952E-03     71.8084E-03         1.60640         1.43197        -2.82232         1.39382        -2.78417         1.60640     177.222E-03     29.5716E-03    -14.6676E-03    -14.9035E-03    -14.7424E-03     29.4104E-03    -14.6676E-03     5.33387E-03     18.1259E+06     4.89769E+06    -129.074E+06     17.9215E+06    -128.870E+06     4.89769E+06    -5.07179E+06         22.3453
            1437     7.88532E-03     71.8149E-03         1.57240         1.30573        -2.66506         1.28683        -2.64617         1.57240    -64.1749E-03     29.4399E-03    -14.6357E-03    -14.8041E-03    -14.5970E-03     29.2327E-03    -14.6357E-03     6.02056E-03     17.0547E+06     680.838E+03    -124.736E+06     16.8432E+06    -124.525E+06     680.838E+03    -4.99623E+06         22.8402
            1438     8.87130E-03     71.8219E-03         1.53317         1.17759        -2.50292         1.16733        -2.49266         1.53317     102.680E-03     29.3161E-03    -14.5660E-03    -14.7502E-03    -14.4776E-03     29.0436E-03    -14.5660E-03     6.89074E-03     16.1993E+06    -7.18241E+06    -113.683E+06     15.8289E+06    -113.312E+06    -7.18241E+06    -6.24006E+06         23.7345
            1439     9.85738E-03     71.8304E-03         1.48958         1.05291        -2.33650         1.04778        -2.33137         1.48958    -12.6949E-03     29.2698E-03    -14.4832E-03    -14.7901E-03    -14.4275E-03     28.9072E-03    -14.4832E-03     7.93530E-03     14.8971E+06    -16.7631E+06    -99.2168E+06     14.4268E+06    -98.7466E+06    -16.7631E+06    -6.74361E+06         25.0248
            1440     10.8428E-03     71.8397E-03         1.44283     931.552E-03        -2.16917     928.814E-03        -2.16643         1.44283     84.8904E-03     29.1483E-03    -14.4040E-03    -14.7509E-03    -14.3118E-03     28.7092E-03    -14.4040E-03     8.73038E-03     13.0103E+06    -27.5098E+06    -87.9771E+06     12.5577E+06    -87.5245E+06    -27.5098E+06    -5.64999E+06         26.9365
            1441     11.8295E-03     71.8494E-03         1.39277     786.242E-03        -1.97900     785.444E-03        -1.97820         1.39277     11.2574E-03     29.2110E-03    -14.3305E-03    -14.8856E-03    -14.3273E-03     28.6527E-03    -14.3305E-03     9.80428E-03     10.8748E+06    -37.4386E+06    -69.4807E+06     10.4343E+06    -69.0403E+06    -37.4386E+06    -3.82608E+06         29.9159
            1442     12.8147E-03     71.8613E-03         1.33898     638.930E-03        -1.77890     638.418E-03        -1.77838         1.33898     46.6108E-03     29.3214E-03    -14.2362E-03    -15.0863E-03    -14.3029E-03     28.5380E-03    -14.2362E-03     11.6257E-03      7.2857E+06    -38.7972E+06    -61.1938E+06     6.68343E+06    -45.8249E+06    -53.5638E+06    -2.80258E+06         34.0834
            1443     13.8012E-03     71.8738E-03         1.28192     496.434E-03        -1.58327     495.179E-03        -1.58202         1.28192     64.4538E-03     30.0426E-03    -14.1101E-03    -15.9328E-03    -13.9270E-03     28.0368E-03    -14.1101E-03     18.0282E-03     3.53782E+06    -23.8217E+06    -75.4968E+06     1.89987E+06    -22.1838E+06    -75.4968E+06    -1.83962E+06         39.2019
            1444     14.7890E-03     71.9010E-03         1.21970     341.650E-03        -1.37423     340.298E-03        -1.37288         1.21970     52.3739E-03     45.1201E-03    -14.1030E-03    -31.0146E-03    -16.3519E-03     30.4574E-03    -14.1030E-03     57.1066E-03     50.5066E+06    -9.03536E+06    -71.5625E+06    -3.51340E+06     44.9846E+06    -71.5625E+06    -949.768E+03         45.0299
            1445     15.7701E-03     71.9928E-03         1.14083     175.715E-03        -1.13582     175.024E-03        -1.13513         1.14083     16.9033E-03     140.213E-03    -14.3572E-03    -125.854E-03    -31.9819E-03     46.3415E-03    -14.3572E-03     252.528E-03     132.403E+06     5.65932E+06    -33.7121E+06    -8.01818E+06     132.327E+06    -19.9593E+06    -779.867E+03         50.9835
            1446     16.7572E-03     72.4410E-03         1.03923     18.8619E-03    -876.242E-03     18.2165E-03    -875.597E-03         1.03923     24.7873E-03     215.727E-03    -14.6573E-03    -201.073E-03    -36.0870E-03     50.7414E-03    -14.6573E-03     407.256E-03     195.428E+06     70.1432E+06    -6.02581E+06    -6.00420E+06     195.407E+06     70.1432E+06     984.357E+03         55.9375
            1447     986.491E-06     72.8152E-03         8.12402         4.20592        -12.0887        -1.13747        -2.82719         4.20592         8.05559     29.5586E-03    -14.6932E-03    -14.8654E-03    -14.6897E-03     29.5461E-03    -14.8564E-03     1.18308E-03     14.3092E+06     9.12189E+06    -146.179E+06     10.0432E+06    -146.061E+06     13.2697E+06     542.463E+03         21.8611
            1448     1.97092E-03     72.8169E-03         4.45344         1.53406        -5.75270         1.53690        -2.83617         1.53406        -2.63085     29.7437E-03    -14.8559E-03    -14.8877E-03    -14.8643E-03     29.7203E-03    -14.8559E-03     1.98027E-03     21.8972E+06     14.4665E+06    -143.956E+06     14.4436E+06    -143.933E+06     21.8972E+06     1.38314E+06         21.8774
            1449     2.95664E-03     72.8195E-03         2.76733         1.53373        -4.06520         1.53052        -2.82839         1.53373         1.30702     29.9674E-03    -14.9090E-03    -15.0586E-03    -15.0182E-03     29.9269E-03    -14.9090E-03     2.60643E-03     22.3229E+06     16.9243E+06    -145.226E+06     16.9205E+06    -145.222E+06     22.3229E+06    -251.682E+03         21.9193
            1450     3.94154E-03     72.8229E-03         1.98449         1.52253        -3.27770         1.44213        -2.73534         1.52253    -736.209E-03     30.0126E-03    -14.9322E-03    -15.0801E-03    -15.0148E-03     29.9473E-03    -14.9322E-03     3.40657E-03     20.8985E+06     17.1530E+06    -147.998E+06     19.0464E+06    -147.907E+06     18.9138E+06    -2.60891E+06         21.9848
            1451     4.92769E-03     72.8269E-03         1.60508         1.48917        -2.86720         1.36646        -2.63797         1.49856     494.477E-03     29.7396E-03    -14.8145E-03    -14.9242E-03    -14.7736E-03     29.6553E-03    -14.8809E-03     3.86237E-03     20.3213E+06     12.2166E+06    -140.209E+06     20.1094E+06    -139.997E+06     12.2166E+06    -5.36474E+06         22.0612
            1452     5.91298E-03     72.8315E-03         1.47121         1.40917        -2.65166         1.31144        -2.55393         1.47121    -197.979E-03     29.5661E-03    -14.6980E-03    -14.8676E-03    -14.6334E-03     29.4448E-03    -14.8110E-03     4.60243E-03     20.0428E+06     7.99093E+06    -131.349E+06     19.7655E+06    -131.071E+06     7.99093E+06    -6.26981E+06         22.1501
            1453     6.89908E-03     72.8381E-03         1.44294         1.29489        -2.51365         1.24699        -2.46576         1.44294     208.489E-03     29.5702E-03    -14.7194E-03    -14.8508E-03    -14.6470E-03     29.4129E-03    -14.7660E-03     5.27137E-03     18.7110E+06     5.92660E+06    -129.042E+06     18.4261E+06    -128.757E+06     5.92660E+06    -6.26809E+06         22.3446
            1454     7.88464E-03     72.8436E-03         1.41262         1.19000        -2.38084         1.16817        -2.35901         1.41262    -62.6527E-03     29.5644E-03    -14.7148E-03    -14.8498E-03    -14.6517E-03     29.3663E-03    -14.7148E-03     5.90013E-03     17.9721E+06     1.38060E+06    -123.457E+06     17.6828E+06    -123.168E+06     1.38060E+06    -6.10419E+06         22.8256
            1455     8.87039E-03     72.8511E-03         1.37827         1.06720        -2.22828         1.05586        -2.21693         1.37827     118.125E-03     29.4109E-03    -14.6351E-03    -14.7758E-03    -14.5000E-03     29.1354E-03    -14.6354E-03     6.92441E-03     17.2768E+06    -6.91617E+06    -110.895E+06     16.8312E+06    -110.450E+06    -6.91617E+06    -7.01059E+06         23.7035
            1456     9.85614E-03     72.8591E-03         1.33837     930.205E-03        -2.05710     924.642E-03        -2.05154         1.33837     2.55117E-03     29.2078E-03    -14.5363E-03    -14.6748E-03    -14.2980E-03     28.8313E-03    -14.5367E-03     8.06479E-03     14.8470E+06    -18.1046E+06    -98.4372E+06     14.1916E+06    -97.7819E+06    -18.1046E+06    -7.95565E+06         24.9789
            1457     10.8430E-03     72.8684E-03         1.29421     812.067E-03        -1.89745     809.026E-03        -1.89440         1.29421     107.678E-03     29.1560E-03    -14.4405E-03    -14.7218E-03    -14.2462E-03     28.6804E-03    -14.4405E-03     9.07532E-03     12.0881E+06    -29.9543E+06    -88.5749E+06     11.4541E+06    -87.9408E+06    -29.9543E+06    -7.20195E+06         26.8752
            1458     11.8285E-03     72.8783E-03         1.24788     702.941E-03        -1.74503     702.280E-03        -1.74437         1.24788     29.7358E-03     29.2077E-03    -14.3586E-03    -14.8545E-03    -14.2374E-03     28.5906E-03    -14.3586E-03     10.3193E-03     9.07759E+06    -40.0469E+06    -71.2683E+06     8.41229E+06    -70.6030E+06    -40.0469E+06    -5.31561E+06         29.8397
            1459     12.8159E-03     72.8900E-03         1.19958     580.549E-03        -1.57279     579.935E-03        -1.57218         1.19958     39.1862E-03     29.3970E-03    -14.2647E-03    -15.1344E-03    -14.2683E-03     28.5309E-03    -14.2647E-03     12.2515E-03     5.98053E+06    -39.5885E+06    -61.9103E+06     5.16949E+06    -46.4263E+06    -54.2615E+06    -3.37026E+06         34.0079
            1460     13.8009E-03     72.9040E-03         1.14798     434.326E-03        -1.38018     433.440E-03        -1.37929         1.14798     37.9258E-03     30.3550E-03    -14.1425E-03    -16.2120E-03    -14.1877E-03     28.3308E-03    -14.1425E-03     18.3797E-03     3.15386E+06    -25.1737E+06    -76.4625E+06     726.351E+03    -22.7462E+06    -76.4625E+06    -2.52285E+06         39.1533
            1461     14.7878E-03     72.9267E-03         1.09009     287.214E-03        -1.18502     286.356E-03        -1.18416         1.09009     44.0920E-03     47.1863E-03    -14.1006E-03    -33.0827E-03    -15.5786E-03     29.6822E-03    -14.1006E-03     62.2349E-03     50.1753E+06    -9.49598E+06    -73.9379E+06    -3.01865E+06     43.6979E+06    -73.9379E+06    -824.581E+03         45.0259
            1462     15.7714E-03     73.0344E-03         1.01446     140.324E-03    -966.468E-03     139.397E-03    -965.542E-03         1.01446     34.6782E-03     139.071E-03    -14.1940E-03    -124.878E-03    -26.8435E-03     41.0368E-03    -14.1940E-03     253.676E-03     134.618E+06     9.86575E+06    -35.0695E+06    -7.04171E+06     134.416E+06    -17.9603E+06     1.28048E+06         51.0377
            1463     16.7708E-03     73.4516E-03     914.636E-03    -5.10345E-03    -718.517E-03    -6.10230E-03    -717.519E-03     914.636E-03     32.9627E-03     215.841E-03    -14.3737E-03    -201.474E-03    -36.7960E-03     51.1633E-03    -14.3737E-03     407.855E-03     195.479E+06     69.4166E+06    -8.33506E+06    -8.24035E+06     195.384E+06     69.4166E+06     55.2607E+03         56.0235
            1464     984.775E-06     73.8443E-03         8.36044         3.91597        -12.0376        -1.20687        -2.47031         3.91597         8.22033     29.6999E-03    -14.7898E-03    -14.9101E-03    -14.7873E-03     29.6911E-03    -14.9038E-03     967.403E-06     13.3998E+06     8.03390E+06    -147.298E+06     9.01425E+06    -147.189E+06     12.3104E+06    -1.72507E+06         21.8681
            1465     1.97127E-03     73.8465E-03         4.47172         1.35091        -5.58450         1.33910        -2.45188         1.35091        -2.60866     29.8667E-03    -14.8994E-03    -14.9678E-03    -14.9253E-03     29.8410E-03    -14.9162E-03     2.09682E-03     18.4119E+06     11.4117E+06    -144.645E+06     11.3882E+06    -144.621E+06     18.4119E+06     1.44524E+06         21.8836
            1466     2.95637E-03     73.8490E-03         2.70860         1.34366        -3.81091         1.32082        -2.42313         1.34366         1.37574     30.0173E-03    -14.9509E-03    -15.0664E-03    -15.0201E-03     29.9710E-03    -14.9509E-03     2.85300E-03     18.5396E+06     14.6548E+06    -141.811E+06     14.6161E+06    -141.772E+06     18.5396E+06    -395.327E+03         21.9235
            1467     3.94200E-03     73.8528E-03         1.89526         1.33314        -2.99112         1.28460        -2.38046         1.33314    -711.417E-03     30.0375E-03    -14.9651E-03    -15.0722E-03    -15.0051E-03     29.9704E-03    -14.9651E-03     3.45603E-03     16.7604E+06     14.7183E+06    -143.310E+06     15.4422E+06    -143.153E+06     15.8795E+06    -4.11641E+06         21.9882
            1468     4.92674E-03     73.8562E-03         1.48909         1.31554        -2.56646         1.22071        -2.29926         1.31673     505.498E-03     29.9298E-03    -14.9231E-03    -15.0064E-03    -14.9095E-03     29.8329E-03    -14.9231E-03     4.12499E-03     15.8168E+06     9.14522E+06    -137.043E+06     15.4888E+06    -136.715E+06     9.14522E+06    -6.79991E+06         22.0643
            1469     5.91249E-03     73.8613E-03         1.30573         1.24455        -2.31428         1.14027        -2.19776         1.29349    -208.325E-03     29.7078E-03    -14.8007E-03    -14.9073E-03    -14.7018E-03     29.5626E-03    -14.8610E-03     5.03407E-03     16.2365E+06     3.88260E+06    -130.060E+06     15.8458E+06    -129.669E+06     3.88260E+06    -7.33383E+06         22.1516
            1470     6.89821E-03     73.8665E-03         1.26628         1.13534        -2.16867         1.07846        -2.11179         1.26628     206.949E-03     29.5600E-03    -14.7497E-03    -14.8114E-03    -14.5513E-03     29.3614E-03    -14.8112E-03     5.87727E-03     16.8355E+06     3.18676E+06    -127.773E+06     16.3232E+06    -127.261E+06     3.18676E+06    -8.07009E+06         22.3395
            1471     7.88422E-03     73.8734E-03         1.23777         1.04264        -2.04741         1.01437        -2.01914         1.23777    -48.3254E-03     29.5678E-03    -14.7350E-03    -14.8340E-03    -14.5895E-03     29.3245E-03    -14.7362E-03     6.52145E-03     17.3405E+06    -2.26684E+06    -121.989E+06     16.7409E+06    -121.390E+06    -2.26684E+06    -8.69827E+06         22.8072
            1472     8.86991E-03     73.8798E-03         1.20644     931.778E-03        -1.91298     916.115E-03        -1.89731         1.20644     135.932E-03     29.4338E-03    -14.6403E-03    -14.7943E-03    -14.4865E-03     29.1264E-03    -14.6406E-03     7.32186E-03     16.9123E+06    -11.7966E+06    -109.599E+06     16.3660E+06    -109.053E+06    -11.7966E+06    -8.13145E+06         23.6702
            1473     9.85648E-03     73.8880E-03         1.17059     810.526E-03        -1.76534     804.070E-03        -1.75888         1.17059    -5.81235E-03     29.2169E-03    -14.5542E-03    -14.6653E-03    -14.2625E-03     28.8145E-03    -14.5546E-03     8.34795E-03     14.5509E+06    -19.3925E+06    -97.3702E+06     13.9152E+06    -96.7344E+06    -19.3925E+06    -7.80075E+06         24.9315
            1474     10.8421E-03     73.8969E-03         1.13107     702.637E-03        -1.62001     699.136E-03        -1.61651         1.13107     95.1324E-03     29.2003E-03    -14.4623E-03    -14.7423E-03    -14.2364E-03     28.6944E-03    -14.4623E-03     9.36157E-03     10.4407E+06    -30.4243E+06    -88.7822E+06     9.73383E+06    -88.0754E+06    -30.4243E+06    -7.48382E+06         26.8127
            1475     11.8291E-03     73.9072E-03         1.08917     596.754E-03        -1.47203     595.541E-03        -1.47082         1.08917     28.6766E-03     29.2591E-03    -14.3739E-03    -14.8906E-03    -14.2656E-03     28.6341E-03    -14.3739E-03     10.4164E-03     7.04326E+06    -41.8763E+06    -71.7987E+06     6.24665E+06    -71.0021E+06    -41.8763E+06    -6.99415E+06         29.7626
            1476     12.8141E-03     73.9187E-03         1.04527     488.725E-03        -1.31621     487.708E-03        -1.31519         1.04527     56.5573E-03     29.2150E-03    -14.2635E-03    -14.9542E-03    -14.1023E-03     28.3630E-03    -14.2635E-03     12.0916E-03     5.15982E+06    -42.3050E+06    -64.4710E+06     3.92136E+06    -47.5712E+06    -57.9663E+06    -5.67004E+06         33.9311
            1477     13.8021E-03     73.9325E-03     998.797E-03     367.879E-03        -1.15122     367.093E-03        -1.15043     998.797E-03     39.4705E-03     30.3140E-03    -14.1276E-03    -16.1847E-03    -14.1220E-03     28.2514E-03    -14.1276E-03     18.5312E-03     3.41994E+06    -27.2926E+06    -80.9383E+06     301.540E+03    -24.1742E+06    -80.9383E+06    -2.82322E+06         39.1048
            1478     14.7868E-03     73.9574E-03     946.427E-03     237.067E-03    -975.951E-03     236.330E-03    -975.214E-03     946.427E-03     38.2168E-03     46.2084E-03    -14.0381E-03    -32.1662E-03    -14.0108E-03     28.0530E-03    -14.0381E-03     61.7144E-03     48.2123E+06    -13.5451E+06    -78.9832E+06    -6.67058E+06     41.3378E+06    -78.9832E+06    -216.027E+03         45.0232
            1479     15.7810E-03     74.0581E-03     875.495E-03     108.761E-03    -781.532E-03     108.317E-03    -781.089E-03     875.495E-03     14.1401E-03     133.133E-03    -14.0562E-03    -119.079E-03    -24.5885E-03     38.6426E-03    -14.0562E-03     243.431E-03     131.308E+06     2.53562E+06    -35.7759E+06    -8.12708E+06     131.113E+06    -24.9181E+06     1.97180E+06         51.0778
            1480     16.7734E-03     74.4724E-03     777.977E-03    -17.3358E-03    -560.605E-03    -18.0540E-03    -559.887E-03     777.977E-03     4.26966E-03     216.191E-03    -14.3504E-03    -201.849E-03    -39.5786E-03     53.9199E-03    -14.3504E-03     407.413E-03     198.045E+06     72.8149E+06    -4.71198E+06    -4.60833E+06     197.941E+06     72.8149E+06     1.21824E+06         56.0815
            1481     986.231E-06     74.8743E-03         8.49718         3.65336        -11.9141        -1.30790        -2.10902         3.65336         8.19870     29.6600E-03    -14.6994E-03    -14.9610E-03    -14.8485E-03     29.6463E-03    -14.7983E-03     1.43899E-03     8.14629E+06     2.73208E+06    -149.002E+06     3.06896E+06    -148.945E+06     7.75282E+06    -148.948E+03         21.8644
            1482     1.97067E-03     74.8757E-03         4.48699         1.16358        -5.41193         1.12844        -2.05337         1.16358        -2.63330     30.0212E-03    -14.9019E-03    -15.1206E-03    -15.0736E-03     29.9909E-03    -14.9187E-03     2.28000E-03     12.7570E+06     6.91842E+06    -144.330E+06     7.21047E+06    -144.315E+06     12.4493E+06     66.8409E+03         21.8824
            1483     2.95624E-03     74.8792E-03         2.65381         1.14469        -3.55102         1.08751        -1.98472         1.14469         1.35941     29.9285E-03    -14.9265E-03    -15.0026E-03    -14.9255E-03     29.8805E-03    -14.9556E-03     2.91875E-03     11.7425E+06     9.76100E+06    -137.431E+06     10.0231E+06    -137.385E+06     11.4348E+06    -1.13954E+06         21.9220
            1484     3.94141E-03     74.8819E-03         1.79604         1.12831        -2.67365         1.07900        -1.95661         1.12831    -750.624E-03     29.8591E-03    -14.8862E-03    -14.9724E-03    -14.8408E-03     29.7868E-03    -14.9455E-03     3.55920E-03     11.9007E+06     10.1296E+06    -138.251E+06     10.5794E+06    -138.094E+06     11.2933E+06    -4.50645E+06         21.9852
            1485     4.92752E-03     74.8862E-03         1.36007         1.11448        -2.22951         1.04581        -1.91525         1.11448     493.009E-03     29.7737E-03    -14.8445E-03    -14.9287E-03    -14.7767E-03     29.6627E-03    -14.8856E-03     4.42321E-03     10.4714E+06     5.60209E+06    -133.121E+06     10.0530E+06    -132.702E+06     5.60209E+06    -7.49577E+06         22.0595
            1486     5.91287E-03     74.8902E-03         1.14272         1.07571        -1.97717     982.607E-03        -1.83848         1.09714    -229.846E-03     29.6463E-03    -14.7878E-03    -14.8588E-03    -14.6730E-03     29.4852E-03    -14.8124E-03     5.31881E-03     11.2218E+06    -861.709E+03    -127.692E+06     10.4412E+06    -126.911E+06    -861.709E+03    -9.84585E+06         22.1449
            1487     6.89874E-03     74.8959E-03         1.07501     982.021E-03        -1.81740     913.858E-03        -1.74924         1.07501     192.138E-03     29.5145E-03    -14.7385E-03    -14.7766E-03    -14.5289E-03     29.2817E-03    -14.7535E-03     6.37533E-03     12.9122E+06    -3.60062E+06    -125.583E+06     11.9203E+06    -124.591E+06    -3.60062E+06    -11.2063E+06         22.3274
            1488     7.88454E-03     74.9021E-03         1.04906     873.806E-03        -1.68240     837.494E-03        -1.64609         1.04906    -50.6381E-03     29.4186E-03    -14.6746E-03    -14.7449E-03    -14.4564E-03     29.1313E-03    -14.6758E-03     7.09892E-03     12.9747E+06    -9.31317E+06    -121.463E+06     11.9797E+06    -120.468E+06    -9.31317E+06    -11.3976E+06         22.7849
            1489     8.87061E-03     74.9091E-03         1.01959     771.070E-03        -1.55572     751.217E-03        -1.53586         1.01959     140.345E-03     29.4069E-03    -14.5823E-03    -14.8252E-03    -14.4780E-03     29.0597E-03    -14.5823E-03     7.78071E-03     11.8053E+06    -18.2755E+06    -109.917E+06     10.9018E+06    -109.013E+06    -18.2755E+06    -10.3224E+06         23.6354
            1490     9.85599E-03     74.9166E-03     987.239E-03     675.855E-03        -1.43481     667.864E-03        -1.42682     987.239E-03    -11.5929E-03     29.4095E-03    -14.5285E-03    -14.8843E-03    -14.4548E-03     28.9800E-03    -14.5285E-03     8.66701E-03     11.2999E+06    -21.5211E+06    -96.8071E+06     10.4547E+06    -95.9620E+06    -21.5211E+06    -9.02018E+06         24.8828
            1491     10.8429E-03     74.9256E-03     953.027E-03     592.439E-03        -1.31749     588.157E-03        -1.31321     953.027E-03     79.9083E-03     29.3742E-03    -14.4645E-03    -14.9149E-03    -14.3756E-03     28.8348E-03    -14.4645E-03     9.68793E-03     10.3967E+06    -29.6753E+06    -88.6510E+06     9.58088E+06    -87.8352E+06    -29.6753E+06    -8.23508E+06         26.7492
            1492     11.8279E-03     74.9362E-03     916.875E-03     493.213E-03        -1.18033     491.314E-03        -1.17843     916.875E-03     22.3112E-03     29.2998E-03    -14.3729E-03    -14.9316E-03    -14.2577E-03     28.6259E-03    -14.3729E-03     10.8213E-03     8.21534E+06    -42.2698E+06    -71.1545E+06     7.22577E+06    -70.1649E+06    -42.2698E+06    -7.95145E+06         29.6843
            1493     12.8153E-03     74.9474E-03     878.412E-03     393.343E-03        -1.04341     391.768E-03        -1.04184     878.412E-03     56.4558E-03     29.2225E-03    -14.2499E-03    -14.9749E-03    -14.0719E-03     28.3194E-03    -14.2499E-03     12.4442E-03     4.65298E+06    -43.7492E+06    -67.4942E+06     3.24705E+06    -48.5077E+06    -61.3298E+06    -7.46354E+06         33.8526
            1494     13.8003E-03     74.9611E-03     837.537E-03     293.536E-03    -908.852E-03     291.321E-03    -906.637E-03     837.537E-03     54.3566E-03     30.3963E-03    -14.1109E-03    -16.2857E-03    -14.1512E-03     28.2619E-03    -14.1109E-03     18.9131E-03     1.11315E+06    -31.0792E+06    -86.0280E+06    -1.18084E+06    -28.7852E+06    -86.0280E+06    -4.20128E+06         39.0529
            1495     14.7894E-03     74.9856E-03     791.032E-03     175.524E-03    -744.932E-03     173.492E-03    -742.901E-03     791.032E-03     64.1329E-03     44.6316E-03    -14.0304E-03    -30.5990E-03    -13.8588E-03     27.8913E-03    -14.0304E-03     58.4972E-03     48.6007E+06    -13.9401E+06    -80.6903E+06    -4.65201E+06     39.3127E+06    -80.6903E+06     275.625E+03         45.0105
            1496     15.7727E-03     75.0830E-03     725.047E-03     56.2056E-03    -561.515E-03     55.9699E-03    -561.279E-03     725.047E-03     8.34358E-03     132.000E-03    -14.1714E-03    -117.830E-03    -28.3049E-03     42.4743E-03    -14.1714E-03     238.998E-03     131.512E+06     1.54244E+06    -38.1566E+06    -8.50304E+06     131.240E+06    -27.8395E+06    -62.1626E+03         51.0904
            1497     16.7585E-03     75.4916E-03     630.834E-03    -47.6191E-03    -369.567E-03    -52.1434E-03    -365.043E-03     630.834E-03     11.4951E-03     216.983E-03    -14.5865E-03    -202.403E-03    -39.7988E-03     54.3783E-03    -14.5865E-03     408.337E-03     197.679E+06     67.7138E+06    -6.29629E+06    -6.23904E+06     197.622E+06     67.7138E+06    -191.238E+03         56.1167
            1498     985.690E-06     75.9039E-03         8.59111         3.32111        -11.6680        -1.45518        -1.62172         3.32111         8.09645     29.6310E-03    -14.6089E-03    -15.0225E-03    -14.9410E-03     29.6138E-03    -14.6732E-03     1.73546E-03     6.68983E+06    -831.973E+03    -149.939E+06    -542.461E+03    -149.884E+06     6.34624E+06     1.69426E+06         21.8517
            1499     1.97093E-03     75.9060E-03         4.50222     929.335E-03        -5.18532     915.630E-03        -1.59873     929.335E-03        -2.65493     29.9590E-03    -14.8848E-03    -15.0750E-03    -15.0260E-03     29.9282E-03    -14.9030E-03     2.29564E-03     12.3927E+06     4.74869E+06    -141.759E+06     5.00437E+06    -141.707E+06     12.0850E+06    -1.60419E+06         21.8740
            1500     2.95615E-03     75.9082E-03         2.61764     919.646E-03        -3.29030     885.823E-03        -1.55848     919.646E-03         1.32546     29.7357E-03    -14.8266E-03    -14.9096E-03    -14.7799E-03     29.6797E-03    -14.9004E-03     3.12861E-03     11.3561E+06     7.04892E+06    -134.358E+06     9.66915E+06    -134.245E+06     8.62278E+06    -3.44219E+06         21.9143
            1501     3.94213E-03     75.9118E-03         1.70058     908.005E-03        -2.35927     865.736E-03        -1.52442     908.005E-03    -777.890E-03     29.6210E-03    -14.7607E-03    -14.8608E-03    -14.6784E-03     29.5352E-03    -14.8573E-03     3.87687E-03     11.9956E+06     8.29312E+06    -134.503E+06     11.5062E+06    -134.328E+06     8.60664E+06    -4.71078E+06         21.9753
            1502     4.92739E-03     75.9151E-03         1.22400     897.494E-03        -1.87100     853.454E-03        -1.50045     897.494E-03     498.889E-03     29.5710E-03    -14.7586E-03    -14.8128E-03    -14.6518E-03     29.4511E-03    -14.7997E-03     4.58505E-03     12.5994E+06     7.52143E+06    -126.770E+06     12.0186E+06    -126.190E+06     7.52143E+06    -8.21462E+06         22.0490
            1503     5.91344E-03     75.9198E-03     983.335E-03     884.932E-03        -1.61928     813.626E-03        -1.45075     886.109E-03    -202.037E-03     29.5074E-03    -14.7127E-03    -14.7953E-03    -14.6198E-03     29.3428E-03    -14.7236E-03     5.36681E-03     12.3356E+06    -236.030E+03    -123.497E+06     11.2137E+06    -122.375E+06    -236.030E+03    -12.0771E+06         22.1348
            1504     6.89905E-03     75.9246E-03     881.624E-03     808.582E-03        -1.44189     732.595E-03        -1.35349     869.206E-03     206.722E-03     29.4503E-03    -14.6629E-03    -14.7881E-03    -14.5585E-03     29.2207E-03    -14.6629E-03     6.33399E-03     10.3914E+06    -6.98627E+06    -123.416E+06     9.08894E+06    -122.114E+06    -6.98627E+06    -12.9902E+06         22.3136
            1505     7.88519E-03     75.9312E-03     846.360E-03     704.083E-03        -1.30049     657.325E-03        -1.25374     846.360E-03    -51.0736E-03     29.3693E-03    -14.6139E-03    -14.7564E-03    -14.4789E-03     29.0918E-03    -14.6139E-03     6.97358E-03     9.47692E+06    -10.5422E+06    -120.181E+06     8.09664E+06    -118.801E+06    -10.5422E+06    -13.2119E+06         22.7617
            1506     8.87114E-03     75.9377E-03     820.602E-03     619.858E-03        -1.19210     594.933E-03        -1.16718     820.602E-03     153.653E-03     29.3408E-03    -14.5328E-03    -14.8085E-03    -14.4727E-03     29.0049E-03    -14.5328E-03     7.63905E-03     9.50845E+06    -18.9961E+06    -109.743E+06     7.99094E+06    -108.226E+06    -18.9961E+06    -13.1764E+06         23.5996
            1507     9.85743E-03     75.9461E-03     793.260E-03     539.376E-03        -1.08825     528.131E-03        -1.07701     793.260E-03     20.2211E-03     29.4533E-03    -14.4759E-03    -14.9804E-03    -14.5442E-03     29.0171E-03    -14.4759E-03     8.73485E-03     8.83053E+06    -25.0229E+06    -97.0877E+06     7.31981E+06    -95.5770E+06    -25.0229E+06    -12.4011E+06         24.8334
            1508     10.8421E-03     75.9545E-03     764.301E-03     463.728E-03    -984.769E-03     456.402E-03    -977.444E-03     764.301E-03     118.893E-03     29.4635E-03    -14.4302E-03    -15.0390E-03    -14.4911E-03     28.9157E-03    -14.4302E-03     9.79297E-03     9.06140E+06    -32.0219E+06    -89.2478E+06     7.58316E+06    -87.7695E+06    -32.0219E+06    -11.3306E+06         26.6853
            1509     11.8294E-03     75.9649E-03     733.642E-03     382.521E-03    -874.005E-03     378.865E-03    -870.349E-03     733.642E-03     60.3836E-03     29.2705E-03    -14.3470E-03    -14.9284E-03    -14.2445E-03     28.5866E-03    -14.3470E-03     10.8875E-03     8.77918E+06    -43.6072E+06    -71.5816E+06     7.35163E+06    -70.1541E+06    -43.6072E+06    -9.70209E+06         29.6054
            1510     12.8145E-03     75.9762E-03     701.095E-03     297.113E-03    -756.913E-03     293.583E-03    -753.383E-03     701.095E-03     69.3786E-03     29.2154E-03    -14.2339E-03    -14.9839E-03    -14.1024E-03     28.3339E-03    -14.2339E-03     12.3137E-03     5.49012E+06    -45.0439E+06    -66.8254E+06     4.08700E+06    -49.3137E+06    -61.1525E+06    -7.93999E+06         33.7718
            1511     13.8027E-03     75.9894E-03     665.892E-03     201.708E-03    -631.152E-03     198.223E-03    -627.667E-03     665.892E-03     55.5083E-03     30.7763E-03    -14.1048E-03    -16.6719E-03    -14.3474E-03     28.4519E-03    -14.1048E-03     19.6140E-03     752.000E+03    -33.6325E+06    -86.3753E+06    -965.959E+03    -31.9146E+06    -86.3753E+06    -5.57155E+06         38.9957
            1512     14.7850E-03     76.0164E-03     625.300E-03     111.601E-03    -504.552E-03     108.217E-03    -501.168E-03     625.300E-03     64.6645E-03     44.0657E-03    -14.0233E-03    -30.0397E-03    -14.2526E-03     28.2786E-03    -14.0233E-03     57.1462E-03     45.8562E+06    -16.1086E+06    -86.0029E+06    -4.98199E+06     34.7297E+06    -86.0029E+06    -2.76078E+06         44.9901
            1513     15.7797E-03     76.1057E-03     564.955E-03     17.6776E-03    -350.347E-03     16.9690E-03    -349.638E-03     564.955E-03     13.0493E-03     137.046E-03    -14.2297E-03    -122.817E-03    -31.4537E-03     45.6822E-03    -14.2297E-03     247.497E-03     133.844E+06     4.85425E+06    -39.7579E+06    -5.87410E+06     133.220E+06    -28.4058E+06    -32.5315E+03         51.1082
            1514     16.7519E-03     76.5445E-03     476.107E-03    -39.6502E-03    -205.306E-03    -82.6878E-03    -162.269E-03     476.107E-03     35.0076E-03     217.071E-03    -14.6606E-03    -202.414E-03    -38.9144E-03     53.5711E-03    -14.6606E-03     408.662E-03     200.157E+06     69.2878E+06    -5.56698E+06    -5.44158E+06     200.032E+06     69.2878E+06     1.12461E+06         56.1727
            1515     985.403E-06     76.9332E-03         8.63053         2.94912        -11.3324        -1.59075        -1.11115         2.94912         8.09193     29.6461E-03    -14.6448E-03    -15.0011E-03    -14.8117E-03     29.6264E-03    -14.8145E-03     1.73275E-03     6.81606E+06     115.385E+03    -148.458E+06     573.158E+03    -148.437E+06     6.33668E+06     1.19063E+06         21.8359
            1516     1.97102E-03     76.9357E-03         4.45715     678.483E-03        -4.88512     678.155E-03        -1.10612     678.483E-03        -2.58634     29.5519E-03    -14.7161E-03    -14.8352E-03    -14.6827E-03     29.5185E-03    -14.8352E-03     2.42218E-03     12.5494E+06     5.52296E+06    -137.430E+06     5.43449E+06    -137.342E+06     12.5494E+06    -1.84504E+06         21.8582
            1517     2.95680E-03     76.9377E-03         2.57473     679.630E-03        -2.99724     690.398E-03        -1.11290     679.630E-03         1.31692     29.4046E-03    -14.6457E-03    -14.7591E-03    -14.5900E-03     29.3489E-03    -14.7591E-03     3.08082E-03     10.7782E+06     5.43237E+06    -130.909E+06     7.60721E+06    -130.658E+06     8.35266E+06    -5.78548E+06         21.8991
            1518     3.94242E-03     76.9405E-03         1.62419     680.197E-03        -2.04983     675.888E-03        -1.10153     680.197E-03    -738.974E-03     29.3019E-03    -14.6147E-03    -14.6883E-03    -14.5189E-03     29.2028E-03    -14.6849E-03     4.13382E-03     11.8488E+06     3.14084E+06    -130.994E+06     10.2388E+06    -130.397E+06     4.15374E+06    -8.16584E+06         21.9584
            1519     4.92853E-03     76.9446E-03         1.09331     675.013E-03        -1.51213     636.931E-03        -1.05575     675.013E-03     509.067E-03     29.3806E-03    -14.6235E-03    -14.7577E-03    -14.6092E-03     29.2389E-03    -14.6303E-03     4.97848E-03     13.6593E+06     3.41521E+06    -120.878E+06     12.7480E+06    -119.967E+06     3.41521E+06    -10.2095E+06         22.0334
            1520     5.91404E-03     76.9485E-03     810.381E-03     664.297E-03        -1.21820     593.160E-03        -1.00098     664.297E-03    -200.237E-03     29.4931E-03    -14.6249E-03    -14.8686E-03    -14.6996E-03     29.3241E-03    -14.6249E-03     5.45911E-03     12.7355E+06     3.45132E+06    -119.488E+06     11.6893E+06    -118.442E+06     3.45132E+06    -11.6034E+06         22.1245
            1521     6.89994E-03     76.9540E-03     686.530E-03     622.345E-03        -1.04847     546.892E-03    -936.356E-03     649.868E-03     208.543E-03     29.4606E-03    -14.5998E-03    -14.8619E-03    -14.6385E-03     29.2372E-03    -14.5998E-03     6.23875E-03     11.5384E+06    -1.97312E+06    -119.991E+06     10.0832E+06    -118.536E+06    -1.97312E+06    -13.6127E+06         22.3029
            1522     7.88535E-03     76.9598E-03     632.364E-03     551.447E-03    -923.186E-03     491.078E-03    -862.817E-03     632.364E-03    -36.6324E-03     29.4568E-03    -14.5584E-03    -14.8996E-03    -14.6152E-03     29.1724E-03    -14.5584E-03     7.07384E-03     11.6940E+06    -8.53264E+06    -117.045E+06     9.77619E+06    -115.127E+06    -8.53264E+06    -15.5356E+06         22.7402
            1523     8.87109E-03     76.9669E-03     612.560E-03     474.732E-03    -825.546E-03     441.190E-03    -792.005E-03     612.560E-03     159.733E-03     29.4171E-03    -14.4960E-03    -14.9217E-03    -14.5839E-03     29.0792E-03    -14.4960E-03     7.68546E-03     11.8321E+06    -17.8779E+06    -108.837E+06     9.60185E+06    -106.607E+06    -17.8779E+06    -16.1411E+06         23.5642
            1524     9.85671E-03     76.9745E-03     591.149E-03     400.956E-03    -729.295E-03     385.678E-03    -714.017E-03     591.149E-03     29.2571E-03     29.3782E-03    -14.4351E-03    -14.9450E-03    -14.5066E-03     28.9398E-03    -14.4351E-03     8.74167E-03     11.6633E+06    -25.9479E+06    -96.9582E+06     9.27412E+06    -94.5691E+06    -25.9479E+06    -15.7713E+06         24.7846
            1525     10.8438E-03     76.9842E-03     567.601E-03     324.904E-03    -634.545E-03     314.812E-03    -624.453E-03     567.601E-03     122.398E-03     29.4163E-03    -14.3910E-03    -15.0304E-03    -14.4982E-03     28.8841E-03    -14.3910E-03     9.66391E-03     10.3580E+06    -33.5206E+06    -90.2909E+06     8.01581E+06    -87.9487E+06    -33.5206E+06    -14.9847E+06         26.6220
            1526     11.8282E-03     76.9933E-03     542.043E-03     256.181E-03    -538.566E-03     250.895E-03    -533.280E-03     542.043E-03     64.2082E-03     29.3291E-03    -14.3172E-03    -15.0171E-03    -14.3572E-03     28.6692E-03    -14.3172E-03     10.7084E-03     8.79676E+06    -45.4920E+06    -74.2098E+06     6.73609E+06    -72.1491E+06    -45.4920E+06    -12.4795E+06         29.5266
            1527     12.8159E-03     77.0052E-03     514.812E-03     183.972E-03    -437.122E-03     179.024E-03    -432.174E-03     514.812E-03     75.8873E-03     29.4977E-03    -14.2363E-03    -15.2627E-03    -14.3908E-03     28.6258E-03    -14.2363E-03     12.3396E-03     6.77085E+06    -45.4123E+06    -65.5774E+06     5.07969E+06    -50.0612E+06    -59.2374E+06    -9.04593E+06         33.6847
            1528     13.8002E-03     77.0182E-03     485.315E-03     109.556E-03    -343.003E-03     103.525E-03    -336.972E-03     485.315E-03     55.6796E-03     30.3940E-03    -14.1096E-03    -16.2835E-03    -14.0445E-03     28.1550E-03    -14.1096E-03     19.0405E-03     1.86779E+06    -36.3893E+06    -84.8390E+06     394.658E+03    -34.9162E+06    -84.8390E+06    -6.17926E+06         38.9269
            1529     14.7908E-03     77.0454E-03     451.284E-03     55.6526E-03    -261.550E-03     45.9916E-03    -251.889E-03     451.284E-03     73.3998E-03     44.2152E-03    -14.0533E-03    -30.1578E-03    -15.3568E-03     29.4141E-03    -14.0533E-03     56.5395E-03     49.0446E+06    -20.2633E+06    -84.4906E+06    -5.17224E+06     33.9535E+06    -84.4906E+06    -4.04954E+06         44.9607
            1530     15.7709E-03     77.1329E-03     397.587E-03     21.7489E-03    -173.074E-03    -18.3274E-03    -132.998E-03     397.587E-03     34.8753E-03     137.611E-03    -14.2069E-03    -123.403E-03    -29.7794E-03     43.9879E-03    -14.2069E-03     248.815E-03     130.042E+06    -4.34220E+06    -39.3371E+06    -9.18167E+06     129.490E+06    -33.9450E+06    -1.87377E+06         51.1331
            1531     16.7691E-03     77.5833E-03     329.240E-03     59.9221E-03    -138.666E-03    -101.685E-03     37.0873E-03     315.094E-03     44.2938E-03     213.610E-03    -14.5016E-03    -199.110E-03    -36.1447E-03     50.6447E-03    -14.5016E-03     403.293E-03     197.174E+06     62.6492E+06    -4.74854E+06    -4.53124E+06     196.957E+06     62.6492E+06     1.75691E+06         56.2434
            1532     985.575E-06     77.9624E-03         8.60199         2.62507        -10.9651        -1.70582    -657.246E-03         2.62507         8.05028     29.2980E-03    -14.5014E-03    -14.7961E-03    -14.4923E-03     29.2798E-03    -14.7870E-03     1.64771E-03     4.73707E+06     377.298E+03    -146.969E+06     1.75271E+06    -146.932E+06     3.32524E+06    -693.306E+03         21.8144
            1533     1.97145E-03     77.9646E-03         4.40848     455.946E-03        -4.59642     444.699E-03    -632.643E-03     455.946E-03        -2.46627     29.1445E-03    -14.4957E-03    -14.6481E-03    -14.4694E-03     29.1091E-03    -14.6390E-03     2.46029E-03     9.97243E+06     5.61417E+06    -133.378E+06     5.52348E+06    -133.287E+06     9.97243E+06    -2.69509E+06         21.8359
            1534     2.95731E-03     77.9666E-03         2.53704     453.133E-03        -2.72207     455.922E-03    -640.958E-03     453.133E-03         1.34282     29.0463E-03    -14.4570E-03    -14.5892E-03    -14.4244E-03     28.9926E-03    -14.5681E-03     3.02868E-03     10.3101E+06     5.89653E+06    -124.147E+06     7.51396E+06    -123.774E+06     8.31974E+06    -6.40004E+06         21.8783
            1535     3.94337E-03     77.9694E-03         1.55634     452.101E-03        -1.74195     445.268E-03    -630.879E-03     452.101E-03    -686.646E-03     29.0531E-03    -14.4706E-03    -14.5831E-03    -14.4570E-03     28.9600E-03    -14.5036E-03     3.97194E-03     10.3939E+06     720.429E+03    -124.821E+06     8.28055E+06    -123.721E+06     1.73333E+06    -11.7277E+06         21.9389
            1536     4.92932E-03     77.9730E-03     990.380E-03     444.838E-03        -1.16785     389.688E-03    -567.155E-03     444.838E-03     505.568E-03     29.1711E-03    -14.4576E-03    -14.7136E-03    -14.5649E-03     29.0292E-03    -14.4644E-03     4.96474E-03     9.56094E+06    -2.78826E+06    -118.503E+06     8.16372E+06    -117.106E+06    -2.78826E+06    -13.0668E+06         22.0158
            1537     5.91485E-03     77.9784E-03     677.143E-03     432.659E-03    -839.059E-03     365.358E-03    -527.274E-03     432.659E-03    -202.659E-03     29.3894E-03    -14.4970E-03    -14.8920E-03    -14.7278E-03     29.2252E-03    -14.4970E-03     5.38195E-03     9.96532E+06     558.419E+03    -116.135E+06     8.57072E+06    -114.740E+06     558.419E+03    -12.9100E+06         22.1120
            1538     6.90009E-03     77.9824E-03     515.339E-03     420.387E-03    -663.146E-03     356.103E-03    -504.759E-03     421.236E-03     222.086E-03     29.4055E-03    -14.4989E-03    -14.9066E-03    -14.6864E-03     29.1853E-03    -14.4989E-03     6.18049E-03     12.3332E+06    -2.61199E+06    -114.664E+06     10.2751E+06    -112.606E+06    -2.61199E+06    -15.7620E+06         22.2914
            1539     7.88629E-03     77.9893E-03     421.947E-03     388.159E-03    -536.693E-03     315.415E-03    -451.366E-03     409.364E-03    -26.8908E-03     29.4010E-03    -14.4644E-03    -14.9362E-03    -14.6330E-03     29.0978E-03    -14.4644E-03     7.30075E-03     13.3050E+06    -11.3735E+06    -114.313E+06     10.7973E+06    -111.805E+06    -11.3735E+06    -17.6164E+06         22.7195
            1540     8.87181E-03     77.9957E-03     400.268E-03     323.910E-03    -450.468E-03     271.289E-03    -392.672E-03     395.093E-03     118.402E-03     29.4624E-03    -14.4196E-03    -15.0429E-03    -14.6740E-03     29.0935E-03    -14.4196E-03     8.05930E-03     12.7475E+06    -20.4152E+06    -107.137E+06     9.64693E+06    -104.036E+06    -20.4152E+06    -18.6741E+06         23.5307
            1541     9.85776E-03     78.0037E-03     379.033E-03     264.399E-03    -371.975E-03     229.190E-03    -336.766E-03     379.033E-03     2.62985E-03     29.4608E-03    -14.3749E-03    -15.0883E-03    -14.6179E-03     28.9905E-03    -14.3749E-03     9.08009E-03     12.7824E+06    -28.4723E+06    -96.0142E+06     9.12761E+06    -92.3594E+06    -28.4723E+06    -19.4607E+06         24.7389
            1542     10.8427E-03     78.0125E-03     361.018E-03     194.493E-03    -286.111E-03     170.673E-03    -262.291E-03     361.018E-03     91.7324E-03     29.4052E-03    -14.3511E-03    -15.0588E-03    -14.5039E-03     28.8503E-03    -14.3511E-03     9.86557E-03     12.1910E+06    -34.3082E+06    -91.5764E+06     8.99970E+06    -88.3851E+06    -34.3082E+06    -17.8008E+06         26.5621
            1543     11.8301E-03     78.0228E-03     341.054E-03     138.031E-03    -207.059E-03     118.529E-03    -187.557E-03     341.054E-03     29.9724E-03     29.5270E-03    -14.2940E-03    -15.2377E-03    -14.5699E-03     28.8592E-03    -14.2940E-03     10.8296E-03     9.37619E+06    -45.8517E+06    -76.5890E+06     6.79724E+06    -74.0101E+06    -45.8517E+06    -14.4845E+06         29.4493
            1544     12.8146E-03     78.0333E-03     320.068E-03     95.0480E-03    -142.952E-03     75.4136E-03    -123.317E-03     320.068E-03     60.4996E-03     29.7322E-03    -14.2230E-03    -15.5103E-03    -14.5822E-03     28.8041E-03    -14.2230E-03     12.7718E-03     5.88087E+06    -49.0453E+06    -68.0247E+06     3.41883E+06    -52.8618E+06    -61.7462E+06    -11.2896E+06         33.5930
            1545     13.8016E-03     78.0491E-03     298.265E-03     74.7185E-03    -107.499E-03     34.6321E-03    -67.4123E-03     298.265E-03     52.7807E-03     30.3689E-03    -14.1221E-03    -16.2454E-03    -14.3203E-03     28.4438E-03    -14.1221E-03     18.1068E-03     2.76680E+06    -39.2044E+06    -85.0486E+06     743.516E+03    -37.1811E+06    -85.0486E+06    -8.01161E+06         38.8451
            1546     14.7866E-03     78.0690E-03     276.414E-03     87.0119E-03    -103.650E-03    -18.2441E-03     6.00375E-03     272.016E-03     91.6550E-03     45.9984E-03    -14.0549E-03    -31.9383E-03    -15.4071E-03     29.4672E-03    -14.0549E-03     59.5018E-03     47.1920E+06    -20.3833E+06    -87.6897E+06    -3.64957E+06     30.4583E+06    -87.6897E+06    -3.36806E+06         44.9244
            1547     15.7716E-03     78.1758E-03     275.269E-03     84.6568E-03    -100.679E-03    -78.5376E-03     112.757E-03     225.027E-03     36.9349E-03     136.825E-03    -14.1511E-03    -122.670E-03    -27.3635E-03     41.5190E-03    -14.1511E-03     248.825E-03     129.292E+06    -1.04650E+06    -42.5267E+06    -8.04292E+06     128.971E+06    -35.2095E+06    -467.626E+03         51.1571
            1548     16.7599E-03     78.5823E-03     308.605E-03     94.0697E-03    -138.479E-03    -135.642E-03     251.573E-03     148.266E-03     34.1571E-03     214.052E-03    -14.4106E-03    -199.642E-03    -36.2590E-03     50.6690E-03    -14.4106E-03     404.419E-03     196.920E+06     62.5625E+06    -7.67683E+06    -7.37943E+06     196.623E+06     62.5625E+06    -1.38245E+06         56.3045
            1549     986.201E-06     78.9921E-03         8.54101         2.24898        -10.5048        -1.77801    -185.784E-03         2.24898         7.77268     28.8653E-03    -14.2360E-03    -14.6289E-03    -14.4894E-03     28.8524E-03    -14.3626E-03     1.47025E-03     7.76247E+06     769.514E+03    -144.565E+06     1.60976E+06    -144.472E+06     6.83001E+06    -2.85075E+06         21.7857
            1550     1.97180E-03     78.9927E-03         4.38374     238.052E-03        -4.33746     249.060E-03    -202.784E-03     238.052E-03        -2.43152     28.8536E-03    -14.3963E-03    -14.4566E-03    -14.3860E-03     28.8254E-03    -14.4387E-03     2.12766E-03     13.3335E+06     5.94612E+06    -127.830E+06     8.38876E+06    -127.506E+06     10.5662E+06    -5.54481E+06         21.8124
            1551     2.95799E-03     78.9956E-03         2.53247     232.622E-03        -2.48214     186.567E-03    -136.238E-03     232.622E-03         1.28692     28.8219E-03    -14.3531E-03    -14.4682E-03    -14.3770E-03     28.7730E-03    -14.3955E-03     2.89183E-03     13.4497E+06     6.84509E+06    -116.291E+06     11.9984E+06    -115.603E+06     7.60835E+06    -8.73898E+06         21.8587
            1552     3.94371E-03     78.9978E-03         1.55454     216.553E-03        -1.49201     155.065E-03    -92.5266E-03     216.553E-03    -691.820E-03     29.0216E-03    -14.3992E-03    -14.6224E-03    -14.5404E-03     28.9396E-03    -14.3992E-03     3.73360E-03     12.1596E+06     5.70515E+06    -117.420E+06     11.0150E+06    -116.276E+06     5.70515E+06    -12.0018E+06         21.9233
            1553     4.92930E-03     79.0022E-03     978.514E-03     203.578E-03    -905.431E-03     160.190E-03    -87.1067E-03     203.578E-03     477.718E-03     29.0309E-03    -14.3915E-03    -14.6397E-03    -14.5064E-03     28.8976E-03    -14.3915E-03     4.79316E-03     10.7511E+06     38.8585E+03    -115.996E+06     9.11530E+06    -114.361E+06     38.8585E+03    -14.2690E+06         22.0022
            1554     5.91533E-03     79.0069E-03     656.447E-03     195.726E-03    -573.059E-03     166.883E-03    -83.4958E-03     195.726E-03    -195.054E-03     29.0696E-03    -14.3669E-03    -14.7026E-03    -14.5265E-03     28.8934E-03    -14.3669E-03     5.53256E-03     11.8451E+06    -5.41244E+06    -111.626E+06     9.48974E+06    -109.270E+06    -5.41244E+06    -16.5785E+06         22.0994
            1555     6.90124E-03     79.0121E-03     463.482E-03     188.876E-03    -369.705E-03     143.420E-03    -49.6430E-03     188.876E-03     235.557E-03     29.3211E-03    -14.3775E-03    -14.9431E-03    -14.7236E-03     29.1016E-03    -14.3775E-03     6.19757E-03     13.9409E+06    -6.62399E+06    -109.571E+06     10.8711E+06    -106.501E+06    -6.62399E+06    -19.0372E+06         22.2784
            1556     7.88652E-03     79.0175E-03     354.685E-03     180.552E-03    -250.835E-03     120.916E-03    -17.0661E-03     180.552E-03     3.79369E-03     29.3605E-03    -14.3890E-03    -14.9708E-03    -14.6855E-03     29.0751E-03    -14.3890E-03     7.06567E-03     14.6357E+06    -10.9076E+06    -112.570E+06     11.3193E+06    -109.254E+06    -10.9076E+06    -20.1589E+06         22.6993
            1557     8.87263E-03     79.0252E-03     316.884E-03     154.174E-03    -185.110E-03     95.0001E-03     19.8879E-03     171.059E-03     140.083E-03     29.3232E-03    -14.3472E-03    -14.9768E-03    -14.6136E-03     28.9600E-03    -14.3472E-03     7.97801E-03     15.2339E+06    -20.2781E+06    -104.203E+06     11.1359E+06    -100.105E+06    -20.2781E+06    -21.4322E+06         23.4994
            1558     9.85796E-03     79.0325E-03     296.541E-03     125.359E-03    -139.253E-03     57.2184E-03     65.4488E-03     159.980E-03     34.0585E-03     29.4357E-03    -14.3161E-03    -15.1238E-03    -14.6566E-03     28.9686E-03    -14.3161E-03     9.04911E-03     14.3201E+06    -27.5451E+06    -94.7478E+06     9.71256E+06    -90.1402E+06    -27.5451E+06    -21.9161E+06         24.6978
            1559     10.8445E-03     79.0419E-03     294.598E-03     87.0521E-03    -103.103E-03     18.7470E-03     112.683E-03     147.116E-03     114.823E-03     29.5472E-03    -14.2992E-03    -15.2534E-03    -14.6954E-03     28.9892E-03    -14.2992E-03     9.92959E-03     11.5601E+06    -36.4595E+06     -92.944E+06     7.51265E+06    -88.8965E+06    -36.4595E+06    -20.1411E+06         26.5083
            1560     11.8292E-03     79.0510E-03     279.913E-03     57.6789E-03    -57.5118E-03    -678.376E-06     147.165E-03     133.593E-03     43.5101E-03     29.6746E-03    -14.2565E-03    -15.4230E-03    -14.7199E-03     28.9715E-03    -14.2565E-03     11.1291E-03     9.98298E+06    -48.5344E+06    -78.8894E+06     6.22465E+06    -75.1311E+06    -48.5344E+06    -17.4910E+06         29.3750
            1561     12.8155E-03     79.0642E-03     278.321E-03     43.4713E-03    -40.0756E-03    -12.1436E-03     173.299E-03     120.562E-03     84.1711E-03     29.6681E-03    -14.1923E-03    -15.4774E-03    -14.5450E-03     28.7356E-03    -14.1923E-03     12.8103E-03     7.85249E+06    -51.8615E+06    -71.2132E+06     4.34967E+06    -55.3747E+06    -64.1972E+06    -14.2840E+06         33.5002
            1562     13.8014E-03     79.0756E-03     290.939E-03     44.6251E-03    -54.3189E-03    -46.1591E-03     220.415E-03     106.989E-03     64.7596E-03     30.8095E-03    -14.1061E-03    -16.7013E-03    -14.5626E-03     28.6708E-03    -14.1061E-03     19.0198E-03     3.02247E+06    -43.5236E+06    -86.7398E+06     543.249E+03    -41.0444E+06    -86.7398E+06    -9.74498E+06         38.7602
            1563     14.7866E-03     79.1030E-03     312.931E-03     69.1284E-03    -106.622E-03    -97.8273E-03     285.278E-03     87.9871E-03     78.4549E-03     45.5374E-03    -14.0083E-03    -31.5233E-03    -14.4451E-03     28.4593E-03    -14.0083E-03     59.7812E-03     43.6242E+06    -21.5959E+06    -91.3544E+06    -3.80258E+06     25.8310E+06    -91.3544E+06    -5.04007E+06         44.8868
            1564     15.7802E-03     79.1954E-03     367.838E-03     47.4955E-03    -145.117E-03    -143.808E-03     366.529E-03     47.4955E-03     1.35976E-03     133.526E-03    -14.0543E-03    -119.468E-03    -26.1641E-03     40.2220E-03    -14.0543E-03     243.312E-03     126.949E+06    -477.175E+03    -45.0524E+06    -5.91843E+06     126.693E+06    -39.3552E+06    -1.50529E+06         51.1775
            1565     16.7736E-03     79.6221E-03     473.538E-03    -23.2897E-03    -176.560E-03    -175.047E-03     472.025E-03    -23.2897E-03     18.4848E-03     214.925E-03    -14.3716E-03    -200.555E-03    -38.0790E-03     52.4497E-03    -14.3716E-03     405.486E-03     198.400E+06     62.3116E+06    -6.70787E+06    -6.39646E+06     198.088E+06     62.3116E+06    -537.423E+03         56.3591
            1566     985.917E-06     80.0200E-03         8.42559         1.84103        -9.96446        -1.87038     331.505E-03         1.84103         7.41888     28.5429E-03    -14.0435E-03    -14.4991E-03    -14.3497E-03     28.5337E-03    -14.1836E-03     1.24740E-03     9.73699E+06     4.08431E+06    -137.855E+06     4.71329E+06    -137.580E+06     8.83240E+06    -2.23473E+06         21.7600
            1567     1.97208E-03     80.0218E-03         4.37454    -9.78360E-03        -4.06757     10.1595E-03     296.815E-03    -9.78360E-03        -2.36904     28.6505E-03    -14.2733E-03    -14.3770E-03    -14.3525E-03     28.6260E-03    -14.2733E-03     1.96389E-03     10.5435E+06     3.72681E+06    -119.501E+06     7.41414E+06    -118.916E+06     6.27124E+06    -7.97590E+06         21.7949
            1568     2.95796E-03     80.0234E-03         2.58835    -13.9966E-03        -2.27486    -65.6251E-03     379.115E-03    -13.9966E-03         1.22710     28.6970E-03    -14.2716E-03    -14.4251E-03    -14.3743E-03     28.6462E-03    -14.2716E-03     2.93185E-03     7.69827E+06     625.548E+03    -110.066E+06     6.53743E+06    -108.905E+06     625.548E+03    -11.3484E+06         21.8473
            1569     3.94395E-03     80.0271E-03         1.65093    -29.6059E-03        -1.32988    -79.3980E-03     400.451E-03    -29.6059E-03    -675.655E-03     28.8492E-03    -14.2996E-03    -14.5490E-03    -14.4622E-03     28.7624E-03    -14.2996E-03     3.83983E-03     8.37833E+06    -162.262E+03    -111.567E+06     6.75905E+06    -109.948E+06    -162.262E+03    -13.5143E+06         21.9140
            1570     4.92969E-03     80.0307E-03         1.09636    -38.5927E-03    -770.271E-03    -56.9489E-03     383.038E-03    -38.5927E-03     475.809E-03     28.8670E-03    -14.3101E-03    -14.5568E-03    -14.4273E-03     28.7375E-03    -14.3101E-03     4.72028E-03     10.7900E+06    -1.56859E+06    -110.913E+06     8.53766E+06    -108.661E+06    -1.56859E+06    -16.0562E+06         21.9932
            1571     5.91587E-03     80.0353E-03     805.348E-03    -42.7752E-03    -473.826E-03    -57.6755E-03     389.198E-03    -42.7752E-03    -157.944E-03     28.9227E-03    -14.2865E-03    -14.6363E-03    -14.4558E-03     28.7422E-03    -14.2865E-03     5.57471E-03     13.2920E+06    -6.22111E+06    -105.927E+06     9.85683E+06    -102.492E+06    -6.22111E+06    -19.6007E+06         22.0910
            1572     6.90157E-03     80.0411E-03     650.290E-03    -47.3348E-03    -307.384E-03    -76.0028E-03     418.908E-03    -47.3348E-03     220.185E-03     29.1719E-03    -14.2902E-03    -14.8817E-03    -14.6655E-03     28.9557E-03    -14.2902E-03     6.15736E-03     13.4679E+06    -10.0342E+06    -105.307E+06     9.06342E+06    -100.902E+06    -10.0342E+06    -22.2513E+06         22.2679
            1573     7.88712E-03     80.0470E-03     550.499E-03    -51.9316E-03    -202.914E-03    -70.6208E-03     418.205E-03    -51.9316E-03    -22.0393E-03     29.3127E-03    -14.3260E-03    -14.9869E-03    -14.7214E-03     29.0472E-03    -14.3260E-03     6.81234E-03     13.8116E+06    -11.8066E+06    -110.109E+06     8.96632E+06    -105.264E+06    -11.8066E+06    -23.7839E+06         22.6806
            1574     8.87261E-03     80.0534E-03     508.362E-03    -56.0377E-03    -156.047E-03    -80.9852E-03     433.301E-03    -56.0377E-03     146.754E-03     29.2396E-03    -14.2935E-03    -14.9471E-03    -14.5830E-03     28.8755E-03    -14.2935E-03     7.96589E-03     14.7174E+06    -20.9080E+06    -101.642E+06     9.36888E+06    -96.2940E+06    -20.9080E+06    -24.2002E+06         23.4700
            1575     9.85898E-03     80.0620E-03     500.535E-03    -61.6919E-03    -143.060E-03    -111.892E-03     469.367E-03    -61.6919E-03     48.7098E-03     29.3470E-03    -14.2781E-03    -15.0730E-03    -14.6190E-03     28.8930E-03    -14.2781E-03     8.92912E-03     13.9126E+06    -26.2478E+06    -94.0049E+06     8.43903E+06    -88.5313E+06    -26.2478E+06    -23.6117E+06         24.6598
            1576     10.8440E-03     80.0703E-03     501.852E-03    -67.4516E-03    -144.906E-03    -123.125E-03     481.216E-03    -68.5967E-03     133.495E-03     29.5434E-03    -14.2620E-03    -15.2871E-03    -14.7263E-03     28.9826E-03    -14.2620E-03     9.93975E-03     12.4534E+06    -35.9087E+06    -93.8366E+06     7.16839E+06    -88.5517E+06    -35.9087E+06    -22.9926E+06         26.4580
            1577     11.8300E-03     80.0813E-03     486.697E-03    -73.6550E-03    -121.651E-03    -113.886E-03     480.078E-03    -74.8001E-03     64.1875E-03     29.5839E-03    -14.2168E-03    -15.3724E-03    -14.6195E-03     28.8309E-03    -14.2168E-03     11.4931E-03     10.8784E+06    -49.0028E+06    -81.2065E+06     5.66414E+06    -75.9922E+06    -49.0028E+06    -21.1179E+06         29.3028
            1578     12.8158E-03     80.0917E-03     504.421E-03    -80.3764E-03    -128.753E-03    -122.443E-03     498.111E-03    -80.3764E-03     92.8190E-03     29.6085E-03    -14.1602E-03    -15.4503E-03    -14.4599E-03     28.6181E-03    -14.1602E-03     13.1798E-03     7.78555E+06    -53.5273E+06    -72.1481E+06     3.45995E+06    -58.2875E+06    -63.0623E+06    -16.6348E+06         33.4079
            1579     13.8017E-03     80.1067E-03     542.643E-03    -87.4962E-03    -159.599E-03    -156.725E-03     539.769E-03    -87.4962E-03     75.6344E-03     30.5721E-03    -14.0574E-03    -16.5125E-03    -14.2648E-03     28.3243E-03    -14.0574E-03     19.3889E-03     2.88889E+06    -48.6259E+06    -87.1719E+06    -74.7109E+03    -45.6623E+06    -87.1719E+06    -11.6656E+06         38.6770
            1580     14.7899E-03     80.1288E-03     580.950E-03    -100.152E-03    -188.216E-03    -185.398E-03     578.132E-03    -100.152E-03     67.2145E-03     44.9181E-03    -13.9603E-03    -30.9516E-03    -14.6207E-03     28.5872E-03    -13.9603E-03     58.7871E-03     43.2315E+06    -24.5031E+06    -91.2400E+06    -4.48255E+06     23.2109E+06    -91.2400E+06    -7.06449E+06         44.8483
            1581     15.7710E-03     80.2256E-03     624.090E-03    -128.090E-03    -207.733E-03    -202.133E-03     623.678E-03    -133.278E-03     5.95266E-03     132.819E-03    -14.0460E-03    -118.769E-03    -27.2710E-03     41.3206E-03    -14.0460E-03     241.108E-03     124.006E+06    -4.36774E+06    -45.5373E+06    -7.46836E+06     123.663E+06    -42.0936E+06    -2.70249E+06         51.1911
            1582     16.7580E-03     80.6328E-03     700.533E-03    -167.741E-03    -241.900E-03    -212.396E-03     699.396E-03    -196.108E-03     38.0141E-03     216.479E-03    -14.3693E-03    -202.110E-03    -38.3726E-03     52.7413E-03    -14.3693E-03     408.496E-03     196.610E+06     54.8310E+06    -6.03403E+06    -5.79971E+06     196.375E+06     54.8310E+06    -339.910E+03         56.4123
            1583     986.645E-06     81.0494E-03         8.20909         1.49369        -9.38655        -2.04551     868.049E-03         1.49369         7.03546     28.2702E-03    -13.9843E-03    -14.2858E-03    -14.0396E-03     28.2594E-03    -14.2197E-03     1.33599E-03     6.53175E+06     2.22677E+06    -132.173E+06     5.19908E+06    -131.703E+06     3.08947E+06    -4.02962E+06         21.7491
            1584     1.97226E-03     81.0494E-03         4.38091    -278.039E-03        -3.78533    -282.422E-03     878.004E-03    -278.039E-03        -2.23609     28.5279E-03    -14.1582E-03    -14.3700E-03    -14.3442E-03     28.5021E-03    -14.1582E-03     2.02161E-03     5.99893E+06     2.78030E+06    -109.791E+06     4.49120E+06    -109.146E+06     3.64300E+06    -7.96029E+06         21.7867
            1585     2.95830E-03     81.0525E-03         2.69649    -279.258E-03        -2.10118    -276.250E-03     871.559E-03    -279.258E-03         1.18165     28.6456E-03    -14.2045E-03    -14.4412E-03    -14.3906E-03     28.5949E-03    -14.2045E-03     2.92954E-03     5.35861E+06    -1.25546E+06    -102.143E+06     3.77503E+06    -100.559E+06    -1.25546E+06    -12.6900E+06         21.8423
            1586     3.94401E-03     81.0551E-03         1.82285    -277.187E-03        -1.23764    -258.368E-03     843.571E-03    -277.187E-03    -637.330E-03     28.6393E-03    -14.2217E-03    -14.4169E-03    -14.3340E-03     28.5564E-03    -14.2217E-03     3.74004E-03     6.99600E+06    -5.43659E+06    -105.242E+06     4.47269E+06    -102.718E+06    -5.43659E+06    -16.5579E+06         21.9091
            1587     4.93031E-03     81.0594E-03         1.36120    -278.066E-03    -779.256E-03    -300.952E-03     882.898E-03    -278.066E-03     451.761E-03     28.7759E-03    -14.2329E-03    -14.5426E-03    -14.4197E-03     28.6530E-03    -14.2329E-03     4.59252E-03     8.79244E+06    -6.39894E+06    -104.719E+06     5.19486E+06    -101.122E+06    -6.39894E+06    -19.6632E+06         21.9895
            1588     5.91575E-03     81.0638E-03         1.12786    -283.267E-03    -538.259E-03    -304.540E-03     894.136E-03    -283.267E-03    -158.460E-03     28.9221E-03    -14.2474E-03    -14.6743E-03    -14.5001E-03     28.7480E-03    -14.2474E-03     5.47540E-03     10.5958E+06    -7.11435E+06    -100.542E+06     5.75901E+06    -95.7056E+06    -7.11435E+06    -22.4982E+06         22.0891
            1589     6.90166E-03     81.0699E-03         1.00433    -286.215E-03    -407.302E-03    -284.343E-03     881.371E-03    -286.215E-03     213.671E-03     28.9763E-03    -14.2482E-03    -14.7276E-03    -14.5055E-03     28.7541E-03    -14.2482E-03     6.21040E-03     12.0068E+06    -11.6030E+06    -100.900E+06     6.24546E+06    -95.1382E+06    -11.6030E+06    -24.7834E+06         22.2620
            1590     7.88748E-03     81.0757E-03     925.487E-03    -286.624E-03    -329.864E-03    -272.817E-03     868.440E-03    -286.624E-03    -35.7876E-03     29.1395E-03    -14.2640E-03    -14.8756E-03    -14.6139E-03     28.8777E-03    -14.2640E-03     6.75935E-03     12.0658E+06    -15.2702E+06    -106.178E+06     5.64430E+06    -99.7563E+06    -15.2702E+06    -26.7553E+06         22.6644
            1591     8.87332E-03     81.0824E-03     883.878E-03    -269.123E-03    -308.938E-03    -262.744E-03     854.588E-03    -286.027E-03     137.666E-03     29.2662E-03    -14.2438E-03    -15.0227E-03    -14.6715E-03     28.9150E-03    -14.2438E-03     7.82028E-03     11.6800E+06    -24.1328E+06    -100.411E+06     4.69146E+06    -93.4225E+06    -24.1328E+06    -26.9909E+06         23.4422
            1592     9.85863E-03     81.0904E-03     858.655E-03    -251.159E-03    -303.061E-03    -254.208E-03     843.610E-03    -284.968E-03     55.0882E-03     29.2847E-03    -14.2317E-03    -15.0561E-03    -14.5980E-03     28.8267E-03    -14.2317E-03     8.95666E-03     12.1541E+06    -30.5005E+06    -93.4946E+06     4.75310E+06    -86.0937E+06    -30.5005E+06    -26.8294E+06         24.6219
            1593     10.8449E-03     81.1000E-03     851.962E-03    -252.861E-03    -296.236E-03    -254.430E-03     841.305E-03    -284.009E-03     129.570E-03     29.2979E-03    -14.2151E-03    -15.0884E-03    -14.5287E-03     28.7381E-03    -14.2151E-03     9.88453E-03     12.0053E+06    -38.8126E+06    -93.5965E+06     4.81415E+06    -86.4054E+06    -38.8126E+06    -26.4840E+06         26.4068
            1594     11.8308E-03     81.1090E-03     845.962E-03    -257.191E-03    -284.372E-03    -255.297E-03     843.285E-03    -283.589E-03     44.3857E-03     29.3713E-03    -14.1577E-03    -15.2196E-03    -14.4894E-03     28.6412E-03    -14.1577E-03     11.2784E-03     9.95634E+06    -53.3140E+06    -84.6041E+06     3.52133E+06    -78.1691E+06    -53.3140E+06    -23.7405E+06         29.2300
            1595     12.8168E-03     81.1221E-03     849.296E-03    -253.913E-03    -289.596E-03    -257.236E-03     846.767E-03    -283.744E-03     61.0356E-03     29.3949E-03    -14.0916E-03    -15.3060E-03    -14.3650E-03     28.4538E-03    -14.0916E-03     12.7900E-03     7.14325E+06    -58.6488E+06    -77.0971E+06     1.57653E+06    -61.7282E+06    -68.4510E+06    -19.5070E+06         33.3157
            1596     13.8035E-03     81.1336E-03     846.505E-03    -239.201E-03    -300.427E-03    -252.589E-03     844.095E-03    -284.629E-03     66.3300E-03     30.4362E-03    -13.9897E-03    -16.4464E-03    -14.3448E-03     28.3346E-03    -13.9897E-03     18.7688E-03     3.30685E+06    -53.5677E+06    -92.7113E+06    -875.439E+03    -49.3854E+06    -92.7113E+06    -14.6898E+06         38.5933
            1597     14.7882E-03     81.1595E-03     846.225E-03    -233.284E-03    -306.572E-03    -248.053E-03     843.761E-03    -289.338E-03     79.0843E-03     44.5011E-03    -13.8908E-03    -30.6077E-03    -14.3722E-03     28.2656E-03    -13.8908E-03     57.9231E-03     40.9514E+06    -27.9153E+06    -97.1935E+06    -4.75416E+06     17.7903E+06    -97.1935E+06    -8.32092E+06         44.8113
            1598     15.7813E-03     81.2527E-03     867.745E-03    -243.568E-03    -320.149E-03    -249.619E-03     867.291E-03    -313.644E-03     35.5711E-03     133.325E-03    -13.9681E-03    -119.355E-03    -27.6067E-03     41.5765E-03    -13.9681E-03     242.232E-03     120.499E+06    -2.90164E+06    -50.9639E+06    -5.48154E+06     120.107E+06    -47.9916E+06    -3.21057E+06         51.2143
            1599     16.7698E-03     81.6715E-03     922.211E-03    -243.827E-03    -367.561E-03    -243.333E-03     921.717E-03    -367.561E-03     46.7457E-03     217.948E-03    -14.3370E-03    -203.612E-03    -39.7671E-03     54.1022E-03    -14.3370E-03     410.915E-03     195.448E+06     56.8921E+06    -10.3181E+06    -4.92104E+06     195.204E+06     51.7389E+06    -1.49672E+06         56.4785
            1600     985.912E-06     82.0757E-03         8.04194         1.11053        -8.82912        -2.21854         1.43136         1.11053         6.69423     28.3021E-03    -13.9547E-03    -14.3471E-03    -14.2366E-03     28.2868E-03    -14.0500E-03     1.28192E-03     12.1887E+06     3.18921E+06    -124.838E+06     5.37130E+06    -124.483E+06     9.65106E+06    -5.98085E+06         21.7533
            1601     1.97258E-03     82.0788E-03         4.39404    -549.127E-03        -3.51927    -527.253E-03         1.40202    -549.127E-03        -2.12232     28.6132E-03    -14.1946E-03    -14.4184E-03    -14.3937E-03     28.5885E-03    -14.1946E-03     2.00144E-03     12.4378E+06     7.57068E+06    -100.032E+06     8.57930E+06    -99.1537E+06     10.5507E+06    -8.68924E+06         21.7882
            1602     2.95794E-03     82.0806E-03         2.84203    -536.429E-03        -1.97515    -489.384E-03         1.35626    -536.429E-03         1.10663     28.6188E-03    -14.2389E-03    -14.3803E-03    -14.3412E-03     28.5798E-03    -14.2389E-03     2.52265E-03     11.8448E+06     6.52203E+06    -92.7386E+06     9.96181E+06    -90.8556E+06     6.52203E+06    -13.8260E+06         21.8429
            1603     3.94429E-03     82.0839E-03         2.08132    -525.012E-03        -1.23349    -490.221E-03         1.33805    -525.012E-03    -598.572E-03     28.6854E-03    -14.2469E-03    -14.4389E-03    -14.3636E-03     28.6102E-03    -14.2469E-03     3.55959E-03     12.2779E+06     1.60881E+06    -97.2516E+06     9.19502E+06    -94.1687E+06     1.60881E+06    -17.8961E+06         21.9118
            1604     4.92985E-03     82.0877E-03         1.70457    -522.544E-03    -865.483E-03    -531.403E-03         1.37049    -522.544E-03     437.440E-03     28.8387E-03    -14.2485E-03    -14.5901E-03    -14.4762E-03     28.7248E-03    -14.2485E-03     4.42855E-03     12.5102E+06    -3.16050E+06    -96.9877E+06     7.55022E+06    -92.0277E+06    -3.16050E+06    -22.5497E+06         21.9942
            1605     5.91596E-03     82.0930E-03         1.50783    -523.758E-03    -664.805E-03    -513.915E-03         1.35694    -523.758E-03    -155.705E-03     28.8395E-03    -14.2598E-03    -14.5794E-03    -14.4225E-03     28.6826E-03    -14.2598E-03     5.18434E-03     13.9135E+06    -4.83619E+06    -95.5015E+06     7.56220E+06    -89.1502E+06    -4.83619E+06    -25.5348E+06         22.0931
            1606     6.90174E-03     82.0981E-03         1.40191    -511.828E-03    -567.628E-03    -485.769E-03         1.32987    -521.651E-03     234.781E-03     28.8660E-03    -14.2558E-03    -14.6100E-03    -14.3996E-03     28.6556E-03    -14.2558E-03     6.01762E-03     14.7116E+06    -7.87075E+06    -96.5715E+06     7.90914E+06    -89.7691E+06    -7.87075E+06    -26.6334E+06         22.2601
            1607     7.88776E-03     82.1048E-03         1.34778    -498.405E-03    -526.124E-03    -475.063E-03         1.31613    -517.814E-03     9.43649E-03     29.0679E-03    -14.2531E-03    -14.8149E-03    -14.5616E-03     28.8146E-03    -14.2531E-03     6.64441E-03     14.6491E+06    -13.1638E+06    -101.397E+06     7.23936E+06    -93.9872E+06    -13.1638E+06    -28.3379E+06         22.6506
            1608     8.87319E-03     82.1112E-03         1.30195    -461.290E-03    -517.588E-03    -447.920E-03         1.28406    -513.063E-03     161.133E-03     29.2841E-03    -14.2284E-03    -15.0552E-03    -14.7224E-03     28.9512E-03    -14.2284E-03     7.61939E-03     15.4170E+06    -23.2295E+06    -97.6717E+06     6.62645E+06    -88.8812E+06    -23.2295E+06    -30.1371E+06         23.4151
            1609     9.85902E-03     82.1197E-03         1.24532    -419.745E-03    -506.378E-03    -410.793E-03         1.23637    -506.378E-03     71.0282E-03     29.2172E-03    -14.2172E-03    -15.0014E-03    -14.5827E-03     28.7985E-03    -14.2172E-03     8.54818E-03     15.4320E+06    -30.6349E+06    -92.6231E+06     6.00098E+06    -83.1921E+06    -30.6349E+06    -30.4570E+06         24.5832
            1610     10.8449E-03     82.1279E-03         1.22468    -410.761E-03    -499.140E-03    -403.468E-03         1.21738    -499.140E-03     124.080E-03     29.1730E-03    -14.1938E-03    -14.9842E-03    -14.4592E-03     28.6481E-03    -14.1938E-03     9.52653E-03     13.2626E+06    -40.5727E+06    -93.8082E+06     4.57867E+06    -85.1242E+06    -40.5727E+06    -29.2024E+06         26.3536
            1611     11.8306E-03     82.1389E-03         1.21290    -402.569E-03    -493.052E-03    -400.897E-03         1.21123    -493.052E-03     42.7372E-03     29.2495E-03    -14.1227E-03    -15.1322E-03    -14.4524E-03     28.5697E-03    -14.1227E-03     10.8771E-03     11.2379E+06    -57.5954E+06    -87.1909E+06     2.97379E+06    -78.9268E+06    -57.5954E+06    -27.2371E+06         29.1558
            1612     12.8169E-03     82.1495E-03         1.18860    -381.229E-03    -487.386E-03    -379.576E-03         1.18695    -487.386E-03     75.2021E-03     29.2716E-03    -14.0436E-03    -15.2304E-03    -14.3573E-03     28.3985E-03    -14.0436E-03     12.2965E-03     10.6530E+06    -64.2285E+06    -82.5868E+06     2.68220E+06    -63.9739E+06    -74.8707E+06    -24.2760E+06         33.2226
            1613     13.8025E-03     82.1637E-03         1.14112    -338.776E-03    -481.102E-03    -337.027E-03         1.13937    -481.102E-03     73.1394E-03     30.4529E-03    -13.9452E-03    -16.5081E-03    -14.4357E-03     28.3805E-03    -13.9452E-03     18.6299E-03     5.83894E+06    -60.3998E+06    -99.9330E+06     271.393E+03    -54.8323E+06    -99.9330E+06    -17.9358E+06         38.5092
            1614     14.7900E-03     82.1873E-03         1.10173    -300.634E-03    -477.058E-03    -298.936E-03         1.10003    -477.058E-03     86.1080E-03     43.4687E-03    -13.8519E-03    -29.6156E-03    -14.3694E-03     28.2224E-03    -13.8519E-03     55.6496E-03     39.9612E+06    -31.7594E+06    -104.718E+06    -3.42822E+06     11.6300E+06    -104.718E+06    -10.9234E+06         44.7742
            1615     15.7747E-03     82.2776E-03         1.10401    -291.050E-03    -492.266E-03    -290.707E-03         1.10367    -492.266E-03     32.2731E-03     131.872E-03    -13.9632E-03    -117.910E-03    -28.5273E-03     42.4887E-03    -13.9632E-03     238.632E-03     116.100E+06    -6.73510E+06    -57.2765E+06    -5.82198E+06     115.187E+06    -57.2765E+06    -6.02817E+06         51.2361
            1616     16.7632E-03     82.6958E-03         1.13738    -274.214E-03    -537.314E-03    -273.913E-03         1.13708    -537.314E-03     30.4185E-03     215.537E-03    -14.3791E-03    -201.162E-03    -39.3813E-03     53.7566E-03    -14.3791E-03     405.961E-03     193.250E+06     49.8526E+06    -11.2607E+06    -4.62286E+06     193.086E+06     43.3786E+06    -1.72121E+06         56.5458
            1617     986.809E-06     83.1048E-03         7.93523     728.306E-03        -8.34794        -2.35174         1.93903     728.306E-03         6.46517     28.6368E-03    -14.1354E-03    -14.5010E-03    -14.4116E-03     28.6236E-03    -14.2116E-03     1.12829E-03     14.2583E+06     6.11495E+06    -115.233E+06     7.74608E+06    -114.990E+06     12.3849E+06    -4.54007E+06         21.7673
            1618     1.97144E-03     83.1072E-03         4.42777    -798.027E-03        -3.29883    -743.227E-03         1.87216    -798.027E-03        -2.01513     28.7114E-03    -14.2823E-03    -14.4286E-03    -14.3649E-03     28.6870E-03    -14.3216E-03     1.99662E-03     14.8762E+06     10.1270E+06    -89.4560E+06     10.9860E+06    -88.3539E+06     12.9151E+06    -9.81603E+06         21.8007
            1619     2.95804E-03     83.1093E-03         3.04067    -780.247E-03        -1.92458    -752.328E-03         1.86842    -780.247E-03         1.04755     28.7031E-03    -14.2943E-03    -14.4084E-03    -14.3416E-03     28.6676E-03    -14.3256E-03     2.41661E-03     13.8556E+06     10.2833E+06    -83.7963E+06     11.7514E+06    -81.6921E+06     10.2833E+06    -14.1194E+06         21.8538
            1620     3.94378E-03     83.1121E-03         2.39774    -773.732E-03        -1.29227    -752.614E-03         1.85808    -773.732E-03    -556.166E-03     28.8594E-03    -14.3297E-03    -14.5300E-03    -14.4605E-03     28.7900E-03    -14.3297E-03     3.41773E-03     14.1131E+06     6.14271E+06    -88.0252E+06     10.6096E+06    -84.5217E+06     6.14271E+06    -18.3240E+06         21.9223
            1621     4.92965E-03     83.1170E-03         2.05606    -767.567E-03    -958.726E-03    -722.424E-03         1.81976    -767.567E-03     426.315E-03     28.8612E-03    -14.3191E-03    -14.5420E-03    -14.4364E-03     28.7557E-03    -14.3191E-03     4.26572E-03     14.7804E+06     203.094E+03    -87.8147E+06     9.03311E+06    -82.0674E+06     203.094E+03    -23.4401E+06         22.0030
            1622     5.91528E-03     83.1211E-03         1.89408    -759.538E-03    -806.994E-03    -704.028E-03         1.79111    -759.538E-03    -132.218E-03     28.8337E-03    -14.3040E-03    -14.5296E-03    -14.3889E-03     28.6930E-03    -14.3040E-03     4.91714E-03     15.5871E+06    -4.48933E+06    -89.4786E+06     7.77337E+06    -81.6649E+06    -4.48933E+06    -27.4204E+06         22.0989
            1623     6.90156E-03     83.1270E-03         1.83015    -725.928E-03    -771.297E-03    -696.046E-03         1.78113    -752.160E-03     218.785E-03     28.9113E-03    -14.2944E-03    -14.6169E-03    -14.4292E-03     28.7237E-03    -14.2944E-03     5.69054E-03     16.3468E+06    -7.89667E+06    -92.4652E+06     7.75895E+06    -83.8774E+06    -7.89667E+06    -29.2040E+06         22.2601
            1624     7.88725E-03     83.1332E-03         1.75696    -677.266E-03    -744.082E-03    -656.388E-03         1.73608    -744.082E-03     24.1697E-06     29.0694E-03    -14.2867E-03    -14.7831E-03    -14.5514E-03     28.8377E-03    -14.2867E-03     6.34951E-03     18.4897E+06    -12.5187E+06    -96.2291E+06     9.21978E+06    -86.9592E+06    -12.5187E+06    -31.1498E+06         22.6380
            1625     8.87317E-03     83.1406E-03         1.70704    -637.222E-03    -734.094E-03    -625.169E-03         1.69499    -734.094E-03     147.154E-03     29.1825E-03    -14.2515E-03    -14.9319E-03    -14.6249E-03     28.8755E-03    -14.2515E-03     7.30120E-03     20.2271E+06    -22.7507E+06    -94.3621E+06     9.56503E+06    -83.7000E+06    -22.7507E+06    -33.1689E+06         23.3882
            1626     9.85860E-03     83.1484E-03         1.66287    -604.082E-03    -723.449E-03    -598.258E-03         1.65705    -723.449E-03     66.0983E-03     29.1882E-03    -14.2437E-03    -14.9464E-03    -14.5758E-03     28.8175E-03    -14.2437E-03     8.05384E-03     19.3290E+06    -28.5662E+06    -91.5234E+06     8.22626E+06    -80.4207E+06    -28.5662E+06    -33.2174E+06         24.5440
            1627     10.8445E-03     83.1569E-03         1.60734    -565.105E-03    -712.123E-03    -560.490E-03         1.60272    -712.123E-03     130.828E-03     29.1565E-03    -14.2167E-03    -14.9443E-03    -14.4469E-03     28.6592E-03    -14.2167E-03     9.24191E-03     18.3353E+06    -38.5349E+06    -94.2063E+06     7.93523E+06    -83.8062E+06    -38.5349E+06    -32.5134E+06         26.2996
            1628     11.8308E-03     83.1673E-03         1.54810    -518.019E-03    -699.636E-03    -516.318E-03         1.54640    -699.636E-03     70.6781E-03     29.1925E-03    -14.1418E-03    -15.0552E-03    -14.3895E-03     28.5269E-03    -14.1418E-03     10.7620E-03     17.7319E+06    -54.8311E+06    -87.8925E+06     7.44090E+06    -77.6016E+06    -54.8311E+06    -31.2338E+06         29.0815
            1629     12.8166E-03     83.1787E-03         1.50378    -480.485E-03    -686.247E-03    -478.543E-03         1.50184    -686.247E-03     113.052E-03     29.2053E-03    -14.0527E-03    -15.1545E-03    -14.2959E-03     28.3467E-03    -14.0527E-03     12.1673E-03     14.0971E+06    -66.2273E+06    -83.9537E+06     4.22051E+06    -65.8676E+06    -74.4368E+06    -28.0560E+06         33.1309
            1630     13.8035E-03     83.1918E-03         1.45052    -438.642E-03    -672.764E-03    -437.517E-03         1.44940    -672.764E-03     85.8679E-03     30.3396E-03    -13.9435E-03    -16.3953E-03    -14.2302E-03     28.1744E-03    -13.9435E-03     18.9107E-03     9.25641E+06    -68.4251E+06    -100.785E+06     1.62706E+06    -60.7958E+06    -100.785E+06    -22.6154E+06         38.4283
            1631     14.7885E-03     83.2168E-03         1.38527    -380.823E-03    -661.812E-03    -379.768E-03         1.38422    -661.812E-03     79.5545E-03     43.6124E-03    -13.8423E-03    -29.7664E-03    -14.8924E-03     28.7384E-03    -13.8423E-03     55.7076E-03     38.7894E+06    -35.1640E+06    -108.701E+06    -724.461E+03     4.34979E+06    -108.701E+06    -15.4280E+06         44.7403
            1632     15.7778E-03     83.3050E-03         1.34966    -333.554E-03    -669.094E-03    -333.340E-03         1.34945    -669.094E-03     25.7078E-03     135.044E-03    -14.0118E-03    -121.032E-03    -31.1746E-03     45.1874E-03    -14.0118E-03     243.482E-03     112.432E+06    -4.41216E+06    -62.1504E+06    -3.39508E+06     111.415E+06    -62.1504E+06    -6.76992E+06         51.2598
            1633     16.7547E-03     83.7333E-03         1.35329    -301.727E-03    -704.435E-03    -301.618E-03         1.35318    -704.435E-03     16.3580E-03     215.336E-03    -14.3945E-03    -200.943E-03    -37.7779E-03     52.1713E-03    -14.3945E-03     406.003E-03     191.248E+06     41.3044E+06    -11.1780E+06    -2.72835E+06     191.150E+06     32.9528E+06    -741.650E+03         56.6196
            1634     985.000E-06     84.1342E-03         7.73622     377.380E-03        -7.78191        -2.43905         2.39336     377.380E-03         6.03928     29.0165E-03    -14.3344E-03    -14.6819E-03    -14.3227E-03     29.0049E-03    -14.6819E-03     1.36800E-03     15.2344E+06     11.3530E+06    -105.809E+06     14.1430E+06    -105.489E+06     12.1246E+06    -5.47675E+06         21.7864
            1635     1.97209E-03     84.1355E-03         4.50449        -1.02416        -3.14222    -993.890E-03         2.35617        -1.02416        -1.90494     28.8176E-03    -14.3544E-03    -14.4632E-03    -14.3378E-03     28.7970E-03    -14.4592E-03     1.83133E-03     14.6631E+06     12.6138E+06    -79.1387E+06     12.4770E+06    -78.0771E+06     13.7382E+06    -9.40089E+06         21.8201
            1636     2.95762E-03     84.1380E-03         3.28848        -1.01781        -1.92609        -1.02161         2.38400        -1.01781         1.00287     28.9647E-03    -14.4053E-03    -14.5590E-03    -14.4899E-03     28.9269E-03    -14.4366E-03     2.54343E-03     15.6098E+06     12.2128E+06    -73.7363E+06     12.8088E+06    -71.2882E+06     12.5656E+06    -14.3306E+06         21.8702
            1637     3.94313E-03     84.1414E-03         2.73060        -1.01470        -1.37268    -978.720E-03         2.33664        -1.01470    -509.557E-03     29.0592E-03    -14.4459E-03    -14.6131E-03    -14.5505E-03     28.9967E-03    -14.4459E-03     3.26883E-03     17.3317E+06     9.01931E+06    -78.1919E+06     13.1665E+06    -74.0266E+06     9.01931E+06    -19.3568E+06         21.9340
            1638     4.92906E-03     84.1453E-03         2.45783        -1.00480        -1.11222    -941.565E-03         2.28718        -1.00480     384.661E-03     28.9395E-03    -14.4251E-03    -14.5145E-03    -14.4159E-03     28.8457E-03    -14.4299E-03     4.01556E-03     19.4399E+06     5.31499E+06    -78.3594E+06     13.2057E+06    -72.1252E+06     5.31499E+06    -23.7477E+06         22.0112
            1639     5.91526E-03     84.1503E-03         2.31997    -977.772E-03        -1.00148    -913.067E-03         2.24670    -992.919E-03    -135.387E-03     28.9829E-03    -14.3963E-03    -14.5863E-03    -14.4517E-03     28.8531E-03    -14.4011E-03     4.72987E-03     20.6877E+06     592.538E+03    -81.1262E+06     12.0200E+06    -72.4585E+06     592.538E+03    -28.3585E+06         22.1048
            1640     6.90057E-03     84.1555E-03         2.24608    -916.782E-03    -985.325E-03    -885.616E-03         2.21032    -980.730E-03     173.430E-03     29.0744E-03    -14.3777E-03    -14.6957E-03    -14.5139E-03     28.8925E-03    -14.3777E-03     5.60740E-03     22.0654E+06    -5.61313E+06    -87.1420E+06     11.4198E+06    -76.4964E+06    -5.61313E+06    -32.3225E+06         22.2597
            1641     7.88651E-03     84.1625E-03         2.16711    -853.225E-03    -967.195E-03    -836.831E-03         2.15072    -967.195E-03    -33.7670E-03     29.1386E-03    -14.3560E-03    -14.7828E-03    -14.5494E-03     28.9052E-03    -14.3560E-03     6.37682E-03     22.4451E+06    -12.5628E+06    -91.8820E+06     11.0303E+06    -80.4671E+06    -12.5628E+06    -34.2181E+06         22.6251
            1642     8.87212E-03     84.1690E-03         2.10898    -811.735E-03    -952.301E-03    -803.383E-03         2.10063    -952.301E-03     117.373E-03     29.1012E-03    -14.3145E-03    -14.7881E-03    -14.4978E-03     28.8110E-03    -14.3145E-03     7.09483E-03     22.6018E+06    -21.8427E+06    -91.1744E+06     9.97662E+06    -78.5492E+06    -21.8427E+06    -35.5927E+06         23.3611
            1643     9.85838E-03     84.1776E-03         2.05350    -769.842E-03    -937.106E-03    -765.795E-03         2.04945    -937.106E-03     34.5899E-03     29.1081E-03    -14.2881E-03    -14.8233E-03    -14.4579E-03     28.7427E-03    -14.2881E-03     7.96585E-03     23.0570E+06    -27.6557E+06    -89.8477E+06     9.66293E+06    -76.4536E+06    -27.6557E+06    -36.4262E+06         24.5048
            1644     10.8441E-03     84.1855E-03         1.97479    -705.903E-03    -920.427E-03    -703.015E-03         1.97191    -920.427E-03     98.7315E-03     29.1395E-03    -14.2430E-03    -14.9009E-03    -14.4392E-03     28.6778E-03    -14.2430E-03     8.94390E-03     21.2495E+06    -39.6292E+06    -93.7317E+06     8.42170E+06    -80.9038E+06    -39.6292E+06    -36.0973E+06         26.2461
            1645     11.8301E-03     84.1959E-03         1.88434    -634.314E-03    -901.341E-03    -633.176E-03         1.88321    -901.341E-03     47.9602E-03     29.0854E-03    -14.1607E-03    -14.9280E-03    -14.2678E-03     28.4252E-03    -14.1607E-03     10.6234E-03     19.0737E+06    -56.9369E+06    -89.8506E+06     6.30593E+06    -77.0828E+06    -56.9369E+06    -34.9023E+06         29.0080
            1646     12.8166E-03     84.2074E-03         1.80923    -578.119E-03    -880.677E-03    -576.988E-03         1.80810    -880.677E-03     79.7939E-03     29.0862E-03    -14.0657E-03    -15.0215E-03    -14.1976E-03     28.2623E-03    -14.0657E-03     11.9342E-03     17.0922E+06    -69.2891E+06    -85.6673E+06     5.02615E+06    -67.2952E+06    -75.5952E+06    -31.8063E+06         33.0414
            1647     13.8026E-03     84.2199E-03         1.73988    -528.633E-03    -859.962E-03    -528.180E-03         1.73942    -859.962E-03     47.7421E-03     29.9344E-03    -13.9403E-03    -15.9922E-03    -13.8601E-03     27.8022E-03    -13.9403E-03     18.3545E-03     12.2566E+06    -74.8258E+06    -102.410E+06     2.48034E+06    -65.0496E+06    -102.410E+06    -27.2621E+06         38.3511
            1648     14.7910E-03     84.2453E-03         1.65946    -460.419E-03    -842.102E-03    -459.922E-03         1.65896    -842.102E-03     56.9527E-03     44.0446E-03    -13.8522E-03    -30.1884E-03    -15.2458E-03     29.1019E-03    -13.8522E-03     56.6411E-03     35.6639E+06    -40.9210E+06    -108.944E+06    -1.43972E+06    -3.81737E+06    -108.944E+06    -19.5533E+06         44.7105
            1649     15.7744E-03     84.3349E-03         1.58919    -386.264E-03    -841.504E-03    -386.063E-03         1.58899    -841.504E-03     32.3257E-03     136.460E-03    -13.9004E-03    -122.557E-03    -28.6058E-03     42.5096E-03    -13.9004E-03     247.447E-03     105.096E+06    -6.20289E+06    -68.8248E+06    -4.11067E+06     103.003E+06    -68.8248E+06    -9.41993E+06         51.3022
            1650     16.7660E-03     84.7710E-03         1.55306    -327.805E-03    -866.752E-03    -327.741E-03         1.55300    -866.752E-03     18.6287E-03     215.518E-03    -14.1416E-03    -201.377E-03    -36.9409E-03     51.0818E-03    -14.1416E-03     407.214E-03     186.808E+06     40.1796E+06    -21.3243E+06    -5.31158E+06     186.673E+06     24.3025E+06    -2.48027E+06         56.7170
            1651     986.274E-06     85.1632E-03         7.52675     32.2277E-03        -7.21140        -2.56063         2.87598     32.2277E-03         5.51885     29.2269E-03    -14.4032E-03    -14.8235E-03    -14.5388E-03     29.2136E-03    -14.6746E-03     1.50498E-03     20.5643E+06     17.3866E+06    -96.1840E+06     18.1574E+06    -95.7184E+06     19.3279E+06    -6.41237E+06         21.8079
            1652     1.97109E-03     85.1644E-03         4.61709        -1.25727        -3.01772        -1.22668         2.82605        -1.25727        -1.77799     29.2732E-03    -14.5404E-03    -14.7329E-03    -14.6485E-03     29.2543E-03    -14.6060E-03     1.76355E-03     23.0102E+06     19.2699E+06    -69.1204E+06     20.1961E+06    -67.7558E+06     20.7194E+06    -10.5633E+06         21.8402
            1653     2.95707E-03     85.1674E-03         3.54694        -1.24715        -1.94765        -1.22884         2.82813        -1.24715     956.430E-03     29.2450E-03    -14.5797E-03    -14.6654E-03    -14.5970E-03     29.2079E-03    -14.6109E-03     2.52834E-03     23.5796E+06     19.3456E+06    -63.2542E+06     20.6577E+06    -60.6851E+06     19.6984E+06    -14.5200E+06         21.8849
            1654     3.94283E-03     85.1705E-03         3.09092        -1.23946        -1.49907        -1.19677         2.78862        -1.23946    -450.253E-03     29.2353E-03    -14.5601E-03    -14.6751E-03    -14.5876E-03     29.1791E-03    -14.5914E-03     3.12456E-03     24.8671E+06     15.6616E+06    -67.1392E+06     20.1648E+06    -62.4369E+06     15.6616E+06    -19.9395E+06         21.9439
            1655     4.92837E-03     85.1744E-03         2.89438        -1.22813        -1.31672        -1.18585         2.76587        -1.23050     381.760E-03     29.1493E-03    -14.5432E-03    -14.6064E-03    -14.5129E-03     29.0606E-03    -14.5480E-03     3.89667E-03     26.9690E+06     9.49262E+06    -69.0303E+06     19.6261E+06    -61.6873E+06     9.49262E+06    -25.3957E+06         22.0191
            1656     5.91400E-03     85.1790E-03         2.74607        -1.17405        -1.22174        -1.12162         2.69085        -1.21894    -101.262E-03     29.0839E-03    -14.4908E-03    -14.5929E-03    -14.4403E-03     28.9492E-03    -14.5087E-03     4.81661E-03     27.9943E+06     5.18041E+06    -72.7278E+06     18.5984E+06    -63.3320E+06     5.18041E+06    -29.2214E+06         22.1112
            1657     6.90017E-03     85.1849E-03         2.64280        -1.08719        -1.20180        -1.05889         2.61450        -1.20180     199.885E-03     29.1438E-03    -14.4547E-03    -14.6881E-03    -14.4829E-03     28.9516E-03    -14.4678E-03     5.76345E-03     27.8127E+06    -1.05318E+06    -78.9711E+06     16.4276E+06    -67.5860E+06    -1.05318E+06    -32.9036E+06         22.2597
            1658     7.88588E-03     85.1908E-03         2.57868        -1.03822        -1.18310        -1.02612         2.56659        -1.18310    -1.61481E-03     29.1922E-03    -14.4273E-03    -14.7646E-03    -14.5100E-03     28.9376E-03    -14.4273E-03     6.66060E-03     25.8490E+06    -10.1422E+06    -86.9898E+06     13.2831E+06    -74.4239E+06    -10.1422E+06    -35.4681E+06         22.6119
            1659     8.87170E-03     85.1988E-03         2.51117    -991.238E-03        -1.16471    -984.412E-03         2.50435        -1.16471     133.100E-03     29.1324E-03    -14.3707E-03    -14.7629E-03    -14.4571E-03     28.8266E-03    -14.3707E-03     7.29514E-03     25.7687E+06    -20.0874E+06    -86.6529E+06     11.2558E+06    -72.1400E+06    -20.0874E+06    -37.5066E+06         23.3334
            1660     9.85759E-03     85.2053E-03         2.41229    -912.719E-03        -1.14452    -909.754E-03         2.40933        -1.14452     43.2173E-03     29.1379E-03    -14.3351E-03    -14.8056E-03    -14.4229E-03     28.7552E-03    -14.3351E-03     8.14368E-03     25.8488E+06    -26.6380E+06    -87.5097E+06     9.82106E+06    -71.4820E+06    -26.6380E+06    -39.4034E+06         24.4651
            1661     10.8437E-03     85.2155E-03         2.31528    -834.782E-03        -1.12132    -832.573E-03         2.31308        -1.12132     100.021E-03     29.1330E-03    -14.2819E-03    -14.8547E-03    -14.4047E-03     28.6831E-03    -14.2819E-03     8.85068E-03     23.1039E+06    -39.6239E+06    -93.4439E+06     8.32703E+06    -78.6670E+06    -39.6239E+06    -38.6802E+06         26.1925
            1662     11.8297E-03     85.2233E-03         2.22506    -767.104E-03        -1.09627    -765.945E-03         2.22390        -1.09627     61.5265E-03     29.0556E-03    -14.1957E-03    -14.8629E-03    -14.2190E-03     28.4117E-03    -14.1957E-03     10.4454E-03     21.0203E+06    -56.5257E+06    -89.8562E+06     6.03236E+06    -74.8683E+06    -56.5257E+06    -37.7578E+06         28.9346
            1663     12.8162E-03     85.2367E-03         2.11989    -687.139E-03        -1.06983    -686.069E-03         2.11882        -1.06983     79.5321E-03     29.0665E-03    -14.1005E-03    -14.9662E-03    -14.1261E-03     28.2264E-03    -14.1005E-03     12.0424E-03     18.9769E+06    -71.8941E+06    -86.7065E+06     3.24522E+06    -67.7231E+06    -75.1457E+06    -36.8729E+06         32.9521
            1664     13.8026E-03     85.2481E-03         1.99921    -594.991E-03        -1.04172    -594.290E-03         1.99851        -1.04172     55.5850E-03     29.7441E-03    -13.9818E-03    -15.7602E-03    -13.9447E-03     27.9286E-03    -13.9818E-03     17.1009E-03     13.0463E+06    -81.8402E+06    -101.640E+06     778.627E+03    -69.5725E+06    -101.640E+06    -31.4974E+06         38.2726
            1665     14.7897E-03     85.2715E-03         1.89798    -516.809E-03        -1.01559    -516.032E-03         1.89720        -1.01559     71.7950E-03     45.0520E-03    -13.8781E-03    -31.1704E-03    -15.0707E-03     28.9524E-03    -13.8781E-03     58.3059E-03     31.6289E+06    -46.1686E+06    -110.693E+06    -2.58294E+06    -11.9568E+06    -110.693E+06    -22.3560E+06         44.6791
            1666     15.7748E-03     85.3711E-03         1.81726    -446.317E-03        -1.00612    -446.078E-03         1.81702        -1.00612     42.6483E-03     131.486E-03    -13.8228E-03    -117.661E-03    -24.9371E-03     38.7621E-03    -13.8228E-03     239.436E-03     96.0646E+06    -9.89389E+06    -78.5143E+06    -7.01457E+06     93.1852E+06    -78.5143E+06    -12.2894E+06         51.3376
            1667     16.7798E-03     85.7752E-03         1.74675    -358.891E-03        -1.02127    -358.673E-03         1.74653        -1.02127     37.9527E-03     213.903E-03    -14.0262E-03    -199.879E-03    -36.9907E-03     51.0150E-03    -14.0262E-03     404.279E-03     180.264E+06     34.5566E+06    -30.1532E+06    -9.21273E+06     179.968E+06     13.9123E+06    -6.01475E+06         56.7942
            1668     985.647E-06     86.1927E-03         7.37924    -260.208E-03        -6.77867        -2.71233         3.31290    -260.208E-03         5.19353     29.4662E-03    -14.5478E-03    -14.9182E-03    -14.9064E-03     29.4543E-03    -14.5478E-03     1.43545E-03     29.1131E+06     26.6544E+06    -82.2815E+06     26.3564E+06    -81.5128E+06     28.6424E+06    -7.91192E+06         21.8293
            1669     1.97117E-03     86.1944E-03         4.75013        -1.47712        -2.91854        -1.44031         3.27190        -1.47712        -1.61089     29.6825E-03    -14.7520E-03    -14.9306E-03    -14.9111E-03     29.6630E-03    -14.7520E-03     1.82332E-03     31.9521E+06     27.1111E+06    -60.0465E+06     29.2468E+06    -58.3371E+06     28.1069E+06    -12.1868E+06         21.8567
            1670     2.95637E-03     86.1964E-03         3.83685        -1.46189        -2.01037        -1.42271         3.24919        -1.46189     907.564E-03     29.5081E-03    -14.7185E-03    -14.7898E-03    -14.7132E-03     29.4680E-03    -14.7551E-03     2.60783E-03     31.3800E+06     23.1885E+06    -54.2773E+06     28.6728E+06    -51.5700E+06     23.1885E+06    -14.7915E+06         21.8954
            1671     3.94208E-03     86.2002E-03         3.46731        -1.45122        -1.65258        -1.41287         3.22760        -1.45122    -403.532E-03     29.3698E-03    -14.6531E-03    -14.7171E-03    -14.6079E-03     29.3104E-03    -14.7029E-03     3.21940E-03     31.9367E+06     18.1108E+06    -55.6968E+06     27.0336E+06    -50.7937E+06     18.1108E+06    -19.7861E+06         21.9515
            1672     4.92790E-03     86.2035E-03         3.28985        -1.42221        -1.50553        -1.38374         3.18726        -1.44142     381.033E-03     29.2490E-03    -14.5765E-03    -14.6727E-03    -14.5180E-03     29.1592E-03    -14.6414E-03     3.92156E-03     32.8211E+06     12.8146E+06    -58.2218E+06     24.7843E+06    -50.1850E+06     12.8146E+06    -25.7126E+06         22.0256
            1673     5.91385E-03     86.2083E-03         3.14210        -1.35997        -1.42731        -1.31649         3.09862        -1.42731    -82.1695E-03     29.1495E-03    -14.5248E-03    -14.6245E-03    -14.4154E-03     29.0052E-03    -14.5895E-03     4.98572E-03     32.6057E+06     8.57303E+06    -64.7943E+06     22.2359E+06    -54.4246E+06     8.57303E+06    -30.0255E+06         22.1164
            1674     6.89971E-03     86.2134E-03         3.04379        -1.27943        -1.40840        -1.25783         3.02219        -1.40840     226.471E-03     29.2010E-03    -14.5276E-03    -14.6735E-03    -14.4572E-03     28.9978E-03    -14.5407E-03     5.94174E-03     32.0850E+06     3.70286E+06    -71.0973E+06     20.3028E+06    -59.3151E+06     3.70286E+06    -32.8018E+06         22.2591
            1675     7.88548E-03     86.2206E-03         2.96065        -1.21168        -1.38735        -1.20297         2.95195        -1.38735     36.3017E-03     29.2213E-03    -14.4992E-03    -14.7222E-03    -14.4772E-03     28.9763E-03    -14.4992E-03     6.53427E-03     31.5867E+06    -2.99315E+06    -79.8608E+06     18.5070E+06    -66.7811E+06    -2.99315E+06    -35.8594E+06         22.5976
            1676     8.87166E-03     86.2266E-03         2.86983        -1.14083        -1.36442        -1.13537         2.86438        -1.36442     163.017E-03     29.1586E-03    -14.4268E-03    -14.7334E-03    -14.4296E-03     28.8547E-03    -14.4268E-03     7.25039E-03     30.8818E+06    -14.4834E+06    -80.4398E+06     15.4129E+06    -64.9708E+06    -14.4834E+06    -38.3214E+06         23.3040
            1677     9.85729E-03     86.2355E-03         2.75992        -1.05328        -1.33872        -1.05071         2.75736        -1.33872     87.5429E-03     29.1156E-03    -14.3852E-03    -14.7340E-03    -14.3415E-03     28.7231E-03    -14.3852E-03     8.24741E-03     29.2352E+06    -21.2533E+06    -82.8053E+06     11.9815E+06    -65.5515E+06    -21.2533E+06    -40.4098E+06         24.4238
            1678     10.8432E-03     86.2429E-03         2.65546    -970.302E-03        -1.31028    -967.942E-03         2.65310        -1.31028     146.283E-03     29.1452E-03    -14.3209E-03    -14.8289E-03    -14.3344E-03     28.6507E-03    -14.3209E-03     9.24149E-03     27.4995E+06    -35.2437E+06    -92.3873E+06     10.3654E+06    -75.2532E+06    -35.2437E+06    -41.7997E+06         26.1376
            1679     11.8293E-03     86.2534E-03         2.54452    -888.895E-03        -1.28006    -887.718E-03         2.54335        -1.28006     101.452E-03     29.1644E-03    -14.2265E-03    -14.9420E-03    -14.2905E-03     28.5129E-03    -14.2265E-03     10.5923E-03     26.5764E+06    -52.9161E+06    -88.9482E+06     9.21298E+06    -71.5848E+06    -52.9161E+06    -41.0906E+06         28.8597
            1680     12.8156E-03     86.2637E-03         2.40344    -783.478E-03        -1.24770    -782.284E-03         2.40225        -1.24770     105.705E-03     29.0776E-03    -14.1357E-03    -14.9421E-03    -14.0572E-03     28.1928E-03    -14.1357E-03     12.3045E-03     22.8023E+06    -70.1702E+06    -85.5369E+06     5.78290E+06    -67.4039E+06    -71.2839E+06    -39.1616E+06         32.8611
            1681     13.8021E-03     86.2780E-03         2.25557    -669.700E-03        -1.21279    -668.566E-03         2.25444        -1.21279     96.9486E-03     30.1374E-03    -14.0238E-03    -16.1136E-03    -14.2394E-03     28.2631E-03    -14.0238E-03     17.7643E-03     15.6115E+06    -86.8411E+06    -99.5965E+06     1.33416E+06    -72.9898E+06    -99.1705E+06    -35.4580E+06         38.1916
            1682     14.7875E-03     86.2990E-03         2.13598    -584.282E-03        -1.17956    -583.034E-03         2.13473        -1.17956     108.293E-03     45.3050E-03    -13.9171E-03    -31.3852E-03    -14.7226E-03     28.6424E-03    -13.9171E-03     58.8202E-03     27.0320E+06    -51.7042E+06    -110.131E+06    -1.66302E+06    -23.0092E+06    -110.131E+06    -26.3695E+06         44.6435
            1683     15.7783E-03     86.3987E-03         2.03064    -492.343E-03        -1.16158    -492.053E-03         2.03035        -1.16158     46.4459E-03     128.848E-03    -13.8934E-03    -114.950E-03    -26.3047E-03     40.2021E-03    -13.8934E-03     233.724E-03     87.8128E+06    -9.57753E+06    -82.2867E+06    -3.72499E+06     81.9603E+06    -82.2867E+06    -13.9482E+06         51.3512
            1684     16.7534E-03     86.7897E-03         1.93490    -382.928E-03        -1.16634    -382.750E-03         1.93472        -1.16634     29.7834E-03     216.125E-03    -14.0947E-03    -202.030E-03    -37.2633E-03     51.3574E-03    -14.0947E-03     408.510E-03     176.449E+06     27.5067E+06    -27.4580E+06    -1.66641E+06     176.156E+06     2.00810E+06    -4.78120E+06         56.8423
            1685     985.557E-06     87.2224E-03         7.24965    -585.731E-03        -6.30962        -2.75516         3.69518    -585.731E-03         4.85758     29.7026E-03    -14.6501E-03    -15.0524E-03    -14.8568E-03     29.6878E-03    -14.8309E-03     1.44692E-03     44.3840E+06     39.7968E+06    -64.6280E+06     40.8000E+06    -63.9507E+06     42.7035E+06    -7.66538E+06         21.8414
            1686     1.97079E-03     87.2243E-03         4.90352        -1.67065        -2.86452        -1.66980         3.70880        -1.67065        -1.50395     29.7210E-03    -14.7935E-03    -14.9276E-03    -14.8587E-03     29.6944E-03    -14.8359E-03     2.15025E-03     41.1174E+06     34.7586E+06    -51.7030E+06     36.9592E+06    -50.3040E+06     37.5177E+06    -10.4959E+06         21.8653
            1687     2.95634E-03     87.2264E-03         4.15614        -1.66888        -2.11094        -1.65666         3.70186        -1.66888     802.920E-03     29.6430E-03    -14.7789E-03    -14.8646E-03    -14.8120E-03     29.5956E-03    -14.7841E-03     2.83097E-03     37.8596E+06     26.5998E+06    -44.7399E+06     34.7898E+06    -41.6702E+06     26.5998E+06    -15.2241E+06         21.9015
            1688     3.94194E-03     87.2294E-03         3.80278        -1.64821        -1.77962        -1.58482         3.61804        -1.65827    -414.520E-03     29.4446E-03    -14.6928E-03    -14.7525E-03    -14.6359E-03     29.3699E-03    -14.7346E-03     3.61705E-03     38.4737E+06     21.2636E+06    -45.0596E+06     33.0366E+06    -39.6224E+06     21.2636E+06    -20.4923E+06         21.9563
            1689     4.92753E-03     87.2331E-03         3.62471        -1.58881        -1.66393        -1.53735         3.54889        -1.63957     335.888E-03     29.3299E-03    -14.6072E-03    -14.7231E-03    -14.5329E-03     29.2280E-03    -14.6954E-03     4.19841E-03     38.9341E+06     21.0019E+06    -48.2019E+06     30.9568E+06    -40.2245E+06     21.0019E+06    -25.0210E+06         22.0295
            1690     5.91346E-03     87.2371E-03         3.52820        -1.53805        -1.62068        -1.50677         3.49692        -1.62068    -83.2262E-03     29.3232E-03    -14.6061E-03    -14.7173E-03    -14.5122E-03     29.1698E-03    -14.6578E-03     5.15025E-03     39.3135E+06     19.2297E+06    -54.9885E+06     28.8276E+06    -44.5027E+06     19.2297E+06    -29.6301E+06         22.1190
            1691     6.89923E-03     87.2432E-03         3.43773        -1.46963        -1.60171        -1.45493         3.42304        -1.60171     206.065E-03     29.2827E-03    -14.5965E-03    -14.6869E-03    -14.4706E-03     29.0664E-03    -14.5965E-03     6.13474E-03     37.8208E+06     10.5262E+06    -64.0006E+06     25.6351E+06    -51.8149E+06     10.5262E+06    -33.0367E+06         22.2555
            1692     7.88518E-03     87.2491E-03         3.31095        -1.36503        -1.57864        -1.35913         3.30505        -1.57864     39.0948E-03     29.2362E-03    -14.5461E-03    -14.6911E-03    -14.4263E-03     28.9715E-03    -14.5461E-03     6.77605E-03     35.4267E+06     3.30417E+06    -71.8294E+06     22.2449E+06    -58.6477E+06     3.30417E+06    -35.2014E+06         22.5800
            1693     8.87065E-03     87.2564E-03         3.19003        -1.27009        -1.55034        -1.26624         3.18618        -1.55034     149.621E-03     29.0819E-03    -14.4647E-03    -14.6189E-03    -14.2825E-03     28.7455E-03    -14.4647E-03     7.58695E-03     35.0858E+06    -7.30060E+06    -73.0067E+06     19.1057E+06    -57.0265E+06    -7.30060E+06    -38.1330E+06         23.2711
            1694     9.85716E-03     87.2635E-03         3.08195        -1.18820        -1.51922        -1.18643         3.08019        -1.51922     83.0700E-03     28.9804E-03    -14.3926E-03    -14.5909E-03    -14.1563E-03     28.5458E-03    -14.3926E-03     8.63611E-03     34.2631E+06    -16.4970E+06    -76.8893E+06     16.0931E+06    -58.7193E+06    -16.4970E+06    -41.0378E+06         24.3794
            1695     10.8437E-03     87.2723E-03         2.97129        -1.10153        -1.48642        -1.09977         2.96953        -1.48642     146.160E-03     29.0947E-03    -14.3082E-03    -14.7907E-03    -14.2380E-03     28.5420E-03    -14.3082E-03     9.76061E-03     31.5436E+06    -32.5458E+06    -88.3438E+06     12.5593E+06    -69.3595E+06    -32.5458E+06    -43.7312E+06         26.0798
            1696     11.8295E-03     87.2816E-03         2.82333    -988.475E-03        -1.45110    -987.802E-03         2.82266        -1.45110     91.0026E-03     29.1693E-03    -14.2017E-03    -14.9715E-03    -14.2490E-03     28.4468E-03    -14.2017E-03     11.1646E-03     29.1916E+06    -53.2288E+06    -89.2064E+06     9.33340E+06    -69.3481E+06    -53.2288E+06    -44.1897E+06         28.7819
            1697     12.8158E-03     87.2928E-03         2.66484    -870.741E-03        -1.41266    -870.102E-03         2.66421        -1.41266     83.3035E-03     29.1757E-03    -14.1280E-03    -15.0486E-03    -14.1049E-03     28.2321E-03    -14.1280E-03     12.7365E-03     25.1029E+06    -68.9330E+06    -85.5737E+06     6.88750E+06    -67.3584E+06    -68.9330E+06    -40.9710E+06         32.7668
            1698     13.8027E-03     87.3052E-03         2.52152    -764.259E-03        -1.37232    -763.575E-03         2.52083        -1.37232     81.3669E-03     30.2109E-03    -14.0238E-03    -16.1879E-03    -14.0918E-03     28.1149E-03    -14.0238E-03     18.6991E-03     17.4029E+06    -87.0730E+06    -97.5529E+06     2.19187E+06    -74.0430E+06     -95.372E+06    -37.2198E+06         38.1080
            1699     14.7895E-03     87.3298E-03         2.36936    -650.833E-03        -1.33349    -650.054E-03         2.36858        -1.33349     90.4364E-03     45.3259E-03    -13.9332E-03    -31.3907E-03    -14.9589E-03     28.8942E-03    -13.9332E-03     59.1818E-03     22.7806E+06    -58.5500E+06    -107.268E+06    -3.41191E+06    -32.3575E+06    -107.268E+06    -30.8223E+06         44.6029
            1700     15.7736E-03     87.4236E-03         2.22338    -522.117E-03        -1.30727    -521.931E-03         2.22319        -1.30727     36.4118E-03     130.569E-03    -13.8331E-03    -116.733E-03    -25.7971E-03     39.6337E-03    -13.8331E-03     237.310E-03     75.5520E+06    -12.8512E+06    -89.6189E+06    -3.36625E+06     66.0670E+06    -89.6189E+06    -18.2989E+06         51.3680
            1701     16.7703E-03     87.8300E-03         2.11179    -411.720E-03        -1.30174    -411.698E-03         2.11177        -1.30174     12.1187E-03     219.125E-03    -13.9486E-03    -205.177E-03    -37.7465E-03     51.6949E-03    -13.9486E-03     414.580E-03     168.527E+06     27.6325E+06    -37.0027E+06     75.8363E+03     167.798E+06    -8.71647E+06    -6.39074E+06         56.9020
            1702     985.410E-06     88.2518E-03         7.06659    -948.414E-03        -5.74190        -2.80455         4.12925    -948.414E-03         4.38481     29.5604E-03    -14.5596E-03    -15.0005E-03    -14.8015E-03     29.5422E-03    -14.7404E-03     1.63191E-03     50.4778E+06     42.0632E+06    -55.7133E+06     42.9303E+06    -55.3707E+06     49.2680E+06    -3.90064E+06         21.8370
            1703     1.97137E-03     88.2543E-03         5.03369        -1.87398        -2.78207        -1.86264         4.11426        -1.87398        -1.36307     29.6487E-03    -14.7552E-03    -14.8936E-03    -14.8195E-03     29.6170E-03    -14.7976E-03     2.35675E-03     51.6922E+06     45.2169E+06    -40.8706E+06     46.2690E+06    -39.8774E+06     49.6470E+06    -8.54894E+06         21.8649
            1704     2.95667E-03     88.2561E-03         4.43373        -1.86838        -2.18199        -1.84911         4.10085        -1.86838     699.941E-03     29.5407E-03    -14.7226E-03    -14.8187E-03    -14.7447E-03     29.4942E-03    -14.7501E-03     2.84474E-03     49.7752E+06     39.8696E+06    -31.9227E+06     45.7981E+06    -28.5235E+06     40.4477E+06    -15.4412E+06         21.9041
            1705     3.94219E-03     88.2591E-03         4.11675        -1.83141        -1.90166        -1.74577         3.98180        -1.85235    -391.342E-03     29.3512E-03    -14.6399E-03    -14.7116E-03    -14.5737E-03     29.2673E-03    -14.6937E-03     3.77153E-03     49.4368E+06     33.5954E+06    -34.9395E+06     43.7559E+06    -29.2587E+06     33.5954E+06    -21.0671E+06         21.9585
            1706     4.92818E-03     88.2622E-03         3.96065        -1.75099        -1.82691        -1.69942         3.90908        -1.82691     307.020E-03     29.3709E-03    -14.6236E-03    -14.7474E-03    -14.5898E-03     29.2397E-03    -14.6500E-03     4.78314E-03     46.9429E+06     29.4669E+06    -39.6557E+06     39.7669E+06    -32.4798E+06     29.4669E+06    -23.6799E+06         22.0298
            1707     5.91354E-03     88.2670E-03         3.87432        -1.69222        -1.80392        -1.67167         3.85377        -1.80392    -59.1640E-03     29.4465E-03    -14.6314E-03    -14.8155E-03    -14.6297E-03     29.2607E-03    -14.6314E-03     5.69103E-03     44.7114E+06     27.1438E+06    -43.3034E+06     35.2253E+06    -33.8173E+06     27.1438E+06    -27.2618E+06         22.1171
            1708     6.89935E-03     88.2719E-03         3.78084        -1.62222        -1.78170        -1.61225         3.77087        -1.78170     177.953E-03     29.2882E-03    -14.5898E-03    -14.6985E-03    -14.4520E-03     29.0417E-03    -14.5898E-03     6.55209E-03     42.8972E+06     18.7273E+06    -55.5319E+06     31.5641E+06    -44.1988E+06     18.7273E+06    -31.3978E+06         22.2466
            1709     7.88529E-03     88.2786E-03         3.64716        -1.51515        -1.75534        -1.51128         3.64328        -1.75534     26.0597E-03     29.0306E-03    -14.4749E-03    -14.5563E-03    -14.2102E-03     28.7109E-03    -14.5013E-03     7.40902E-03     40.8693E+06     6.53427E+06    -63.7252E+06     28.1950E+06    -51.0509E+06     6.53427E+06    -34.1083E+06         22.5568
            1710     8.87180E-03     88.2848E-03         3.51589        -1.41432        -1.72383        -1.41189         3.51346        -1.72383     123.259E-03     28.9168E-03    -14.3680E-03    -14.5496E-03    -14.1221E-03     28.5156E-03    -14.3944E-03     8.29908E-03     39.8755E+06    -5.37856E+06    -64.2481E+06     23.8261E+06    -48.1988E+06    -5.37856E+06    -37.3699E+06         23.2332
            1711     9.85795E-03     88.2922E-03         3.38678        -1.31495        -1.68894        -1.31383         3.38565        -1.68894     67.8125E-03     28.9891E-03    -14.3179E-03    -14.6730E-03    -14.1664E-03     28.4824E-03    -14.3179E-03     9.32461E-03     38.6301E+06    -15.3741E+06    -69.7296E+06     19.4242E+06    -50.5237E+06    -15.3741E+06    -41.3656E+06         24.3302
            1712     10.8438E-03     88.3009E-03         3.24191        -1.20184        -1.65103        -1.20074         3.24081        -1.65103     114.423E-03     28.9802E-03    -14.2435E-03    -14.7410E-03    -14.1332E-03     28.3724E-03    -14.2435E-03     10.2284E-03     35.6060E+06    -30.2400E+06    -82.5536E+06     15.7154E+06    -62.6630E+06    -30.2400E+06    -44.1967E+06         26.0173
            1713     11.8305E-03     88.3102E-03         3.07751        -1.07985        -1.60989        -1.07961         3.07727        -1.60989     55.0312E-03     28.9624E-03    -14.1330E-03    -14.8338E-03    -14.0358E-03     28.1644E-03    -14.1330E-03     11.6520E-03     30.4742E+06    -52.0353E+06    -87.4358E+06     10.4609E+06    -67.4225E+06    -52.0353E+06    -44.2253E+06         28.6998
            1714     12.8169E-03     88.3212E-03         2.92523    -970.410E-03        -1.56646    -970.160E-03         2.92498        -1.56646     59.8068E-03     29.2275E-03    -14.0494E-03    -15.1799E-03    -14.1153E-03     28.1629E-03    -14.0494E-03     13.5502E-03     24.0784E+06    -70.5288E+06    -86.3649E+06     4.24055E+06    -66.5270E+06    -70.5288E+06    -42.3287E+06         32.6681
            1715     13.8026E-03     88.3340E-03         2.76186    -846.225E-03        -1.52152    -845.977E-03         2.76161        -1.52152     56.0932E-03     30.4725E-03    -13.9814E-03    -16.4930E-03    -14.3275E-03     28.3070E-03    -13.9814E-03     19.1790E-03     15.5992E+06    -89.7718E+06    -96.4672E+06    -1.10408E+06    -75.7121E+06    -93.8236E+06    -38.7533E+06         38.0185
            1716     14.7898E-03     88.3568E-03         2.57064    -698.126E-03        -1.47662    -697.833E-03         2.57035        -1.47662     59.5210E-03     45.1067E-03    -13.8686E-03    -31.2390E-03    -14.2775E-03     28.1453E-03    -13.8686E-03     59.3415E-03     23.8008E+06    -64.8736E+06    -108.353E+06     -4.3083E+06    -36.7646E+06    -108.353E+06    -34.2486E+06         44.5590
            1717     15.7781E-03     88.4553E-03         2.40157    -554.489E-03        -1.44210    -554.367E-03         2.40145        -1.44210     30.9751E-03     127.533E-03    -13.7062E-03    -113.825E-03    -24.6761E-03     38.3837E-03    -13.7062E-03     232.044E-03     65.5721E+06    -22.1822E+06    -102.606E+06    -7.46031E+06     50.8502E+06    -102.606E+06    -26.6253E+06         51.3811
            1718     16.7754E-03     88.8387E-03         2.27402    -436.121E-03        -1.42654    -436.078E-03         2.27398        -1.42654     18.4274E-03     216.512E-03    -13.8944E-03    -202.617E-03    -38.8771E-03     52.7725E-03    -13.8944E-03     408.857E-03     154.770E+06     21.2666E+06    -47.7664E+06    -4.48942E+06     152.490E+06    -19.7297E+06    -12.1013E+06         56.9477
            1719     986.191E-06     89.2825E-03         6.87592        -1.26859        -5.21929        -2.90838         4.56502        -1.26859         3.87889     29.2586E-03    -14.3612E-03    -14.8975E-03    -14.7743E-03     29.2393E-03    -14.4651E-03     1.79109E-03     57.0678E+06     48.6353E+06    -48.3873E+06     52.3650E+06    -48.1303E+06     53.0810E+06    -2.86255E+06         21.8200
            1720     1.97111E-03     89.2833E-03         5.13253        -2.06970        -2.67811        -1.99376         4.44818        -2.06970        -1.16496     29.5008E-03    -14.6058E-03    -14.8951E-03    -14.8075E-03     29.4702E-03    -14.6628E-03     2.31108E-03     57.4264E+06     54.3007E+06    -29.8157E+06     54.5519E+06    -28.6121E+06     55.9717E+06    -9.25212E+06         21.8527
            1721     2.95687E-03     89.2866E-03         4.62907        -2.03771        -2.20305        -1.95772         4.38373        -2.03771     667.620E-03     29.1883E-03    -14.5294E-03    -14.6588E-03    -14.4972E-03     29.1414E-03    -14.6442E-03     2.82766E-03     59.2485E+06     51.1324E+06    -19.7138E+06     55.2516E+06    -16.2949E+06     51.7104E+06    -15.3684E+06         21.8968
            1722     3.94299E-03     89.2876E-03         4.42922        -2.00368        -2.03918        -1.93312         4.33404        -2.01456    -271.368E-03     29.1464E-03    -14.5102E-03    -14.6357E-03    -14.4875E-03     29.0590E-03    -14.5710E-03     3.83633E-03     56.7470E+06     43.2360E+06    -25.3788E+06     51.7784E+06    -20.4102E+06     43.2360E+06    -19.5330E+06         21.9519
            1723     4.92875E-03     89.2922E-03         4.31825        -1.92515        -2.00594        -1.89727         4.27954        -1.99512     325.812E-03     29.1838E-03    -14.5200E-03    -14.6636E-03    -14.5170E-03     29.0403E-03    -14.5231E-03     4.98336E-03     54.4234E+06     36.3305E+06    -30.3407E+06     48.0787E+06    -23.9960E+06     36.3305E+06    -22.0974E+06         22.0197
            1724     5.91468E-03     89.2960E-03         4.18844        -1.83129        -1.97303        -1.81726         4.17441        -1.97303    -25.2984E-03     29.1526E-03    -14.4947E-03    -14.6581E-03    -14.4447E-03     28.9391E-03    -14.4947E-03     6.06730E-03     53.0302E+06      33.055E+06    -32.7984E+06     44.8156E+06    -24.5837E+06      33.055E+06    -25.2268E+06         22.1031
            1725     6.90019E-03     89.3018E-03         4.07567        -1.74673        -1.94604        -1.73902         4.06796        -1.94604     157.587E-03     29.0738E-03    -14.4599E-03    -14.6132E-03    -14.3219E-03     28.7825E-03    -14.4599E-03     7.08810E-03     50.4704E+06     26.7745E+06    -45.9935E+06     41.0017E+06    -36.5249E+06     26.7745E+06    -28.6561E+06         22.2269
            1726     7.88649E-03     89.3065E-03         3.95532        -1.65709        -1.91574        -1.65395         3.95218        -1.91574     27.6714E-03     28.8617E-03    -14.3332E-03    -14.5283E-03    -14.1370E-03     28.4968E-03    -14.3595E-03     7.90314E-03     48.3327E+06     11.8279E+06    -54.5769E+06     36.6594E+06    -42.9036E+06     11.8279E+06    -32.5319E+06         22.5254
            1727     8.87294E-03     89.3137E-03         3.82458        -1.55668        -1.88214        -1.55472         3.82263        -1.88214     131.351E-03     28.8129E-03    -14.2320E-03    -14.5800E-03    -14.0993E-03     28.3585E-03    -14.2584E-03     8.80758E-03     47.8010E+06    -205.039E+03    -54.7353E+06     32.4802E+06    -39.4145E+06    -205.039E+03    -36.3905E+06         23.1883
            1728     9.85897E-03     89.3208E-03         3.66493        -1.43055        -1.84427        -1.42954         3.66392        -1.84427     84.0181E-03     28.8160E-03    -14.1984E-03    -14.6190E-03    -14.0519E-03     28.2489E-03    -14.1984E-03     9.83406E-03     45.1578E+06    -8.45269E+06    -60.2158E+06     26.8800E+06    -41.9381E+06    -8.45269E+06    -39.8816E+06         24.2745
            1729     10.8455E-03     89.3296E-03         3.49293        -1.29380        -1.80155        -1.29280         3.49193        -1.80155     110.031E-03     28.8041E-03    -14.1258E-03    -14.6840E-03    -13.9652E-03     28.0853E-03    -14.1258E-03     11.0456E-03     38.4866E+06    -24.4013E+06    -75.7484E+06     19.8382E+06       -57.1E+06    -24.4013E+06    -42.1298E+06         25.9490
            1730     11.8316E-03     89.3380E-03         3.32502        -1.17231        -1.75539        -1.17214         3.32485        -1.75539     47.3935E-03     28.9186E-03    -14.0161E-03    -14.9085E-03    -13.9915E-03     28.0016E-03    -14.0161E-03     12.5020E-03     32.4245E+06    -47.1675E+06    -82.7303E+06     13.1476E+06    -63.4534E+06    -47.1675E+06    -42.8136E+06         28.6127
            1731     12.8185E-03     89.3497E-03         3.15049        -1.04908        -1.70720        -1.04868         3.15008        -1.70720     78.5166E-03     29.0261E-03    -13.9161E-03    -15.1128E-03    -13.9059E-03     27.8192E-03    -13.9161E-03     14.3518E-03     25.9836E+06    -69.6678E+06    -84.9688E+06     6.48830E+06    -65.4735E+06    -69.6678E+06    -42.0046E+06         32.5653
            1732     13.8054E-03     89.3626E-03         2.95549    -898.282E-03        -1.65667    -897.820E-03         2.95503        -1.65667     80.3124E-03     30.8552E-03    -13.8373E-03    -17.0188E-03    -14.3323E-03     28.1687E-03    -13.8373E-03     21.3988E-03     18.0488E+06    -89.0563E+06    -99.3505E+06     365.797E+03    -75.3258E+06    -95.3980E+06    -40.3063E+06         37.9267
            1733     14.7893E-03     89.3870E-03         2.76151    -749.674E-03        -1.60547    -749.068E-03         2.76090        -1.60547     83.3300E-03     44.1007E-03    -13.7280E-03    -30.3728E-03    -13.7829E-03     27.5107E-03    -13.7280E-03     58.3039E-03     23.5964E+06    -68.3054E+06    -110.041E+06    -4.62761E+06    -40.0813E+06    -110.041E+06    -37.7098E+06         44.5143
            1734     15.7824E-03     89.4744E-03         2.58447    -604.672E-03        -1.56402    -604.253E-03         2.58405        -1.56402     53.9770E-03     129.615E-03    -13.6978E-03    -115.914E-03    -29.3997E-03     43.1005E-03    -13.6978E-03     234.128E-03     62.9143E+06    -27.1802E+06    -103.072E+06    -7.24614E+06     42.9802E+06    -103.072E+06    -31.5650E+06         51.3800
            1735     16.7513E-03     89.8770E-03         2.41559    -453.832E-03        -1.53859    -453.606E-03         2.41537        -1.53859     38.4001E-03     216.293E-03    -13.9988E-03    -202.292E-03    -39.1640E-03     53.1646E-03    -13.9988E-03     407.710E-03     141.507E+06     12.9443E+06    -51.7658E+06    -7.05448E+06     137.294E+06    -27.5536E+06    -18.4982E+06         56.9775
            1736     986.202E-06     90.3109E-03         6.73201        -1.52309        -4.82408        -2.94410         4.85202        -1.52309         3.48726     29.0294E-03    -14.2551E-03    -14.7745E-03    -14.4653E-03     29.0103E-03    -14.5452E-03     1.72458E-03     62.5650E+06     56.1341E+06    -37.6809E+06     61.8605E+06    -37.2467E+06     56.4044E+06    -5.93959E+06         21.7968
            1737     1.97158E-03     90.3144E-03         5.23642        -2.21129        -2.64198        -2.12066         4.71511        -2.21129        -1.04800     28.8256E-03    -14.1972E-03    -14.6285E-03    -14.3516E-03     28.7919E-03    -14.4404E-03     2.40970E-03     61.4483E+06     54.8114E+06    -18.4687E+06     59.3487E+06    -16.3690E+06     54.8114E+06    -11.1455E+06         21.8269
            1738     2.95779E-03     90.3141E-03         4.83838        -2.17659        -2.28427        -2.10298         4.65709        -2.17659     588.051E-03     28.7674E-03    -14.3000E-03    -14.4671E-03    -14.3192E-03     28.7068E-03    -14.3872E-03     3.15972E-03     62.8065E+06     53.7182E+06    -10.8926E+06     59.2200E+06    -7.30599E+06     53.7182E+06    -15.6871E+06         21.8734
            1739     3.94372E-03     90.3181E-03         4.70729        -2.15136        -2.17823        -2.10391         4.63954        -2.15793    -248.876E-03     28.8704E-03    -14.3380E-03    -14.5319E-03    -14.3960E-03     28.7647E-03    -14.3682E-03     4.24046E-03     61.9422E+06     50.9453E+06    -16.2878E+06     57.7539E+06    -12.0995E+06     50.9453E+06    -17.5611E+06         21.9300
            1740     4.92941E-03     90.3204E-03         4.61934        -2.07971        -2.15442        -2.06302         4.59183        -2.14360     267.564E-03     28.7940E-03    -14.3240E-03    -14.4699E-03    -14.3021E-03     28.6262E-03    -14.3240E-03     5.31730E-03     61.4077E+06     42.7214E+06    -21.3577E+06     55.2068E+06    -15.1568E+06     42.7214E+06    -21.6447E+06         21.9948
            1741     5.91564E-03     90.3256E-03         4.48146        -1.97175        -2.12265        -1.96107         4.47078        -2.12265    -20.3593E-03     28.6342E-03    -14.2691E-03    -14.3655E-03    -14.1237E-03     28.3924E-03    -14.2691E-03     6.40549E-03     60.8149E+06     36.7264E+06    -25.0360E+06     52.9688E+06    -17.1899E+06     36.7264E+06    -24.7319E+06         22.0750
            1742     6.90252E-03     90.3296E-03         4.34943        -1.86681        -2.09324        -1.86081         4.34344        -2.09324     143.439E-03     28.6368E-03    -14.2390E-03    -14.3979E-03    -14.0943E-03     28.3332E-03    -14.2390E-03     7.19089E-03     59.1622E+06     34.2874E+06     -36.894E+06     50.4946E+06    -28.2264E+06     34.2874E+06    -27.5138E+06         22.1951
            1743     7.88854E-03     90.3360E-03         4.21569        -1.76943        -2.05910        -1.76678         4.21303        -2.05910     31.4456E-03     28.6782E-03    -14.1688E-03    -14.5098E-03    -14.1159E-03     28.2843E-03    -14.1688E-03     8.17640E-03     56.9830E+06     23.4176E+06    -44.7130E+06     46.5425E+06    -34.2726E+06     23.4176E+06    -30.7308E+06         22.4841
            1744     8.87440E-03     90.3414E-03         4.06971        -1.66481        -2.02172        -1.66313         4.06803        -2.02172     139.831E-03     28.6193E-03    -14.0773E-03    -14.5415E-03    -14.0104E-03     28.0882E-03    -14.0773E-03     9.48280E-03     54.3689E+06     9.28228E+06    -45.3265E+06     40.7077E+06    -31.6654E+06     9.28228E+06    -34.1103E+06         23.1351
            1745     9.86108E-03     90.3500E-03         3.90040        -1.53112        -1.98020        -1.53022         3.89950        -1.98020     96.8223E-03     28.4894E-03    -14.0243E-03    -14.4661E-03    -13.8361E-03     27.8594E-03    -14.0243E-03     10.3222E-03     49.5821E+06     769.536E+03    -51.5773E+06     34.0349E+06    -36.0301E+06     769.536E+03    -36.4163E+06         24.2115
            1746     10.8479E-03     90.3564E-03         3.72317        -1.39184        -1.93397        -1.39080         3.72212        -1.93397     131.936E-03     28.5874E-03    -13.9589E-03    -14.6335E-03    -13.8630E-03     27.8170E-03    -13.9589E-03     11.4031E-03     42.0565E+06    -14.3601E+06    -66.5688E+06     26.4369E+06    -50.9492E+06    -14.3601E+06    -38.0380E+06         25.8745
            1747     11.8347E-03     90.3674E-03         3.54055        -1.25457        -1.88413        -1.25418         3.54016        -1.88413     82.1119E-03     28.8028E-03    -13.8533E-03    -14.9556E-03    -13.9694E-03     27.8165E-03    -13.8533E-03     12.9696E-03     36.0337E+06    -38.7325E+06    -75.1724E+06     18.5449E+06    -57.6836E+06    -38.7325E+06    -40.2671E+06         28.5213
            1748     12.8204E-03     90.3770E-03         3.34024        -1.09863        -1.83092        -1.09807         3.33968        -1.83092     98.0711E-03     28.8996E-03    -13.7713E-03    -15.1313E-03    -13.9007E-03     27.6690E-03    -13.7713E-03     14.4840E-03     30.3255E+06    -61.2000E+06    -81.5096E+06     11.5888E+06    -62.7728E+06    -61.2000E+06    -41.5654E+06         32.4592
            1749     13.8080E-03     90.3902E-03         3.13402    -945.648E-03        -1.77472    -945.107E-03         3.13348        -1.77472     91.7439E-03     29.9442E-03    -13.6405E-03    -16.3013E-03    -13.3938E-03     27.0367E-03    -13.6405E-03     21.6301E-03     22.0285E+06    -83.2525E+06    -102.147E+06     4.82705E+06    -74.6507E+06    -93.5477E+06    -40.4494E+06         37.8357
            1750     14.7965E-03     90.4165E-03         2.93774    -802.595E-03        -1.71837    -801.876E-03         2.93702        -1.71837     98.0273E-03     43.5904E-03    -13.5230E-03    -30.0641E-03    -14.4188E-03     27.9452E-03    -13.5230E-03     57.9399E-03     25.3581E+06    -68.8068E+06    -111.128E+06    -3.86220E+06    -39.5865E+06    -111.128E+06    -38.2992E+06         44.4704
            1751     15.7806E-03     90.4981E-03         2.74223    -645.408E-03        -1.67077    -644.889E-03         2.74171        -1.67077     69.0018E-03     135.499E-03    -13.5532E-03    -121.943E-03    -31.5877E-03     45.1436E-03    -13.5532E-03     244.723E-03     60.3210E+06    -29.2754E+06    -102.385E+06    -6.95092E+06     37.9965E+06    -102.385E+06    -34.7267E+06         51.3920
            1752     16.7687E-03     90.9349E-03         2.54000    -473.791E-03        -1.63537    -473.526E-03         2.53973        -1.63537     47.0397E-03     213.776E-03    -13.8493E-03    -199.925E-03    -37.5593E-03     51.4103E-03    -13.8493E-03     403.468E-03     124.280E+06     13.4778E+06    -51.6365E+06    -4.22708E+06     117.955E+06    -27.6063E+06    -23.7424E+06         57.0361
            1753     984.867E-06     91.3407E-03         6.51288        -1.74215        -4.39446        -2.91388         5.03230        -1.74215         2.96095     28.5537E-03    -14.0468E-03    -14.5072E-03    -14.2887E-03     28.5370E-03    -14.2487E-03     1.54915E-03     74.1189E+06     68.3417E+06    -26.7234E+06     69.7048E+06    -25.9127E+06     71.9451E+06    -8.68603E+06         21.7639
            1754     1.97286E-03     91.3414E-03         5.36355        -2.31797        -2.67184        -2.27774         4.96945        -2.31797    -973.140E-03     28.0833E-03    -13.9135E-03    -14.1701E-03    -13.8919E-03     28.0458E-03    -14.1542E-03     2.48632E-03     76.4549E+06     66.7751E+06    -5.12087E+06     73.6292E+06    -2.79616E+06     67.2761E+06    -12.3735E+06         21.7888
            1755     2.95887E-03     91.3443E-03         5.11173        -2.30793        -2.43258        -2.30661         4.98576        -2.30793     494.216E-03     28.2362E-03    -14.0220E-03    -14.2144E-03    -14.1036E-03     28.1643E-03    -14.0609E-03     3.43240E-03     74.6132E+06     62.2453E+06    -2.78283E+06     70.7854E+06     1.04490E+06     62.2453E+06    -16.6235E+06         21.8342
            1756     3.94487E-03     91.3458E-03         4.96164        -2.26923        -2.31493        -2.23750         4.91520        -2.30023    -243.999E-03     28.3655E-03    -14.0717E-03    -14.2939E-03    -14.1678E-03     28.2393E-03    -14.0717E-03     4.59955E-03     74.1240E+06     60.9239E+06    -8.86721E+06     69.6260E+06    -4.36918E+06     60.9239E+06    -18.7343E+06         21.8923
            1757     4.93142E-03     91.3500E-03         4.83786        -2.17083        -2.28006        -2.15247         4.81950        -2.28006     188.105E-03     28.2765E-03    -14.0513E-03    -14.2246E-03    -14.0390E-03     28.0910E-03    -14.0513E-03     5.57973E-03     74.6846E+06     56.6173E+06    -12.0680E+06     68.9535E+06    -6.33693E+06     56.6173E+06    -21.4337E+06         21.9576
            1758     5.91779E-03     91.3530E-03         4.71855        -2.07633        -2.25239        -2.06765         4.70986        -2.25239    -19.9309E-03     28.2258E-03    -13.9988E-03    -14.2270E-03    -13.9561E-03     27.9549E-03    -13.9988E-03     6.71066E-03     72.0499E+06     48.1004E+06    -18.0211E+06     65.2678E+06    -11.2390E+06     48.1004E+06    -23.5795E+06         22.0367
            1759     6.90368E-03     91.3589E-03         4.59444        -1.98160        -2.22017        -1.97697         4.58981        -2.22017     146.836E-03     28.2242E-03    -13.9644E-03    -14.2604E-03    -13.9168E-03     27.8806E-03    -13.9644E-03     7.58252E-03     68.5572E+06     42.3786E+06    -27.4415E+06     60.4373E+06    -19.3217E+06     42.3786E+06    -26.6154E+06         22.1524
            1760     7.89046E-03     91.3631E-03         4.43953        -1.86244        -2.18323        -1.86051         4.43761        -2.18323     43.8834E-03     28.2260E-03    -13.9104E-03    -14.3163E-03    -13.8785E-03     27.7882E-03    -13.9104E-03     8.53641E-03     65.7887E+06     32.5425E+06    -37.1375E+06     56.4313E+06    -27.7801E+06     32.5425E+06    -29.5709E+06         22.4320
            1761     8.87734E-03     91.3707E-03         4.27913        -1.74434        -2.14159        -1.74298         4.27777        -2.14159     140.135E-03     28.1572E-03    -13.8107E-03    -14.3470E-03    -13.7746E-03     27.5849E-03    -13.8107E-03     9.78338E-03     61.1087E+06     16.2203E+06    -36.9744E+06     50.5064E+06    -26.3721E+06     16.2203E+06    -30.1838E+06         23.0726
            1762     9.86391E-03     91.3765E-03         4.10862        -1.61830        -2.09626        -1.61767         4.10799        -2.09626     93.5580E-03     28.2571E-03    -13.7698E-03    -14.4887E-03    -13.7949E-03     27.5632E-03    -13.7698E-03     10.7851E-03     54.3871E+06     7.77707E+06    -42.2259E+06     42.5170E+06    -30.3558E+06     7.77707E+06    -31.5581E+06         24.1403
            1763     10.8502E-03     91.3857E-03         3.92138        -1.47342        -2.04705        -1.47254         3.92050        -2.04705     135.228E-03     28.5064E-03    -13.7358E-03    -14.7745E-03    -13.9294E-03     27.6613E-03    -13.7358E-03     11.9436E-03     47.5014E+06    -5.57264E+06    -56.8558E+06     34.7144E+06    -44.0688E+06    -5.57264E+06    -34.1343E+06         25.7933
            1764     11.8364E-03     91.3939E-03         3.72200        -1.31902        -1.99372        -1.31852         3.72150        -1.99372     99.0847E-03     28.5383E-03    -13.6475E-03    -14.8958E-03    -13.8521E-03     27.4946E-03    -13.6475E-03     13.2712E-03     41.4620E+06    -30.0955E+06    -66.0302E+06     26.8056E+06    -51.3737E+06    -30.0955E+06    -36.7651E+06         28.4260
            1765     12.8241E-03     91.4060E-03         3.51202        -1.15854        -1.93668        -1.15814         3.51162        -1.93668     84.6980E-03     28.7559E-03    -13.5695E-03    -15.1883E-03    -13.8130E-03     27.3806E-03    -13.5695E-03     15.2208E-03     35.8178E+06    -53.8588E+06    -74.6069E+06     19.2435E+06    -58.0327E+06    -53.8588E+06    -39.3020E+06         32.3530
            1766     13.8091E-03     91.4177E-03         3.29865        -1.00343        -1.87686        -1.00309         3.29830        -1.87686     76.4680E-03     29.3700E-03    -13.4416E-03    -15.9282E-03    -13.3216E-03     26.7634E-03    -13.4416E-03     20.5822E-03     26.1608E+06    -81.8162E+06    -97.7305E+06     10.4121E+06    -74.3825E+06    -89.4154E+06    -39.5203E+06         37.7444
            1767     14.7992E-03     91.4392E-03         3.07588    -838.305E-03        -1.81636    -837.952E-03         3.07553        -1.81636     72.9883E-03     44.5079E-03    -13.3205E-03    -31.1859E-03    -14.3602E-03     27.6822E-03    -13.3205E-03     59.8031E-03     30.7481E+06    -65.4089E+06    -107.754E+06     2.80846E+06    -37.4693E+06    -107.754E+06    -37.4862E+06         44.4292
            1768     15.7837E-03     91.5371E-03         2.84096    -653.975E-03        -1.76196    -653.766E-03         2.84075        -1.76196     48.6142E-03     136.808E-03    -13.2713E-03    -123.535E-03    -28.9428E-03     42.2156E-03    -13.2713E-03     249.392E-03     61.7217E+06    -29.1839E+06    -100.378E+06    -4.12355E+06     36.6614E+06    -100.378E+06    -38.2603E+06         51.4216
            1769     16.7727E-03     91.9525E-03         2.62645    -477.574E-03        -1.71670    -477.467E-03         2.62634        -1.71670     33.5288E-03     211.334E-03    -13.5793E-03    -197.754E-03    -38.1409E-03     51.7213E-03    -13.5793E-03     399.019E-03     107.034E+06     13.9273E+06    -49.5726E+06    -2.98223E+06     96.8912E+06    -22.5208E+06    -28.1416E+06         57.1099
            1770     987.846E-06     92.3689E-03         6.30669        -1.94860        -3.98228        -2.90802         5.23242        -1.94860         2.43519     27.4887E-03    -13.4549E-03    -14.0343E-03    -13.8382E-03     27.4737E-03    -13.6359E-03     1.47916E-03     94.2444E+06     89.0350E+06    -10.8370E+06     89.3098E+06    -9.88141E+06     93.0139E+06    -8.06121E+06         21.7105
            1771     1.97261E-03     92.3699E-03         5.49976        -2.42857        -2.70132        -2.42975         5.22820        -2.42857    -823.066E-03     27.6738E-03    -13.6877E-03    -13.9864E-03    -13.8893E-03     27.6312E-03    -13.7422E-03     2.53608E-03     92.7124E+06     85.6530E+06     5.23649E+06     89.7267E+06     7.07527E+06     86.7998E+06    -12.2908E+06         21.7373
            1772     2.96001E-03     92.3717E-03         5.30881        -2.41741        -2.52185        -2.42875         5.22734        -2.42904     456.299E-03     27.5130E-03    -13.6736E-03    -13.8397E-03    -13.7105E-03     27.4288E-03    -13.7186E-03     3.69235E-03     88.0260E+06     75.5649E+06     7.29286E+06     84.9608E+06     10.3581E+06     75.5649E+06    -15.1631E+06         21.7814
            1773     3.94661E-03     92.3748E-03         5.15362        -2.35543        -2.42493        -2.33281         5.12460        -2.41853    -148.369E-03     27.5771E-03    -13.6827E-03    -13.8949E-03    -13.7511E-03     27.4395E-03    -13.6889E-03     4.72949E-03     85.4488E+06     68.6304E+06    -210.933E+03     80.4090E+06     4.82893E+06     68.6304E+06    -20.0403E+06         21.8406
            1774     4.93304E-03     92.3772E-03         5.01807        -2.24352        -2.39203        -2.23129         5.00584        -2.39203     221.338E-03     27.6285E-03    -13.6720E-03    -13.9559E-03    -13.7488E-03     27.4215E-03    -13.6720E-03     5.81117E-03     83.9400E+06     63.6332E+06    -5.45971E+06     77.8183E+06     662.085E+03     63.6332E+06    -22.4965E+06         21.9085
            1775     5.91968E-03     92.3817E-03         4.90533        -2.15827        -2.35913        -2.15288         4.89994        -2.35913     48.2031E-03     27.6160E-03    -13.6519E-03    -13.9635E-03    -13.6627E-03     27.3152E-03    -13.6519E-03     6.99237E-03     82.8733E+06     59.2315E+06    -12.2651E+06     76.7207E+06    -6.11253E+06     59.2315E+06    -23.3221E+06         21.9868
            1776     6.90695E-03     92.3859E-03         4.78479        -2.06991        -2.32397        -2.06643         4.78131        -2.32397     142.128E-03     27.6797E-03    -13.6164E-03    -14.0635E-03    -13.6457E-03     27.2619E-03    -13.6164E-03     8.28253E-03     81.3325E+06     53.2383E+06    -18.4805E+06     74.5200E+06    -11.6680E+06     53.2383E+06    -25.0571E+06         22.0968
            1777     7.89331E-03     92.3918E-03         4.61872        -1.94333        -2.28461        -1.94172         4.61711        -2.28461     60.2717E-03     27.7943E-03    -13.5861E-03    -14.2085E-03    -13.7041E-03     27.2898E-03    -13.5861E-03     9.13929E-03     77.1424E+06     44.5969E+06    -29.8696E+06     69.3888E+06    -22.1160E+06     44.5969E+06    -27.5712E+06         22.3680
            1778     8.88002E-03     92.3969E-03         4.45169        -1.81728        -2.24014        -1.81589         4.45030        -2.24014     162.409E-03     27.7766E-03    -13.5113E-03    -14.2659E-03    -13.6382E-03     27.1488E-03    -13.5113E-03     10.1521E-03     71.6548E+06     28.7748E+06    -32.1210E+06     63.9375E+06    -24.4036E+06     28.7748E+06    -27.0684E+06         23.0003
            1779     9.86700E-03     92.4052E-03         4.28170        -1.69187        -2.19213        -1.69120         4.28103        -2.19213     114.645E-03     27.9868E-03    -13.4865E-03    -14.5019E-03    -13.7111E-03     27.1961E-03    -13.4865E-03     11.4597E-03     65.5123E+06     21.6795E+06    -32.0126E+06     57.5032E+06    -24.0036E+06     21.6795E+06    -26.4572E+06         24.0607
            1780     10.8538E-03     92.4125E-03         4.09094        -1.54374        -2.14060        -1.54294         4.09014        -2.14060     130.966E-03     28.3151E-03    -13.4705E-03    -14.8478E-03    -13.9032E-03     27.3705E-03    -13.4705E-03     12.6170E-03     58.0725E+06     7.60639E+06    -47.2008E+06     48.8230E+06    -37.9512E+06     7.60639E+06    -29.4957E+06         25.7058
            1781     11.8405E-03     92.4228E-03         3.87560        -1.37730        -2.08470        -1.37695         3.87525        -2.08470     84.4189E-03     28.4167E-03    -13.3963E-03    -15.0237E-03    -13.8949E-03     27.2879E-03    -13.3963E-03     13.8081E-03     51.1457E+06    -18.7600E+06    -56.4974E+06     39.7510E+06    -45.1028E+06    -18.7600E+06    -32.7875E+06         28.3287
            1782     12.8265E-03     92.4319E-03         3.65590        -1.21693        -2.02496        -1.21665         3.65561        -2.02496     73.4315E-03     28.3390E-03    -13.3313E-03    -15.0084E-03    -13.5778E-03     26.9085E-03    -13.3313E-03     15.4260E-03     42.2450E+06     -43.589E+06    -66.1838E+06     29.3128E+06    -53.2515E+06     -43.589E+06    -34.9564E+06         32.2503
            1783     13.8157E-03     92.4463E-03         3.42570        -1.04882        -1.96232        -1.04836         3.42524        -1.96232     89.1505E-03     29.8294E-03    -13.2271E-03    -16.6023E-03    -14.0081E-03     27.2352E-03    -13.2271E-03     21.0162E-03     32.6983E+06    -75.6977E+06    -89.6053E+06     19.3353E+06    -70.5043E+06    -81.4357E+06    -37.0138E+06         37.6580
            1784     14.7989E-03     92.4658E-03         3.18117    -861.613E-03        -1.89774    -861.162E-03         3.18072        -1.89774     83.9356E-03     44.3911E-03    -13.1214E-03    -31.2674E-03    -13.6352E-03     26.7589E-03    -13.1214E-03     59.8848E-03     37.9937E+06    -61.4610E+06    -100.167E+06     11.7043E+06    -35.1716E+06    -100.167E+06    -38.3096E+06         44.3944
            1785     15.7924E-03     92.5623E-03         2.93811    -671.501E-03        -1.83693    -671.308E-03         2.93792        -1.83693     42.0002E-03     136.153E-03    -13.0179E-03    -123.132E-03    -27.3248E-03     40.3452E-03    -13.0179E-03     249.818E-03     65.9627E+06    -21.8354E+06    -90.5430E+06     5.54550E+06     38.5818E+06    -90.5430E+06    -37.5406E+06         51.4540
            1786     16.7828E-03     92.9851E-03         2.70277    -490.763E-03        -1.78324    -490.694E-03         2.70270        -1.78324     22.7558E-03     213.110E-03    -13.3941E-03    -199.715E-03    -40.6123E-03     54.0067E-03    -13.3941E-03     401.830E-03     90.4318E+06     24.9847E+06    -47.0788E+06     -1.3465E+06     80.4387E+06    -10.7545E+06    -27.4007E+06         57.1823
            1787     987.135E-06     93.3973E-03         6.21763        -2.11165        -3.72712        -2.97189         5.46240        -2.11165         2.05228     26.2626E-03    -12.8920E-03    -13.3701E-03    -13.0678E-03     26.2418E-03    -13.1733E-03     1.78039E-03     98.1538E+06     94.4190E+06     2.28988E+06     96.8169E+06     2.98086E+06     95.0648E+06    -6.39090E+06         21.6392
            1788     1.97482E-03     93.3971E-03         5.60270        -2.53626        -2.69089        -2.51317         5.42498        -2.53626    -660.771E-03     26.7482E-03    -13.1835E-03    -13.5647E-03    -13.5107E-03     26.6995E-03    -13.1888E-03     2.66901E-03     95.8299E+06     92.2124E+06     14.1786E+06     93.4345E+06     15.9282E+06     92.8582E+06    -11.1441E+06         21.6698
            1789     2.96090E-03     93.3992E-03         5.41001        -2.48276        -2.55915        -2.46664         5.35623        -2.52149     407.188E-03     26.7635E-03    -13.2585E-03    -13.5052E-03    -13.3959E-03     26.6603E-03    -13.2646E-03     4.01812E-03     95.8672E+06     87.7210E+06     17.4140E+06     93.1145E+06     20.1667E+06     87.7210E+06    -14.2607E+06         21.7155
            1790     3.94838E-03     93.4015E-03         5.27121        -2.40756        -2.49887        -2.38964         5.25329        -2.49887    -100.093E-03     26.6848E-03    -13.2432E-03    -13.4421E-03    -13.2715E-03     26.5203E-03    -13.2494E-03     5.08936E-03     95.3796E+06     79.9049E+06     10.7787E+06     90.8392E+06     15.3192E+06     79.9049E+06    -18.8598E+06         21.7745
            1791     4.93556E-03     93.4050E-03         5.18114        -2.33438        -2.47102        -2.32714         5.17391        -2.47102     223.282E-03     26.7389E-03    -13.2126E-03    -13.5265E-03    -13.2772E-03     26.4896E-03    -13.2126E-03     6.27720E-03     93.6291E+06     71.1148E+06     1.22184E+06     87.2590E+06     7.59199E+06     71.1148E+06    -23.3381E+06         21.8427
            1792     5.92265E-03     93.4083E-03         5.06833        -2.24584        -2.44043        -2.24300         5.06549        -2.44043     87.7451E-03     26.8121E-03    -13.1900E-03    -13.6219E-03    -13.2649E-03     26.4551E-03    -13.1900E-03     7.52717E-03     91.0983E+06     64.9174E+06    -7.70019E+06     84.4460E+06    -1.04789E+06     64.9174E+06    -24.7049E+06         21.9213
            1793     6.90960E-03     93.4130E-03         4.93306        -2.14035        -2.40520        -2.13780         4.93051        -2.40520     118.815E-03     26.9613E-03    -13.1670E-03    -13.7946E-03    -13.2989E-03     26.4656E-03    -13.1670E-03     8.88334E-03     89.2160E+06     59.5913E+06    -12.4834E+06     82.4267E+06    -5.69418E+06     59.5913E+06    -25.3316E+06         22.0274
            1794     7.89707E-03     93.4189E-03         4.77404        -2.01697        -2.36468        -2.01597         4.77305        -2.36468     29.6559E-03     27.1626E-03    -13.1707E-03    -13.9922E-03    -13.3980E-03     26.5684E-03    -13.1707E-03     9.79931E-03     86.4745E+06     55.4999E+06    -23.2044E+06     79.8680E+06    -16.5978E+06     55.4999E+06    -25.9590E+06         22.2920
            1795     8.88378E-03     93.4245E-03         4.59086        -1.88003        -2.31888        -1.87919         4.59003        -2.31888     112.759E-03     27.3656E-03    -13.1262E-03    -14.2395E-03    -13.4811E-03     26.6072E-03    -13.1262E-03     11.0595E-03     81.2444E+06     40.5306E+06    -29.8594E+06     75.1545E+06    -23.7695E+06     40.5306E+06    -25.2273E+06         22.9184
            1796     9.87083E-03     93.4315E-03         4.40474        -1.73825        -2.26841        -1.73755         4.40403        -2.26841     107.692E-03     27.6954E-03    -13.0910E-03    -14.6059E-03    -13.6098E-03     26.6993E-03    -13.0910E-03     12.7797E-03     74.5051E+06     27.0938E+06    -27.4907E+06     69.0576E+06    -22.0432E+06     27.0938E+06    -22.8443E+06         23.9734
            1797     10.8574E-03     93.4409E-03         4.21827        -1.59594        -2.21429        -1.59521         4.21754        -2.21429     122.701E-03     28.0744E-03    -13.1167E-03    -14.9603E-03    -13.8548E-03     26.9690E-03    -13.1167E-03     13.5765E-03     65.7759E+06     17.2954E+06    -37.2597E+06     60.2575E+06    -31.7414E+06     17.2954E+06    -22.8053E+06         25.6135
            1798     11.8441E-03     93.4490E-03         3.99743        -1.43067        -2.15650        -1.43037         3.99713        -2.15650     78.7229E-03     28.3129E-03    -13.0971E-03    -15.2183E-03    -13.9687E-03     27.0632E-03    -13.0971E-03     14.5068E-03     55.6771E+06    -5.41238E+06    -47.0855E+06     48.2237E+06    -39.6321E+06    -5.41238E+06    -26.1625E+06         28.2321
            1799     12.8311E-03     93.4608E-03         3.76659        -1.25795        -2.09470        -1.25759         3.76622        -2.09470     83.9356E-03     28.4803E-03    -13.0673E-03    -15.4128E-03    -13.9945E-03     27.0621E-03    -13.0673E-03     15.5143E-03     47.2203E+06    -31.7683E+06    -56.3624E+06     37.5428E+06    -46.6849E+06    -31.7683E+06    -30.0560E+06         32.1530
            1800     13.8168E-03     93.4705E-03         3.52041        -1.07205        -2.02918        -1.07168         3.52004        -2.02918     74.1536E-03     30.0806E-03    -12.9967E-03    -17.0793E-03    -14.2324E-03     27.2337E-03    -12.9967E-03     21.8332E-03     37.5519E+06    -67.6027E+06    -80.5927E+06     27.0231E+06    -65.5801E+06    -72.0865E+06    -32.8579E+06         37.5812
            1801     14.8048E-03     93.4990E-03         3.26202    -875.565E-03        -1.96078    -875.101E-03         3.26156        -1.96078     78.5461E-03     42.9115E-03    -12.9514E-03    -29.9549E-03    -14.5331E-03     27.4898E-03    -12.9514E-03     56.5744E-03     45.2824E+06    -57.4232E+06    -91.0061E+06     15.4809E+06    -27.6216E+06    -91.0061E+06    -37.3650E+06         44.3620
            1802     15.7933E-03     93.5766E-03         3.02599    -698.547E-03        -1.89459    -698.250E-03         3.02570        -1.89459     50.2477E-03     134.476E-03    -12.8974E-03    -121.577E-03    -27.5962E-03     40.4957E-03    -12.8974E-03     245.580E-03     64.7763E+06    -19.0164E+06    -85.9973E+06     7.61502E+06     38.1448E+06    -85.9973E+06    -36.7023E+06         51.4769
            1803     16.7811E-03     94.0215E-03         2.78080    -512.860E-03        -1.83306    -512.728E-03         2.78067        -1.83306     28.7961E-03     215.766E-03    -13.3315E-03    -202.435E-03    -41.0129E-03     54.3439E-03    -13.3315E-03     407.171E-03     79.6943E+06     27.4007E+06    -44.8308E+06     2.76789E+06     60.5696E+06    -1.07327E+06    -22.0166E+06         57.2500
            1804     988.001E-06     94.4213E-03         6.14534        -2.28782        -3.47133        -2.95184         5.62585        -2.28782         1.72084     25.2327E-03    -12.4768E-03    -12.7554E-03    -12.6125E-03     25.2058E-03    -12.5928E-03     1.97812E-03     100.682E+06     97.9809E+06     11.4406E+06     99.2267E+06     12.0533E+06     98.8238E+06    -7.03518E+06         21.5561
            1805     1.97550E-03     94.4243E-03         5.64567        -2.60493        -2.66364        -2.54459         5.52662        -2.60493    -505.683E-03     25.3563E-03    -12.6004E-03    -12.7561E-03    -12.6841E-03     25.2961E-03    -12.6122E-03     2.95669E-03     101.814E+06     98.3670E+06     26.6689E+06     99.6278E+06     28.5112E+06     98.7109E+06    -10.8095E+06         21.5837
            1806     2.96336E-03     94.4253E-03         5.50798        -2.54134        -2.59845        -2.52167         5.47003        -2.58017     339.311E-03     25.5946E-03    -12.6407E-03    -12.9543E-03    -12.8227E-03     25.4696E-03    -12.6473E-03     4.31126E-03     101.798E+06     94.6271E+06     25.0056E+06     98.7571E+06     28.0466E+06     94.6271E+06    -14.9686E+06         21.6290
            1807     3.95049E-03     94.4281E-03         5.39728        -2.47226        -2.55832        -2.46054         5.38555        -2.55832    -121.485E-03     25.6367E-03    -12.6521E-03    -12.9850E-03    -12.7659E-03     25.4176E-03    -12.6521E-03     5.73091E-03     101.994E+06     87.5279E+06     21.0470E+06     97.2011E+06     25.8401E+06     87.5279E+06    -18.5730E+06         21.6875
            1808     4.93822E-03     94.4309E-03         5.30112        -2.39942        -2.53254        -2.39522         5.29692        -2.53254     142.623E-03     25.6295E-03    -12.6257E-03    -13.0041E-03    -12.6876E-03     25.3129E-03    -12.6257E-03     6.91254E-03     100.182E+06     77.6789E+06     9.17411E+06     93.8927E+06     15.4634E+06     77.6789E+06    -22.8268E+06         21.7544
            1809     5.92615E-03     94.4347E-03         5.17017        -2.29139        -2.50133        -2.28929         5.16807        -2.50133     57.6590E-03     25.8283E-03    -12.5890E-03    -13.2392E-03    -12.7778E-03     25.3669E-03    -12.5890E-03     8.36311E-03     96.1378E+06     66.1847E+06    -2.64491E+06     89.6227E+06     3.87021E+06     66.1847E+06    -24.4796E+06         21.8330
            1810     6.91370E-03     94.4392E-03         5.03650        -2.18964        -2.46417        -2.18798         5.03485        -2.46417     125.816E-03     26.0505E-03    -12.5587E-03    -13.4919E-03    -12.8475E-03     25.4061E-03    -12.5587E-03     9.95965E-03     91.7614E+06     55.9979E+06    -6.79515E+06     84.6679E+06     298.396E+03     55.9979E+06    -25.4376E+06         21.9389
            1811     7.90095E-03     94.4450E-03         4.89431        -2.08213        -2.42333        -2.08153         4.89371        -2.42333     53.1143E-03     26.2650E-03    -12.5752E-03    -13.6899E-03    -12.9030E-03     25.4780E-03    -12.5752E-03     11.0497E-03     85.8778E+06     50.2125E+06    -20.3850E+06     79.4313E+06    -13.9385E+06     50.2125E+06    -25.2199E+06         22.2024
            1812     8.88892E-03     94.4506E-03         4.70942        -1.93634        -2.37772        -1.93581         4.70890        -2.37772     91.5228E-03     26.7296E-03    -12.5791E-03    -14.1501E-03    -13.1813E-03     25.7608E-03    -12.5791E-03     12.3758E-03     78.8823E+06     40.0746E+06    -28.1644E+06     73.5135E+06    -22.7956E+06     40.0746E+06    -23.3585E+06         22.8279
            1813     9.87591E-03     94.4584E-03         4.49131        -1.76903        -2.32568        -1.76842         4.49071        -2.32568     96.4937E-03     27.3105E-03    -12.5838E-03    -14.7272E-03    -13.4986E-03     26.0820E-03    -12.5838E-03     14.1298E-03     73.0408E+06     27.4845E+06    -27.6959E+06     68.2829E+06    -22.9380E+06     27.4845E+06    -21.3549E+06         23.8808
            1814     10.8631E-03     94.4673E-03         4.27756        -1.61140        -2.26837        -1.61075         4.27691        -2.26837     113.906E-03     27.9057E-03    -12.6654E-03    -15.2423E-03    -13.8826E-03     26.5460E-03    -12.6654E-03     15.0639E-03     66.9985E+06     22.2735E+06    -33.4277E+06     63.6219E+06    -30.0512E+06     22.2735E+06    -17.7820E+06         25.5196
            1815     11.8493E-03     94.4770E-03         4.06960        -1.45849        -2.20771        -1.45813         4.06924        -2.20771     85.2163E-03     28.3753E-03    -12.7236E-03    -15.6541E-03    -14.2517E-03     26.9730E-03    -12.7236E-03     15.4528E-03     59.5392E+06     7.44444E+06    -36.4232E+06     55.3519E+06    -32.2359E+06     7.44444E+06    -18.6581E+06         28.1397
            1816     12.8356E-03     94.4868E-03         3.84326        -1.28909        -2.14408        -1.28856         3.84273        -2.14408     103.419E-03     29.1072E-03    -12.7502E-03    -16.3565E-03    -14.7713E-03     27.5220E-03    -12.7502E-03     16.6605E-03     51.2452E+06    -21.7111E+06    -45.7121E+06      44.557E+06    -39.0239E+06    -21.7111E+06    -24.3519E+06         32.0655
            1817     13.8212E-03     94.5008E-03         3.58941        -1.09416        -2.07674        -1.09388         3.58912        -2.07674     62.8364E-03     30.4919E-03    -12.7666E-03    -17.7228E-03    -15.0146E-03     27.7836E-03    -12.7666E-03     21.7261E-03     39.3389E+06    -58.5992E+06    -73.2102E+06     32.0240E+06    -61.9912E+06    -62.5033E+06    -26.9082E+06         37.5140
            1818     14.8078E-03     94.5217E-03         3.32281    -891.435E-03        -2.00592    -891.096E-03         3.32247        -2.00592     63.2953E-03     44.1268E-03    -12.8294E-03    -31.2973E-03    -16.1719E-03     29.0014E-03    -12.8294E-03     57.3741E-03     46.8541E+06    -46.4490E+06    -78.1085E+06     18.2627E+06    -17.8576E+06    -78.1085E+06    -30.8226E+06         44.3328
            1819     15.7875E-03     94.6144E-03         3.06295    -699.810E-03        -1.93493    -699.456E-03         3.06260        -1.93493     65.6253E-03     132.987E-03    -12.9362E-03    -120.049E-03    -29.6770E-03     42.6144E-03    -12.9362E-03     241.022E-03     59.7532E+06    -15.5763E+06    -77.3868E+06     5.24614E+06     38.9307E+06    -77.3868E+06    -33.0526E+06         51.4887
            1820     16.7862E-03     95.0258E-03         2.80973    -506.669E-03        -1.86511    -506.531E-03         2.80959        -1.86511     31.3588E-03     216.530E-03    -13.4977E-03    -203.031E-03    -40.3217E-03     53.8212E-03    -13.4977E-03     408.706E-03     80.2941E+06     12.9109E+06    -47.7927E+06    -2.83827E+06     40.3248E+06     7.92578E+06    -21.8595E+06         57.2962
            1821     988.243E-06     95.4480E-03         5.99685        -2.40821        -3.21302        -2.86081         5.64465        -2.40821         1.39028     23.8743E-03    -11.8104E-03    -12.0635E-03    -12.0295E-03     23.8403E-03    -11.8104E-03     2.13235E-03     109.379E+06     107.322E+06     25.3359E+06     107.308E+06     26.0398E+06     108.689E+06    -5.43259E+06         21.4519
            1822     1.97677E-03     95.4480E-03         5.65629        -2.62569        -2.66753        -2.59058         5.57935        -2.62569    -390.629E-03     23.9032E-03    -11.8848E-03    -12.0189E-03    -11.9273E-03     23.8182E-03    -11.8913E-03     3.38645E-03     106.830E+06     100.744E+06     37.1364E+06     104.776E+06     38.8461E+06     101.087E+06    -10.5334E+06         21.4746
            1823     2.96537E-03     95.4510E-03         5.58422        -2.59200        -2.63055        -2.58474         5.55876        -2.61234     286.165E-03     23.9043E-03    -11.8596E-03    -12.0457E-03    -11.8740E-03     23.7391E-03    -11.8662E-03     4.79127E-03     105.555E+06     93.5780E+06     33.5079E+06     102.145E+06     36.9181E+06     93.5780E+06    -15.0469E+06         21.5152
            1824     3.95391E-03     95.4527E-03         5.49220        -2.53523        -2.59882        -2.52697         5.48394        -2.59882    -66.9341E-03     24.0879E-03    -11.8332E-03    -12.2554E-03    -11.9635E-03     23.7961E-03    -11.8332E-03     6.39946E-03     104.989E+06     85.6644E+06     29.5401E+06     99.5361E+06     34.9930E+06     85.6644E+06    -19.1823E+06         21.5727
            1825     4.94223E-03     95.4560E-03         5.37399        -2.43103        -2.57516        -2.42757         5.37054        -2.57516     140.589E-03     24.3346E-03    -11.8345E-03    -12.5001E-03    -12.0657E-03     23.9002E-03    -11.8345E-03     7.90513E-03     101.665E+06     77.7478E+06     17.1064E+06     95.4804E+06     23.2909E+06     77.7478E+06    -21.8053E+06         21.6392
            1826     5.93033E-03     95.4591E-03         5.22234        -2.30748        -2.54091        -2.30573         5.22059        -2.54091     61.6745E-03     24.5506E-03    -11.8241E-03    -12.7264E-03    -12.0919E-03     23.9161E-03    -11.8241E-03     9.53787E-03     97.8931E+06     66.5019E+06     2.97439E+06     91.2821E+06     9.58538E+06     66.5019E+06    -24.1060E+06         21.7175
            1827     6.91870E-03     95.4646E-03         5.08620        -2.20542        -2.50028        -2.20409         5.08486        -2.50028     140.631E-03     24.7834E-03    -11.7876E-03    -12.9960E-03    -12.1180E-03     23.9054E-03    -11.7876E-03     11.3124E-03     92.0136E+06     52.9321E+06    -2.71128E+06     85.6721E+06     3.63028E+06     52.9321E+06    -23.5426E+06         21.8274
            1828     7.90722E-03     95.4694E-03         4.94261        -2.10357        -2.45712        -2.10296         4.94201        -2.45712     91.0641E-03     25.3737E-03    -11.8375E-03    -13.5364E-03    -12.4519E-03     24.2893E-03    -11.8375E-03     12.7515E-03     81.5996E+06     47.9675E+06    -18.6006E+06     76.8223E+06    -13.8233E+06     47.9675E+06    -21.0466E+06         22.0989
            1829     8.89465E-03     95.4764E-03         4.77286        -1.97602        -2.41095        -1.97532         4.77216        -2.41095     126.100E-03     26.1320E-03    -11.9063E-03    -14.2248E-03    -12.9174E-03     24.8245E-03    -11.9063E-03     14.2297E-03     72.2916E+06     41.8486E+06    -24.4812E+06     68.0503E+06    -20.2399E+06     41.8486E+06    -19.6069E+06         22.7314
            1830     9.88202E-03     95.4840E-03         4.55871        -1.80835        -2.35937        -1.80775         4.55811        -2.35937     114.087E-03     26.8606E-03    -11.9625E-03    -14.8974E-03    -13.3138E-03     25.2771E-03    -11.9625E-03     15.8764E-03     65.5699E+06     28.7024E+06    -25.9844E+06     61.1221E+06    -21.5365E+06     28.7024E+06    -19.6797E+06         23.7868
            1831     10.8687E-03     95.4938E-03         4.32134        -1.62946        -2.30149        -1.62882         4.32070        -2.30149     118.163E-03     27.8070E-03    -12.0713E-03    -15.7369E-03    -13.9424E-03     26.0125E-03    -12.0713E-03     17.2356E-03     59.7515E+06     16.8726E+06    -37.0356E+06     56.5238E+06    -33.8079E+06     16.8726E+06    -16.9177E+06         25.4287
            1832     11.8552E-03     95.5041E-03         4.09944        -1.46367        -2.23894        -1.46332         4.09909        -2.23894     86.5197E-03     28.8023E-03    -12.2301E-03    -16.5734E-03    -14.8245E-03     27.0533E-03    -12.2301E-03     17.3993E-03     55.4330E+06     10.9323E+06    -28.9153E+06     52.6410E+06    -26.1233E+06     10.9323E+06    -14.5301E+06         28.0565
            1833     12.8404E-03     95.5151E-03         3.87005        -1.29198        -2.17312        -1.29156         3.86963        -2.17312     89.0700E-03     29.7328E-03    -12.3951E-03    -17.3363E-03    -15.4688E-03     27.8654E-03    -12.3951E-03     18.3295E-03     48.3588E+06    -8.09234E+06    -36.4692E+06     44.2656E+06    -32.3760E+06    -8.09234E+06    -17.8467E+06         31.9933
            1834     13.8253E-03     95.5293E-03         3.62236        -1.10667        -2.10406        -1.10635         3.62203        -2.10406     71.9647E-03     31.7492E-03    -12.5062E-03    -19.2410E-03    -16.3370E-03     28.8453E-03    -12.5062E-03     23.4049E-03     38.5964E+06    -46.5634E+06    -68.0698E+06     34.0535E+06    -59.3569E+06    -50.7334E+06    -20.8219E+06         37.4605
            1835     14.8082E-03     95.5516E-03         3.36562    -911.783E-03        -2.03187    -911.442E-03         3.36528        -2.03187     72.3657E-03     45.3116E-03    -12.6716E-03    -32.6403E-03    -16.7057E-03     29.3771E-03    -12.6716E-03     59.1912E-03     46.4368E+06    -33.9521E+06    -60.3933E+06     22.3483E+06    -9.86361E+06    -60.3933E+06    -22.3660E+06         44.3131
            1836     15.7996E-03     95.6432E-03         3.08603    -696.569E-03        -1.95730    -696.295E-03         3.08575        -1.95730     60.5327E-03     135.535E-03    -12.9323E-03    -122.605E-03    -33.0816E-03     46.0120E-03    -12.9323E-03     244.947E-03     54.6812E+06    -2.80125E+06    -54.2549E+06     10.4570E+06     41.4229E+06    -54.2549E+06    -23.1159E+06         51.5021
            1837     16.7641E-03     96.0594E-03         2.80685    -494.825E-03        -1.88034    -494.775E-03         2.80680        -1.88034     18.3913E-03     217.265E-03    -13.6060E-03    -203.660E-03    -40.9469E-03     54.5523E-03    -13.6060E-03     409.492E-03     84.5072E+06     8.26699E+06    -35.3688E+06     1.61412E+06     28.7397E+06     27.0516E+06    -15.5530E+06         57.3304
            1838     989.945E-06     96.4704E-03         5.83260        -2.42904        -3.04962        -2.84063         5.62361        -2.42904         1.01451     21.8932E-03    -10.8119E-03    -11.0811E-03    -10.8787E-03     21.8513E-03    -10.9725E-03     2.18897E-03     110.604E+06     105.137E+06     36.1973E+06     109.525E+06     36.7530E+06     105.661E+06    -4.43623E+06         21.3186
            1839     1.97873E-03     96.4722E-03         5.64933        -2.63224        -2.66816        -2.62153         5.60270        -2.63224    -308.675E-03     21.9857E-03    -10.8873E-03    -11.0989E-03    -10.9813E-03     21.8682E-03    -10.8873E-03     3.82817E-03     106.257E+06     97.4409E+06     47.7855E+06     104.386E+06     49.6564E+06     97.4409E+06    -9.44206E+06         21.3414
            1840     2.96799E-03     96.4733E-03         5.58932        -2.59589        -2.64212        -2.59846         5.57490        -2.62513     233.417E-03     22.0313E-03    -10.8770E-03    -11.1552E-03    -10.9161E-03     21.7921E-03    -10.8770E-03     5.51034E-03     106.507E+06     90.9611E+06     44.2960E+06     102.036E+06     48.7667E+06     90.9611E+06    -15.7123E+06         21.3791
            1841     3.95769E-03     96.4762E-03         5.49277        -2.53163        -2.61022        -2.52651         5.48765        -2.61022    -11.8842E-03     22.1947E-03    -10.8426E-03    -11.3530E-03    -10.9600E-03     21.8017E-03    -10.8426E-03     7.14006E-03     105.635E+06     81.6977E+06     35.3281E+06     99.2281E+06     41.7347E+06     81.6977E+06    -20.0570E+06         21.4335
            1842     4.94700E-03     96.4790E-03         5.38946        -2.44566        -2.58549        -2.44304         5.38684        -2.58549     151.863E-03     22.5196E-03    -10.8349E-03    -11.6853E-03    -11.0919E-03     21.9262E-03    -10.8349E-03     8.83839E-03     101.415E+06     73.0988E+06     23.8023E+06     95.3259E+06     29.8911E+06     73.0988E+06    -20.6139E+06         21.4994
            1843     5.93607E-03     96.4829E-03         5.25912        -2.33850        -2.55324        -2.33723         5.25786        -2.55324     87.7167E-03     22.8877E-03    -10.8501E-03    -12.0378E-03    -11.1738E-03     22.0237E-03    -10.8501E-03     10.7575E-03     92.6880E+06     64.2906E+06     9.66091E+06     86.9585E+06     15.3904E+06     64.2906E+06    -21.0192E+06         21.5794
            1844     6.92544E-03     96.4869E-03         5.10286        -2.21691        -2.51396        -2.21579         5.10175        -2.51396     125.874E-03     23.3770E-03    -10.8517E-03    -12.5256E-03    -11.3465E-03     22.1979E-03    -10.8517E-03     12.7292E-03     80.3574E+06     50.2659E+06    -2.24497E+06     75.7526E+06     2.35983E+06     50.2659E+06    -18.5821E+06         21.6972
            1845     7.91421E-03     96.4936E-03         4.93231        -2.08792        -2.46886        -2.08750         4.93189        -2.46886     73.0160E-03     24.2297E-03    -10.9167E-03    -13.3137E-03    -11.8097E-03     22.7258E-03    -10.9167E-03     14.6380E-03     68.8845E+06     41.7557E+06    -16.7133E+06     66.2683E+06    -14.0971E+06     41.7557E+06    -14.5538E+06         21.9847
            1846     8.90237E-03     96.5005E-03         4.76294        -1.96405        -2.41973        -1.96350         4.76239        -2.41973     117.384E-03     25.2793E-03    -11.0146E-03    -14.2649E-03    -12.4129E-03     23.4273E-03    -11.0146E-03     16.6049E-03     60.9441E+06     34.5897E+06    -19.7722E+06     58.1224E+06    -16.9505E+06     34.5897E+06    -14.5739E+06         22.6330
            1847     9.88994E-03     96.5093E-03         4.57780        -1.82451        -2.36726        -1.82380         4.57709        -2.36726     126.403E-03     26.4563E-03    -11.1496E-03    -15.3071E-03    -13.1191E-03     24.2683E-03    -11.1496E-03     18.5418E-03     52.1167E+06     24.6184E+06    -23.4382E+06     49.1296E+06    -20.4511E+06     24.6184E+06    -13.9529E+06         23.6978
            1848     10.8772E-03     96.5190E-03         4.36179        -1.66116        -2.31061        -1.66029         4.36092        -2.31061     141.939E-03     27.9108E-03    -11.3329E-03    -16.5792E-03    -14.1356E-03     25.4672E-03    -11.3329E-03     20.2342E-03     41.3686E+06     9.83551E+06    -37.0556E+06     39.0027E+06    -34.6897E+06     9.83551E+06    -12.6814E+06         25.3478
            1849     11.8628E-03     96.5319E-03         4.11356        -1.47301        -2.24886        -1.47242         4.11297        -2.24886     111.544E-03     29.2922E-03    -11.5815E-03    -17.7111E-03    -15.2717E-03     26.8528E-03    -11.5815E-03     20.7745E-03     38.7103E+06     4.16735E+06    -27.3431E+06     33.9281E+06    -22.5610E+06     4.16735E+06    -15.2722E+06         27.9888
            1850     12.8471E-03     96.5438E-03         3.85873        -1.28036        -2.18204        -1.27997         3.85833        -2.18204     83.7917E-03     30.5874E-03    -11.9035E-03    -18.6829E-03    -16.3123E-03     28.2168E-03    -11.9035E-03     21.0411E-03     37.1957E+06    -3.05206E+06    -34.9393E+06     32.5675E+06    -30.3111E+06    -3.05206E+06    -15.3212E+06         31.9410
            1851     13.8317E-03     96.5576E-03         3.61237        -1.09749        -2.11141        -1.09717         3.61205        -2.11141     74.9161E-03     33.1864E-03    -12.1418E-03    -21.0421E-03    -17.4981E-03     29.6424E-03    -12.1418E-03     26.5521E-03     27.9729E+06    -38.1087E+06    -62.6382E+06     25.2045E+06    -56.2547E+06    -41.7238E+06    -14.9783E+06         37.4247
            1852     14.8149E-03     96.5846E-03         3.36677    -913.351E-03        -2.03790    -912.965E-03         3.36638        -2.03790     80.7251E-03     45.6077E-03    -12.4674E-03    -33.1381E-03    -18.4005E-03     30.8700E-03    -12.4674E-03     58.7641E-03     41.3917E+06    -26.5602E+06    -42.9209E+06     17.6299E+06    -2.79845E+06    -42.9209E+06    -17.8951E+06         44.2931
            1853     15.7963E-03     96.6664E-03         3.09821    -711.923E-03        -1.96061    -711.729E-03         3.09802        -1.96061     52.3496E-03     138.048E-03    -12.7692E-03    -125.278E-03    -33.3237E-03     46.0938E-03    -12.7692E-03     249.404E-03     48.3812E+06     874.581E+03    -40.8493E+06     8.55974E+06     40.6960E+06    -40.8493E+06    -16.0099E+06         51.5060
            1854     16.7908E-03     97.1175E-03         2.80980    -503.874E-03        -1.87785    -503.773E-03         2.80970        -1.87785     32.4420E-03     214.763E-03    -13.4124E-03    -201.350E-03    -40.6594E-03     54.0724E-03    -13.4124E-03     404.878E-03     82.4996E+06     2.60218E+06    -36.8338E+06    -2.82641E+06     18.8345E+06     32.2599E+06    -9.70519E+06         57.3471
            1855     990.084E-06     97.4915E-03         5.75015        -2.46435        -2.93347        -2.81227         5.62894        -2.46435     780.602E-03     19.4648E-03    -9.54094E-03    -9.92445E-03    -9.69815E-03     19.3991E-03    -9.70151E-03     2.52950E-03     108.072E+06     100.105E+06     42.3757E+06     105.684E+06     43.3152E+06     101.554E+06    -6.77603E+06         21.1607
            1856     1.98134E-03     97.4929E-03         5.60877        -2.61937        -2.64286        -2.60471         5.58285        -2.63160    -229.186E-03     19.6359E-03    -9.67092E-03    -9.96488E-03    -9.80859E-03     19.4796E-03    -9.67092E-03     4.20534E-03     107.701E+06     96.6754E+06     59.2898E+06     105.049E+06     61.9421E+06     96.6754E+06    -10.1584E+06         21.1859
            1857     2.97190E-03     97.4946E-03         5.52661        -2.56479        -2.62336        -2.56402         5.51864        -2.61616     199.055E-03     19.8658E-03    -9.68949E-03    -10.1765E-03    -9.87442E-03     19.5637E-03    -9.68949E-03     5.90832E-03     104.966E+06     88.5814E+06     55.9471E+06     99.7134E+06     61.1994E+06     88.5814E+06    -14.9644E+06         21.2230
            1858     3.96197E-03     97.4969E-03         5.42794        -2.49416        -2.59458        -2.49189         5.42567        -2.59458    -1.34153E-03     20.0243E-03    -9.68433E-03    -10.3409E-03    -9.82666E-03     19.5100E-03    -9.68433E-03     7.75358E-03     98.0000E+06     75.8764E+06     41.1814E+06     91.5222E+06     47.6592E+06     75.8764E+06    -17.8476E+06         21.2737
            1859     4.95249E-03     97.5001E-03         5.33261        -2.42352        -2.56717        -2.42233         5.33142        -2.56717     149.631E-03     20.1979E-03    -9.63688E-03    -10.5621E-03    -9.76528E-03     19.4010E-03    -9.63688E-03     9.67236E-03     86.1911E+06     58.2901E+06     26.8106E+06     81.1509E+06     31.8508E+06     58.2901E+06    -16.3474E+06         21.3377
            1860     5.94334E-03     97.5037E-03         5.22850        -2.34320        -2.53638        -2.34214         5.22744        -2.53638     139.542E-03     20.8196E-03    -9.63759E-03    -11.1827E-03    -10.0266E-03     19.6636E-03    -9.63759E-03     11.8528E-03     71.3651E+06     46.7014E+06     13.7868E+06     68.2962E+06     16.8557E+06     46.7014E+06    -12.0127E+06         21.4204
            1861     6.93300E-03     97.5089E-03         5.08237        -2.22814        -2.50052        -2.22701         5.08123        -2.50052     156.086E-03     21.7697E-03    -9.70387E-03    -12.0664E-03    -10.4945E-03     20.1978E-03    -9.70387E-03     14.1494E-03     56.1462E+06     37.3783E+06    -1.10706E+06     54.2771E+06     762.049E+03     37.3783E+06    -9.21604E+06         21.5515
            1862     7.92261E-03     97.5150E-03         4.89868        -2.08363        -2.45746        -2.08310         4.89815        -2.45746     105.625E-03     22.7583E-03    -9.78201E-03    -12.9769E-03    -10.9406E-03     20.7220E-03    -9.78201E-03     16.4851E-03     44.0620E+06     23.0735E+06    -14.6970E+06     42.7966E+06    -13.4316E+06     23.0735E+06    -8.48251E+06         21.8643
            1863     8.91199E-03     97.5234E-03         4.71037        -1.93711        -2.40776        -1.93665         4.70991        -2.40776     105.819E-03     24.0988E-03    -9.92534E-03    -14.1739E-03    -11.6900E-03     21.6149E-03    -9.92534E-03     18.8015E-03     35.2276E+06     15.3792E+06    -17.1006E+06     32.8581E+06    -15.6670E+06     16.3151E+06    -8.10764E+06         22.5381
            1864     9.90030E-03     97.5327E-03         4.52398        -1.79897        -2.35373        -1.79841         4.52342        -2.35373     108.484E-03     25.9063E-03    -10.1952E-03    -15.7118E-03    -12.8922E-03     23.0867E-03    -10.1952E-03     20.8828E-03     28.4528E+06     16.5822E+06    -22.7818E+06     24.6860E+06    -21.6727E+06     19.2398E+06    -6.51445E+06         23.6209
            1865     10.8865E-03     97.5448E-03         4.32165        -1.64709        -2.29632        -1.64634         4.32090        -2.29632     129.144E-03     27.9664E-03    -10.4883E-03    -17.4789E-03    -14.3206E-03     24.8081E-03    -10.4883E-03     23.0648E-03     24.4934E+06     9.49719E+06    -31.3741E+06     20.7433E+06    -29.3457E+06     11.2190E+06    -8.91223E+06         25.2847
            1866     11.8720E-03     97.5585E-03         4.08743        -1.46823        -2.23473        -1.46739         4.08659        -2.23473     133.386E-03     29.6901E-03    -10.8205E-03    -18.8695E-03    -15.7564E-03     26.5770E-03    -10.8205E-03     23.7225E-03     24.5347E+06     2.18157E+06    -22.4561E+06     17.8790E+06    -15.8004E+06     2.18157E+06    -15.0500E+06         27.9398
            1867     12.8568E-03     97.5727E-03         3.84078        -1.28284        -2.16865        -1.28209         3.84003        -2.16865     120.237E-03     31.6608E-03    -11.2802E-03    -20.3803E-03    -17.5649E-03     28.8453E-03    -11.2802E-03     23.5298E-03     17.3053E+06    -8.72736E+06    -42.2409E+06     11.9865E+06    -36.9221E+06    -8.72736E+06    -12.3130E+06         31.9055
            1868     13.8379E-03     97.5883E-03         3.58660        -1.09178        -2.09861        -1.09130         3.58612        -2.09861     93.4576E-03     34.8169E-03    -11.6987E-03    -23.1204E-03    -19.4641E-03     31.1606E-03    -11.6987E-03     28.0118E-03     11.2744E+06    -30.0428E+06    -63.4784E+06     5.92170E+06    -48.2731E+06    -39.8954E+06    -11.5342E+06         37.3942
            1869     14.8195E-03     97.6158E-03         3.32769    -897.904E-03        -2.02472    -897.435E-03         3.32722        -2.02472     88.3408E-03     46.9039E-03    -12.2440E-03    -34.6621E-03    -20.7569E-03     32.9987E-03    -12.2440E-03     58.7686E-03     25.5827E+06    -21.2601E+06    -36.4071E+06     1.91494E+06     175.614E+03    -34.1751E+06    -16.7522E+06         44.2557
            1870     15.7995E-03     97.7029E-03         3.06392    -708.542E-03        -1.94497    -708.307E-03         3.06368        -1.94497     54.9853E-03     136.114E-03    -12.7156E-03    -123.395E-03    -34.3158E-03     47.0344E-03    -12.7156E-03     244.240E-03     39.9358E+06    -8.33057E+06    -35.1253E+06    -5.68627E+06     35.0594E+06    -32.8933E+06    -13.2006E+06         51.4588
            1871     16.7840E-03     98.1288E-03         2.77537    -501.274E-03        -1.85698    -501.164E-03         2.77526        -1.85698     35.9086E-03     208.803E-03    -13.4327E-03    -195.366E-03    -39.6004E-03     53.0374E-03    -13.4327E-03     393.067E-03     87.7186E+06    -1.01393E+06    -37.0852E+06    -6.80866E+06     17.8636E+06     38.5646E+06    -6.71223E+06         57.2873
            1872     992.806E-06     98.5103E-03         5.66129        -2.48666        -2.82489        -2.73230         5.58795        -2.50591     568.502E-03     16.7096E-03    -8.18926E-03    -8.52050E-03    -8.44467E-03     16.6337E-03    -8.18926E-03     2.63729E-03     101.426E+06     96.2338E+06     51.6957E+06     98.1816E+06     53.4914E+06     97.6826E+06    -7.54012E+06         20.9879
            1873     1.98372E-03     98.5112E-03         5.49518        -2.56059        -2.60728        -2.54650         5.47834        -2.60453    -183.722E-03     17.0797E-03    -8.30512E-03    -8.77441E-03    -8.57573E-03     16.8810E-03    -8.30512E-03     4.39480E-03     97.9041E+06     86.1329E+06     65.3940E+06     94.2371E+06     69.5082E+06     85.6857E+06    -9.64459E+06         21.0082
            1874     2.97531E-03     98.5134E-03         5.42100        -2.51625        -2.57874        -2.51155         5.41630        -2.57874     189.642E-03     17.1976E-03    -8.32305E-03    -8.87453E-03    -8.48860E-03     16.8117E-03    -8.32305E-03     6.17667E-03     90.4763E+06     74.8755E+06     58.2331E+06     84.3944E+06     68.2850E+06     70.9056E+06    -9.99099E+06         21.0420
            1875     3.96719E-03     98.5156E-03         5.33983        -2.45948        -2.55534        -2.45865         5.33899        -2.55534     6.72294E-03     17.3527E-03    -8.31520E-03    -9.03795E-03    -8.38222E-03     16.6970E-03    -8.31520E-03     8.10432E-03     77.7911E+06     62.0870E+06     44.0964E+06     71.8613E+06     53.5488E+06     58.5643E+06    -10.1010E+06         21.0923
            1876     4.95922E-03     98.5181E-03         5.24399        -2.38528        -2.52872        -2.38468         5.24339        -2.52872     119.521E-03     17.7918E-03    -8.29519E-03    -9.49706E-03    -8.47291E-03     16.7677E-03    -8.29519E-03     10.2832E-03     61.2955E+06     42.4814E+06     26.6914E+06     58.5410E+06     29.4458E+06     42.4814E+06    -7.39631E+06         21.1592
            1877     5.95068E-03     98.5222E-03         5.12524        -2.29506        -2.49723        -2.29447         5.12465        -2.49723     110.181E-03     18.6396E-03    -8.30767E-03    -10.3320E-03    -8.82096E-03     17.1285E-03    -8.30767E-03     12.7877E-03     46.5234E+06     27.8308E+06     10.0297E+06     45.1205E+06     11.4325E+06     27.8308E+06    -736.951E+03         21.2482
            1878     6.94212E-03     98.5280E-03         4.98940        -2.19147        -2.46080        -2.19075         4.98868        -2.46080     129.591E-03     19.7940E-03    -8.39544E-03    -11.3997E-03    -9.35647E-03     17.7507E-03    -8.39544E-03     15.3599E-03     33.6815E+06     19.7249E+06     471.120E+03     32.3085E+06     1.84405E+06     19.7249E+06     1.99911E+06         21.3971
            1879     7.93245E-03     98.5349E-03         4.83361        -2.07530        -2.41964        -2.07472         4.83303        -2.41964     124.630E-03     21.2861E-03    -8.56488E-03    -12.7224E-03    -10.1472E-03     18.7109E-03    -8.56488E-03     17.9430E-03     24.6339E+06     9.86343E+06    -13.4293E+06     19.5122E+06    -12.1255E+06     13.6814E+06     549.395E+03         21.7436
            1880     8.92216E-03     98.5436E-03         4.64850        -1.92892        -2.37303        -1.92835         4.64794        -2.37303     117.020E-03     23.1319E-03    -8.81060E-03    -14.3215E-03    -11.2112E-03     20.0216E-03    -8.81060E-03     20.6277E-03     16.4924E+06     5.32503E+06    -18.4930E+06     8.73188E+06    -16.7754E+06     11.3679E+06     1.56367E+06         22.4520
            1881     9.91025E-03     98.5559E-03         4.43720        -1.76157        -2.32001        -1.76094         4.43657        -2.32001     117.228E-03     25.2785E-03    -9.14391E-03    -16.1344E-03    -12.6026E-03     21.7468E-03    -9.14391E-03     23.0840E-03     13.0516E+06     7.11620E+06    -20.1701E+06     3.71785E+06    -16.7718E+06     13.0516E+06    -3.16697E+06         23.5614
            1882     10.8976E-03     98.5687E-03         4.22130        -1.59628        -2.26142        -1.59568         4.22071        -2.26142     114.520E-03     27.9500E-03    -9.54519E-03    -18.4041E-03    -14.4909E-03     24.0369E-03    -9.54519E-03     25.7456E-03     13.4405E+06     3.96305E+06    -27.5691E+06     4.23988E+06    -23.4811E+06     9.07571E+06    -10.0000E+06         25.2436
            1883     11.8824E-03     98.5861E-03         4.01222        -1.43811        -2.19908        -1.43748         4.01159        -2.19908     112.988E-03     30.4576E-03    -10.0435E-03    -20.4139E-03    -16.7420E-03     26.7857E-03    -10.0435E-03     26.2244E-03     13.0104E+06     1.19466E+06    -21.2785E+06     404.278E+03    -13.0480E+06     5.57029E+06    -8.66421E+06         27.9063
            1884     12.8644E-03     98.6013E-03         3.79102        -1.27518        -2.13404        -1.27459         3.79044        -2.13404     97.7814E-03     33.1708E-03    -10.6672E-03    -22.5039E-03    -19.3233E-03     29.9902E-03    -10.6672E-03     25.8229E-03     4.52222E+06    -11.6883E+06    -47.9045E+06    -5.51128E+06    -40.8445E+06    -8.71480E+06    -7.44884E+06         31.8736
            1885     13.8451E-03     98.6221E-03         3.53826        -1.08549        -2.06571        -1.08514         3.53790        -2.06571     73.8735E-03     37.2254E-03    -11.2766E-03    -25.9500E-03    -22.0357E-03     33.3111E-03    -11.2766E-03     30.3872E-03     1.69382E+06    -25.0094E+06    -64.9473E+06    -9.16468E+06    -40.9650E+06    -38.1332E+06    -9.86363E+06         37.3500
            1886     14.8210E-03     98.6510E-03         3.26769    -881.006E-03        -1.99271    -880.626E-03         3.26731        -1.99271     78.0310E-03     48.1882E-03    -12.0576E-03    -36.1326E-03    -23.5633E-03     35.6190E-03    -12.0576E-03     57.6163E-03     14.1241E+06    -16.9166E+06    -38.3730E+06    -14.9502E+06     3.82511E+06    -30.0404E+06    -14.3681E+06         44.1779
            1887     15.8031E-03     98.7340E-03         2.99335    -682.805E-03        -1.91129    -682.571E-03         2.99312        -1.91129     54.7112E-03     136.530E-03    -12.7997E-03    -123.730E-03    -38.3900E-03     51.1902E-03    -12.7997E-03     241.577E-03     31.6623E+06    -13.3032E+06    -32.6070E+06    -16.3116E+06     26.3381E+06    -24.2744E+06    -14.6609E+06         51.3353
            1888     16.7711E-03     99.1709E-03         2.70377    -484.510E-03        -1.81893    -484.395E-03         2.70366        -1.81893     12.8492E-03     205.949E-03    -13.6123E-03    -192.333E-03    -38.9667E-03     52.5822E-03    -13.6123E-03     386.916E-03     84.7133E+06    -5.09215E+06    -31.5334E+06    -8.96084E+06     13.7728E+06     43.2757E+06    -9.48487E+06         57.1284
            1889     992.954E-06     99.5257E-03         5.45073        -2.43305        -2.68854        -2.62841         5.41047        -2.45294     418.889E-03     14.0696E-03    -6.94396E-03    -7.12566E-03    -7.04883E-03     13.9948E-03    -6.94600E-03     2.37441E-03     91.5495E+06     87.3508E+06     61.5406E+06     89.3557E+06     63.8933E+06     87.1919E+06    -2.84920E+06         20.8052
            1890     1.98661E-03     99.5274E-03         5.34322        -2.49796        -2.53182        -2.48935         5.33311        -2.53031    -99.0100E-03     14.1266E-03    -6.90893E-03    -7.21781E-03    -6.98587E-03     13.8967E-03    -6.91097E-03     4.24444E-03     81.9504E+06     70.8370E+06     62.6766E+06     76.5007E+06      71.892E+06     67.0713E+06    -2.57620E+06         20.8164
            1891     2.97966E-03     99.5289E-03         5.28292        -2.45859        -2.51241        -2.45676         5.27958        -2.51090     187.429E-03     14.1488E-03    -6.83640E-03    -7.31226E-03    -6.83828E-03     13.6749E-03    -6.83640E-03     6.22453E-03     73.5118E+06     57.2996E+06     47.6635E+06     61.4690E+06     69.3424E+06     47.6635E+06    -1.62302E+06         20.8463
            1892     3.97318E-03     99.5308E-03         5.21603        -2.41260        -2.49174        -2.41195         5.21538        -2.49174     47.4026E-03     14.5169E-03    -6.80884E-03    -7.70762E-03    -6.89283E-03     13.7021E-03    -6.80884E-03     8.25979E-03     59.5677E+06     41.8181E+06     33.0424E+06     46.3076E+06     53.2078E+06     34.9128E+06     1.86119E+06         20.9002
            1893     4.96610E-03     99.5338E-03         5.13790        -2.35712        -2.47017        -2.35648         5.13727        -2.47017     119.264E-03     15.3683E-03    -6.86375E-03    -8.50425E-03    -7.24081E-03     14.1049E-03    -6.86375E-03     10.6129E-03     39.9059E+06     24.3759E+06     13.0029E+06     28.6153E+06     24.2935E+06     24.3759E+06     6.72806E+06         20.9778
            1894     5.95895E-03     99.5381E-03         4.99751        -2.24210        -2.44186        -2.24195         4.99736        -2.44186     61.7407E-03     16.4284E-03    -6.94380E-03    -9.48427E-03    -7.63064E-03     14.5747E-03    -6.94380E-03     13.2740E-03     25.0464E+06     12.2665E+06    -5.57909E+06     13.9101E+06     5.55721E+06     12.2665E+06      10.043E+06         21.0807
            1895     6.95106E-03     99.5445E-03         4.83816        -2.11639        -2.40426        -2.11622         4.83799        -2.40426     67.4496E-03     17.7541E-03    -7.05842E-03    -10.6965E-03    -8.19459E-03     15.2522E-03    -7.05842E-03     16.0599E-03     17.8462E+06     3.93191E+06    -12.0111E+06     4.58437E+06     1.25075E+06     3.93191E+06     11.4771E+06         21.2508
            1896     7.94291E-03     99.5524E-03         4.69395        -2.00920        -2.36119        -2.00882         4.69357        -2.36119     98.4072E-03     19.8347E-03    -7.31562E-03    -12.5202E-03    -9.33405E-03     16.6486E-03    -7.31562E-03     19.2183E-03     14.5702E+06     629.505E+03    -20.2196E+06    -2.02495E+06    -10.3480E+06     7.35308E+06     9.93340E+06         21.6321
            1897     8.93239E-03     99.5636E-03         4.52954        -1.88276        -2.31454        -1.88220         4.52898        -2.31454     117.246E-03     22.2421E-03    -7.65242E-03    -14.5902E-03    -10.7393E-03     18.3912E-03    -7.65242E-03     22.4876E-03     10.4672E+06    -478.457E+03    -19.4932E+06    -3.79541E+06    -16.1763E+06     10.4672E+06     6.58685E+06         22.3775
            1898     9.92150E-03     99.5762E-03         4.32873        -1.72424        -2.26282        -1.72342         4.32791        -2.26282     138.165E-03     24.9357E-03    -8.05165E-03    -16.8843E-03    -12.4639E-03     20.5154E-03    -8.05165E-03     25.6779E-03     11.5618E+06     3.85851E+06    -14.8833E+06    -5.10412E+06    -5.92066E+06     11.5618E+06     555.317E+03         23.5204
            1899     10.9080E-03     99.5931E-03         4.11996        -1.56184        -2.20574        -1.56111         4.11923        -2.20574     126.610E-03     28.3399E-03    -8.60536E-03    -19.7338E-03    -15.0026E-03     23.6087E-03    -8.60536E-03     28.5956E-03     10.0948E+06    -2.84814E+06    -28.6083E+06    -11.6148E+06    -19.8416E+06     10.0948E+06    -5.44714E+06         25.2222
            1900     11.8920E-03     99.6126E-03         3.90757        -1.40090        -2.14465        -1.40021         3.90688        -2.14465     115.831E-03     31.7065E-03    -9.28741E-03    -22.4179E-03    -18.0380E-03     27.3266E-03    -9.28741E-03     29.4181E-03     9.15871E+06    -6.21987E+06    -27.3568E+06    -15.6659E+06    -17.9107E+06     9.15871E+06    -3.26844E+06         27.8794
            1901     12.8729E-03     99.6337E-03         3.68081        -1.23381        -2.08037        -1.23321         3.68020        -2.08037     95.9806E-03     35.4474E-03    -10.0849E-03    -25.3625E-03    -21.6462E-03     31.7311E-03    -10.0849E-03     29.0294E-03    -614.626E+03    -14.6791E+06    -44.6994E+06    -18.0223E+06    -35.7136E+06    -6.25716E+06    -3.64632E+06         31.8288
            1902     13.8499E-03     99.6554E-03         3.44030        -1.05398        -2.01279        -1.05345         3.43977        -2.01279     83.8589E-03     40.1878E-03    -10.9357E-03    -29.2522E-03    -25.1974E-03     36.1329E-03    -10.9357E-03     32.4858E-03    -4.55544E+06    -28.4363E+06    -59.1216E+06    -20.1026E+06    -37.0617E+06    -34.9489E+06    -9.15801E+06         37.2690
            1903     14.8263E-03     99.6916E-03         3.18668    -864.760E-03        -1.94098    -864.137E-03         3.18606        -1.94098     94.0225E-03     51.6197E-03    -12.0509E-03    -39.5688E-03    -29.3536E-03     41.4046E-03    -12.0509E-03     55.9171E-03     21.3425E+06    -11.1713E+06    -33.5932E+06    -17.0980E+06     13.8651E+06    -20.1891E+06    -15.1902E+06         44.0222
            1904     15.7947E-03     99.7711E-03         2.91510    -670.444E-03        -1.85941    -670.073E-03         2.91473        -1.85941     70.1939E-03     133.797E-03    -12.9766E-03    -120.819E-03    -37.4769E-03     50.4547E-03    -12.9766E-03     232.051E-03     33.6054E+06    -7.45242E+06    -31.9372E+06    -9.79199E+06     22.5409E+06    -18.5332E+06    -18.4401E+06         51.1104
            1905     16.7833E-03     100.209E-03         2.62692    -472.057E-03        -1.76398    -471.854E-03         2.62671        -1.76398     17.5417E-03     201.506E-03    -13.6827E-03    -187.820E-03    -35.1951E-03     48.8804E-03    -13.6827E-03     379.747E-03     77.3603E+06    -4.55084E+06    -34.1459E+06    -2.95409E+06    -384.725E+03     42.0024E+06    -11.2327E+06         56.8481
            1906     994.559E-06     100.539E-03         5.16099        -2.31869        -2.53954        -2.51654         5.13862        -2.31933     301.750E-03     11.2020E-03    -5.50830E-03    -5.69394E-03    -5.59434E-03     11.1045E-03    -5.51035E-03     2.36423E-03     74.2935E+06     61.1943E+06     49.6115E+06     60.5208E+06     63.5430E+06     61.0354E+06     3.96650E+06         20.6179
            1907     1.98891E-03     100.540E-03         5.16682        -2.42092        -2.44236        -2.43657         5.16167        -2.42156    -79.1466E-03     11.0675E-03    -5.45717E-03    -5.61064E-03    -5.33594E-03     10.7949E-03    -5.45921E-03     4.09786E-03     73.6642E+06     51.1874E+06     45.2301E+06     52.7320E+06     70.1020E+06     47.2476E+06     6.80926E+06         20.6284
            1908     2.98424E-03     100.541E-03         5.10582        -2.38836        -2.42389        -2.39040         5.10417        -2.42019     134.623E-03     11.1528E-03    -5.35230E-03    -5.80037E-03    -5.26230E-03     10.6147E-03    -5.35230E-03     5.85293E-03     69.4196E+06     38.4678E+06     31.2650E+06     41.0493E+06     65.9230E+06     32.1802E+06     8.95183E+06         20.6586
            1909     3.97884E-03     100.543E-03         5.03128        -2.33909        -2.40651        -2.33845         5.03064        -2.40651     75.9477E-03     11.8457E-03    -5.35071E-03    -6.49452E-03    -5.53784E-03     10.8890E-03    -5.35071E-03     8.06525E-03     54.2394E+06     23.3440E+06     8.64428E+06     24.3411E+06     41.9251E+06     19.9614E+06     17.3734E+06         20.7180
            1910     4.97334E-03     100.547E-03         4.95199        -2.28118        -2.38701        -2.28041         4.95122        -2.38701     139.141E-03     12.9900E-03    -5.46920E-03    -7.52030E-03    -6.00892E-03     11.4787E-03    -5.46920E-03     10.6461E-03     37.8529E+06     14.7341E+06    -13.6051E+06     7.10709E+06     17.1408E+06     14.7341E+06     25.1412E+06         20.8085
            1911     5.96673E-03     100.552E-03         4.82395        -2.17684        -2.36052        -2.17627         4.82339        -2.36052     109.765E-03     14.3656E-03    -5.62194E-03    -8.74330E-03    -6.56272E-03     12.1850E-03    -5.62194E-03     13.4470E-03     22.9409E+06     7.86090E+06    -25.6923E+06    -7.99030E+06     5.23883E+06     7.86090E+06     23.1725E+06         20.9297
            1912     6.96020E-03     100.558E-03         4.67323        -2.05392        -2.32509        -2.05309         4.67240        -2.32509     130.598E-03     16.1043E-03    -5.81702E-03    -10.2869E-03    -7.32826E-03     13.1456E-03    -5.81702E-03     16.6107E-03     12.4307E+06     2.28873E+06    -28.6603E+06    -16.1283E+06    -101.226E+03     2.28873E+06     18.8010E+06         21.1237
            1913     7.95212E-03     100.568E-03         4.50478        -1.92042        -2.28218        -1.91960         4.50395        -2.28218     134.727E-03     18.3540E-03    -6.09451E-03    -12.2592E-03    -8.40353E-03     14.4983E-03    -6.09451E-03     20.2646E-03     7.10977E+06    -904.596E+03    -27.4814E+06    -16.7762E+06    -6.50102E+06     2.00103E+06     13.7309E+06         21.5345
            1914     8.94359E-03     100.581E-03         4.33924        -1.79290        -2.23396        -1.79212         4.33847        -2.23396     131.619E-03     21.1650E-03    -6.46550E-03    -14.6993E-03    -10.0040E-03     16.4697E-03    -6.46550E-03     24.1475E-03     4.51861E+06    -5.02677E+06    -21.4004E+06    -15.0397E+06    -10.9205E+06     4.05167E+06     6.11490E+06         22.3132
            1915     9.93235E-03     100.596E-03         4.17914        -1.67459        -2.18273        -1.67353         4.17808        -2.18273     151.541E-03     24.8511E-03    -6.97598E-03    -17.8745E-03    -12.4272E-03     19.4039E-03    -6.97598E-03     28.4588E-03     10.9753E+06    -656.664E+03    -17.8524E+06    -14.7699E+06    -3.73912E+06     10.9753E+06     5.25444E+06         23.4930
            1916     10.9188E-03     100.617E-03         3.99045        -1.52657        -2.12845        -1.52556         3.98944        -2.12845     144.919E-03     29.2506E-03    -7.67479E-03    -21.5756E-03    -15.7457E-03     23.4208E-03    -7.67479E-03     32.3219E-03     15.4840E+06    -5.23732E+06    -23.8748E+06    -16.1636E+06    -12.9486E+06     15.4840E+06     2.65423E+06         25.2124
            1917     11.9013E-03     100.640E-03         3.76623        -1.35009        -2.06956        -1.34913         3.76528        -2.06956     136.504E-03     33.6153E-03    -8.53677E-03    -25.0776E-03    -19.7046E-03     28.2423E-03    -8.53677E-03     33.7258E-03     14.3360E+06    -10.3147E+06    -25.7748E+06    -15.5594E+06    -20.5302E+06     14.3360E+06    -2.80189E+06         27.8464
            1918     12.8805E-03     100.666E-03         3.53756        -1.17829        -2.00627        -1.17745         3.53672        -2.00627     121.788E-03     38.5231E-03    -9.54915E-03    -28.9740E-03    -24.4075E-03     33.9566E-03    -9.54915E-03     33.7576E-03     3.54899E+06    -11.5421E+06    -39.9061E+06    -13.3587E+06    -34.8922E+06      351.62E+03    -516.780E+03         31.7518
            1919     13.8536E-03     100.695E-03         3.31303        -1.01217        -1.93980        -1.01161         3.31247        -1.93980     87.3829E-03     45.1328E-03    -10.6959E-03    -34.4380E-03    -29.9106E-03     40.6054E-03    -10.6959E-03     36.8398E-03     10.4640E+06    -22.1613E+06    -44.7991E+06    -12.8959E+06    -20.8339E+06    -22.7666E+06    -10.0938E+06         37.1217
            1920     14.8215E-03     100.733E-03         3.07312    -837.383E-03        -1.86967    -836.834E-03         3.07257        -1.86967     80.4884E-03     58.1814E-03    -12.1790E-03    -46.0025E-03    -35.5635E-03     47.7424E-03    -12.1790E-03     61.0396E-03     32.8695E+06    -7.01935E+06    -24.8704E+06    -8.47062E+06     19.5801E+06    -10.1298E+06    -21.3798E+06         43.7642
            1921     15.7820E-03     100.830E-03         2.81486    -652.193E-03        -1.78935    -651.824E-03         2.81449        -1.78935     68.8234E-03     124.352E-03    -13.3716E-03    -110.980E-03    -36.0539E-03     49.4260E-03    -13.3716E-03     210.686E-03     37.3494E+06     1.08772E+06    -23.7502E+06    -1.66912E+06     22.6838E+06     -6.3277E+06    -20.0137E+06         50.7461
            1922     16.7776E-03     101.189E-03         2.53818    -458.173E-03        -1.69259    -457.999E-03         2.53801        -1.69259     32.4870E-03     195.297E-03    -14.0150E-03    -181.282E-03    -30.1167E-03     44.1322E-03    -14.0150E-03     368.795E-03     78.0209E+06    -3.74878E+06    -35.7995E+06    -299.837E+03    -8.53740E+06     47.3098E+06    -11.9354E+06         56.3933
            1923     996.256E-06     101.549E-03         4.91014        -2.22827        -2.40606        -2.38366         4.89869        -2.23921     215.011E-03     7.87441E-03    -3.81422E-03    -4.06042E-03    -3.92950E-03     7.74350E-03    -3.81422E-03     2.27961E-03     55.0623E+06     36.3789E+06     27.5301E+06     31.1691E+06     51.4234E+06     36.3789E+06     7.76647E+06         20.4424
            1924     1.99237E-03     101.550E-03         4.91078        -2.30285        -2.33700        -2.32356         4.90829        -2.31380    -63.0530E-03     8.27241E-03    -3.93005E-03    -4.34248E-03    -4.00991E-03     7.93984E-03    -3.93005E-03     3.95065E-03     68.3347E+06     37.7333E+06     23.0324E+06     29.2507E+06     62.7378E+06     37.1119E+06     14.2163E+06         20.4617
            1925     2.98815E-03     101.551E-03         4.88877        -2.30306        -2.32110        -2.30851         4.88813        -2.31500     90.4298E-03     8.62304E-03    -3.95609E-03    -4.66696E-03    -4.04897E-03     8.00505E-03    -3.95609E-03     5.52769E-03     65.6355E+06     24.3583E+06     6.25504E+06     19.8888E+06     52.6231E+06     23.7369E+06     23.2912E+06         20.4972
            1926     3.98437E-03     101.553E-03         4.80210        -2.23896        -2.30532        -2.23868         4.80183        -2.30532     54.5121E-03     9.49497E-03    -4.03562E-03    -5.45926E-03    -4.35701E-03     8.39272E-03    -4.03562E-03     7.73248E-03     50.8422E+06     12.5452E+06    -21.6290E+06     4.65744E+06     24.5558E+06     12.5452E+06     34.1649E+06         20.5634
            1927     4.97958E-03     101.557E-03         4.67994        -2.13761        -2.28206        -2.13718         4.67951        -2.28206     107.025E-03     10.7889E-03    -4.19002E-03    -6.59875E-03    -4.84904E-03     9.03916E-03    -4.19002E-03     10.4026E-03     41.4171E+06     10.3751E+06    -38.2205E+06    -5.66266E+06     8.85928E+06     10.3751E+06     38.9817E+06         20.6651
            1928     5.97483E-03     101.563E-03         4.57865        -2.06179        -2.25107        -2.06107         4.57793        -2.25107     131.204E-03     12.5395E-03    -4.40732E-03    -8.13221E-03    -5.59154E-03     9.99887E-03    -4.40732E-03     13.5216E-03     35.2832E+06     14.5432E+06    -36.2837E+06    -8.74357E+06     7.74308E+06     14.5432E+06     34.4828E+06         20.8007
            1929     6.96822E-03     101.571E-03         4.47434        -1.98435        -2.21757        -1.98335         4.47334        -2.21757     155.316E-03     14.7245E-03    -4.68008E-03    -10.0442E-03    -6.56566E-03     11.2460E-03    -4.68008E-03     17.1629E-03     22.4220E+06     15.0043E+06    -31.6597E+06    -11.5984E+06     2.36074E+06     15.0043E+06     25.8675E+06         21.0128
            1930     7.96130E-03     101.582E-03         4.31674        -1.85758        -2.17948        -1.85678         4.31594        -2.17948     128.304E-03     17.1533E-03    -4.97769E-03    -12.1752E-03    -7.63756E-03     12.6157E-03    -4.97769E-03     21.1721E-03     12.1202E+06     9.26564E+06    -25.5199E+06    -14.5798E+06     1.18012E+06     9.26564E+06     16.7022E+06         21.4462
            1931     8.95309E-03     101.596E-03         4.14425        -1.71982        -2.13477        -1.71915         4.14358        -2.13477     111.809E-03     20.4365E-03    -5.39994E-03    -15.0360E-03    -9.42674E-03     14.8272E-03    -5.39994E-03     25.8541E-03     11.2761E+06    -792.342E+03    -22.1132E+06    -16.4285E+06    -4.97531E+06     9.77435E+06     8.77362E+06         22.2526
            1932     9.94301E-03     101.615E-03         3.97754        -1.59083        -2.08516        -1.59001         3.97672        -2.08516     121.108E-03     24.8199E-03    -5.99047E-03    -18.8288E-03    -12.2428E-03     18.2339E-03    -5.99047E-03     31.2088E-03     16.8462E+06    -2.44658E+06    -19.2172E+06    -15.0512E+06    -6.61262E+06     16.8462E+06     6.00163E+06         23.4676
            1933     10.9291E-03     101.640E-03         3.78833        -1.44510        -2.03157        -1.44428         3.78751        -2.03157     121.964E-03     30.2560E-03    -6.76198E-03    -23.4940E-03    -16.2173E-03     22.9793E-03    -6.76198E-03     36.6967E-03     21.8181E+06    -1.16848E+06    -13.1209E+06    -8.88370E+06    -5.40572E+06     21.8181E+06     3.20401E+06         25.1996
            1934     11.9110E-03     101.670E-03         3.58372        -1.28580        -1.97379        -1.28486         3.58278        -1.97379     132.347E-03     36.0876E-03    -7.78724E-03    -28.3004E-03    -21.3685E-03     29.1556E-03    -7.78724E-03     39.6932E-03     23.1274E+06    -2.96516E+06    -17.3598E+06    -3.93121E+06    -16.3938E+06     23.1274E+06    -2.94799E+06         27.7918
            1935     12.8866E-03     101.701E-03         3.37665        -1.12855        -1.91250        -1.12770         3.37580        -1.91250     120.648E-03     42.1116E-03    -9.01236E-03    -33.1001E-03    -26.9658E-03     35.9773E-03    -9.01236E-03     41.0035E-03     16.3987E+06    -1.87917E+06    -40.4986E+06     2.52774E+06    -38.4598E+06     9.95299E+06    -5.38245E+06         31.6240
            1936     13.8585E-03     101.738E-03         3.15756    -969.273E-03        -1.84830    -968.834E-03         3.15712        -1.84830     78.4087E-03     51.2930E-03    -10.4204E-03    -40.8734E-03    -34.0277E-03     44.4474E-03    -10.4204E-03     48.0671E-03     34.5208E+06    -642.856E+03    -30.7280E+06     7.78203E+06    -1.03714E+06    -3.59501E+06    -10.0554E+06         36.8915
            1937     14.8194E-03     101.789E-03         2.92567    -795.002E-03        -1.78012    -794.595E-03         2.92527        -1.78012     68.9333E-03     64.7477E-03    -12.1978E-03    -52.5471E-03    -40.5238E-03     52.7243E-03    -12.1978E-03     70.1538E-03     40.6115E+06     4.86818E+06    -15.0978E+06     1.84792E+06     26.6179E+06     1.91603E+06    -19.5809E+06         43.3953
            1938     15.7860E-03     101.879E-03         2.68133    -617.553E-03        -1.70184    -617.199E-03         2.68098        -1.70184     65.3148E-03     116.666E-03    -13.7110E-03    -102.952E-03    -39.4016E-03     53.1159E-03    -13.7110E-03     190.864E-03     31.4355E+06     3.59992E+06    -20.9146E+06    -817.212E+03     16.1570E+06    -1.21895E+06    -20.4696E+06         50.2304
            1939     16.7540E-03     102.201E-03         2.41421    -435.886E-03        -1.60593    -435.735E-03         2.41406        -1.60593     33.1869E-03     189.042E-03    -14.4538E-03    -174.588E-03    -26.9223E-03     41.3771E-03    -14.4538E-03     355.889E-03     75.4723E+06    -4.83111E+06    -38.0311E+06    -4.39777E+06    -12.8354E+06     49.8432E+06    -11.9983E+06         55.7595
            1940     998.164E-06     102.556E-03         4.68031        -2.15502        -2.28632        -2.25228         4.67463        -2.18338     131.834E-03     4.93968E-03    -2.34432E-03    -2.59545E-03    -2.44133E-03     4.78555E-03    -2.34432E-03     1.98080E-03     40.7770E+06     22.9141E+06     6.26676E+06     15.1765E+06     31.8672E+06     22.9141E+06     14.1410E+06         20.2990
            1941     1.99529E-03     102.556E-03         4.61855        -2.17203        -2.21300        -2.17452         4.61713        -2.20909    -42.7069E-03     5.64640E-03    -2.52549E-03    -3.12100E-03    -2.77338E-03     5.29878E-03    -2.52549E-03     3.38353E-03     58.4616E+06     24.4265E+06    -5.59085E+06     8.04255E+06     44.8282E+06     24.4265E+06     25.6061E+06         20.3280
            1942     2.99243E-03     102.558E-03         4.60841        -2.17363        -2.20087        -2.17709         4.60796        -2.19696     96.9143E-03     6.43104E-03    -2.70309E-03    -3.72792E-03    -3.05363E-03     5.75675E-03    -2.70309E-03     4.97913E-03     57.4169E+06     18.1675E+06    -24.4459E+06     1.71325E+06     31.2578E+06     18.1675E+06     36.9439E+06         20.3720
            1943     3.98881E-03     102.560E-03         4.52994        -2.10952        -2.18395        -2.10936         4.52978        -2.18395     38.2782E-03     7.62854E-03    -2.89324E-03    -4.73514E-03    -3.43931E-03     6.33270E-03    -2.89324E-03     7.49417E-03     48.7063E+06     15.0696E+06    -43.5537E+06    -925.987E+03     6.07856E+06     15.0696E+06     45.3646E+06         20.4461
            1944     4.98542E-03     102.565E-03         4.39859        -2.00519        -2.15864        -2.00487         4.39827        -2.15864     67.1189E-03     9.12423E-03    -3.09850E-03    -6.02577E-03    -3.98001E-03     7.07847E-03    -3.09850E-03     10.3086E-03     46.1620E+06     17.7087E+06    -45.0646E+06    -2.09904E+06     3.19647E+06     17.7087E+06     44.9286E+06         20.5538
            1945     5.98088E-03     102.571E-03         4.29786        -1.93252        -2.12621        -1.93201         4.29734        -2.12621     112.840E-03     10.9824E-03    -3.33306E-03    -7.64945E-03    -4.71696E-03     8.04987E-03    -3.33306E-03     13.5267E-03     43.1932E+06     19.7148E+06    -38.7635E+06    -3.13588E+06     7.56559E+06     19.7148E+06     40.3205E+06         20.6945
            1946     6.97622E-03     102.581E-03         4.21168        -1.86985        -2.09288        -1.86933         4.21117        -2.09288     111.759E-03     13.2024E-03    -3.60701E-03    -9.59546E-03    -5.63158E-03     9.23849E-03    -3.60701E-03     17.2451E-03     34.9803E+06     17.3285E+06    -34.0731E+06    -5.73943E+06     6.64662E+06     17.3285E+06     33.8592E+06         20.9142
            1947     7.96990E-03     102.593E-03         4.09222        -1.77516        -2.05767        -1.77468         4.09175        -2.05767     98.3983E-03     16.1225E-03    -3.95983E-03    -12.1627E-03    -6.95250E-03     10.9123E-03    -3.95983E-03     21.9000E-03     26.1191E+06     17.8161E+06    -25.1432E+06    -9.84297E+06     10.8189E+06     17.8161E+06     22.9548E+06         21.3609
            1948     8.96218E-03     102.610E-03         3.93268        -1.64792        -2.01735        -1.64688         3.93164        -2.01735     125.195E-03     20.0871E-03    -4.44934E-03    -15.6377E-03    -8.97612E-03     13.4255E-03    -4.44934E-03     27.7909E-03     21.8445E+06     8.87371E+06    -20.7235E+06    -11.4479E+06     754.935E+03     20.6877E+06     13.1625E+06         22.1858
            1949     9.95165E-03     102.633E-03         3.73913        -1.49006        -1.97008        -1.48876         3.73784        -1.97008     140.320E-03     25.1184E-03    -5.07630E-03    -20.0421E-03    -11.9283E-03     17.0046E-03    -5.07630E-03     34.6137E-03     23.8681E+06     2.47407E+06    -14.6675E+06    -9.34956E+06    -2.84385E+06     23.8681E+06     5.02263E+06         23.4270
            1950     10.9387E-03     102.662E-03         3.54566        -1.34111        -1.91657        -1.34009         3.54464        -1.91657     128.483E-03     31.4254E-03    -5.89464E-03    -25.5309E-03    -16.2253E-03     22.1199E-03    -5.89464E-03     42.0097E-03     25.3140E+06     1.35389E+06    -8.74443E+06    -5.84465E+06    -1.54590E+06     25.3140E+06     216.394E+03         25.1611
            1951     11.9202E-03     102.699E-03         3.36996        -1.21265        -1.85968        -1.21140         3.36871        -1.85968     146.984E-03     38.2382E-03    -6.99812E-03    -31.2399E-03    -21.7972E-03     28.7955E-03    -6.99812E-03     47.3599E-03     27.8633E+06     3.33376E+06    -12.8637E+06    -811.363E+03    -8.71860E+06     27.8633E+06    -4.68285E+06         27.6986
            1952     12.8961E-03     102.739E-03         3.17781        -1.06914        -1.80068        -1.06816         3.17683        -1.80068     123.684E-03     45.6337E-03    -8.33981E-03    -37.2942E-03    -28.4344E-03     36.7738E-03    -8.33981E-03     50.9442E-03     22.1638E+06     3.83347E+06    -39.9588E+06     5.69996E+06    -33.6444E+06     13.9829E+06    -13.5747E+06         31.4374
            1953     13.8646E-03     102.782E-03         2.96430    -911.520E-03        -1.73864    -910.955E-03         2.96374        -1.73864     92.2031E-03     56.6666E-03    -9.92147E-03    -46.7452E-03    -36.3585E-03     46.2799E-03    -9.92147E-03     61.9923E-03     40.3794E+06     6.21733E+06    -29.0067E+06     11.8667E+06     2.45810E+06     3.26518E+06    -14.8001E+06         36.5717
            1954     14.8280E-03     102.849E-03         2.75250    -748.003E-03        -1.67240    -747.478E-03         2.75198        -1.67240     81.3490E-03     71.9809E-03    -11.9526E-03    -60.0247E-03    -45.7004E-03     57.6566E-03    -11.9526E-03     82.0076E-03     46.8824E+06     16.0810E+06    -3.34580E+06     13.3850E+06     33.1037E+06     13.1288E+06    -10.6405E+06         42.8958
            1955     15.7741E-03     102.939E-03         2.52491    -585.319E-03        -1.59731    -584.960E-03         2.52456        -1.59731     63.0410E-03     110.698E-03    -13.6866E-03    -97.0067E-03    -42.1114E-03     55.8023E-03    -13.6866E-03     174.084E-03     29.1728E+06     309.692E+03    -23.8048E+06     1.16701E+06     13.8228E+06    -9.31201E+06    -11.2061E+06         49.5511
            1956     16.7609E-03     103.218E-03         2.26902    -411.738E-03        -1.50460    -411.564E-03         2.26885        -1.50460     35.6047E-03     179.364E-03    -14.5369E-03    -164.825E-03    -25.0000E-03     39.5385E-03    -14.5369E-03     336.504E-03     70.9749E+06    -9.86561E+06    -50.5839E+06    -7.16037E+06    -19.6246E+06     37.3104E+06    -9.14177E+06         54.9371
            1957     998.654E-06     103.559E-03         4.38050        -2.02306        -2.15514        -2.13295         4.37866        -2.04342     64.2575E-03     2.99199E-03    -1.34537E-03    -1.64657E-03    -1.48271E-03     2.82813E-03    -1.34537E-03     1.50588E-03     24.1779E+06     6.79226E+06    -25.0158E+06     685.787E+03    -1.52371E+06     6.79226E+06     22.5800E+06         20.1989
            1958     1.99735E-03     103.561E-03         4.31685        -2.03441        -2.07697        -2.03314         4.31557        -2.07697     35.5792E-03     3.61925E-03    -1.51625E-03    -2.10305E-03    -1.73348E-03     3.24968E-03    -1.51625E-03     2.77604E-03     48.5536E+06     10.3971E+06    -33.2118E+06    -440.167E+03     15.7819E+06     10.3971E+06     38.0257E+06         20.2308
            1959     2.99530E-03     103.562E-03         4.25579        -1.99533        -2.05547        -1.99425         4.25472        -2.05547     150.610E-03     4.53765E-03    -1.72671E-03    -2.81094E-03    -2.10707E-03     3.83378E-03    -1.72671E-03     4.25988E-03     51.5918E+06     16.0015E+06    -43.8107E+06    -2.53510E+06     10.3162E+06     16.0015E+06     45.8255E+06         20.2801
            1960     3.99326E-03     103.566E-03         4.19543        -1.95316        -2.03449        -1.95271         4.19497        -2.03449     68.9421E-03     6.03194E-03    -1.95440E-03    -4.07739E-03    -2.62602E-03     4.58057E-03    -1.95440E-03     7.03174E-03     44.1465E+06     19.5914E+06    -50.0821E+06     1.71813E+06    -7.65368E+06     19.5914E+06     46.5614E+06         20.3591
            1961     4.99011E-03     103.571E-03         4.12704        -1.90600        -2.01265        -1.90533         4.12637        -2.01265     86.0373E-03     7.83654E-03    -2.19012E-03    -5.64610E-03    -3.28879E-03     5.47923E-03    -2.19012E-03     10.2092E-03     48.9025E+06     24.7043E+06    -46.4236E+06     7.35184E+06    -4.87294E+06     24.7043E+06     47.0729E+06         20.4671
            1962     5.98663E-03     103.579E-03         4.02513        -1.82582        -1.98722        -1.82495         4.02427        -1.98722     134.034E-03     9.68276E-03    -2.43333E-03    -7.24917E-03    -3.97178E-03     6.40537E-03    -2.43333E-03     13.3502E-03     51.8671E+06     23.6173E+06    -43.0390E+06     5.18122E+06     3.64695E+06     23.6173E+06     47.2790E+06         20.6062
            1963     6.98200E-03     103.589E-03         3.89866        -1.72200        -1.95547        -1.72150         3.89817        -1.95547     105.479E-03     11.9396E-03    -2.70613E-03    -9.23352E-03    -4.75937E-03     7.46547E-03    -2.70613E-03     17.2525E-03     47.8846E+06     20.5040E+06    -37.5447E+06    -512.385E+03     10.8524E+06     20.5040E+06     41.9481E+06         20.8266
            1964     7.97713E-03     103.603E-03         3.77496        -1.62538        -1.91835        -1.62453         3.77411        -1.91835     130.862E-03     15.2592E-03    -3.07421E-03    -12.1853E-03    -6.13102E-03     9.20488E-03    -3.07421E-03     22.7157E-03     41.2320E+06     24.0981E+06    -27.5001E+06    -5.59439E+06     19.3262E+06     24.0981E+06     31.5673E+06         21.2744
            1965     8.96986E-03     103.623E-03         3.64775        -1.52984        -1.87777        -1.52820         3.64610        -1.87777     179.458E-03     19.7010E-03    -3.56677E-03    -16.1344E-03    -8.27273E-03     11.8393E-03    -3.56677E-03     29.6192E-03     30.7644E+06     16.9470E+06    -19.3368E+06     -8.6742E+06     11.5913E+06     25.4574E+06     17.2841E+06         22.1028
            1966     9.96117E-03     103.648E-03         3.48668        -1.40047        -1.83295        -1.39877         3.48499        -1.83295     177.234E-03     25.5080E-03    -4.21172E-03    -21.2956E-03    -11.3330E-03     15.5454E-03    -4.21172E-03     38.2652E-03     27.7248E+06     8.88506E+06    -10.1270E+06    -6.77596E+06     5.53400E+06     27.7248E+06     4.79642E+06         23.3539
            1967     10.9476E-03     103.684E-03         3.30913        -1.26242        -1.78295        -1.26112         3.30783        -1.78295     152.252E-03     32.5270E-03    -5.05048E-03    -27.4757E-03    -15.4633E-03     20.5146E-03    -5.05048E-03     47.9000E-03     29.6339E+06     4.65558E+06    -7.56734E+06    -3.47947E+06     567.712E+03     29.6339E+06    -595.333E+03         25.0727
            1968     11.9305E-03     103.727E-03         3.13095        -1.13103        -1.72902        -1.12956         3.12948        -1.72902     157.278E-03     40.0266E-03    -6.12295E-03    -33.9033E-03    -20.8816E-03     27.0049E-03    -6.12295E-03     56.0746E-03     29.6295E+06     6.80676E+06    -8.43223E+06    -1.47688E+06    -148.588E+03     29.6295E+06    -5.68705E+06         27.5461
            1969     12.9074E-03     103.776E-03         2.94519    -989.454E-03        -1.67213    -988.501E-03         2.94424        -1.67213     113.037E-03     48.8313E-03    -7.48032E-03    -41.3509E-03    -28.4259E-03     35.9064E-03    -7.48032E-03     62.8164E-03     20.5000E+06     5.09253E+06    -33.3225E+06    -2.38784E+06    -20.9095E+06     15.5675E+06    -15.0275E+06         31.1807
            1970     13.8761E-03     103.830E-03         2.75116    -846.513E-03        -1.61205    -845.986E-03         2.75063        -1.61205     82.4997E-03     61.9376E-03    -9.16664E-03    -52.7725E-03    -37.7928E-03     46.9579E-03    -9.16664E-03     77.0708E-03     34.7793E+06     945.758E+03    -33.4185E+06    -2.16163E+06     1.22113E+06     3.24697E+06    -20.7959E+06         36.1480
            1971     14.8341E-03     103.908E-03         2.55263    -696.480E-03        -1.54796    -695.961E-03         2.55211        -1.54796     76.3454E-03     79.1728E-03    -11.3036E-03    -67.8703E-03    -47.4403E-03     58.7428E-03    -11.3036E-03     101.244E-03     38.3986E+06     5.25659E+06    -11.7165E+06     2.22137E+06     20.2128E+06     9.50452E+06    -11.6439E+06         42.2531
            1972     15.7861E-03     104.018E-03         2.34231    -545.916E-03        -1.47674    -545.701E-03         2.34209        -1.47674     46.6735E-03     105.214E-03    -13.1918E-03    -92.0215E-03    -44.5135E-03     57.7064E-03    -13.1918E-03     163.354E-03     35.9975E+06    -2.34991E+06    -24.2688E+06     950.658E+03     18.2112E+06    -9.78313E+06     1.53837E+06         48.6851
            1973     16.7579E-03     104.215E-03         2.10302    -386.603E-03        -1.38939    -386.503E-03         2.10292        -1.38939     24.2287E-03     168.847E-03    -14.2733E-03    -154.573E-03    -26.9648E-03     41.2395E-03    -14.2733E-03     312.898E-03     80.1122E+06    -4.17689E+06    -57.7040E+06    -1.80489E+06    -16.5897E+06     36.6259E+06    -2.81324E+06         53.8795
            1974     999.441E-06     104.562E-03         3.98371        -1.86671        -1.95811        -1.95480         3.98336        -1.86965     19.4707E-03     1.91082E-03    -814.170E-06    -1.09670E-03    -924.155E-06     1.73828E-03    -814.170E-06     1.28337E-03    -3.05699E+06    -17.7704E+06    -56.6785E+06    -18.0860E+06    -41.6495E+06    -17.7704E+06     21.9724E+06         20.1356
            1975     1.99830E-03     104.563E-03         3.95876        -1.88175        -1.91092        -1.88537         3.95804        -1.90658     33.7337E-03     2.42597E-03    -957.497E-06    -1.46848E-03    -1.08601E-03     2.04350E-03    -957.497E-06     2.30190E-03     25.6079E+06    -1.86339E+06    -52.4208E+06    -7.38049E+06    -19.4323E+06    -1.86339E+06     38.1541E+06         20.1623
            1976     2.99743E-03     104.566E-03         3.88134        -1.82313        -1.88960        -1.82225         3.88046        -1.88960     105.728E-03     3.20300E-03    -1.12003E-03    -2.08296E-03    -1.37028E-03     2.49032E-03    -1.12003E-03     3.58426E-03     44.6694E+06     12.9697E+06    -54.7993E+06     204.260E+03    -10.3341E+06     12.9697E+06     49.0813E+06         20.2099
            1977     3.99558E-03     104.569E-03         3.82482        -1.78783        -1.86766        -1.78740         3.82440        -1.86766     54.4701E-03     4.70806E-03    -1.29560E-03    -3.41243E-03    -1.92662E-03     3.22226E-03    -1.29560E-03     6.24315E-03     41.7232E+06     16.0539E+06    -56.4229E+06     621.508E+03    -15.3212E+06     16.0539E+06     48.2541E+06         20.2871
            1978     4.99376E-03     104.576E-03         3.79501        -1.77290        -1.84889        -1.77225         3.79436        -1.84889     79.4530E-03     6.54931E-03    -1.49972E-03    -5.04946E-03    -2.55413E-03     4.05398E-03    -1.49972E-03     9.51240E-03     40.6607E+06     14.4094E+06    -58.7754E+06     273.447E+03    -18.3882E+06     14.4094E+06     48.7429E+06         20.3902
            1979     5.99068E-03     104.584E-03         3.70151        -1.69598        -1.82862        -1.69511         3.70064        -1.82862     129.122E-03     8.38147E-03    -1.74722E-03    -6.63416E-03    -3.18546E-03     4.93277E-03    -1.74722E-03     12.6130E-03     51.5785E+06     21.1284E+06    -49.9334E+06     4.34388E+06    -2.69883E+06     21.1284E+06     50.4447E+06         20.5257
            1980     6.98763E-03     104.596E-03         3.55526        -1.56943        -1.79908        -1.56861         3.55444        -1.79908     123.447E-03     10.8748E-03    -2.03999E-03    -8.83493E-03    -4.02363E-03     6.06353E-03    -2.03999E-03     16.9172E-03     57.0287E+06     30.1343E+06    -34.6930E+06     8.51955E+06     13.8162E+06     30.1343E+06     45.4853E+06         20.7426
            1981     7.98281E-03     104.611E-03         3.43314        -1.47050        -1.76175        -1.46926         3.43190        -1.76175     151.491E-03     14.4095E-03    -2.38696E-03    -12.0228E-03    -5.26886E-03     7.65551E-03    -2.38696E-03     23.0406E-03     56.1037E+06     35.7331E+06    -21.9199E+06     10.2601E+06     23.9237E+06     35.7331E+06     37.9080E+06         21.1810
            1982     8.97728E-03     104.633E-03         3.32540        -1.39117        -1.72159        -1.39007         3.32430        -1.72159     142.198E-03     19.2404E-03    -2.83645E-03    -16.4042E-03    -7.27363E-03     10.1098E-03    -2.83645E-03     31.0756E-03     49.1878E+06     34.3090E+06    -10.1052E+06     7.44275E+06     27.6165E+06     38.3324E+06     24.6266E+06         21.9979
            1983     9.96800E-03     104.663E-03         3.20230        -1.29567        -1.67939        -1.29470         3.20133        -1.67939     129.204E-03     25.6071E-03    -3.43986E-03    -22.1667E-03    -10.1199E-03     13.5603E-03    -3.43986E-03     41.4166E-03     39.3708E+06     19.0696E+06    -3.06257E+06     1.86904E+06     16.2735E+06     37.2354E+06     9.25196E+06         23.2379
            1984     10.9574E-03     104.703E-03         3.05760        -1.18601        -1.63397        -1.18503         3.05662        -1.63397     127.409E-03     33.0792E-03    -4.19914E-03    -28.8795E-03    -13.8091E-03     18.0087E-03    -4.19914E-03     53.0574E-03     33.3719E+06     6.97493E+06    -2.82257E+06     184.512E+03     3.96785E+06     33.3719E+06     671.966E+03         24.9176
            1985     11.9424E-03     104.752E-03         2.87818        -1.04651        -1.58426        -1.04552         2.87718        -1.58426     122.561E-03     41.4710E-03    -5.17280E-03    -36.2980E-03    -19.2062E-03     24.3792E-03    -5.17280E-03     64.2114E-03     31.2008E+06     10.5684E+06    -2.54467E+06     1.09611E+06     6.92761E+06     31.2008E+06    -3.94019E+06         27.3057
            1986     12.9212E-03     104.810E-03         2.68794    -897.964E-03        -1.52982    -897.317E-03         2.68730        -1.52982     85.2274E-03     51.5450E-03    -6.48748E-03    -45.0576E-03    -27.2057E-03     33.6931E-03    -6.48748E-03     74.6617E-03     21.9694E+06     9.09473E+06    -20.0267E+06    -1.04505E+06    -9.88696E+06     21.9694E+06     -9.5771E+06         30.8226
            1987     13.8906E-03     104.877E-03         2.50838    -766.704E-03        -1.47141    -766.241E-03         2.50792        -1.47141     70.2142E-03     66.0849E-03    -8.14132E-03    -57.9457E-03    -36.7931E-03     44.9322E-03    -8.14132E-03     92.9839E-03     37.2151E+06     5.88387E+06    -26.7468E+06    -4.48798E+06     10.4593E+06     10.3808E+06    -19.2816E+06         35.6054
            1988     14.8513E-03     104.970E-03         2.32203    -631.271E-03        -1.40926    -630.736E-03         2.32149        -1.40926     76.7796E-03     81.6269E-03    -10.1303E-03    -71.4986E-03    -43.3010E-03     53.4293E-03    -10.1303E-03     118.230E-03     32.9621E+06     728.897E+03    -35.2970E+06    -6.73712E+06     154.306E+03     4.97682E+06    -16.0722E+06         41.4592
            1989     15.8103E-03     105.081E-03         2.12964    -496.382E-03        -1.34131    -496.021E-03         2.12927        -1.34131     56.4417E-03     106.237E-03    -11.9871E-03    -94.2498E-03    -45.7339E-03     57.7214E-03    -11.9871E-03     170.474E-03     36.1654E+06    -1.53378E+06    -34.5015E+06    -1.08274E+06     5.37699E+06    -4.16417E+06     946.230E+03         47.6156
            1990     16.7657E-03     105.265E-03         1.92189    -366.546E-03        -1.25998    -366.320E-03         1.92166        -1.25998     32.5748E-03     161.350E-03    -13.4162E-03    -147.933E-03    -34.7184E-03     48.1352E-03    -13.4162E-03     294.134E-03     93.2714E+06     19.6468E+06    -45.0126E+06     19.3437E+06    -5.53093E+06     54.0928E+06     7.92549E+06         52.5631
            1991     999.388E-06     105.562E-03         3.57127        -1.68620        -1.76539        -1.75999         3.56999        -1.69032     51.8863E-03     1.34042E-03    -602.261E-06    -738.167E-06    -641.868E-06     1.24412E-03    -602.261E-06     788.276E-06    -50.0706E+06    -91.1574E+06    -113.962E+06    -92.0953E+06    -69.7426E+06    -93.3522E+06     12.3111E+06         20.1056
            1992     1.99865E-03     105.565E-03         3.55903        -1.70583        -1.72609        -1.70969         3.55855        -1.72175     3.47580E-03     1.64813E-03    -676.168E-06    -971.972E-06    -742.553E-06     1.41871E-03    -676.168E-06     1.41941E-03    -25.7111E+06    -70.9240E+06    -100.321E+06    -73.2161E+06    -48.3229E+06    -75.4175E+06     20.6232E+06         20.1225
            1993     2.99775E-03     105.567E-03         3.51194        -1.67024        -1.71126        -1.66987         3.51157        -1.71126     59.9759E-03     2.26596E-03    -817.060E-06    -1.44888E-03    -956.467E-06     1.77354E-03    -817.060E-06     2.48195E-03    -307.156E+03    -42.7562E+06    -79.4399E+06    -44.0861E+06    -33.3624E+06    -45.0549E+06     32.3381E+06         20.1601
            1994     3.99709E-03     105.572E-03         3.45475        -1.62748        -1.69502        -1.62714         3.45441        -1.69502     44.7507E-03     3.56800E-03    -993.094E-06    -2.57489E-03    -1.43208E-03     2.42519E-03    -993.094E-06     4.74110E-03     21.8572E+06    -16.8251E+06    -63.4581E+06    -16.6762E+06    -24.9247E+06    -16.8251E+06     39.7775E+06         20.2244
            1995     4.99491E-03     105.579E-03         3.39042        -1.57882        -1.67553        -1.57822         3.38982        -1.67553     77.3067E-03     5.25435E-03    -1.18657E-03    -4.06790E-03    -1.93567E-03     3.12212E-03    -1.18657E-03     7.81707E-03     32.0906E+06    -487.858E+03    -59.3763E+06     2.41742E+06    -29.7032E+06    -487.858E+03     41.6894E+06         20.3132
            1996     5.99328E-03     105.589E-03         3.29768        -1.50487        -1.65172        -1.50425         3.29706        -1.65172     106.808E-03     7.10796E-03    -1.39467E-03    -5.71331E-03    -2.47668E-03     3.87133E-03    -1.39467E-03     11.1354E-03     49.6016E+06     16.9214E+06    -46.5429E+06     15.4796E+06    -12.4209E+06     16.9214E+06     43.9913E+06         20.4390
            1997     6.99007E-03     105.601E-03         3.20647        -1.43062        -1.62323        -1.42962         3.20547        -1.62323     132.188E-03     9.67377E-03    -1.65146E-03    -8.02223E-03    -3.30775E-03     4.95929E-03    -1.65146E-03     15.6400E-03     63.0145E+06     33.5328E+06    -32.1593E+06     20.4137E+06     10.4416E+06     33.5328E+06     46.3265E+06         20.6502
            1998     7.98678E-03     105.619E-03         3.11475        -1.35777        -1.59159        -1.35657         3.11354        -1.59159     145.501E-03     13.2970E-03    -1.96180E-03    -11.3352E-03    -4.45606E-03     6.41779E-03    -1.96180E-03     22.0930E-03     66.3126E+06     43.2364E+06    -19.4875E+06     19.0145E+06     27.8106E+06     43.2364E+06     42.0958E+06         21.0788
            1999     8.98167E-03     105.642E-03         2.99247        -1.25834        -1.55621        -1.25763         2.99176        -1.55621     107.388E-03     18.2244E-03    -2.35152E-03    -15.8735E-03    -6.11331E-03     8.46418E-03    -2.35152E-03     30.8135E-03     62.9607E+06     49.4569E+06    -4.66509E+06     18.1599E+06     40.1357E+06     49.4569E+06     31.5408E+06         21.8748
            2000     9.97591E-03     105.676E-03         2.86919        -1.15937        -1.51634        -1.15850         2.86833        -1.51634     113.349E-03     24.5160E-03    -2.85830E-03    -21.6582E-03    -8.40823E-03     11.2661E-03    -2.85830E-03     41.7519E-03     52.8386E+06     38.1268E+06     2.54215E+06     15.6329E+06     28.7696E+06     49.1050E+06     18.1764E+06         23.0795
            2001     10.9662E-03     105.718E-03         2.74815        -1.06806        -1.47302        -1.06695         2.74705        -1.47302     128.482E-03     32.3683E-03    -3.48657E-03    -28.8820E-03    -11.6726E-03     15.1589E-03    -3.48657E-03     55.0131E-03     41.4974E+06     18.2245E+06     2.10320E+06     9.42728E+06     10.9004E+06     41.4974E+06     6.98157E+06         24.6885
            2002     11.9536E-03     105.774E-03         2.59260    -948.420E-03        -1.42595    -947.300E-03         2.59148        -1.42595     121.031E-03     41.7824E-03    -4.31131E-03    -37.4713E-03    -16.7440E-03     21.0551E-03    -4.31131E-03     69.5098E-03     36.3164E+06     16.8127E+06     687.717E+03     4.11183E+06     13.3886E+06     36.3164E+06     430.903E+03         26.9539
            2003     12.9346E-03     105.841E-03         2.41175    -811.733E-03        -1.37416    -810.608E-03         2.41062        -1.37416     106.855E-03     53.0691E-03    -5.47263E-03    -47.5964E-03    -24.3163E-03     29.7890E-03    -5.47263E-03     84.5687E-03     29.9147E+06     17.5288E+06    -14.5607E+06     5.23092E+06    -2.26281E+06     29.9147E+06    -7.35867E+06         30.3263
            2004     13.9078E-03     105.921E-03         2.23931    -685.075E-03        -1.31808    -684.174E-03         2.23840        -1.31808     91.3536E-03     67.0551E-03    -6.90801E-03    -60.1480E-03    -31.6812E-03     38.5883E-03    -6.90801E-03     105.589E-03     47.4605E+06     17.8674E+06    -21.7817E+06     252.737E+03     20.2493E+06     23.0442E+06    -9.54051E+06         34.9120
            2005     14.8754E-03     106.023E-03         2.06932    -562.841E-03        -1.25853    -562.328E-03         2.06881        -1.25853     66.6903E-03     81.3540E-03    -8.58483E-03    -72.7701E-03    -38.0476E-03     46.6315E-03    -8.58483E-03     128.496E-03     31.4034E+06     3.06567E+06    -49.9075E+06    -12.5030E+06    -8.77158E+06     5.83607E+06    -9.26993E+06         40.4649
            2006     15.8452E-03     106.131E-03         1.89478    -435.967E-03        -1.19364    -435.591E-03         1.89441        -1.19364     54.6016E-03     106.466E-03    -10.3576E-03    -96.1075E-03    -45.0271E-03     55.3852E-03    -10.3576E-03     175.510E-03     28.6713E+06    -2.07352E+06    -53.2104E+06    -18.9814E+06    -8.32809E+06     696.878E+03    -8.89185E+06         46.2777
            2007     16.8124E-03     106.339E-03         1.71560    -325.261E-03        -1.11734    -324.864E-03         1.71521        -1.11734     28.2906E-03     151.312E-03    -12.1969E-03    -139.116E-03    -46.2108E-03     58.4076E-03    -12.1969E-03     269.030E-03     75.1570E+06     6.78081E+06    -59.7268E+06    -18.5850E+06    -7.53752E+06     48.3335E+06    -5.62018E+06         50.9094
            2008     998.591E-06     106.565E-03         3.16086        -1.47950        -1.59316        -1.57034         3.15942        -1.50088     14.6436E-03     2.01626E-03    -941.080E-06    -1.07516E-03    -977.536E-06     2.00610E-03    -1.02855E-03     152.142E-06    -79.2909E+06    -148.703E+06    -161.356E+06    -150.174E+06    -80.1675E+06    -159.008E+06     1.13683E+06         20.1337
            2009     1.99724E-03     106.565E-03         3.12697        -1.50031        -1.52812        -1.49978         3.12645        -1.52812     15.6720E-03     2.00055E-03    -947.983E-06    -1.05256E-03    -994.974E-06     1.94775E-03    -952.772E-06     501.948E-06    -55.7322E+06    -145.310E+06    -154.780E+06    -144.041E+06    -57.0014E+06    -154.780E+06    -631.918E+03         20.1407
            2010     2.99606E-03     106.569E-03         3.10300        -1.49823        -1.51714        -1.49782         3.10259        -1.51714     75.7071E-03     2.27046E-03    -1.01297E-03    -1.25748E-03    -1.06979E-03     2.08756E-03    -1.01776E-03     1.38202E-03    -43.0035E+06    -127.244E+06    -134.556E+06    -123.550E+06    -47.0786E+06    -134.174E+06     208.190E+03         20.1617
            2011     3.99439E-03     106.574E-03         3.04802        -1.45101        -1.50592        -1.45046         3.04747        -1.50592     92.2746E-03     2.91939E-03    -1.09176E-03    -1.82768E-03    -1.26291E-03     2.35463E-03    -1.09176E-03     2.94895E-03    -19.9527E+06    -98.3341E+06    -119.437E+06    -91.0094E+06    -37.1761E+06    -109.539E+06     6.99169E+06         20.2004
            2012     4.99374E-03     106.582E-03         2.96872        -1.37701        -1.48644        -1.37629         2.96800        -1.48644     104.367E-03     3.96089E-03    -1.17560E-03    -2.78540E-03    -1.51770E-03     2.69319E-03    -1.17560E-03     5.19798E-03    -3.53503E+06    -64.5062E+06    -109.068E+06    -54.5542E+06    -35.7216E+06    -86.8329E+06     11.3122E+06         20.2603
            2013     5.99197E-03     106.591E-03         2.89582        -1.32306        -1.46176        -1.32259         2.89535        -1.46176     82.6286E-03     5.57143E-03    -1.33509E-03    -4.23636E-03    -1.95295E-03     3.28802E-03    -1.33509E-03     8.25377E-03     10.8554E+06    -25.9272E+06    -80.0410E+06    -18.1602E+06    -25.1116E+06    -51.8411E+06     17.0416E+06         20.3602
            2014     6.99058E-03     106.606E-03         2.84534        -1.28583        -1.43664        -1.28499         2.84450        -1.43664     113.714E-03     7.94906E-03    -1.61063E-03    -6.33828E-03    -2.60626E-03     4.21704E-03    -1.61063E-03     12.5297E-03     40.1385E+06     10.0253E+06    -41.0390E+06     15.5217E+06    -4.52304E+06    -1.87384E+06     31.1025E+06         20.5601
            2015     7.98725E-03     106.624E-03         2.76222        -1.21790        -1.41013        -1.21678         2.76111        -1.41013     131.783E-03     11.7167E-03    -1.91837E-03    -9.79827E-03    -3.64759E-03     5.56604E-03    -1.91837E-03     19.4319E-03     74.1578E+06     40.0291E+06    -9.44142E+06     36.6064E+06       28.11E+06     40.0291E+06     39.0403E+06         20.9846
            2016     8.98318E-03     106.650E-03         2.64122        -1.12006        -1.37876        -1.11887         2.64002        -1.37876     125.493E-03     16.6777E-03    -2.25083E-03    -14.4276E-03    -5.10544E-03     7.35554E-03    -2.25083E-03     28.4980E-03     81.7173E+06     57.4765E+06    -239.159E+03     38.6360E+06     42.8421E+06     57.4765E+06     38.9904E+06         21.7524
            2017     9.97681E-03     106.685E-03         2.52164        -1.02514        -1.34204        -1.02340         2.51990        -1.34204     146.161E-03     22.7276E-03    -2.65281E-03    -20.0753E-03    -6.88838E-03     9.54069E-03    -2.65281E-03     39.5146E-03     70.4633E+06     56.3552E+06    -3.70288E+06     25.1957E+06     39.2202E+06     58.6998E+06     33.5728E+06         22.8948
            2018     10.9706E-03     106.731E-03         2.39312    -926.077E-03        -1.30086    -924.632E-03         2.39168        -1.30086     132.057E-03     30.5796E-03    -3.14884E-03    -27.4307E-03    -9.39744E-03     12.5464E-03    -3.14884E-03     53.6694E-03     56.7209E+06     35.2800E+06     1.22545E+06     13.5800E+06     25.6212E+06     54.0252E+06     16.2906E+06         24.3986
            2019     11.9605E-03     106.792E-03         2.25553    -823.177E-03        -1.25543    -822.157E-03         2.25451        -1.25543     107.246E-03     40.6270E-03    -3.78856E-03    -36.8386E-03    -13.5130E-03     17.3014E-03    -3.78856E-03     70.9848E-03     50.1820E+06     23.8639E+06     7.02120E+06     13.2345E+06     17.6506E+06     50.1820E+06     4.54483E+06         26.5008
            2020     12.9466E-03     106.868E-03         2.11784    -724.471E-03        -1.20644    -723.417E-03         2.11678        -1.20644     96.8529E-03     52.0948E-03    -4.65919E-03    -47.4356E-03    -19.2604E-03     23.9196E-03    -4.65919E-03     89.4440E-03     42.2047E+06     22.6839E+06    -7.62791E+06     7.00917E+06     8.04680E+06     42.2047E+06    -218.218E+03         29.6717
            2021     13.9260E-03     106.958E-03         1.96623    -613.267E-03        -1.15434    -612.473E-03         1.96544        -1.15434     78.1546E-03     64.1992E-03    -5.74781E-03    -58.4519E-03    -24.8592E-03     30.6065E-03    -5.74781E-03     109.220E-03     43.3430E+06     16.8447E+06    -18.1547E+06    -4.38138E+06     12.9747E+06     33.4396E+06     3.45274E+06         33.9995
            2022     14.9068E-03     107.059E-03         1.80695    -495.794E-03        -1.09832    -495.395E-03         1.80655        -1.09832     52.8229E-03     82.3305E-03    -7.20431E-03    -75.1268E-03    -36.8664E-03     44.0702E-03    -7.20431E-03     134.688E-03     30.5306E+06     6.64425E+06    -33.7066E+06    -13.9535E+06    -3.20557E+06     20.6273E+06     5.21171E+06         39.1810
            2023     15.8629E-03     107.195E-03         1.64798    -375.998E-03        -1.03672    -375.680E-03         1.64767        -1.03672     46.4272E-03     104.824E-03    -9.13261E-03    -95.6926E-03    -50.0333E-03     59.1650E-03    -9.13261E-03     167.767E-03     36.6657E+06     7.24647E+06    -39.4064E+06    -19.4861E+06     9.75399E+06     14.2379E+06    -8.79654E+06         44.5503
            2024     16.8183E-03     107.384E-03         1.48178    -270.660E-03    -964.689E-03    -270.228E-03         1.48135    -964.689E-03     30.7223E-03     145.913E-03    -11.4044E-03    -134.510E-03    -55.5616E-03     66.9650E-03    -11.4044E-03     250.695E-03     62.4675E+06     8.33247E+06    -70.6748E+06    -18.9585E+06    -20.9560E+06     40.0397E+06    -14.4407E+06         48.7866
            2025     997.699E-06     107.567E-03         2.69831        -1.27069        -1.36696        -1.34845         2.69706        -1.28795     15.8320E-03     4.02471E-03    -1.83717E-03    -2.18751E-03    -2.09829E-03     4.02297E-03    -1.92464E-03    -162.353E-09    -76.6456E+06    -139.241E+06    -155.306E+06    -145.757E+06    -77.6581E+06    -147.778E+06    -5.61213E+06         20.2349
            2026     1.99513E-03     107.569E-03         2.66278        -1.29147        -1.32305        -1.29964         2.66204        -1.31413     37.9393E-03     4.01516E-03    -1.94189E-03    -2.07327E-03    -2.06457E-03     4.01124E-03    -1.94668E-03     14.9512E-06    -46.9222E+06    -146.396E+06    -153.584E+06    -144.655E+06    -48.6633E+06    -153.584E+06    -11.5027E+06         20.2424
            2027     2.99266E-03     107.571E-03         2.63470        -1.29164        -1.30710        -1.29106         2.63413        -1.30710     77.8443E-03     4.05776E-03    -1.96483E-03    -2.09297E-03    -2.04123E-03     4.01081E-03    -1.96962E-03     601.774E-06    -39.6631E+06    -146.721E+06    -153.499E+06    -143.889E+06    -42.8566E+06    -153.137E+06    -17.4946E+06         20.2561
            2028     3.99067E-03     107.577E-03         2.59282        -1.25125        -1.29745        -1.25079         2.59237        -1.29745     79.0498E-03     4.14715E-03    -1.94824E-03    -2.19888E-03    -1.99862E-03     3.97791E-03    -1.97925E-03     1.43565E-03    -33.6670E+06    -137.401E+06    -153.347E+06    -136.937E+06    -38.8722E+06    -148.606E+06    -21.3687E+06         20.2754
            2029     4.98789E-03     107.584E-03         2.54087        -1.20198        -1.28194        -1.20147         2.54035        -1.28194     80.3612E-03     4.42981E-03    -1.95387E-03    -2.47592E-03    -1.98945E-03     3.97435E-03    -1.98489E-03     2.82359E-03    -28.0477E+06    -116.853E+06    -149.585E+06    -120.401E+06    -34.9054E+06    -139.180E+06    -23.0736E+06         20.3073
            2030     5.98632E-03     107.595E-03         2.50001        -1.16827        -1.26368        -1.16773         2.49948        -1.26368     79.4746E-03     5.12860E-03    -2.03982E-03    -3.08882E-03    -2.09220E-03     4.13198E-03    -2.03982E-03     4.94729E-03    -25.9290E+06    -92.5476E+06    -128.803E+06    -96.1672E+06    -32.6509E+06    -118.461E+06    -20.6128E+06         20.3727
            2031     6.98365E-03     107.609E-03         2.43485        -1.10894        -1.24309        -1.10796         2.43387        -1.24309     114.482E-03     6.58075E-03    -2.17902E-03    -4.40158E-03    -2.36201E-03     4.54118E-03    -2.17902E-03     8.28492E-03    -1.30829E+06    -66.9108E+06    -92.1595E+06    -59.7371E+06    -21.8315E+06    -78.8099E+06    -11.3507E+06         20.5439
            2032     7.98243E-03     107.629E-03         2.34455        -1.03209        -1.21773        -1.03093         2.34339        -1.21773     124.894E-03     9.57156E-03    -2.35224E-03    -7.21926E-03    -3.06243E-03     5.41473E-03    -2.35224E-03     14.3622E-03     43.0366E+06    -24.4672E+06    -50.7574E+06    -13.6033E+06     12.8435E+06    -31.4282E+06     7.01239E+06         20.9450
            2033     8.97927E-03     107.657E-03         2.26221    -968.909E-03        -1.18832    -967.458E-03         2.26076        -1.18832     134.725E-03     13.8011E-03    -2.62939E-03    -11.1720E-03    -4.13811E-03     6.76724E-03    -2.62939E-03     22.4143E-03     65.2849E+06     20.9934E+06    -19.0931E+06     24.1422E+06     29.0106E+06     14.0323E+06     28.2938E+06         21.6625
            2034     9.97569E-03     107.693E-03         2.16135    -893.346E-03        -1.15569    -891.446E-03         2.15945        -1.15569     149.485E-03     19.8058E-03    -3.02160E-03    -16.7841E-03    -5.59518E-03     8.61680E-03    -3.02160E-03     33.6833E-03     85.1259E+06     57.5301E+06    -2.90936E+06     43.8972E+06     38.3193E+06     57.5301E+06     41.1021E+06         22.7158
            2035     10.9685E-03     107.742E-03         2.03500    -794.370E-03        -1.11852    -792.827E-03         2.03345        -1.11852     126.311E-03     27.3935E-03    -3.41899E-03    -23.9743E-03    -7.46530E-03     10.8845E-03    -3.41899E-03     47.9726E-03     87.5081E+06       66.27E+06     4.76184E+06     37.9741E+06     45.2621E+06     75.3037E+06     34.1013E+06         24.0927
            2036     11.9618E-03     107.804E-03         1.92014    -703.503E-03        -1.07656    -702.418E-03         1.91906        -1.07656     100.049E-03     37.4027E-03    -3.85996E-03    -33.5429E-03    -10.2910E-03     14.1507E-03    -3.85996E-03     66.5801E-03     67.1828E+06     39.2739E+06     2.01613E+06     17.1418E+06     24.9894E+06     66.3416E+06     17.1536E+06         25.9986
            2037     12.9510E-03     107.889E-03         1.81159    -627.966E-03        -1.03145    -627.162E-03         1.81079        -1.03145     76.5477E-03     47.5008E-03    -4.41779E-03    -43.0839E-03    -13.5934E-03     18.0103E-03    -4.41779E-03     84.8334E-03     57.9642E+06     23.8477E+06    -7.16826E+06     4.93553E+06     11.7439E+06     57.9642E+06     13.3611E+06         28.8736
            2038     13.9402E-03     107.981E-03         1.68343    -531.968E-03    -983.485E-03    -531.547E-03         1.68301    -983.485E-03     52.1621E-03     60.0425E-03    -5.20834E-03    -54.8344E-03    -20.7757E-03     25.9837E-03    -5.20834E-03     104.736E-03     52.5837E+06     18.5382E+06    -9.61574E+06     2.05542E+06     6.86706E+06     52.5837E+06     13.3997E+06         32.8207
            2039     14.9166E-03     108.095E-03         1.53895    -424.696E-03    -930.407E-03    -424.442E-03         1.53869    -930.407E-03     42.7933E-03     84.2264E-03    -6.54222E-03    -77.6838E-03    -37.1860E-03     43.7286E-03    -6.54222E-03     139.908E-03     45.4513E+06     17.7836E+06    -7.68166E+06     6.01657E+06     4.08541E+06     45.4513E+06     10.9982E+06         37.5548
            2040     15.8740E-03     108.269E-03         1.38898    -319.063E-03    -871.547E-03    -318.791E-03         1.38870    -871.547E-03     35.4759E-03     108.487E-03    -8.54188E-03    -99.9462E-03    -54.7170E-03     63.2574E-03    -8.54188E-03     171.618E-03     58.9127E+06     24.8083E+06    -229.681E+03     11.8214E+06     37.1570E+06     34.5129E+06     1.64097E+06         42.4013
            2041     16.8153E-03     108.442E-03         1.22694    -215.242E-03    -803.981E-03    -214.974E-03         1.22667    -803.981E-03     21.6461E-03     145.234E-03    -11.0192E-03    -134.217E-03    -59.9232E-03     70.9410E-03    -11.0192E-03     244.740E-03     64.9480E+06     15.7497E+06    -59.7342E+06     6.15716E+06    -25.7420E+06     40.5482E+06    -8.93234E+06         46.1729
            2042     996.605E-06     108.573E-03         2.17496        -1.01668        -1.14435        -1.14208         2.17269        -1.01668     53.7035E-03     6.79926E-03    -3.00614E-03    -3.79310E-03    -3.38782E-03     6.78663E-03    -3.39878E-03    -437.434E-06    -56.4106E+06    -106.611E+06    -116.451E+06    -105.848E+06    -64.7019E+06    -108.922E+06    -7.62726E+06         20.4078
            2043     1.99274E-03     108.574E-03         2.18924        -1.08083        -1.10437        -1.10034         2.18758        -1.08320     25.2298E-03     7.25105E-03    -3.41082E-03    -3.84021E-03    -3.82392E-03     7.23477E-03    -3.41082E-03    -654.083E-06    -33.9231E+06    -111.111E+06    -113.887E+06    -108.352E+06    -36.6825E+06    -113.887E+06    -14.0180E+06         20.4271
            2044     2.98880E-03     108.578E-03         2.16869        -1.07857        -1.09914        -1.08986         2.16801        -1.08716     82.3810E-03     7.34898E-03    -3.54640E-03    -3.80260E-03    -3.76200E-03     7.31981E-03    -3.55784E-03    -822.666E-06    -24.6940E+06    -109.580E+06    -117.065E+06    -110.229E+06    -29.4016E+06    -111.709E+06    -19.6676E+06         20.4500
            2045     3.98433E-03     108.582E-03         2.14432        -1.06145        -1.09411        -1.07033         2.14380        -1.08470     11.7739E-03     7.27044E-03    -3.59248E-03    -3.67789E-03    -3.59613E-03     7.24308E-03    -3.64688E-03    -412.137E-06    -17.5537E+06    -102.280E+06    -118.959E+06    -109.841E+06    -26.6711E+06    -102.280E+06    -28.5292E+06         20.4712
            2046     4.98103E-03     108.590E-03         2.10868        -1.02383        -1.07605        -1.02324         2.10809        -1.07605     11.9278E-03     7.30095E-03    -3.60097E-03    -3.69990E-03    -3.55701E-03     7.22901E-03    -3.67192E-03     702.326E-06    -16.9885E+06    -99.3726E+06    -121.815E+06    -109.881E+06    -28.9227E+06    -99.3726E+06    -33.2204E+06         20.5008
            2047     5.97640E-03     108.600E-03         2.05925    -973.553E-03        -1.06122    -973.118E-03         2.05882        -1.06122     47.3150E-03     7.47394E-03    -3.65075E-03    -3.82317E-03    -3.57715E-03     7.25590E-03    -3.67874E-03     2.16675E-03    -16.5848E+06    -99.7794E+06    -124.618E+06    -111.823E+06    -29.3794E+06    -99.7794E+06    -34.7707E+06         20.5523
            2048     6.97352E-03     108.614E-03         1.98997    -911.910E-03        -1.04149    -911.079E-03         1.98914        -1.04149     81.4889E-03     8.20918E-03    -3.71661E-03    -4.49249E-03    -3.81604E-03     7.53272E-03    -3.71661E-03     4.54143E-03    -8.21418E+06    -95.1419E+06    -124.437E+06    -109.963E+06    -22.6881E+06    -95.1419E+06    -38.2583E+06         20.6830
            2049     7.96856E-03     108.634E-03         1.92541    -856.693E-03        -1.01782    -855.872E-03         1.92459        -1.01782     91.6545E-03     9.57639E-03    -3.78704E-03    -5.78907E-03    -4.01753E-03     7.80486E-03    -3.78704E-03     8.77199E-03     5.39072E+06    -75.3714E+06    -113.534E+06    -93.7857E+06    -7.39664E+06    -82.3324E+06    -31.6701E+06         21.0153
            2050     8.96499E-03     108.663E-03         1.85607    -804.924E-03    -991.601E-03    -804.259E-03         1.85540    -991.601E-03     80.3071E-03     11.8672E-03    -3.94252E-03    -7.92445E-03    -4.25752E-03     8.20028E-03    -3.94252E-03     14.7970E-03     23.3444E+06    -42.2170E+06    -79.6467E+06    -56.3815E+06     7.04031E+06    -49.1780E+06    -14.3269E+06         21.6419
            2051     9.96075E-03     108.700E-03         1.75856    -732.107E-03    -962.137E-03    -731.336E-03         1.75779    -962.137E-03     86.6199E-03     16.1362E-03    -4.11918E-03    -12.0169E-03    -4.98916E-03     9.10841E-03    -4.11918E-03     24.0699E-03     49.4931E+06    -1.89299E+06    -46.2989E+06    -5.38484E+06     19.2790E+06    -12.5930E+06     6.97497E+06         22.5826
            2052     10.9576E-03     108.752E-03         1.66166    -655.997E-03    -928.374E-03    -654.619E-03         1.66028    -928.374E-03     108.279E-03     22.4562E-03    -4.46444E-03    -17.9918E-03    -6.18481E-03     10.6492E-03    -4.46444E-03     36.6523E-03     80.1773E+06     57.2182E+06    -13.0567E+06     37.7651E+06     40.0555E+06     46.5182E+06     31.1020E+06         23.8248
            2053     11.9505E-03     108.815E-03         1.58084    -591.498E-03    -890.914E-03    -589.762E-03         1.57910    -890.914E-03     121.811E-03     31.5234E-03    -4.89797E-03    -26.6255E-03    -7.60428E-03     12.5022E-03    -4.89797E-03     54.4818E-03     96.3597E+06     82.4785E+06     709.741E+03     48.8202E+06     36.5345E+06     94.1933E+06     37.6934E+06         25.5100
            2054     12.9438E-03     108.902E-03         1.48994    -522.428E-03    -850.493E-03    -521.299E-03         1.48881    -850.493E-03     94.4057E-03     40.8226E-03    -5.21131E-03    -35.6114E-03    -10.1268E-03     15.3380E-03    -5.21131E-03     72.0254E-03     88.6362E+06     60.9182E+06    -11.9862E+06     36.7869E+06     12.1451E+06     88.6362E+06     30.7378E+06         27.9956
            2055     13.9347E-03     108.996E-03         1.37979    -438.256E-03    -806.117E-03    -437.696E-03         1.37923    -806.117E-03     61.9732E-03     56.7530E-03    -5.75719E-03    -50.9958E-03    -19.0923E-03     24.8495E-03    -5.75719E-03     98.1881E-03     77.1782E+06     45.5706E+06    -2.05559E+06     28.5209E+06     14.9941E+06     77.1782E+06     21.9584E+06         31.4394
            2056     14.9103E-03     109.139E-03         1.26241    -353.653E-03    -755.730E-03    -353.026E-03         1.26178    -755.730E-03     57.6561E-03     82.9348E-03    -6.86671E-03    -76.0679E-03    -33.3869E-03     40.2538E-03    -6.86671E-03     140.817E-03     67.7399E+06     42.6890E+06     4.76282E+06     35.3491E+06     12.1027E+06     67.7399E+06     7.24042E+06         35.6304
            2057     15.8780E-03     109.319E-03         1.13017    -267.454E-03    -699.467E-03    -266.975E-03         1.12969    -699.467E-03     34.9658E-03     109.329E-03    -8.48605E-03    -100.842E-03    -49.6807E-03     58.1675E-03    -8.48605E-03     179.960E-03       74.08E+06     40.3987E+06     10.1797E+06     40.8435E+06     38.9662E+06     44.8486E+06     7.79875E+06         39.8952
            2058     16.8297E-03     109.532E-03     983.904E-03    -183.561E-03    -636.623E-03    -183.520E-03     983.863E-03    -636.623E-03    -2.04164E-03     143.003E-03    -10.7814E-03    -132.222E-03    -63.3007E-03     74.0819E-03    -10.7814E-03     237.624E-03     78.0838E+06     19.7980E+06    -52.6858E+06     28.1496E+06    -16.8228E+06     33.8692E+06     16.3657E+06         43.1666
            2059     995.306E-06     109.581E-03         1.69232    -779.139E-03    -954.511E-03    -928.616E-03         1.69039    -803.109E-03    -17.6234E-03     11.0895E-03    -4.88025E-03    -6.20927E-03    -5.78140E-03     11.0543E-03    -5.27289E-03    -821.013E-06    -30.4176E+06    -69.1652E+06    -77.2295E+06    -63.2219E+06    -48.9173E+06    -64.6733E+06    -4.13579E+06         20.6672
            2060     1.98910E-03     109.584E-03         1.67751    -839.753E-03    -882.647E-03    -857.055E-03         1.67589    -863.723E-03    -35.2508E-03     11.3805E-03    -5.45135E-03    -5.92899E-03    -5.81175E-03     11.3077E-03    -5.49581E-03    -2.09152E-03    -20.5459E+06    -71.5694E+06    -76.5184E+06    -69.0919E+06    -24.2452E+06    -75.2967E+06    -12.8886E+06         20.6897
            2061     2.98240E-03     109.587E-03         1.69001    -865.666E-03    -892.394E-03    -891.717E-03         1.68933    -865.666E-03     72.2656E-03     11.2485E-03    -5.49395E-03    -5.75447E-03    -5.58197E-03     11.1652E-03    -5.58312E-03    -2.34023E-03    -8.71828E+06    -73.1313E+06    -80.3704E+06    -73.0529E+06    -15.0131E+06    -74.1541E+06    -19.7790E+06         20.7205
            2062     3.97718E-03     109.592E-03         1.68832    -862.651E-03    -887.524E-03    -879.375E-03         1.68756    -870.037E-03     17.2136E-03     11.2707E-03    -5.57421E-03    -5.69649E-03    -5.59375E-03     11.2246E-03    -5.63087E-03    -1.72358E-03    -5.05128E+06    -67.8502E+06    -85.2476E+06    -76.3212E+06    -13.2985E+06    -68.5294E+06    -23.9158E+06         20.7569
            2063     4.97067E-03     109.599E-03         1.64306    -820.376E-03    -864.850E-03    -818.458E-03         1.64114    -864.850E-03     40.3180E-03     11.6857E-03    -5.67351E-03    -6.01206E-03    -5.94341E-03     11.6570E-03    -5.71344E-03    -1.21436E-03    -9.26998E+06    -65.7078E+06    -92.0282E+06    -80.9306E+06    -20.3675E+06    -65.7078E+06    -27.8850E+06         20.8110
            2064     5.96558E-03     109.609E-03         1.58228    -756.478E-03    -849.842E-03    -754.507E-03         1.58031    -849.842E-03     79.5595E-03     12.2892E-03    -5.81640E-03    -6.47226E-03    -6.41146E-03     12.2564E-03    -5.84439E-03    -717.691E-06    -6.84474E+06    -61.8640E+06    -95.6233E+06    -81.6930E+06    -20.7751E+06    -61.8640E+06    -31.9683E+06         20.8823
            2065     6.95777E-03     109.624E-03         1.54253    -720.105E-03    -830.523E-03    -717.852E-03         1.54028    -830.523E-03     106.915E-03     12.9695E-03    -6.04156E-03    -6.92716E-03    -6.84243E-03     12.8847E-03    -6.04156E-03     829.051E-06     53.2667E+03    -51.9420E+06    -97.5569E+06    -83.0382E+06    -14.4654E+06    -51.9420E+06    -34.5939E+06         20.9902
            2066     7.95084E-03     109.645E-03         1.50646    -693.529E-03    -810.524E-03    -691.006E-03         1.50393    -810.524E-03     126.598E-03     13.6025E-03    -6.23837E-03    -7.36393E-03    -7.00459E-03     13.2432E-03    -6.23837E-03     3.73604E-03     5.67933E+06    -46.4561E+06    -104.232E+06    -89.3121E+06    -9.24039E+06    -46.4561E+06    -37.5037E+06         21.2322
            2067     8.94349E-03     109.672E-03         1.43386    -637.310E-03    -788.604E-03    -636.024E-03         1.43257    -788.604E-03     88.1521E-03     14.6047E-03    -6.38143E-03    -8.22328E-03    -7.01395E-03     13.3954E-03    -6.38143E-03     8.24585E-03     13.3800E+06    -46.8960E+06    -106.137E+06    -91.2096E+06    -1.54704E+06    -46.8960E+06    -38.9381E+06         21.7302
            2068     9.93663E-03     109.711E-03         1.34943    -572.050E-03    -762.687E-03    -571.066E-03         1.34844    -762.687E-03     81.7047E-03     16.4421E-03    -6.45095E-03    -9.99051E-03    -7.09899E-03     13.5506E-03    -6.45095E-03     14.6815E-03     12.8575E+06    -45.1984E+06    -103.039E+06    -80.7086E+06     1.22732E+06    -55.8984E+06    -32.5452E+06         22.5322
            2069     10.9289E-03     109.760E-03         1.28249    -518.322E-03    -733.175E-03    -517.048E-03         1.28122    -733.175E-03     92.1378E-03     19.6972E-03    -6.70275E-03    -12.9940E-03    -7.12405E-03     13.8272E-03    -6.70275E-03     23.7363E-03     26.0251E+06    -9.59084E+06    -79.4277E+06    -50.5102E+06     7.80768E+06    -20.2908E+06    -10.3345E+06         23.6330
            2070     11.9239E-03     109.828E-03         1.21386    -462.607E-03    -700.650E-03    -461.027E-03         1.21227    -700.650E-03     101.046E-03     24.6660E-03    -7.02832E-03    -17.6376E-03    -6.75018E-03     13.7786E-03    -7.02832E-03     36.1292E-03     63.3544E+06     40.4256E+06    -49.7295E+06    -9.98472E+06     22.2538E+06     41.7813E+06     21.0601E+06         25.0870
            2071     12.9191E-03     109.909E-03         1.13623    -398.884E-03    -664.588E-03    -397.783E-03         1.13513    -664.588E-03     79.3229E-03     33.3949E-03    -7.30466E-03    -26.0901E-03    -8.69651E-03     16.0013E-03    -7.30466E-03     53.8299E-03     90.2841E+06     53.9748E+06    -27.4655E+06     19.7386E+06     16.8452E+06     80.2096E+06     31.9165E+06         27.1429
            2072     13.9067E-03     110.018E-03         1.05716    -333.459E-03    -623.606E-03    -332.816E-03         1.05652    -623.606E-03     56.4693E-03     51.7065E-03    -7.71552E-03    -43.9911E-03    -16.2537E-03     23.9691E-03    -7.71552E-03     86.8044E-03     92.4921E+06     55.2653E+06     364.519E+03     32.6197E+06     23.0101E+06     92.4921E+06     25.3519E+06         30.0295
            2073     14.8891E-03     110.167E-03     969.364E-03    -272.842E-03    -576.582E-03    -272.131E-03     968.652E-03    -576.582E-03     51.4254E-03     76.2159E-03    -8.45433E-03    -67.7621E-03    -26.9690E-03     35.4228E-03    -8.45433E-03     129.748E-03     77.2902E+06     57.6974E+06    -4.56659E+06     23.2441E+06     29.8867E+06     77.2902E+06     11.6405E+06         33.5727
            2074     15.8644E-03     110.360E-03     866.028E-03    -212.253E-03    -523.750E-03    -211.583E-03     865.358E-03    -523.750E-03     10.7014E-03     102.705E-03    -9.73229E-03    -92.9730E-03    -42.5618E-03     52.2941E-03    -9.73229E-03     170.903E-03     70.1012E+06     30.2951E+06    -25.6327E+06     605.675E+03     21.6384E+06     52.5195E+06     9.65158E+06         37.1859
            2075     16.8269E-03     110.597E-03     762.911E-03    -159.091E-03    -465.384E-03    -158.774E-03     762.594E-03    -465.384E-03    -15.7658E-03     133.884E-03    -11.5777E-03    -122.305E-03    -58.2867E-03     69.8652E-03    -11.5777E-03     221.562E-03     57.2026E+06     5.85425E+06    -70.3108E+06    -11.5874E+06    -20.3042E+06     24.6376E+06     20.8004E+06         40.0154
            2076     991.184E-06     110.596E-03         1.22435    -612.142E-03    -701.508E-03    -672.477E-03         1.22220    -639.016E-03    -66.9984E-03     16.6710E-03    -7.12444E-03    -9.54655E-03    -7.80739E-03     16.5764E-03    -8.76895E-03    -2.32631E-03    -8.52694E+06    -45.6657E+06    -55.5887E+06    -32.6206E+06    -36.4458E+06    -40.7149E+06    -7.40243E+06         20.9865
            2077     1.98294E-03     110.598E-03         1.17862    -628.312E-03    -665.463E-03    -640.460E-03         1.17759    -652.282E-03    -16.1075E-03     15.7367E-03    -7.59627E-03    -8.14075E-03    -7.60074E-03     15.6381E-03    -8.03770E-03    -2.95231E-03    -4.90674E+06    -34.9420E+06    -46.9735E+06    -33.1063E+06    -10.2816E+06    -43.4342E+06    -11.6839E+06         20.9968
            2078     2.97639E-03     110.600E-03         1.18025    -637.780E-03    -666.777E-03    -654.443E-03         1.17959    -649.462E-03     66.8536E-03     15.4851E-03    -7.50297E-03    -7.98230E-03    -7.55474E-03     15.4060E-03    -7.85146E-03    -2.57871E-03     2.12194E+06    -41.8398E+06    -51.2475E+06    -37.9716E+06    -5.14650E+06    -47.8474E+06    -16.7902E+06         21.0368
            2079     3.96838E-03     110.605E-03         1.16222    -624.136E-03    -655.163E-03    -631.512E-03         1.16152    -647.084E-03     33.0989E-03     16.2990E-03    -7.88206E-03    -8.41694E-03    -8.31565E-03     16.2310E-03    -7.91533E-03    -2.53929E-03     729.209E+03    -39.3706E+06    -51.9193E+06    -44.5493E+06    -5.96165E+06    -40.0498E+06    -17.3069E+06         21.0990
            2080     4.96042E-03     110.613E-03         1.13721    -600.286E-03    -639.123E-03    -598.422E-03         1.13535    -639.123E-03     47.6185E-03     17.3816E-03    -8.17911E-03    -9.20255E-03    -9.13224E-03     17.3113E-03    -8.17911E-03    -2.69815E-03    -460.474E+03    -26.7902E+06    -57.3742E+06    -48.4283E+06    -9.40642E+06    -26.7902E+06    -20.5048E+06         21.1882
            2081     5.94925E-03     110.625E-03         1.11230    -564.745E-03    -627.020E-03    -562.746E-03         1.11030    -627.020E-03     80.4240E-03     18.5275E-03    -8.48436E-03    -10.0425E-03    -9.98363E-03     18.4686E-03    -8.48436E-03    -2.58339E-03     188.845E+03    -23.0053E+06    -64.9260E+06    -52.9096E+06    -11.8275E+06    -23.0053E+06    -25.2452E+06         21.2971
            2082     6.93941E-03     110.641E-03         1.08833    -539.305E-03    -612.756E-03    -537.340E-03         1.08636    -612.756E-03     87.1879E-03     19.5842E-03    -8.81429E-03    -10.7692E-03    -10.7314E-03     19.5464E-03    -8.81429E-03    -1.90802E-03     484.891E+03    -23.0991E+06    -68.8219E+06    -57.4803E+06    -10.8567E+06    -23.0991E+06    -25.5457E+06         21.4215
            2083     7.92820E-03     110.661E-03         1.04005    -499.426E-03    -596.537E-03    -497.224E-03         1.03785    -596.537E-03     91.8731E-03     20.6986E-03    -9.18755E-03    -11.5112E-03    -11.4795E-03     20.6668E-03    -9.18755E-03    -535.909E-06     9.28858E+06    -17.3465E+06    -70.6585E+06    -60.6942E+06    -675.687E+03    -17.3465E+06    -26.3094E+06         21.6110
            2084     8.91598E-03     110.690E-03     989.397E-03    -460.190E-03    -577.627E-03    -459.036E-03     988.244E-03    -577.627E-03     67.1144E-03     21.8479E-03    -9.56902E-03    -12.2792E-03    -12.1470E-03     21.7156E-03    -9.56902E-03     1.93873E-03     13.9678E+06    -17.0561E+06    -78.4014E+06    -68.3044E+06     3.87088E+06    -17.0561E+06    -28.1961E+06         21.9665
            2085     9.90308E-03     110.727E-03     956.307E-03    -434.376E-03    -556.898E-03    -433.429E-03     955.360E-03    -556.898E-03     67.4759E-03     23.0044E-03    -9.95565E-03    -13.0483E-03    -12.5348E-03     22.4909E-03    -9.95565E-03     5.82918E-03     7.65370E+06    -21.9735E+06    -92.8183E+06    -83.0131E+06    -2.15153E+06    -21.9735E+06    -28.4459E+06         22.5875
            2086     10.8905E-03     110.777E-03     910.046E-03    -390.060E-03    -534.030E-03    -389.112E-03     909.098E-03    -534.030E-03     69.9593E-03     24.0982E-03    -10.3210E-03    -13.7766E-03    -12.2805E-03     22.6021E-03    -10.3210E-03     11.0175E-03    -2.38569E+06    -29.6134E+06    -105.804E+06    -98.8757E+06    -11.9390E+06    -26.9887E+06    -24.3498E+06         23.5278
            2087     11.8771E-03     110.840E-03     844.681E-03    -327.940E-03    -507.320E-03    -326.732E-03     843.473E-03    -507.320E-03     73.8565E-03     25.2827E-03    -10.6306E-03    -14.6519E-03    -11.4404E-03     22.0712E-03    -10.6306E-03     17.3214E-03     3.29237E+06    -20.9983E+06     -98.411E+06    -92.3208E+06    -5.42255E+06    -18.3736E+06    -12.4204E+06         24.7791
            2088     12.8665E-03     110.921E-03     780.755E-03    -267.162E-03    -475.772E-03    -266.081E-03     779.674E-03    -475.772E-03     65.8094E-03     30.0207E-03    -11.0416E-03    -18.9793E-03    -11.8509E-03     22.8922E-03    -11.0416E-03     30.0595E-03     41.2185E+06     8.29799E+06    -67.7573E+06    -57.8995E+06     13.0248E+06     26.6340E+06    -3.48255E+06         26.4581
            2089     13.8583E-03     111.033E-03     727.202E-03    -220.910E-03    -438.839E-03    -220.257E-03     726.550E-03    -438.839E-03     49.3479E-03     42.0854E-03    -11.5217E-03    -30.5635E-03    -14.7519E-03     26.2738E-03    -11.5217E-03     57.1587E-03     64.0590E+06     22.5586E+06    -38.0932E+06    -25.3904E+06     12.9476E+06     60.9673E+06     8.92823E+06         28.7917
            2090     14.8422E-03     111.191E-03     667.797E-03    -184.434E-03    -396.219E-03    -184.005E-03     667.369E-03    -396.219E-03     34.0605E-03     61.5130E-03    -12.1340E-03    -49.3788E-03    -20.9822E-03     33.1164E-03    -12.1340E-03     96.1091E-03     79.5699E+06     48.5557E+06    -28.1537E+06    -14.4047E+06     34.8067E+06     79.5699E+06     25.0269E+06         31.6846
            2091     15.8165E-03     111.390E-03     590.558E-03    -147.856E-03    -347.645E-03    -147.491E-03     590.193E-03    -347.645E-03    -9.51099E-03     90.7938E-03    -13.1266E-03    -77.6681E-03    -33.9244E-03     47.0501E-03    -13.1266E-03     147.420E-03     87.1313E+06     42.5949E+06    -32.0826E+06    -14.6451E+06     25.1575E+06     87.1313E+06     20.6935E+06         34.6920
            2092     16.7659E-03     111.655E-03     505.813E-03    -109.702E-03    -294.258E-03    -109.183E-03     505.294E-03    -294.258E-03    -14.3685E-03     118.568E-03    -13.9814E-03    -104.586E-03    -36.8349E-03     50.8165E-03    -13.9814E-03     202.593E-03     43.4486E+06    -1.08642E+06    -57.5519E+06    -29.2061E+06    -22.2961E+06     36.3126E+06     9.80485E+06         37.1881
            2093     989.040E-06     111.618E-03     722.525E-03    -375.969E-03    -515.962E-03    -504.080E-03     713.547E-03    -378.873E-03    -177.117E-03     21.6791E-03    -9.10483E-03    -12.5740E-03    -10.1953E-03     21.5703E-03    -11.3748E-03    -3.63004E-03     21.9183E+06    -18.6072E+06    -33.1886E+06     2.87529E+06    -18.4950E+06    -14.2578E+06    -15.6121E+06         21.2532
            2094     1.97912E-03     111.614E-03     702.408E-03    -436.134E-03    -454.905E-03    -447.016E-03     700.841E-03    -442.457E-03    -25.0381E-03     19.9025E-03    -9.34251E-03    -10.5599E-03    -9.47687E-03     19.8419E-03    -10.3649E-03    -2.45850E-03     7.59054E+06    -15.7029E+06    -32.9017E+06    -12.2956E+06    -5.20748E+06    -23.5110E+06    -12.0525E+06         21.2614
            2095     2.96985E-03     111.618E-03     672.371E-03    -405.911E-03    -440.331E-03    -407.407E-03     671.307E-03    -437.770E-03     11.5279E-03     20.7993E-03    -9.97586E-03    -10.8233E-03    -10.5192E-03     20.7659E-03    -10.2466E-03    -1.93039E-03     7.15693E+06    -10.2686E+06    -30.5641E+06    -20.8780E+06     1.75754E+06    -14.5553E+06    -10.1738E+06         21.3264
            2096     3.95867E-03     111.625E-03     635.883E-03    -384.624E-03    -425.994E-03    -383.657E-03     634.917E-03    -425.994E-03    -36.8989E-03     22.2080E-03    -10.5175E-03    -11.6905E-03    -11.6360E-03     22.1535E-03    -10.5175E-03    -2.52600E-03     5.45600E+06    -10.2115E+06    -29.9442E+06    -26.0282E+06    -497.997E+03    -8.17351E+06    -10.3554E+06         21.4193
            2097     4.94553E-03     111.634E-03     639.141E-03    -386.768E-03    -415.686E-03    -386.143E-03     638.516E-03    -415.686E-03    -44.5372E-03     23.6583E-03    -10.9279E-03    -12.7310E-03    -12.6671E-03     23.5944E-03    -10.9279E-03    -2.86886E-03     4.10439E+06    -5.14394E+06    -33.6251E+06    -29.4197E+06    -3.35188E+06    -1.89305E+06    -10.7925E+06         21.5379
            2098     5.93355E-03     111.647E-03     642.437E-03    -374.692E-03    -407.182E-03    -374.234E-03     641.979E-03    -407.182E-03    -12.8342E-03     25.4277E-03    -11.4178E-03    -14.0100E-03    -13.9557E-03     25.3734E-03    -11.4178E-03    -2.86894E-03     6.02621E+06    -4.65830E+06    -40.1957E+06    -35.0571E+06    -6.55010E+06     2.77939E+06    -12.6363E+06         21.6843
            2099     6.91816E-03     111.663E-03     616.480E-03    -342.170E-03    -396.814E-03    -342.074E-03     616.384E-03    -396.814E-03     11.8847E-03     27.6671E-03    -11.9454E-03    -15.7209E-03    -15.6678E-03     27.6140E-03    -11.9454E-03    -3.01731E-03     6.38201E+06    -8.40362E+06    -47.3287E+06    -41.1716E+06    -4.95825E+06    -3.22044E+06    -15.7335E+06         21.8520
            2100     7.90143E-03     111.687E-03     567.507E-03    -298.212E-03    -382.778E-03    -298.144E-03     567.439E-03    -382.778E-03    -2.39071E-03     29.9776E-03    -12.5800E-03    -17.3973E-03    -17.3495E-03     29.9298E-03    -12.5800E-03    -2.97986E-03     6.98836E+06    -5.28642E+06    -51.4889E+06    -46.0433E+06     1.35262E+06    -5.09626E+06    -15.9441E+06         22.0479
            2101     8.88325E-03     111.716E-03     539.289E-03    -278.946E-03    -366.376E-03    -278.821E-03     539.164E-03    -366.376E-03     3.43329E-03     32.4738E-03    -13.3462E-03    -19.1279E-03    -19.0866E-03     32.4326E-03    -13.3462E-03    -2.48719E-03     11.1697E+06    -467.056E+03    -55.8926E+06    -52.7871E+06     4.85286E+06     2.74435E+06    -11.9175E+06         22.3022
            2102     9.86296E-03     111.755E-03     536.321E-03    -274.897E-03    -349.762E-03    -274.643E-03     536.068E-03    -349.762E-03     22.0060E-03     34.8732E-03    -14.1698E-03    -20.7043E-03    -20.6461E-03     34.8150E-03    -14.1698E-03    -1.69567E-03     13.4044E+06    -4.08801E+06    -61.5837E+06    -59.9735E+06    -171.237E+03     7.87741E+06    -8.42944E+06         22.7322
            2103     10.8406E-03     111.804E-03     511.438E-03    -241.675E-03    -331.808E-03    -241.249E-03     511.012E-03    -331.808E-03     31.3960E-03     36.9105E-03    -15.0009E-03    -21.9096E-03    -21.7702E-03     36.7711E-03    -15.0009E-03    -940.429E-06     11.2727E+06    -10.5796E+06    -64.8122E+06    -62.3393E+06    -10.6150E+06     8.83523E+06    -9.79495E+06         23.4933
            2104     11.8188E-03     111.867E-03     463.291E-03    -186.744E-03    -309.931E-03    -185.870E-03     462.417E-03    -309.931E-03     44.3978E-03     39.4607E-03    -15.8407E-03    -23.6192E-03    -23.2435E-03     39.0850E-03    -15.8407E-03    -212.462E-06     10.7133E+06    -3.16251E+06    -66.8256E+06    -61.5473E+06    -7.02252E+06     9.29502E+06    -16.7256E+06         24.6059
            2105     12.7934E-03     111.946E-03     423.108E-03    -141.040E-03    -283.186E-03    -137.588E-03     419.657E-03    -283.186E-03     64.0014E-03     42.6235E-03    -16.7610E-03    -25.8623E-03    -24.8779E-03     41.6390E-03    -16.7610E-03     3.13825E-03     14.3019E+06     4.27880E+06    -69.4897E+06    -64.5459E+06     3.84500E+06     9.79192E+06    -17.5369E+06         26.0447
            2106     13.7628E-03     112.056E-03     390.292E-03    -111.133E-03    -251.607E-03    -107.808E-03     386.967E-03    -251.607E-03     55.5621E-03     45.9121E-03    -17.7911E-03    -28.1192E-03    -24.6978E-03     42.4906E-03    -17.7911E-03     13.7315E-03     20.0308E+06    -2.59520E+06    -65.0109E+06    -60.8895E+06    -3.62478E+06     16.9390E+06    -8.02233E+06         27.9332
            2107     14.7400E-03     112.205E-03     348.835E-03    -86.2176E-03    -214.508E-03    -83.6892E-03     346.307E-03    -214.508E-03     42.8060E-03     52.9668E-03    -18.9706E-03    -33.9946E-03    -24.6424E-03     43.6145E-03    -18.9706E-03     35.3630E-03     59.3724E+06     21.5371E+06    -48.1269E+06    -36.8996E+06     10.3097E+06     59.3724E+06     7.43272E+06         30.3216
            2108     15.7175E-03     112.414E-03     300.595E-03    -69.4016E-03    -171.519E-03    -67.0131E-03     298.207E-03    -171.519E-03     28.9336E-03     60.1762E-03    -12.4854E-03    -47.6912E-03    -18.9881E-03     38.7279E-03    -19.7402E-03     71.6548E-03     82.3401E+06     25.9539E+06    -29.2896E+06    -9.21002E+06     26.8142E+06     61.4002E+06     18.1905E+06         32.8930
            2109     16.7109E-03     112.680E-03     247.766E-03    -53.6638E-03    -131.529E-03    -58.9494E-03     246.704E-03    -125.181E-03     21.9760E-03     63.7075E-03    -3.82972E-03    -59.8780E-03    -6.00472E-03     25.5618E-03    -19.5572E-03     102.010E-03     55.6242E+06     698.588E+03    -54.8121E+06     16.1630E+06     697.617E+03    -15.3499E+06     20.4501E+06         35.1776


