********************************************************************************
Field Output Report, written Tue May  6 00:53:48 2025

Source 1
---------

   ODB: D:/AISI_1020/Vel_20/1020_2a_24_rd_1500_cal_50_v_20_f_025.odb
   Step: Step-1
   Frame: Increment   6901128: Step Time =   0.8277

Loc 1 : Nodal values from source 1

Output sorted by column "Node Label".

Field Output reported at nodes for region: DIE_2A_24_D0_36-1.Region_1
   Computation algorithm: EXTRAPOLATE_COMPUTE_AVERAGE
   Averaged at nodes
   Averaging regions: ODB_REGIONS

      Node Label     COORD.COOR1     COORD.COOR2
                          @Loc 1          @Loc 1
-------------------------------------------------
               1     18.4810E-03     211.743E-03


Field Output reported at nodes for region: DIE_2A_24_D0_36-1.Region_2
   Computation algorithm: EXTRAPOLATE_COMPUTE_AVERAGE
   Averaged at nodes
   Averaging regions: ODB_REGIONS

      Node Label     COORD.COOR1     COORD.COOR2
                          @Loc 1          @Loc 1
-------------------------------------------------
               1     18.4810E-03     211.743E-03


Field Output reported at nodes for part: WIRE_1-1
   Computation algorithm: EXTRAPOLATE_COMPUTE_AVERAGE
   Averaged at nodes
   Averaging regions: ODB_REGIONS

      Node Label     COORD.COOR1     COORD.COOR2    ER.Max. Prin    ER.Mid. Prin    ER.Min. Prin         ER.ER11         ER.ER22         ER.ER33         ER.ER12    PE.Max. Prin    PE.Mid. Prin    PE.Min. Prin         PE.PE11         PE.PE22         PE.PE33         PE.PE12     S.Max. Prin     S.Mid. Prin     S.Min. Prin           S.S11           S.S22           S.S33           S.S12            TEMP
                          @Loc 1          @Loc 1          @Loc 1          @Loc 1          @Loc 1          @Loc 1          @Loc 1          @Loc 1          @Loc 1          @Loc 1          @Loc 1          @Loc 1          @Loc 1          @Loc 1          @Loc 1          @Loc 1          @Loc 1          @Loc 1          @Loc 1          @Loc 1          @Loc 1          @Loc 1          @Loc 1          @Loc 1
-----------------------------------------------------------------------------------------------------------------------------------------------------------------------------------------------------------------------------------------------------------------------------------------------------------------------------------------------------------------------------------------------------------------
               1     15.1300E-03     78.9460E-03     271.149E-03     261.084E-03    -926.032E-03     271.149E-03    -926.032E-03     261.084E-03     721.785E-06     356.384E-03    -174.918E-03    -181.466E-03    -175.554E-03     350.472E-03    -174.918E-03     112.154E-03     138.046E+06     97.5946E+06    -3.86307E+06    -3.86150E+06     97.5930E+06     138.046E+06     57.8293E+03         73.6887
               2     870.825E-09     77.4438E-03     282.878E-03     221.629E-03    -900.812E-03     221.617E-03    -900.800E-03     282.878E-03    -6.81910E-03     349.511E-03    -174.052E-03    -175.460E-03    -175.460E-03     349.511E-03    -174.052E-03    -715.764E-06    -144.709E+06    -149.988E+06    -326.528E+06    -147.029E+06    -326.506E+06    -147.691E+06     688.721E+03         50.3449
               3    -1.40852E-06    -430.211E-18     363.857E-03     361.945E-03        -1.20512     361.945E-03        -1.20512     363.857E-03    -1.51302E-03     528.920E-03    -264.275E-03    -264.645E-03    -264.615E-03     528.889E-03    -264.275E-03     9.77423E-03    -69.2859E+06    -71.3552E+06    -271.073E+06    -71.4420E+06    -270.986E+06    -69.2859E+06     4.16375E+06         56.3276
               4     14.8782E-03    -430.211E-18     367.841E-03     347.758E-03        -1.26642     366.686E-03        -1.26527     347.758E-03    -86.8609E-03     605.168E-03    -182.484E-03    -422.684E-03    -405.572E-03     588.056E-03    -182.484E-03     263.023E-03     155.341E+06     86.8518E+06     4.57641E+06     4.58381E+06     86.8444E+06     155.341E+06     780.332E+03         76.1392
               5     15.3088E-03     157.285E-03     3.26689E-03    -4.56779E-03    -8.22922E-03     3.25269E-03    -4.55360E-03    -8.22922E-03    -666.298E-06     227.954E-03    -62.2876E-03    -165.666E-03    -62.2877E-03     227.954E-03    -165.666E-03    -18.0378E-06     120.839E+06     72.6716E+06    -85.9111E+06    -80.4084E+06     67.1689E+06     120.839E+06    -29.0233E+06         81.4896
               6     1.96202E-06     152.573E-03     26.0686E-03     25.7008E-03    -33.7543E-03     25.7000E-03    -33.7535E-03     26.0686E-03    -438.606E-06     291.658E-03    -145.217E-03    -146.441E-03    -145.997E-03     291.215E-03    -145.217E-03    -27.8722E-03     77.3700E+06     74.9468E+06    -15.5893E+06     74.0931E+06    -14.7355E+06     77.3700E+06    -8.75026E+06         38.2295
               7     14.2886E-03     78.7910E-03     270.631E-03     260.725E-03    -925.377E-03     270.631E-03    -925.377E-03     260.725E-03    -18.2794E-06     365.850E-03    -174.880E-03    -190.970E-03    -178.149E-03     353.029E-03    -174.880E-03     160.823E-03     124.619E+06     89.9960E+06    -7.84314E+06    -7.84145E+06     89.9943E+06     124.619E+06      -70.78E+03         72.7622
               8     13.4473E-03     78.5005E-03     269.587E-03     259.989E-03    -924.067E-03     269.587E-03    -924.067E-03     259.989E-03    -850.037E-06     365.715E-03    -174.799E-03    -190.916E-03    -177.647E-03     352.447E-03    -174.799E-03     164.839E-03     97.3163E+06     70.7226E+06    -15.4161E+06    -15.4139E+06     70.7204E+06     97.3163E+06    -275.605E+03         70.7346
               9     12.6080E-03     78.3444E-03     268.459E-03     259.236E-03    -922.584E-03     268.459E-03    -922.584E-03     259.236E-03    -141.877E-06     357.020E-03    -174.755E-03    -182.265E-03    -174.470E-03     349.225E-03    -174.755E-03     128.475E-03     77.6979E+06     50.4122E+06    -22.1397E+06    -22.1366E+06     50.4091E+06     77.6979E+06    -172.492E+03         68.4116
              10     11.7648E-03     78.1602E-03     267.124E-03     258.481E-03    -920.788E-03     267.124E-03    -920.788E-03     258.481E-03     346.741E-06     355.798E-03    -174.762E-03    -181.035E-03    -173.845E-03     348.608E-03    -174.762E-03     122.679E-03     68.9208E+06     37.1816E+06    -28.8635E+06    -28.8607E+06     37.1788E+06     68.9208E+06    -141.266E+03         65.9191
              11     10.9231E-03     78.0200E-03     265.669E-03     257.729E-03    -918.836E-03     265.669E-03    -918.836E-03     257.729E-03     1.27262E-03     353.439E-03    -174.755E-03    -178.683E-03    -173.408E-03     348.163E-03    -174.755E-03     105.383E-03     61.6514E+06     30.2910E+06    -35.9977E+06    -35.9943E+06     30.2876E+06     61.6514E+06    -423.518E+03         63.4058
              12     10.0855E-03     77.8869E-03     264.203E-03     256.993E-03    -916.848E-03     264.202E-03    -916.847E-03     256.993E-03     2.06676E-03     352.087E-03    -174.729E-03    -177.359E-03    -172.863E-03     347.592E-03    -174.729E-03     97.0305E-03     52.3903E+06     25.4674E+06    -43.8342E+06    -43.8311E+06     25.4643E+06     52.3903E+06    -434.858E+03         61.0110
              13     9.24318E-03     77.7742E-03     262.618E-03     256.279E-03    -914.753E-03     262.617E-03    -914.753E-03     256.279E-03     1.57650E-03     350.382E-03    -174.654E-03    -175.728E-03    -172.112E-03     346.852E-03    -174.740E-03     85.6662E-03     43.6036E+06     20.2850E+06    -52.2733E+06    -52.2688E+06     20.2805E+06     43.6036E+06     86.0393E+03         58.8402
              14     8.40256E-03     77.6768E-03     261.011E-03     255.607E-03    -912.657E-03     261.010E-03    -912.657E-03     255.607E-03     1.75069E-03     349.361E-03    -174.347E-03    -175.014E-03    -171.989E-03     346.780E-03    -174.791E-03     73.0898E-03     36.2825E+06     14.1184E+06    -61.3823E+06    -61.3782E+06     14.1143E+06     36.2825E+06     344.497E+03         56.9559
              15     7.56071E-03     77.5964E-03     259.533E-03     254.985E-03    -910.713E-03     259.532E-03    -910.713E-03     254.985E-03     575.767E-06     348.843E-03    -173.999E-03    -174.845E-03    -172.214E-03     347.058E-03    -174.845E-03     60.6932E-03     25.9506E+06    -3.29910E+06    -72.0859E+06    -72.0841E+06    -3.30087E+06     25.9506E+06     270.157E+03         55.3783
              16     6.72114E-03     77.5340E-03     258.121E-03     254.420E-03    -908.842E-03     258.120E-03    -908.842E-03     254.420E-03     545.852E-06     348.534E-03    -173.645E-03    -174.889E-03    -172.512E-03     347.401E-03    -174.889E-03     48.1515E-03     7.65875E+06    -46.2593E+06    -83.2365E+06    -83.2183E+06    -46.2775E+06     7.65875E+06     413.973E+03         54.0934
              17     5.88040E-03     77.4912E-03     256.781E-03     253.923E-03    -907.074E-03     256.780E-03    -907.073E-03     253.923E-03     422.863E-06     348.301E-03    -173.368E-03    -174.933E-03    -172.750E-03     347.683E-03    -174.933E-03     35.3377E-03    -16.0175E+06    -88.0369E+06    -107.245E+06    -94.7010E+06    -100.581E+06    -16.0175E+06    -19.0881E+03         53.0676
              18     5.03883E-03     77.4609E-03     255.632E-03     253.498E-03    -905.535E-03     255.632E-03    -905.535E-03     253.498E-03    -935.948E-06     348.592E-03    -173.626E-03    -174.965E-03    -173.329E-03     348.294E-03    -174.965E-03     24.5152E-03    -39.4647E+06    -105.863E+06    -147.176E+06    -105.881E+06    -147.157E+06    -39.4647E+06    -349.747E+03         52.2600
              19     4.20058E-03     77.4414E-03     254.623E-03     253.145E-03    -904.192E-03     254.621E-03    -904.191E-03     253.145E-03     1.41691E-03     348.939E-03    -173.976E-03    -174.963E-03    -173.848E-03     348.811E-03    -174.963E-03     15.7393E-03    -63.4808E+06    -116.621E+06    -188.683E+06    -116.626E+06    -188.678E+06    -63.4808E+06    -16.8055E+03         51.6319
              20     3.35902E-03     77.4348E-03     253.836E-03     252.862E-03    -903.136E-03     253.834E-03    -903.135E-03     252.862E-03     2.41365E-03     349.229E-03    -174.262E-03    -174.967E-03    -174.255E-03     349.188E-03    -174.933E-03     8.73159E-03    -87.9467E+06    -126.818E+06    -230.204E+06    -126.822E+06    -230.200E+06    -87.9467E+06     125.160E+03         51.1511
              21     2.51953E-03     77.4335E-03     253.256E-03     252.634E-03    -902.272E-03     253.255E-03    -902.271E-03     252.634E-03     2.07387E-03     349.470E-03    -174.558E-03    -174.912E-03    -174.581E-03     349.459E-03    -174.878E-03     4.51542E-03    -110.374E+06    -135.346E+06    -268.512E+06    -135.350E+06    -268.508E+06    -110.374E+06     226.428E+03         50.7945
              22     1.68021E-03     77.4376E-03     252.797E-03     252.433E-03    -901.583E-03     252.775E-03    -901.581E-03     252.452E-03     3.01892E-03     349.473E-03    -174.663E-03    -174.810E-03    -174.660E-03     349.470E-03    -174.810E-03     2.20780E-03    -129.837E+06    -142.210E+06    -296.965E+06    -142.217E+06    -296.958E+06    -129.837E+06     702.646E+03         50.5465
              23     839.810E-06     77.4371E-03     267.754E-03     236.981E-03    -901.077E-03     237.102E-03    -901.070E-03     267.626E-03    -1.87040E-03     349.493E-03    -174.373E-03    -175.119E-03    -175.077E-03     349.492E-03    -174.415E-03     330.500E-06    -141.661E+06    -147.538E+06    -317.493E+06    -146.065E+06    -317.475E+06    -143.151E+06     878.134E+03         50.3965
              24     28.8122E-09     76.0212E-03     284.712E-03     216.129E-03    -901.358E-03     216.126E-03    -901.355E-03     284.712E-03    -372.055E-06     349.817E-03    -174.491E-03    -175.326E-03    -175.326E-03     349.817E-03    -174.491E-03    -742.826E-06    -144.332E+06    -148.917E+06    -323.757E+06    -146.654E+06    -323.731E+06    -146.620E+06     500.505E+03         50.3611
              25     487.550E-09     74.6079E-03     285.070E-03     213.679E-03    -903.362E-03     213.666E-03    -903.349E-03     285.070E-03     6.70109E-03     350.043E-03    -174.449E-03    -175.594E-03    -175.594E-03     350.043E-03    -174.449E-03    -455.581E-06    -146.865E+06    -150.889E+06    -325.124E+06    -148.611E+06    -325.115E+06    -149.152E+06    -1.22712E+06         50.3767
              26     927.260E-09     73.1849E-03     284.853E-03     214.445E-03    -907.831E-03     214.406E-03    -907.792E-03     284.853E-03     12.9484E-03     350.094E-03    -174.397E-03    -175.697E-03    -175.223E-03     350.094E-03    -174.871E-03     159.950E-06    -148.873E+06    -152.423E+06    -327.748E+06    -150.614E+06    -327.744E+06    -150.686E+06    -194.502E+03         50.3917
              27    -1.73626E-06     71.7714E-03     282.964E-03     218.728E-03    -913.590E-03     218.643E-03    -913.505E-03     282.964E-03     19.2764E-03     349.597E-03    -174.527E-03    -175.070E-03    -174.526E-03     349.596E-03    -175.070E-03    -782.007E-06    -148.886E+06    -152.804E+06    -329.148E+06    -150.992E+06    -329.147E+06    -150.699E+06     183.841E+03         50.4062
              28     1.64692E-06     70.3523E-03     279.985E-03     226.727E-03    -922.040E-03     226.597E-03    -921.910E-03     279.985E-03     24.3941E-03     349.240E-03    -174.246E-03    -174.994E-03    -174.924E-03     349.239E-03    -174.315E-03    -903.125E-06    -148.825E+06    -152.972E+06    -328.374E+06    -150.935E+06    -328.368E+06    -150.867E+06     613.196E+03         50.4205
              29    -522.587E-09     68.9369E-03     276.813E-03     237.683E-03    -933.141E-03     237.501E-03    -932.960E-03     276.813E-03     29.0080E-03     349.826E-03    -174.430E-03    -175.396E-03    -175.396E-03     349.826E-03    -174.430E-03     119.122E-06    -146.546E+06    -150.869E+06    -324.483E+06    -148.833E+06    -324.477E+06    -148.588E+06     930.073E+03         50.4350
              30     1.03970E-06     67.5170E-03     272.653E-03     251.663E-03    -945.586E-03     251.446E-03    -945.369E-03     272.653E-03     32.2288E-03     350.376E-03    -174.696E-03    -175.681E-03    -175.681E-03     350.376E-03    -174.696E-03    -423.935E-06    -147.709E+06    -151.780E+06    -324.583E+06    -150.018E+06    -324.555E+06    -149.499E+06    -1.31000E+06         50.4499
              31     117.584E-09     66.1002E-03     273.536E-03     262.689E-03    -960.312E-03     267.784E-03    -960.077E-03     268.205E-03     33.9982E-03     349.978E-03    -174.302E-03    -175.676E-03    -175.676E-03     349.978E-03    -174.302E-03    -1.20553E-03    -148.666E+06    -152.153E+06    -327.732E+06    -150.405E+06    -327.690E+06    -150.457E+06    -414.549E+03         50.4653
              32     1.04329E-06     64.6841E-03     285.003E-03     264.617E-03    -976.378E-03     284.767E-03    -976.141E-03     264.617E-03     34.5331E-03     348.982E-03    -173.968E-03    -175.014E-03    -174.644E-03     348.981E-03    -174.337E-03    -949.652E-06    -145.608E+06    -149.871E+06    -327.148E+06    -147.324E+06    -327.129E+06    -148.174E+06     481.270E+03         50.4812
              33    -1.68653E-06     63.2644E-03     303.377E-03     261.474E-03    -993.825E-03     303.142E-03    -993.590E-03     261.474E-03     34.9052E-03     348.413E-03    -173.963E-03    -174.451E-03    -174.081E-03     348.413E-03    -174.332E-03    -311.485E-06    -146.375E+06    -150.792E+06    -325.524E+06    -148.241E+06    -325.507E+06    -148.942E+06     346.147E+03         50.4977
              34     1.91401E-06     61.8535E-03     321.644E-03     259.249E-03        -1.01207     321.433E-03        -1.01186     259.249E-03     33.3552E-03     349.611E-03    -174.368E-03    -175.242E-03    -175.242E-03     349.611E-03    -174.368E-03    -121.094E-06    -147.102E+06    -150.547E+06    -324.100E+06    -148.971E+06    -324.080E+06    -148.697E+06     166.348E+03         50.5147
              35    -655.549E-09     60.4311E-03     337.964E-03     259.322E-03        -1.03048     337.786E-03        -1.03030     259.322E-03     31.2352E-03     350.410E-03    -174.452E-03    -175.958E-03    -175.958E-03     350.410E-03    -174.452E-03    -833.187E-06    -145.396E+06    -148.009E+06    -322.139E+06    -146.450E+06    -322.103E+06    -146.991E+06     741.764E+03         50.5322
              36     1.93355E-06     59.0155E-03     353.093E-03     261.491E-03        -1.04981     352.943E-03        -1.04966     261.491E-03     28.8483E-03     350.377E-03    -174.766E-03    -175.612E-03    -175.515E-03     350.376E-03    -174.860E-03     258.776E-06    -143.982E+06    -145.780E+06    -321.363E+06    -145.097E+06    -321.266E+06    -144.761E+06     -892.64E+03         50.5497
              37    -2.09122E-06     57.5938E-03     365.025E-03     266.379E-03        -1.06853     364.917E-03        -1.06842     266.379E-03     24.8886E-03     349.387E-03    -174.568E-03    -174.819E-03    -174.563E-03     349.381E-03    -174.819E-03    -1.00278E-03    -148.839E+06    -149.655E+06    -326.259E+06    -148.925E+06    -326.173E+06    -149.655E+06    -1.20811E+06         50.5671
              38     1.82474E-06     56.1824E-03     374.007E-03     273.094E-03        -1.08581     373.933E-03        -1.08574     273.094E-03     20.4172E-03     349.311E-03    -173.705E-03    -175.606E-03    -175.443E-03     349.305E-03    -173.861E-03    -483.974E-06    -147.170E+06    -147.981E+06    -324.075E+06    -147.971E+06    -324.050E+06    -147.206E+06     2.08826E+06         50.5842
              39     1.12762E-06     54.7606E-03     379.588E-03     282.022E-03        -1.10197     379.547E-03        -1.10193     282.022E-03     15.5306E-03     351.165E-03    -174.145E-03    -177.020E-03    -177.016E-03     351.161E-03    -174.145E-03     385.990E-06    -145.187E+06    -148.236E+06    -321.858E+06    -145.989E+06    -321.832E+06    -147.461E+06    -452.203E+03         50.6009
              40     746.831E-09     53.3419E-03     381.258E-03     293.456E-03        -1.11671     381.238E-03        -1.11669     293.456E-03     10.3108E-03     349.819E-03    -174.201E-03    -175.619E-03    -175.617E-03     349.818E-03    -174.201E-03    -1.58943E-03    -147.431E+06    -151.364E+06    -324.125E+06    -149.122E+06    -324.093E+06    -149.705E+06    -200.347E+03         50.6172
              41    -236.148E-09     51.9280E-03     379.341E-03     305.963E-03        -1.12915     379.337E-03        -1.12915     305.963E-03     4.90127E-03     348.880E-03    -174.225E-03    -174.654E-03    -174.654E-03     348.879E-03    -174.225E-03    -254.750E-06    -145.536E+06    -147.849E+06    -322.673E+06    -147.869E+06    -322.653E+06    -145.536E+06     289.589E+03         50.6333
              42     489.166E-09     50.5084E-03     374.168E-03     319.611E-03        -1.13933     374.166E-03        -1.13933     319.611E-03     320.791E-06     350.093E-03    -174.941E-03    -175.153E-03    -175.152E-03     350.093E-03    -174.941E-03    -403.224E-06    -145.729E+06    -147.734E+06    -321.748E+06    -146.411E+06    -321.719E+06    -147.080E+06     587.941E+03         50.6493
              43    -379.177E-09     49.0913E-03     367.376E-03     333.275E-03        -1.14772     367.373E-03        -1.14772     333.275E-03    -4.07355E-03     349.754E-03    -174.797E-03    -174.957E-03    -174.956E-03     349.753E-03    -174.797E-03    -483.109E-06    -146.343E+06    -149.052E+06    -319.324E+06    -147.737E+06    -319.288E+06    -147.694E+06     286.016E+03         50.6654
              44     552.789E-09     47.6730E-03     358.480E-03     345.786E-03        -1.15308     357.687E-03        -1.15307     346.569E-03    -7.49669E-03     349.276E-03    -174.559E-03    -174.717E-03    -174.717E-03     349.276E-03    -174.559E-03    -121.362E-06    -147.675E+06    -151.443E+06    -320.949E+06    -149.049E+06    -320.933E+06    -150.085E+06    -715.382E+03         50.6815
              45    -455.653E-09     46.2579E-03     358.363E-03     347.057E-03        -1.15606     347.040E-03        -1.15604     358.363E-03    -9.91632E-03     349.316E-03    -174.040E-03    -175.277E-03    -175.275E-03     349.315E-03    -174.040E-03    -1.31626E-03    -144.710E+06    -149.351E+06    -321.570E+06    -146.946E+06    -321.566E+06    -147.120E+06     830.616E+03         50.6975
              46     2.44279E-06     44.8420E-03     368.298E-03     335.657E-03        -1.15617     335.626E-03        -1.15613     368.298E-03    -13.2645E-03     349.607E-03    -174.172E-03    -175.435E-03    -175.337E-03     349.605E-03    -174.268E-03    -237.804E-06    -143.524E+06    -147.397E+06    -320.644E+06    -145.775E+06    -320.625E+06    -145.166E+06    -772.614E+03         50.7134
              47    -2.61425E-06     43.4202E-03     375.179E-03     324.204E-03        -1.15334     324.170E-03        -1.15330     375.179E-03    -14.0169E-03     350.082E-03    -174.889E-03    -175.193E-03    -175.095E-03     350.080E-03    -174.985E-03     114.051E-06    -147.805E+06    -149.507E+06    -321.929E+06    -147.893E+06    -321.902E+06    -149.446E+06    -263.373E+03         50.7290
              48     2.96810E-06     42.0058E-03     378.518E-03     314.065E-03        -1.14844     314.026E-03        -1.14840     378.518E-03    -14.7914E-03     349.967E-03    -174.558E-03    -175.410E-03    -175.409E-03     349.967E-03    -174.558E-03    -1.15684E-03    -148.162E+06    -148.584E+06    -321.561E+06    -148.235E+06    -321.548E+06    -148.524E+06     477.997E+03         50.7447
              49    -1.88300E-06     40.5883E-03     379.292E-03     304.708E-03        -1.14172     304.667E-03        -1.14168     379.292E-03    -15.2168E-03     349.993E-03    -174.312E-03    -175.680E-03    -175.680E-03     349.992E-03    -174.312E-03    -749.222E-06    -146.144E+06    -147.558E+06    -321.391E+06    -147.198E+06    -321.389E+06    -146.507E+06    -466.543E+03         50.7606
              50     3.11578E-06     39.1671E-03     376.037E-03     298.344E-03        -1.13378     298.304E-03        -1.13374     376.037E-03    -14.8774E-03     350.474E-03    -174.345E-03    -176.129E-03    -176.129E-03     350.473E-03    -174.345E-03     46.2921E-06    -148.988E+06    -151.111E+06    -324.703E+06    -150.052E+06    -324.690E+06    -150.060E+06    -1.05835E+06         50.7767
              51    -1.33954E-06     37.7502E-03     369.318E-03     293.750E-03        -1.12415     293.712E-03        -1.12411     369.318E-03    -14.6316E-03     349.436E-03    -174.041E-03    -175.395E-03    -175.100E-03     349.434E-03    -174.334E-03    -714.868E-06    -148.844E+06    -150.321E+06    -325.782E+06    -149.294E+06    -325.737E+06    -149.915E+06     591.986E+03         50.7929
              52     854.502E-09     36.3359E-03     359.829E-03     291.231E-03        -1.11376     291.200E-03        -1.11373     359.829E-03    -13.1392E-03     348.509E-03    -173.841E-03    -174.668E-03    -173.839E-03     348.508E-03    -174.668E-03    -988.438E-06    -146.522E+06    -147.168E+06    -321.861E+06    -146.977E+06    -321.812E+06    -146.762E+06     420.457E+03         50.8086
              53    -1.74556E-06     34.9193E-03     348.301E-03     290.861E-03        -1.10350     290.837E-03        -1.10347     348.301E-03    -11.0340E-03     350.167E-03    -174.383E-03    -175.784E-03    -175.249E-03     350.167E-03    -174.918E-03     143.018E-06    -147.970E+06    -148.311E+06    -321.689E+06    -148.002E+06    -321.657E+06    -148.311E+06    -129.418E+03         50.8227
              54     3.20563E-06     33.4957E-03     334.333E-03     292.614E-03        -1.09282     292.597E-03        -1.09280     334.333E-03    -9.46520E-03     350.828E-03    -174.489E-03    -176.339E-03    -176.339E-03     350.828E-03    -174.489E-03     120.552E-06    -146.327E+06    -146.481E+06    -320.605E+06    -146.396E+06    -320.590E+06    -146.427E+06     1.35197E+06         50.8334
              55    -1.54417E-06     32.0813E-03     319.603E-03     295.553E-03        -1.08265     295.538E-03        -1.08263     319.603E-03    -8.68242E-03     348.983E-03    -173.997E-03    -174.987E-03    -174.986E-03     348.982E-03    -173.997E-03    -1.02349E-03    -145.688E+06    -146.168E+06    -320.057E+06    -146.190E+06    -320.035E+06    -145.688E+06    -1.11993E+06         50.8382
              56     1.56133E-06     30.6680E-03     307.591E-03     297.219E-03        -1.07357     299.546E-03        -1.07356     305.254E-03    -6.98129E-03     349.367E-03    -174.333E-03    -175.034E-03    -175.032E-03     349.366E-03    -174.333E-03    -553.555E-06    -148.004E+06    -149.660E+06    -323.494E+06    -148.457E+06    -323.467E+06    -149.235E+06    -624.069E+03         50.8332
              57    -398.369E-09     29.2448E-03     303.994E-03     291.823E-03        -1.06561     303.986E-03        -1.06560     291.823E-03    -6.29297E-03     349.944E-03    -174.443E-03    -175.500E-03    -175.136E-03     349.943E-03    -174.806E-03    -147.914E-06    -147.645E+06    -150.105E+06    -321.422E+06    -148.883E+06    -321.413E+06    -148.876E+06     1.20446E+06         50.8130
              58    -189.546E-09     27.8296E-03     308.893E-03     279.892E-03        -1.05991     308.888E-03        -1.05990     279.892E-03    -5.33709E-03     348.545E-03    -173.452E-03    -175.093E-03    -174.729E-03     348.544E-03    -173.814E-03    -1.30180E-03    -145.046E+06    -147.176E+06    -318.629E+06    -146.278E+06    -318.625E+06    -145.948E+06     138.034E+03         50.7700
              59     2.33463E-06     26.4180E-03     313.922E-03     270.465E-03        -1.05634     313.916E-03        -1.05633     270.465E-03    -5.70230E-03     348.952E-03    -173.380E-03    -175.572E-03    -175.572E-03     348.952E-03    -173.380E-03    -711.403E-06    -146.538E+06    -147.725E+06    -322.487E+06    -146.825E+06    -322.485E+06    -147.440E+06    -120.793E+03         50.6938
              60    -787.530E-09     24.9963E-03     316.754E-03     265.399E-03        -1.05498     316.749E-03        -1.05498     265.399E-03    -5.34405E-03     349.199E-03    -173.788E-03    -175.411E-03    -174.702E-03     349.199E-03    -174.497E-03    -510.385E-06    -146.634E+06    -147.181E+06    -322.989E+06    -147.184E+06    -322.986E+06    -146.634E+06    -256.599E+03         50.5717
              61    -394.153E-09     23.5821E-03     320.021E-03     262.625E-03        -1.05621     320.018E-03        -1.05621     262.625E-03    -4.21672E-03     348.656E-03    -173.311E-03    -175.345E-03    -174.636E-03     348.656E-03    -174.020E-03    -570.435E-06    -145.482E+06    -145.843E+06    -322.125E+06    -145.851E+06    -322.117E+06    -145.482E+06    -1.17267E+06         50.3899
              62     2.62995E-06     22.1646E-03     322.027E-03     263.498E-03        -1.05941     322.023E-03        -1.05940     263.498E-03    -4.76039E-03     347.566E-03    -172.955E-03    -174.611E-03    -174.611E-03     347.565E-03    -172.955E-03    -572.769E-06    -148.560E+06    -149.429E+06    -324.079E+06    -148.670E+06    -324.069E+06    -149.330E+06    -69.0487E+03         50.1353
              63    -2.07577E-06     20.7534E-03     322.242E-03     268.537E-03        -1.06514     322.239E-03        -1.06514     268.537E-03    -4.03653E-03     343.846E-03    -171.747E-03    -172.098E-03    -172.096E-03     343.843E-03    -171.747E-03    -1.80081E-03    -145.347E+06    -146.228E+06    -321.572E+06    -145.466E+06    -321.565E+06    -146.117E+06     1.11911E+06         49.8005
              64     2.11106E-06     19.3467E-03     322.833E-03     275.685E-03        -1.07305     322.831E-03        -1.07304     275.685E-03    -3.43177E-03     339.676E-03    -169.566E-03    -170.110E-03    -170.108E-03     339.674E-03    -169.566E-03    -1.46098E-03    -143.988E+06    -144.740E+06    -320.255E+06    -144.103E+06    -320.252E+06    -144.628E+06     304.054E+03         49.3882
              65    -1.22424E-06     17.9464E-03     323.100E-03     285.328E-03        -1.08299     323.098E-03        -1.08299     285.328E-03    -3.53042E-03     333.896E-03    -166.638E-03    -167.258E-03    -167.252E-03     333.890E-03    -166.638E-03    -2.37430E-03    -143.799E+06    -145.346E+06    -319.548E+06    -144.707E+06    -319.548E+06    -144.439E+06    -47.9085E+03         48.9156
              66     1.39512E-06     16.5552E-03     324.209E-03     295.900E-03        -1.09488     324.207E-03        -1.09487     295.900E-03    -2.70136E-03     323.172E-03    -160.988E-03    -162.185E-03    -162.176E-03     323.163E-03    -160.988E-03    -4.10820E-03    -142.370E+06    -144.613E+06    -320.294E+06    -143.288E+06    -320.284E+06    -143.706E+06    -818.804E+03         48.4187
              67     476.487E-09     15.1853E-03     326.054E-03     306.416E-03        -1.10730     326.052E-03        -1.10730     306.416E-03    -2.97788E-03     308.113E-03    -153.420E-03    -154.693E-03    -154.680E-03     308.100E-03    -153.420E-03    -4.70339E-03    -147.126E+06    -150.023E+06    -322.332E+06    -148.704E+06    -322.315E+06    -148.461E+06    -192.891E+03         47.9507
              68    -165.411E-09     13.8360E-03     329.062E-03     316.685E-03        -1.12082     329.061E-03        -1.12082     316.685E-03    -2.20317E-03     289.433E-03    -144.624E-03    -144.809E-03    -144.767E-03     289.406E-03    -144.638E-03    -6.81268E-03    -151.125E+06    -154.271E+06    -320.763E+06    -152.694E+06    -320.756E+06    -152.709E+06     725.674E+03         47.5747
              69     102.793E-09     12.5180E-03     333.210E-03     325.955E-03        -1.13452     333.210E-03        -1.13452     325.955E-03    -1.45516E-03     267.425E-03    -133.529E-03    -133.896E-03    -133.835E-03     267.378E-03    -133.544E-03    -8.54668E-03    -152.667E+06    -156.001E+06    -319.689E+06    -154.432E+06    -319.675E+06    -154.251E+06     1.04557E+06         47.3530
              70     506.943E-09     11.2246E-03     337.792E-03     333.835E-03        -1.14739     337.792E-03        -1.14739     333.835E-03    -1.08905E-03     243.512E-03    -121.226E-03    -122.286E-03    -122.228E-03     243.454E-03    -121.226E-03    -9.19465E-03    -155.932E+06    -159.737E+06    -318.516E+06    -157.709E+06    -318.490E+06    -157.987E+06     97.9865E+03         47.3360
              71     689.982E-09     9.97027E-03     342.880E-03     340.150E-03        -1.15933     342.880E-03        -1.15933     340.150E-03    -928.341E-06     224.315E-03    -111.322E-03    -112.993E-03    -112.946E-03     224.268E-03    -111.322E-03    -7.91303E-03    -161.836E+06    -166.989E+06    -318.339E+06    -164.946E+06    -318.326E+06    -163.890E+06    -882.597E+03         47.5551
              72     1.03885E-06     8.72898E-03     347.874E-03     345.617E-03        -1.17037     347.874E-03        -1.17037     345.617E-03    -978.914E-06     220.202E-03    -109.612E-03    -110.590E-03    -110.572E-03     220.183E-03    -109.612E-03    -4.05820E-03    -164.128E+06    -169.588E+06    -316.786E+06    -167.236E+06    -316.776E+06    -166.489E+06     972.423E+03         48.0266
              73    -1.00633E-06     7.48516E-03     352.135E-03     350.788E-03        -1.18040     351.935E-03        -1.18040     350.988E-03    -128.776E-06     240.117E-03    -119.635E-03    -120.482E-03    -119.639E-03     240.104E-03    -120.466E-03     2.45535E-03    -157.817E+06    -161.413E+06    -314.375E+06    -159.064E+06    -314.362E+06    -160.179E+06     364.599E+03         48.7643
              74    -313.197E-09     6.19265E-03     356.033E-03     354.699E-03        -1.18881     355.833E-03        -1.18881     354.899E-03     1.09853E-03     289.414E-03    -143.879E-03    -145.535E-03    -144.641E-03     289.350E-03    -144.709E-03     10.1125E-03    -144.594E+06    -147.967E+06    -313.741E+06    -145.842E+06    -313.728E+06    -146.733E+06     457.550E+03         49.7942
              75     1.90775E-06     4.81859E-03     359.494E-03     357.875E-03        -1.19599     359.009E-03        -1.19599     358.359E-03     149.374E-06     363.109E-03    -181.120E-03    -181.989E-03    -181.864E-03     362.984E-03    -181.120E-03     16.4697E-03    -115.541E+06    -118.503E+06    -307.508E+06    -116.424E+06    -307.448E+06    -117.680E+06     3.21381E+06         51.1603
              76    -1.59662E-06     3.31835E-03     361.421E-03     360.673E-03        -1.20115     360.672E-03        -1.20115     361.421E-03     939.904E-06     441.734E-03    -220.839E-03    -220.894E-03    -220.795E-03     441.634E-03    -220.839E-03     15.5340E-03    -91.5027E+06    -93.1504E+06    -293.178E+06    -92.3754E+06    -293.128E+06    -92.3268E+06     2.31601E+06         52.9160
              77     1.71903E-06     1.70316E-03     362.984E-03     361.764E-03        -1.20403     361.763E-03        -1.20403     362.984E-03     679.647E-06     503.954E-03    -251.878E-03    -252.076E-03    -252.035E-03     503.913E-03    -251.878E-03     10.9856E-03    -78.8226E+06    -80.6813E+06    -277.627E+06    -79.9006E+06    -277.583E+06    -79.6467E+06     2.14892E+06         55.1127
              78     761.092E-06    -430.211E-18     363.208E-03     361.904E-03        -1.20475     361.904E-03        -1.20475     363.208E-03    -298.680E-06     524.137E-03    -260.764E-03    -263.373E-03    -260.897E-03     524.085E-03    -263.188E-03     12.4865E-03    -68.7056E+06    -70.9212E+06    -269.523E+06    -70.9939E+06    -269.450E+06    -68.7056E+06     3.78261E+06         56.3496
              79     1.53192E-03    -430.211E-18     362.357E-03     361.557E-03        -1.20400     361.557E-03        -1.20400     362.357E-03     782.309E-06     511.505E-03    -251.493E-03    -260.013E-03    -251.385E-03     511.398E-03    -260.013E-03     17.8530E-03    -66.8265E+06    -71.0831E+06    -269.907E+06    -71.1655E+06    -269.824E+06    -66.8265E+06     4.00639E+06         56.4169
              80     2.31082E-03    -430.211E-18     361.958E-03     360.798E-03        -1.20309     360.798E-03        -1.20309     361.958E-03     1.03760E-03     493.379E-03    -238.257E-03    -255.122E-03    -238.082E-03     493.204E-03    -255.122E-03     22.4989E-03    -64.6011E+06    -71.7141E+06    -262.036E+06    -71.7674E+06    -261.982E+06    -64.6011E+06     2.42847E+06         56.5398
              81     3.10341E-03    -430.211E-18     361.516E-03     359.608E-03        -1.20172     359.608E-03        -1.20172     361.516E-03     1.50429E-03     471.365E-03    -222.395E-03    -248.970E-03    -222.146E-03     471.116E-03    -248.970E-03     26.1552E-03    -63.2955E+06    -71.6972E+06    -235.073E+06    -71.7143E+06    -235.056E+06    -63.2955E+06     1.23410E+06         56.7415
              82     3.90871E-03    -430.211E-18     360.965E-03     358.016E-03        -1.19987     358.015E-03        -1.19987     360.965E-03     1.70687E-03     447.066E-03    -205.179E-03    -241.888E-03    -204.851E-03     446.739E-03    -241.888E-03     29.1338E-03    -62.3154E+06    -70.5853E+06    -197.424E+06    -70.6373E+06    -197.372E+06    -62.3154E+06    -261.044E+03         57.0553
              83     4.72928E-03    -430.211E-18     360.301E-03     356.204E-03        -1.19778     356.203E-03        -1.19778     360.301E-03     1.79155E-03     421.869E-03    -187.682E-03    -234.187E-03    -187.299E-03     421.486E-03    -234.187E-03     30.5495E-03    -60.1855E+06    -66.8957E+06    -154.040E+06    -67.0635E+06    -153.873E+06    -60.1855E+06    -3.47507E+06         57.5229
              84     5.56651E-03    -430.211E-18     359.532E-03     354.095E-03        -1.19543     354.094E-03        -1.19543     359.532E-03     2.04083E-03     397.375E-03    -171.207E-03    -226.168E-03    -170.785E-03     396.953E-03    -226.168E-03     30.9600E-03    -56.2106E+06    -59.1889E+06    -103.821E+06    -60.7400E+06    -102.096E+06    -56.3842E+06    -6.04706E+06         58.1910
              85     6.41466E-03    -430.211E-18     358.648E-03     351.534E-03        -1.19269     351.533E-03        -1.19269     358.648E-03     2.55491E-03     374.522E-03    -156.399E-03    -218.124E-03    -155.946E-03     374.070E-03    -218.124E-03     30.9734E-03    -27.0635E+06    -48.2289E+06    -62.3161E+06    -51.6153E+06    -37.7643E+06    -48.2289E+06    -8.56053E+06         59.1060
              86     7.27798E-03    -430.211E-18     357.633E-03     348.530E-03        -1.18963     348.529E-03        -1.18963     357.633E-03     3.09724E-03     353.714E-03    -143.381E-03    -210.333E-03    -142.910E-03     353.242E-03    -210.333E-03     30.5827E-03     4.54962E+06    -33.2617E+06    -43.1537E+06    -42.1142E+06     3.51010E+06    -33.2617E+06    -6.24127E+06         60.3053
              87     8.14846E-03    -430.211E-18     356.479E-03     345.099E-03        -1.18637     345.096E-03        -1.18637     356.479E-03     3.88887E-03     335.478E-03    -132.545E-03    -202.933E-03    -132.082E-03     335.016E-03    -202.933E-03     29.4142E-03     12.6226E+06     -17.399E+06    -35.5017E+06    -35.3424E+06     12.4634E+06     -17.399E+06    -2.70208E+06         61.8065
              88     9.03328E-03    -430.211E-18     355.186E-03     341.252E-03        -1.18308     341.248E-03        -1.18308     355.186E-03     4.66731E-03     321.284E-03    -125.238E-03    -196.047E-03    -124.768E-03     320.815E-03    -196.047E-03     28.9149E-03     19.6054E+06    -2.27969E+06    -29.9703E+06    -29.8715E+06     19.5065E+06    -2.27969E+06    -2.21163E+06         63.5956
              89     9.91576E-03    -430.211E-18     353.760E-03     337.101E-03        -1.18009     337.095E-03        -1.18008     353.760E-03     5.56819E-03     310.670E-03    -120.818E-03    -189.853E-03    -120.381E-03     310.234E-03    -189.853E-03     27.3771E-03     24.7246E+06     15.8977E+06    -25.4941E+06    -25.4430E+06     24.5296E+06     16.0416E+06    -1.09903E+06         65.6240
              90     10.8087E-03    -430.211E-18     352.221E-03     332.912E-03        -1.17806     332.906E-03        -1.17805     352.221E-03     6.21406E-03     303.721E-03    -119.277E-03    -184.444E-03    -118.822E-03     303.266E-03    -184.444E-03     27.6238E-03     40.6104E+06     28.5658E+06    -20.6664E+06    -20.6663E+06     28.5658E+06     40.6104E+06     47.5336E+03         67.8080
              91     11.6937E-03    -430.211E-18     350.625E-03     329.270E-03        -1.17818     329.262E-03        -1.17817     350.625E-03     6.97469E-03     305.110E-03    -125.130E-03    -179.980E-03    -124.715E-03     304.696E-03    -179.980E-03     26.3601E-03     62.9980E+06     39.0227E+06    -16.6413E+06    -16.6229E+06     39.0042E+06     62.9980E+06     770.591E+03         70.0290
              92     12.5856E-03    -430.211E-18     349.099E-03     327.930E-03        -1.18345     327.925E-03        -1.18344     349.099E-03     4.92021E-03     319.545E-03    -142.631E-03    -176.915E-03    -142.004E-03     318.919E-03    -176.915E-03     32.9134E-03     84.7505E+06     59.2273E+06    -13.0359E+06    -12.7872E+06     58.9787E+06     84.7505E+06     3.82326E+06         72.1529
              93     13.4204E-03    -430.211E-18     347.899E-03     331.920E-03        -1.19852     331.917E-03        -1.19852     347.899E-03    -1.46518E-03     356.217E-03    -165.400E-03    -190.817E-03    -178.357E-03     354.327E-03    -175.970E-03     62.1719E-03     111.801E+06     72.0852E+06    -11.6673E+06    -10.8955E+06     71.3134E+06     111.801E+06     7.84459E+06         74.0514
              94     14.2441E-03    -430.211E-18     357.631E-03     341.705E-03        -1.23776     351.167E-03        -1.23718     347.589E-03    -45.9728E-03     493.559E-03    -179.306E-03    -314.253E-03    -304.286E-03     483.592E-03    -179.306E-03     172.139E-03     140.120E+06     79.6078E+06    -4.25893E+06    -3.71364E+06     79.0625E+06     140.120E+06     5.17014E+06         75.5340
              95     15.0020E-03     2.08685E-03     359.334E-03     341.380E-03        -1.21420     349.603E-03        -1.21238     349.292E-03    -104.341E-03     530.073E-03    -181.211E-03    -348.862E-03    -326.136E-03     507.347E-03    -181.211E-03     272.528E-03     147.181E+06     84.1708E+06    -4.66456E+06    -4.59955E+06     84.1057E+06     147.181E+06     2.09913E+06         75.3573
              96     15.0689E-03     3.45437E-03     351.329E-03     330.484E-03        -1.14761     328.847E-03        -1.14597     351.329E-03    -94.9159E-03     415.576E-03    -179.121E-03    -236.455E-03    -210.691E-03     389.812E-03    -179.121E-03     254.033E-03     144.161E+06     89.2068E+06    -6.71960E+06    -6.58614E+06     89.0733E+06     144.161E+06     3.57297E+06         74.2244
              97     15.1012E-03     4.80287E-03     350.813E-03     321.649E-03        -1.12886     321.124E-03        -1.12834     350.813E-03    -53.2570E-03     378.139E-03    -177.004E-03    -201.135E-03    -185.497E-03     362.501E-03    -177.004E-03     181.303E-03     142.055E+06     91.0684E+06    -4.14586E+06    -4.05349E+06     90.9760E+06     142.055E+06     2.83833E+06         73.7183
              98     15.1201E-03     6.25682E-03     348.215E-03     319.455E-03        -1.12549     319.295E-03        -1.12533     348.215E-03    -28.7981E-03     384.580E-03    -175.141E-03    -209.439E-03    -202.024E-03     377.165E-03    -175.141E-03     131.710E-03     139.098E+06     88.8078E+06    -4.34906E+06    -4.31757E+06     88.7763E+06     139.098E+06      252.74E+03         73.4726
              99     15.1250E-03     7.71829E-03     344.524E-03     321.290E-03        -1.12743     321.251E-03        -1.12739     344.524E-03    -14.4128E-03     392.912E-03    -174.308E-03    -218.604E-03    -212.184E-03     386.492E-03    -174.308E-03     124.588E-03     140.730E+06     89.4366E+06    -2.67276E+06    -2.65993E+06     89.4238E+06     140.730E+06    -987.990E+03         73.3089
             100     15.1283E-03     9.20847E-03     340.082E-03     322.545E-03        -1.12850     322.535E-03        -1.12849     340.082E-03    -7.47873E-03     397.146E-03    -173.970E-03    -223.176E-03    -216.621E-03     390.591E-03    -173.970E-03     126.781E-03     139.471E+06     87.4811E+06    -4.26181E+06    -4.25903E+06     87.4783E+06     139.471E+06    -503.940E+03         73.1538
             101     15.1297E-03     10.6835E-03     335.290E-03     324.373E-03        -1.12813     324.370E-03        -1.12813     335.290E-03    -3.59049E-03     397.732E-03    -173.889E-03    -223.844E-03    -216.757E-03     390.646E-03    -173.889E-03     131.975E-03     140.829E+06     88.1009E+06    -3.66218E+06    -3.66058E+06     88.0993E+06     140.829E+06    -367.327E+03         72.9776
             102     15.1289E-03     12.1611E-03     330.338E-03     325.543E-03        -1.12715     325.543E-03        -1.12715     330.338E-03    -1.30747E-03     396.965E-03    -173.931E-03    -223.034E-03    -215.731E-03     389.662E-03    -173.931E-03     133.776E-03     140.576E+06     87.5947E+06    -4.26770E+06    -4.26685E+06     87.5939E+06     140.576E+06     18.7398E+03         72.7822
             103     15.1283E-03     13.6338E-03     327.398E-03     324.719E-03        -1.12556     326.689E-03        -1.12556     325.428E-03    -1.08150E-03     393.586E-03    -174.080E-03    -219.506E-03    -211.716E-03     385.795E-03    -174.080E-03     137.295E-03     140.819E+06     87.7908E+06    -3.99118E+06    -3.99067E+06     87.7903E+06     140.819E+06     187.533E+03         72.5851
             104     15.1284E-03     15.0970E-03     327.125E-03     320.760E-03        -1.12243     327.125E-03        -1.12242     320.760E-03    -1.60030E-03     387.296E-03    -174.253E-03    -213.043E-03    -204.747E-03     378.999E-03    -174.253E-03     140.152E-03     141.056E+06     88.3410E+06    -3.44402E+06    -3.44365E+06     88.3406E+06     141.056E+06     163.801E+03         72.4097
             105     15.1302E-03     16.5437E-03     327.369E-03     316.478E-03        -1.11878     327.369E-03        -1.11878     316.478E-03    -961.774E-06     381.087E-03    -174.384E-03    -206.703E-03    -198.341E-03     372.725E-03    -174.384E-03     139.213E-03     139.957E+06     87.5784E+06    -4.24824E+06    -4.24438E+06     87.5746E+06     139.957E+06    -277.224E+03         72.2735
             106     15.1289E-03     17.9816E-03     327.536E-03     312.687E-03        -1.11589     327.536E-03        -1.11589     312.687E-03     133.025E-06     375.234E-03    -174.530E-03    -200.705E-03    -192.828E-03     367.358E-03    -174.530E-03     133.759E-03     139.437E+06     87.4289E+06    -4.16335E+06    -4.15934E+06     87.4249E+06     139.437E+06    -253.144E+03         72.1818
             107     15.1294E-03     19.4162E-03     327.647E-03     309.493E-03        -1.11329     327.647E-03        -1.11329     309.493E-03     509.282E-06     367.984E-03    -174.733E-03    -193.252E-03    -185.822E-03     360.555E-03    -174.733E-03     128.290E-03     138.557E+06     87.0045E+06    -4.17397E+06    -4.17078E+06     87.0013E+06     138.557E+06    -201.591E+03         72.1327
             108     15.1285E-03     20.8296E-03     327.720E-03     306.974E-03        -1.11123     327.720E-03        -1.11123     306.974E-03     422.639E-06     362.441E-03    -174.893E-03    -187.548E-03    -180.648E-03     355.541E-03    -174.893E-03     122.370E-03     138.492E+06     87.0007E+06    -3.79462E+06     -3.7917E+06     86.9978E+06     138.492E+06    -450.872E+03         72.1220
             109     15.1282E-03     22.2499E-03     327.516E-03     305.214E-03        -1.10932     327.516E-03        -1.10932     305.214E-03    -192.318E-06     359.161E-03    -174.972E-03    -184.189E-03    -177.697E-03     352.669E-03    -174.972E-03     118.067E-03     137.142E+06     86.4939E+06    -3.96799E+06    -3.96237E+06     86.4883E+06     137.142E+06     393.128E+03         72.1403
             110     15.1292E-03     23.6681E-03     327.018E-03     304.272E-03        -1.10680     327.018E-03        -1.10680     304.272E-03    -461.234E-06     356.903E-03    -174.989E-03    -181.914E-03    -175.361E-03     350.349E-03    -174.989E-03     118.121E-03     135.951E+06     86.2534E+06    -4.08033E+06    -4.07421E+06     86.2473E+06     135.951E+06     674.033E+03         72.1766
             111     15.1302E-03     25.0799E-03     326.538E-03     304.090E-03        -1.10520     326.538E-03        -1.10520     304.090E-03     339.223E-06     356.828E-03    -174.959E-03    -181.868E-03    -175.578E-03     350.537E-03    -174.959E-03     115.715E-03     136.202E+06     86.7520E+06    -3.60604E+06    -3.60420E+06     86.7501E+06     136.202E+06    -44.5671E+03         72.2216
             112     15.1284E-03     26.4984E-03     326.108E-03     304.623E-03        -1.10513     326.108E-03        -1.10513     304.623E-03     428.283E-06     357.665E-03    -174.952E-03    -182.713E-03    -176.775E-03     351.727E-03    -174.952E-03     112.666E-03     135.456E+06     85.8978E+06    -4.52563E+06    -4.52227E+06     85.8944E+06     135.456E+06    -543.575E+03         72.2672
             113     15.1291E-03     27.9168E-03     325.559E-03     305.896E-03        -1.10476     325.559E-03        -1.10476     305.896E-03    -280.525E-06     356.859E-03    -174.969E-03    -181.890E-03    -175.901E-03     350.870E-03    -174.969E-03     112.957E-03     135.757E+06     86.2264E+06    -4.33562E+06    -4.33032E+06     86.2211E+06     135.757E+06     53.4834E+03         72.3103
             114     15.1301E-03     29.3354E-03     324.766E-03     307.858E-03        -1.10418     324.766E-03        -1.10418     307.858E-03    -4.26121E-06     356.212E-03    -174.963E-03    -181.249E-03    -175.011E-03     349.974E-03    -174.963E-03     115.135E-03     136.573E+06     87.3262E+06    -3.52534E+06    -3.52191E+06     87.3228E+06     136.573E+06     240.764E+03         72.3510
             115     15.1295E-03     30.7531E-03     324.016E-03     310.378E-03        -1.10470     324.016E-03        -1.10470     310.378E-03     521.205E-06     356.870E-03    -174.948E-03    -181.922E-03    -175.694E-03     350.642E-03    -174.948E-03     115.176E-03     136.695E+06     87.5942E+06    -3.51528E+06    -3.51475E+06     87.5936E+06     136.695E+06    -214.226E+03         72.3888
             116     15.1294E-03     32.1679E-03     323.154E-03     313.355E-03        -1.10535     323.154E-03        -1.10535     313.355E-03     346.072E-06     356.852E-03    -174.937E-03    -181.915E-03    -175.900E-03     350.837E-03    -174.937E-03     113.207E-03     136.453E+06     87.7224E+06    -3.57068E+06    -3.57053E+06     87.7222E+06     136.453E+06    -80.8544E+03         72.4240
             117     15.1303E-03     33.5856E-03     322.145E-03     316.684E-03        -1.10561     322.145E-03        -1.10561     316.684E-03     360.930E-06     356.115E-03    -174.931E-03    -181.184E-03    -175.275E-03     350.206E-03    -174.931E-03     112.068E-03     136.429E+06     88.1420E+06    -3.35581E+06    -3.35580E+06     88.1420E+06     136.429E+06     26.8486E+03         72.4578
             118     15.1299E-03     35.0024E-03     321.829E-03     319.462E-03        -1.10614     321.091E-03        -1.10614     320.199E-03     705.676E-06     356.236E-03    -174.925E-03    -181.311E-03    -175.332E-03     350.257E-03    -174.925E-03     112.753E-03     136.270E+06     87.7806E+06    -3.96610E+06    -3.96608E+06     87.7806E+06     136.270E+06     45.2801E+03         72.4909
             119     15.1302E-03     36.4205E-03     323.744E-03     320.036E-03        -1.10679     320.036E-03        -1.10679     323.744E-03     750.658E-06     356.796E-03    -174.914E-03    -181.881E-03    -175.885E-03     350.799E-03    -174.914E-03     113.035E-03     136.583E+06     87.8225E+06    -4.16440E+06    -4.16420E+06     87.8223E+06     136.583E+06    -73.9045E+03         72.5242
             120     15.1299E-03     37.8385E-03     327.169E-03     319.093E-03        -1.10730     319.093E-03        -1.10730     327.169E-03     776.758E-06     356.872E-03    -174.914E-03    -181.957E-03    -175.983E-03     350.897E-03    -174.914E-03     112.844E-03     136.960E+06     88.6047E+06    -3.58491E+06    -3.58450E+06     88.6043E+06     136.960E+06     4.31876E+03         72.5573
             121     15.1300E-03     39.2565E-03     330.322E-03     318.138E-03        -1.10779     318.138E-03        -1.10779     330.322E-03     1.05993E-03     357.027E-03    -174.927E-03    -182.100E-03    -176.176E-03     351.103E-03    -174.927E-03     112.405E-03     136.680E+06     88.3963E+06    -3.97662E+06    -3.97639E+06     88.3961E+06     136.680E+06     125.469E+03         72.5904
             122     15.1289E-03     40.6739E-03     333.092E-03     317.106E-03        -1.10780     317.106E-03        -1.10780     333.092E-03     808.314E-06     356.993E-03    -174.946E-03    -182.047E-03    -176.190E-03     351.136E-03    -174.946E-03     111.764E-03     136.646E+06     88.3313E+06    -4.20654E+06    -4.20476E+06     88.3295E+06     136.646E+06     312.802E+03         72.6237
             123     15.1299E-03     42.0927E-03     335.367E-03     315.859E-03        -1.10663     315.859E-03        -1.10663     335.367E-03     341.189E-06     356.391E-03    -174.952E-03    -181.439E-03    -175.570E-03     350.522E-03    -174.952E-03     111.753E-03     136.509E+06     88.9488E+06    -3.83147E+06    -3.82712E+06     88.9444E+06     136.509E+06    -59.9540E+03         72.6577
             124     15.1296E-03     43.5079E-03     337.011E-03     314.585E-03        -1.10473     314.585E-03        -1.10473     337.011E-03     470.334E-06     356.027E-03    -174.941E-03    -181.086E-03    -175.217E-03     350.158E-03    -174.941E-03     111.670E-03     136.252E+06     89.4120E+06    -3.63534E+06    -3.63239E+06     89.4090E+06     136.252E+06    -214.052E+03         72.6923
             125     15.1302E-03     44.9273E-03     337.903E-03     313.368E-03        -1.10248     313.368E-03        -1.10248     337.903E-03     745.412E-06     356.143E-03    -174.937E-03    -181.206E-03    -175.251E-03     350.187E-03    -174.937E-03     112.514E-03     136.056E+06     89.4759E+06    -3.80316E+06    -3.80161E+06     89.4743E+06     136.056E+06     366.542E+03         72.7270
             126     15.1295E-03     46.3446E-03     337.974E-03     312.257E-03        -1.09980     312.257E-03        -1.09980     337.974E-03     924.145E-06     356.605E-03    -174.935E-03    -181.671E-03    -175.684E-03     350.618E-03    -174.935E-03     112.902E-03     135.955E+06     89.0375E+06    -4.51069E+06    -4.50949E+06     89.0363E+06     135.955E+06     262.079E+03         72.7620
             127     15.1298E-03     47.7601E-03     337.196E-03     311.222E-03        -1.09649     311.222E-03        -1.09649     337.196E-03     922.454E-06     356.805E-03    -174.936E-03    -181.869E-03    -176.013E-03     350.949E-03    -174.936E-03     111.713E-03     137.197E+06     90.2239E+06    -3.58259E+06    -3.58125E+06     90.2226E+06     137.197E+06    -222.004E+03         72.7973
             128     15.1294E-03     49.1806E-03     335.579E-03     310.133E-03        -1.09225     310.133E-03        -1.09225     335.579E-03     856.695E-06     356.692E-03    -174.944E-03    -181.748E-03    -175.825E-03     350.769E-03    -174.944E-03     112.313E-03     136.948E+06     90.2884E+06    -3.76372E+06    -3.75995E+06     90.2846E+06     136.948E+06     88.9412E+03         72.8329
             129     15.1299E-03     50.5979E-03     333.151E-03     308.974E-03        -1.08706     308.974E-03        -1.08706     333.151E-03     864.759E-06     356.613E-03    -174.949E-03    -181.664E-03    -175.679E-03     350.628E-03    -174.949E-03     112.887E-03     137.033E+06       90.51E+06    -3.81136E+06    -3.80855E+06     90.5072E+06     137.033E+06     472.911E+03         72.8691
             130     15.1294E-03     52.0146E-03     329.949E-03     307.690E-03        -1.08102     307.689E-03        -1.08102     329.949E-03     926.872E-06     356.102E-03    -174.954E-03    -181.148E-03    -175.273E-03     350.226E-03    -174.954E-03     111.752E-03     136.831E+06     90.7061E+06    -3.87398E+06    -3.87352E+06     90.7056E+06     136.831E+06     74.0318E+03         72.9056
             131     15.1300E-03     53.4305E-03     326.043E-03     306.446E-03        -1.07428     306.446E-03        -1.07428     326.043E-03     830.920E-06     355.921E-03    -174.950E-03    -180.971E-03    -175.081E-03     350.031E-03    -174.950E-03     111.850E-03     136.178E+06     90.5515E+06    -4.29948E+06    -4.29767E+06     90.5497E+06     136.178E+06    -347.306E+03         72.9426
             132     15.1296E-03     54.8486E-03     321.503E-03     305.077E-03        -1.06676     305.077E-03        -1.06676     321.503E-03     549.040E-06     356.494E-03    -174.928E-03    -181.566E-03    -175.557E-03     350.485E-03    -174.928E-03     113.081E-03     137.277E+06     91.3635E+06    -3.86502E+06    -3.85939E+06     91.3579E+06     137.277E+06     144.302E+03         72.9807
             133     15.1307E-03     56.2678E-03     316.415E-03     303.769E-03        -1.05861     303.769E-03        -1.05861     316.415E-03     803.239E-06     356.707E-03    -174.907E-03    -181.799E-03    -175.761E-03     350.669E-03    -174.907E-03     113.399E-03     138.217E+06     91.7954E+06    -3.84710E+06    -3.84312E+06     91.7914E+06     138.217E+06     366.863E+03         73.0192
             134     15.1301E-03     57.6838E-03     310.877E-03     302.545E-03        -1.05060     302.545E-03        -1.05060     310.877E-03     1.11772E-03     356.646E-03    -174.914E-03    -181.731E-03    -175.807E-03     350.721E-03    -174.914E-03     112.329E-03     137.700E+06     91.8405E+06    -4.07511E+06    -4.07365E+06     91.8391E+06     137.700E+06     192.298E+03         73.0569
             135     15.1295E-03     59.1025E-03     305.048E-03     301.275E-03        -1.04237     301.275E-03        -1.04237     305.048E-03     885.212E-06     356.443E-03    -174.935E-03    -181.508E-03    -175.610E-03     350.545E-03    -174.935E-03     112.040E-03     137.406E+06     92.3300E+06    -3.83944E+06    -3.83806E+06     92.3286E+06     137.406E+06     261.712E+03         73.0945
             136     15.1303E-03     60.5178E-03     300.636E-03     298.431E-03        -1.03344     299.941E-03        -1.03344     299.127E-03     791.643E-06     355.992E-03    -174.940E-03    -181.052E-03    -175.165E-03     350.105E-03    -174.940E-03     111.832E-03     137.198E+06     92.5261E+06    -3.95450E+06    -3.95274E+06     92.5244E+06     137.198E+06    -285.957E+03         73.1332
             137     15.1297E-03     61.9358E-03     298.373E-03     293.272E-03        -1.02429     298.373E-03        -1.02429     293.272E-03     779.538E-06     356.328E-03    -174.926E-03    -181.401E-03    -175.469E-03     350.396E-03    -174.926E-03     112.331E-03     137.241E+06     92.8021E+06    -4.05756E+06    -4.05504E+06     92.7996E+06     137.241E+06    -484.825E+03         73.1729
             138     15.1304E-03     63.3538E-03     296.696E-03     287.618E-03        -1.01483     296.696E-03        -1.01483     287.618E-03     727.001E-06     356.900E-03    -174.901E-03    -181.999E-03    -176.008E-03     350.908E-03    -174.901E-03     113.015E-03     138.168E+06     93.5397E+06    -3.78628E+06    -3.78455E+06     93.5380E+06     138.168E+06     22.6068E+03         73.2137
             139     15.1305E-03     64.7725E-03     294.916E-03     282.283E-03        -1.00540     294.915E-03        -1.00540     282.283E-03     1.02026E-03     356.522E-03    -174.897E-03    -181.625E-03    -175.714E-03     350.611E-03    -174.897E-03     112.171E-03     138.397E+06     93.8936E+06    -3.87718E+06    -3.87565E+06     93.8921E+06     138.397E+06     383.449E+03         73.2544
             140     15.1304E-03     66.1890E-03     293.200E-03     277.356E-03    -996.492E-03     293.199E-03    -996.491E-03     277.356E-03     1.50341E-03     356.198E-03    -174.919E-03    -181.279E-03    -175.314E-03     350.233E-03    -174.919E-03     112.613E-03     138.112E+06     94.1139E+06    -4.00532E+06    -4.00460E+06     94.1132E+06     138.112E+06     252.176E+03         73.2947
             141     15.1299E-03     67.6075E-03     291.398E-03     272.929E-03    -988.139E-03     291.397E-03    -988.138E-03     272.929E-03     1.46934E-03     356.674E-03    -174.941E-03    -181.733E-03    -175.730E-03     350.672E-03    -174.941E-03     113.060E-03     138.068E+06       94.31E+06    -4.13215E+06    -4.13195E+06     94.3098E+06     138.068E+06      135.78E+03         73.3352
             142     15.1290E-03     69.0245E-03     289.342E-03     269.117E-03    -979.711E-03     289.342E-03    -979.711E-03     269.117E-03     582.326E-06     356.600E-03    -174.950E-03    -181.649E-03    -175.691E-03     350.641E-03    -174.950E-03     112.636E-03     138.543E+06     95.3003E+06    -3.57389E+06    -3.57041E+06     95.2968E+06     138.543E+06     462.524E+03         73.3766
             143     15.1308E-03     70.4401E-03     287.055E-03     266.007E-03    -970.718E-03     287.055E-03    -970.718E-03     266.007E-03     298.960E-06     355.933E-03    -174.922E-03    -181.011E-03    -175.009E-03     349.931E-03    -174.922E-03     112.902E-03     138.068E+06     95.6349E+06    -3.79518E+06    -3.79171E+06     95.6314E+06     138.068E+06     454.866E+03         73.4195
             144     15.1308E-03     71.8592E-03     284.671E-03     263.602E-03    -962.409E-03     284.671E-03    -962.409E-03     263.602E-03     988.130E-06     356.152E-03    -174.894E-03    -181.258E-03    -175.238E-03     350.132E-03    -174.894E-03     113.123E-03     137.773E+06     95.7029E+06    -4.24377E+06    -4.24320E+06     95.7024E+06     137.773E+06    -120.388E+03         73.4631
             145     15.1302E-03     73.2753E-03     282.296E-03     261.882E-03    -955.004E-03     282.296E-03    -955.004E-03     261.882E-03     1.23481E-03     356.856E-03    -174.895E-03    -181.961E-03    -176.003E-03     350.898E-03    -174.895E-03     112.687E-03     138.671E+06     96.4784E+06    -3.92892E+06    -3.92815E+06     96.4776E+06     138.671E+06    -55.2644E+03         73.5068
             146     15.1303E-03     74.6933E-03     279.716E-03     260.842E-03    -947.475E-03     279.715E-03    -947.475E-03     260.842E-03     1.04976E-03     356.603E-03    -174.906E-03    -181.697E-03    -175.837E-03     350.743E-03    -174.906E-03     111.715E-03     139.214E+06     97.1804E+06    -3.76835E+06    -3.76802E+06     97.1801E+06     139.214E+06     179.436E+03         73.5510
             147     15.1304E-03     76.1110E-03     277.001E-03     260.420E-03    -940.078E-03     277.000E-03    -940.078E-03     260.420E-03     1.08026E-03     356.277E-03    -174.917E-03    -181.359E-03    -175.440E-03     350.357E-03    -174.917E-03     112.205E-03     138.879E+06     97.3014E+06    -4.17483E+06    -4.17459E+06     97.3012E+06     138.879E+06     154.173E+03         73.5962
             148     15.1300E-03     77.5287E-03     274.163E-03     260.524E-03    -933.112E-03     274.163E-03    -933.112E-03     260.524E-03     969.292E-06     356.567E-03    -174.920E-03    -181.647E-03    -175.706E-03     350.626E-03    -174.920E-03     112.470E-03     138.693E+06     97.7147E+06    -4.16985E+06    -4.16916E+06      97.714E+06     138.693E+06    -85.4944E+03         73.6422
             149     15.1306E-03     80.3631E-03     268.071E-03     261.998E-03    -918.857E-03     268.071E-03    -918.857E-03     261.998E-03     891.344E-06     356.088E-03    -174.914E-03    -181.174E-03    -175.231E-03     350.145E-03    -174.914E-03     112.390E-03     137.684E+06     97.4388E+06    -4.14329E+06    -4.14226E+06     97.4378E+06     137.684E+06     190.900E+03         73.7357
             150     15.1301E-03     81.7808E-03     265.132E-03     262.911E-03    -911.907E-03     264.913E-03    -911.907E-03     263.129E-03     1.02243E-03     356.602E-03    -174.912E-03    -181.690E-03    -175.749E-03     350.661E-03    -174.912E-03     112.475E-03     138.557E+06     98.6235E+06    -4.02994E+06    -4.02882E+06     98.6224E+06     138.557E+06     202.660E+03         73.7833
             151     15.1300E-03     83.1985E-03     264.346E-03     261.539E-03    -904.564E-03     261.539E-03    -904.563E-03     264.346E-03     886.053E-06     356.728E-03    -174.912E-03    -181.816E-03    -175.884E-03     350.796E-03    -174.912E-03     112.416E-03     138.560E+06     99.1015E+06    -3.94697E+06    -3.94581E+06     99.1004E+06     138.560E+06     182.881E+03         73.8312
             152     15.1305E-03     84.6171E-03     265.502E-03     258.065E-03    -896.576E-03     258.065E-03    -896.576E-03     265.502E-03     856.525E-06     356.189E-03    -174.915E-03    -181.274E-03    -175.290E-03     350.205E-03    -174.915E-03     112.789E-03     138.087E+06     98.4892E+06    -4.15713E+06    -4.15689E+06     98.4890E+06     138.087E+06     40.0732E+03         73.8795
             153     15.1304E-03     86.0328E-03     266.412E-03     254.524E-03    -888.395E-03     254.524E-03    -888.394E-03     266.412E-03     891.885E-06     356.157E-03    -174.920E-03    -181.237E-03    -175.296E-03     350.217E-03    -174.920E-03     112.370E-03     139.142E+06     99.1363E+06    -3.31167E+06    -3.31145E+06     99.1361E+06     139.142E+06     137.638E+03         73.9282
             154     15.1300E-03     87.4498E-03     266.911E-03     250.911E-03    -879.788E-03     250.911E-03    -879.788E-03     266.911E-03     853.168E-06     356.115E-03    -174.926E-03    -181.189E-03    -175.288E-03     350.214E-03    -174.926E-03     111.992E-03     138.759E+06     98.5069E+06    -3.90648E+06    -3.90644E+06     98.5069E+06     138.759E+06     54.4633E+03         73.9768
             155     15.1306E-03     88.8680E-03     266.877E-03     247.347E-03    -870.611E-03     247.347E-03    -870.611E-03     266.877E-03     773.901E-06     356.381E-03    -174.921E-03    -181.461E-03    -175.449E-03     350.370E-03    -174.921E-03     113.085E-03     138.283E+06     98.1800E+06    -4.39667E+06    -4.39666E+06     98.1800E+06     138.283E+06    -10.8085E+03         74.0261
             156     15.1299E-03     90.2852E-03     266.201E-03     243.690E-03    -860.842E-03     243.690E-03    -860.842E-03     266.201E-03     599.401E-06     356.892E-03    -174.906E-03    -181.986E-03    -176.026E-03     350.932E-03    -174.906E-03     112.709E-03     139.202E+06     99.4001E+06    -3.82213E+06    -3.82186E+06     99.3998E+06     139.202E+06     93.4952E+03         74.0765
             157     15.1306E-03     91.7031E-03     264.816E-03     239.903E-03    -850.000E-03     239.903E-03    -850.000E-03     264.816E-03     482.434E-06     356.401E-03    -174.904E-03    -181.498E-03    -175.617E-03     350.520E-03    -174.904E-03     111.873E-03     139.566E+06     100.465E+06    -3.73316E+06    -3.73131E+06     100.464E+06     139.566E+06     405.130E+03         74.1278
             158     15.1307E-03     93.1201E-03     262.649E-03     236.149E-03    -838.311E-03     236.149E-03    -838.311E-03     262.649E-03     629.056E-06     355.904E-03    -174.902E-03    -181.001E-03    -175.073E-03     349.975E-03    -174.902E-03     112.213E-03     139.477E+06     100.824E+06    -3.95007E+06    -3.94780E+06     100.822E+06     139.477E+06     477.277E+03         74.1805
             159     15.1309E-03     94.5372E-03     259.624E-03     232.357E-03    -826.007E-03     232.357E-03    -826.007E-03     259.624E-03     756.055E-06     356.120E-03    -174.900E-03    -181.219E-03    -175.265E-03     350.166E-03    -174.900E-03     112.496E-03     139.445E+06     100.511E+06    -4.25040E+06    -4.24956E+06     100.510E+06     139.445E+06     94.2007E+03         74.2343
             160     15.1303E-03     95.9550E-03     255.719E-03     228.511E-03    -812.804E-03     228.511E-03    -812.804E-03     255.719E-03     627.223E-06     356.142E-03    -174.904E-03    -181.238E-03    -175.316E-03     350.221E-03    -174.904E-03     112.198E-03     140.061E+06     101.598E+06    -3.63524E+06    -3.63193E+06     101.595E+06     140.061E+06     313.067E+03         74.2887
             161     15.1310E-03     97.3699E-03     250.936E-03     224.633E-03    -798.519E-03     224.633E-03    -798.519E-03     250.936E-03     397.457E-06     355.918E-03    -174.895E-03    -181.023E-03    -175.118E-03     350.013E-03    -174.895E-03     111.992E-03     140.012E+06     102.339E+06    -4.10772E+06    -4.10415E+06     102.336E+06     140.012E+06     256.699E+03         74.3442
             162     15.1311E-03     98.7886E-03     245.293E-03     220.678E-03    -783.347E-03     220.678E-03    -783.347E-03     245.293E-03     468.741E-06     356.248E-03    -174.874E-03    -181.374E-03    -175.424E-03     350.298E-03    -174.874E-03     112.488E-03     139.907E+06     102.503E+06    -4.32103E+06    -4.32008E+06     102.502E+06     139.907E+06    -318.392E+03         74.4008
             163     15.1310E-03     100.206E-03     238.840E-03     216.745E-03    -767.536E-03     216.745E-03    -767.536E-03     238.840E-03     664.678E-06     356.734E-03    -174.865E-03    -181.869E-03    -175.904E-03     350.769E-03    -174.865E-03     112.731E-03     140.230E+06     102.455E+06    -3.96078E+06    -3.95954E+06     102.453E+06     140.230E+06     26.1270E+03         74.4579
             164     15.1309E-03     101.625E-03     231.665E-03     212.805E-03    -751.030E-03     212.805E-03    -751.030E-03     231.665E-03     798.027E-06     356.665E-03    -174.881E-03    -181.784E-03    -175.892E-03     350.773E-03    -174.881E-03     112.032E-03     140.475E+06     101.577E+06    -4.27929E+06    -4.27417E+06     101.572E+06     140.475E+06    -287.629E+03         74.5149
             165     15.1305E-03     103.041E-03     223.885E-03     208.798E-03    -733.911E-03     208.797E-03    -733.911E-03     223.885E-03     799.485E-06     356.591E-03    -174.909E-03    -181.681E-03    -175.833E-03     350.742E-03    -174.909E-03     111.604E-03     140.707E+06     101.061E+06    -3.81672E+06    -3.81143E+06     101.056E+06     140.707E+06    -266.528E+03         74.5715
             166     15.1300E-03     104.460E-03     215.633E-03     204.679E-03    -716.072E-03     204.679E-03    -716.072E-03     215.633E-03     380.530E-06     356.475E-03    -174.925E-03    -181.550E-03    -175.622E-03     350.547E-03    -174.925E-03     112.327E-03     140.731E+06     101.983E+06    -3.91057E+06    -3.90583E+06     101.978E+06     140.731E+06     669.778E+03         74.6286
             167     15.1309E-03     105.877E-03     207.047E-03     200.384E-03    -697.253E-03     200.384E-03    -697.253E-03     207.047E-03    -33.9667E-06     355.750E-03    -174.911E-03    -180.840E-03    -174.839E-03     349.750E-03    -174.911E-03     112.849E-03     141.224E+06     103.317E+06    -4.05504E+06    -4.04856E+06     103.311E+06     141.224E+06     830.107E+03         74.6867
             168     15.1318E-03     107.292E-03     198.275E-03     195.986E-03    -678.185E-03     196.024E-03    -678.185E-03     198.237E-03    -4.62874E-06     355.692E-03    -174.878E-03    -180.814E-03    -174.834E-03     349.711E-03    -174.878E-03     112.654E-03     142.393E+06     104.909E+06    -4.07278E+06    -4.07016E+06     104.906E+06     142.393E+06     364.506E+03         74.7452
             169     15.1313E-03     108.710E-03     191.764E-03     189.326E-03    -659.340E-03     191.764E-03    -659.340E-03     189.326E-03    -7.43522E-06     356.006E-03    -174.849E-03    -181.157E-03    -175.270E-03     350.119E-03    -174.849E-03     111.845E-03     142.905E+06     105.817E+06    -3.95491E+06    -3.95461E+06     105.817E+06     142.905E+06    -138.115E+03         74.8034
             170     15.1324E-03     110.126E-03     187.295E-03     180.488E-03    -640.014E-03     187.295E-03    -640.014E-03     180.488E-03    -319.395E-06     355.640E-03    -174.826E-03    -180.814E-03    -174.903E-03     349.729E-03    -174.826E-03     111.996E-03     143.305E+06     105.672E+06    -4.55507E+06    -4.55443E+06     105.671E+06     143.305E+06    -265.440E+03         74.8620
             171     15.1329E-03     111.544E-03     182.680E-03     171.876E-03    -620.549E-03     182.680E-03    -620.549E-03     171.876E-03    -182.566E-06     355.920E-03    -174.788E-03    -181.132E-03    -175.140E-03     349.928E-03    -174.788E-03     112.826E-03     145.821E+06     107.560E+06    -3.44219E+06    -3.41338E+06     107.531E+06     145.821E+06     1.11659E+06         74.9218
             172     15.1332E-03     112.960E-03     178.136E-03     163.633E-03    -601.528E-03     178.136E-03    -601.528E-03     163.633E-03    -24.7669E-06     356.130E-03    -174.764E-03    -181.365E-03    -175.464E-03     350.228E-03    -174.764E-03     112.022E-03     147.611E+06     111.626E+06    -4.12198E+06    -4.09347E+06     111.597E+06     147.611E+06     1.30993E+06         74.9811
             173     15.1331E-03     114.378E-03     173.297E-03     155.896E-03    -582.371E-03     173.297E-03    -582.371E-03     155.896E-03    -481.175E-06     355.603E-03    -174.752E-03    -180.851E-03    -174.871E-03     349.623E-03    -174.752E-03     112.630E-03     149.341E+06     115.215E+06    -3.93744E+06    -3.92033E+06     115.197E+06     149.341E+06     1.05600E+06         75.0395
             174     15.1351E-03     115.793E-03     168.301E-03     148.762E-03    -563.058E-03     168.301E-03    -563.058E-03     148.762E-03    -576.469E-06     355.325E-03    -174.695E-03    -180.631E-03    -174.534E-03     349.229E-03    -174.695E-03     113.666E-03     150.668E+06     118.142E+06    -4.41714E+06    -4.39254E+06     118.118E+06     150.668E+06     1.69481E+06         75.0983
             175     15.1355E-03     117.211E-03     163.278E-03     142.261E-03    -544.356E-03     163.277E-03    -544.356E-03     142.261E-03    -631.463E-06     355.726E-03    -174.630E-03    -181.096E-03    -175.024E-03     349.653E-03    -174.630E-03     113.541E-03     152.972E+06     122.598E+06    -4.86072E+06    -4.84067E+06     122.578E+06     152.972E+06     1.58606E+06         75.1554
             176     15.1360E-03     118.627E-03     158.065E-03     136.415E-03    -526.125E-03     158.065E-03    -526.124E-03     136.415E-03    -1.21615E-03     355.317E-03    -174.580E-03    -180.737E-03    -174.728E-03     349.309E-03    -174.580E-03     112.864E-03     156.313E+06     128.616E+06    -3.81956E+06    -3.79077E+06     128.587E+06     156.313E+06     1.95022E+06         75.2093
             177     15.1384E-03     120.040E-03     152.766E-03     131.276E-03    -507.827E-03     152.765E-03    -507.826E-03     131.276E-03    -1.75949E-03     353.832E-03    -174.489E-03    -179.343E-03    -173.372E-03     347.861E-03    -174.489E-03     112.211E-03     157.818E+06     131.973E+06    -5.51038E+06    -5.48800E+06     131.951E+06     157.818E+06     410.620E+03         75.2615
             178     15.1410E-03     121.453E-03     147.397E-03     126.828E-03    -490.026E-03     147.396E-03    -490.024E-03     126.828E-03    -1.90690E-03     353.958E-03    -174.348E-03    -179.610E-03    -173.548E-03     347.896E-03    -174.348E-03     113.103E-03     160.998E+06     134.213E+06    -3.80802E+06    -3.78262E+06     134.187E+06     160.998E+06     508.879E+03         75.3102
             179     15.1421E-03     122.873E-03     141.971E-03     123.017E-03    -472.949E-03     141.969E-03    -472.948E-03     123.017E-03    -2.07370E-03     354.236E-03    -174.208E-03    -180.028E-03    -173.920E-03     348.128E-03    -174.208E-03     113.591E-03     163.066E+06     137.702E+06    -4.86345E+06    -4.84081E+06     137.679E+06     163.066E+06     1.65155E+06         75.3495
             180     15.1454E-03     124.282E-03     136.413E-03     119.819E-03    -455.981E-03     136.410E-03    -455.978E-03     119.819E-03    -2.81223E-03     353.128E-03    -174.054E-03    -179.075E-03    -172.923E-03     346.977E-03    -174.054E-03     113.768E-03     165.262E+06     140.991E+06    -5.11055E+06    -5.09978E+06     140.980E+06     165.262E+06     1.23035E+06         75.3739
             181     15.1489E-03     125.696E-03     130.692E-03     117.166E-03    -439.030E-03     130.686E-03    -439.024E-03     117.166E-03    -3.66884E-03     351.721E-03    -173.829E-03    -177.892E-03    -171.603E-03     345.432E-03    -173.829E-03     114.732E-03     169.368E+06     145.337E+06    -4.13267E+06    -4.09842E+06     145.303E+06     169.368E+06     2.16870E+06         75.3757
             182     15.1549E-03     127.106E-03     124.924E-03     114.939E-03    -422.319E-03     124.913E-03    -422.307E-03     114.939E-03    -4.90493E-03     349.872E-03    -173.518E-03    -176.353E-03    -169.935E-03     343.453E-03    -173.518E-03     115.524E-03     172.451E+06     147.944E+06    -6.10756E+06    -6.07752E+06     147.914E+06     172.451E+06     935.224E+03         75.3445
             183     15.1614E-03     128.509E-03     119.037E-03     112.998E-03    -405.816E-03     119.013E-03    -405.792E-03     112.998E-03    -6.96950E-03     347.246E-03    -173.080E-03    -174.166E-03    -167.654E-03     340.745E-03    -173.091E-03     115.714E-03      178.56E+06     150.611E+06    -4.10745E+06    -4.07389E+06     150.578E+06      178.56E+06     1.03305E+06         75.2749
             184     15.1729E-03     129.912E-03     113.212E-03     110.938E-03    -388.897E-03     112.869E-03    -388.847E-03     111.230E-03    -9.88570E-03     342.356E-03    -169.914E-03    -172.442E-03    -162.993E-03     335.435E-03    -172.442E-03     118.207E-03     183.647E+06     152.529E+06    -5.16388E+06    -5.13131E+06     152.496E+06     183.647E+06     1.95319E+06         75.1825
             185     15.1912E-03     131.302E-03     109.556E-03     106.190E-03    -370.531E-03     106.086E-03    -370.427E-03     109.556E-03    -13.8339E-03     334.979E-03    -163.597E-03    -171.382E-03    -155.797E-03     327.179E-03    -171.382E-03     123.643E-03     188.468E+06     153.313E+06    -4.26909E+06    -4.21423E+06     153.258E+06     188.468E+06     2.43663E+06         75.1241
             186     15.2196E-03     132.680E-03     107.867E-03     98.7327E-03    -349.835E-03     98.5788E-03    -349.681E-03     107.867E-03    -16.5833E-03     327.236E-03    -157.521E-03    -169.716E-03    -148.734E-03     318.449E-03    -169.716E-03     129.263E-03     192.333E+06     154.298E+06    -5.27008E+06    -5.20463E+06     154.233E+06     192.333E+06     3.04218E+06         75.2085
             187     15.2565E-03     134.046E-03     105.978E-03     91.0226E-03    -327.618E-03     90.8738E-03    -327.469E-03     105.978E-03    -15.7616E-03     324.601E-03    -157.085E-03    -167.516E-03    -147.963E-03     315.479E-03    -167.516E-03     131.301E-03     196.082E+06     155.448E+06    -4.36643E+06    -4.21263E+06     155.295E+06     196.082E+06     4.32820E+06         75.5751
             188     15.2868E-03     135.422E-03     103.602E-03     83.6284E-03    -306.226E-03     83.5403E-03    -306.138E-03     103.602E-03    -11.4346E-03     333.377E-03    -161.762E-03    -171.615E-03    -159.870E-03     325.136E-03    -165.266E-03     127.279E-03     199.855E+06     157.519E+06    -7.28639E+06    -7.14262E+06     157.375E+06     199.855E+06     2.80730E+06         76.3352
             189     15.3036E-03     136.824E-03     100.473E-03     77.1074E-03    -287.127E-03     77.0803E-03    -287.100E-03     100.473E-03    -5.75461E-03     353.164E-03    -163.522E-03    -189.642E-03    -182.779E-03     346.301E-03    -163.522E-03     120.984E-03     198.282E+06     155.469E+06    -7.22416E+06    -7.22118E+06     155.466E+06     198.282E+06    -371.745E+03         77.5019
             190     15.3048E-03     138.270E-03     96.4375E-03     71.3430E-03    -269.632E-03     71.3389E-03    -269.628E-03     96.4375E-03    -2.27646E-03     374.765E-03    -162.566E-03    -212.200E-03    -206.016E-03     368.582E-03    -162.566E-03     119.838E-03     195.108E+06     152.090E+06    -5.33372E+06    -5.31534E+06     152.071E+06     195.108E+06    -1.09998E+06         78.9300
             191     15.3044E-03     139.740E-03     91.4631E-03     65.7642E-03    -251.535E-03     65.7631E-03    -251.534E-03     91.4631E-03    -1.16741E-03     390.468E-03    -162.161E-03    -228.307E-03    -221.768E-03     383.929E-03    -162.161E-03     126.521E-03     197.813E+06     152.719E+06    -4.23261E+06    -4.16148E+06     152.648E+06     197.813E+06     767.976E+03         80.3753
             192     15.3052E-03     141.217E-03     85.5437E-03     60.2944E-03    -232.291E-03     60.2934E-03    -232.290E-03     85.5437E-03    -1.04321E-03     400.336E-03    -161.926E-03    -238.410E-03    -231.681E-03     393.606E-03    -161.926E-03     130.406E-03     198.907E+06     152.359E+06    -7.93235E+06    -7.79129E+06     152.218E+06     198.907E+06    -752.898E+03         81.6380
             193     15.3043E-03     142.706E-03     78.6721E-03     54.8758E-03    -212.264E-03     54.8746E-03    -212.262E-03     78.6721E-03    -1.11468E-03     406.113E-03    -161.773E-03    -244.341E-03    -237.653E-03     399.425E-03    -161.773E-03     131.229E-03     198.376E+06     147.863E+06    -3.86028E+06    -3.67943E+06     147.682E+06     198.376E+06    -265.649E+03         82.6271
             194     15.3056E-03     144.198E-03     70.8951E-03     49.4471E-03    -191.447E-03     49.4452E-03    -191.445E-03     70.8951E-03    -1.30232E-03     410.565E-03    -161.663E-03    -248.902E-03    -242.083E-03     403.746E-03    -161.663E-03     133.423E-03     193.221E+06     135.579E+06    -9.09752E+06    -8.31060E+06     134.792E+06     193.221E+06    -4.86815E+06         83.3233
             195     15.3043E-03     145.699E-03     62.2968E-03     44.2893E-03    -170.405E-03     44.2863E-03    -170.402E-03     62.2968E-03    -1.60114E-03     412.750E-03    -161.607E-03    -251.144E-03    -244.467E-03     406.074E-03    -161.607E-03     132.474E-03     195.016E+06     123.867E+06    -1.98591E+06    -765.498E+03     122.647E+06     195.016E+06    -2.37656E+06         83.7303
             196     15.3066E-03     147.193E-03     53.0303E-03     39.2338E-03    -148.985E-03     39.2305E-03    -148.982E-03     53.0303E-03    -1.56205E-03     413.294E-03    -161.593E-03    -251.701E-03    -245.033E-03     406.626E-03    -161.593E-03     132.502E-03     193.560E+06     106.219E+06    -11.7903E+06    -9.52596E+06     103.954E+06     193.560E+06    -5.96913E+06         83.8311
             197     15.3053E-03     148.694E-03     43.2765E-03     34.0203E-03    -127.042E-03     34.0147E-03    -127.036E-03     43.2765E-03    -1.84571E-03     413.263E-03    -161.565E-03    -251.698E-03    -245.349E-03     406.914E-03    -161.565E-03     129.258E-03     200.161E+06     90.4903E+06    -4.43371E+06       -28.1E+03     86.0847E+06     200.161E+06    -3.33155E+06         83.5815
             198     15.3091E-03     150.183E-03     33.2492E-03     28.9058E-03    -104.831E-03     28.9008E-03    -104.826E-03     33.2492E-03    -1.59067E-03     411.655E-03    -161.522E-03    -250.133E-03    -244.429E-03     405.951E-03    -161.522E-03     122.331E-03     198.145E+06     76.2950E+06    -17.4542E+06    -11.8858E+06     70.7266E+06     198.145E+06    -6.28222E+06         82.8821
             199     15.3073E-03     151.678E-03     24.3765E-03     22.3472E-03    -82.0371E-03     23.4876E-03    -82.0348E-03     23.2337E-03    -996.717E-06     404.510E-03    -161.624E-03    -242.887E-03    -237.800E-03     399.423E-03    -161.624E-03     114.267E-03     210.919E+06     75.3558E+06    -14.8098E+06     2.36554E+06     58.1805E+06     210.919E+06    -4.25728E+06         81.8317
             200     15.3144E-03     153.160E-03     17.8663E-03     13.4931E-03    -59.2554E-03     17.8641E-03    -59.2532E-03     13.4931E-03    -815.626E-06     387.956E-03    -161.907E-03    -226.049E-03    -221.584E-03     383.491E-03    -161.907E-03     104.340E-03     206.587E+06     63.7364E+06    -26.0140E+06    -9.77544E+06     47.4978E+06     206.587E+06    -1.84167E+06         80.8174
             201     15.3104E-03     154.588E-03     12.3264E-03     4.23367E-03    -37.0104E-03     12.3249E-03    -37.0088E-03     4.23367E-03    -550.396E-06     367.780E-03    -162.230E-03    -205.551E-03    -201.915E-03     364.145E-03    -162.230E-03     90.8005E-03     206.315E+06     79.9126E+06    -34.8949E+06     10.3691E+06     34.6485E+06     206.315E+06    -1.00653E+06         80.5146
             202     15.3223E-03     156.002E-03     6.36938E-03    -2.41026E-03    -17.0785E-03     6.36167E-03    -15.2400E-03    -4.24097E-03    -540.625E-06     292.897E-03    -112.344E-03    -180.553E-03    -127.358E-03     291.391E-03    -164.033E-03     40.7015E-03     182.286E+06     96.8508E+06    -28.2703E+06     17.7809E+06     50.7995E+06     182.286E+06    -4.04538E+06         81.0735
             203     14.2824E-03     157.111E-03     2.54907E-03    -5.12404E-03    -7.86757E-03     2.19210E-03    -4.76706E-03    -7.86757E-03    -2.51640E-03     224.844E-03    -56.4828E-03    -168.362E-03    -56.3689E-03     224.731E-03    -168.362E-03    -7.88554E-03     107.716E+06     18.4834E+06    -104.474E+06    -58.3119E+06    -27.6786E+06     107.716E+06    -11.1828E+06         79.6062
             204     13.2991E-03     156.766E-03     1.77840E-03    -5.78144E-03    -7.93317E-03     172.531E-06    -5.41449E-03    -6.69425E-03    -6.54511E-03     215.799E-03    -42.3224E-03    -173.476E-03    -39.4934E-03     212.970E-03    -173.476E-03    -43.8561E-03     121.579E+06     26.9004E+06    -63.7806E+06    -17.8868E+06    -18.9934E+06     121.579E+06    -7.18665E+06         74.9417
             205     12.3755E-03     156.382E-03     1.92865E-03    -4.83927E-03    -9.90606E-03    -1.77501E-03    -6.20241E-03    -4.83927E-03    -10.8834E-03     209.889E-03    -31.4477E-03    -178.441E-03    -24.7547E-03     203.196E-03    -178.441E-03    -78.8387E-03     130.612E+06     44.9381E+06    -33.0999E+06     406.204E+03     11.4320E+06     130.612E+06    -10.5236E+06         69.0866
             206     11.4570E-03     155.992E-03     2.18653E-03    -2.54750E-03    -13.0188E-03    -3.35840E-03    -7.47388E-03    -2.54750E-03    -14.6373E-03     218.809E-03    -35.5524E-03    -183.257E-03    -24.5521E-03     207.809E-03    -183.257E-03    -102.802E-03     127.471E+06     19.8504E+06    -29.4625E+06     5.32094E+06    -14.9331E+06     127.471E+06    -7.39967E+06         63.1643
             207     10.5645E-03     155.590E-03     2.21480E-03     95.2545E-06    -15.9825E-03    -4.40756E-03    -9.36018E-03     95.2545E-06    -17.5098E-03     237.758E-03    -50.5442E-03    -187.213E-03    -32.7930E-03     220.006E-03    -187.213E-03    -138.181E-03     138.123E+06     23.9989E+06    -12.4602E+06     9.28608E+06     2.25257E+06     138.123E+06    -5.57560E+06         58.0348
             208     9.69997E-03     155.193E-03     3.33369E-03     1.86740E-03    -18.6996E-03    -4.87644E-03    -11.6064E-03     2.98432E-03    -19.7847E-03     259.476E-03    -69.6897E-03    -189.786E-03    -44.6139E-03     234.400E-03    -189.786E-03    -174.496E-03     139.778E+06     15.3258E+06    -13.4889E+06     7.38156E+06    -5.54464E+06     139.778E+06    -2.91537E+06         54.0416
             209     8.85245E-03     154.800E-03     6.01936E-03     2.28082E-03    -21.1551E-03    -4.39179E-03    -14.4825E-03     6.01936E-03    -21.0784E-03     282.547E-03    -91.9915E-03    -190.556E-03    -59.7149E-03     250.270E-03    -190.556E-03    -210.131E-03     140.075E+06     13.1905E+06    -6.84498E+06     5.23258E+06     1.11290E+06     140.075E+06    -6.07720E+06         51.0658
             210     8.03737E-03     154.420E-03     9.07843E-03     2.52334E-03    -23.1384E-03    -3.11939E-03    -17.4957E-03     9.07843E-03    -21.1691E-03     304.735E-03    -115.482E-03    -189.253E-03    -77.5160E-03     266.769E-03    -189.253E-03    -240.937E-03     133.853E+06     12.5775E+06    -10.7834E+06     5.14581E+06    -3.35173E+06     133.853E+06    -8.32676E+06         48.8274
             211     7.23874E-03     154.068E-03     12.0371E-03     3.25000E-03    -24.6996E-03    -1.15838E-03    -20.2912E-03     12.0371E-03    -20.2363E-03     323.733E-03    -137.797E-03    -185.936E-03    -97.0926E-03     283.028E-03    -185.936E-03    -261.736E-03     126.644E+06     16.3011E+06    -12.6334E+06     6.99297E+06    -3.32534E+06     126.644E+06    -12.1508E+06         47.0413
             212     6.45849E-03     153.745E-03     14.7949E-03     4.78279E-03    -26.0108E-03     1.63374E-03    -22.8617E-03     14.7949E-03    -18.4925E-03     335.511E-03    -154.475E-03    -181.036E-03    -115.291E-03     296.327E-03    -181.036E-03    -265.590E-03     120.150E+06     19.6288E+06    -14.2981E+06     12.5064E+06    -7.17569E+06     120.150E+06    -13.5515E+06         45.5020
             213     5.68156E-03     153.461E-03     17.2862E-03     7.15481E-03    -27.1251E-03     5.13828E-03    -25.1086E-03     17.2862E-03    -15.8902E-03     340.666E-03    -165.526E-03    -175.141E-03    -131.435E-03     306.576E-03    -175.141E-03    -253.371E-03     118.199E+06     28.3771E+06    -14.5624E+06     21.2554E+06    -7.44065E+06     118.199E+06    -15.1196E+06         44.0940
             214     4.90105E-03     153.221E-03     19.4708E-03     10.2182E-03    -28.1924E-03     9.13219E-03    -27.1065E-03     19.4708E-03    -12.4297E-03     339.961E-03    -167.806E-03    -172.155E-03    -144.189E-03     312.878E-03    -168.689E-03    -228.316E-03     115.096E+06     35.5865E+06    -14.2885E+06     30.9079E+06    -9.60997E+06     115.096E+06    -14.5288E+06         42.7773
             215     4.11775E-03     153.020E-03     21.3231E-03     13.8127E-03    -29.4029E-03     13.3229E-03    -28.9130E-03     21.3231E-03    -8.86439E-03     332.048E-03    -162.186E-03    -169.862E-03    -150.920E-03     313.106E-03    -162.186E-03    -190.252E-03     109.545E+06     45.1100E+06    -12.4235E+06     41.6073E+06    -8.92078E+06     109.545E+06    -13.0414E+06         41.5573
             216     3.31689E-03     152.858E-03     22.8520E-03     17.3996E-03    -30.5605E-03     17.2073E-03    -30.3682E-03     22.8520E-03    -5.84297E-03     319.837E-03    -156.291E-03    -163.546E-03    -151.505E-03     307.796E-03    -156.291E-03    -149.756E-03     101.037E+06     53.8324E+06    -7.46741E+06     52.1964E+06    -5.83135E+06     101.037E+06    -9.87452E+06         40.4649
             217     2.49999E-03     152.733E-03     24.0898E-03     20.5919E-03    -31.4828E-03     20.5171E-03    -31.4080E-03     24.0898E-03    -3.86316E-03     307.376E-03    -151.565E-03    -155.811E-03    -148.683E-03     300.247E-03    -151.565E-03    -112.916E-03     90.9074E+06     61.5442E+06    -3.39664E+06     60.1702E+06    -2.02266E+06     90.9074E+06    -9.31338E+06         39.5445
             218     1.67052E-03     152.646E-03     25.0404E-03     23.2810E-03    -32.3607E-03     23.2508E-03    -32.3306E-03     25.0404E-03    -2.45060E-03     297.882E-03    -148.311E-03    -149.571E-03    -146.008E-03     294.319E-03    -148.311E-03    -77.8077E-03     78.0022E+06     67.1381E+06    -5.69249E+06     65.4488E+06    -4.00323E+06     78.0022E+06    -10.8933E+06         38.8414
             219     835.403E-06     152.592E-03     25.7548E-03     25.0876E-03    -33.2846E-03     25.0810E-03    -33.2780E-03     25.7548E-03    -1.06232E-03     292.955E-03    -146.142E-03    -146.813E-03    -145.549E-03     291.691E-03    -146.142E-03    -44.1953E-03     74.2479E+06     72.7058E+06    -10.1171E+06     71.2245E+06    -8.63580E+06     74.2479E+06    -10.5790E+06         38.3895
             220    -517.379E-09     151.234E-03     27.2326E-03     26.9053E-03    -46.5816E-03     26.8896E-03    -46.5658E-03     27.2326E-03    -1.85946E-03     238.668E-03    -118.822E-03    -119.846E-03    -119.171E-03     238.405E-03    -119.234E-03    -18.7264E-03     22.5098E+06     15.9212E+06    -35.3683E+06     18.0160E+06    -32.0860E+06     17.1328E+06    -9.31416E+06         37.7177
             221    -13.0812E-09     150.032E-03     31.7778E-03     31.4616E-03    -73.7437E-03     31.5861E-03    -73.6954E-03     31.6051E-03    -4.48860E-03     155.417E-03    -77.3352E-03    -78.0815E-03    -77.2930E-03     155.374E-03    -78.0815E-03    -4.17761E-03    -62.9423E+06    -93.4729E+06    -103.506E+06    -93.8594E+06    -72.5893E+06    -93.4729E+06    -10.5047E+06         36.5546
             222    -470.843E-09     148.899E-03     39.8367E-03     39.6316E-03    -103.728E-03     39.7529E-03    -103.676E-03     39.6640E-03    -5.31494E-03     109.374E-03    -54.4982E-03    -54.8761E-03    -54.5030E-03     109.336E-03    -54.8326E-03     3.86373E-03    -117.911E+06    -198.242E+06    -203.282E+06    -200.135E+06    -120.029E+06    -199.270E+06    -12.9777E+06         35.3851
             223     468.231E-09     147.805E-03     49.5805E-03     49.1296E-03    -134.156E-03     49.5207E-03    -134.128E-03     49.1620E-03    -4.36536E-03     89.8537E-03    -44.7039E-03    -45.1498E-03    -44.9981E-03     89.7020E-03    -44.7039E-03     8.68281E-03    -171.209E+06    -293.737E+06    -299.132E+06    -295.823E+06    -173.490E+06    -294.765E+06    -16.8601E+06         34.6208
             224     95.8643E-09     146.717E-03     59.0523E-03     58.5271E-03    -162.759E-03     58.9294E-03    -162.743E-03     58.6338E-03    -3.77042E-03     93.4210E-03    -46.3190E-03    -47.1020E-03    -46.8056E-03     93.1246E-03    -46.3190E-03     12.8559E-03    -221.681E+06    -379.283E+06    -384.457E+06    -382.256E+06    -223.075E+06    -380.090E+06    -12.8280E+06         34.4495
             225     251.322E-09     145.613E-03     68.0316E-03     67.8205E-03    -189.987E-03     67.9131E-03    -189.975E-03     67.9272E-03    -3.44379E-03     116.882E-03    -58.0048E-03    -58.8774E-03    -58.5296E-03     116.534E-03    -58.0048E-03     15.5522E-03    -233.710E+06    -348.869E+06    -351.355E+06    -346.286E+06    -236.293E+06    -351.355E+06     4.04635E+06         34.9142
             226     318.836E-09     144.473E-03     77.4847E-03     76.5652E-03    -216.635E-03     77.4780E-03    -216.628E-03     76.5652E-03    -2.75055E-03     153.456E-03    -76.4676E-03    -76.9881E-03    -76.6617E-03     153.158E-03    -76.4961E-03     16.4379E-03    -180.011E+06    -205.738E+06    -228.418E+06    -205.478E+06    -201.271E+06    -207.417E+06     14.9563E+06         35.9650
             227    -547.123E-09     143.285E-03     86.0280E-03     84.9327E-03    -242.123E-03     86.0248E-03    -242.120E-03     84.9327E-03    -2.01106E-03     193.663E-03    -96.7665E-03    -96.8964E-03    -96.6631E-03     193.458E-03    -96.7950E-03     15.1115E-03    -119.622E+06    -121.069E+06    -169.077E+06    -122.930E+06    -165.769E+06    -121.069E+06     4.70173E+06         37.4836
             228     619.435E-09     142.046E-03     94.1961E-03     91.7876E-03    -265.789E-03     94.1943E-03    -265.787E-03     91.7876E-03    -1.61427E-03     229.851E-03    -114.212E-03    -115.640E-03    -115.507E-03     229.719E-03    -114.212E-03     13.4952E-03    -96.3676E+06    -97.4723E+06    -165.327E+06    -97.1729E+06    -164.999E+06    -96.9951E+06    -4.03213E+06         39.3001
             229     1.62922E-06     140.765E-03     102.089E-03     96.7607E-03    -287.331E-03     102.088E-03    -287.329E-03     96.7607E-03    -1.29864E-03     258.256E-03    -127.979E-03    -130.277E-03    -129.200E-03     258.150E-03    -128.950E-03     12.7596E-03    -90.1024E+06    -90.7840E+06    -182.419E+06    -90.9756E+06    -182.228E+06    -90.1024E+06    -4.01509E+06         41.2195
             230    -3.40382E-06     139.458E-03     109.215E-03     99.9217E-03    -306.230E-03     109.214E-03    -306.230E-03     99.9217E-03    -336.398E-06     280.944E-03    -139.808E-03    -141.135E-03    -140.100E-03     280.880E-03    -140.779E-03     10.0776E-03    -92.0337E+06    -93.7251E+06    -202.764E+06    -92.4427E+06    -202.559E+06    -93.5207E+06    -4.51287E+06         43.0622
             231     3.97713E-06     138.121E-03     116.492E-03     100.496E-03    -322.649E-03     116.492E-03    -322.649E-03     100.496E-03    -224.636E-06     300.457E-03    -149.271E-03    -151.186E-03    -151.146E-03     300.417E-03    -149.271E-03     8.52099E-03    -97.9311E+06    -100.500E+06    -222.834E+06    -98.0485E+06    -222.717E+06    -100.500E+06    -3.81964E+06         44.6969
             232    -1.35239E-06     136.757E-03     123.384E-03     98.7932E-03    -336.811E-03     123.383E-03    -336.811E-03     98.7932E-03     111.421E-06     313.613E-03    -155.998E-03    -157.614E-03    -157.530E-03     313.585E-03    -156.056E-03     6.83795E-03    -107.407E+06    -109.867E+06    -241.253E+06    -108.912E+06    -241.126E+06    -108.489E+06    -4.09562E+06         46.0471
             233     1.26474E-06     135.386E-03     130.757E-03     94.5429E-03    -348.921E-03     130.757E-03    -348.921E-03     94.5429E-03     580.822E-06     322.001E-03    -160.540E-03    -161.461E-03    -161.390E-03     321.987E-03    -160.597E-03     5.20011E-03    -123.657E+06    -127.384E+06    -260.252E+06    -125.227E+06    -260.059E+06    -126.006E+06    -4.99110E+06         47.0918
             234     172.913E-09     134.002E-03     137.944E-03     88.4779E-03    -359.170E-03     137.944E-03    -359.170E-03     88.4779E-03     187.506E-06     328.733E-03    -163.701E-03    -165.032E-03    -165.021E-03     328.722E-03    -163.701E-03     4.36843E-03    -138.394E+06    -142.390E+06    -280.572E+06    -140.184E+06    -280.428E+06    -140.743E+06    -3.85711E+06         47.8569
             235     640.616E-09     132.608E-03     145.471E-03     80.4611E-03    -367.775E-03     145.471E-03    -367.775E-03     80.4611E-03     408.185E-06     332.530E-03    -165.301E-03    -167.228E-03    -167.224E-03     332.525E-03    -165.301E-03     2.91194E-03    -149.399E+06    -153.517E+06    -299.489E+06    -151.158E+06    -299.376E+06    -151.870E+06    -3.63559E+06         48.3952
             236     1.80790E-06     131.217E-03     153.303E-03     71.2461E-03    -375.355E-03     153.303E-03    -375.355E-03     71.2461E-03     128.907E-06     335.780E-03    -166.541E-03    -169.239E-03    -169.236E-03     335.777E-03    -166.541E-03     2.35957E-03    -164.784E+06    -168.339E+06    -316.115E+06    -165.971E+06    -316.011E+06    -167.256E+06    -2.57741E+06         48.7659
             237     304.199E-09     129.816E-03     160.671E-03     62.0495E-03    -382.871E-03     160.670E-03    -382.871E-03     62.0495E-03    -425.255E-06     338.888E-03    -168.741E-03    -170.147E-03    -170.146E-03     338.887E-03    -168.741E-03     1.10990E-03    -173.318E+06    -174.523E+06    -328.829E+06    -174.512E+06    -328.718E+06    -173.440E+06    -2.75686E+06         49.0229
             238    -12.2737E-09     128.411E-03     168.156E-03     52.5985E-03    -390.198E-03     168.156E-03    -390.198E-03     52.5985E-03    -909.232E-06     340.696E-03    -170.151E-03    -170.546E-03    -170.544E-03     340.695E-03    -170.151E-03     1.29852E-03    -182.339E+06    -184.387E+06    -344.979E+06    -184.382E+06    -344.862E+06    -182.460E+06    -3.67614E+06         49.2073
             239     422.695E-09     127.006E-03     174.967E-03     44.2307E-03    -397.552E-03     174.966E-03    -397.551E-03     44.2307E-03    -1.29709E-03     342.581E-03    -171.045E-03    -171.536E-03    -171.535E-03     342.580E-03    -171.045E-03     1.44246E-03    -185.526E+06    -193.594E+06    -356.276E+06    -187.460E+06    -356.269E+06    -191.667E+06    -353.399E+03         49.3465
             240    -38.5018E-09     125.598E-03     181.311E-03     38.1446E-03    -406.579E-03     181.310E-03    -406.578E-03     38.1446E-03    -1.54549E-03     343.880E-03    -171.576E-03    -172.304E-03    -172.304E-03     343.880E-03    -171.576E-03     110.250E-06    -174.078E+06    -187.084E+06    -358.804E+06    -180.970E+06    -358.778E+06    -180.220E+06    -1.15401E+06         49.4571
             241     903.972E-09     124.189E-03     186.711E-03     34.3866E-03    -416.936E-03     186.710E-03    -416.935E-03     34.3866E-03    -1.56162E-03     344.644E-03    -171.622E-03    -173.022E-03    -173.022E-03     344.644E-03    -171.622E-03    -230.209E-06    -171.918E+06    -185.334E+06    -368.448E+06    -178.825E+06    -368.406E+06    -178.469E+06    -2.79020E+06         49.5481
             242     603.779E-09     122.779E-03     190.536E-03     33.5266E-03    -428.376E-03     190.535E-03    -428.375E-03     33.5266E-03    -1.45548E-03     346.669E-03    -172.746E-03    -173.923E-03    -173.681E-03     346.668E-03    -172.987E-03     734.727E-06    -169.529E+06    -180.360E+06    -373.214E+06    -173.877E+06    -373.147E+06    -176.080E+06     965.368E+03         49.6242
             243    -949.013E-09     121.363E-03     193.054E-03     36.5653E-03    -442.336E-03     193.053E-03    -442.336E-03     36.5653E-03    -910.405E-06     347.647E-03    -173.697E-03    -173.949E-03    -173.706E-03     347.645E-03    -173.939E-03    -522.328E-06    -165.934E+06    -170.530E+06    -370.942E+06    -170.329E+06    -370.828E+06    -166.250E+06    -283.734E+03         49.6886
             244     966.860E-09     119.949E-03     194.155E-03     43.0717E-03    -457.897E-03     194.155E-03    -457.897E-03     43.0717E-03    -328.606E-06     346.587E-03    -172.838E-03    -173.750E-03    -173.747E-03     346.585E-03    -172.838E-03    -509.366E-06    -162.558E+06    -166.404E+06    -371.007E+06    -162.659E+06    -370.906E+06    -166.404E+06    -527.994E+03         49.7433
             245     517.826E-09     118.538E-03     194.041E-03     53.0903E-03    -475.292E-03     194.041E-03    -475.292E-03     53.0903E-03     9.10471E-06     347.665E-03    -173.077E-03    -174.588E-03    -174.587E-03     347.665E-03    -173.077E-03     666.555E-06    -157.682E+06    -164.740E+06    -368.986E+06    -161.248E+06    -368.948E+06    -161.212E+06     2.22534E+06         49.7903
             246     553.263E-09     117.122E-03     193.170E-03     66.8982E-03    -495.839E-03     193.169E-03    -495.839E-03     66.8982E-03     991.707E-06     349.705E-03    -174.223E-03    -175.482E-03    -175.482E-03     349.705E-03    -174.223E-03    -278.291E-06    -157.500E+06    -163.201E+06    -365.384E+06    -161.029E+06    -365.383E+06    -159.672E+06     8.13762E+03         49.8314
             247     520.968E-09     115.702E-03     191.102E-03     83.5372E-03    -517.876E-03     191.102E-03    -517.875E-03     83.5372E-03     1.37504E-03     349.520E-03    -174.250E-03    -175.270E-03    -175.270E-03     349.520E-03    -174.250E-03    -587.292E-06    -151.198E+06    -156.129E+06    -361.207E+06    -153.968E+06    -361.195E+06    -153.370E+06     859.372E+03         49.8683
             248     138.195E-09     114.289E-03     188.569E-03     102.508E-03    -541.431E-03     188.568E-03    -541.430E-03     102.508E-03     1.66592E-03     348.138E-03    -173.845E-03    -174.293E-03    -174.215E-03     348.137E-03    -173.922E-03    -1.04049E-03    -146.406E+06    -153.800E+06    -357.042E+06    -149.176E+06    -357.030E+06    -151.041E+06     768.694E+03         49.9014
             249    -315.951E-09     112.874E-03     186.364E-03     123.518E-03    -567.120E-03     186.362E-03    -567.118E-03     123.518E-03     2.75181E-03     348.332E-03    -174.032E-03    -174.300E-03    -174.223E-03     348.331E-03    -174.108E-03    -210.857E-06    -147.713E+06    -158.498E+06    -355.350E+06    -153.866E+06    -355.347E+06    -152.348E+06     158.386E+03         49.9306
             250     717.526E-09     111.457E-03     185.433E-03     145.170E-03    -594.482E-03     185.430E-03    -594.479E-03     145.170E-03     2.97453E-03     349.884E-03    -174.075E-03    -175.809E-03    -175.808E-03     349.883E-03    -174.075E-03    -675.596E-06    -143.709E+06    -156.696E+06    -351.943E+06    -149.866E+06    -351.936E+06    -150.546E+06     1.20098E+06         49.9557
             251     1.79435E-06     110.040E-03     185.553E-03     166.946E-03    -622.843E-03     185.552E-03    -622.841E-03     166.946E-03     2.45846E-03     349.880E-03    -173.665E-03    -176.215E-03    -176.214E-03     349.878E-03    -173.665E-03    -1.06765E-03    -140.089E+06    -151.815E+06    -348.024E+06    -144.983E+06    -348.019E+06    -146.927E+06     518.864E+03         49.9767
             252    -37.4801E-09     108.623E-03     191.996E-03     183.231E-03    -651.824E-03     186.969E-03    -651.822E-03     188.256E-03     2.51561E-03     349.649E-03    -174.186E-03    -175.463E-03    -175.463E-03     349.649E-03    -174.186E-03     111.586E-06    -142.366E+06    -152.050E+06    -349.438E+06    -147.257E+06    -349.435E+06    -147.161E+06    -652.978E+03         49.9943
             253     442.949E-09     107.203E-03     207.948E-03     190.565E-03    -681.376E-03     190.564E-03    -681.375E-03     207.948E-03     1.72573E-03     349.903E-03    -174.377E-03    -175.526E-03    -175.526E-03     349.902E-03    -174.377E-03    -409.027E-06    -141.602E+06    -151.015E+06    -346.978E+06    -146.251E+06    -346.946E+06    -146.397E+06     1.26348E+06         50.0098
             254     1.09344E-06     105.788E-03     225.553E-03     195.953E-03    -710.518E-03     195.953E-03    -710.518E-03     225.553E-03     87.3323E-06     349.351E-03    -173.529E-03    -175.822E-03    -175.821E-03     349.351E-03    -173.529E-03    -887.130E-06    -141.090E+06    -149.974E+06    -341.356E+06    -145.750E+06    -341.313E+06    -145.356E+06     551.795E+03         50.0247
             255     1.23723E-06     104.370E-03     240.805E-03     202.950E-03    -738.505E-03     202.948E-03    -738.503E-03     240.805E-03    -2.22534E-03     349.551E-03    -174.040E-03    -175.511E-03    -175.452E-03     349.550E-03    -174.098E-03     376.933E-06    -145.310E+06    -152.202E+06    -342.262E+06    -147.950E+06    -342.248E+06    -149.576E+06    -851.194E+03         50.0398
             256    -1.29458E-06     102.954E-03     252.986E-03     211.860E-03    -765.505E-03     211.855E-03    -765.499E-03     252.986E-03    -4.57970E-03     350.507E-03    -175.073E-03    -175.434E-03    -175.374E-03     350.505E-03    -175.131E-03    -491.639E-06    -145.266E+06    -150.612E+06    -340.940E+06    -147.894E+06    -340.938E+06    -147.987E+06     704.827E+03         50.0557
             257     1.77216E-06     101.534E-03     262.657E-03     222.238E-03    -791.328E-03     222.220E-03    -791.310E-03     262.657E-03    -8.15215E-03     349.736E-03    -174.470E-03    -175.266E-03    -174.771E-03     349.735E-03    -174.964E-03    -795.517E-06    -142.856E+06    -148.511E+06    -336.659E+06    -145.792E+06    -336.657E+06    -145.578E+06     390.131E+03         50.0725
             258    -2.56049E-06     100.119E-03     269.450E-03     233.135E-03    -814.911E-03     233.103E-03    -814.879E-03     269.450E-03    -11.5666E-03     348.631E-03    -173.625E-03    -175.006E-03    -174.511E-03     348.629E-03    -174.118E-03    -864.813E-06    -148.046E+06    -151.958E+06    -336.610E+06    -150.980E+06    -336.609E+06    -149.024E+06     269.630E+03         50.0902
             259     4.03988E-06     98.7036E-03     272.953E-03     244.860E-03    -835.847E-03     244.798E-03    -835.785E-03     272.953E-03    -15.9494E-03     349.644E-03    -173.399E-03    -176.246E-03    -176.243E-03     349.642E-03    -173.399E-03    -380.442E-06    -150.482E+06    -152.558E+06    -334.953E+06    -150.495E+06    -334.940E+06    -152.558E+06     1.35961E+06         50.1081
             260    -753.435E-09     97.2838E-03     275.327E-03     255.895E-03    -854.684E-03     255.803E-03    -854.592E-03     275.327E-03    -20.1709E-03     350.394E-03    -174.207E-03    -176.187E-03    -176.164E-03     350.392E-03    -174.228E-03    -205.653E-06    -146.277E+06    -148.557E+06    -330.427E+06    -147.478E+06    -330.409E+06    -147.375E+06     318.915E+03         50.1259
             261     732.680E-09     95.8670E-03     275.822E-03     266.303E-03    -871.247E-03     266.183E-03    -871.127E-03     275.822E-03    -23.2647E-03     349.744E-03    -174.563E-03    -175.181E-03    -175.158E-03     349.743E-03    -174.584E-03    -918.078E-06    -144.930E+06    -148.190E+06    -330.009E+06    -146.119E+06    -330.003E+06    -147.008E+06    -793.087E+03         50.1429
             262     254.290E-09     94.4484E-03     277.531E-03     272.876E-03    -884.921E-03     275.605E-03    -884.764E-03     274.646E-03    -26.9124E-03     349.816E-03    -174.507E-03    -175.309E-03    -175.309E-03     349.816E-03    -174.507E-03    -66.3350E-06    -149.095E+06    -154.424E+06    -333.613E+06    -152.348E+06    -333.612E+06    -151.172E+06     283.842E+03         50.1591
             263     134.831E-09     93.0324E-03     282.369E-03     273.191E-03    -895.555E-03     282.180E-03    -895.366E-03     273.191E-03    -29.7990E-03     349.835E-03    -174.603E-03    -175.232E-03    -174.809E-03     349.835E-03    -175.026E-03    -472.411E-06    -147.404E+06    -154.541E+06    -331.262E+06    -150.658E+06    -331.260E+06    -151.289E+06     583.793E+03         50.1745
             264    -881.685E-09     91.6128E-03     286.842E-03     271.314E-03    -903.804E-03     286.623E-03    -903.586E-03     271.314E-03    -32.2679E-03     349.178E-03    -173.978E-03    -175.199E-03    -174.776E-03     349.177E-03    -174.401E-03    -1.16120E-03    -145.513E+06    -154.556E+06    -329.388E+06    -150.673E+06    -329.386E+06    -149.398E+06    -90.5143E+03         50.1895
             265     2.28340E-06     90.2005E-03     288.924E-03     269.361E-03    -909.369E-03     288.673E-03    -909.118E-03     269.361E-03    -34.6795E-03     349.149E-03    -173.559E-03    -175.590E-03    -175.589E-03     349.148E-03    -173.559E-03    -1.15726E-03    -143.544E+06    -156.096E+06    -329.154E+06    -148.707E+06    -329.148E+06    -150.938E+06     250.164E+03         50.2046
             266    -289.662E-09     88.7806E-03     287.146E-03     268.261E-03    -911.892E-03     286.872E-03    -911.618E-03     268.261E-03    -36.2592E-03     349.731E-03    -174.188E-03    -175.544E-03    -175.543E-03     349.731E-03    -174.188E-03     120.825E-06    -142.022E+06    -157.755E+06    -328.646E+06    -150.384E+06    -328.622E+06    -149.416E+06    -693.183E+03         50.2199
             267     600.678E-09     87.3620E-03     283.608E-03     267.611E-03    -913.131E-03     283.336E-03    -912.859E-03     267.611E-03    -36.0987E-03     350.361E-03    -174.524E-03    -175.837E-03    -175.837E-03     350.361E-03    -174.524E-03    -176.318E-06    -140.252E+06    -157.921E+06    -330.166E+06    -148.617E+06    -330.140E+06    -149.583E+06    -509.056E+03         50.2353
             268     1.29593E-06     85.9460E-03     277.854E-03     268.062E-03    -913.099E-03     277.599E-03    -912.844E-03     268.062E-03    -34.7894E-03     350.074E-03    -174.148E-03    -175.926E-03    -175.926E-03     350.073E-03    -174.148E-03    -886.855E-06    -137.822E+06    -155.129E+06    -327.996E+06    -145.811E+06    -327.983E+06    -147.152E+06     1.49526E+06         50.2508
             269    -209.581E-09     84.5270E-03     272.292E-03     266.738E-03    -911.413E-03     268.867E-03    -911.191E-03     269.941E-03    -32.3680E-03     349.145E-03    -173.887E-03    -175.258E-03    -174.475E-03     349.144E-03    -174.669E-03     170.722E-06    -141.334E+06    -154.984E+06    -327.273E+06    -149.341E+06    -327.241E+06    -147.008E+06    -817.065E+03         50.2660
             270    -1.16100E-06     83.1095E-03     271.808E-03     259.510E-03    -908.802E-03     259.334E-03    -908.626E-03     271.808E-03    -28.5819E-03     349.307E-03    -174.167E-03    -175.140E-03    -174.167E-03     349.307E-03    -175.140E-03     109.543E-06    -143.816E+06    -154.572E+06    -328.817E+06    -148.953E+06    -328.762E+06    -149.490E+06     67.2827E+03         50.2812
             271     904.841E-09     81.6964E-03     274.528E-03     249.145E-03    -906.041E-03     249.023E-03    -905.919E-03     274.528E-03    -23.6744E-03     350.363E-03    -174.307E-03    -176.055E-03    -175.864E-03     350.362E-03    -174.498E-03    -1.45612E-03    -145.379E+06    -155.040E+06    -329.252E+06    -150.508E+06    -329.205E+06    -149.959E+06     329.398E+03         50.2965
             272     1.66077E-06     80.2750E-03     277.729E-03     238.767E-03    -903.697E-03     238.687E-03    -903.617E-03     277.729E-03    -18.9598E-03     350.316E-03    -173.719E-03    -176.597E-03    -176.596E-03     350.315E-03    -173.719E-03    -907.001E-06    -147.511E+06    -155.159E+06    -329.043E+06    -150.607E+06    -329.017E+06    -152.090E+06     -391.84E+03         50.3123
             273     600.222E-09     78.8553E-03     280.304E-03     229.344E-03    -901.624E-03     229.305E-03    -901.584E-03     280.304E-03    -12.9534E-03     349.482E-03    -173.634E-03    -175.847E-03    -175.847E-03     349.482E-03    -173.634E-03    -295.030E-06    -147.306E+06    -153.358E+06    -328.940E+06    -150.388E+06    -328.927E+06    -150.288E+06     296.726E+03         50.3285
             274     14.2895E-03     77.3725E-03     273.422E-03     260.099E-03    -932.135E-03     273.422E-03    -932.135E-03     260.099E-03     53.7093E-06     365.797E-03    -174.880E-03    -190.917E-03    -178.109E-03     352.989E-03    -174.880E-03     160.779E-03     124.726E+06     89.9656E+06    -8.36911E+06    -8.36863E+06     89.9651E+06     124.726E+06    -40.9593E+03         72.7193
             275     13.4478E-03     77.0856E-03     271.912E-03     259.238E-03    -930.181E-03     271.912E-03    -930.181E-03     259.238E-03    -967.118E-06     365.675E-03    -174.802E-03    -190.873E-03    -177.571E-03     352.372E-03    -174.802E-03     165.207E-03     97.1987E+06     70.8665E+06    -15.8007E+06    -15.7991E+06     70.8649E+06     97.1987E+06    -89.2478E+03         70.7018
             276     12.6056E-03     76.9228E-03     270.254E-03     258.369E-03    -928.009E-03     270.254E-03    -928.009E-03     258.369E-03    -208.484E-06     357.477E-03    -174.741E-03    -182.736E-03    -174.973E-03     349.714E-03    -174.741E-03     128.405E-03     77.6801E+06     51.0827E+06    -22.3661E+06    -22.3614E+06     51.0780E+06     77.6801E+06    -413.370E+03         68.3941
             277     11.7672E-03     76.7464E-03     268.481E-03     257.505E-03    -925.625E-03     268.481E-03    -925.625E-03     257.505E-03     347.699E-06     356.072E-03    -174.714E-03    -181.359E-03    -174.197E-03     348.911E-03    -174.714E-03     122.651E-03     68.4709E+06     37.7661E+06    -29.2835E+06    -29.2793E+06     37.7618E+06     68.4709E+06    -433.030E+03         65.9189
             278     10.9272E-03     76.5996E-03     266.652E-03     256.650E-03    -923.162E-03     266.651E-03    -923.161E-03     256.650E-03     1.26219E-03     352.910E-03    -174.714E-03    -178.196E-03    -172.810E-03     347.524E-03    -174.714E-03     106.354E-03     60.3655E+06     29.6794E+06    -36.6973E+06    -36.6937E+06     29.6757E+06     60.3655E+06    -406.318E+03         63.4200
             279     10.0833E-03     76.4727E-03     264.738E-03     255.818E-03    -920.602E-03     264.737E-03    -920.601E-03     255.818E-03     1.95907E-03     351.632E-03    -174.732E-03    -176.900E-03    -172.398E-03     347.130E-03    -174.732E-03     96.9371E-03     51.2694E+06     24.7999E+06    -44.2427E+06    -44.2394E+06     24.7966E+06     51.2694E+06    -443.473E+03         61.0352
             280     9.24226E-03     76.3560E-03     262.840E-03     255.020E-03    -918.077E-03     262.839E-03    -918.077E-03     255.020E-03     1.41992E-03     350.378E-03    -174.654E-03    -175.724E-03    -172.116E-03     346.883E-03    -174.767E-03     85.2698E-03     43.0755E+06     19.8731E+06    -52.5832E+06    -52.5762E+06     19.8661E+06     43.0755E+06    -101.753E+03         58.8707
             281     8.40179E-03     76.2591E-03     260.979E-03     254.263E-03    -915.617E-03     260.978E-03    -915.617E-03     254.263E-03     1.50152E-03     349.459E-03    -174.418E-03    -175.041E-03    -172.053E-03     346.871E-03    -174.818E-03     73.2072E-03     35.8102E+06     13.5527E+06    -61.7159E+06    -61.7093E+06     13.5460E+06     35.8102E+06     122.063E+03         56.9891
             282     7.56161E-03     76.1801E-03     259.132E-03     253.560E-03    -913.192E-03     259.132E-03    -913.191E-03     253.560E-03     308.293E-06     348.727E-03    -173.847E-03    -174.880E-03    -172.067E-03     346.948E-03    -174.880E-03     60.5661E-03     26.0712E+06    -3.14804E+06    -71.3151E+06    -71.3129E+06    -3.15032E+06     26.0712E+06     268.842E+03         55.4109
             283     6.71909E-03     76.1165E-03     257.397E-03     252.924E-03    -910.912E-03     257.397E-03    -910.912E-03     252.924E-03     287.871E-06     348.467E-03    -173.521E-03    -174.947E-03    -172.422E-03     347.368E-03    -174.947E-03     47.3293E-03     8.45063E+06    -45.6086E+06    -82.1417E+06    -82.1156E+06    -45.6346E+06     8.45063E+06     284.385E+03         54.1234
             284     5.87923E-03     76.0728E-03     255.841E-03     252.359E-03    -908.854E-03     255.841E-03    -908.853E-03     252.359E-03     316.936E-06     348.797E-03    -173.827E-03    -174.969E-03    -173.224E-03     348.194E-03    -174.969E-03     35.0618E-03    -14.8342E+06    -87.1640E+06    -106.651E+06    -93.8607E+06    -99.9543E+06    -14.8342E+06     198.262E+03         53.0943
             285     5.04128E-03     76.0424E-03     254.481E-03     251.866E-03    -907.026E-03     254.481E-03    -907.026E-03     251.866E-03    -970.280E-06     348.810E-03    -173.863E-03    -174.947E-03    -173.552E-03     348.499E-03    -174.947E-03     25.0213E-03    -38.8717E+06    -105.304E+06    -146.999E+06    -105.311E+06    -146.992E+06    -38.8717E+06     61.7421E+03         52.2836
             286     4.19888E-03     76.0255E-03     253.304E-03     251.446E-03    -905.438E-03     253.302E-03    -905.436E-03     251.446E-03     1.50834E-03     348.629E-03    -173.679E-03    -174.950E-03    -173.545E-03     348.495E-03    -174.950E-03     16.2025E-03    -63.9090E+06    -116.226E+06    -189.196E+06    -116.237E+06    -189.185E+06    -63.9090E+06    -304.249E+03         51.6527
             287     3.35976E-03     76.0164E-03     252.344E-03     251.096E-03    -904.119E-03     252.342E-03    -904.117E-03     251.096E-03     2.07522E-03     348.928E-03    -173.918E-03    -175.010E-03    -173.875E-03     348.885E-03    -175.010E-03     8.94728E-03    -87.8999E+06    -125.838E+06    -230.607E+06    -125.845E+06    -230.601E+06    -87.8999E+06    -418.158E+03         51.1698
             288     2.51896E-03     76.0173E-03     251.494E-03     250.827E-03    -902.980E-03     251.492E-03    -902.978E-03     250.827E-03     2.14960E-03     349.574E-03    -174.515E-03    -175.059E-03    -174.505E-03     349.564E-03    -175.059E-03     4.15818E-03    -109.563E+06    -134.472E+06    -268.512E+06    -134.474E+06    -268.510E+06    -109.563E+06    -173.599E+03         50.8118
             289     1.67887E-03     76.0177E-03     250.966E-03     250.623E-03    -902.241E-03     250.944E-03    -902.239E-03     250.642E-03     2.38493E-03     349.941E-03    -174.905E-03    -175.036E-03    -174.916E-03     349.939E-03    -175.023E-03     1.59970E-03    -129.006E+06    -142.111E+06    -297.085E+06    -142.112E+06    -297.084E+06    -129.006E+06    -98.6312E+03         50.5631
             290     839.765E-06     76.0221E-03     267.797E-03     233.329E-03    -901.711E-03     233.484E-03    -901.709E-03     267.640E-03     107.016E-06     349.887E-03    -174.720E-03    -175.167E-03    -175.150E-03     349.886E-03    -174.736E-03    -31.6157E-06    -141.010E+06    -147.069E+06    -316.149E+06    -145.938E+06    -316.136E+06    -142.153E+06     166.299E+03         50.4128
             291     14.2882E-03     75.9553E-03     276.127E-03     259.951E-03    -938.982E-03     276.127E-03    -938.982E-03     259.951E-03     137.703E-06     365.769E-03    -174.876E-03    -190.893E-03    -178.129E-03     353.005E-03    -174.876E-03     160.525E-03     125.370E+06     90.4665E+06    -7.86420E+06    -7.86123E+06     90.4636E+06     125.370E+06     295.310E+03         72.6769
             292     13.4475E-03     75.6671E-03     274.260E-03     259.012E-03    -936.620E-03     274.260E-03    -936.619E-03     259.012E-03    -833.242E-06     365.744E-03    -174.789E-03    -190.955E-03    -177.705E-03     352.494E-03    -174.789E-03     164.904E-03     97.5250E+06     71.3834E+06    -15.3182E+06    -15.3148E+06     71.3800E+06     97.5250E+06     208.292E+03         70.6697
             293     12.6076E-03     75.5063E-03     272.179E-03     258.070E-03    -933.913E-03     272.179E-03    -933.913E-03     258.070E-03    -87.4526E-06     357.231E-03    -174.731E-03    -182.500E-03    -174.687E-03     349.418E-03    -174.731E-03     128.706E-03     77.1029E+06     50.8726E+06    -22.3355E+06    -22.3320E+06     50.8691E+06     77.1029E+06    -313.610E+03         68.3763
             294     11.7664E-03     75.3245E-03     270.035E-03     257.138E-03    -931.046E-03     270.035E-03    -931.046E-03     257.138E-03     266.549E-06     355.791E-03    -174.731E-03    -181.060E-03    -173.813E-03     348.544E-03    -174.731E-03     123.259E-03     68.3592E+06     37.7559E+06    -28.7567E+06    -28.7513E+06     37.7505E+06     68.3592E+06    -483.327E+03         65.9163
             295     10.9234E-03     75.1880E-03     267.843E-03     256.225E-03    -928.125E-03     267.842E-03    -928.124E-03     256.225E-03     1.18198E-03     353.001E-03    -174.756E-03    -178.244E-03    -172.733E-03     347.490E-03    -174.756E-03     107.616E-03     60.6590E+06     29.9121E+06    -36.1554E+06    -36.1510E+06     29.9076E+06     60.6590E+06    -169.985E+03         63.4314
             296     10.0841E-03     75.0515E-03     265.598E-03     255.343E-03    -925.158E-03     265.597E-03    -925.157E-03     255.343E-03     1.86571E-03     352.112E-03    -174.767E-03    -177.345E-03    -172.769E-03     347.536E-03    -174.767E-03     97.7421E-03     50.9322E+06     24.8271E+06    -44.2314E+06    -44.2288E+06     24.8244E+06     50.9322E+06    -127.706E+03         61.0581
             297     9.24414E-03     74.9417E-03     263.439E-03     254.500E-03    -922.301E-03     263.439E-03    -922.301E-03     254.500E-03     1.22388E-03     350.711E-03    -174.659E-03    -176.052E-03    -172.481E-03     347.254E-03    -174.772E-03     84.8965E-03     42.6336E+06     19.6818E+06    -52.6237E+06    -52.6205E+06     19.6787E+06     42.6336E+06    -351.853E+03         58.9014
             298     8.40139E-03     74.8415E-03     261.364E-03     253.701E-03    -919.561E-03     261.363E-03    -919.560E-03     253.701E-03     1.32934E-03     349.402E-03    -174.334E-03    -175.068E-03    -172.035E-03     346.843E-03    -174.807E-03     72.7582E-03     35.7051E+06     13.1746E+06    -62.0186E+06    -62.0157E+06     13.1717E+06     35.7051E+06    -284.843E+03         57.0230
             299     7.56046E-03     74.7620E-03     259.346E-03     252.953E-03    -916.890E-03     259.346E-03    -916.890E-03     252.953E-03     234.785E-06     348.802E-03    -173.943E-03    -174.859E-03    -172.207E-03     347.066E-03    -174.859E-03     59.8208E-03     25.8840E+06    -2.83255E+06    -72.0351E+06    -72.0308E+06    -2.83687E+06     25.8840E+06    -71.0070E+03         55.4442
             300     6.72141E-03     74.7002E-03     257.462E-03     252.264E-03    -914.400E-03     257.461E-03    -914.400E-03     252.264E-03     155.078E-06     348.448E-03    -173.539E-03    -174.909E-03    -172.457E-03     347.366E-03    -174.909E-03     47.0173E-03     7.77823E+06    -45.9295E+06    -82.9077E+06    -82.8932E+06    -45.9439E+06     7.77823E+06    -247.280E+03         54.1541
             301     5.88048E-03     74.6539E-03     255.734E-03     251.639E-03    -912.098E-03     255.733E-03    -912.098E-03     251.639E-03     268.053E-06     348.337E-03    -173.375E-03    -174.963E-03    -172.771E-03     347.733E-03    -174.963E-03     35.0523E-03    -14.7748E+06    -87.9111E+06    -106.457E+06    -93.9738E+06    -100.394E+06    -14.7748E+06    -7.89276E+03         53.1213
             302     5.03824E-03     74.6254E-03     254.131E-03     251.087E-03    -909.964E-03     254.131E-03    -909.964E-03     251.087E-03    -1.14083E-03     348.658E-03    -173.666E-03    -174.992E-03    -173.357E-03     348.350E-03    -174.992E-03     24.9432E-03    -38.4504E+06    -105.045E+06    -146.311E+06    -105.056E+06    -146.300E+06    -38.4504E+06     208.935E+03         52.3069
             303     4.20025E-03     74.6073E-03     252.701E-03     250.621E-03    -908.084E-03     252.698E-03    -908.082E-03     250.621E-03     1.38562E-03     348.852E-03    -173.848E-03    -175.004E-03    -173.717E-03     348.721E-03    -175.004E-03     15.9407E-03    -63.2946E+06    -115.737E+06    -188.788E+06    -115.747E+06    -188.778E+06    -63.2946E+06    -271.952E+03         51.6731
             304     3.35849E-03     74.6007E-03     251.558E-03     250.247E-03    -906.538E-03     251.556E-03    -906.535E-03     250.247E-03     1.80327E-03     349.089E-03    -174.051E-03    -175.038E-03    -174.010E-03     349.047E-03    -175.038E-03     8.89931E-03    -87.8535E+06    -126.218E+06    -231.071E+06    -126.223E+06    -231.066E+06    -87.8535E+06    -188.659E+03         51.1881
             305     2.51907E-03     74.5978E-03     250.674E-03     249.966E-03    -905.325E-03     250.671E-03    -905.321E-03     249.966E-03     2.38896E-03     349.644E-03    -174.591E-03    -175.053E-03    -174.581E-03     349.635E-03    -175.053E-03     3.99167E-03    -110.814E+06    -135.634E+06    -268.328E+06    -135.634E+06    -268.328E+06    -110.814E+06    -56.4614E+03         50.8288
             306     1.67986E-03     74.6010E-03     250.188E-03     249.737E-03    -904.580E-03     250.184E-03    -904.576E-03     249.737E-03     1.75962E-03     349.870E-03    -174.833E-03    -175.037E-03    -174.846E-03     349.869E-03    -175.023E-03     1.04883E-03    -129.910E+06    -142.611E+06    -296.829E+06    -142.617E+06    -296.823E+06    -129.910E+06    -668.752E+03         50.5793
             307     839.796E-06     74.6024E-03     267.588E-03     231.652E-03    -903.867E-03     231.885E-03    -903.860E-03     267.348E-03     2.36265E-03     349.927E-03    -174.615E-03    -175.312E-03    -175.201E-03     349.927E-03    -174.726E-03    -101.612E-06    -142.673E+06    -148.275E+06    -317.505E+06    -147.141E+06    -317.495E+06    -143.817E+06    -1.17236E+06         50.4285
             308     14.2897E-03     74.5387E-03     278.629E-03     260.360E-03    -946.073E-03     278.629E-03    -946.073E-03     260.360E-03     222.133E-06     366.063E-03    -174.852E-03    -191.211E-03    -178.494E-03     353.346E-03    -174.852E-03     160.245E-03     125.440E+06     90.3535E+06    -7.79468E+06    -7.79172E+06     90.3505E+06     125.440E+06     364.560E+03         72.6358
             309     13.4486E-03     74.2487E-03     276.448E-03     259.401E-03    -943.270E-03     276.447E-03    -943.270E-03     259.401E-03    -785.523E-06     365.437E-03    -174.757E-03    -190.680E-03    -177.492E-03     352.249E-03    -174.757E-03     164.379E-03     97.5745E+06     71.8410E+06    -15.0948E+06    -15.0916E+06     71.8377E+06     97.5745E+06     147.174E+03         70.6388
             310     12.6068E-03     74.0890E-03     274.199E-03     258.442E-03    -940.319E-03     274.199E-03    -940.319E-03     258.442E-03    -166.747E-06     356.303E-03    -174.738E-03    -181.564E-03    -173.698E-03     348.437E-03    -174.738E-03     128.843E-03     77.1994E+06     51.4141E+06    -22.0202E+06    -22.0182E+06     51.4121E+06     77.1994E+06    -106.143E+03         68.3583
             311     11.7644E-03     73.9093E-03     271.792E-03     257.491E-03    -937.142E-03     271.792E-03    -937.142E-03     257.491E-03     157.944E-06     355.595E-03    -174.785E-03    -180.810E-03    -173.536E-03     348.321E-03    -174.785E-03     123.280E-03     67.7959E+06     37.5319E+06    -29.5269E+06    -29.5225E+06     37.5275E+06     67.7959E+06    -272.455E+03         65.9125
             312     10.9250E-03     73.7691E-03     269.343E-03     256.566E-03    -933.924E-03     269.343E-03    -933.924E-03     256.566E-03     1.06387E-03     353.354E-03    -174.807E-03    -178.547E-03    -173.174E-03     347.981E-03    -174.807E-03     106.344E-03     60.6463E+06     29.9477E+06    -36.7987E+06    -36.7940E+06     29.9431E+06     60.6463E+06    -257.658E+03         63.4425
             313     10.0826E-03     73.6353E-03     266.971E-03     255.673E-03    -930.791E-03     266.971E-03    -930.790E-03     255.673E-03     1.73010E-03     352.047E-03    -174.807E-03    -177.240E-03    -172.671E-03     347.477E-03    -174.807E-03     97.7483E-03     51.2184E+06     24.7496E+06    -44.5813E+06    -44.5773E+06     24.7456E+06     51.2184E+06    -214.490E+03         61.0811
             314     9.24154E-03     73.5213E-03     264.605E-03     254.818E-03    -927.696E-03     264.604E-03    -927.695E-03     254.818E-03     1.08103E-03     351.093E-03    -174.804E-03    -176.289E-03    -172.784E-03     347.587E-03    -174.804E-03     85.4824E-03     42.6086E+06     19.6114E+06    -52.7112E+06    -52.7089E+06     19.6091E+06     42.6086E+06    -285.735E+03         58.9315
             315     8.40348E-03     73.4259E-03     262.315E-03     254.010E-03    -924.699E-03     262.315E-03    -924.699E-03     254.010E-03     1.21433E-03     350.038E-03    -174.509E-03    -175.529E-03    -172.667E-03     347.462E-03    -174.795E-03     73.1276E-03     35.9534E+06     13.5160E+06    -61.5483E+06    -61.5477E+06     13.5153E+06     35.9534E+06    -182.213E+03         57.0567
             316     7.56205E-03     73.3446E-03     260.210E-03     253.251E-03    -921.917E-03     260.209E-03    -921.917E-03     253.251E-03     114.451E-06     348.738E-03    -173.823E-03    -174.916E-03    -172.164E-03     346.980E-03    -174.816E-03     60.1402E-03     25.9939E+06    -3.09204E+06    -71.8324E+06    -71.8293E+06    -3.09510E+06     25.9939E+06    -409.463E+03         55.4778
             317     6.72041E-03     73.2817E-03     258.194E-03     252.545E-03    -919.268E-03     258.194E-03    -919.268E-03     252.545E-03    -99.7790E-06     348.233E-03    -173.358E-03    -174.875E-03    -172.262E-03     347.137E-03    -174.875E-03     47.3980E-03     7.34594E+06    -46.4837E+06    -83.0921E+06    -83.0772E+06    -46.4987E+06     7.34594E+06    -184.801E+03         54.1847
             318     5.87961E-03     73.2387E-03     256.283E-03     251.905E-03    -916.759E-03     256.283E-03    -916.758E-03     251.905E-03    -16.2449E-06     348.350E-03    -173.420E-03    -174.931E-03    -172.805E-03     347.735E-03    -174.931E-03     35.2455E-03    -16.0845E+06    -88.5489E+06    -106.704E+06    -94.6301E+06    -100.622E+06    -16.0845E+06     4.32662E+03         53.1483
             319     5.04035E-03     73.2068E-03     254.657E-03     251.332E-03    -914.580E-03     254.657E-03    -914.580E-03     251.332E-03    -1.57883E-03     348.463E-03    -173.493E-03    -174.970E-03    -173.203E-03     348.173E-03    -174.970E-03     24.1198E-03    -38.9335E+06    -105.419E+06    -145.872E+06    -105.436E+06    -145.856E+06    -38.9335E+06    -190.783E+03         52.3303
             320     4.19837E-03     73.1900E-03     253.192E-03     250.830E-03    -912.628E-03     253.189E-03    -912.625E-03     250.830E-03     1.34810E-03     348.812E-03    -173.814E-03    -174.997E-03    -173.694E-03     348.691E-03    -174.997E-03     15.4248E-03    -63.2712E+06    -116.588E+06    -188.578E+06    -116.592E+06    -188.574E+06    -63.2712E+06    -23.3391E+03         51.6934
             321     3.35992E-03     73.1828E-03     251.955E-03     250.405E-03    -910.925E-03     251.952E-03    -910.922E-03     250.405E-03     1.71692E-03     349.335E-03    -174.348E-03    -174.987E-03    -174.308E-03     349.295E-03    -174.987E-03     8.73321E-03    -88.0515E+06    -127.104E+06    -231.376E+06    -127.107E+06    -231.373E+06    -88.0515E+06     374.826E+03         51.2062
             322     2.51950E-03     73.1802E-03     250.930E-03     250.071E-03    -909.522E-03     250.925E-03    -909.516E-03     250.071E-03     2.71496E-03     349.400E-03    -174.438E-03    -174.962E-03    -174.429E-03     349.391E-03    -174.962E-03     3.94516E-03    -111.969E+06    -136.078E+06    -267.372E+06    -136.082E+06    -267.367E+06    -111.969E+06     37.4304E+03         50.8454
             323     1.67938E-03     73.1825E-03     250.197E-03     249.840E-03    -908.533E-03     250.189E-03    -908.525E-03     249.840E-03     1.11726E-03     349.605E-03    -174.591E-03    -175.014E-03    -174.611E-03     349.604E-03    -174.994E-03     1.28570E-03    -131.905E+06    -143.373E+06    -296.620E+06    -143.379E+06    -296.613E+06    -131.905E+06    -731.266E+03         50.5949
             324     839.376E-06     73.1867E-03     267.422E-03     232.099E-03    -908.023E-03     232.196E-03    -908.000E-03     267.303E-03     4.10993E-03     349.989E-03    -174.604E-03    -175.385E-03    -175.037E-03     349.989E-03    -174.952E-03     340.130E-06    -144.396E+06    -149.382E+06    -319.660E+06    -148.483E+06    -319.653E+06    -145.302E+06    -585.520E+03         50.4437
             325     14.2894E-03     73.1196E-03     281.083E-03     261.412E-03    -953.424E-03     281.083E-03    -953.424E-03     261.412E-03     172.592E-06     366.052E-03    -174.849E-03    -191.203E-03    -178.325E-03     353.174E-03    -174.849E-03     161.250E-03     125.258E+06     90.2584E+06    -7.65735E+06    -7.65695E+06     90.2580E+06     125.258E+06     5.56571E+03         72.5948
             326     13.4492E-03     72.8312E-03     278.709E-03     260.487E-03    -950.384E-03     278.709E-03    -950.384E-03     260.487E-03    -1.05532E-03     365.301E-03    -174.775E-03    -190.526E-03    -177.175E-03     351.950E-03    -174.775E-03     165.339E-03     97.4593E+06     71.9046E+06    -15.3633E+06    -15.3608E+06     71.9020E+06     97.4593E+06     198.317E+03         70.6069
             327     12.6066E-03     72.6754E-03     276.292E-03     259.564E-03    -947.286E-03     276.292E-03    -947.286E-03     259.564E-03    -310.675E-06     356.549E-03    -174.762E-03    -181.787E-03    -173.953E-03     348.715E-03    -174.762E-03     128.705E-03     77.1422E+06     51.3741E+06    -22.6117E+06    -22.6055E+06     51.3679E+06     77.1422E+06     509.332E+03         68.3403
             328     11.7648E-03     72.4916E-03     273.781E-03     258.644E-03    -944.016E-03     273.781E-03    -944.016E-03     258.644E-03     130.159E-06     355.622E-03    -174.801E-03    -180.821E-03    -173.565E-03     348.365E-03    -174.801E-03     123.290E-03     68.1576E+06     38.1248E+06    -29.5079E+06    -29.5010E+06     38.1179E+06     68.1576E+06     454.084E+03         65.9103
             329     10.9239E-03     72.3491E-03     271.260E-03     257.750E-03    -940.733E-03     271.260E-03    -940.733E-03     257.750E-03     934.737E-06     353.361E-03    -174.824E-03    -178.537E-03    -173.123E-03     347.948E-03    -174.824E-03     106.718E-03     60.7660E+06     30.6681E+06    -36.8589E+06    -36.8551E+06     30.6643E+06     60.7660E+06     34.6591E+03         63.4546
             330     10.0839E-03     72.2215E-03     268.771E-03     256.886E-03    -937.480E-03     268.770E-03    -937.480E-03     256.886E-03     1.50802E-03     352.315E-03    -174.817E-03    -177.498E-03    -172.969E-03     347.786E-03    -174.817E-03     97.3805E-03     51.6410E+06     25.2774E+06    -44.6295E+06    -44.6253E+06     25.2732E+06     51.6410E+06    -428.136E+03         61.1045
             331     9.24240E-03     72.1018E-03     266.322E-03     256.061E-03    -934.312E-03     266.322E-03    -934.312E-03     256.061E-03     900.996E-06     350.809E-03    -174.727E-03    -176.081E-03    -172.539E-03     347.351E-03    -174.813E-03     84.8299E-03     42.8597E+06     19.4113E+06    -53.0507E+06    -53.0425E+06     19.4031E+06     42.8597E+06    -683.021E+03         58.9620
             332     8.40078E-03     72.0070E-03     263.955E-03     255.281E-03    -931.257E-03     263.955E-03    -931.257E-03     255.281E-03     832.600E-06     350.001E-03    -174.714E-03    -175.287E-03    -172.633E-03     347.447E-03    -174.814E-03     72.8668E-03     35.6571E+06     13.2036E+06    -61.8099E+06    -61.8024E+06     13.1961E+06     35.6571E+06    -620.209E+03         57.0897
             333     7.56183E-03     71.9267E-03     261.738E-03     254.549E-03    -928.372E-03     261.737E-03    -928.372E-03     254.549E-03    -364.236E-06     349.092E-03    -174.176E-03    -174.916E-03    -172.515E-03     347.331E-03    -174.816E-03     60.1774E-03     25.5268E+06    -3.60304E+06    -71.9520E+06    -71.9487E+06    -3.60636E+06     25.5268E+06    -401.212E+03         55.5105
             334     6.72078E-03     71.8673E-03     259.681E-03     253.867E-03    -925.701E-03     259.681E-03    -925.701E-03     253.867E-03    -440.186E-06     348.316E-03    -173.470E-03    -174.846E-03    -172.392E-03     347.237E-03    -174.846E-03     47.0318E-03     7.03166E+06    -46.9768E+06    -83.2995E+06    -83.2891E+06    -46.9872E+06     7.03166E+06     21.7203E+03         54.2152
             335     5.88056E-03     71.8182E-03     257.832E-03     253.236E-03    -923.253E-03     257.832E-03    -923.253E-03     253.236E-03    -151.085E-06     348.329E-03    -173.444E-03    -174.885E-03    -172.831E-03     347.716E-03    -174.885E-03     35.2534E-03    -16.1815E+06    -88.2838E+06    -106.440E+06    -94.3959E+06    -100.328E+06    -16.1815E+06     83.1932E+03         53.1752
             336     5.04007E-03     71.7910E-03     256.145E-03     252.658E-03    -920.996E-03     256.144E-03    -920.995E-03     252.658E-03    -1.68563E-03     348.509E-03    -173.606E-03    -174.903E-03    -173.310E-03     348.213E-03    -174.903E-03     24.3376E-03    -39.5729E+06    -105.816E+06    -146.091E+06    -105.831E+06    -146.076E+06    -39.5729E+06     36.6265E+03         52.3537
             337     4.20020E-03     71.7731E-03     254.611E-03     252.145E-03    -918.952E-03     254.607E-03    -918.948E-03     252.145E-03     1.40082E-03     348.725E-03    -173.818E-03    -174.907E-03    -173.696E-03     348.604E-03    -174.907E-03     15.4797E-03    -63.7308E+06    -116.886E+06    -188.579E+06    -116.891E+06    -188.574E+06    -63.7308E+06     412.370E+03         51.7137
             338     3.35910E-03     71.7633E-03     253.353E-03     251.706E-03    -917.208E-03     253.349E-03    -917.204E-03     251.706E-03     1.29113E-03     348.993E-03    -174.079E-03    -174.914E-03    -174.039E-03     348.953E-03    -174.914E-03     8.65213E-03    -88.3113E+06    -127.364E+06    -231.361E+06    -127.372E+06    -231.354E+06    -88.3113E+06     456.135E+03         51.2241
             339     2.52000E-03     71.7642E-03     252.251E-03     251.356E-03    -915.745E-03     252.243E-03    -915.737E-03     251.356E-03     2.64970E-03     349.280E-03    -174.300E-03    -174.980E-03    -174.352E-03     349.271E-03    -174.919E-03     4.10217E-03    -111.999E+06    -136.099E+06    -266.713E+06    -136.109E+06    -266.703E+06    -111.999E+06     335.851E+03         50.8616
             340     1.67911E-03     71.7654E-03     251.540E-03     251.099E-03    -914.768E-03     251.527E-03    -914.755E-03     251.099E-03     429.263E-06     349.633E-03    -174.638E-03    -174.995E-03    -174.727E-03     349.631E-03    -174.905E-03     1.14848E-03    -132.223E+06    -143.143E+06    -296.057E+06    -143.151E+06    -296.049E+06    -132.223E+06     155.827E+03         50.6101
             341     840.090E-06     71.7669E-03     267.175E-03     234.859E-03    -914.029E-03     235.009E-03    -913.981E-03     266.978E-03     6.03281E-03     349.720E-03    -174.710E-03    -175.010E-03    -174.738E-03     349.720E-03    -174.981E-03    -517.565E-06    -144.909E+06    -149.794E+06    -320.795E+06    -148.888E+06    -320.795E+06    -145.815E+06     41.9155E+03         50.4583
             342     14.2892E-03     71.7006E-03     283.518E-03     263.167E-03    -961.037E-03     283.518E-03    -961.037E-03     263.167E-03    -8.78064E-06     365.081E-03    -174.877E-03    -190.203E-03    -177.348E-03     352.225E-03    -174.877E-03     160.955E-03     124.251E+06     89.1442E+06    -8.27276E+06    -8.27244E+06     89.1439E+06     124.251E+06    -20.8850E+03         72.5536
             343     13.4455E-03     71.4163E-03     281.068E-03     262.319E-03    -958.122E-03     281.068E-03    -958.121E-03     262.319E-03    -1.11374E-03     365.093E-03    -174.846E-03    -190.247E-03    -176.866E-03     351.712E-03    -174.846E-03     165.639E-03     97.1171E+06     71.2432E+06    -15.5820E+06    -15.5781E+06     71.2394E+06     97.1171E+06     424.093E+03         70.5738
             344     12.6059E-03     71.2544E-03     278.487E-03     261.479E-03    -954.923E-03     278.487E-03    -954.923E-03     261.479E-03    -406.922E-06     357.559E-03    -174.824E-03    -182.734E-03    -174.774E-03     349.598E-03    -174.824E-03     130.001E-03     77.8937E+06     52.3541E+06    -22.1486E+06    -22.1418E+06     52.3473E+06     77.8937E+06     667.464E+03         68.3213
             345     11.7665E-03     71.0767E-03     275.965E-03     260.642E-03    -951.684E-03     275.965E-03    -951.684E-03     260.642E-03    -137.336E-06     356.332E-03    -174.817E-03    -181.516E-03    -174.240E-03     349.056E-03    -174.817E-03     123.568E-03     69.1125E+06     39.4186E+06    -28.8635E+06    -28.8579E+06     39.4130E+06     69.1125E+06     481.928E+03         65.9082
             346     10.9227E-03     70.9338E-03     273.490E-03     259.829E-03    -948.505E-03     273.489E-03    -948.504E-03     259.829E-03     600.941E-06     353.395E-03    -174.810E-03    -178.586E-03    -173.223E-03     348.032E-03    -174.810E-03     106.231E-03     61.1249E+06     31.1750E+06    -36.2353E+06    -36.2316E+06     31.1713E+06     61.1249E+06     89.7331E+03         63.4675
             347     10.0827E-03     70.7981E-03     271.024E-03     259.043E-03    -945.330E-03     271.023E-03    -945.329E-03     259.043E-03     1.14013E-03     352.361E-03    -174.786E-03    -177.575E-03    -173.118E-03     347.903E-03    -174.786E-03     96.6006E-03     51.7394E+06     25.9097E+06    -43.8555E+06    -43.8528E+06     25.9071E+06     51.7394E+06    -250.310E+03         61.1287
             348     9.24365E-03     70.6887E-03     268.598E-03     258.292E-03    -942.237E-03     268.598E-03    -942.237E-03     258.292E-03     511.907E-06     350.800E-03    -174.684E-03    -176.116E-03    -172.593E-03     347.362E-03    -174.769E-03     84.6505E-03     43.2462E+06     20.0301E+06    -52.3110E+06    -52.3036E+06     20.0227E+06     43.2462E+06    -583.850E+03         58.9931
             349     8.40249E-03     70.5877E-03     266.294E-03     257.577E-03    -939.295E-03     266.294E-03    -939.295E-03     257.577E-03     474.168E-06     349.535E-03    -174.463E-03    -175.072E-03    -172.226E-03     347.010E-03    -174.785E-03     72.2881E-03     35.4396E+06     12.8658E+06    -62.0412E+06    -62.0328E+06     12.8574E+06     35.4396E+06    -669.470E+03         57.1231
             350     7.56093E-03     70.5097E-03     264.119E-03     256.900E-03    -936.497E-03     264.118E-03    -936.496E-03     256.900E-03    -612.308E-06     348.958E-03    -174.154E-03    -174.804E-03    -172.449E-03     347.253E-03    -174.804E-03     59.3041E-03     24.6387E+06    -4.30314E+06    -72.2857E+06    -72.2820E+06    -4.30685E+06     24.6387E+06    -381.478E+03         55.5430
             351     6.72186E-03     70.4476E-03     262.107E-03     256.260E-03    -933.897E-03     262.106E-03    -933.897E-03     256.260E-03    -757.938E-06     348.511E-03    -173.688E-03    -174.823E-03    -172.601E-03     347.424E-03    -174.823E-03     47.2686E-03     6.55300E+06    -47.6195E+06    -83.5398E+06    -83.5105E+06    -47.6488E+06     6.55300E+06     96.9779E+03         54.2453
             352     5.88070E-03     70.4041E-03     260.274E-03     255.660E-03    -931.482E-03     260.274E-03    -931.482E-03     255.660E-03    -445.730E-06     348.143E-03    -173.284E-03    -174.859E-03    -172.656E-03     347.515E-03    -174.859E-03     35.6854E-03    -16.6379E+06    -89.4893E+06    -106.543E+06    -95.5084E+06    -100.524E+06    -16.6379E+06     770.741E+03         53.2019
             353     5.03954E-03     70.3716E-03     258.537E-03     255.112E-03    -929.198E-03     258.536E-03    -929.197E-03     255.112E-03    -2.04307E-03     348.426E-03    -173.537E-03    -174.890E-03    -173.229E-03     348.118E-03    -174.890E-03     24.8561E-03    -40.8562E+06    -106.950E+06    -145.952E+06    -106.980E+06    -145.922E+06    -40.8562E+06     680.708E+03         52.3767
             354     4.20032E-03     70.3555E-03     256.970E-03     254.634E-03    -927.152E-03     256.965E-03    -927.148E-03     254.634E-03     1.12890E-03     348.796E-03    -173.904E-03    -174.892E-03    -173.772E-03     348.663E-03    -174.892E-03     16.2048E-03    -64.8133E+06    -117.312E+06    -188.900E+06    -117.318E+06    -188.893E+06    -64.8133E+06     478.514E+03         51.7337
             355     3.36034E-03     70.3478E-03     255.758E-03     254.230E-03    -925.494E-03     255.753E-03    -925.489E-03     254.230E-03     1.00587E-03     348.975E-03    -174.084E-03    -174.890E-03    -174.039E-03     348.929E-03    -174.890E-03     9.07614E-03    -88.1301E+06    -126.881E+06    -230.408E+06    -126.888E+06    -230.401E+06    -88.1301E+06     402.250E+03         51.2419
             356     2.51864E-03     70.3459E-03     254.805E-03     253.896E-03    -924.171E-03     254.795E-03    -924.161E-03     253.896E-03     2.81983E-03     349.423E-03    -174.512E-03    -174.911E-03    -174.564E-03     349.414E-03    -174.850E-03     3.87037E-03    -111.231E+06    -136.420E+06    -266.654E+06    -136.430E+06    -266.644E+06    -111.231E+06     262.080E+03         50.8778
             357     1.68066E-03     70.3470E-03     254.126E-03     253.622E-03    -923.177E-03     254.108E-03    -923.159E-03     253.622E-03    -97.2517E-06     349.494E-03    -174.686E-03    -174.809E-03    -174.754E-03     349.493E-03    -174.740E-03     950.516E-06    -131.237E+06    -144.253E+06    -296.113E+06    -144.274E+06    -296.092E+06    -131.237E+06     893.153E+03         50.6253
             358     839.927E-06     70.3513E-03     266.947E-03     240.112E-03    -922.418E-03     240.244E-03    -922.344E-03     266.741E-03     7.57409E-03     349.270E-03    -174.428E-03    -174.842E-03    -174.775E-03     349.269E-03    -174.494E-03    -546.121E-06    -144.260E+06    -150.080E+06    -319.313E+06    -149.075E+06    -319.297E+06    -145.281E+06     1.02341E+06         50.4729
             359     14.2884E-03     70.2871E-03     285.809E-03     265.633E-03    -969.282E-03     285.809E-03    -969.281E-03     265.633E-03    -306.198E-06     365.111E-03    -174.900E-03    -190.211E-03    -177.478E-03     352.378E-03    -174.900E-03     160.313E-03     124.416E+06     89.0782E+06    -7.95858E+06    -7.95545E+06     89.0750E+06     124.416E+06     431.541E+03         72.5135
             360     13.4471E-03     69.9992E-03     283.307E-03     264.919E-03    -966.344E-03     283.307E-03    -966.344E-03     264.919E-03    -1.15799E-03     364.965E-03    -174.858E-03    -190.106E-03    -176.927E-03     351.786E-03    -174.858E-03     164.284E-03     97.2504E+06     71.3066E+06    -15.2661E+06    -15.2632E+06     71.3037E+06     97.2504E+06     409.258E+03         70.5433
             361     12.6039E-03     69.8371E-03     280.818E-03     264.217E-03    -963.288E-03     280.818E-03    -963.288E-03     264.217E-03    -694.293E-06     357.094E-03    -174.839E-03    -182.255E-03    -174.457E-03     349.296E-03    -174.839E-03     128.546E-03     77.8461E+06     52.4846E+06    -21.8714E+06    -21.8696E+06     52.4829E+06     77.8461E+06     292.211E+03         68.3040
             362     11.7626E-03     69.6554E-03     278.389E-03     263.510E-03    -960.234E-03     278.389E-03    -960.234E-03     263.510E-03    -547.540E-06     356.721E-03    -174.816E-03    -181.905E-03    -174.753E-03     349.569E-03    -174.816E-03     122.587E-03     68.6728E+06     39.6473E+06    -29.0909E+06    -29.0890E+06     39.6454E+06     68.6728E+06    -89.4075E+03         65.9063
             363     10.9271E-03     69.5160E-03     276.028E-03     262.825E-03    -957.251E-03     276.028E-03    -957.250E-03     262.825E-03     206.684E-06     353.804E-03    -174.769E-03    -179.035E-03    -173.690E-03     348.459E-03    -174.769E-03     106.163E-03     60.9865E+06     31.5212E+06    -36.5001E+06    -36.4974E+06     31.5185E+06     60.9865E+06    -311.972E+03         63.4807
             364     10.0846E-03     69.3834E-03     273.719E-03     262.158E-03    -954.335E-03     273.719E-03    -954.335E-03     262.158E-03     795.259E-06     351.986E-03    -174.740E-03    -177.247E-03    -172.740E-03     347.480E-03    -174.740E-03     97.0446E-03     51.4625E+06     25.8535E+06    -43.8828E+06    -43.8817E+06     25.8524E+06     51.4625E+06    -128.255E+03         61.1527
             365     9.24252E-03     69.2676E-03     271.499E-03     261.517E-03    -951.538E-03     271.499E-03    -951.538E-03     261.517E-03     138.277E-06     350.753E-03    -174.735E-03    -176.017E-03    -172.576E-03     347.312E-03    -174.735E-03     84.6510E-03     42.5844E+06     19.8536E+06    -52.2111E+06    -52.2068E+06     19.8493E+06     42.5844E+06     90.0314E+03         59.0233
             366     8.40295E-03     69.1726E-03     269.367E-03     260.897E-03    -948.846E-03     269.367E-03    -948.846E-03     260.897E-03     108.302E-06     349.455E-03    -174.312E-03    -175.143E-03    -172.133E-03     346.889E-03    -174.756E-03     72.9451E-03      35.344E+06     13.0556E+06    -61.6921E+06    -61.6879E+06     13.0513E+06      35.344E+06     79.5055E+03         57.1560
             367     7.56245E-03     69.0912E-03     267.306E-03     260.302E-03    -946.240E-03     267.306E-03    -946.240E-03     260.302E-03    -964.938E-06     348.570E-03    -173.758E-03    -174.812E-03    -171.977E-03     346.788E-03    -174.812E-03     60.5145E-03     24.5418E+06    -5.21813E+06    -72.4670E+06    -72.4539E+06    -5.23127E+06     24.5418E+06     284.605E+03         55.5751
             368     6.72024E-03     69.0313E-03     265.330E-03     259.738E-03    -943.736E-03     265.330E-03    -943.736E-03     259.738E-03    -1.22507E-03     348.543E-03    -173.681E-03    -174.861E-03    -172.577E-03     347.438E-03    -174.861E-03     47.5747E-03     5.95093E+06    -48.1882E+06    -84.2786E+06    -84.1737E+06    -48.2932E+06     5.95093E+06     1.06722E+06         54.2746
             369     5.88041E-03     68.9855E-03     263.488E-03     259.214E-03    -941.382E-03     263.488E-03    -941.382E-03     259.214E-03    -799.652E-06     348.469E-03    -173.588E-03    -174.881E-03    -172.962E-03     347.843E-03    -174.881E-03     35.6838E-03    -16.7991E+06    -89.0154E+06    -106.799E+06    -95.8189E+06    -99.9956E+06    -16.7991E+06     1.08296E+06         53.2281
             370     5.04060E-03     68.9559E-03     261.915E-03     258.735E-03    -939.325E-03     261.914E-03    -939.324E-03     258.735E-03    -2.39342E-03     348.344E-03    -173.439E-03    -174.905E-03    -173.128E-03     348.032E-03    -174.905E-03     24.9908E-03    -40.1358E+06    -106.611E+06    -144.992E+06    -106.637E+06    -144.966E+06    -40.1358E+06     580.584E+03         52.3998
             371     4.19863E-03     68.9373E-03     260.581E-03     258.299E-03    -937.541E-03     260.576E-03    -937.536E-03     258.299E-03     987.024E-06     348.778E-03    -173.854E-03    -174.923E-03    -173.725E-03     348.649E-03    -174.923E-03     15.8090E-03    -64.6103E+06    -117.348E+06    -188.491E+06    -117.351E+06    -188.488E+06    -64.6103E+06     179.566E+03         51.7538
             372     3.35892E-03     68.9301E-03     259.418E-03     257.911E-03    -935.942E-03     259.413E-03    -935.937E-03     257.911E-03     801.852E-06     349.307E-03    -174.423E-03    -174.884E-03    -174.381E-03     349.265E-03    -174.884E-03     8.86835E-03    -88.6196E+06    -127.603E+06    -230.708E+06    -127.606E+06    -230.705E+06    -88.6196E+06     271.304E+03         51.2597
             373     2.52123E-03     68.9278E-03     258.404E-03     257.598E-03    -934.578E-03     258.392E-03    -934.566E-03     257.598E-03     2.89552E-03     349.280E-03    -174.467E-03    -174.812E-03    -174.457E-03     349.269E-03    -174.812E-03     4.24647E-03    -111.502E+06    -136.900E+06    -266.807E+06    -136.912E+06    -266.795E+06    -111.502E+06     607.770E+03         50.8941
             374     1.67950E-03     68.9307E-03     257.734E-03     257.378E-03    -933.689E-03     257.711E-03    -933.666E-03     257.378E-03    -587.515E-06     349.250E-03    -174.442E-03    -174.807E-03    -174.441E-03     349.248E-03    -174.807E-03     1.47081E-03    -131.091E+06    -144.137E+06    -295.923E+06    -144.169E+06    -295.890E+06    -131.091E+06     368.820E+03         50.6405
             375     840.134E-06     68.9340E-03     267.180E-03     247.487E-03    -933.281E-03     247.511E-03    -933.178E-03     267.052E-03     8.98494E-03     349.592E-03    -174.477E-03    -175.115E-03    -174.959E-03     349.592E-03    -174.632E-03     349.283E-06    -142.869E+06    -148.750E+06    -316.867E+06    -147.755E+06    -316.841E+06    -143.890E+06     594.793E+03         50.4875
             376     14.2882E-03     68.8683E-03     288.030E-03     268.830E-03    -978.060E-03     288.030E-03    -978.060E-03     268.830E-03    -322.185E-06     365.838E-03    -174.901E-03    -190.937E-03    -178.315E-03     353.216E-03    -174.901E-03     159.866E-03     125.207E+06     89.7375E+06    -7.40860E+06    -7.40484E+06     89.7338E+06     125.207E+06     286.684E+03         72.4746
             377     13.4476E-03     68.5821E-03     285.605E-03     268.299E-03    -975.105E-03     285.604E-03    -975.105E-03     268.299E-03    -1.49514E-03     365.609E-03    -174.803E-03    -190.807E-03    -177.744E-03     352.547E-03    -174.803E-03     163.797E-03     97.6618E+06     71.7553E+06    -15.0344E+06    -15.0289E+06     71.7498E+06     97.6618E+06     350.735E+03         70.5155
             378     12.6077E-03     68.4216E-03     283.372E-03     267.775E-03    -972.416E-03     283.372E-03    -972.415E-03     267.775E-03    -1.05540E-03     356.982E-03    -174.747E-03    -182.235E-03    -174.507E-03     349.255E-03    -174.747E-03     127.956E-03     77.6766E+06     51.8857E+06    -22.0509E+06    -22.0470E+06     51.8818E+06     77.6766E+06     405.919E+03         68.2906
             379     11.7672E-03     68.2373E-03     281.150E-03     267.234E-03    -969.698E-03     281.149E-03    -969.698E-03     267.234E-03    -905.747E-06     355.607E-03    -174.753E-03    -180.854E-03    -173.725E-03     348.478E-03    -174.753E-03     122.206E-03     68.3876E+06     39.3772E+06    -28.7837E+06    -28.7800E+06     39.3736E+06     68.3876E+06     99.7211E+03         65.9064
             380     10.9226E-03     68.0962E-03     278.974E-03     266.709E-03    -967.048E-03     278.974E-03    -967.048E-03     266.709E-03    -153.639E-06     353.331E-03    -174.757E-03    -178.573E-03    -173.213E-03     347.970E-03    -174.757E-03     106.203E-03     60.5098E+06     31.8487E+06    -36.0032E+06    -35.9999E+06     31.8454E+06     60.5098E+06     32.3812E+03         63.4925
             381     10.0839E-03     67.9667E-03     276.904E-03     266.192E-03    -964.502E-03     276.904E-03    -964.502E-03     266.192E-03     427.058E-06     352.239E-03    -174.740E-03    -177.500E-03    -172.948E-03     347.688E-03    -174.740E-03     97.6164E-03     50.8654E+06     25.7923E+06    -44.1106E+06    -44.1090E+06     25.7907E+06     50.8654E+06     189.222E+03         61.1747
             382     9.24399E-03     67.8502E-03     274.917E-03     265.694E-03    -962.073E-03     274.917E-03    -962.073E-03     265.694E-03    -241.460E-06     350.361E-03    -174.632E-03    -175.729E-03    -172.100E-03     346.854E-03    -174.754E-03     85.3685E-03     42.1091E+06     19.4864E+06    -52.5581E+06    -52.5535E+06     19.4819E+06     42.1091E+06     358.301E+03         59.0519
             383     8.40209E-03     67.7553E-03     272.989E-03     265.207E-03    -959.704E-03     272.989E-03    -959.704E-03     265.207E-03    -280.930E-06     349.337E-03    -174.425E-03    -174.912E-03    -171.918E-03     346.730E-03    -174.812E-03     73.5127E-03     34.8694E+06     12.9739E+06    -61.7143E+06    -61.7023E+06     12.9618E+06     34.8694E+06     629.747E+03         57.1869
             384     7.56001E-03     67.6753E-03     271.142E-03     264.735E-03    -957.423E-03     271.141E-03    -957.422E-03     264.735E-03    -1.34582E-03     348.941E-03    -174.067E-03    -174.874E-03    -172.261E-03     347.135E-03    -174.874E-03     60.9334E-03     24.3252E+06    -6.37263E+06    -72.8778E+06    -72.8480E+06    -6.40245E+06     24.3252E+06     1.18565E+06         55.6060
             385     6.72070E-03     67.6125E-03     269.373E-03     264.282E-03    -955.240E-03     269.372E-03    -955.239E-03     264.282E-03    -1.50769E-03     348.750E-03    -173.845E-03    -174.905E-03    -172.747E-03     347.652E-03    -174.905E-03     47.4209E-03     6.44247E+06    -48.4184E+06    -84.2421E+06    -84.1529E+06    -48.5076E+06     6.44247E+06     1.37763E+06         54.3038
             386     5.88034E-03     67.5681E-03     267.777E-03     263.847E-03    -953.218E-03     267.777E-03    -953.218E-03     263.847E-03    -1.02023E-03     348.733E-03    -173.834E-03    -174.899E-03    -173.226E-03     348.125E-03    -174.899E-03     35.1250E-03    -15.2391E+06    -87.0997E+06    -105.544E+06    -94.3728E+06    -98.2706E+06    -15.2391E+06     926.866E+03         53.2545
             387     5.03938E-03     67.5385E-03     266.374E-03     263.435E-03    -951.401E-03     266.372E-03    -951.399E-03     263.435E-03    -2.63532E-03     348.737E-03    -173.873E-03    -174.864E-03    -173.578E-03     348.442E-03    -174.864E-03     24.3256E-03    -38.6847E+06    -105.838E+06    -144.211E+06    -105.862E+06    -144.186E+06    -38.6847E+06     500.455E+03         52.4231
             388     4.20066E-03     67.5202E-03     265.094E-03     263.057E-03    -949.726E-03     265.089E-03    -949.721E-03     263.057E-03     878.153E-06     348.715E-03    -173.893E-03    -174.822E-03    -173.774E-03     348.597E-03    -174.822E-03     15.0932E-03    -64.2956E+06    -117.690E+06    -188.166E+06    -117.697E+06    -188.159E+06    -64.2956E+06     403.189E+03         51.7744
             389     3.36057E-03     67.5116E-03     264.029E-03     262.726E-03    -948.278E-03     264.023E-03    -948.272E-03     262.726E-03     480.518E-06     348.606E-03    -173.765E-03    -174.841E-03    -173.729E-03     348.570E-03    -174.841E-03     8.38650E-03    -89.2906E+06    -128.114E+06    -231.402E+06    -128.120E+06    -231.396E+06    -89.2906E+06     413.192E+03         51.2779
             390     2.51852E-03     67.5113E-03     263.190E-03     262.451E-03    -947.131E-03     263.176E-03    -947.118E-03     262.451E-03     2.80039E-03     348.902E-03    -173.949E-03    -174.952E-03    -173.938E-03     348.890E-03    -174.952E-03     4.66273E-03    -112.168E+06    -136.162E+06    -265.938E+06    -136.173E+06    -265.927E+06    -112.168E+06     389.311E+03         50.9105
             391     1.67963E-03     67.5137E-03     262.596E-03     262.245E-03    -946.317E-03     262.569E-03    -946.290E-03     262.245E-03    -1.05939E-03     349.689E-03    -174.563E-03    -175.126E-03    -174.589E-03     349.686E-03    -175.098E-03     2.05954E-03    -131.188E+06    -142.374E+06    -294.666E+06    -142.395E+06    -294.645E+06    -131.188E+06    -214.288E+03         50.6559
             392     838.903E-06     67.5163E-03     267.521E-03     256.911E-03    -945.800E-03     256.901E-03    -945.675E-03     267.406E-03     9.88910E-03     350.260E-03    -174.808E-03    -175.452E-03    -175.328E-03     350.260E-03    -174.932E-03     223.397E-06    -143.645E+06    -148.719E+06    -317.696E+06    -147.848E+06    -317.672E+06    -144.540E+06    -1.06563E+06         50.5025
             393     14.2890E-03     67.4490E-03     290.260E-03     272.746E-03    -986.843E-03     290.260E-03    -986.842E-03     272.746E-03     12.3764E-06     366.025E-03    -174.890E-03    -191.135E-03    -178.441E-03     353.331E-03    -174.890E-03     160.395E-03     124.818E+06     89.0666E+06    -7.98594E+06    -7.98500E+06     89.0656E+06     124.818E+06     9.26051E+03         72.4365
             394     13.4484E-03     67.1649E-03     288.120E-03     272.426E-03    -984.452E-03     288.120E-03    -984.451E-03     272.426E-03    -1.72088E-03     366.088E-03    -174.779E-03    -191.309E-03    -178.127E-03     352.906E-03    -174.779E-03     164.798E-03     97.7922E+06     71.9603E+06    -15.3623E+06    -15.3578E+06     71.9558E+06     97.7922E+06      132.86E+03         70.4867
             395     12.6077E-03     67.0012E-03     286.138E-03     272.104E-03    -982.212E-03     286.138E-03    -982.211E-03     272.104E-03    -1.31345E-03     357.398E-03    -174.708E-03    -182.690E-03    -174.783E-03     349.490E-03    -174.708E-03     129.518E-03     78.3723E+06     52.4480E+06    -21.9711E+06    -21.9670E+06     52.4439E+06     78.3723E+06     255.198E+03         68.2752
             396     11.7658E-03     66.8236E-03     284.195E-03     271.753E-03    -979.971E-03     284.194E-03    -979.971E-03     271.753E-03    -1.13895E-03     355.619E-03    -174.711E-03    -180.909E-03    -173.643E-03     348.354E-03    -174.711E-03     123.330E-03     69.1627E+06     39.7448E+06    -28.4703E+06    -28.4633E+06     39.7378E+06     69.1627E+06     512.238E+03         65.9054
             397     10.9258E-03     66.6799E-03     282.324E-03     271.415E-03    -977.814E-03     282.324E-03    -977.814E-03     271.415E-03    -422.905E-06     352.815E-03    -174.734E-03    -178.081E-03    -172.725E-03     347.459E-03    -174.734E-03     106.046E-03     60.3660E+06     31.7948E+06    -35.9863E+06    -35.9745E+06     31.7830E+06     60.3660E+06     790.315E+03         63.5042
             398     10.0839E-03     66.5465E-03     280.541E-03     271.075E-03    -975.738E-03     280.541E-03    -975.738E-03     271.075E-03     110.234E-06     351.557E-03    -174.758E-03    -176.800E-03    -172.317E-03     347.075E-03    -174.758E-03     96.7476E-03     49.9357E+06     25.6979E+06    -44.2001E+06    -44.1921E+06     25.6900E+06     49.9357E+06     649.117E+03         61.1958
             399     9.24203E-03     66.4357E-03     278.818E-03     270.745E-03    -973.732E-03     278.818E-03    -973.732E-03     270.745E-03    -478.730E-06     350.328E-03    -174.682E-03    -175.645E-03    -172.027E-03     346.831E-03    -174.804E-03     85.2985E-03     41.2502E+06     19.4000E+06    -52.6902E+06    -52.6848E+06     19.3946E+06     41.2502E+06     507.435E+03         59.0791
             400     8.40044E-03     66.3377E-03     277.185E-03     270.419E-03    -971.812E-03     277.185E-03    -971.812E-03     270.419E-03    -443.046E-06     349.703E-03    -174.600E-03    -175.104E-03    -172.273E-03     347.127E-03    -174.854E-03     73.0346E-03     34.0090E+06     12.2050E+06    -62.4716E+06    -62.4551E+06     12.1885E+06     34.0090E+06     914.863E+03         57.2177
             401     7.56168E-03     66.2568E-03     275.642E-03     270.096E-03    -969.983E-03     275.642E-03    -969.983E-03     270.096E-03    -1.39843E-03     349.161E-03    -174.275E-03    -174.886E-03    -172.526E-03     347.412E-03    -174.886E-03     60.0866E-03     24.5048E+06    -6.16898E+06    -72.5165E+06    -72.4910E+06    -6.19443E+06     24.5048E+06     1.26785E+06         55.6374
             402     6.72032E-03     66.1951E-03     274.204E-03     269.770E-03    -968.250E-03     274.204E-03    -968.250E-03     269.770E-03    -1.54035E-03     348.905E-03    -174.011E-03    -174.894E-03    -172.919E-03     347.813E-03    -174.894E-03     47.2787E-03     7.81632E+06    -47.4367E+06    -82.6784E+06    -82.6532E+06    -47.4619E+06     7.81632E+06     497.895E+03         54.3335
             403     5.88020E-03     66.1498E-03     272.861E-03     269.442E-03    -966.599E-03     272.861E-03    -966.598E-03     269.442E-03    -1.14441E-03     348.913E-03    -174.058E-03    -174.854E-03    -173.468E-03     348.322E-03    -174.854E-03     34.5641E-03    -14.5773E+06    -86.8178E+06    -105.260E+06    -93.7167E+06    -98.3607E+06    -14.5773E+06     464.965E+03         53.2813
             404     5.04150E-03     66.1204E-03     271.607E-03     269.123E-03    -965.022E-03     271.604E-03    -965.020E-03     269.123E-03    -2.91132E-03     348.617E-03    -173.823E-03    -174.794E-03    -173.535E-03     348.329E-03    -174.794E-03     24.1502E-03    -38.0877E+06    -104.734E+06    -143.965E+06    -104.780E+06    -143.919E+06    -38.0877E+06     1.09146E+06         52.4468
             405     4.20080E-03     66.1022E-03     270.502E-03     268.830E-03    -963.604E-03     270.496E-03    -963.599E-03     268.830E-03     663.223E-06     348.344E-03    -173.559E-03    -174.785E-03    -173.428E-03     348.214E-03    -174.785E-03     15.9913E-03    -62.5912E+06    -115.542E+06    -187.687E+06    -115.566E+06    -187.663E+06    -62.5912E+06     1.00274E+06         51.7952
             406     3.35975E-03     66.0969E-03     269.649E-03     268.567E-03    -962.446E-03     269.643E-03    -962.440E-03     268.567E-03     246.643E-06     348.586E-03    -173.696E-03    -174.890E-03    -173.704E-03     348.543E-03    -174.839E-03     8.89763E-03    -87.2033E+06    -125.639E+06    -230.499E+06    -125.645E+06    -230.493E+06    -87.2033E+06     630.071E+03         51.2964
             407     2.51946E-03     66.0949E-03     269.020E-03     268.331E-03    -961.532E-03     269.005E-03    -961.517E-03     268.331E-03     2.79007E-03     349.075E-03    -174.116E-03    -174.959E-03    -174.158E-03     349.066E-03    -174.908E-03     3.63217E-03    -110.686E+06    -134.402E+06    -264.942E+06    -134.408E+06    -264.936E+06    -110.686E+06     168.475E+03         50.9275
             408     1.67810E-03     66.0948E-03     268.474E-03     268.140E-03    -960.785E-03     268.445E-03    -960.755E-03     268.140E-03    -1.22850E-03     349.590E-03    -174.589E-03    -175.000E-03    -174.616E-03     349.588E-03    -174.972E-03     779.516E-06    -130.411E+06    -141.861E+06    -294.400E+06    -141.868E+06    -294.393E+06    -130.411E+06    -19.6104E+03         50.6720
             409     840.223E-06     66.0973E-03     270.876E-03     265.375E-03    -960.383E-03     267.982E-03    -960.247E-03     268.133E-03     10.3999E-03     349.935E-03    -174.566E-03    -175.369E-03    -175.281E-03     349.934E-03    -174.653E-03    -587.768E-06    -143.741E+06    -148.763E+06    -318.942E+06    -147.890E+06    -318.919E+06    -144.637E+06    -196.739E+03         50.5181
             410     14.2881E-03     66.0334E-03     292.368E-03     277.290E-03    -995.737E-03     292.368E-03    -995.737E-03     277.290E-03     148.007E-06     365.787E-03    -174.880E-03    -190.907E-03    -178.082E-03     352.962E-03    -174.880E-03     160.945E-03     124.789E+06     88.8114E+06    -7.94881E+06    -7.94826E+06     88.8108E+06     124.789E+06     194.868E+03         72.3986
             411     13.4474E-03     65.7430E-03     290.682E-03     277.204E-03    -994.188E-03     290.681E-03    -994.188E-03     277.204E-03    -1.53652E-03     365.867E-03    -174.794E-03    -191.073E-03    -177.803E-03     352.597E-03    -174.794E-03     164.975E-03     97.6667E+06     72.1336E+06    -15.4752E+06    -15.4733E+06     72.1317E+06     97.6667E+06    -166.890E+03         70.4566
             412     12.6066E-03     65.5868E-03     288.994E-03     277.104E-03    -992.528E-03     288.994E-03    -992.527E-03     277.104E-03    -1.23700E-03     357.197E-03    -174.737E-03    -182.460E-03    -174.640E-03     349.377E-03    -174.737E-03     128.734E-03     77.6217E+06     52.1485E+06    -22.6934E+06    -22.6910E+06     52.1460E+06     77.6217E+06    -141.244E+03         68.2571
             413     11.7662E-03     65.4034E-03     287.418E-03     276.965E-03    -990.887E-03     287.417E-03    -990.887E-03     276.965E-03    -1.10330E-03     355.924E-03    -174.739E-03    -181.185E-03    -173.872E-03     348.611E-03    -174.739E-03     123.876E-03     68.4645E+06     39.0910E+06    -29.5458E+06    -29.5383E+06     39.0836E+06     68.4645E+06     550.014E+03         65.9016
             414     10.9255E-03     65.2635E-03     285.935E-03     276.833E-03    -989.326E-03     285.935E-03    -989.326E-03     276.833E-03    -422.692E-06     353.065E-03    -174.761E-03    -178.304E-03    -172.782E-03     347.543E-03    -174.761E-03     107.723E-03     60.6911E+06     31.7970E+06    -36.6030E+06    -36.5881E+06     31.7821E+06     60.6911E+06     986.129E+03         63.5140
             415     10.0834E-03     65.1317E-03     284.503E-03     276.693E-03    -987.798E-03     284.503E-03    -987.798E-03     276.693E-03     81.1496E-06     351.729E-03    -174.787E-03    -176.942E-03    -172.388E-03     347.175E-03    -174.787E-03     97.4668E-03     50.5030E+06     25.8459E+06    -44.3506E+06    -44.3295E+06     25.8248E+06     50.5030E+06     1.13071E+06         61.2163
             416     9.24192E-03     65.0182E-03     283.162E-03     276.554E-03    -986.366E-03     283.162E-03    -986.366E-03     276.554E-03    -541.399E-06     350.849E-03    -174.802E-03    -176.047E-03    -172.616E-03     347.418E-03    -174.802E-03     84.5596E-03     41.4372E+06     19.3334E+06    -52.8768E+06    -52.8455E+06     19.3022E+06     41.4372E+06     1.36088E+06         59.1073
             417     8.40295E-03     64.9187E-03     281.908E-03     276.409E-03    -985.013E-03     281.908E-03    -985.013E-03     276.409E-03    -573.579E-06     349.885E-03    -174.604E-03    -175.281E-03    -172.561E-03     347.367E-03    -174.806E-03     72.2578E-03     34.4525E+06     12.4139E+06    -62.2426E+06    -62.2190E+06     12.3902E+06     34.4525E+06     1.14826E+06         57.2499
             418     7.56069E-03     64.8403E-03     280.739E-03     276.249E-03    -983.724E-03     280.738E-03    -983.724E-03     276.249E-03    -1.58558E-03     349.091E-03    -174.280E-03    -174.811E-03    -172.556E-03     347.367E-03    -174.811E-03     59.6360E-03     24.9827E+06    -4.71366E+06    -72.1016E+06    -72.0893E+06    -4.72597E+06     24.9827E+06     335.842E+03         55.6699
             419     6.72090E-03     64.7763E-03     279.650E-03     276.069E-03    -982.489E-03     279.650E-03    -982.488E-03     276.069E-03    -1.80453E-03     348.670E-03    -173.859E-03    -174.811E-03    -172.792E-03     347.603E-03    -174.811E-03     46.6970E-03     7.20428E+06    -46.7184E+06    -82.9296E+06    -82.9090E+06    -46.7391E+06     7.20428E+06    -108.857E+03         54.3639
             420     5.88161E-03     64.7312E-03     278.590E-03     275.868E-03    -981.247E-03     278.590E-03    -981.246E-03     275.868E-03    -1.24564E-03     348.215E-03    -173.395E-03    -174.820E-03    -172.798E-03     347.618E-03    -174.820E-03     34.8843E-03    -15.7834E+06    -87.3595E+06    -106.070E+06    -94.1257E+06    -99.3035E+06    -15.7834E+06    -74.2147E+03         53.3083
             421     5.04043E-03     64.7031E-03     277.604E-03     275.658E-03    -980.045E-03     277.602E-03    -980.043E-03     275.658E-03    -2.90313E-03     348.237E-03    -173.384E-03    -174.853E-03    -173.070E-03     347.924E-03    -174.853E-03     25.1228E-03    -38.4273E+06    -104.392E+06    -144.405E+06    -104.423E+06    -144.373E+06    -38.4273E+06     284.496E+03         52.4703
             422     4.19926E-03     64.6873E-03     276.815E-03     275.448E-03    -979.023E-03     276.809E-03    -979.018E-03     275.448E-03     650.294E-06     348.692E-03    -173.815E-03    -174.877E-03    -173.682E-03     348.559E-03    -174.877E-03     16.0235E-03    -61.4630E+06    -114.360E+06    -187.213E+06    -114.390E+06    -187.183E+06    -61.4630E+06     841.050E+03         51.8159
             423     3.35931E-03     64.6781E-03     276.137E-03     275.245E-03    -978.115E-03     276.131E-03    -978.109E-03     275.245E-03     156.098E-06     349.278E-03    -174.402E-03    -174.877E-03    -174.413E-03     349.238E-03    -174.825E-03     8.63497E-03    -85.5713E+06    -125.065E+06    -229.195E+06    -125.078E+06    -229.181E+06    -85.5713E+06     1.03411E+06         51.3153
             424     2.52083E-03     64.6770E-03     275.559E-03     275.068E-03    -977.327E-03     275.545E-03    -977.313E-03     275.068E-03     2.65597E-03     349.432E-03    -174.558E-03    -174.874E-03    -174.764E-03     349.423E-03    -174.659E-03     3.73608E-03    -109.662E+06    -134.952E+06    -264.550E+06    -134.961E+06    -264.541E+06    -109.662E+06     1.00021E+06         50.9452
             425     1.68202E-03     64.6792E-03     275.229E-03     274.912E-03    -976.827E-03     275.200E-03    -976.797E-03     274.912E-03    -1.31645E-03     348.958E-03    -174.301E-03    -174.657E-03    -174.463E-03     348.956E-03    -174.493E-03     1.00408E-03    -129.907E+06    -142.321E+06    -294.643E+06    -142.332E+06    -294.632E+06    -129.907E+06     811.627E+03         50.6887
             426     839.496E-06     64.6794E-03     280.070E-03     269.726E-03    -976.518E-03     279.934E-03    -976.382E-03     269.726E-03     10.5961E-03     348.811E-03    -174.084E-03    -174.727E-03    -174.422E-03     348.810E-03    -174.388E-03    -375.425E-06    -141.976E+06    -147.595E+06    -318.307E+06    -146.328E+06    -318.290E+06    -143.259E+06     546.668E+03         50.5342
             427     14.2897E-03     64.6160E-03     294.333E-03     282.344E-03        -1.00502     294.333E-03        -1.00502     282.344E-03    -45.3465E-06     365.637E-03    -174.859E-03    -190.778E-03    -177.996E-03     352.855E-03    -174.859E-03     160.529E-03     125.272E+06     89.0639E+06    -7.58675E+06    -7.58319E+06     89.0604E+06     125.272E+06     452.755E+03         72.3614
             428     13.4475E-03     64.3269E-03     293.134E-03     282.511E-03        -1.00423     293.133E-03        -1.00423     282.511E-03    -1.38487E-03     365.164E-03    -174.795E-03    -190.369E-03    -177.104E-03     351.899E-03    -174.795E-03     164.772E-03     97.8520E+06     72.3359E+06    -15.0505E+06    -15.0432E+06     72.3285E+06     97.8520E+06     339.971E+03         70.4272
             429     12.6070E-03     64.1667E-03     291.919E-03     282.655E-03        -1.00330     291.919E-03        -1.00330     282.655E-03    -1.15299E-03     356.767E-03    -174.778E-03    -181.989E-03    -174.132E-03     348.910E-03    -174.778E-03     128.923E-03     77.1701E+06     51.7807E+06    -22.6886E+06    -22.6801E+06     51.7721E+06     77.1701E+06     432.627E+03         68.2388
             430     11.7652E-03     63.9889E-03     290.769E-03     282.750E-03        -1.00231     290.769E-03        -1.00231     282.750E-03    -1.15194E-03     355.961E-03    -174.801E-03    -181.159E-03    -173.798E-03     348.599E-03    -174.801E-03     124.284E-03     67.2355E+06     38.4403E+06    -30.2818E+06    -30.2760E+06     38.4346E+06     67.2355E+06     567.410E+03         65.8965
             431     10.9224E-03     63.8451E-03     289.719E-03     282.847E-03        -1.00141     289.719E-03        -1.00141     282.847E-03    -529.741E-06     353.519E-03    -174.812E-03    -178.707E-03    -173.300E-03     348.113E-03    -174.812E-03     106.608E-03     60.0006E+06     31.0074E+06    -37.2175E+06    -37.2120E+06     31.0019E+06     60.0006E+06     338.696E+03         63.5227
             432     10.0826E-03     63.7147E-03     288.750E-03     282.926E-03        -1.00057     288.749E-03        -1.00057     282.926E-03    -128.114E-06     352.508E-03    -174.783E-03    -177.725E-03    -173.285E-03     348.069E-03    -174.783E-03     96.4542E-03     51.4012E+06     25.5029E+06    -44.4462E+06    -44.4279E+06     25.4845E+06     51.4012E+06     808.494E+03         61.2374
             433     9.24388E-03     63.5981E-03     287.856E-03     282.998E-03    -999.803E-03     287.856E-03    -999.803E-03     282.998E-03    -805.608E-06     351.042E-03    -174.744E-03    -176.298E-03    -172.880E-03     347.624E-03    -174.744E-03     84.3865E-03     42.9160E+06     20.0222E+06    -52.2857E+06    -52.2554E+06     19.9919E+06     42.9160E+06     1.21739E+06         59.1366
             434     8.40205E-03     63.5030E-03     287.032E-03     283.047E-03    -999.070E-03     287.031E-03    -999.070E-03     283.047E-03    -855.515E-06     349.735E-03    -174.617E-03    -175.118E-03    -172.487E-03     347.216E-03    -174.729E-03     72.3523E-03     35.7640E+06     13.8946E+06    -60.6204E+06    -60.6021E+06     13.8763E+06     35.7640E+06     820.794E+03         57.2825
             435     7.56290E-03     63.4213E-03     286.281E-03     283.068E-03    -998.387E-03     286.280E-03    -998.386E-03     283.068E-03    -1.91663E-03     348.932E-03    -174.154E-03    -174.778E-03    -172.437E-03     347.168E-03    -174.731E-03     60.2720E-03     24.7325E+06    -4.03603E+06    -71.0134E+06    -71.0021E+06    -4.04728E+06     24.7325E+06     283.181E+03         55.7024
             436     6.72289E-03     63.3586E-03     285.601E-03     283.048E-03    -997.714E-03     285.600E-03    -997.713E-03     283.048E-03    -2.09421E-03     347.995E-03    -173.218E-03    -174.776E-03    -172.124E-03     346.900E-03    -174.776E-03     47.2934E-03     6.96740E+06    -46.5300E+06    -81.9175E+06    -81.9044E+06    -46.5431E+06     6.96740E+06     140.693E+03         54.3940
             437     5.88004E-03     63.3165E-03     284.969E-03     282.981E-03    -997.033E-03     284.968E-03    -997.032E-03     282.981E-03    -1.48647E-03     347.833E-03    -172.966E-03    -174.867E-03    -172.345E-03     347.212E-03    -174.867E-03     35.4854E-03    -15.1416E+06    -86.7745E+06    -105.121E+06    -92.9952E+06    -98.9007E+06    -15.1416E+06     113.821E+03         53.3351
             438     5.03865E-03     63.2859E-03     284.389E-03     282.875E-03    -996.357E-03     284.386E-03    -996.354E-03     282.875E-03    -3.13458E-03     348.569E-03    -173.654E-03    -174.916E-03    -173.353E-03     348.269E-03    -174.916E-03     24.3664E-03    -39.0397E+06    -105.101E+06    -145.339E+06    -105.119E+06    -145.320E+06    -39.0397E+06     67.2893E+03         52.4940
             439     4.20014E-03     63.2681E-03     283.810E-03     282.741E-03    -995.638E-03     283.805E-03    -995.633E-03     282.741E-03     427.685E-06     349.021E-03    -174.139E-03    -174.883E-03    -174.019E-03     348.902E-03    -174.883E-03     15.3685E-03    -63.3650E+06    -116.688E+06    -188.032E+06    -116.706E+06    -188.014E+06    -63.3650E+06     558.504E+03         51.8372
             440     3.36091E-03     63.2609E-03     283.283E-03     282.597E-03    -994.943E-03     283.278E-03    -994.938E-03     282.597E-03     145.040E-06     349.158E-03    -174.345E-03    -174.813E-03    -174.301E-03     349.114E-03    -174.813E-03     9.13266E-03    -85.9764E+06    -126.005E+06    -228.594E+06    -126.018E+06    -228.581E+06    -85.9764E+06     852.207E+03         51.3347
             441     2.51986E-03     63.2591E-03     282.850E-03     282.463E-03    -994.347E-03     282.837E-03    -994.333E-03     282.463E-03     2.74403E-03     349.270E-03    -174.403E-03    -174.867E-03    -174.555E-03     349.258E-03    -174.703E-03     4.61259E-03    -108.903E+06    -134.924E+06    -263.675E+06    -134.933E+06    -263.666E+06    -108.903E+06     950.722E+03         50.9631
             442     1.67971E-03     63.2621E-03     282.590E-03     282.283E-03    -993.881E-03     282.482E-03    -993.852E-03     282.363E-03    -1.40902E-03     349.223E-03    -174.369E-03    -174.854E-03    -174.698E-03     349.221E-03    -174.523E-03     1.90124E-03    -129.829E+06    -142.565E+06    -294.085E+06    -142.576E+06    -294.074E+06    -129.829E+06     1.16201E+06         50.7058
             443     841.335E-06     63.2661E-03     292.955E-03     271.820E-03    -993.759E-03     292.740E-03    -993.623E-03     271.900E-03     10.7146E-03     348.759E-03    -174.158E-03    -174.602E-03    -174.384E-03     348.759E-03    -174.375E-03     301.094E-06    -142.295E+06    -147.926E+06    -317.414E+06    -146.658E+06    -317.400E+06    -143.579E+06     775.963E+03         50.5509
             444     14.2895E-03     63.1983E-03     296.238E-03     287.811E-03        -1.01467     296.238E-03        -1.01467     287.811E-03    -309.508E-06     365.896E-03    -174.859E-03    -191.037E-03    -178.204E-03     353.063E-03    -174.859E-03     161.030E-03     125.123E+06     88.6836E+06    -7.65496E+06    -7.65044E+06     88.6791E+06     125.123E+06     412.806E+03         72.3239
             445     13.4484E-03     62.9114E-03     295.478E-03     288.246E-03        -1.01449     295.477E-03        -1.01449     288.246E-03    -1.62609E-03     364.937E-03    -174.800E-03    -190.138E-03    -176.841E-03     351.641E-03    -174.800E-03     164.975E-03     97.9199E+06     71.7741E+06    -14.9244E+06    -14.9148E+06     71.7646E+06     97.9199E+06     880.172E+03         70.3980
             446     12.6046E-03     62.7506E-03     294.847E-03     288.654E-03        -1.01436     294.847E-03        -1.01436     288.654E-03    -1.36079E-03     356.577E-03    -174.798E-03    -181.779E-03    -173.977E-03     348.775E-03    -174.798E-03     128.480E-03     77.8568E+06     51.8380E+06    -21.7839E+06    -21.7733E+06     51.8275E+06     77.8568E+06     872.615E+03         68.2214
             447     11.7635E-03     62.5707E-03     294.229E-03     289.002E-03        -1.01415     294.229E-03        -1.01415     289.002E-03    -1.37420E-03     356.330E-03    -174.803E-03    -181.526E-03    -174.368E-03     349.172E-03    -174.803E-03     122.572E-03     68.3392E+06     39.3857E+06    -28.9425E+06    -28.9237E+06     39.3669E+06     68.3392E+06     927.498E+03         65.8937
             448     10.9256E-03     62.4264E-03     293.692E-03     289.341E-03        -1.01399     293.692E-03        -1.01399     289.341E-03    -823.495E-06     353.731E-03    -174.768E-03    -178.963E-03    -173.695E-03     348.463E-03    -174.768E-03     105.335E-03     60.4589E+06     31.2293E+06    -36.2749E+06    -36.2562E+06     31.2106E+06     60.4589E+06     682.167E+03         63.5343
             449     10.0853E-03     62.2965E-03     293.233E-03     289.649E-03        -1.01389     293.232E-03        -1.01389     289.649E-03    -380.767E-06     352.215E-03    -174.727E-03    -177.488E-03    -173.036E-03     347.763E-03    -174.727E-03     96.5729E-03     51.4128E+06     25.3726E+06    -43.8864E+06    -43.8788E+06     25.3650E+06     51.4128E+06     341.001E+03         61.2597
             450     9.24329E-03     62.1804E-03     292.830E-03     289.935E-03        -1.01383     292.830E-03        -1.01383     289.935E-03    -1.07175E-03     350.771E-03    -174.707E-03    -176.064E-03    -172.594E-03     347.301E-03    -174.707E-03     84.9795E-03     42.4967E+06     20.0328E+06    -52.0926E+06    -52.0895E+06     20.0297E+06     42.4967E+06     149.625E+03         59.1652
             451     8.40374E-03     62.0860E-03     292.518E-03     290.184E-03        -1.01382     292.517E-03        -1.01382     290.184E-03    -1.14884E-03     349.675E-03    -174.580E-03    -175.095E-03    -172.385E-03     347.093E-03    -174.708E-03     73.2439E-03     34.7860E+06     13.4869E+06    -60.9024E+06    -60.8992E+06     13.4837E+06     34.7860E+06     295.212E+03         57.3139
             452     7.56217E-03     62.0026E-03     292.240E-03     290.383E-03        -1.01378     292.239E-03        -1.01378     290.383E-03    -2.12868E-03     348.430E-03    -173.630E-03    -174.800E-03    -171.874E-03     346.628E-03    -174.753E-03     60.8364E-03     24.7311E+06    -3.28358E+06    -70.9765E+06    -70.9610E+06    -3.29908E+06     24.7311E+06     942.382E+03         55.7337
             453     6.71979E-03     61.9445E-03     291.942E-03     290.525E-03        -1.01366     291.941E-03        -1.01366     290.525E-03    -2.27889E-03     348.040E-03    -173.201E-03    -174.839E-03    -172.093E-03     346.932E-03    -174.839E-03     47.6230E-03     6.91306E+06    -45.8967E+06    -82.4331E+06    -82.4154E+06    -45.9143E+06     6.91306E+06     767.617E+03         54.4233
             454     5.87987E-03     61.8984E-03     291.714E-03     290.607E-03        -1.01354     291.714E-03        -1.01354     290.607E-03    -1.80258E-03     348.622E-03    -173.743E-03    -174.879E-03    -173.128E-03     348.007E-03    -174.879E-03     35.2161E-03    -15.7353E+06    -87.3994E+06    -106.058E+06    -94.0088E+06    -99.4483E+06    -15.7353E+06     650.827E+03         53.3621
             455     5.04162E-03     61.8673E-03     291.513E-03     290.627E-03        -1.01337     291.510E-03        -1.01337     290.627E-03    -3.44532E-03     348.484E-03    -173.613E-03    -174.871E-03    -173.324E-03     348.195E-03    -174.871E-03     24.0796E-03    -39.3477E+06    -105.471E+06    -145.285E+06    -105.505E+06    -145.251E+06    -39.3477E+06     1.01814E+06         52.5186
             456     4.19995E-03     61.8516E-03     291.276E-03     290.590E-03        -1.01310     291.271E-03        -1.01310     290.590E-03     152.320E-06     348.539E-03    -173.652E-03    -174.887E-03    -173.522E-03     348.409E-03    -174.887E-03     16.0816E-03    -63.2845E+06    -116.270E+06    -187.295E+06    -116.280E+06    -187.284E+06    -63.2845E+06     583.028E+03         51.8591
             457     3.35882E-03     61.8428E-03     291.014E-03     290.511E-03        -1.01275     291.009E-03        -1.01274     290.511E-03    -156.969E-06     349.076E-03    -174.182E-03    -174.894E-03    -174.134E-03     349.028E-03    -174.894E-03     9.35310E-03    -87.5304E+06    -126.644E+06    -229.053E+06    -126.645E+06    -229.052E+06    -87.5304E+06    -68.5220E+03         51.3545
             458     2.51975E-03     61.8426E-03     290.747E-03     290.407E-03        -1.01237     290.734E-03        -1.01236     290.407E-03     2.53027E-03     349.297E-03    -174.428E-03    -174.869E-03    -174.418E-03     349.287E-03    -174.869E-03     4.04968E-03    -110.055E+06    -135.105E+06    -263.819E+06    -135.110E+06    -263.814E+06    -110.055E+06    -4.02130E+03         50.9815
             459     1.67969E-03     61.8443E-03     290.508E-03     290.244E-03        -1.01198     290.401E-03        -1.01195     290.324E-03    -1.39449E-03     349.468E-03    -174.449E-03    -175.019E-03    -174.616E-03     349.467E-03    -174.851E-03     1.15588E-03    -128.853E+06    -141.312E+06    -292.692E+06    -141.322E+06    -292.682E+06    -128.853E+06     689.482E+03         50.7234
             460     839.317E-06     61.8480E-03     306.019E-03     274.693E-03        -1.01193     305.817E-03        -1.01181     274.772E-03     10.0497E-03     349.617E-03    -174.405E-03    -175.212E-03    -175.009E-03     349.617E-03    -174.608E-03     13.5218E-06    -142.418E+06    -147.535E+06    -316.107E+06    -146.753E+06    -316.091E+06    -143.216E+06     655.649E+03         50.5680
             461     14.2885E-03     61.7803E-03     298.154E-03     293.599E-03        -1.02442     298.154E-03        -1.02442     293.599E-03    -375.915E-06     365.640E-03    -174.895E-03    -190.745E-03    -177.895E-03     352.790E-03    -174.895E-03     160.930E-03     124.332E+06     87.9544E+06    -8.02562E+06    -8.02338E+06     87.9521E+06     124.332E+06    -151.826E+03         72.2857
             462     13.4470E-03     61.4937E-03     297.829E-03     294.303E-03        -1.02489     297.828E-03        -1.02489     294.303E-03    -1.86689E-03     365.661E-03    -174.826E-03    -190.835E-03    -177.531E-03     352.357E-03    -174.826E-03     165.044E-03     97.2509E+06     70.9771E+06    -15.3994E+06    -15.3922E+06     70.9699E+06     97.2509E+06     583.162E+03         70.3685
             463     12.6071E-03     61.3360E-03     297.704E-03     294.981E-03        -1.02552     297.703E-03        -1.02552     294.981E-03    -1.61598E-03     357.781E-03    -174.762E-03    -183.019E-03    -175.225E-03     349.987E-03    -174.762E-03     128.670E-03     77.7407E+06     51.5739E+06    -21.9160E+06    -21.9072E+06     51.5652E+06     77.7407E+06      784.45E+03         68.2062
             464     11.7674E-03     61.1495E-03     297.746E-03     295.586E-03        -1.02620     297.746E-03        -1.02620     295.586E-03    -1.62521E-03     356.335E-03    -174.722E-03    -181.613E-03    -174.501E-03     349.223E-03    -174.722E-03     122.114E-03     69.9284E+06     39.8413E+06    -27.8675E+06    -27.8507E+06     39.8245E+06     69.9284E+06     848.084E+03         65.8938
             465     10.9250E-03     61.0108E-03     297.830E-03     296.161E-03        -1.02691     297.829E-03        -1.02691     296.161E-03    -1.02761E-03     352.945E-03    -174.706E-03    -178.239E-03    -172.930E-03     347.637E-03    -174.706E-03     105.660E-03     61.9295E+06     32.0826E+06    -34.8815E+06    -34.8511E+06     32.0522E+06     61.9295E+06     1.26816E+06         63.5466
             466     10.0835E-03     60.8773E-03     297.936E-03     296.663E-03        -1.02756     297.907E-03        -1.02756     296.691E-03    -564.007E-06     351.652E-03    -174.715E-03    -176.937E-03    -172.394E-03     347.109E-03    -174.715E-03     97.3772E-03     51.4092E+06     26.3759E+06    -42.9584E+06    -42.9340E+06     26.3515E+06     51.4092E+06     1.05828E+06         61.2806
             467     9.24349E-03     60.7653E-03     298.120E-03     297.123E-03        -1.02826     298.055E-03        -1.02826     297.188E-03    -1.29678E-03     350.506E-03    -174.743E-03    -175.764E-03    -172.225E-03     346.968E-03    -174.743E-03     85.8655E-03     41.7878E+06     20.1343E+06    -51.8518E+06    -51.8335E+06     20.1160E+06     41.7878E+06     731.793E+03         59.1920
             468     8.40184E-03     60.6655E-03     298.373E-03     297.502E-03        -1.02895     298.244E-03        -1.02895     297.630E-03    -1.36658E-03     349.599E-03    -174.516E-03    -175.083E-03    -172.170E-03     346.952E-03    -174.782E-03     74.0267E-03     33.6406E+06     12.4449E+06    -61.9463E+06    -61.9317E+06     12.4303E+06     33.6406E+06     785.076E+03         57.3438
             469     7.56152E-03     60.5890E-03     298.594E-03     297.839E-03        -1.02956     298.427E-03        -1.02956     298.005E-03    -2.35042E-03     348.893E-03    -173.961E-03    -174.932E-03    -172.298E-03     347.124E-03    -174.826E-03     60.3315E-03     24.8217E+06    -3.21502E+06    -71.7812E+06    -71.7665E+06    -3.22969E+06     24.8217E+06     930.702E+03         55.7644
             470     6.72067E-03     60.5263E-03     298.723E-03     298.186E-03        -1.03008     298.600E-03        -1.03008     298.307E-03    -2.49291E-03     348.677E-03    -173.723E-03    -174.954E-03    -172.746E-03     347.594E-03    -174.848E-03     47.0966E-03     7.17189E+06    -45.0291E+06    -82.6976E+06    -82.6137E+06    -45.1130E+06     7.17189E+06     1.12740E+06         54.4533
             471     5.88166E-03     60.4784E-03     298.843E-03     298.436E-03        -1.03049     298.747E-03        -1.03049     298.531E-03    -2.01060E-03     348.242E-03    -173.370E-03    -174.872E-03    -172.759E-03     347.631E-03    -174.872E-03     35.2695E-03    -16.1552E+06    -87.4560E+06    -106.663E+06    -94.3251E+06    -99.7935E+06    -16.1552E+06     989.253E+03         53.3898
             472     5.03945E-03     60.4524E-03     298.923E-03     298.592E-03        -1.03076     298.835E-03        -1.03076     298.677E-03    -3.48898E-03     348.350E-03    -173.427E-03    -174.924E-03    -173.123E-03     348.034E-03    -174.912E-03     25.2401E-03    -38.9974E+06    -104.957E+06    -144.312E+06    -104.981E+06    -144.288E+06    -38.9974E+06     711.340E+03         52.5432
             473     4.19913E-03     60.4341E-03     298.975E-03     298.683E-03        -1.03091     298.896E-03        -1.03091     298.757E-03     175.411E-06     348.947E-03    -174.024E-03    -174.923E-03    -173.904E-03     348.814E-03    -174.911E-03     15.9178E-03    -63.0932E+06    -115.269E+06    -185.923E+06    -115.274E+06    -185.919E+06    -63.0932E+06     318.309E+03         51.8813
             474     3.36002E-03     60.4252E-03     298.964E-03     298.710E-03        -1.03094     298.886E-03        -1.03093     298.783E-03    -109.310E-06     348.986E-03    -174.091E-03    -174.894E-03    -174.054E-03     348.948E-03    -174.894E-03     8.32040E-03    -87.3802E+06    -125.191E+06    -228.149E+06    -125.192E+06    -228.147E+06    -87.3802E+06    -265.061E+03         51.3748
             475     2.51951E-03     60.4246E-03     298.924E-03     298.728E-03        -1.03092     298.876E-03        -1.03091     298.764E-03     2.38671E-03     349.171E-03    -174.249E-03    -174.922E-03    -174.240E-03     349.162E-03    -174.922E-03     3.85519E-03    -110.300E+06    -134.051E+06    -264.939E+06    -134.053E+06    -264.936E+06    -110.300E+06    -575.217E+03         51.0004
             476     1.67972E-03     60.4275E-03     298.893E-03     298.690E-03        -1.03080     298.869E-03        -1.03078     298.690E-03    -1.23035E-03     349.540E-03    -174.535E-03    -175.005E-03    -174.534E-03     349.539E-03    -175.005E-03     1.26848E-03    -128.992E+06    -141.273E+06    -293.313E+06    -141.282E+06    -293.303E+06    -128.992E+06    -183.273E+03         50.7414
             477     839.491E-06     60.4310E-03     318.410E-03     278.979E-03        -1.03057     318.307E-03        -1.03047     278.979E-03     9.37829E-03     350.045E-03    -174.535E-03    -175.509E-03    -175.288E-03     350.044E-03    -174.756E-03    -264.038E-06    -141.110E+06    -146.169E+06    -313.761E+06    -145.397E+06    -313.735E+06    -141.908E+06     497.853E+03         50.5856
             478     14.2882E-03     60.3647E-03     300.870E-03     298.712E-03        -1.03404     299.996E-03        -1.03404     299.585E-03    -398.625E-06     365.407E-03    -174.909E-03    -190.498E-03    -177.799E-03     352.708E-03    -174.909E-03     160.001E-03     124.165E+06     87.6402E+06    -8.01051E+06    -8.00945E+06     87.6392E+06     124.165E+06    -155.932E+03         72.2488
             479     13.4461E-03     60.0758E-03     301.368E-03     299.417E-03        -1.03534     300.228E-03        -1.03534     300.556E-03    -2.08881E-03     366.010E-03    -174.824E-03    -191.186E-03    -177.971E-03     352.795E-03    -174.824E-03     164.794E-03     96.9428E+06     70.8958E+06    -15.7229E+06    -15.7186E+06     70.8916E+06     96.9428E+06     144.513E+03         70.3403
             480     12.6067E-03     59.9138E-03     301.948E-03     300.236E-03        -1.03679     300.692E-03        -1.03679     301.491E-03    -2.02314E-03     358.031E-03    -174.741E-03    -183.289E-03    -175.399E-03     350.140E-03    -174.741E-03     129.511E-03     77.6926E+06     51.7357E+06    -22.1395E+06    -22.1326E+06     51.7288E+06     77.6926E+06     470.967E+03         68.1905
             481     11.7667E-03     59.7328E-03     302.622E-03     301.020E-03        -1.03830     301.304E-03        -1.03830     302.336E-03    -2.01415E-03     356.118E-03    -174.712E-03    -181.406E-03    -174.122E-03     348.834E-03    -174.712E-03     123.594E-03     69.1380E+06     38.6251E+06    -28.8364E+06    -28.8322E+06     38.6209E+06     69.1380E+06     258.790E+03         65.8912
             482     10.9260E-03     59.5950E-03     303.289E-03     301.840E-03        -1.03984     301.989E-03        -1.03984     303.139E-03    -1.36231E-03     352.985E-03    -174.720E-03    -178.265E-03    -172.839E-03     347.558E-03    -174.720E-03     106.791E-03     61.5039E+06     31.3015E+06    -35.7955E+06    -35.7805E+06     31.2864E+06     61.5039E+06     564.000E+03         63.5561
             483     10.0845E-03     59.4609E-03     303.921E-03     302.683E-03        -1.04138     302.721E-03        -1.04138     303.883E-03    -907.645E-06     351.666E-03    -174.738E-03    -176.928E-03    -172.406E-03     347.144E-03    -174.738E-03     97.1390E-03     52.1561E+06     26.6573E+06    -43.2407E+06    -43.2076E+06     26.6241E+06     52.1561E+06     1.44768E+06         61.3005
             484     9.24206E-03     59.3482E-03     304.574E-03     303.450E-03        -1.04286     303.450E-03        -1.04286     304.574E-03    -1.59264E-03     350.229E-03    -174.753E-03    -175.476E-03    -171.979E-03     346.758E-03    -174.779E-03     84.9809E-03     43.0674E+06     20.5866E+06    -51.6769E+06    -51.6320E+06     20.5417E+06     43.0674E+06     1.79011E+06         59.2188
             485     8.40134E-03     59.2489E-03     305.195E-03     304.131E-03        -1.04423     304.130E-03        -1.04423     305.195E-03    -1.58641E-03     349.479E-03    -174.565E-03    -174.914E-03    -172.068E-03     346.904E-03    -174.835E-03     72.9751E-03     35.3986E+06     13.8360E+06    -60.6444E+06    -60.6107E+06     13.8023E+06     35.3986E+06     1.51597E+06         57.3740
             486     7.56030E-03     59.1702E-03     305.735E-03     304.790E-03        -1.04550     304.788E-03        -1.04550     305.735E-03    -2.53527E-03     349.305E-03    -174.339E-03    -174.966E-03    -172.682E-03     347.542E-03    -174.860E-03     60.3699E-03     24.5589E+06    -3.75029E+06     -71.408E+06     -71.394E+06    -3.76429E+06     24.5589E+06     967.654E+03         55.7956
             487     6.72243E-03     59.1060E-03     306.178E-03     305.423E-03        -1.04664     305.422E-03        -1.04664     306.178E-03    -2.56373E-03     348.695E-03    -173.720E-03    -174.975E-03    -172.713E-03     347.582E-03    -174.869E-03     47.7230E-03     7.48369E+06    -45.1926E+06    -82.1822E+06    -82.0954E+06    -45.2794E+06     7.48369E+06     1.09173E+06         54.4834
             488     5.87946E-03     59.0659E-03     306.520E-03     305.924E-03        -1.04753     305.923E-03        -1.04753     306.520E-03    -1.99956E-03     348.130E-03    -173.217E-03    -174.913E-03    -172.606E-03     347.519E-03    -174.913E-03     35.1947E-03    -14.6034E+06    -85.9761E+06    -105.083E+06    -93.0489E+06    -98.0096E+06    -14.6034E+06     959.729E+03         53.4174
             489     5.03873E-03     59.0333E-03     306.782E-03     306.266E-03        -1.04818     306.263E-03        -1.04818     306.782E-03    -3.45362E-03     348.612E-03    -173.655E-03    -174.958E-03    -173.362E-03     348.307E-03    -174.945E-03     24.7781E-03    -38.6091E+06    -104.293E+06    -143.721E+06    -104.304E+06    -143.709E+06    -38.6091E+06     214.218E+03         52.5681
             490     4.20079E-03     59.0142E-03     306.971E-03     306.604E-03        -1.04872     306.599E-03        -1.04872     306.971E-03     78.8592E-06     349.024E-03    -174.093E-03    -174.931E-03    -173.976E-03     348.894E-03    -174.918E-03     15.8601E-03    -63.2865E+06    -114.457E+06    -185.406E+06    -114.459E+06    -185.404E+06    -63.2865E+06    -112.198E+03         51.9038
             491     3.36015E-03     59.0098E-03     307.086E-03     306.868E-03        -1.04909     306.864E-03        -1.04909     307.086E-03     131.599E-06     349.057E-03    -174.167E-03    -174.890E-03    -174.125E-03     349.015E-03    -174.890E-03     8.86114E-03    -86.8830E+06    -123.957E+06    -227.574E+06    -123.958E+06    -227.573E+06    -86.8830E+06    -36.2587E+03         51.3953
             492     2.51933E-03     59.0073E-03     307.166E-03     306.996E-03        -1.04930     307.003E-03        -1.04929     307.149E-03     2.49003E-03     349.133E-03    -174.213E-03    -174.920E-03    -174.204E-03     349.123E-03    -174.920E-03     3.77037E-03    -109.060E+06    -133.027E+06    -265.395E+06    -133.029E+06    -265.393E+06    -109.060E+06     125.751E+03         51.0195
             493     1.67887E-03     59.0102E-03     307.261E-03     307.054E-03        -1.04945     307.112E-03        -1.04943     307.183E-03    -833.828E-06     349.513E-03    -174.501E-03    -175.012E-03    -174.500E-03     349.512E-03    -175.012E-03     1.11006E-03    -129.372E+06    -140.586E+06    -293.748E+06    -140.592E+06    -293.742E+06    -129.372E+06    -462.613E+03         50.7596
             494     839.838E-06     59.0118E-03     330.204E-03     284.271E-03        -1.04965     330.046E-03        -1.04957     284.342E-03     8.84601E-03     350.094E-03    -174.751E-03    -175.343E-03    -175.125E-03     350.092E-03    -174.967E-03     540.072E-06    -141.174E+06    -144.695E+06    -313.413E+06    -144.358E+06    -313.361E+06    -141.564E+06    -1.02536E+06         50.6033
             495     14.2885E-03     58.9457E-03     305.635E-03     301.674E-03        -1.04336     301.674E-03        -1.04336     305.635E-03    -499.658E-06     365.971E-03    -174.885E-03    -191.086E-03    -178.443E-03     353.328E-03    -174.885E-03     159.916E-03     124.803E+06     87.7578E+06    -7.70718E+06    -7.70636E+06     87.7569E+06     124.803E+06     210.617E+03         72.2137
             496     13.4489E-03     58.6595E-03     306.854E-03     302.654E-03        -1.04562     302.653E-03        -1.04561     306.854E-03    -2.35555E-03     365.739E-03    -174.786E-03    -190.952E-03    -177.763E-03     352.550E-03    -174.786E-03     164.777E-03     97.8201E+06     71.5836E+06    -15.4105E+06    -15.4069E+06     71.5801E+06     97.8201E+06     214.507E+03         70.3137
             497     12.6070E-03     58.4941E-03     308.017E-03     303.782E-03        -1.04801     303.781E-03        -1.04801     308.017E-03    -2.24893E-03     356.679E-03    -174.749E-03    -181.930E-03    -174.056E-03     348.805E-03    -174.749E-03     129.085E-03     77.3467E+06     51.6718E+06    -22.6374E+06    -22.6307E+06     51.6651E+06     77.3467E+06     156.300E+03         68.1739
             498     11.7646E-03     58.3179E-03     309.077E-03     304.921E-03        -1.05030     304.920E-03        -1.05030     309.077E-03    -2.15777E-03     355.691E-03    -174.782E-03    -180.909E-03    -173.628E-03     348.411E-03    -174.782E-03     123.528E-03     68.1672E+06     38.2379E+06    -29.4403E+06    -29.4352E+06     38.2328E+06     68.1672E+06     15.6745E+03         65.8858
             499     10.9235E-03     58.1741E-03     310.086E-03     306.169E-03        -1.05265     306.168E-03        -1.05265     310.086E-03    -1.46338E-03     353.551E-03    -174.795E-03    -178.756E-03    -173.293E-03     348.088E-03    -174.795E-03     107.241E-03     60.1115E+06     30.0753E+06    -37.0130E+06    -37.0090E+06     30.0714E+06     60.1115E+06     60.9816E+03         63.5634
             500     10.0837E-03     58.0458E-03     311.020E-03     307.494E-03        -1.05499     307.493E-03        -1.05499     311.020E-03    -894.534E-06     352.321E-03    -174.785E-03    -177.536E-03    -172.967E-03     347.751E-03    -174.785E-03     97.8069E-03     51.9709E+06     25.3466E+06    -44.6588E+06    -44.6452E+06     25.3330E+06     51.9709E+06     590.164E+03         61.3194
             501     9.24382E-03     57.9296E-03     311.883E-03     308.774E-03        -1.05722     308.773E-03        -1.05722     311.883E-03    -1.45382E-03     350.806E-03    -174.756E-03    -176.049E-03    -172.537E-03     347.320E-03    -174.783E-03     85.1791E-03     44.4242E+06     20.7623E+06    -51.9718E+06    -51.9412E+06     20.7318E+06     44.4242E+06     1.30973E+06         59.2461
             502     8.40220E-03     57.8342E-03     312.660E-03     309.998E-03        -1.05930     309.997E-03        -1.05930     312.660E-03    -1.43209E-03     349.516E-03    -174.436E-03    -175.079E-03    -172.153E-03     346.955E-03    -174.802E-03     72.8714E-03     35.9634E+06     14.1170E+06    -60.5513E+06    -60.5140E+06     14.0796E+06     35.9634E+06     1.58896E+06         57.4055
             503     7.56196E-03     57.7498E-03     313.337E-03     311.132E-03        -1.06119     311.131E-03        -1.06119     313.337E-03    -2.39130E-03     348.474E-03    -173.607E-03    -174.868E-03    -171.837E-03     346.705E-03    -174.868E-03     60.3039E-03     25.1805E+06    -2.77395E+06    -71.1369E+06    -71.0985E+06    -2.81230E+06     25.1805E+06     1.54324E+06         55.8273
             504     6.71857E-03     57.6913E-03     313.908E-03     312.063E-03        -1.06277     312.062E-03        -1.06277     313.908E-03    -2.45862E-03     348.487E-03    -173.543E-03    -174.944E-03    -172.444E-03     347.388E-03    -174.944E-03     47.4531E-03     7.24927E+06    -44.8834E+06    -82.5559E+06    -82.5237E+06    -44.9156E+06     7.24927E+06     953.208E+03         54.5131
             505     5.88034E-03     57.6456E-03     314.377E-03     312.871E-03        -1.06410     312.870E-03        -1.06410     314.377E-03    -2.01384E-03     349.138E-03    -174.201E-03    -174.937E-03    -173.589E-03     348.526E-03    -174.937E-03     35.1908E-03    -15.2411E+06    -86.3320E+06    -104.323E+06    -93.4782E+06    -97.1765E+06    -15.2411E+06     606.419E+03         53.4451
             506     5.04186E-03     57.6164E-03     314.752E-03     313.586E-03        -1.06524     313.583E-03        -1.06524     314.752E-03    -3.47395E-03     348.590E-03    -173.693E-03    -174.897E-03    -173.398E-03     348.295E-03    -174.897E-03     24.4153E-03    -38.2192E+06    -103.867E+06    -142.425E+06    -103.884E+06    -142.408E+06    -38.2192E+06     329.033E+03         52.5935
             507     4.19816E-03     57.5983E-03     315.039E-03     314.187E-03        -1.06617     314.183E-03        -1.06616     315.039E-03    -133.483E-06     348.222E-03    -173.269E-03    -174.953E-03    -173.139E-03     348.092E-03    -174.953E-03     15.9233E-03    -62.9227E+06    -114.824E+06    -185.605E+06    -114.826E+06    -185.603E+06    -62.9227E+06    -138.373E+03         51.9264
             508     3.35867E-03     57.5903E-03     315.241E-03     314.716E-03        -1.06689     314.712E-03        -1.06689     315.241E-03    -31.9013E-06     349.117E-03    -174.081E-03    -175.036E-03    -174.036E-03     349.072E-03    -175.036E-03     9.31638E-03    -87.8869E+06    -125.752E+06    -228.559E+06    -125.755E+06    -228.556E+06    -87.8869E+06     319.159E+03         51.4156
             509     2.52027E-03     57.5907E-03     315.369E-03     315.073E-03        -1.06741     315.065E-03        -1.06740     315.369E-03     2.20913E-03     349.777E-03    -174.628E-03    -175.149E-03    -174.747E-03     349.764E-03    -175.017E-03     4.59314E-03    -109.837E+06    -134.211E+06    -264.871E+06    -134.216E+06    -264.865E+06    -109.837E+06     379.942E+03         51.0384
             510     1.68024E-03     57.5929E-03     315.474E-03     315.237E-03        -1.06767     315.221E-03        -1.06766     315.474E-03    -699.100E-06     349.835E-03    -174.579E-03    -175.257E-03    -174.931E-03     349.833E-03    -174.902E-03     1.33065E-03    -128.480E+06    -140.243E+06    -292.039E+06    -140.247E+06    -292.035E+06    -128.480E+06    -184.907E+03         50.7777
             511     839.044E-06     57.5945E-03     340.277E-03     290.831E-03        -1.06814     340.091E-03        -1.06807     290.954E-03     7.37865E-03     349.593E-03    -174.546E-03    -175.046E-03    -174.766E-03     349.590E-03    -174.824E-03    -414.703E-06    -142.997E+06    -146.249E+06    -315.424E+06    -145.885E+06    -315.380E+06    -143.405E+06    -776.255E+03         50.6209
             512     14.2892E-03     57.5286E-03     311.574E-03     303.337E-03        -1.05223     303.337E-03        -1.05223     311.574E-03    -370.511E-06     366.089E-03    -174.867E-03    -191.223E-03    -178.427E-03     353.293E-03    -174.867E-03     160.789E-03     124.942E+06     87.2623E+06    -8.01776E+06    -8.01557E+06     87.2601E+06     124.942E+06     318.048E+03         72.1787
             513     13.4482E-03     57.2386E-03     312.999E-03     304.986E-03        -1.05554     304.985E-03        -1.05554     312.999E-03    -2.23113E-03     365.476E-03    -174.783E-03    -190.693E-03    -177.387E-03     352.171E-03    -174.783E-03     165.240E-03     98.0595E+06     71.5742E+06    -15.2749E+06    -15.2696E+06     71.5690E+06     98.0595E+06     594.188E+03         70.2860
             514     12.6065E-03     57.0826E-03     314.353E-03     306.708E-03        -1.05880     306.707E-03        -1.05880     314.353E-03    -1.94637E-03     356.471E-03    -174.769E-03    -181.702E-03    -173.799E-03     348.568E-03    -174.769E-03     129.241E-03     77.6680E+06     52.2099E+06    -22.0584E+06    -22.0465E+06     52.1980E+06     77.6680E+06     553.997E+03         68.1571
             515     11.7646E-03     56.8980E-03     315.597E-03     308.493E-03        -1.06197     308.493E-03        -1.06197     315.597E-03    -1.82173E-03     355.588E-03    -174.817E-03    -180.771E-03    -173.496E-03     348.313E-03    -174.817E-03     123.362E-03     68.0464E+06     38.6624E+06    -29.3709E+06    -29.3619E+06     38.6533E+06     68.0464E+06     261.714E+03         65.8815
             516     10.9240E-03     56.7587E-03     316.776E-03     310.302E-03        -1.06508     310.302E-03        -1.06508     316.776E-03    -1.13804E-03     353.325E-03    -174.845E-03    -178.480E-03    -173.106E-03     347.951E-03    -174.845E-03     106.336E-03     59.9255E+06     30.0296E+06    -37.1094E+06    -37.1047E+06     30.0249E+06     59.9255E+06     216.561E+03         63.5714
             517     10.0825E-03     56.6253E-03     317.869E-03     312.082E-03        -1.06807     312.082E-03        -1.06807     317.869E-03    -603.018E-06     352.401E-03    -174.840E-03    -177.561E-03    -173.034E-03     347.875E-03    -174.840E-03     97.3683E-03     51.5756E+06     25.0149E+06    -44.8049E+06    -44.7983E+06     25.0082E+06     51.5756E+06          -490.5         61.3378
             518     9.24191E-03     56.5127E-03     318.880E-03     313.867E-03        -1.07097     313.867E-03        -1.07097     318.880E-03    -1.15535E-03     351.222E-03    -174.822E-03    -176.400E-03    -172.876E-03     347.697E-03    -174.822E-03     85.7661E-03     43.2867E+06     19.9897E+06    -52.8576E+06    -52.8512E+06     19.9833E+06     43.2867E+06     62.2718E+03         59.2721
             519     8.40289E-03     56.4146E-03     319.791E-03     315.540E-03        -1.07364     315.539E-03        -1.07364     319.791E-03    -1.13077E-03     349.867E-03    -174.538E-03    -175.329E-03    -172.429E-03     347.247E-03    -174.818E-03     73.7249E-03     35.1025E+06     13.0411E+06    -61.7584E+06    -61.7384E+06     13.0211E+06     35.1025E+06     936.349E+03         57.4359
             520     7.56065E-03     56.3363E-03     320.597E-03     317.005E-03        -1.07601     317.004E-03        -1.07600     320.597E-03    -2.16900E-03     348.693E-03    -173.832E-03    -174.861E-03    -172.069E-03     346.931E-03    -174.861E-03     60.1509E-03     25.9605E+06    -1.86265E+06    -70.7289E+06    -70.6950E+06    -1.89653E+06     25.9605E+06     1.37061E+06         55.8589
             521     6.72064E-03     56.2732E-03     321.300E-03     318.315E-03        -1.07811     318.314E-03        -1.07811     321.300E-03    -2.30336E-03     348.455E-03    -173.537E-03    -174.919E-03    -172.460E-03     347.378E-03    -174.919E-03     46.9982E-03     7.89686E+06    -43.4350E+06    -81.2105E+06    -81.1727E+06    -43.4728E+06     7.89686E+06     899.563E+03         54.5436
             522     5.87981E-03     56.2253E-03     321.890E-03     319.532E-03        -1.07999     319.531E-03        -1.07999     321.890E-03    -1.96899E-03     348.654E-03    -173.709E-03    -174.946E-03    -173.098E-03     348.044E-03    -174.946E-03     35.1880E-03    -15.1193E+06    -85.6940E+06    -103.737E+06    -92.5139E+06    -96.9173E+06    -15.1193E+06     381.778E+03         53.4729
             523     5.03908E-03     56.1993E-03     322.363E-03     320.598E-03        -1.08158     320.595E-03        -1.08158     322.363E-03    -3.30116E-03     348.728E-03    -173.789E-03    -174.939E-03    -173.491E-03     348.431E-03    -174.939E-03     24.4590E-03    -37.9236E+06    -103.937E+06    -142.031E+06    -103.948E+06    -142.020E+06    -37.9236E+06     439.970E+03         52.6183
             524     4.20103E-03     56.1827E-03     322.733E-03     321.448E-03        -1.08282     321.445E-03        -1.08282     322.733E-03     3.35596E-06     348.586E-03    -173.627E-03    -174.959E-03    -173.502E-03     348.461E-03    -174.959E-03     15.6906E-03    -62.0992E+06    -115.415E+06    -186.181E+06    -115.427E+06    -186.168E+06    -62.0992E+06     691.584E+03         51.9488
             525     3.35864E-03     56.1732E-03     323.025E-03     322.107E-03        -1.08380     322.104E-03        -1.08380     323.025E-03     168.894E-06     348.759E-03    -173.704E-03    -175.054E-03    -173.664E-03     348.718E-03    -175.054E-03     8.53955E-03    -86.2925E+06    -125.152E+06    -228.134E+06    -125.163E+06    -228.123E+06    -86.2925E+06     516.033E+03         51.4360
             526     2.51729E-03     56.1714E-03     323.245E-03     322.715E-03        -1.08466     322.708E-03        -1.08465     323.245E-03     2.09048E-03     349.684E-03    -174.428E-03    -175.256E-03    -174.550E-03     349.674E-03    -175.123E-03     4.07113E-03    -110.318E+06    -134.374E+06    -263.374E+06    -134.378E+06    -263.370E+06    -110.318E+06    -105.482E+03         51.0572
             527     1.67922E-03     56.1739E-03     323.381E-03     323.179E-03        -1.08523     323.166E-03        -1.08522     323.381E-03    -383.164E-06     350.225E-03    -174.851E-03    -175.374E-03    -175.203E-03     350.222E-03    -175.019E-03     1.67984E-03    -130.243E+06    -142.463E+06    -292.670E+06    -142.464E+06    -292.669E+06    -130.243E+06    -267.838E+03         50.7955
             528     841.928E-06     56.1775E-03     348.717E-03     298.206E-03        -1.08559     348.619E-03        -1.08555     298.261E-03     5.81648E-03     349.753E-03    -174.271E-03    -175.482E-03    -175.362E-03     349.749E-03    -174.387E-03     61.4023E-06    -142.759E+06    -146.911E+06    -315.266E+06    -146.906E+06    -315.253E+06    -142.778E+06     1.03040E+06         50.6382
             529     14.2891E-03     56.1096E-03     317.199E-03     304.910E-03        -1.06077     304.909E-03        -1.06077     317.199E-03    -307.071E-06     365.586E-03    -174.876E-03    -190.711E-03    -177.867E-03     352.742E-03    -174.876E-03     161.078E-03     124.950E+06     86.5231E+06    -7.94254E+06    -7.93896E+06     86.5195E+06     124.950E+06     431.448E+03         72.1432
             530     13.4471E-03     55.8234E-03     318.788E-03     307.152E-03        -1.06498     307.151E-03        -1.06498     318.788E-03    -1.78827E-03     365.194E-03    -174.820E-03    -190.374E-03    -177.084E-03     351.903E-03    -174.820E-03     164.994E-03     98.2809E+06     71.0878E+06    -14.6294E+06    -14.6265E+06     71.0849E+06     98.2809E+06     469.294E+03         70.2573
             531     12.6059E-03     55.6636E-03     320.298E-03     309.414E-03        -1.06898     309.414E-03        -1.06898     320.298E-03    -1.51215E-03     357.083E-03    -174.795E-03    -182.288E-03    -174.452E-03     349.247E-03    -174.795E-03     128.866E-03     78.6383E+06     52.7546E+06    -21.0413E+06    -21.0303E+06     52.7436E+06     78.6383E+06     788.466E+03         68.1401
             532     11.7652E-03     55.4830E-03     321.692E-03     311.760E-03        -1.07289     311.760E-03        -1.07289     321.692E-03    -1.45226E-03     355.775E-03    -174.811E-03    -180.964E-03    -173.736E-03     348.547E-03    -174.811E-03     123.079E-03     68.6384E+06     38.7591E+06    -28.6742E+06    -28.6452E+06     38.7301E+06     68.6384E+06     1.07998E+06         65.8786
             533     10.9233E-03     55.3398E-03     323.013E-03     314.093E-03        -1.07670     314.093E-03        -1.07670     323.013E-03    -800.933E-06     353.038E-03    -174.840E-03    -178.198E-03    -172.806E-03     347.646E-03    -174.840E-03     106.450E-03     60.4040E+06     30.5166E+06    -36.0355E+06    -36.0127E+06     30.4938E+06     60.4040E+06     807.615E+03         63.5809
             534     10.0832E-03     55.2089E-03     324.240E-03     316.351E-03        -1.08031     316.351E-03        -1.08031     324.240E-03    -334.435E-06     352.119E-03    -174.857E-03    -177.263E-03    -172.741E-03     347.598E-03    -174.857E-03     97.2516E-03     51.3006E+06     25.8488E+06    -43.8530E+06    -43.8445E+06     25.8403E+06     51.3006E+06      292.37E+03         61.3569
             535     9.24226E-03     55.0939E-03     325.379E-03     318.506E-03        -1.08372     318.506E-03        -1.08372     325.379E-03    -1.02332E-03     351.017E-03    -174.860E-03    -176.157E-03    -172.669E-03     347.529E-03    -174.860E-03     85.2650E-03     41.9994E+06     19.7314E+06    -52.9801E+06    -52.9748E+06     19.7261E+06     41.9994E+06    -11.9878E+03         59.2978
             536     8.40032E-03     54.9972E-03     326.415E-03     320.551E-03        -1.08691     320.550E-03        -1.08691     326.415E-03    -1.01930E-03     350.219E-03    -174.803E-03    -175.416E-03    -172.821E-03     347.673E-03    -174.851E-03     72.6812E-03     34.3056E+06     12.5319E+06    -62.2447E+06    -62.2348E+06     12.5220E+06     34.3056E+06    -146.331E+03         57.4656
             537     7.56163E-03     54.9177E-03     327.339E-03     322.460E-03        -1.08985     322.459E-03        -1.08985     327.339E-03    -1.97888E-03     349.471E-03    -174.505E-03    -174.966E-03    -172.925E-03     347.750E-03    -174.825E-03     59.6159E-03     25.3486E+06    -2.27130E+06    -71.7676E+06    -71.7568E+06    -2.28208E+06     25.3486E+06    -11.0244E+03         55.8904
             538     6.72162E-03     54.8549E-03     328.143E-03     324.196E-03        -1.09249     324.195E-03        -1.09249     328.143E-03    -2.00988E-03     348.337E-03    -173.508E-03    -174.829E-03    -172.441E-03     347.270E-03    -174.829E-03     46.7232E-03     8.03328E+06    -42.9224E+06    -82.4174E+06    -82.3725E+06    -42.9673E+06     8.03328E+06     713.174E+03         54.5744
             539     5.88009E-03     54.8111E-03     328.823E-03     325.748E-03        -1.09480     325.747E-03        -1.09480     328.823E-03    -1.75004E-03     347.652E-03    -172.737E-03    -174.916E-03    -172.140E-03     347.056E-03    -174.916E-03     34.7844E-03    -14.9848E+06    -85.6308E+06    -104.055E+06    -93.5172E+06    -96.1685E+06    -14.9848E+06     696.525E+03         53.5007
             540     5.03939E-03     54.7793E-03     329.381E-03     327.049E-03        -1.09672     327.047E-03        -1.09672     329.381E-03    -3.03945E-03     348.435E-03    -173.428E-03    -175.007E-03    -173.130E-03     348.137E-03    -175.007E-03     24.4397E-03    -38.9721E+06    -105.126E+06    -142.354E+06    -105.137E+06    -142.343E+06    -38.9721E+06     247.426E+03         52.6428
             541     4.19870E-03     54.7647E-03     329.827E-03     328.175E-03        -1.09832     328.173E-03        -1.09831     329.827E-03     90.2492E-06     349.326E-03    -174.276E-03    -175.050E-03    -174.200E-03     349.198E-03    -174.997E-03     15.9970E-03    -62.4754E+06    -115.767E+06    -186.026E+06    -115.780E+06    -186.012E+06    -62.4754E+06     453.912E+03         51.9708
             542     3.36054E-03     54.7569E-03     330.171E-03     329.082E-03        -1.09958     329.079E-03        -1.09957     330.171E-03     417.760E-06     349.300E-03    -174.280E-03    -175.020E-03    -174.325E-03     349.255E-03    -174.930E-03     8.91616E-03    -85.7023E+06    -125.227E+06    -227.249E+06    -125.238E+06    -227.238E+06    -85.7023E+06     440.002E+03         51.4562
             543     2.52055E-03     54.7547E-03     330.427E-03     329.801E-03        -1.10059     329.796E-03        -1.10059     330.427E-03     1.92451E-03     349.078E-03    -174.099E-03    -174.978E-03    -174.128E-03     349.069E-03    -174.942E-03     3.54817E-03    -109.692E+06    -134.541E+06    -262.800E+06    -134.546E+06    -262.795E+06    -109.692E+06     361.122E+03         51.0758
             544     1.67894E-03     54.7544E-03     330.595E-03     330.335E-03        -1.10135     330.327E-03        -1.10134     330.595E-03     153.498E-06     349.429E-03    -174.299E-03    -175.130E-03    -174.297E-03     349.427E-03    -175.130E-03     745.784E-06    -130.410E+06    -141.904E+06    -293.171E+06    -141.907E+06    -293.169E+06    -130.410E+06      250.29E+03         50.8129
             545     837.089E-06     54.7606E-03     355.122E-03     306.265E-03        -1.10179     355.023E-03        -1.10176     306.339E-03     4.45222E-03     350.492E-03    -174.343E-03    -176.148E-03    -175.778E-03     350.489E-03    -174.711E-03     118.728E-06    -142.199E+06    -146.487E+06    -314.798E+06    -145.363E+06    -314.784E+06    -143.336E+06    -212.541E+03         50.6550
             546     14.2889E-03     54.6931E-03     322.352E-03     306.405E-03        -1.06907     306.405E-03        -1.06907     322.352E-03    -348.697E-06     365.495E-03    -174.900E-03    -190.594E-03    -177.799E-03     352.699E-03    -174.900E-03     160.746E-03     124.757E+06     86.6862E+06    -7.47253E+06    -7.46947E+06     86.6831E+06     124.757E+06     172.893E+03         72.1074
             547     13.4469E-03     54.4075E-03     324.065E-03     309.129E-03        -1.07379     309.129E-03        -1.07379     324.065E-03    -1.50881E-03     365.398E-03    -174.843E-03    -190.555E-03    -177.256E-03     352.099E-03    -174.843E-03     165.237E-03     97.9439E+06     70.4188E+06    -14.9348E+06    -14.9337E+06     70.4177E+06     97.9439E+06     282.708E+03         70.2293
             548     12.6060E-03     54.2441E-03     325.695E-03     311.902E-03        -1.07842     311.902E-03        -1.07842     325.695E-03    -1.22842E-03     357.306E-03    -174.809E-03    -182.496E-03    -174.657E-03     349.467E-03    -174.809E-03     128.981E-03     78.2399E+06     51.3937E+06    -22.0551E+06    -22.0507E+06     51.3893E+06     78.2399E+06     508.896E+03         68.1236
             549     11.7655E-03     54.0663E-03     327.205E-03     314.668E-03        -1.08287     314.667E-03        -1.08287     327.205E-03    -1.15378E-03     356.012E-03    -174.810E-03    -181.202E-03    -174.002E-03     348.812E-03    -174.810E-03     122.941E-03     69.6270E+06     39.0448E+06    -28.2483E+06    -28.2232E+06     39.0197E+06     69.6270E+06     1.07774E+06         65.8754
             550     10.9244E-03     53.9236E-03     328.635E-03     317.417E-03        -1.08722     317.417E-03        -1.08722     328.635E-03    -437.970E-06     353.139E-03    -174.821E-03    -178.318E-03    -172.919E-03     347.741E-03    -174.821E-03     106.531E-03     61.1238E+06     31.4324E+06    -35.1866E+06    -35.1530E+06     31.3988E+06     61.1238E+06     1.26089E+06         63.5904
             551     10.0822E-03     53.7909E-03     329.970E-03     320.080E-03        -1.09136     320.079E-03        -1.09136     329.970E-03     34.7972E-06     352.050E-03    -174.829E-03    -177.220E-03    -172.730E-03     347.559E-03    -174.829E-03     96.8936E-03     51.1704E+06     26.3236E+06    -43.5094E+06    -43.4885E+06     26.3027E+06     51.1704E+06     1.06039E+06         61.3765
             552     9.24161E-03     53.6763E-03     331.213E-03     322.611E-03        -1.09526     322.611E-03        -1.09526     331.213E-03    -608.592E-06     351.011E-03    -174.828E-03    -176.183E-03    -172.756E-03     347.584E-03    -174.828E-03     84.5033E-03     42.6256E+06     20.6821E+06    -52.0095E+06    -52.0001E+06     20.6726E+06     42.6256E+06     687.415E+03         59.3245
             553     8.40274E-03     53.5786E-03     332.350E-03     325.020E-03        -1.09893     325.020E-03        -1.09893     332.350E-03    -613.300E-06     350.105E-03    -174.732E-03    -175.372E-03    -172.773E-03     347.585E-03    -174.812E-03     72.3504E-03     34.7364E+06     13.2464E+06    -61.4623E+06    -61.4528E+06     13.2369E+06     34.7364E+06    -32.0937E+03         57.4960
             554     7.56201E-03     53.4982E-03     333.365E-03     327.344E-03        -1.10238     327.344E-03        -1.10238     333.365E-03    -1.69831E-03     349.155E-03    -174.214E-03    -174.941E-03    -172.620E-03     347.420E-03    -174.800E-03     59.8159E-03     24.8342E+06    -2.94683E+06    -72.3083E+06    -72.2993E+06    -2.95582E+06     24.8342E+06    -185.583E+03         55.9214
             555     6.72153E-03     53.4385E-03     334.246E-03     329.440E-03        -1.10546     329.439E-03        -1.10545     334.246E-03    -1.77309E-03     348.254E-03    -173.428E-03    -174.826E-03    -172.346E-03     347.172E-03    -174.826E-03     47.0619E-03     7.63447E+06    -43.6800E+06    -83.2486E+06    -83.2215E+06    -43.7071E+06     7.63447E+06     176.848E+03         54.6039
             556     5.88103E-03     53.3946E-03     334.999E-03     331.228E-03        -1.10809     331.227E-03        -1.10809     334.999E-03    -1.62675E-03     347.960E-03    -173.066E-03    -174.894E-03    -172.446E-03     347.339E-03    -174.894E-03     35.5289E-03    -15.1381E+06    -85.9296E+06    -103.878E+06    -94.0039E+06    -95.8034E+06    -15.1381E+06     497.060E+03         53.5280
             557     5.03906E-03     53.3641E-03     335.634E-03     332.794E-03        -1.11037     332.792E-03        -1.11036     335.634E-03    -2.86674E-03     348.273E-03    -173.304E-03    -174.969E-03    -172.999E-03     347.968E-03    -174.969E-03     24.5716E-03    -39.0129E+06    -104.916E+06    -141.576E+06    -104.932E+06    -141.560E+06    -39.0129E+06     462.609E+03         52.6674
             558     4.19905E-03     53.3447E-03     336.148E-03     334.165E-03        -1.11230     334.163E-03        -1.11229     336.148E-03     62.2965E-06     348.962E-03    -173.909E-03    -175.053E-03    -173.844E-03     348.844E-03    -175.001E-03     15.2198E-03    -63.5873E+06    -115.978E+06    -185.561E+06    -115.985E+06    -185.553E+06    -63.5873E+06    -73.2119E+03         51.9927
             559     3.35904E-03     53.3383E-03     336.534E-03     335.333E-03        -1.11386     335.331E-03        -1.11386     336.534E-03     542.613E-06     349.465E-03    -174.418E-03    -175.047E-03    -174.464E-03     349.422E-03    -174.958E-03     9.19789E-03    -87.1820E+06    -126.703E+06    -227.587E+06    -126.707E+06    -227.583E+06    -87.1820E+06    -69.5882E+03         51.4759
             560     2.52003E-03     53.3371E-03     336.793E-03     336.199E-03        -1.11502     336.196E-03        -1.11501     336.793E-03     1.65441E-03     349.401E-03    -174.378E-03    -175.023E-03    -174.499E-03     349.388E-03    -174.888E-03     4.80269E-03    -110.031E+06    -135.487E+06    -263.787E+06    -135.494E+06    -263.781E+06    -110.031E+06     680.794E+03         51.0940
             561     1.67993E-03     53.3408E-03     336.991E-03     336.586E-03        -1.11566     336.581E-03        -1.11565     336.991E-03     465.127E-06     349.433E-03    -174.214E-03    -175.219E-03    -174.553E-03     349.430E-03    -174.878E-03     1.28149E-03    -129.423E+06    -141.779E+06    -291.721E+06    -141.787E+06    -291.713E+06    -129.423E+06     974.076E+03         50.8301
             562     840.762E-06     53.3393E-03     359.174E-03     315.044E-03        -1.11626     358.933E-03        -1.11625     315.273E-03     2.78878E-03     349.719E-03    -174.218E-03    -175.500E-03    -175.169E-03     349.717E-03    -174.548E-03    -847.295E-06    -142.407E+06    -147.898E+06    -314.025E+06    -146.781E+06    -314.005E+06    -143.544E+06     355.521E+03         50.6715
             563     14.2876E-03     53.2770E-03     326.934E-03     307.922E-03        -1.07679     307.922E-03        -1.07679     326.934E-03    -227.271E-06     365.567E-03    -174.923E-03    -190.644E-03    -177.855E-03     352.778E-03    -174.923E-03     160.539E-03     124.071E+06     86.5890E+06    -7.83117E+06    -7.82991E+06     86.5877E+06     124.071E+06    -54.7479E+03         72.0719
             564     13.4470E-03     52.9885E-03     328.724E-03     310.996E-03        -1.08191     310.996E-03        -1.08191     328.724E-03    -1.49474E-03     365.629E-03    -174.863E-03    -190.767E-03    -177.421E-03     352.284E-03    -174.863E-03     165.545E-03     97.5949E+06     70.5477E+06    -15.4251E+06    -15.4239E+06     70.5465E+06     97.5949E+06     297.709E+03         70.2014
             565     12.6058E-03     52.8281E-03     330.429E-03     314.173E-03        -1.08701     314.173E-03        -1.08701     330.429E-03    -1.08407E-03     357.215E-03    -174.836E-03    -182.379E-03    -174.443E-03     349.279E-03    -174.836E-03     129.694E-03     77.6289E+06     50.3947E+06    -22.5958E+06    -22.5932E+06     50.3921E+06     77.6289E+06     418.929E+03         68.1064
             566     11.7643E-03     52.6467E-03     332.013E-03     317.298E-03        -1.09190     317.297E-03        -1.09190     332.013E-03    -944.876E-06     356.492E-03    -174.835E-03    -181.657E-03    -174.383E-03     349.218E-03    -174.835E-03     123.547E-03     68.9537E+06     38.3978E+06    -28.9710E+06    -28.9669E+06     38.3937E+06     68.9537E+06     451.417E+03         65.8708
             567     10.9242E-03     52.5070E-03     333.515E-03     320.333E-03        -1.09660     320.333E-03        -1.09659     333.515E-03    -221.543E-06     353.857E-03    -174.807E-03    -179.050E-03    -173.687E-03     348.494E-03    -174.807E-03     106.339E-03     61.5697E+06     31.8106E+06    -35.9000E+06    -35.8832E+06     31.7939E+06     61.5697E+06     874.803E+03         63.5991
             568     10.0842E-03     52.3734E-03     334.921E-03     323.301E-03        -1.10112     323.301E-03        -1.10112     334.921E-03     252.948E-06     352.240E-03    -174.773E-03    -177.467E-03    -172.984E-03     347.756E-03    -174.773E-03     96.8613E-03     52.2571E+06     26.7089E+06    -43.4769E+06    -43.4541E+06     26.6861E+06     52.2571E+06     1.19181E+06         61.3964
             569     9.24386E-03     52.2582E-03     336.232E-03     326.214E-03        -1.10548     326.214E-03        -1.10548     336.232E-03    -390.752E-06     350.781E-03    -174.761E-03    -176.020E-03    -172.568E-03     347.329E-03    -174.761E-03     84.8027E-03     43.3722E+06     21.2696E+06    -51.3735E+06    -51.3618E+06     21.2579E+06     43.3722E+06     852.043E+03         59.3513
             570     8.40198E-03     52.1606E-03     337.428E-03     328.961E-03        -1.10955     328.961E-03        -1.10955     337.428E-03    -403.314E-06     349.477E-03    -174.357E-03    -175.119E-03    -172.133E-03     346.915E-03    -174.783E-03     72.8526E-03     35.8036E+06     14.4072E+06    -60.2328E+06    -60.2251E+06     14.3995E+06     35.8036E+06     732.195E+03         57.5257
             571     7.56133E-03     52.0812E-03     338.504E-03     331.486E-03        -1.11327     331.485E-03        -1.11327     338.504E-03    -1.58985E-03     348.461E-03    -173.613E-03    -174.848E-03    -171.849E-03     346.697E-03    -174.848E-03     60.2399E-03     25.5288E+06    -2.49615E+06    -70.4850E+06    -70.4805E+06    -2.50063E+06     25.5288E+06     370.469E+03         55.9509
             572     6.72017E-03     52.0211E-03     339.449E-03     333.838E-03        -1.11669     333.837E-03        -1.11669     339.449E-03    -1.55216E-03     348.547E-03    -173.631E-03    -174.915E-03    -172.528E-03     347.443E-03    -174.915E-03     47.5372E-03     7.84956E+06    -44.1174E+06    -81.6267E+06    -81.6228E+06    -44.1212E+06     7.84956E+06    -136.914E+03         54.6320
             573     5.87934E-03     51.9775E-03     340.259E-03     335.947E-03        -1.11971     335.947E-03        -1.11970     340.259E-03    -1.28789E-03     348.928E-03    -174.014E-03    -174.914E-03    -173.396E-03     348.310E-03    -174.914E-03     35.4422E-03    -14.7194E+06    -85.8124E+06    -103.715E+06    -93.1620E+06    -96.3649E+06    -14.7194E+06     101.600E+03         53.5545
             574     5.04092E-03     51.9456E-03     340.940E-03     337.732E-03        -1.12225     337.731E-03        -1.12225     340.940E-03    -2.45382E-03     348.637E-03    -173.758E-03    -174.878E-03    -173.460E-03     348.338E-03    -174.878E-03     24.4215E-03    -37.8405E+06    -103.814E+06    -141.393E+06    -103.824E+06    -141.383E+06    -37.8405E+06     549.779E+03         52.6920
             575     4.20021E-03     51.9289E-03     341.491E-03     339.296E-03        -1.12441     339.295E-03        -1.12441     341.491E-03     295.192E-06     348.403E-03    -173.506E-03    -174.896E-03    -173.387E-03     348.284E-03    -174.896E-03     15.2327E-03    -62.4614E+06    -114.054E+06    -184.042E+06    -114.061E+06    -184.035E+06    -62.4614E+06     246.689E+03         52.0146
             576     3.35922E-03     51.9201E-03     341.916E-03     340.527E-03        -1.12608     340.525E-03        -1.12608     341.916E-03     972.513E-06     348.832E-03    -173.859E-03    -174.973E-03    -173.821E-03     348.795E-03    -174.973E-03     8.40678E-03    -86.7392E+06    -124.318E+06    -228.036E+06    -124.320E+06    -228.034E+06    -86.7392E+06    -379.450E+03         51.4954
             577     2.51831E-03     51.9197E-03     342.230E-03     341.440E-03        -1.12734     341.438E-03        -1.12734     342.230E-03     1.78143E-03     349.648E-03    -174.560E-03    -175.088E-03    -174.648E-03     349.638E-03    -174.990E-03     4.00689E-03    -108.040E+06    -133.189E+06    -264.743E+06    -133.193E+06    -264.740E+06    -108.040E+06     30.3794E+03         51.1119
             578     1.67985E-03     51.9207E-03     342.490E-03     342.046E-03        -1.12822     342.084E-03        -1.12822     342.449E-03     1.12679E-03     349.905E-03    -174.742E-03    -175.163E-03    -175.082E-03     349.903E-03    -174.822E-03     1.75854E-03    -127.679E+06    -140.855E+06    -290.922E+06    -140.860E+06    -290.917E+06    -127.679E+06     716.400E+03         50.8470
             579     840.499E-06     51.9242E-03     360.979E-03     324.092E-03        -1.12883     360.819E-03        -1.12883     324.250E-03     1.09420E-03     349.300E-03    -174.387E-03    -174.913E-03    -174.845E-03     349.300E-03    -174.455E-03     431.684E-06    -141.428E+06    -146.203E+06    -312.885E+06    -146.216E+06    -312.871E+06    -141.428E+06     553.923E+03         50.6879
             580     14.2882E-03     51.8597E-03     330.860E-03     309.376E-03        -1.08375     309.376E-03        -1.08375     330.860E-03    -241.382E-06     365.498E-03    -174.924E-03    -190.573E-03    -177.840E-03     352.764E-03    -174.924E-03     160.178E-03     124.132E+06     86.2220E+06    -7.97930E+06    -7.97819E+06     86.2209E+06     124.132E+06     237.210E+03         72.0375
             581     13.4464E-03     51.5706E-03     332.678E-03     312.781E-03        -1.08924     312.781E-03        -1.08924     332.678E-03    -1.56103E-03     365.365E-03    -174.866E-03    -190.499E-03    -177.253E-03     352.119E-03    -174.866E-03     164.776E-03     97.3240E+06     70.3418E+06    -15.4132E+06    -15.4119E+06     70.3406E+06     97.3240E+06     289.572E+03         70.1741
             582     12.6048E-03     51.4116E-03     334.411E-03     316.196E-03        -1.09461     316.196E-03        -1.09461     334.411E-03    -1.14050E-03     357.141E-03    -174.839E-03    -182.302E-03    -174.465E-03     349.304E-03    -174.839E-03     128.871E-03     77.5870E+06     51.1270E+06    -21.8620E+06    -21.8605E+06     51.1255E+06     77.5870E+06     222.598E+03         68.0898
             583     11.7640E-03     51.2280E-03     336.031E-03     319.560E-03        -1.09978     319.560E-03        -1.09978     336.031E-03    -966.251E-06     356.433E-03    -174.836E-03    -181.597E-03    -174.383E-03     349.219E-03    -174.836E-03     123.054E-03     68.5931E+06     38.1911E+06    -28.7622E+06    -28.7601E+06     38.1890E+06     68.5931E+06     266.102E+03         65.8665
             584     10.9245E-03     51.0868E-03     337.564E-03     322.885E-03        -1.10480     322.885E-03        -1.10480     337.564E-03    -267.268E-06     353.979E-03    -174.802E-03    -179.177E-03    -173.826E-03     348.627E-03    -174.802E-03     106.253E-03     60.9085E+06     30.8554E+06    -36.1847E+06     -36.181E+06     30.8517E+06     60.9085E+06     304.888E+03         63.6070
             585     10.0843E-03     50.9561E-03     338.997E-03     326.133E-03        -1.10963     326.133E-03        -1.10963     338.997E-03     249.305E-06     352.437E-03    -174.756E-03    -177.681E-03    -173.142E-03     347.898E-03    -174.756E-03     97.5474E-03     52.4225E+06     26.9288E+06    -43.0583E+06     -43.053E+06     26.9235E+06     52.4225E+06     269.522E+03         61.4144
             586     9.24275E-03     50.8409E-03     340.331E-03     329.256E-03        -1.11423     329.256E-03        -1.11423     340.331E-03    -378.574E-06     350.507E-03    -174.715E-03    -175.792E-03    -172.218E-03     346.974E-03    -174.756E-03     85.7434E-03     43.5876E+06     21.4864E+06    -51.0600E+06    -51.0495E+06     21.4758E+06     43.5876E+06     635.056E+03         59.3760
             587     8.40279E-03     50.7436E-03     341.548E-03     332.264E-03        -1.11859     332.264E-03        -1.11859     341.548E-03    -317.126E-06     349.108E-03    -174.182E-03    -174.926E-03    -171.701E-03     346.519E-03    -174.819E-03     73.1574E-03     35.4361E+06     14.1698E+06    -60.4269E+06    -60.4160E+06     14.1588E+06     35.4361E+06     844.327E+03         57.5535
             588     7.56057E-03     50.6656E-03     342.640E-03     335.015E-03        -1.12256     335.014E-03        -1.12256     342.640E-03    -1.28136E-03     348.595E-03    -173.685E-03    -174.909E-03    -171.922E-03     346.832E-03    -174.909E-03     60.2291E-03     25.8007E+06    -1.64867E+06    -70.4077E+06    -70.4012E+06    -1.65522E+06     25.8007E+06     523.417E+03         55.9795
             589     6.71932E-03     50.6031E-03     343.608E-03     337.455E-03        -1.12608     337.455E-03        -1.12608     343.608E-03    -1.29860E-03     348.981E-03    -174.028E-03    -174.953E-03    -172.935E-03     347.889E-03    -174.953E-03     47.3188E-03     8.10371E+06    -43.7392E+06    -81.7868E+06    -81.7815E+06    -43.7445E+06     8.10371E+06     164.796E+03         54.6601
             590     5.88118E-03     50.5569E-03     344.447E-03     339.734E-03        -1.12930     339.734E-03        -1.12930     344.447E-03    -1.11174E-03     349.118E-03    -174.204E-03    -174.914E-03    -173.602E-03     348.516E-03    -174.914E-03     34.9812E-03    -14.5618E+06    -85.9846E+06    -104.073E+06    -93.0804E+06    -96.9775E+06    -14.5618E+06     136.544E+03         53.5809
             591     5.04028E-03     50.5293E-03     345.147E-03     341.721E-03        -1.13207     341.720E-03        -1.13207     345.147E-03    -2.14116E-03     348.666E-03    -173.810E-03    -174.856E-03    -173.513E-03     348.369E-03    -174.856E-03     24.4922E-03    -37.6851E+06    -103.700E+06    -141.253E+06    -103.707E+06    -141.245E+06    -37.6851E+06     66.8738E+03         52.7160
             592     4.20001E-03     50.5113E-03     345.721E-03     343.313E-03        -1.13431     343.312E-03        -1.13431     345.721E-03     419.361E-06     348.534E-03    -173.689E-03    -174.844E-03    -173.561E-03     348.405E-03    -174.844E-03     15.8442E-03    -62.2118E+06    -114.218E+06    -183.539E+06    -114.223E+06    -183.534E+06    -62.2118E+06     82.8436E+03         52.0362
             593     3.35996E-03     50.5043E-03     346.185E-03     344.596E-03        -1.13611     344.595E-03        -1.13611     346.185E-03     1.23349E-03     348.886E-03    -174.021E-03    -174.864E-03    -173.980E-03     348.845E-03    -174.864E-03     8.74123E-03    -86.5133E+06    -124.357E+06    -227.888E+06    -124.362E+06    -227.882E+06    -86.5133E+06     331.119E+03         51.5150
             594     2.52031E-03     50.5013E-03     346.534E-03     345.677E-03        -1.13757     345.676E-03        -1.13757     346.534E-03     1.71246E-03     349.212E-03    -174.333E-03    -174.880E-03    -174.323E-03     349.203E-03    -174.880E-03     3.94481E-03    -108.654E+06    -133.157E+06    -264.651E+06    -133.165E+06    -264.643E+06    -108.654E+06    -148.515E+03         51.1299
             595     1.67954E-03     50.5030E-03     346.793E-03     346.400E-03        -1.13855     346.439E-03        -1.13855     346.753E-03     1.68176E-03     349.438E-03    -174.522E-03    -174.916E-03    -174.521E-03     349.437E-03    -174.916E-03     1.07987E-03    -127.621E+06    -139.794E+06    -290.965E+06    -139.802E+06    -290.957E+06    -127.621E+06    -674.118E+03         50.8639
             596     838.951E-06     50.5074E-03     360.538E-03     333.109E-03        -1.13909     360.426E-03        -1.13909     333.219E-03    -206.777E-06     349.829E-03    -174.778E-03    -175.051E-03    -174.884E-03     349.829E-03    -174.945E-03    -203.971E-06    -140.977E+06    -145.154E+06    -312.607E+06    -144.498E+06    -312.587E+06    -141.652E+06    -104.861E+03         50.7041
             597     14.2886E-03     50.4412E-03     334.054E-03     310.749E-03        -1.08990     310.749E-03        -1.08989     334.054E-03    -232.499E-06     365.768E-03    -174.907E-03    -190.861E-03    -178.181E-03     353.088E-03    -174.907E-03     160.195E-03     124.411E+06     86.3393E+06    -7.63902E+06    -7.63703E+06     86.3373E+06     124.411E+06     371.610E+03         72.0039
             598     13.4473E-03     50.1557E-03     335.852E-03     314.311E-03        -1.09554     314.310E-03        -1.09554     335.852E-03    -1.52494E-03     365.555E-03    -174.821E-03    -190.734E-03    -177.625E-03     352.446E-03    -174.821E-03     164.023E-03     97.6252E+06     70.5342E+06    -14.8121E+06    -14.8114E+06     70.5336E+06     97.6252E+06     166.419E+03         70.1485
             599     12.6065E-03     49.9921E-03     337.569E-03     317.887E-03        -1.10106     317.887E-03        -1.10106     337.569E-03    -1.16312E-03     357.000E-03    -174.772E-03    -182.228E-03    -174.512E-03     349.284E-03    -174.772E-03     127.883E-03     77.5168E+06     51.3801E+06    -21.8748E+06    -21.8735E+06     51.3787E+06     77.5168E+06     171.496E+03         68.0755
             600     11.7660E-03     49.8120E-03     339.177E-03     321.478E-03        -1.10645     321.478E-03        -1.10645     339.177E-03    -935.803E-06     355.739E-03    -174.784E-03    -180.956E-03    -173.757E-03     348.541E-03    -174.784E-03     122.924E-03     68.3079E+06     37.9959E+06    -28.8674E+06    -28.8642E+06     37.9927E+06     68.3079E+06     125.515E+03         65.8638
             601     10.9238E-03     49.6679E-03     340.696E-03     325.034E-03        -1.11169     325.034E-03        -1.11169     340.696E-03    -190.767E-06     353.266E-03    -174.800E-03    -178.466E-03    -173.070E-03     347.870E-03    -174.800E-03     106.508E-03     60.6906E+06     30.7386E+06    -35.4275E+06    -35.4254E+06     30.7365E+06     60.6906E+06    -86.5441E+03         63.6143
             602     10.0832E-03     49.5380E-03     342.108E-03     328.473E-03        -1.11670     328.473E-03        -1.11670     342.108E-03     409.644E-06     352.183E-03    -174.796E-03    -177.387E-03    -172.866E-03     347.662E-03    -174.796E-03     97.3228E-03     51.3900E+06     26.6128E+06    -43.0717E+06    -43.0628E+06     26.6039E+06     51.3900E+06     217.661E+03         61.4303
             603     9.24332E-03     49.4239E-03     343.415E-03     331.755E-03        -1.12143     331.755E-03        -1.12143     343.415E-03    -172.252E-06     350.629E-03    -174.770E-03    -175.859E-03    -172.301E-03     347.112E-03    -174.811E-03     85.5193E-03     42.9988E+06     20.9489E+06    -51.5568E+06    -51.5377E+06     20.9299E+06     42.9988E+06     290.845E+03         59.3988
             604     8.40044E-03     49.3277E-03     344.610E-03     334.816E-03        -1.12584     334.816E-03        -1.12584     344.610E-03    -118.579E-06     349.445E-03    -174.496E-03    -174.950E-03    -172.034E-03     346.894E-03    -174.860E-03     72.6870E-03     35.7947E+06     14.1473E+06    -60.5682E+06    -60.5552E+06     14.1342E+06     35.7947E+06     297.996E+03         57.5806
             605     7.56033E-03     49.2476E-03     345.689E-03     337.649E-03        -1.12989     337.648E-03        -1.12989     345.689E-03    -1.09658E-03     349.178E-03    -174.279E-03    -174.899E-03    -172.528E-03     347.427E-03    -174.899E-03     60.0844E-03     25.8446E+06    -1.32853E+06    -70.6566E+06    -70.6494E+06    -1.33578E+06     25.8446E+06     415.285E+03         56.0086
             606     6.72140E-03     49.1842E-03     346.649E-03     340.212E-03        -1.13354     340.212E-03        -1.13354     346.649E-03    -1.15470E-03     348.864E-03    -173.956E-03    -174.908E-03    -172.869E-03     347.777E-03    -174.908E-03     47.1913E-03     8.20574E+06    -43.4460E+06    -81.5630E+06    -81.5220E+06    -43.4870E+06     8.20574E+06     369.177E+03         54.6888
             607     5.87950E-03     49.1393E-03     347.490E-03     342.473E-03        -1.13675     342.473E-03        -1.13675     347.490E-03    -1.15234E-03     348.477E-03    -173.560E-03    -174.918E-03    -172.958E-03     347.876E-03    -174.918E-03     34.9378E-03    -14.1982E+06    -85.8556E+06    -103.119E+06    -92.4765E+06    -96.4982E+06    -14.1982E+06     332.022E+03         53.6072
             608     5.04011E-03     49.1111E-03     348.212E-03     344.480E-03        -1.13957     344.479E-03        -1.13957     348.212E-03    -2.10901E-03     348.639E-03    -173.722E-03    -174.917E-03    -173.425E-03     348.343E-03    -174.917E-03     24.4416E-03    -37.7479E+06    -103.994E+06    -140.966E+06    -104.008E+06    -140.952E+06    -37.7479E+06     174.107E+03         52.7394
             609     4.19994E-03     49.0947E-03     348.816E-03     346.213E-03        -1.14197     346.212E-03        -1.14197     348.816E-03     361.225E-06     348.930E-03    -174.041E-03    -174.889E-03    -173.911E-03     348.800E-03    -174.889E-03     16.0439E-03    -62.5294E+06    -115.755E+06    -184.615E+06    -115.770E+06    -184.600E+06    -62.5294E+06     532.282E+03         52.0574
             610     3.35990E-03     49.0858E-03     349.304E-03     347.616E-03        -1.14392     347.615E-03        -1.14392     349.304E-03     1.34039E-03     349.145E-03    -174.309E-03    -174.836E-03    -174.263E-03     349.100E-03    -174.836E-03     9.29081E-03    -86.6156E+06    -125.931E+06    -227.538E+06    -125.939E+06    -227.530E+06    -86.6156E+06     805.498E+03         51.5344
             611     2.51981E-03     49.0848E-03     349.674E-03     348.749E-03        -1.14544     348.748E-03        -1.14544     349.674E-03     1.48497E-03     349.160E-03    -174.385E-03    -174.775E-03    -174.375E-03     349.149E-03    -174.774E-03     4.21544E-03    -110.232E+06    -134.252E+06    -262.687E+06    -134.259E+06    -262.679E+06    -110.232E+06    -141.419E+03         51.1478
             612     1.67964E-03     49.0866E-03     349.957E-03     349.434E-03        -1.14645     349.433E-03        -1.14645     349.957E-03     1.95495E-03     349.199E-03    -174.419E-03    -174.780E-03    -174.419E-03     349.198E-03    -174.779E-03     956.118E-06    -129.862E+06    -141.519E+06    -291.834E+06    -141.528E+06    -291.824E+06    -129.862E+06    -963.214E+03         50.8808
             613     840.267E-06     49.0887E-03     358.731E-03     341.436E-03        -1.14726     358.485E-03        -1.14725     341.680E-03    -1.58108E-03     349.546E-03    -174.661E-03    -174.885E-03    -174.740E-03     349.546E-03    -174.806E-03    -348.805E-06    -142.059E+06    -147.088E+06    -313.213E+06    -146.435E+06    -313.190E+06    -142.735E+06    -312.954E+03         50.7204
             614     14.2881E-03     49.0233E-03     336.453E-03     311.973E-03        -1.09511     311.973E-03        -1.09511     336.453E-03    -176.026E-06     366.160E-03    -174.894E-03    -191.266E-03    -178.537E-03     353.431E-03    -174.894E-03     160.455E-03     124.586E+06     86.3154E+06    -7.48028E+06    -7.47832E+06     86.3134E+06     124.586E+06     104.088E+03         71.9705
             615     13.4485E-03     48.7364E-03     338.183E-03     315.663E-03        -1.10080     315.662E-03        -1.10080     338.183E-03    -1.39349E-03     365.984E-03    -174.788E-03    -191.195E-03    -177.974E-03     352.762E-03    -174.788E-03     164.868E-03     97.6972E+06     70.6501E+06    -15.2940E+06    -15.2907E+06     70.6468E+06     97.6972E+06     338.442E+03         70.1228
             616     12.6080E-03     48.5755E-03     339.830E-03     319.365E-03        -1.10639     319.364E-03        -1.10639     339.830E-03    -1.00493E-03     357.105E-03    -174.730E-03    -182.375E-03    -174.519E-03     349.249E-03    -174.730E-03     129.011E-03     77.3898E+06     51.3521E+06    -22.4284E+06    -22.4236E+06     51.3474E+06     77.3898E+06     489.567E+03         68.0604
             617     11.7654E-03     48.3959E-03     341.374E-03     323.074E-03        -1.11184     323.074E-03        -1.11184     341.374E-03    -765.222E-06     355.644E-03    -174.747E-03    -180.897E-03    -173.599E-03     348.346E-03    -174.747E-03     123.654E-03     68.0839E+06     38.2798E+06    -28.8437E+06    -28.8408E+06     38.2769E+06     68.0839E+06     8.21202E+03         65.8603
             618     10.9246E-03     48.2509E-03     342.825E-03     326.711E-03        -1.11711     326.711E-03        -1.11711     342.825E-03    -10.9147E-06     352.785E-03    -174.788E-03    -177.997E-03    -172.587E-03     347.375E-03    -174.788E-03     106.549E-03     59.8834E+06     30.5740E+06    -36.1799E+06    -36.1783E+06     30.5724E+06     59.8834E+06    -180.958E+03         63.6216
             619     10.0829E-03     48.1209E-03     344.174E-03     330.209E-03        -1.12214     330.208E-03        -1.12214     344.174E-03     567.670E-06     351.837E-03    -174.820E-03    -177.018E-03    -172.518E-03     347.338E-03    -174.820E-03     96.9684E-03     50.8032E+06     26.1987E+06    -43.8130E+06    -43.8008E+06     26.1865E+06     50.8032E+06     140.343E+03         61.4464
             620     9.24118E-03     48.0055E-03     345.419E-03     333.501E-03        -1.12685     333.501E-03        -1.12685     345.419E-03    -18.1317E-06     350.897E-03    -174.834E-03    -176.062E-03    -172.631E-03     347.465E-03    -174.834E-03     84.5007E-03     42.8102E+06     20.9179E+06    -51.7771E+06    -51.7592E+06     20.9000E+06     42.8102E+06    -78.3171E+03         59.4218
             621     8.40257E-03     47.9110E-03     346.561E-03     336.526E-03        -1.13118     336.526E-03        -1.13118     346.561E-03     3.67000E-06     349.970E-03    -174.763E-03    -175.207E-03    -172.619E-03     347.457E-03    -174.838E-03     72.2750E-03     36.0972E+06     14.2017E+06    -60.6502E+06    -60.6398E+06     14.1913E+06     36.0972E+06    -204.500E+03         57.6085
             622     7.56182E-03     47.8285E-03     347.599E-03     339.357E-03        -1.13519     339.357E-03        -1.13519     347.599E-03    -1.02484E-03     349.180E-03    -174.272E-03    -174.907E-03    -172.589E-03     347.425E-03    -174.836E-03     60.1471E-03     25.7456E+06    -1.24472E+06    -71.0818E+06     -71.073E+06    -1.25349E+06     25.7456E+06     101.579E+03         56.0382
             623     6.72049E-03     47.7667E-03     348.526E-03     341.961E-03        -1.13884     341.960E-03        -1.13884     348.526E-03    -902.113E-06     348.396E-03    -173.536E-03    -174.860E-03    -172.460E-03     347.320E-03    -174.860E-03     46.8922E-03     7.76452E+06    -43.3179E+06    -81.9995E+06    -81.9570E+06    -43.3604E+06     7.76452E+06     320.232E+03         54.7173
             624     5.88081E-03     47.7229E-03     349.346E-03     344.190E-03        -1.14201     344.190E-03        -1.14201     349.346E-03    -880.737E-06     348.106E-03    -173.188E-03    -174.918E-03    -172.595E-03     347.514E-03    -174.918E-03     34.6869E-03    -14.4911E+06    -86.2252E+06    -102.968E+06    -92.9659E+06    -96.2268E+06    -14.4911E+06     262.030E+03         53.6333
             625     5.03914E-03     47.6930E-03     350.069E-03     346.138E-03        -1.14478     346.138E-03        -1.14478     350.069E-03    -1.89188E-03     348.490E-03    -173.522E-03    -174.968E-03    -173.226E-03     348.194E-03    -174.968E-03     24.4035E-03    -37.7004E+06    -104.450E+06    -141.461E+06    -104.459E+06    -141.452E+06    -37.7004E+06     400.218E+03         52.7629
             626     4.19951E-03     47.6765E-03     350.687E-03     347.945E-03        -1.14727     347.945E-03        -1.14727     350.687E-03     501.056E-06     349.113E-03    -174.158E-03    -174.956E-03    -174.028E-03     348.984E-03    -174.956E-03     16.0496E-03    -61.8403E+06    -115.133E+06    -184.933E+06    -115.144E+06    -184.922E+06    -61.8403E+06     712.424E+03         52.0786
             627     3.35972E-03     47.6685E-03     351.193E-03     349.405E-03        -1.14929     349.404E-03        -1.14929     351.193E-03     1.56935E-03     349.341E-03    -174.456E-03    -174.885E-03    -174.412E-03     349.296E-03    -174.885E-03     9.09810E-03    -85.3367E+06    -124.699E+06    -226.450E+06    -124.703E+06    -226.446E+06    -85.3367E+06     429.878E+03         51.5536
             628     2.52002E-03     47.6671E-03     351.599E-03     350.517E-03        -1.15085     350.516E-03        -1.15085     351.599E-03     1.38405E-03     349.309E-03    -174.515E-03    -174.794E-03    -174.507E-03     349.300E-03    -174.793E-03     4.01722E-03    -108.655E+06    -133.940E+06    -261.539E+06    -133.947E+06    -261.532E+06    -108.655E+06     362.975E+03         51.1657
             629     1.68059E-03     47.6696E-03     351.920E-03     351.394E-03        -1.15207     351.415E-03        -1.15207     351.899E-03     2.37970E-03     349.302E-03    -174.573E-03    -174.729E-03    -174.585E-03     349.301E-03    -174.716E-03     1.41891E-03    -129.297E+06    -141.534E+06    -291.700E+06    -141.541E+06    -291.693E+06    -129.297E+06     355.335E+03         50.8976
             630     839.730E-06     47.6726E-03     355.271E-03     348.769E-03        -1.15282     354.740E-03        -1.15282     349.294E-03    -2.52184E-03     349.294E-03    -174.579E-03    -174.715E-03    -174.670E-03     349.294E-03    -174.624E-03     256.891E-06    -142.680E+06    -147.864E+06    -314.182E+06    -146.667E+06    -314.174E+06    -143.885E+06    -298.447E+03         50.7367
             631     14.2892E-03     47.6079E-03     338.017E-03     313.103E-03        -1.09935     313.103E-03        -1.09935     338.017E-03    -129.319E-06     366.138E-03    -174.890E-03    -191.248E-03    -178.436E-03     353.326E-03    -174.890E-03     160.729E-03     124.576E+06     85.7545E+06    -7.88731E+06    -7.88548E+06     85.7527E+06     124.576E+06     88.3890E+03         71.9372
             632     13.4472E-03     47.3156E-03     339.629E-03     316.902E-03        -1.10507     316.902E-03        -1.10507     339.629E-03    -1.32577E-03     365.638E-03    -174.806E-03    -190.831E-03    -177.526E-03     352.333E-03    -174.806E-03     165.086E-03     97.8691E+06      70.366E+06    -15.5048E+06    -15.5005E+06     70.3616E+06     97.8691E+06     467.566E+03         70.0958
             633     12.6057E-03     47.1606E-03     341.154E-03     320.693E-03        -1.11065     320.693E-03        -1.11065     341.154E-03    -932.145E-06     357.270E-03    -174.762E-03    -182.507E-03    -174.602E-03     349.364E-03    -174.762E-03     129.404E-03     77.6963E+06     51.8167E+06    -22.0797E+06    -22.0751E+06     51.8121E+06     77.6963E+06     184.587E+03         68.0430
             634     11.7662E-03     46.9756E-03     342.580E-03     324.352E-03        -1.11596     324.352E-03        -1.11596     342.580E-03    -615.059E-06     356.149E-03    -174.762E-03    -181.387E-03    -174.066E-03     348.828E-03    -174.762E-03     123.848E-03     68.2806E+06     38.7754E+06    -28.8469E+06    -28.8290E+06     38.7576E+06     68.2806E+06     358.679E+03         65.8552
             635     10.9246E-03     46.8375E-03     343.917E-03     327.889E-03        -1.12104     327.889E-03        -1.12104     343.917E-03     126.080E-06     353.128E-03    -174.771E-03    -178.356E-03    -172.960E-03     347.731E-03    -174.771E-03     106.533E-03     60.1596E+06     31.2361E+06    -36.4825E+06    -36.4653E+06     31.2189E+06     60.1596E+06     380.727E+03         63.6289
             636     10.0830E-03     46.7019E-03     345.161E-03     331.288E-03        -1.12588     331.288E-03        -1.12588     345.161E-03     727.326E-06     351.939E-03    -174.778E-03    -177.161E-03    -172.687E-03     347.466E-03    -174.778E-03     96.6423E-03     50.9069E+06     26.4624E+06    -44.4483E+06    -44.4403E+06     26.4545E+06     50.9069E+06    -567.704E+03         61.4640
             637     9.24354E-03     46.5889E-03     346.310E-03     334.470E-03        -1.13040     334.470E-03        -1.13040     346.310E-03     294.754E-06     350.663E-03    -174.786E-03    -175.877E-03    -172.499E-03     347.285E-03    -174.786E-03     83.8998E-03     42.6511E+06     20.6728E+06    -52.3399E+06    -52.3259E+06     20.6588E+06     42.6511E+06    -731.381E+03         59.4463
             638     8.40150E-03     46.4911E-03     347.364E-03     337.450E-03        -1.13461     337.450E-03        -1.13461     347.364E-03     436.442E-06     349.898E-03    -174.756E-03    -175.143E-03    -172.561E-03     347.352E-03    -174.791E-03     72.7443E-03     35.2808E+06     13.5939E+06    -61.2861E+06    -61.2765E+06     13.5842E+06     35.2808E+06    -532.881E+03         57.6367
             639     7.56184E-03     46.4117E-03     348.323E-03     340.167E-03        -1.13844     340.167E-03        -1.13844     348.323E-03    -570.515E-06     348.951E-03    -174.073E-03    -174.877E-03    -172.383E-03     347.189E-03    -174.806E-03     60.2221E-03     26.2895E+06    -1.92350E+06    -70.9102E+06    -70.9037E+06    -1.93006E+06     26.2895E+06     5.59374E+03         56.0673
             640     6.72144E-03     46.3495E-03     349.191E-03     342.626E-03        -1.14190     342.626E-03        -1.14190     349.191E-03    -557.260E-06     348.164E-03    -173.310E-03    -174.854E-03    -172.226E-03     347.080E-03    -174.854E-03     47.1004E-03     8.67982E+06    -42.9302E+06    -81.7585E+06    -81.7350E+06    -42.9537E+06     8.67982E+06     457.473E+03         54.7453
             641     5.87988E-03     46.3057E-03     349.964E-03     344.910E-03        -1.14507     344.910E-03        -1.14507     349.964E-03    -517.106E-06     348.142E-03    -173.223E-03    -174.919E-03    -172.618E-03     347.537E-03    -174.919E-03     34.9682E-03    -15.1676E+06    -86.0435E+06    -103.838E+06    -93.7883E+06    -96.0934E+06    -15.1676E+06     99.1802E+03         53.6593
             642     5.04003E-03     46.2765E-03     350.641E-03     346.852E-03        -1.14778     346.852E-03        -1.14778     350.641E-03    -1.41998E-03     348.377E-03    -173.397E-03    -174.980E-03    -173.095E-03     348.075E-03    -174.980E-03     24.7199E-03    -38.3216E+06    -104.815E+06    -142.116E+06    -104.822E+06    -142.108E+06    -38.3216E+06     139.559E+03         52.7865
             643     4.19913E-03     46.2579E-03     351.235E-03     348.447E-03        -1.15004     348.446E-03        -1.15004     351.235E-03     737.927E-06     348.978E-03    -173.972E-03    -175.006E-03    -173.836E-03     348.842E-03    -175.006E-03     16.3315E-03    -61.6442E+06    -114.494E+06    -184.208E+06    -114.496E+06    -184.206E+06    -61.6442E+06     335.153E+03         52.0997
             644     3.35972E-03     46.2502E-03     351.749E-03     349.863E-03        -1.15204     349.862E-03        -1.15204     351.749E-03     1.89454E-03     349.415E-03    -174.446E-03    -174.968E-03    -174.402E-03     349.371E-03    -174.968E-03     9.09899E-03    -86.1398E+06    -124.923E+06    -226.049E+06    -124.924E+06    -226.048E+06    -86.1398E+06     198.324E+03         51.5728
             645     2.51976E-03     46.2500E-03     352.154E-03     351.134E-03        -1.15375     351.134E-03        -1.15375     352.154E-03     1.41756E-03     349.446E-03    -174.539E-03    -174.907E-03    -174.529E-03     349.436E-03    -174.907E-03     4.22414E-03    -109.294E+06    -134.334E+06    -262.234E+06    -134.342E+06    -262.226E+06    -109.294E+06     265.072E+03         51.1834
             646     1.67906E-03     46.2525E-03     352.459E-03     351.966E-03        -1.15492     351.986E-03        -1.15492     352.438E-03     2.61446E-03     349.595E-03    -174.693E-03    -174.902E-03    -174.754E-03     349.593E-03    -174.839E-03     1.48528E-03    -128.037E+06    -140.746E+06    -290.846E+06    -140.756E+06    -290.836E+06    -128.037E+06     566.611E+03         50.9144
             647     840.274E-06     46.2549E-03     355.478E-03     349.624E-03        -1.15569     349.636E-03        -1.15568     355.457E-03    -3.16947E-03     349.520E-03    -174.419E-03    -175.101E-03    -175.100E-03     349.519E-03    -174.419E-03    -388.139E-06    -140.504E+06    -146.465E+06    -313.451E+06    -145.264E+06    -313.447E+06    -141.709E+06     764.613E+03         50.7529
             648     14.2884E-03     46.1868E-03     338.715E-03     314.159E-03        -1.10264     314.159E-03        -1.10264     338.715E-03    -14.1236E-06     365.770E-03    -174.901E-03    -190.868E-03    -178.050E-03     352.952E-03    -174.901E-03     160.910E-03     124.062E+06     85.4112E+06    -7.96553E+06    -7.95983E+06     85.4055E+06     124.062E+06    -14.9720E+03         71.9039
             649     13.4475E-03     45.9023E-03     340.159E-03     317.940E-03        -1.10825     317.940E-03        -1.10825     340.159E-03    -1.16952E-03     365.524E-03    -174.834E-03    -190.690E-03    -177.402E-03     352.236E-03    -174.834E-03     165.075E-03     97.7359E+06     70.0466E+06    -15.0126E+06    -15.0062E+06     70.0402E+06     97.7359E+06     25.4830E+03         70.0688
             650     12.6064E-03     45.7400E-03     341.517E-03     321.642E-03        -1.11364     321.642E-03        -1.11364     341.517E-03    -705.893E-06     357.323E-03    -174.792E-03    -182.531E-03    -174.665E-03     349.457E-03    -174.792E-03     129.154E-03     77.4902E+06     51.5600E+06    -22.1100E+06    -22.1073E+06     51.5574E+06     77.4902E+06     78.0770E+03         68.0259
             651     11.7647E-03     45.5596E-03     342.784E-03     325.217E-03        -1.11874     325.217E-03        -1.11874     342.784E-03    -269.741E-06     356.325E-03    -174.784E-03    -181.541E-03    -174.305E-03     349.089E-03    -174.784E-03     123.221E-03     69.1566E+06     39.4713E+06    -28.6148E+06    -28.5973E+06     39.4538E+06     69.1566E+06     376.055E+03         65.8501
             652     10.9245E-03     45.4182E-03     343.964E-03     328.597E-03        -1.12353     328.597E-03        -1.12353     343.964E-03     526.286E-06     353.737E-03    -174.761E-03    -178.975E-03    -173.595E-03     348.356E-03    -174.761E-03     106.495E-03     62.0665E+06     32.2040E+06    -34.9818E+06    -34.9613E+06     32.1834E+06     62.0665E+06     604.730E+03         63.6361
             653     10.0853E-03     45.2851E-03     345.059E-03     331.753E-03        -1.12799     331.752E-03        -1.12799     345.059E-03     1.23232E-03     352.143E-03    -174.726E-03    -177.417E-03    -172.923E-03     347.649E-03    -174.726E-03     96.9403E-03     51.8104E+06     27.5557E+06    -42.7225E+06    -42.7139E+06     27.5471E+06     51.8104E+06     21.0711E+03         61.4817
             654     9.24283E-03     45.1716E-03     346.072E-03     334.740E-03        -1.13218     334.739E-03        -1.13218     346.072E-03     773.257E-06     350.526E-03    -174.724E-03    -175.802E-03    -172.367E-03     347.091E-03    -174.724E-03     84.5701E-03     42.2091E+06     20.9368E+06    -51.9537E+06    -51.9429E+06     20.9261E+06     42.2091E+06    -537.481E+03         59.4709
             655     8.40292E-03     45.0744E-03     347.003E-03     337.524E-03        -1.13607     337.524E-03        -1.13607     347.003E-03     841.952E-06     349.476E-03    -174.395E-03    -175.081E-03    -172.175E-03     346.929E-03    -174.754E-03     72.6502E-03     35.1373E+06     13.5936E+06    -61.2272E+06    -61.2169E+06     13.5832E+06     35.1373E+06    -769.828E+03         57.6646
             656     7.56170E-03     44.9928E-03     347.855E-03     340.068E-03        -1.13962     340.068E-03        -1.13962     347.855E-03    -130.997E-06     348.447E-03    -173.632E-03    -174.815E-03    -171.885E-03     346.700E-03    -174.815E-03     59.9628E-03     25.6288E+06    -3.46291E+06    -71.0753E+06    -71.0703E+06    -3.46790E+06     25.6288E+06    -370.950E+03         56.0959
             657     6.72041E-03     44.9342E-03     348.630E-03     342.404E-03        -1.14287     342.403E-03        -1.14287     348.630E-03    -83.1311E-06     348.070E-03    -173.164E-03    -174.906E-03    -172.054E-03     346.960E-03    -174.906E-03     47.7036E-03     8.29712E+06    -43.7268E+06    -81.8774E+06    -81.8597E+06    -43.7446E+06     8.29712E+06     253.316E+03         54.7728
             658     5.88024E-03     44.8872E-03     349.325E-03     344.506E-03        -1.14577     344.506E-03        -1.14577     349.325E-03    -133.244E-06     348.365E-03    -173.382E-03    -174.983E-03    -172.748E-03     347.730E-03    -174.983E-03     35.8323E-03    -14.4563E+06    -84.2854E+06    -103.706E+06    -92.7132E+06    -95.2779E+06    -14.4563E+06     338.292E+03         53.6849
             659     5.03933E-03     44.8601E-03     349.942E-03     346.334E-03        -1.14831     346.334E-03        -1.14831     349.942E-03    -980.736E-06     348.889E-03    -173.890E-03    -174.999E-03    -173.578E-03     348.577E-03    -174.999E-03     25.0552E-03    -38.2823E+06    -103.985E+06    -141.796E+06    -103.997E+06    -141.783E+06    -38.2823E+06     111.401E+03         52.8100
             660     4.19923E-03     44.8399E-03     350.483E-03     347.904E-03        -1.15051     347.903E-03        -1.15051     350.483E-03     943.116E-06     348.908E-03    -173.920E-03    -174.987E-03    -173.792E-03     348.779E-03    -174.987E-03     15.7148E-03    -62.6344E+06    -115.246E+06    -184.388E+06    -115.248E+06    -184.386E+06    -62.6344E+06     56.7662E+03         52.1211
             661     3.35871E-03     44.8323E-03     350.947E-03     349.233E-03        -1.15236     349.232E-03        -1.15236     350.947E-03     2.05045E-03     349.042E-03    -174.030E-03    -175.011E-03    -173.993E-03     349.004E-03    -175.011E-03     8.44921E-03    -86.6304E+06    -125.024E+06    -225.761E+06    -125.024E+06    -225.760E+06    -86.6304E+06     54.4220E+03         51.5920
             662     2.51891E-03     44.8322E-03     351.324E-03     350.336E-03        -1.15384     350.336E-03        -1.15384     351.324E-03     1.36883E-03     349.712E-03    -174.607E-03    -175.105E-03    -174.709E-03     349.703E-03    -174.994E-03     3.81910E-03    -109.306E+06    -133.625E+06    -262.148E+06    -133.627E+06    -262.146E+06    -109.306E+06    -217.409E+03         51.2010
             663     1.68013E-03     44.8344E-03     351.623E-03     351.097E-03        -1.15491     351.095E-03        -1.15491     351.623E-03     2.97845E-03     349.791E-03    -174.740E-03    -175.051E-03    -174.902E-03     349.790E-03    -174.888E-03     804.275E-06    -128.346E+06    -140.595E+06    -291.327E+06    -140.600E+06    -291.322E+06    -128.346E+06    -213.742E+03         50.9310
             664     839.701E-06     44.8374E-03     360.027E-03     343.507E-03        -1.15574     343.489E-03        -1.15572     360.027E-03    -4.19735E-03     349.579E-03    -174.398E-03    -175.181E-03    -175.032E-03     349.578E-03    -174.546E-03    -227.391E-06    -139.965E+06    -145.336E+06    -312.587E+06    -144.528E+06    -312.574E+06    -140.786E+06    -334.143E+03         50.7689
             665     14.2882E-03     44.7704E-03     338.540E-03     315.219E-03        -1.10521     315.219E-03        -1.10521     338.540E-03    -5.67515E-06     365.524E-03    -174.905E-03    -190.620E-03    -177.866E-03     352.771E-03    -174.905E-03     160.463E-03     123.138E+06     85.2066E+06     -7.8665E+06    -7.86036E+06     85.2005E+06     123.138E+06     54.8177E+03         71.8712
             666     13.4462E-03     44.4837E-03     339.767E-03     318.826E-03        -1.11051     318.826E-03        -1.11051     339.767E-03    -864.361E-06     365.682E-03    -174.833E-03    -190.848E-03    -177.625E-03     352.458E-03    -174.833E-03     164.720E-03     96.6085E+06     69.7014E+06    -15.4898E+06    -15.4748E+06     69.6864E+06     96.6085E+06    -377.476E+03         70.0428
             667     12.6059E-03     44.3222E-03     340.915E-03     322.254E-03        -1.11545     322.253E-03        -1.11545     340.915E-03    -229.841E-06     357.327E-03    -174.783E-03    -182.543E-03    -174.753E-03     349.537E-03    -174.783E-03     128.546E-03     77.4934E+06     51.7032E+06    -22.0942E+06    -22.0794E+06     51.6883E+06     77.4934E+06     98.6991E+03         68.0102
             668     11.7656E-03     44.1424E-03     341.986E-03     325.541E-03        -1.12008     325.541E-03        -1.12008     341.986E-03     252.327E-06     356.237E-03    -174.770E-03    -181.467E-03    -174.264E-03     349.034E-03    -174.770E-03     123.005E-03     68.6227E+06     39.5819E+06    -29.1397E+06    -29.1285E+06     39.5707E+06     68.6227E+06    -13.5337E+03         65.8459
             669     10.9253E-03     43.9986E-03     342.979E-03     328.690E-03        -1.12445     328.690E-03        -1.12445     342.979E-03     1.06590E-03     353.441E-03    -174.761E-03    -178.680E-03    -173.277E-03     348.038E-03    -174.761E-03     106.647E-03     61.2908E+06     31.8233E+06    -35.9988E+06    -35.9796E+06     31.8041E+06     61.2908E+06    -522.999E+03         63.6428
             670     10.0836E-03     43.8684E-03     343.897E-03     331.610E-03        -1.12849     331.609E-03        -1.12849     343.897E-03     1.74269E-03     352.113E-03    -174.750E-03    -177.363E-03    -172.783E-03     347.533E-03    -174.750E-03     97.9204E-03     51.9302E+06     27.2429E+06    -42.7886E+06    -42.7738E+06     27.2281E+06     51.9302E+06     78.8994E+03         61.4974
             671     9.24387E-03     43.7543E-03     344.743E-03     334.279E-03        -1.13219     334.278E-03        -1.13219     344.743E-03     1.22838E-03     351.025E-03    -174.743E-03    -176.283E-03    -172.740E-03     347.482E-03    -174.743E-03     85.9074E-03     43.1745E+06     21.9680E+06    -50.8283E+06    -50.8105E+06     21.9502E+06     43.1745E+06     694.789E+03         59.4937
             672     8.40299E-03     43.6559E-03     345.524E-03     336.786E-03        -1.13564     336.786E-03        -1.13564     345.524E-03     1.30916E-03     349.406E-03    -174.170E-03    -175.236E-03    -172.077E-03     346.839E-03    -174.763E-03     72.9079E-03     35.4177E+06     14.2249E+06    -60.5359E+06    -60.5113E+06     14.2003E+06     35.4177E+06     515.233E+03         57.6916
             673     7.56130E-03     43.5791E-03     346.240E-03     339.139E-03        -1.13887     339.138E-03        -1.13886     346.240E-03     366.590E-06     348.298E-03    -173.461E-03    -174.837E-03    -171.695E-03     346.532E-03    -174.837E-03     60.2780E-03     24.2730E+06    -3.51440E+06    -71.7510E+06    -71.7388E+06    -3.52664E+06     24.2730E+06    -261.444E+03         56.1240
             674     6.72005E-03     43.5149E-03     346.891E-03     341.227E-03        -1.14173     341.227E-03        -1.14173     346.891E-03     381.859E-06     348.316E-03    -173.389E-03    -174.927E-03    -172.299E-03     347.226E-03    -174.927E-03     47.0979E-03     6.87077E+06    -44.2012E+06    -82.8179E+06    -82.7872E+06    -44.2319E+06     6.87077E+06    -618.915E+03         54.8004
             675     5.87858E-03     43.4723E-03     347.488E-03     343.034E-03        -1.14424     343.033E-03        -1.14424     347.488E-03     227.916E-06     348.577E-03    -173.604E-03    -174.973E-03    -173.009E-03     347.982E-03    -174.973E-03     34.7774E-03    -15.0776E+06    -85.3928E+06    -104.116E+06    -93.6156E+06    -95.8935E+06    -15.0776E+06    -277.135E+03         53.7110
             676     5.03918E-03     43.4386E-03     348.030E-03     344.696E-03        -1.14653     344.696E-03        -1.14653     348.030E-03    -652.869E-06     348.866E-03    -173.902E-03    -174.964E-03    -173.604E-03     348.569E-03    -174.964E-03     24.3918E-03    -38.2808E+06    -104.253E+06    -141.415E+06    -104.275E+06    -141.393E+06    -38.2808E+06     251.035E+03         52.8338
             677     4.20074E-03     43.4232E-03     348.504E-03     346.208E-03        -1.14857     346.208E-03        -1.14857     348.504E-03     1.16808E-03     348.927E-03    -173.995E-03    -174.931E-03    -173.874E-03     348.805E-03    -174.931E-03     15.3956E-03    -62.8906E+06    -115.140E+06    -184.054E+06    -115.153E+06    -184.041E+06    -62.8906E+06    -129.908E+03         52.1425
             678     3.35975E-03     43.4162E-03     348.903E-03     347.417E-03        -1.15023     347.416E-03        -1.15023     348.903E-03     2.21925E-03     349.053E-03    -174.135E-03    -174.918E-03    -174.096E-03     349.014E-03    -174.918E-03     8.41490E-03    -86.8098E+06    -125.386E+06    -225.917E+06    -125.391E+06    -225.912E+06    -86.8098E+06    -388.879E+03         51.6114
             679     2.51943E-03     43.4129E-03     349.231E-03     348.354E-03        -1.15155     348.353E-03        -1.15155     349.231E-03     1.35676E-03     349.319E-03    -174.295E-03    -175.024E-03    -174.398E-03     349.312E-03    -174.913E-03     3.38612E-03    -109.619E+06    -134.293E+06    -261.708E+06    -134.293E+06    -261.707E+06    -109.619E+06     71.1202E+03         51.2187
             680     1.67972E-03     43.4165E-03     349.479E-03     349.092E-03        -1.15257     349.090E-03        -1.15256     349.479E-03     3.17799E-03     349.512E-03    -174.465E-03    -175.047E-03    -174.575E-03     349.511E-03    -174.936E-03     771.547E-06    -129.595E+06    -141.404E+06    -291.088E+06    -141.406E+06    -291.086E+06    -129.595E+06    -161.079E+03         50.9475
             681     839.828E-06     43.4219E-03     362.379E-03     336.807E-03        -1.15316     336.787E-03        -1.15314     362.379E-03    -4.24783E-03     349.859E-03    -174.779E-03    -175.080E-03    -174.883E-03     349.858E-03    -174.976E-03     144.034E-06    -142.892E+06    -146.870E+06    -313.642E+06    -146.064E+06    -313.627E+06    -143.713E+06    -391.072E+03         50.7847
             682     14.2885E-03     43.3557E-03     337.523E-03     316.280E-03        -1.10720     316.280E-03        -1.10720     337.523E-03    -20.9155E-06     365.879E-03    -174.907E-03    -190.972E-03    -178.102E-03     353.009E-03    -174.907E-03     161.013E-03     123.757E+06     85.3336E+06    -7.62465E+06    -7.61387E+06     85.3228E+06     123.757E+06     499.818E+03         71.8389
             683     13.4480E-03     43.0640E-03     338.495E-03     319.535E-03        -1.11189     319.535E-03        -1.11189     338.495E-03    -538.016E-06     366.014E-03    -174.828E-03    -191.186E-03    -177.852E-03     352.679E-03    -174.828E-03     165.254E-03     97.3565E+06     70.4796E+06    -15.4497E+06    -15.4270E+06     70.4569E+06     97.3565E+06     517.040E+03         70.0173
             684     12.6070E-03     42.9061E-03     339.400E-03     322.581E-03        -1.11618     322.581E-03        -1.11618     339.400E-03     95.8449E-06     357.341E-03    -174.770E-03    -182.571E-03    -174.756E-03     349.526E-03    -174.770E-03     128.697E-03     77.3810E+06     52.1927E+06    -22.6423E+06    -22.6207E+06     52.1711E+06     77.3810E+06    -34.0625E+03         67.9947
             685     11.7657E-03     42.7231E-03     340.249E-03     325.471E-03        -1.12016     325.471E-03        -1.12016     340.249E-03     548.803E-06     356.136E-03    -174.763E-03    -181.373E-03    -174.074E-03     348.837E-03    -174.763E-03     123.760E-03     68.2073E+06     39.8666E+06    -29.3083E+06    -29.2941E+06     39.8524E+06     68.2073E+06    -293.719E+03         65.8414
             686     10.9244E-03     42.5824E-03     341.032E-03     328.197E-03        -1.12389     328.196E-03        -1.12389     341.032E-03     1.38796E-03     353.143E-03    -174.770E-03    -178.373E-03    -173.013E-03     347.783E-03    -174.770E-03     106.136E-03     60.1515E+06     32.0091E+06    -36.8087E+06    -36.7923E+06     31.9928E+06     60.1515E+06    -879.563E+03         63.6489
             687     10.0828E-03     42.4519E-03     341.756E-03     330.785E-03        -1.12738     330.784E-03        -1.12738     341.756E-03     2.06695E-03     351.891E-03    -174.779E-03    -177.112E-03    -172.594E-03     347.373E-03    -174.779E-03     97.2360E-03     50.5462E+06     25.9664E+06    -45.0489E+06    -45.0340E+06     25.9516E+06     50.5462E+06    -681.523E+03         61.5126
             688     9.24196E-03     42.3335E-03     342.414E-03     333.205E-03        -1.13063     333.205E-03        -1.13063     342.414E-03     1.60679E-03     350.635E-03    -174.707E-03    -175.928E-03    -172.301E-03     347.106E-03    -174.805E-03     85.6488E-03     42.5507E+06     20.4172E+06    -52.5926E+06    -52.5637E+06     20.3884E+06     42.5507E+06    -8.40513E+03         59.5153
             689     8.40174E-03     42.2407E-03     343.019E-03     335.378E-03        -1.13355     335.378E-03        -1.13355     343.019E-03     1.64358E-03     349.687E-03    -174.472E-03    -175.215E-03    -172.281E-03     347.120E-03    -174.839E-03     72.9725E-03     35.4075E+06     14.0518E+06    -60.8001E+06    -60.7692E+06     14.0209E+06     35.4075E+06     617.886E+03         57.7172
             690     7.56096E-03     42.1609E-03     343.578E-03     337.319E-03        -1.13618     337.319E-03        -1.13618     343.578E-03     602.805E-06     349.268E-03    -174.257E-03    -175.011E-03    -172.653E-03     347.506E-03    -174.854E-03     60.2456E-03     25.2323E+06    -1.72304E+06    -70.6736E+06    -70.6598E+06    -1.73685E+06     25.2323E+06     516.411E+03         56.1521
             691     6.72079E-03     42.0983E-03     344.097E-03     339.098E-03        -1.13860     339.098E-03        -1.13860     344.097E-03     608.313E-06     348.839E-03    -173.995E-03    -174.844E-03    -172.936E-03     347.780E-03    -174.844E-03     46.4975E-03     7.17240E+06    -43.5013E+06    -82.0449E+06    -82.0076E+06    -43.5386E+06     7.17240E+06    -386.211E+03         54.8290
             692     5.88196E-03     42.0528E-03     344.574E-03     340.749E-03        -1.14083     340.748E-03        -1.14083     344.574E-03     479.600E-06     348.433E-03    -173.600E-03    -174.833E-03    -173.020E-03     347.853E-03    -174.833E-03     34.3582E-03    -15.8450E+06    -86.7758E+06    -104.724E+06    -94.2351E+06    -97.2649E+06    -15.8450E+06    -311.872E+03         53.7380
             693     5.04103E-03     42.0228E-03     345.009E-03     342.157E-03        -1.14276     342.157E-03        -1.14276     345.009E-03    -420.921E-06     348.155E-03    -173.301E-03    -174.853E-03    -173.010E-03     347.863E-03    -174.853E-03     24.1390E-03    -38.8605E+06    -105.243E+06    -141.464E+06    -105.279E+06    -141.427E+06    -38.8605E+06     151.086E+03         52.8582
             694     4.19825E-03     42.0052E-03     345.400E-03     343.404E-03        -1.14446     343.404E-03        -1.14446     345.400E-03     1.23018E-03     348.621E-03    -173.740E-03    -174.880E-03    -173.620E-03     348.500E-03    -174.880E-03     15.3912E-03    -63.0250E+06    -115.468E+06    -182.964E+06    -115.492E+06    -182.939E+06    -63.0250E+06     63.3630E+03         52.1641
             695     3.36011E-03     41.9974E-03     345.731E-03     344.498E-03        -1.14591     344.497E-03        -1.14591     345.731E-03     2.55025E-03     349.128E-03    -174.267E-03    -174.861E-03    -174.225E-03     349.086E-03    -174.861E-03     8.84144E-03    -88.0239E+06    -125.635E+06    -226.410E+06    -125.646E+06    -226.399E+06    -88.0239E+06     62.8570E+03         51.6308
             696     2.52059E-03     41.9970E-03     345.992E-03     345.318E-03        -1.14704     345.317E-03        -1.14703     345.992E-03     1.44964E-03     349.017E-03    -174.149E-03    -174.868E-03    -174.139E-03     349.007E-03    -174.868E-03     3.94246E-03    -111.329E+06    -134.766E+06    -262.207E+06    -134.770E+06    -262.203E+06    -111.329E+06    -205.766E+03         51.2364
             697     1.67881E-03     42.0001E-03     346.202E-03     345.893E-03        -1.14784     345.917E-03        -1.14783     346.174E-03     3.33130E-03     349.450E-03    -174.485E-03    -174.966E-03    -174.490E-03     349.449E-03    -174.959E-03     922.637E-06    -130.176E+06    -142.182E+06    -290.815E+06    -142.189E+06    -290.808E+06    -130.176E+06     54.8485E+03         50.9641
             698     839.312E-06     42.0017E-03     362.407E-03     330.088E-03        -1.14829     330.093E-03        -1.14827     362.380E-03    -4.20218E-03     349.961E-03    -174.740E-03    -175.221E-03    -175.172E-03     349.961E-03    -174.788E-03    -553.638E-06    -143.199E+06    -147.004E+06    -313.701E+06    -146.832E+06    -313.692E+06    -143.380E+06     534.315E+03         50.8006
             699     14.2878E-03     41.9368E-03     335.742E-03     317.255E-03        -1.10857     317.255E-03        -1.10857     335.742E-03     23.7483E-06     366.105E-03    -174.914E-03    -191.191E-03    -178.308E-03     353.222E-03    -174.914E-03     161.133E-03     124.411E+06     84.9732E+06    -7.88027E+06    -7.86932E+06     84.9622E+06     124.411E+06     538.737E+03         71.8067
             700     13.4464E-03     41.6463E-03     336.441E-03     319.997E-03        -1.11233     319.997E-03        -1.11233     336.441E-03    -385.946E-06     365.963E-03    -174.832E-03    -191.131E-03    -177.777E-03     352.609E-03    -174.832E-03     165.380E-03      98.308E+06     70.6950E+06    -15.2045E+06    -15.1907E+06     70.6811E+06      98.308E+06     834.449E+03         69.9917
             701     12.6059E-03     41.4872E-03     337.088E-03     322.611E-03        -1.11585     322.611E-03        -1.11585     337.088E-03     215.557E-06     357.383E-03    -174.775E-03    -182.608E-03    -174.803E-03     349.577E-03    -174.775E-03     128.644E-03     78.5376E+06     53.2900E+06    -21.5926E+06    -21.5837E+06     53.2811E+06     78.5376E+06     126.612E+03         67.9786
             702     11.7652E-03     41.3067E-03     337.696E-03     325.048E-03        -1.11910     325.048E-03        -1.11910     337.696E-03     696.679E-06     356.058E-03    -174.763E-03    -181.295E-03    -174.091E-03     348.855E-03    -174.763E-03     122.864E-03     69.1737E+06     40.5996E+06    -28.3894E+06    -28.3856E+06     40.5958E+06     69.1737E+06    -178.616E+03         65.8366
             703     10.9244E-03     41.1641E-03     338.251E-03     327.315E-03        -1.12211     327.315E-03        -1.12211     338.251E-03     1.48814E-03     353.257E-03    -174.756E-03    -178.501E-03    -173.188E-03     347.944E-03    -174.756E-03     105.718E-03     60.0926E+06     31.8037E+06    -36.4214E+06    -36.4191E+06     31.8014E+06     60.0926E+06    -8.51403E+03         63.6554
             704     10.0850E-03     41.0343E-03     338.762E-03     329.452E-03        -1.12492     329.452E-03        -1.12492     338.762E-03     2.09368E-03     351.945E-03    -174.745E-03    -177.199E-03    -172.742E-03     347.488E-03    -174.745E-03     96.5268E-03     49.9383E+06     26.0077E+06    -44.3832E+06    -44.3765E+06     26.0010E+06     49.9383E+06    -342.261E+03         61.5289
             705     9.24280E-03     40.9190E-03     339.224E-03     331.445E-03        -1.12752     331.444E-03        -1.12752     339.224E-03     1.58910E-03     349.959E-03    -174.503E-03    -175.456E-03    -171.773E-03     346.556E-03    -174.783E-03     84.0541E-03     41.3573E+06     19.9089E+06    -52.7306E+06    -52.7169E+06     19.8952E+06     41.3573E+06    -883.030E+03         59.5383
             706     8.40028E-03     40.8220E-03     339.647E-03     333.253E-03        -1.12989     333.253E-03        -1.12989     339.647E-03     1.60799E-03     349.552E-03    -174.550E-03    -175.002E-03    -172.179E-03     347.024E-03    -174.845E-03     72.4151E-03     34.1570E+06     12.8414E+06    -61.9961E+06    -61.9807E+06     12.8260E+06     34.1570E+06    -647.088E+03         57.7438
             707     7.56152E-03     40.7411E-03     340.036E-03     334.876E-03        -1.13202     334.876E-03        -1.13202     340.036E-03     642.971E-06     349.651E-03    -174.653E-03    -174.998E-03    -173.059E-03     347.900E-03    -174.841E-03     60.1116E-03     24.3336E+06    -1.93303E+06    -72.1650E+06    -72.1529E+06    -1.94517E+06     24.3336E+06     289.529E+03         56.1805
             708     6.72230E-03     40.6803E-03     340.401E-03     336.331E-03        -1.13395     336.331E-03        -1.13395     340.401E-03     674.014E-06     348.913E-03    -174.113E-03    -174.799E-03    -173.022E-03     347.822E-03    -174.799E-03     47.3657E-03     6.68651E+06    -43.0426E+06    -82.9842E+06    -82.9379E+06    -43.0890E+06     6.68651E+06     698.491E+03         54.8573
             709     5.88071E-03     40.6354E-03     340.743E-03     337.649E-03        -1.13570     337.649E-03        -1.13570     340.743E-03     514.471E-06     348.457E-03    -173.680E-03    -174.777E-03    -173.060E-03     347.837E-03    -174.777E-03     35.4195E-03    -15.6424E+06    -86.2477E+06    -104.433E+06    -93.8437E+06    -96.8373E+06    -15.6424E+06     411.887E+03         53.7646
             710     5.04019E-03     40.6069E-03     341.060E-03     338.795E-03        -1.13723     338.795E-03        -1.13723     341.060E-03    -274.384E-06     348.328E-03    -173.569E-03    -174.759E-03    -173.274E-03     348.033E-03    -174.759E-03     24.2812E-03    -39.2377E+06    -105.256E+06    -141.263E+06    -105.286E+06    -141.233E+06    -39.2377E+06     57.6818E+03         52.8824
             711     4.20158E-03     40.5880E-03     341.351E-03     339.753E-03        -1.13854     339.752E-03        -1.13854     341.351E-03     1.21467E-03     348.190E-03    -173.409E-03    -174.781E-03    -173.290E-03     348.071E-03    -174.781E-03     15.1884E-03    -63.4623E+06    -115.924E+06    -183.209E+06    -115.942E+06    -183.190E+06    -63.4623E+06     11.3314E+03         52.1859
             712     3.35936E-03     40.5799E-03     341.608E-03     340.609E-03        -1.13966     340.608E-03        -1.13966     341.608E-03     2.53800E-03     348.420E-03    -173.537E-03    -174.883E-03    -173.498E-03     348.381E-03    -174.883E-03     8.56955E-03    -87.3767E+06    -125.834E+06    -225.927E+06    -125.843E+06    -225.918E+06    -87.3767E+06     255.272E+03         51.6503
             713     2.51849E-03     40.5802E-03     341.812E-03     341.298E-03        -1.14058     341.297E-03        -1.14058     341.812E-03     1.33251E-03     349.254E-03    -174.275E-03    -174.978E-03    -174.265E-03     349.243E-03    -174.978E-03     4.32257E-03    -111.073E+06    -134.792E+06    -262.298E+06    -134.803E+06    -262.286E+06    -111.073E+06     317.674E+03         51.2542
             714     1.68033E-03     40.5820E-03     341.971E-03     341.756E-03        -1.14121     341.780E-03        -1.14121     341.943E-03     3.46613E-03     349.793E-03    -174.790E-03    -175.002E-03    -174.795E-03     349.790E-03    -174.996E-03     1.68743E-03    -130.533E+06    -141.785E+06    -291.383E+06    -141.808E+06    -291.360E+06    -130.533E+06    -125.458E+03         50.9808
             715     840.415E-06     40.5845E-03     360.668E-03     323.324E-03        -1.14159     323.327E-03        -1.14156     360.640E-03    -4.04282E-03     349.909E-03    -174.568E-03    -175.341E-03    -175.258E-03     349.908E-03    -174.650E-03     463.464E-09    -142.257E+06    -146.159E+06    -313.411E+06    -145.991E+06    -313.398E+06    -142.438E+06    -515.004E+03         50.8167
             716     14.2889E-03     40.5195E-03     333.325E-03     318.181E-03        -1.10917     318.181E-03        -1.10917     333.325E-03     220.342E-06     366.158E-03    -174.897E-03    -191.261E-03    -178.511E-03     353.408E-03    -174.897E-03     160.403E-03     124.469E+06     84.8152E+06    -7.81026E+06    -7.80853E+06     84.8135E+06     124.469E+06     303.057E+03         71.7752
             717     13.4481E-03     40.2293E-03     333.741E-03     320.362E-03        -1.11196     320.362E-03        -1.11196     333.741E-03    -487.750E-06     365.597E-03    -174.810E-03    -190.787E-03    -177.551E-03     352.361E-03    -174.810E-03     164.683E-03     98.6868E+06     71.2158E+06    -14.6088E+06    -14.6075E+06     71.2145E+06     98.6868E+06     177.823E+03         69.9668
             718     12.6064E-03     40.0695E-03     334.117E-03     322.464E-03        -1.11465     322.464E-03        -1.11465     334.117E-03     158.224E-06     357.240E-03    -174.759E-03    -182.481E-03    -174.694E-03     349.453E-03    -174.759E-03     128.483E-03     78.6616E+06     53.2636E+06    -21.6282E+06    -21.6271E+06     53.2625E+06     78.6616E+06     178.221E+03         67.9631
             719     11.7666E-03     39.8873E-03     334.471E-03     324.353E-03        -1.11708     324.353E-03        -1.11708     334.471E-03     703.733E-06     356.171E-03    -174.739E-03    -181.432E-03    -174.289E-03     349.028E-03    -174.739E-03     122.367E-03     68.7175E+06     40.1817E+06    -29.1722E+06    -29.1715E+06     40.1810E+06     68.7175E+06     147.958E+03         65.8323
             720     10.9252E-03     39.7497E-03     334.786E-03     326.109E-03        -1.11931     326.108E-03        -1.11931     334.786E-03     1.42580E-03     353.141E-03    -174.729E-03    -178.412E-03    -173.086E-03     347.815E-03    -174.729E-03     105.860E-03     60.6571E+06     31.8745E+06    -35.9336E+06    -35.9271E+06     31.8680E+06     60.6571E+06    -138.608E+03         63.6622
             721     10.0833E-03     39.6130E-03     335.072E-03     327.746E-03        -1.12137     327.745E-03        -1.12137     335.072E-03     2.03734E-03     351.774E-03    -174.729E-03    -177.045E-03    -172.546E-03     347.275E-03    -174.729E-03     96.9173E-03     50.6689E+06     26.2723E+06    -43.2078E+06    -43.1957E+06     26.2603E+06     50.6689E+06     46.4568E+03         61.5447
             722     9.24411E-03     39.5052E-03     335.326E-03     329.223E-03        -1.12323     329.222E-03        -1.12323     335.326E-03     1.61395E-03     350.597E-03    -174.561E-03    -176.037E-03    -172.402E-03     347.144E-03    -174.742E-03     84.8227E-03     41.3506E+06     20.4171E+06    -52.1118E+06    -52.0951E+06     20.4004E+06     41.3506E+06     513.532E+03         59.5613
             723     8.40315E-03     39.4047E-03     335.553E-03     330.610E-03        -1.12497     330.610E-03        -1.12497     335.553E-03     1.78089E-03     349.668E-03    -174.376E-03    -175.292E-03    -172.318E-03     347.083E-03    -174.765E-03     73.1937E-03     33.8060E+06     12.8711E+06    -61.9464E+06    -61.9255E+06     12.8502E+06     33.8060E+06     333.037E+03         57.7715
             724     7.56123E-03     39.3224E-03     335.759E-03     331.861E-03        -1.12654     331.861E-03        -1.12654     335.759E-03     906.577E-06     348.821E-03    -174.027E-03    -174.794E-03    -172.295E-03     347.089E-03    -174.794E-03     59.6330E-03     23.8984E+06    -2.48896E+06    -72.3979E+06    -72.3809E+06    -2.50594E+06     23.8984E+06    -117.909E+03         56.2093
             725     6.72005E-03     39.2625E-03     335.962E-03     332.903E-03        -1.12789     332.903E-03        -1.12789     335.962E-03     862.410E-06     348.553E-03    -173.738E-03    -174.816E-03    -172.674E-03     347.490E-03    -174.816E-03     46.7223E-03     6.32336E+06    -43.3228E+06    -83.5165E+06    -83.4720E+06    -43.3673E+06     6.32336E+06     230.520E+03         54.8849
             726     5.88087E-03     39.2180E-03     336.165E-03     333.843E-03        -1.12911     333.842E-03        -1.12911     336.165E-03     603.115E-06     348.616E-03    -173.811E-03    -174.806E-03    -173.202E-03     348.008E-03    -174.806E-03     35.1154E-03    -15.8637E+06    -85.9379E+06    -104.493E+06    -94.0880E+06    -96.3433E+06    -15.8637E+06     394.358E+03         53.7905
             727     5.04171E-03     39.1880E-03     336.364E-03     334.690E-03        -1.13021     334.690E-03        -1.13021     336.364E-03    -140.391E-06     348.413E-03    -173.633E-03    -174.781E-03    -173.332E-03     348.112E-03    -174.781E-03     24.6743E-03    -38.3562E+06    -104.472E+06    -140.822E+06    -104.488E+06    -140.806E+06    -38.3562E+06     137.266E+03         52.9063
             728     4.20023E-03     39.1720E-03     336.558E-03     335.367E-03        -1.13113     335.366E-03        -1.13113     336.558E-03     1.35555E-03     348.198E-03    -173.392E-03    -174.806E-03    -173.256E-03     348.062E-03    -174.806E-03     16.3167E-03    -62.5947E+06    -115.607E+06    -183.296E+06    -115.621E+06    -183.282E+06    -62.5947E+06     242.855E+03         52.2076
             729     3.35994E-03     39.1653E-03     336.741E-03     335.975E-03        -1.13194     335.974E-03        -1.13194     336.741E-03     2.53875E-03     348.572E-03    -173.675E-03    -174.897E-03    -173.629E-03     348.526E-03    -174.897E-03     9.23505E-03    -86.8416E+06    -126.428E+06    -226.249E+06    -126.438E+06    -226.238E+06    -86.8416E+06     138.379E+03         51.6699
             730     2.51945E-03     39.1617E-03     336.898E-03     336.472E-03        -1.13264     336.471E-03        -1.13264     336.898E-03     1.42656E-03     349.214E-03    -174.225E-03    -174.989E-03    -174.215E-03     349.204E-03    -174.989E-03     4.02067E-03    -109.596E+06    -135.169E+06    -261.796E+06    -135.177E+06    -261.787E+06    -109.596E+06     401.920E+03         51.2723
             731     1.67853E-03     39.1637E-03     337.034E-03     336.791E-03        -1.13313     336.787E-03        -1.13312     337.034E-03     3.46423E-03     349.680E-03    -174.610E-03    -175.070E-03    -174.608E-03     349.678E-03    -175.070E-03     1.24618E-03    -130.792E+06    -142.486E+06    -290.294E+06    -142.507E+06    -290.273E+06    -130.792E+06     179.318E+03         50.9978
             732     838.700E-06     39.1675E-03     356.569E-03     317.636E-03        -1.13355     317.612E-03        -1.13353     356.569E-03    -3.98543E-03     350.178E-03    -174.554E-03    -175.624E-03    -175.445E-03     350.177E-03    -174.732E-03     289.538E-06    -144.941E+06    -148.726E+06    -314.804E+06    -148.209E+06    -314.785E+06    -145.477E+06    -759.441E+03         50.8331
             733     14.2889E-03     39.0997E-03     330.411E-03     319.048E-03        -1.10891     319.048E-03        -1.10891     330.411E-03     274.550E-06     366.087E-03    -174.878E-03    -191.209E-03    -178.473E-03     353.351E-03    -174.878E-03     160.442E-03     124.444E+06     84.8084E+06    -7.63941E+06    -7.63848E+06     84.8075E+06     124.444E+06    -66.1147E+03         71.7442
             734     13.4477E-03     38.8135E-03     330.537E-03     320.709E-03        -1.11096     320.709E-03        -1.11096     330.537E-03    -541.858E-06     365.647E-03    -174.788E-03    -190.859E-03    -177.570E-03     352.359E-03    -174.788E-03     165.312E-03     98.1124E+06     70.6607E+06    -15.4652E+06    -15.4604E+06     70.6559E+06     98.1124E+06     221.670E+03         69.9421
             735     12.6071E-03     38.6508E-03     330.635E-03     322.158E-03        -1.11274     322.157E-03        -1.11274     330.635E-03     76.9331E-06     357.110E-03    -174.746E-03    -182.364E-03    -174.460E-03     349.206E-03    -174.746E-03     129.446E-03     78.1110E+06     52.9785E+06    -22.4280E+06    -22.4237E+06     52.9741E+06     78.1110E+06     334.413E+03         67.9474
             736     11.7650E-03     38.4706E-03     330.727E-03     323.523E-03        -1.11437     323.523E-03        -1.11437     330.727E-03     603.850E-06     355.945E-03    -174.751E-03    -181.194E-03    -173.939E-03     348.691E-03    -174.751E-03     123.338E-03     68.8477E+06     40.7583E+06    -28.8070E+06    -28.8022E+06     40.7535E+06     68.8477E+06    -280.644E+03         65.8267
             737     10.9257E-03     38.3294E-03     330.791E-03     324.753E-03        -1.11581     324.752E-03        -1.11581     330.791E-03     1.44481E-03     353.294E-03    -174.759E-03    -178.535E-03    -173.100E-03     347.859E-03    -174.759E-03     106.932E-03     60.5995E+06     31.8703E+06    -36.2103E+06    -36.1923E+06     31.8523E+06     60.5995E+06    -172.611E+03         63.6669
             738     10.0846E-03     38.2011E-03     330.836E-03     325.831E-03        -1.11705     325.830E-03        -1.11705     330.836E-03     2.17016E-03     352.093E-03    -174.755E-03    -177.338E-03    -172.800E-03     347.555E-03    -174.755E-03     97.4025E-03     50.8285E+06     25.7674E+06    -44.2593E+06    -44.2401E+06     25.7482E+06     50.8285E+06     501.797E+03         61.5590
             739     9.24136E-03     38.0831E-03     330.860E-03     326.795E-03        -1.11816     326.795E-03        -1.11816     330.860E-03     1.82600E-03     351.147E-03    -174.733E-03    -176.414E-03    -172.967E-03     347.700E-03    -174.733E-03     84.7830E-03     41.7521E+06     20.1664E+06    -52.7228E+06    -52.7064E+06     20.1501E+06     41.7521E+06     783.168E+03         59.5833
             740     8.40300E-03     37.9880E-03     330.877E-03     327.611E-03        -1.11909     327.611E-03        -1.11909     330.877E-03     1.90932E-03     349.905E-03    -174.469E-03    -175.435E-03    -172.631E-03     347.342E-03    -174.711E-03     72.9579E-03     35.0044E+06     13.6910E+06    -61.1201E+06    -61.1040E+06     13.6749E+06     35.0044E+06     775.458E+03         57.7985
             741     7.56265E-03     37.9059E-03     330.900E-03     328.313E-03        -1.11992     328.313E-03        -1.11992     330.900E-03     1.04951E-03     348.487E-03    -173.754E-03    -174.733E-03    -172.009E-03     346.741E-03    -174.733E-03     59.8195E-03     25.1025E+06    -1.71456E+06    -71.2525E+06    -71.2336E+06    -1.73340E+06     25.1025E+06     466.488E+03         56.2379
             742     6.72197E-03     37.8454E-03     330.940E-03     328.957E-03        -1.12070     328.957E-03        -1.12070     330.940E-03     1.08951E-03     348.070E-03    -173.278E-03    -174.792E-03    -172.215E-03     347.007E-03    -174.792E-03     46.6589E-03     6.71255E+06    -43.3731E+06    -82.5302E+06    -82.5022E+06    -43.4012E+06     6.71255E+06    -181.006E+03         54.9128
             743     5.88091E-03     37.7992E-03     331.000E-03     329.506E-03        -1.12138     329.505E-03        -1.12138     331.000E-03     851.050E-06     348.037E-03    -173.174E-03    -174.863E-03    -172.555E-03     347.417E-03    -174.863E-03     35.5051E-03    -15.2117E+06    -85.7087E+06    -103.927E+06    -93.2115E+06    -96.4246E+06    -15.2117E+06    -38.4962E+03         53.8163
             744     5.03945E-03     37.7720E-03     331.086E-03     329.946E-03        -1.12196     329.946E-03        -1.12196     331.086E-03     85.9918E-06     348.264E-03    -173.338E-03    -174.926E-03    -173.023E-03     347.950E-03    -174.926E-03     25.0945E-03    -37.9260E+06    -104.235E+06    -141.222E+06    -104.246E+06    -141.211E+06    -37.9260E+06     319.444E+03         52.9296
             745     4.19910E-03     37.7554E-03     331.186E-03     330.426E-03        -1.12258     330.425E-03        -1.12258     331.186E-03     1.45593E-03     348.872E-03    -173.923E-03    -174.949E-03    -173.790E-03     348.739E-03    -174.949E-03     16.1423E-03    -62.4093E+06    -115.542E+06    -183.398E+06    -115.555E+06    -183.385E+06    -62.4093E+06     334.211E+03         52.2288
             746     3.35927E-03     37.7466E-03     331.281E-03     330.845E-03        -1.12311     330.844E-03        -1.12311     331.281E-03     2.66175E-03     349.296E-03    -174.381E-03    -174.915E-03    -174.336E-03     349.251E-03    -174.915E-03     9.27109E-03    -86.1815E+06    -125.264E+06    -225.917E+06    -125.275E+06    -225.906E+06    -86.1815E+06     307.887E+03         51.6896
             747     2.52003E-03     37.7451E-03     331.377E-03     331.061E-03        -1.12347     331.061E-03        -1.12346     331.377E-03     1.59974E-03     349.328E-03    -174.412E-03    -174.916E-03    -174.457E-03     349.317E-03    -174.861E-03     4.07896E-03    -108.801E+06    -134.313E+06    -261.883E+06    -134.315E+06    -261.882E+06    -108.801E+06     47.9268E+03         51.2906
             748     1.68001E-03     37.7470E-03     331.531E-03     331.263E-03        -1.12381     331.319E-03        -1.12381     331.471E-03     3.68732E-03     349.438E-03    -174.459E-03    -174.980E-03    -174.620E-03     349.437E-03    -174.817E-03     714.500E-06    -129.259E+06    -142.472E+06    -289.466E+06    -142.476E+06    -289.462E+06    -129.259E+06     456.709E+03         51.0150
             749     840.196E-06     37.7480E-03     350.476E-03     312.570E-03        -1.12407     312.606E-03        -1.12405     350.416E-03    -3.69832E-03     349.530E-03    -174.325E-03    -175.205E-03    -174.962E-03     349.529E-03    -174.567E-03    -553.552E-06    -143.530E+06    -147.975E+06    -314.204E+06    -147.465E+06    -314.178E+06    -144.066E+06     791.058E+03         50.8496
             750     14.2888E-03     37.6820E-03     327.115E-03     319.732E-03        -1.10807     319.732E-03        -1.10807     327.115E-03     177.692E-06     365.802E-03    -174.869E-03    -190.933E-03    -178.277E-03     353.146E-03    -174.869E-03     160.050E-03     124.145E+06     84.2318E+06    -8.06122E+06    -8.06009E+06     84.2307E+06     124.145E+06    -186.773E+03         71.7132
             751     13.4479E-03     37.3959E-03     326.958E-03     320.863E-03        -1.10937     320.863E-03        -1.10937     326.958E-03    -379.381E-06     365.369E-03    -174.787E-03    -190.582E-03    -177.383E-03     352.171E-03    -174.787E-03     164.802E-03     98.2098E+06     70.4560E+06    -15.3502E+06    -15.3456E+06     70.4514E+06     98.2098E+06     71.9600E+03         69.9170
             752     12.6063E-03     37.2335E-03     326.779E-03     321.777E-03        -1.11034     321.777E-03        -1.11034     326.779E-03     203.321E-06     356.893E-03    -174.757E-03    -182.136E-03    -174.235E-03     348.992E-03    -174.757E-03     129.381E-03     78.5520E+06     53.4278E+06    -21.7908E+06    -21.7869E+06     53.4238E+06     78.5520E+06     221.837E+03         67.9310
             753     11.7659E-03     37.0538E-03     326.607E-03     322.554E-03        -1.11112     322.554E-03        -1.11112     326.607E-03     717.522E-06     355.465E-03    -174.787E-03    -180.678E-03    -173.454E-03     348.241E-03    -174.787E-03     122.968E-03     68.5757E+06     40.8194E+06    -29.0362E+06    -29.0259E+06     40.8092E+06     68.5757E+06    -3.08117E+03         65.8203
             754     10.9222E-03     36.9126E-03     326.415E-03     323.207E-03        -1.11172     323.206E-03        -1.11172     326.415E-03     1.60255E-03     353.356E-03    -174.814E-03    -178.542E-03    -173.125E-03     347.938E-03    -174.814E-03     106.766E-03     59.9211E+06     31.5001E+06    -37.1385E+06    -37.1182E+06     31.4798E+06     59.9211E+06     596.069E+03         63.6706
             755     10.0826E-03     36.7804E-03     326.216E-03     323.736E-03        -1.11215     323.735E-03        -1.11215     326.216E-03     2.20304E-03     352.947E-03    -174.777E-03    -178.170E-03    -173.648E-03     348.425E-03    -174.777E-03     97.3748E-03     50.3940E+06     25.4823E+06    -45.0161E+06    -45.0051E+06     25.4713E+06     50.3940E+06     659.612E+03         61.5728
             756     9.24556E-03     36.6670E-03     326.015E-03     324.090E-03        -1.11240     324.089E-03        -1.11240     326.015E-03     1.83068E-03     351.199E-03    -174.719E-03    -176.480E-03    -173.028E-03     347.747E-03    -174.719E-03     84.8781E-03     42.4942E+06     20.9064E+06    -52.1192E+06    -52.1181E+06     20.9053E+06     42.4942E+06     91.7029E+03         59.6049
             757     8.40320E-03     36.5686E-03     325.830E-03     324.338E-03        -1.11255     324.337E-03        -1.11255     325.830E-03     1.88207E-03     349.545E-03    -174.501E-03    -175.044E-03    -172.258E-03     346.967E-03    -174.709E-03     73.0958E-03     34.7740E+06     13.5771E+06    -61.1975E+06    -61.1966E+06     13.5761E+06     34.7740E+06     106.516E+03         57.8240
             758     7.56232E-03     36.4905E-03     325.671E-03     324.552E-03        -1.11269     324.551E-03        -1.11269     325.671E-03     1.01120E-03     348.536E-03    -173.783E-03    -174.753E-03    -171.984E-03     346.737E-03    -174.753E-03     60.8837E-03     24.9852E+06    -1.61189E+06    -71.3303E+06    -71.3213E+06    -1.62092E+06     24.9852E+06     370.077E+03         56.2648
             759     6.72114E-03     36.4271E-03     325.548E-03     324.703E-03        -1.11280     324.702E-03        -1.11280     325.548E-03     1.05683E-03     347.935E-03    -173.094E-03    -174.841E-03    -171.966E-03     346.807E-03    -174.841E-03     47.9820E-03     7.83571E+06    -42.4897E+06    -81.7740E+06    -81.7241E+06    -42.5396E+06     7.83571E+06     370.026E+03         54.9393
             760     5.87972E-03     36.3852E-03     325.468E-03     324.830E-03        -1.11290     324.829E-03        -1.11290     325.468E-03     857.028E-06     347.982E-03    -173.038E-03    -174.944E-03    -172.417E-03     347.360E-03    -174.944E-03     35.4659E-03    -15.4039E+06    -86.2626E+06    -104.211E+06    -93.6425E+06    -96.8313E+06    -15.4039E+06     221.148E+03         53.8412
             761     5.03881E-03     36.3534E-03     325.431E-03     324.945E-03        -1.11303     324.945E-03        -1.11303     325.431E-03     146.988E-06     348.584E-03    -173.582E-03    -175.002E-03    -173.283E-03     348.285E-03    -175.002E-03     24.4472E-03    -39.4834E+06    -105.412E+06    -141.495E+06    -105.423E+06    -141.483E+06    -39.4834E+06     46.3051E+03         52.9526
             762     4.19966E-03     36.3370E-03     325.434E-03     325.048E-03        -1.11318     325.048E-03        -1.11318     325.434E-03     1.37006E-03     349.224E-03    -174.243E-03    -174.981E-03    -174.120E-03     349.101E-03    -174.981E-03     15.5878E-03    -63.3332E+06    -115.778E+06    -183.341E+06    -115.790E+06    -183.329E+06    -63.3332E+06    -348.763E+03         52.2499
             763     3.35999E-03     36.3287E-03     325.468E-03     325.199E-03        -1.11338     325.198E-03        -1.11338     325.468E-03     2.58034E-03     349.415E-03    -174.510E-03    -174.905E-03    -174.468E-03     349.373E-03    -174.905E-03     8.90208E-03    -86.0636E+06    -125.494E+06    -226.001E+06    -125.497E+06    -225.997E+06    -86.0636E+06     1.42322E+03         51.7089
             764     2.51959E-03     36.3275E-03     325.519E-03     325.383E-03        -1.11361     325.390E-03        -1.11361     325.512E-03     1.42012E-03     349.500E-03    -174.615E-03    -174.886E-03    -174.721E-03     349.491E-03    -174.770E-03     4.04532E-03    -109.216E+06    -134.451E+06    -261.143E+06    -134.456E+06    -261.138E+06    -109.216E+06     654.650E+03         51.3084
             765     1.68039E-03     36.3291E-03     325.599E-03     325.489E-03        -1.11384     325.553E-03        -1.11384     325.531E-03     3.26645E-03     349.359E-03    -174.562E-03    -174.798E-03    -174.797E-03     349.358E-03    -174.562E-03     1.23141E-03    -129.376E+06    -141.507E+06    -289.725E+06    -141.510E+06    -289.722E+06    -129.376E+06     499.403E+03         51.0317
             766     840.677E-06     36.3321E-03     342.740E-03     308.370E-03        -1.11386     308.411E-03        -1.11384     342.680E-03    -3.18001E-03     348.818E-03    -174.142E-03    -174.676E-03    -174.262E-03     348.818E-03    -174.556E-03    -326.590E-06    -142.059E+06    -145.812E+06    -313.184E+06    -145.716E+06    -313.159E+06    -142.180E+06     344.607E+03         50.8655
             767     14.2894E-03     36.2640E-03     323.554E-03     320.326E-03        -1.10701     320.326E-03        -1.10701     323.554E-03     213.355E-06     365.866E-03    -174.870E-03    -190.996E-03    -178.292E-03     353.162E-03    -174.870E-03     160.369E-03     124.378E+06     84.2215E+06    -7.89631E+06    -7.89608E+06     84.2212E+06     124.378E+06    -74.7818E+03         71.6821
             768     13.4482E-03     35.9790E-03     323.153E-03     320.846E-03        -1.10740     320.875E-03        -1.10740     323.124E-03    -209.178E-06     365.365E-03    -174.789E-03    -190.576E-03    -177.374E-03     352.163E-03    -174.789E-03     164.725E-03     98.1725E+06     70.7945E+06    -15.0926E+06    -15.0923E+06     70.7942E+06     98.1725E+06     18.3910E+03         69.8919
             769     12.6067E-03     35.8170E-03     322.861E-03     321.088E-03        -1.10757     321.269E-03        -1.10757     322.680E-03     445.998E-06     356.649E-03    -174.767E-03    -181.882E-03    -173.979E-03     348.746E-03    -174.767E-03     129.303E-03     77.9637E+06     53.1189E+06    -22.3389E+06    -22.3367E+06     53.1167E+06     77.9637E+06     265.363E+03         67.9146
             770     11.7644E-03     35.6364E-03     322.633E-03     321.039E-03        -1.10745     321.420E-03        -1.10745     322.252E-03     958.972E-06     355.844E-03    -174.797E-03    -181.047E-03    -173.825E-03     348.622E-03    -174.797E-03     122.961E-03     68.6477E+06     40.4495E+06    -29.3131E+06    -29.3026E+06     40.4390E+06     68.6477E+06     741.352E+03         65.8143
             771     10.9250E-03     35.4970E-03     322.315E-03     320.918E-03        -1.10712     321.412E-03        -1.10712     321.820E-03     1.73177E-03     353.702E-03    -174.793E-03    -178.909E-03    -173.576E-03     348.369E-03    -174.793E-03     106.012E-03     60.7490E+06     31.8806E+06    -36.2175E+06    -36.2059E+06     31.8690E+06     60.7490E+06     857.941E+03         63.6759
             772     10.0842E-03     35.3594E-03     321.950E-03     320.783E-03        -1.10671     321.331E-03        -1.10671     321.401E-03     2.25606E-03     352.138E-03    -174.746E-03    -177.392E-03    -172.902E-03     347.667E-03    -174.765E-03     96.7145E-03     51.1364E+06     26.4011E+06    -43.7231E+06    -43.7199E+06     26.3978E+06     51.1364E+06     260.524E+03         61.5868
             773     9.24202E-03     35.2488E-03     321.606E-03     320.570E-03        -1.10624     321.178E-03        -1.10624     320.997E-03     1.92654E-03     350.586E-03    -174.752E-03    -175.834E-03    -172.306E-03     347.078E-03    -174.772E-03     85.5218E-03     42.1958E+06     21.0148E+06    -52.0593E+06    -52.0589E+06     21.0144E+06     42.1958E+06     27.4017E+03         59.6241
             774     8.40224E-03     35.1526E-03     321.237E-03     320.331E-03        -1.10569     320.945E-03        -1.10569     320.622E-03     1.95150E-03     349.579E-03    -174.494E-03    -175.085E-03    -172.099E-03     346.913E-03    -174.814E-03     74.3295E-03     34.3171E+06     13.3842E+06     -61.423E+06    -61.4227E+06     13.3839E+06     34.3171E+06     135.735E+03         57.8465
             775     7.56115E-03     35.0723E-03     320.809E-03     320.111E-03        -1.10511     320.632E-03        -1.10511     320.288E-03     1.07583E-03     348.832E-03    -173.961E-03    -174.871E-03    -172.138E-03     347.010E-03    -174.871E-03     61.2470E-03     24.5219E+06    -1.88117E+06    -71.5558E+06    -71.5545E+06    -1.88248E+06     24.5219E+06     41.2823E+03         56.2891
             776     6.71988E-03     35.0121E-03     320.440E-03     319.862E-03        -1.10455     320.292E-03        -1.10455     320.010E-03     1.09071E-03     348.606E-03    -173.682E-03    -174.924E-03    -172.578E-03     347.502E-03    -174.924E-03     47.4742E-03     7.24458E+06    -43.2984E+06    -82.6354E+06    -82.6056E+06    -43.3282E+06     7.24458E+06     405.053E+03         54.9640
             777     5.87980E-03     34.9657E-03     320.144E-03     319.697E-03        -1.10414     320.046E-03        -1.10414     319.794E-03     813.879E-06     348.589E-03    -173.642E-03    -174.947E-03    -173.048E-03     347.995E-03    -174.947E-03     34.7234E-03    -15.5133E+06    -86.2245E+06    -103.707E+06    -93.6868E+06    -96.2447E+06    -15.5133E+06     484.973E+03         53.8652
             778     5.04041E-03     34.9371E-03     319.876E-03     319.586E-03        -1.10380     319.826E-03        -1.10380     319.635E-03     158.145E-06     348.634E-03    -173.687E-03    -174.947E-03    -173.393E-03     348.339E-03    -174.947E-03     24.3718E-03    -38.9982E+06    -104.746E+06    -140.411E+06    -104.754E+06    -140.403E+06    -38.9982E+06    -148.459E+03         52.9748
             779     4.19920E-03     34.9178E-03     319.669E-03     319.420E-03        -1.10347     319.548E-03        -1.10347     319.540E-03     1.43492E-03     348.988E-03    -174.063E-03    -174.925E-03    -173.938E-03     348.863E-03    -174.925E-03     15.6088E-03    -63.5076E+06    -116.027E+06    -183.324E+06    -116.040E+06    -183.311E+06    -63.5076E+06    -6.43153E+03         52.2698
             780     3.35949E-03     34.9114E-03     319.553E-03     319.379E-03        -1.10331     319.418E-03        -1.10331     319.513E-03     2.48249E-03     349.326E-03    -174.471E-03    -174.855E-03    -174.432E-03     349.287E-03    -174.855E-03     8.51253E-03    -87.6684E+06    -126.274E+06    -226.597E+06    -126.286E+06    -226.585E+06    -87.6684E+06    -70.1284E+03         51.7266
             781     2.52031E-03     34.9093E-03     319.534E-03     319.455E-03        -1.10338     319.462E-03        -1.10338     319.527E-03     1.30283E-03     349.185E-03    -174.346E-03    -174.840E-03    -174.398E-03     349.176E-03    -174.778E-03     4.03455E-03    -109.745E+06    -134.582E+06    -261.303E+06    -134.592E+06    -261.293E+06    -109.745E+06    -207.998E+03         51.3245
             782     1.68021E-03     34.9121E-03     319.576E-03     319.509E-03        -1.10353     319.534E-03        -1.10353     319.548E-03     3.03356E-03     349.117E-03    -174.228E-03    -174.889E-03    -174.299E-03     349.115E-03    -174.816E-03     1.77140E-03    -129.016E+06    -140.931E+06    -289.010E+06    -140.935E+06    -289.005E+06    -129.016E+06     239.042E+03         51.0466
             783     839.787E-06     34.9163E-03     333.951E-03     305.199E-03        -1.10355     305.205E-03        -1.10354     333.930E-03    -2.36452E-03     349.693E-03    -174.348E-03    -175.345E-03    -174.792E-03     349.692E-03    -174.900E-03     629.597E-06    -142.900E+06    -145.984E+06    -312.730E+06    -145.831E+06    -312.713E+06    -143.070E+06     92.0993E+03         50.8798
             784     14.2882E-03     34.8467E-03     321.629E-03     319.342E-03        -1.10597     321.097E-03        -1.10597     319.875E-03     160.217E-06     365.714E-03    -174.892E-03    -190.822E-03    -178.007E-03     352.899E-03    -174.892E-03     160.890E-03     124.055E+06     84.2030E+06    -7.68984E+06    -7.68976E+06     84.2030E+06     124.055E+06     1.00695E+03         71.6506
             785     13.4474E-03     34.5599E-03     321.132E-03     319.020E-03        -1.10542     320.969E-03        -1.10542     319.184E-03    -179.507E-06     365.687E-03    -174.817E-03    -190.870E-03    -177.600E-03     352.417E-03    -174.817E-03     164.981E-03     97.7293E+06     70.4444E+06    -15.3755E+06    -15.3749E+06     70.4438E+06     97.7293E+06    -36.3465E+03         69.8659
             786     12.6063E-03     34.4016E-03     320.618E-03     318.496E-03        -1.10457     320.618E-03        -1.10457     318.496E-03     544.378E-06     357.041E-03    -174.775E-03    -182.266E-03    -174.454E-03     349.230E-03    -174.775E-03     128.647E-03     78.0314E+06     52.8201E+06    -22.1520E+06    -22.1483E+06     52.8164E+06     78.0314E+06     318.368E+03         67.8979
             787     11.7648E-03     34.2198E-03     320.133E-03     317.841E-03        -1.10354     320.133E-03        -1.10354     317.841E-03     1.04379E-03     356.222E-03    -174.778E-03    -181.445E-03    -174.182E-03     348.959E-03    -174.778E-03     123.509E-03     69.1407E+06     40.0305E+06    -28.6970E+06    -28.6859E+06     40.0194E+06     69.1407E+06     844.808E+03         65.8087
             788     10.9250E-03     34.0740E-03     319.568E-03     317.194E-03        -1.10240     319.568E-03        -1.10240     317.194E-03     1.76966E-03     353.517E-03    -174.770E-03    -178.747E-03    -173.330E-03     348.100E-03    -174.770E-03     106.781E-03     61.2631E+06     32.2898E+06    -35.8447E+06    -35.8355E+06     32.2806E+06     61.2631E+06     676.534E+03         63.6803
             789     10.0845E-03     33.9473E-03     318.913E-03     316.577E-03        -1.10119     318.912E-03        -1.10119     316.577E-03     2.31373E-03     351.350E-03    -174.771E-03    -176.579E-03    -172.005E-03     346.796E-03    -174.791E-03     97.5073E-03     51.2718E+06     27.1641E+06    -43.5613E+06    -43.5556E+06     27.1584E+06     51.2718E+06     389.941E+03         61.5984
             790     9.24204E-03     33.8310E-03     318.204E-03     315.987E-03        -1.09996     318.203E-03        -1.09996     315.987E-03     1.98145E-03     350.263E-03    -174.845E-03    -175.419E-03    -171.848E-03     346.711E-03    -174.864E-03     85.8861E-03     42.1376E+06     21.1562E+06    -51.9993E+06    -51.9942E+06     21.1510E+06     42.1376E+06     375.476E+03         59.6407
             791     8.40040E-03     33.7349E-03     317.488E-03     315.438E-03        -1.09874     317.487E-03        -1.09874     315.438E-03     2.00718E-03     350.019E-03    -174.755E-03    -175.263E-03    -172.527E-03     347.443E-03    -174.916E-03     73.0569E-03     34.5170E+06     13.4751E+06    -61.3498E+06    -61.3490E+06     13.4742E+06     34.5170E+06     189.681E+03         57.8670
             792     7.55964E-03     33.6551E-03     316.723E-03     314.945E-03        -1.09752     316.723E-03        -1.09752     314.945E-03     1.23326E-03     349.322E-03    -174.299E-03    -175.022E-03    -172.663E-03     347.588E-03    -174.925E-03     59.7783E-03     24.2895E+06    -2.35199E+06    -71.7834E+06    -71.7826E+06    -2.35279E+06     24.2895E+06     186.070E+03         56.3119
             793     6.72069E-03     33.5922E-03     315.990E-03     314.519E-03        -1.09640     315.990E-03        -1.09640     314.519E-03     1.20068E-03     348.895E-03    -173.968E-03    -174.927E-03    -172.892E-03     347.819E-03    -174.927E-03     46.9876E-03     6.70196E+06    -43.4353E+06    -82.6522E+06    -82.6486E+06    -43.4389E+06     6.70196E+06     292.119E+03         54.9869
             794     5.88087E-03     33.5489E-03     315.317E-03     314.169E-03        -1.09540     315.317E-03        -1.09540     314.169E-03     904.859E-06     348.829E-03    -173.920E-03    -174.909E-03    -173.318E-03     348.227E-03    -174.909E-03     34.9660E-03    -15.4237E+06    -85.9928E+06    -102.827E+06    -93.5915E+06    -95.2284E+06    -15.4237E+06     113.869E+03         53.8867
             795     5.03962E-03     33.5188E-03     314.691E-03     313.900E-03        -1.09453     314.691E-03        -1.09453     313.900E-03     337.387E-06     348.723E-03    -173.854E-03    -174.869E-03    -173.562E-03     348.430E-03    -174.869E-03     24.2435E-03    -38.7679E+06    -104.630E+06    -140.254E+06    -104.636E+06    -140.248E+06    -38.7679E+06     286.495E+03         52.9941
             796     4.20033E-03     33.5013E-03     314.225E-03     313.707E-03        -1.09388     314.225E-03        -1.09388     313.707E-03     1.53775E-03     348.598E-03    -173.750E-03    -174.849E-03    -173.627E-03     348.476E-03    -174.849E-03     15.4921E-03    -63.4192E+06    -115.188E+06    -183.387E+06    -115.202E+06    -183.373E+06    -63.4192E+06     393.836E+03         52.2866
             797     3.36030E-03     33.4922E-03     313.941E-03     313.565E-03        -1.09346     313.931E-03        -1.09346     313.574E-03     2.44769E-03     348.733E-03    -173.846E-03    -174.887E-03    -173.804E-03     348.691E-03    -174.887E-03     8.95438E-03    -87.0102E+06    -124.634E+06    -225.529E+06    -124.649E+06    -225.514E+06    -87.0102E+06    -164.053E+03         51.7411
             798     2.51984E-03     33.4934E-03     313.707E-03     313.454E-03        -1.09312     313.668E-03        -1.09312     313.492E-03     1.47948E-03     349.080E-03    -174.101E-03    -174.979E-03    -174.089E-03     349.068E-03    -174.979E-03     4.63536E-03    -109.950E+06    -133.751E+06    -262.063E+06    -133.762E+06    -262.052E+06    -109.950E+06    -803.870E+03         51.3371
             799     1.67855E-03     33.4957E-03     313.542E-03     313.412E-03        -1.09289     313.486E-03        -1.09289     313.464E-03     3.16499E-03     349.620E-03    -174.439E-03    -175.181E-03    -174.477E-03     349.617E-03    -175.140E-03     1.74915E-03    -128.890E+06    -141.113E+06    -289.858E+06    -141.118E+06    -289.852E+06    -128.890E+06    -494.387E+03         51.0581
             800     838.279E-06     33.4980E-03     323.920E-03     303.015E-03        -1.09283     303.024E-03        -1.09282     323.899E-03    -1.65488E-03     350.417E-03    -174.584E-03    -175.834E-03    -175.548E-03     350.417E-03    -174.868E-03     349.544E-06    -141.321E+06    -145.234E+06    -311.816E+06    -145.192E+06    -311.808E+06    -141.371E+06     745.594E+03         50.8907
             801     14.2884E-03     33.4305E-03     321.814E-03     316.240E-03        -1.10497     321.814E-03        -1.10497     316.240E-03     51.7024E-06     365.518E-03    -174.901E-03    -190.616E-03    -177.843E-03     352.744E-03    -174.901E-03     160.464E-03     123.549E+06     83.8104E+06    -7.85724E+06    -7.85649E+06     83.8097E+06     123.549E+06     103.355E+03         71.6192
             802     13.4464E-03     33.1414E-03     321.002E-03     315.320E-03        -1.10344     321.002E-03        -1.10344     315.320E-03    -154.539E-06     365.595E-03    -174.834E-03    -190.760E-03    -177.549E-03     352.384E-03    -174.834E-03     164.448E-03     97.7800E+06     70.3403E+06    -15.3920E+06    -15.3909E+06     70.3391E+06     97.7800E+06    -38.6362E+03         69.8400
             803     12.6063E-03     32.9832E-03     320.003E-03     314.421E-03        -1.10165     320.003E-03        -1.10165     314.421E-03     437.759E-06     357.563E-03    -174.775E-03    -182.787E-03    -175.019E-03     349.794E-03    -174.775E-03     128.393E-03     78.4346E+06     53.0170E+06    -22.1559E+06    -22.1542E+06     53.0153E+06     78.4346E+06     54.2391E+03         67.8808
             804     11.7669E-03     32.8021E-03     318.937E-03     313.567E-03        -1.09979     318.937E-03        -1.09979     313.567E-03     918.292E-06     356.044E-03    -174.764E-03    -181.280E-03    -173.979E-03     348.743E-03    -174.764E-03     123.844E-03     69.0487E+06     39.5963E+06    -28.9851E+06    -28.9771E+06     39.5883E+06     69.0487E+06     639.135E+03         65.8015
             805     10.9240E-03     32.6581E-03     317.805E-03     312.733E-03        -1.09786     317.804E-03        -1.09786     312.733E-03     1.66362E-03     352.533E-03    -174.804E-03    -177.729E-03    -172.301E-03     347.105E-03    -174.804E-03     106.677E-03     61.0381E+06     32.2709E+06    -35.8456E+06    -35.8390E+06     32.2642E+06     61.0381E+06     474.023E+03         63.6811
             806     10.0816E-03     32.5295E-03     316.632E-03     311.940E-03        -1.09592     316.631E-03        -1.09592     311.940E-03     2.17330E-03     351.662E-03    -174.855E-03    -176.806E-03    -172.302E-03     347.157E-03    -174.855E-03     96.9955E-03     51.1108E+06     27.5460E+06    -43.7464E+06    -43.7420E+06     27.5416E+06     51.1108E+06     240.222E+03         61.6065
             807     9.24105E-03     32.4154E-03     315.392E-03     311.184E-03        -1.09395     315.392E-03        -1.09395     311.184E-03     1.85587E-03     350.957E-03    -174.886E-03    -176.072E-03    -172.564E-03     347.450E-03    -174.886E-03     85.4755E-03     41.9503E+06     20.9296E+06    -52.5495E+06    -52.5436E+06     20.9238E+06     41.9503E+06     456.659E+03         59.6556
             808     8.40112E-03     32.3150E-03     314.145E-03     310.484E-03        -1.09203     314.144E-03        -1.09203     310.484E-03     1.90032E-03     350.097E-03    -174.786E-03    -175.311E-03    -172.664E-03     347.560E-03    -174.895E-03     72.5143E-03     34.3725E+06     13.4267E+06    -61.4404E+06    -61.4350E+06     13.4213E+06     34.3725E+06     520.391E+03         57.8859
             809     7.56249E-03     32.2368E-03     313.012E-03     309.852E-03        -1.09028     313.011E-03        -1.09028     309.852E-03     1.12513E-03     349.286E-03    -174.294E-03    -174.992E-03    -172.677E-03     347.572E-03    -174.895E-03     59.4876E-03     24.5770E+06    -2.12201E+06    -71.3793E+06    -71.3743E+06    -2.12705E+06     24.5770E+06     458.688E+03         56.3317
             810     6.72023E-03     32.1755E-03     311.913E-03     309.295E-03        -1.08863     311.913E-03        -1.08863     309.295E-03     1.08659E-03     348.722E-03    -173.820E-03    -174.902E-03    -172.737E-03     347.639E-03    -174.902E-03     47.1201E-03     6.97283E+06    -42.7219E+06    -82.5048E+06    -82.4954E+06    -42.7313E+06     6.97283E+06     413.310E+03         55.0056
             811     5.87949E-03     32.1296E-03     310.839E-03     308.824E-03        -1.08709     310.839E-03        -1.08708     308.824E-03     864.502E-06     348.760E-03    -173.867E-03    -174.892E-03    -173.264E-03     348.156E-03    -174.892E-03     34.9842E-03    -16.1833E+06    -85.7059E+06    -103.422E+06    -94.0158E+06    -95.1122E+06    -16.1833E+06     404.287E+03         53.9030
             812     5.04131E-03     32.1011E-03     309.905E-03     308.447E-03        -1.08577     309.905E-03        -1.08577     308.447E-03     245.726E-06     348.679E-03    -173.821E-03    -174.858E-03    -173.524E-03     348.382E-03    -174.858E-03     24.4548E-03    -39.4974E+06    -104.894E+06    -140.551E+06    -104.910E+06    -140.535E+06    -39.4974E+06     203.228E+03         53.0078
             813     4.20050E-03     32.0839E-03     309.187E-03     308.156E-03        -1.08479     309.186E-03        -1.08479     308.156E-03     1.27669E-03     348.351E-03    -173.476E-03    -174.875E-03    -173.345E-03     348.220E-03    -174.875E-03     16.0769E-03    -62.9449E+06    -114.522E+06    -182.749E+06    -114.535E+06    -182.736E+06    -62.9449E+06    -132.448E+03         52.2975
             814     3.35875E-03     32.0775E-03     308.641E-03     307.931E-03        -1.08402     308.640E-03        -1.08402     307.931E-03     2.16706E-03     348.535E-03    -173.539E-03    -174.996E-03    -173.494E-03     348.490E-03    -174.996E-03     9.16883E-03    -87.0040E+06    -124.668E+06    -225.298E+06    -124.674E+06    -225.292E+06    -87.0040E+06    -191.737E+03         51.7497
             815     2.51777E-03     32.0750E-03     308.130E-03     307.774E-03        -1.08334     308.129E-03        -1.08334     307.774E-03     1.21773E-03     349.492E-03    -174.343E-03    -175.149E-03    -174.365E-03     349.482E-03    -175.116E-03     4.15459E-03    -110.178E+06    -133.782E+06    -262.101E+06    -133.789E+06    -262.095E+06    -110.178E+06    -134.253E+03         51.3439
             816     1.67953E-03     32.0778E-03     307.861E-03     307.655E-03        -1.08291     307.834E-03        -1.08290     307.679E-03     2.51439E-03     350.312E-03    -174.910E-03    -175.402E-03    -175.287E-03     350.311E-03    -175.024E-03     1.11564E-03    -129.734E+06    -140.859E+06    -290.492E+06    -140.866E+06    -290.485E+06    -129.734E+06    -457.676E+03         51.0638
             817     841.094E-06     32.0782E-03     313.728E-03     301.575E-03        -1.08273     301.669E-03        -1.08272     313.624E-03    -1.80260E-03     349.736E-03    -174.448E-03    -175.288E-03    -175.288E-03     349.735E-03    -174.448E-03    -530.550E-06    -141.824E+06    -145.143E+06    -312.056E+06    -145.155E+06    -312.043E+06    -141.824E+06    -902.852E+03         50.8957
             818     14.2887E-03     32.0132E-03     322.445E-03     312.816E-03        -1.10408     322.445E-03        -1.10408     312.816E-03    -41.5390E-06     365.785E-03    -174.899E-03    -190.886E-03    -178.180E-03     353.078E-03    -174.899E-03     160.382E-03     124.496E+06     84.1260E+06    -7.36785E+06    -7.36653E+06     84.1246E+06     124.496E+06     198.814E+03         71.5876
             819     13.4479E-03     31.7252E-03     321.029E-03     311.714E-03        -1.10159     321.029E-03        -1.10159     311.714E-03    -337.326E-06     365.377E-03    -174.826E-03    -190.552E-03    -177.344E-03     352.169E-03    -174.826E-03     164.768E-03     98.3366E+06     70.6932E+06    -15.2077E+06    -15.2005E+06      70.686E+06     98.3366E+06     531.215E+03         69.8137
             820     12.6061E-03     31.5640E-03     319.541E-03     310.638E-03        -1.09907     319.541E-03        -1.09907     310.638E-03     295.019E-06     357.279E-03    -174.787E-03    -182.493E-03    -174.615E-03     349.402E-03    -174.787E-03     129.264E-03     78.1871E+06     52.6876E+06    -22.5133E+06    -22.5073E+06     52.6816E+06     78.1871E+06     346.354E+03         67.8614
             821     11.7650E-03     31.3836E-03     317.908E-03     309.616E-03        -1.09643     317.908E-03        -1.09642     309.616E-03     764.159E-06     355.828E-03    -174.799E-03    -181.029E-03    -173.780E-03     348.579E-03    -174.799E-03     123.308E-03     69.1158E+06     39.5247E+06    -29.0083E+06    -29.0060E+06     39.5224E+06     69.1158E+06     128.739E+03         65.7903
             822     10.9239E-03     31.2448E-03     316.209E-03     308.629E-03        -1.09373     316.209E-03        -1.09373     308.629E-03     1.41325E-03     352.861E-03    -174.834E-03    -178.027E-03    -172.616E-03     347.450E-03    -174.834E-03     106.591E-03     60.9753E+06     32.2216E+06    -36.1833E+06    -36.1810E+06     32.2193E+06     60.9753E+06     127.906E+03         63.6787
             823     10.0827E-03     31.1110E-03     314.514E-03     307.691E-03        -1.09108     314.514E-03        -1.09108     307.691E-03     1.86751E-03     352.334E-03    -174.843E-03    -177.491E-03    -173.027E-03     347.869E-03    -174.843E-03     96.6418E-03     51.0384E+06     27.3156E+06    -43.9389E+06    -43.9338E+06     27.3105E+06     51.0384E+06     293.791E+03         61.6123
             824     9.24315E-03     30.9966E-03     312.841E-03     306.802E-03        -1.08850     312.840E-03        -1.08850     306.802E-03     1.55287E-03     351.066E-03    -174.824E-03    -176.242E-03    -172.826E-03     347.650E-03    -174.824E-03     84.4267E-03     41.7806E+06     20.8612E+06    -52.4421E+06    -52.4339E+06     20.8530E+06     41.7806E+06     572.542E+03         59.6671
             825     8.40220E-03     30.8981E-03     311.189E-03     305.979E-03        -1.08603     311.188E-03        -1.08603     305.979E-03     1.54049E-03     349.506E-03    -174.452E-03    -175.054E-03    -172.100E-03     346.944E-03    -174.843E-03     72.8905E-03     34.0022E+06     13.2025E+06    -61.6571E+06    -61.6499E+06     13.1953E+06     34.0022E+06     644.662E+03         57.8994
             826     7.55942E-03     30.8183E-03     309.601E-03     305.234E-03        -1.08370     309.601E-03        -1.08370     305.234E-03     757.681E-06     349.128E-03    -174.246E-03    -174.882E-03    -172.492E-03     347.374E-03    -174.882E-03     60.0723E-03     24.5727E+06    -1.67876E+06    -71.4456E+06    -71.4391E+06    -1.68533E+06     24.5727E+06     597.537E+03         56.3445
             827     6.72113E-03     30.7576E-03     308.149E-03     304.576E-03        -1.08157     308.148E-03        -1.08157     304.576E-03     801.093E-06     348.906E-03    -174.021E-03    -174.884E-03    -172.951E-03     347.836E-03    -174.884E-03     46.8418E-03     6.79857E+06    -42.5699E+06    -82.7345E+06    -82.7246E+06    -42.5797E+06     6.79857E+06     435.285E+03         55.0166
             828     5.88124E-03     30.7121E-03     306.841E-03     304.008E-03        -1.07967     306.841E-03        -1.07967     304.008E-03     616.338E-06     348.321E-03    -173.428E-03    -174.893E-03    -172.825E-03     347.718E-03    -174.893E-03     35.0224E-03    -15.9050E+06    -85.5354E+06    -103.144E+06    -93.7248E+06    -94.9548E+06    -15.9050E+06     380.891E+03         53.9112
             829     5.03911E-03     30.6830E-03     305.672E-03     303.530E-03        -1.07800     305.672E-03        -1.07800     303.530E-03     1.55438E-06     348.366E-03    -173.436E-03    -174.929E-03    -173.137E-03     348.066E-03    -174.929E-03     24.4415E-03    -38.8435E+06    -104.403E+06    -139.494E+06    -104.414E+06    -139.483E+06    -38.8435E+06    -3.67248E+03         53.0125
             830     4.19882E-03     30.6680E-03     304.586E-03     303.151E-03        -1.07654     304.585E-03        -1.07654     303.151E-03     995.883E-06     348.795E-03    -173.841E-03    -174.953E-03    -173.718E-03     348.672E-03    -174.953E-03     15.4776E-03    -63.2651E+06    -115.450E+06    -183.053E+06    -115.456E+06    -183.046E+06    -63.2651E+06    -364.558E+03         52.2993
             831     3.35954E-03     30.6594E-03     303.699E-03     302.875E-03        -1.07538     303.698E-03        -1.07538     302.875E-03     1.86611E-03     349.220E-03    -174.221E-03    -174.999E-03    -174.239E-03     349.182E-03    -174.943E-03     8.33705E-03    -87.4689E+06    -125.339E+06    -225.630E+06    -125.347E+06    -225.622E+06    -87.4689E+06     37.4401E+03         51.7491
             832     2.52009E-03     30.6583E-03     303.119E-03     302.692E-03        -1.07460     303.119E-03        -1.07460     302.692E-03     1.11271E-03     349.559E-03    -174.597E-03    -174.962E-03    -174.678E-03     349.552E-03    -174.874E-03     3.51720E-03    -110.026E+06    -134.409E+06    -261.908E+06    -134.416E+06    -261.901E+06    -110.026E+06     310.439E+03         51.3416
             833     1.67957E-03     30.6568E-03     302.815E-03     302.559E-03        -1.07414     302.814E-03        -1.07414     302.559E-03     2.25888E-03     349.496E-03    -174.397E-03    -175.099E-03    -174.734E-03     349.495E-03    -174.761E-03     817.224E-06    -129.503E+06    -141.081E+06    -290.043E+06    -141.085E+06    -290.040E+06    -129.503E+06    -77.4855E+03         51.0600
             834     840.081E-06     30.6626E-03     305.165E-03     299.858E-03        -1.07377     301.141E-03        -1.07376     303.876E-03    -1.25735E-03     349.347E-03    -174.173E-03    -175.174E-03    -174.828E-03     349.346E-03    -174.518E-03    -379.722E-06    -143.115E+06    -146.450E+06    -313.189E+06    -145.850E+06    -313.174E+06    -143.730E+06    -532.413E+03         50.8910
             835     14.2885E-03     30.5915E-03     323.122E-03     309.764E-03        -1.10320     323.122E-03        -1.10320     309.764E-03    -61.6258E-06     365.672E-03    -174.913E-03    -190.759E-03    -178.038E-03     352.951E-03    -174.913E-03     160.840E-03     124.379E+06     83.7370E+06    -7.56787E+06    -7.56470E+06     83.7339E+06     124.379E+06    -225.224E+03         71.5538
             836     13.4471E-03     30.3112E-03     321.225E-03     308.519E-03        -1.10012     321.225E-03        -1.10012     308.519E-03    -511.491E-06     365.463E-03    -174.845E-03    -190.618E-03    -177.363E-03     352.208E-03    -174.845E-03     165.483E-03      98.429E+06     70.4552E+06    -14.8726E+06    -14.8588E+06     70.4414E+06      98.429E+06     537.980E+03         69.7843
             837     12.6057E-03     30.1444E-03     319.160E-03     307.307E-03        -1.09688     319.160E-03        -1.09688     307.307E-03     141.629E-06     357.102E-03    -174.820E-03    -182.282E-03    -174.349E-03     349.168E-03    -174.820E-03     129.767E-03     78.8362E+06     52.6652E+06    -21.4651E+06    -21.4539E+06     52.6540E+06     78.8362E+06     747.181E+03         67.8385
             838     11.7647E-03     29.9681E-03     317.013E-03     306.159E-03        -1.09355     317.013E-03        -1.09355     306.159E-03     559.722E-06     355.844E-03    -174.836E-03    -181.008E-03    -173.878E-03     348.714E-03    -174.836E-03     122.311E-03     69.1072E+06     39.5192E+06    -28.8684E+06    -28.8647E+06     39.5155E+06     69.1072E+06     219.416E+03         65.7750
             839     10.9233E-03     29.8259E-03     314.857E-03     305.058E-03        -1.09023     314.857E-03        -1.09023     305.058E-03     1.09486E-03     353.679E-03    -174.833E-03    -178.846E-03    -173.461E-03     348.294E-03    -174.833E-03     106.513E-03     60.6628E+06     32.1546E+06    -36.6350E+06    -36.6278E+06     32.1473E+06     60.6628E+06     433.540E+03         63.6718
             840     10.0837E-03     29.6931E-03     312.727E-03     304.013E-03        -1.08700     312.727E-03        -1.08700     304.013E-03     1.49631E-03     352.627E-03    -174.799E-03    -177.828E-03    -173.283E-03     348.082E-03    -174.799E-03     97.6119E-03     50.9393E+06     27.0177E+06    -44.1179E+06    -44.1084E+06     27.0082E+06     50.9393E+06     718.534E+03         61.6122
             841     9.24306E-03     29.5772E-03     310.644E-03     303.029E-03        -1.08389     310.644E-03        -1.08389     303.029E-03     1.16121E-03     350.962E-03    -174.773E-03    -176.189E-03    -172.748E-03     347.521E-03    -174.773E-03     84.6149E-03     42.3283E+06     21.3873E+06    -51.8183E+06    -51.8090E+06     21.3780E+06     42.3283E+06     778.033E+03         59.6704
             842     8.40167E-03     29.4838E-03     308.650E-03     302.118E-03        -1.08096     308.650E-03        -1.08096     302.118E-03     1.13560E-03     349.631E-03    -174.496E-03    -175.134E-03    -172.342E-03     347.121E-03    -174.779E-03     72.1953E-03     34.8357E+06     13.9267E+06    -60.9372E+06    -60.9321E+06     13.9216E+06     34.8357E+06     561.457E+03         57.9036
             843     7.56189E-03     29.3995E-03     306.729E-03     301.288E-03        -1.07818     306.729E-03        -1.07818     301.288E-03     445.531E-06     348.810E-03    -173.928E-03    -174.882E-03    -172.295E-03     347.099E-03    -174.804E-03     59.2164E-03     24.4292E+06    -1.71736E+06    -71.6194E+06    -71.6163E+06    -1.72050E+06     24.4292E+06     307.573E+03         56.3474
             844     6.72072E-03     29.3383E-03     304.953E-03     300.553E-03        -1.07563     304.953E-03        -1.07563     300.553E-03     472.036E-06     348.234E-03    -173.385E-03    -174.849E-03    -172.357E-03     347.206E-03    -174.849E-03     45.9221E-03     7.29932E+06    -42.0520E+06    -82.0798E+06    -82.0694E+06    -42.0624E+06     7.29932E+06    -90.4590E+03         55.0161
             845     5.87979E-03     29.2963E-03     303.424E-03     299.910E-03        -1.07342     303.424E-03        -1.07342     299.910E-03     272.089E-06     348.115E-03    -173.201E-03    -174.914E-03    -172.599E-03     347.513E-03    -174.914E-03     34.9890E-03    -14.6720E+06    -84.7884E+06    -103.049E+06    -92.7460E+06    -95.0917E+06    -14.6720E+06    -212.414E+03         53.9065
             846     5.03976E-03     29.2661E-03     302.033E-03     299.356E-03        -1.07146     302.033E-03        -1.07146     299.356E-03    -220.960E-06     348.548E-03    -173.597E-03    -174.952E-03    -173.302E-03     348.254E-03    -174.952E-03     24.1731E-03    -38.3446E+06    -104.130E+06    -138.903E+06    -104.133E+06    -138.900E+06    -38.3446E+06     93.0992E+03         53.0039
             847     4.20006E-03     29.2489E-03     300.758E-03     298.898E-03        -1.06972     300.758E-03        -1.06972     298.898E-03     927.937E-06     349.153E-03    -174.231E-03    -174.922E-03    -174.117E-03     349.039E-03    -174.922E-03     14.9723E-03    -62.8276E+06    -115.122E+06    -183.204E+06    -115.131E+06    -183.194E+06    -62.8276E+06     251.136E+03         52.2873
             848     3.36001E-03     29.2420E-03     299.735E-03     298.539E-03        -1.06833     299.734E-03        -1.06833     298.539E-03     1.82561E-03     349.526E-03    -174.618E-03    -174.908E-03    -174.691E-03     349.487E-03    -174.796E-03     8.64007E-03    -86.6964E+06    -125.348E+06    -226.497E+06    -125.362E+06    -226.483E+06    -86.6964E+06     699.931E+03         51.7343
             849     2.52057E-03     29.2392E-03     298.976E-03     298.263E-03        -1.06728     298.976E-03        -1.06728     298.263E-03     1.18311E-03     349.234E-03    -174.512E-03    -174.723E-03    -174.615E-03     349.225E-03    -174.610E-03     3.88142E-03    -109.938E+06    -134.393E+06    -260.495E+06    -134.400E+06    -260.487E+06    -109.938E+06     682.022E+03         51.3245
             850     1.68110E-03     29.2425E-03     298.406E-03     298.063E-03        -1.06644     298.404E-03        -1.06644     298.063E-03     2.37450E-03     348.669E-03    -174.085E-03    -174.584E-03    -174.084E-03     348.668E-03    -174.584E-03     622.511E-06    -129.528E+06    -141.740E+06    -290.293E+06    -141.742E+06    -290.291E+06    -129.528E+06     217.283E+03         51.0412
             851     838.625E-06     29.2457E-03     301.076E-03     294.903E-03        -1.06584     301.071E-03        -1.06584     294.903E-03    -919.302E-06     349.223E-03    -174.147E-03    -175.076E-03    -174.493E-03     349.222E-03    -174.729E-03    -320.777E-06    -142.632E+06    -147.531E+06    -313.184E+06    -146.920E+06    -313.180E+06    -143.247E+06     690.512E+03         50.8712
             852     14.2875E-03     29.1759E-03     323.666E-03     307.192E-03        -1.10253     323.666E-03        -1.10253     307.192E-03    -174.830E-06     365.605E-03    -174.934E-03    -190.671E-03    -177.896E-03     352.830E-03    -174.934E-03     161.163E-03     124.206E+06     83.6381E+06    -7.43131E+06    -7.42359E+06     83.6303E+06     124.206E+06     177.639E+03         71.5171
             853     13.4462E-03     28.8916E-03     321.291E-03     305.856E-03        -1.09894     321.291E-03        -1.09894     305.856E-03    -398.659E-06     365.773E-03    -174.857E-03    -190.916E-03    -177.794E-03     352.651E-03    -174.857E-03     164.276E-03     97.9115E+06     69.9324E+06    -15.2962E+06    -15.2827E+06     69.9188E+06     97.9115E+06     151.319E+03         69.7516
             854     12.6056E-03     28.7284E-03     318.758E-03     304.567E-03        -1.09509     318.758E-03        -1.09509     304.567E-03    -44.4769E-06     356.933E-03    -174.813E-03    -182.120E-03    -174.374E-03     349.187E-03    -174.813E-03     128.106E-03     78.3268E+06     52.2783E+06    -22.4553E+06    -22.4475E+06     52.2705E+06     78.3268E+06     180.713E+03         67.8122
             855     11.7641E-03     28.5497E-03     316.283E-03     303.347E-03        -1.09131     316.283E-03        -1.09131     303.347E-03     225.065E-06     355.938E-03    -174.820E-03    -181.117E-03    -173.993E-03     348.813E-03    -174.820E-03     122.274E-03     68.9861E+06     39.9712E+06    -29.1524E+06    -29.1484E+06     39.9671E+06     68.9861E+06     186.815E+03         65.7552
             856     10.9247E-03     28.4076E-03     313.829E-03     302.175E-03        -1.08758     313.828E-03        -1.08758     302.175E-03     727.463E-06     353.956E-03    -174.796E-03    -179.160E-03    -173.820E-03     348.617E-03    -174.796E-03     106.111E-03     60.6988E+06     32.6319E+06    -36.1739E+06    -36.1623E+06     32.6203E+06     60.6988E+06     622.118E+03         63.6581
             857     10.0834E-03     28.2752E-03     311.381E-03     301.065E-03        -1.08393     311.381E-03        -1.08393     301.065E-03     1.08661E-03     352.298E-03    -174.753E-03    -177.545E-03    -173.087E-03     347.840E-03    -174.753E-03     96.6155E-03     51.1445E+06     27.1579E+06    -43.9459E+06    -43.9371E+06     27.1491E+06     51.1445E+06     700.234E+03         61.6024
             858     9.24254E-03     28.1599E-03     308.971E-03     300.019E-03        -1.08041     308.971E-03        -1.08041     300.019E-03     752.894E-06     350.957E-03    -174.726E-03    -176.231E-03    -172.833E-03     347.558E-03    -174.726E-03     84.1184E-03     42.2949E+06     20.9768E+06    -52.3102E+06    -52.3079E+06     20.9745E+06     42.2949E+06     268.073E+03         59.6619
             859     8.40376E-03     28.0642E-03     306.654E-03     299.053E-03        -1.07707     306.654E-03        -1.07707     299.053E-03     696.849E-06     350.028E-03    -174.632E-03    -175.396E-03    -172.839E-03     347.534E-03    -174.695E-03     72.0203E-03     35.0902E+06     14.1026E+06    -60.7334E+06    -60.7296E+06     14.0987E+06     35.0902E+06     395.359E+03         57.8943
             860     7.56322E-03     27.9829E-03     304.507E-03     298.171E-03        -1.07400     304.507E-03        -1.07400     298.171E-03     77.5073E-06     348.428E-03    -173.647E-03    -174.781E-03    -171.998E-03     346.701E-03    -174.703E-03     59.5731E-03     25.4528E+06    -627.185E+03    -70.5428E+06    -70.5399E+06    -630.047E+03     25.4528E+06     317.890E+03         56.3350
             861     6.72148E-03     27.9233E-03     302.536E-03     297.379E-03        -1.07119     302.535E-03        -1.07119     297.379E-03     81.1621E-06     347.809E-03    -173.029E-03    -174.780E-03    -171.988E-03     346.768E-03    -174.780E-03     46.0422E-03     8.04425E+06    -41.5291E+06    -81.3975E+06    -81.3878E+06    -41.5387E+06     8.04425E+06    -116.392E+03         54.9985
             862     5.88017E-03     27.8785E-03     300.727E-03     296.680E-03        -1.06863     300.726E-03        -1.06863     296.680E-03    -89.2744E-06     348.271E-03    -173.436E-03    -174.834E-03    -172.871E-03     347.706E-03    -174.834E-03     33.8498E-03    -15.2520E+06    -85.3845E+06    -103.206E+06    -93.1533E+06    -95.4375E+06    -15.2520E+06    -302.230E+03         53.8835
             863     5.04000E-03     27.8480E-03     299.120E-03     296.077E-03        -1.06639     299.120E-03        -1.06639     296.077E-03    -441.799E-06     348.453E-03    -173.619E-03    -174.835E-03    -173.343E-03     348.178E-03    -174.835E-03     23.4599E-03    -38.6716E+06    -104.321E+06    -139.520E+06    -104.325E+06    -139.515E+06    -38.6716E+06    -68.7905E+03         52.9758
             864     4.19958E-03     27.8313E-03     297.790E-03     295.564E-03        -1.06453     297.790E-03        -1.06453     295.564E-03     627.082E-06     348.860E-03    -174.059E-03    -174.801E-03    -173.946E-03     348.747E-03    -174.801E-03     14.9080E-03    -62.0874E+06    -114.918E+06    -183.343E+06    -114.932E+06    -183.329E+06    -62.0874E+06     849.092E+03         52.2544
             865     3.36028E-03     27.8233E-03     296.653E-03     295.133E-03        -1.06296     296.653E-03        -1.06295     295.133E-03     1.41209E-03     349.066E-03    -174.296E-03    -174.771E-03    -174.315E-03     349.029E-03    -174.714E-03     8.40683E-03    -86.5812E+06    -125.563E+06    -226.650E+06    -125.578E+06    -226.635E+06    -86.5812E+06     836.137E+03         51.6975
             866     2.52065E-03     27.8221E-03     295.647E-03     294.798E-03        -1.06159     295.646E-03        -1.06159     294.798E-03     815.796E-06     348.845E-03    -174.149E-03    -174.696E-03    -174.197E-03     348.836E-03    -174.639E-03     3.83299E-03    -109.471E+06    -133.833E+06    -259.893E+06    -133.836E+06    -259.890E+06    -109.471E+06     403.118E+03         51.2848
             867     1.67959E-03     27.8270E-03     294.942E-03     294.567E-03        -1.06064     294.940E-03        -1.06064     294.567E-03     1.92934E-03     349.101E-03    -174.284E-03    -174.817E-03    -174.522E-03     349.100E-03    -174.578E-03     1.32547E-03    -128.544E+06    -140.918E+06    -289.870E+06    -140.921E+06    -289.867E+06    -128.544E+06     572.925E+03         50.9996
             868     841.564E-06     27.8284E-03     301.794E-03     287.184E-03        -1.06011     301.790E-03        -1.06011     287.184E-03    -772.176E-06     348.990E-03    -173.937E-03    -175.053E-03    -174.815E-03     348.989E-03    -174.174E-03    -324.434E-06    -141.025E+06    -145.855E+06    -312.286E+06    -145.407E+06    -312.283E+06    -141.476E+06     330.591E+03         50.8285
             869     14.2876E-03     27.7618E-03     324.098E-03     305.211E-03        -1.10251     324.098E-03        -1.10251     305.211E-03    -321.299E-06     366.315E-03    -174.920E-03    -191.394E-03    -178.641E-03     353.561E-03    -174.920E-03     160.762E-03     124.262E+06      83.356E+06    -7.61466E+06    -7.60726E+06     83.3486E+06     124.262E+06     474.203E+03         71.4781
             870     13.4478E-03     27.4688E-03     321.281E-03     303.851E-03        -1.09817     321.281E-03        -1.09817     303.851E-03    -628.879E-06     365.678E-03    -174.822E-03    -190.856E-03    -177.793E-03     352.615E-03    -174.822E-03     163.446E-03     98.5832E+06     70.3242E+06    -14.7826E+06    -14.7748E+06     70.3164E+06     98.5832E+06     339.599E+03         69.7162
             871     12.6074E-03     27.3148E-03     318.558E-03     302.543E-03        -1.09401     318.558E-03        -1.09401     302.543E-03    -456.864E-06     356.969E-03    -174.768E-03    -182.201E-03    -174.489E-03     349.257E-03    -174.768E-03     127.716E-03     78.5557E+06     52.4466E+06    -21.8880E+06    -21.8818E+06     52.4404E+06     78.5557E+06     135.966E+03         67.7812
             872     11.7654E-03     27.1314E-03     315.822E-03     301.297E-03        -1.08991     315.822E-03        -1.08991     301.297E-03    -179.259E-06     356.259E-03    -174.759E-03    -181.501E-03    -174.320E-03     349.078E-03    -174.759E-03     122.663E-03     69.2772E+06     40.0828E+06    -28.6530E+06    -28.6484E+06     40.0782E+06     69.2772E+06     225.323E+03         65.7289
             873     10.9244E-03     26.9884E-03     313.123E-03     300.104E-03        -1.08589     313.123E-03        -1.08589     300.104E-03     269.678E-06     353.647E-03    -174.728E-03    -178.919E-03    -173.636E-03     348.364E-03    -174.728E-03     105.514E-03     61.2269E+06     32.7034E+06    -35.8761E+06    -35.8693E+06     32.6966E+06     61.2269E+06     395.446E+03         63.6348
             874     10.0853E-03     26.8575E-03     310.478E-03     298.973E-03        -1.08201     310.478E-03        -1.08201     298.973E-03     574.447E-06     352.336E-03    -174.676E-03    -177.659E-03    -173.233E-03     347.909E-03    -174.676E-03     96.2547E-03      51.271E+06     27.2377E+06     -43.724E+06    -43.7185E+06     27.2321E+06      51.271E+06     462.058E+03         61.5800
             875     9.24453E-03     26.7435E-03     307.881E-03     297.908E-03        -1.07825     307.881E-03        -1.07825     297.908E-03     244.702E-06     350.835E-03    -174.636E-03    -176.199E-03    -172.803E-03     347.438E-03    -174.636E-03     84.1776E-03     42.2942E+06     21.2246E+06    -51.9209E+06    -51.9203E+06     21.2240E+06     42.2942E+06    -63.1516E+03         59.6379
             876     8.40316E-03     26.6437E-03     305.376E-03     296.919E-03        -1.07468     305.376E-03        -1.07468     296.919E-03     196.677E-06     349.515E-03    -174.452E-03    -175.062E-03    -172.408E-03     347.030E-03    -174.622E-03     71.6883E-03     34.9154E+06     13.9252E+06       -60.8E+06    -60.7979E+06     13.9231E+06     34.9154E+06    -65.1510E+03         57.8657
             877     7.56235E-03     26.5688E-03     303.010E-03     296.016E-03        -1.07135     303.010E-03        -1.07135     296.016E-03    -458.160E-06     348.557E-03    -173.927E-03    -174.630E-03    -172.264E-03     346.894E-03    -174.630E-03     58.5135E-03     25.8739E+06     6.80625E+03    -70.1840E+06    -70.1780E+06         790.125     25.8739E+06     364.608E+03         56.3000
             878     6.72131E-03     26.5050E-03     300.868E-03     295.201E-03        -1.06834     300.868E-03        -1.06834     295.201E-03    -516.746E-06     348.255E-03    -173.618E-03    -174.637E-03    -172.594E-03     347.231E-03    -174.637E-03     45.6799E-03     7.78531E+06    -41.1975E+06    -81.5958E+06    -81.5907E+06    -41.2026E+06     7.78531E+06     345.846E+03         54.9568
             879     5.88254E-03     26.4607E-03     298.944E-03     294.474E-03        -1.06563     298.944E-03        -1.06563     294.474E-03    -583.840E-06     348.159E-03    -173.537E-03    -174.623E-03    -172.991E-03     347.614E-03    -174.623E-03     33.2033E-03    -15.2545E+06    -85.1372E+06    -103.164E+06    -93.1315E+06    -95.1700E+06    -15.2545E+06     83.9959E+03         53.8346
             880     5.04170E-03     26.4319E-03     297.173E-03     293.841E-03        -1.06319     297.173E-03        -1.06319     293.841E-03    -864.672E-06     348.053E-03    -173.457E-03    -174.595E-03    -173.198E-03     347.793E-03    -174.595E-03     22.8014E-03    -38.1339E+06    -104.036E+06    -140.354E+06    -104.052E+06    -140.338E+06    -38.1339E+06     389.721E+03         52.9196
             881     4.20125E-03     26.4137E-03     295.612E-03     293.311E-03        -1.06108     295.612E-03        -1.06108     293.311E-03     175.065E-06     348.174E-03    -173.603E-03    -174.571E-03    -173.497E-03     348.068E-03    -174.571E-03     14.2961E-03    -62.5363E+06    -115.235E+06    -183.718E+06    -115.257E+06    -183.696E+06    -62.5363E+06     334.126E+03         52.1917
             882     3.36092E-03     26.4056E-03     294.352E-03     292.888E-03        -1.05937     294.352E-03        -1.05937     292.888E-03     1.05933E-03     348.208E-03    -173.627E-03    -174.582E-03    -173.596E-03     348.178E-03    -174.582E-03     7.36581E-03    -86.0371E+06    -125.065E+06    -225.377E+06    -125.079E+06    -225.363E+06    -86.0371E+06    -160.541E+03         51.6295
             883     2.51944E-03     26.4075E-03     293.406E-03     292.562E-03        -1.05806     293.406E-03        -1.05806     292.562E-03     643.910E-06     348.548E-03    -173.921E-03    -174.627E-03    -173.915E-03     348.543E-03    -174.627E-03     3.15230E-03    -109.335E+06    -134.106E+06    -260.651E+06    -134.107E+06    -260.650E+06    -109.335E+06     15.5172E+03         51.2129
             884     1.67993E-03     26.4079E-03     292.702E-03     292.331E-03        -1.05710     292.700E-03        -1.05710     292.331E-03     1.70950E-03     349.122E-03    -174.259E-03    -174.864E-03    -174.496E-03     349.121E-03    -174.625E-03     933.903E-06    -128.707E+06    -140.757E+06    -288.593E+06    -140.759E+06    -288.591E+06    -128.707E+06     249.801E+03         50.9252
             885     839.517E-06     26.4117E-03     303.160E-03     281.352E-03        -1.05652     303.156E-03        -1.05652     281.352E-03    -1.15421E-03     349.128E-03    -173.804E-03    -175.324E-03    -175.139E-03     349.127E-03    -173.989E-03    -378.213E-06    -141.524E+06    -145.494E+06    -312.274E+06    -145.046E+06    -312.272E+06    -141.975E+06     12.2917E+03         50.7528
             886     14.2897E-03     26.3414E-03     324.588E-03     303.948E-03        -1.10274     324.588E-03        -1.10274     303.948E-03    -252.216E-06     366.496E-03    -174.899E-03    -191.597E-03    -178.759E-03     353.658E-03    -174.899E-03     161.099E-03     123.616E+06     82.7014E+06    -8.19995E+06    -8.19621E+06     82.6977E+06     123.616E+06    -260.978E+03         71.4357
             887     13.4482E-03     26.0535E-03     321.615E-03     302.611E-03        -1.09819     321.615E-03        -1.09819     302.611E-03    -1.07924E-03     365.546E-03    -174.810E-03    -190.736E-03    -177.490E-03     352.300E-03    -174.810E-03     164.595E-03     98.3809E+06     70.1986E+06    -14.9031E+06    -14.9000E+06     70.1956E+06     98.3809E+06     44.8206E+03         69.6753
             888     12.6052E-03     25.8968E-03     318.678E-03     301.323E-03        -1.09385     318.678E-03        -1.09385     301.323E-03    -790.029E-06     357.751E-03    -174.751E-03    -183.000E-03    -175.162E-03     349.913E-03    -174.751E-03     128.966E-03     78.9756E+06     52.7030E+06    -21.4085E+06    -21.4020E+06     52.6964E+06     78.9756E+06     474.124E+03         67.7427
             889     11.7670E-03     25.7114E-03     315.721E-03     300.095E-03        -1.08953     315.721E-03        -1.08953     300.095E-03    -468.582E-06     356.825E-03    -174.699E-03    -182.126E-03    -174.930E-03     349.628E-03    -174.699E-03     122.868E-03     69.5731E+06     39.8056E+06    -28.6138E+06    -28.6046E+06     39.7963E+06     69.5731E+06     768.157E+03         65.6930
             890     10.9267E-03     25.5734E-03     312.798E-03     298.924E-03        -1.08530     312.798E-03        -1.08530     298.924E-03    -71.9899E-06     353.552E-03    -174.641E-03    -178.911E-03    -173.644E-03     348.285E-03    -174.641E-03     105.364E-03     61.4211E+06     32.5352E+06    -35.8603E+06    -35.8504E+06     32.5253E+06     61.4211E+06     178.311E+03         63.5992
             891     10.0842E-03     25.4377E-03     309.997E-03     297.819E-03        -1.08126     309.997E-03        -1.08126     297.819E-03     193.501E-06     352.333E-03    -174.577E-03    -177.756E-03    -173.366E-03     347.943E-03    -174.577E-03     95.7961E-03     52.0752E+06     27.8859E+06    -42.8209E+06    -42.8144E+06     27.8794E+06     52.0752E+06    -108.125E+03         61.5415
             892     9.24530E-03     25.3257E-03     307.311E-03     296.779E-03        -1.07742     307.311E-03        -1.07742     296.779E-03    -136.271E-06     350.648E-03    -174.519E-03    -176.130E-03    -172.814E-03     347.332E-03    -174.519E-03     83.1655E-03     42.9186E+06     21.8281E+06    -51.0983E+06    -51.0971E+06     21.8268E+06     42.9186E+06     124.646E+03         59.5936
             893     8.40444E-03     25.2287E-03     304.730E-03     295.813E-03        -1.07378     304.730E-03        -1.07378     295.813E-03    -297.847E-06     349.421E-03    -174.378E-03    -175.043E-03    -172.525E-03     347.010E-03    -174.485E-03     70.5557E-03     35.3745E+06     14.0995E+06    -60.5601E+06    -60.5571E+06     14.0965E+06     35.3745E+06     135.258E+03         57.8132
             894     7.56401E-03     25.1493E-03     302.314E-03     294.925E-03        -1.07040     302.313E-03        -1.07040     294.925E-03    -973.202E-06     348.828E-03    -174.252E-03    -174.576E-03    -172.830E-03     347.263E-03    -174.433E-03     56.7959E-03     25.3882E+06    -551.606E+03    -71.1172E+06    -71.1102E+06    -558.611E+03     25.3882E+06     172.579E+03         56.2378
             895     6.72502E-03     25.0888E-03     300.060E-03     294.121E-03        -1.06727     300.059E-03        -1.06727     294.121E-03    -1.03531E-03     348.045E-03    -173.675E-03    -174.370E-03    -172.718E-03     347.088E-03    -174.370E-03     44.1925E-03     7.85938E+06    -40.8129E+06    -81.6828E+06    -81.6724E+06    -40.8233E+06     7.85938E+06     237.851E+03         54.8839
             896     5.88274E-03     25.0434E-03     298.008E-03     293.404E-03        -1.06445     298.008E-03        -1.06445     293.404E-03    -1.05674E-03     347.460E-03    -173.118E-03    -174.343E-03    -172.596E-03     346.938E-03    -174.343E-03     32.4902E-03    -14.2255E+06    -84.2591E+06    -102.977E+06    -92.3377E+06    -94.8984E+06    -14.2255E+06     510.662E+03         53.7504
             897     5.04297E-03     25.0154E-03     296.187E-03     292.781E-03        -1.06196     296.187E-03        -1.06196     292.781E-03    -1.36073E-03     347.533E-03    -173.212E-03    -174.321E-03    -172.954E-03     347.275E-03    -174.321E-03     22.7831E-03    -37.5755E+06    -103.663E+06    -140.825E+06    -103.689E+06    -140.799E+06    -37.5755E+06     579.429E+03         52.8249
             898     4.20273E-03     24.9971E-03     294.613E-03     292.256E-03        -1.05982     294.613E-03        -1.05982     292.256E-03    -255.788E-06     347.413E-03    -173.095E-03    -174.318E-03    -172.988E-03     347.306E-03    -174.318E-03     14.3691E-03    -61.8544E+06    -114.173E+06    -182.886E+06    -114.193E+06    -182.866E+06    -61.8544E+06     31.4374E+03         52.0882
             899     3.36125E-03     24.9914E-03     293.296E-03     291.835E-03        -1.05807     293.295E-03        -1.05807     291.835E-03     753.879E-06     347.678E-03    -173.311E-03    -174.367E-03    -173.281E-03     347.647E-03    -174.367E-03     7.43584E-03    -85.9361E+06    -124.266E+06    -224.836E+06    -124.276E+06    -224.827E+06    -85.9361E+06    -292.515E+03         51.5189
             900     2.52128E-03     24.9901E-03     292.297E-03     291.522E-03        -1.05674     292.297E-03        -1.05674     291.522E-03     447.822E-06     348.336E-03    -173.951E-03    -174.385E-03    -173.945E-03     348.330E-03    -174.385E-03     3.06402E-03    -108.748E+06    -133.359E+06    -260.805E+06    -133.360E+06    -260.804E+06    -108.748E+06     18.4804E+03         51.0971
             901     1.68074E-03     24.9916E-03     291.680E-03     291.298E-03        -1.05585     291.680E-03        -1.05585     291.298E-03     1.41803E-03     348.441E-03    -174.051E-03    -174.389E-03    -174.050E-03     348.440E-03    -174.389E-03     277.897E-06    -128.733E+06    -140.024E+06    -288.649E+06    -140.025E+06    -288.648E+06    -128.733E+06     3.42144E+03         50.8059
             902     839.990E-06     24.9961E-03     304.110E-03     278.301E-03        -1.05526     304.106E-03        -1.05525     278.301E-03    -1.24577E-03     348.769E-03    -173.858E-03    -174.911E-03    -174.315E-03     348.769E-03    -174.454E-03    -730.697E-06    -142.063E+06    -144.843E+06    -312.297E+06    -144.846E+06    -312.295E+06    -142.063E+06    -281.053E+03         50.6314
             903     14.2879E-03     24.9223E-03     325.120E-03     303.442E-03        -1.10323     325.120E-03        -1.10323     303.442E-03    -222.420E-06     365.924E-03    -174.921E-03    -191.003E-03    -178.174E-03     353.094E-03    -174.921E-03     161.601E-03     123.308E+06     82.6517E+06    -8.09952E+06    -8.09642E+06     82.6486E+06     123.308E+06    -336.350E+03         71.3898
             904     13.4457E-03     24.6381E-03     322.092E-03     302.167E-03        -1.09899     322.092E-03        -1.09899     302.167E-03    -846.675E-06     366.124E-03    -174.825E-03    -191.299E-03    -178.167E-03     352.992E-03    -174.825E-03     164.354E-03     97.2540E+06     69.1743E+06    -15.9990E+06    -15.9945E+06     69.1697E+06     97.2540E+06    -191.549E+03         69.6300
             905     12.6075E-03     24.4754E-03     318.907E-03     300.943E-03        -1.09448     318.907E-03        -1.09448     300.943E-03    -644.293E-06     358.284E-03    -174.722E-03    -183.562E-03    -175.807E-03     350.529E-03    -174.722E-03     128.521E-03     78.6803E+06     52.2921E+06    -22.6067E+06    -22.5984E+06     52.2838E+06     78.6803E+06     87.0837E+03         67.6984
             906     11.7665E-03     24.2939E-03     315.810E-03     299.782E-03        -1.09006     315.810E-03        -1.09006     299.782E-03    -556.449E-06     356.910E-03    -174.633E-03    -182.277E-03    -175.245E-03     349.878E-03    -174.633E-03     121.595E-03     70.2157E+06     40.3193E+06    -28.6669E+06    -28.6573E+06     40.3097E+06     70.2157E+06     83.9877E+03         65.6478
             907     10.9262E-03     24.1542E-03     312.847E-03     298.684E-03        -1.08584     312.847E-03        -1.08584     298.684E-03    -358.199E-06     354.107E-03    -174.522E-03    -179.586E-03    -174.411E-03     348.932E-03    -174.522E-03     104.553E-03     61.9449E+06     33.0772E+06    -35.3166E+06    -35.3078E+06     33.0685E+06     61.9449E+06    -202.767E+03         63.5505
             908     10.0885E-03     24.0204E-03     309.994E-03     297.652E-03        -1.08179     309.994E-03        -1.08179     297.652E-03    -289.019E-06     352.465E-03    -174.392E-03    -178.073E-03    -173.847E-03     348.238E-03    -174.392E-03     94.0326E-03     51.9595E+06     27.5236E+06    -43.1171E+06    -43.1102E+06     27.5168E+06     51.9595E+06    -440.613E+03         61.4862
             909     9.24637E-03     23.9086E-03     307.295E-03     296.686E-03        -1.07799     307.295E-03        -1.07799     296.686E-03    -726.172E-06     350.635E-03    -174.271E-03    -176.365E-03    -173.258E-03     347.528E-03    -174.271E-03     80.4605E-03     43.4377E+06     21.6322E+06    -51.1064E+06    -51.1035E+06     21.6293E+06     43.4377E+06     69.2151E+03         59.5281
             910     8.40665E-03     23.8106E-03     304.801E-03     295.786E-03        -1.07448     304.801E-03        -1.07448     295.786E-03    -924.075E-06     349.292E-03    -174.161E-03    -175.131E-03    -172.890E-03     347.053E-03    -174.163E-03     68.0492E-03     35.8029E+06     14.2161E+06    -60.2346E+06    -60.2307E+06     14.2121E+06     35.8029E+06     173.408E+03         57.7343
             911     7.56708E-03     23.7319E-03     302.424E-03     294.950E-03        -1.07118     302.423E-03        -1.07118     294.950E-03    -1.44181E-03     348.021E-03    -173.804E-03    -174.217E-03    -172.454E-03     346.528E-03    -174.074E-03     55.4178E-03     25.8702E+06    -471.875E+03    -70.5991E+06    -70.5944E+06    -476.524E+03     25.8702E+06    -45.1487E+03         56.1430
             912     6.72599E-03     23.6712E-03     300.163E-03     294.188E-03        -1.06809     300.163E-03        -1.06809     294.188E-03    -1.48287E-03     347.200E-03    -173.180E-03    -174.020E-03    -172.268E-03     346.287E-03    -174.020E-03     43.0842E-03     8.44233E+06    -40.9516E+06    -81.6609E+06    -81.6419E+06    -40.9706E+06     8.44233E+06     337.351E+03         54.7720
             913     5.88642E-03     23.6298E-03     298.080E-03     293.509E-03        -1.06527     298.079E-03        -1.06527     293.509E-03    -1.47311E-03     346.746E-03    -172.752E-03    -173.994E-03    -172.250E-03     346.244E-03    -173.994E-03     31.8929E-03    -14.6472E+06    -84.8268E+06    -103.233E+06    -93.0536E+06    -95.0061E+06    -14.6472E+06     454.300E+03         53.6222
             914     5.04426E-03     23.5983E-03     296.239E-03     292.920E-03        -1.06279     296.239E-03        -1.06279     292.920E-03    -1.62675E-03     346.570E-03    -172.571E-03    -173.998E-03    -172.329E-03     346.327E-03    -173.998E-03     21.8351E-03    -37.8308E+06    -103.575E+06    -140.171E+06    -103.595E+06    -140.152E+06    -37.8308E+06     134.204E+03         52.6820
             915     4.20289E-03     23.5833E-03     294.694E-03     292.426E-03        -1.06071     294.694E-03        -1.06071     292.426E-03    -638.388E-06     346.704E-03    -172.663E-03    -174.041E-03    -172.571E-03     346.612E-03    -174.041E-03     13.3438E-03    -61.3046E+06    -113.712E+06    -182.326E+06    -113.724E+06    -182.314E+06    -61.3046E+06    -27.4349E+03         51.9327
             916     3.36199E-03     23.5756E-03     293.459E-03     292.024E-03        -1.05907     293.459E-03        -1.05907     292.024E-03     161.785E-06     347.294E-03    -173.211E-03    -174.083E-03    -173.181E-03     347.264E-03    -174.083E-03     7.34642E-03    -85.3391E+06    -123.710E+06    -224.369E+06    -123.718E+06    -224.361E+06    -85.3391E+06     14.5136E+03         51.3535
             917     2.52143E-03     23.5736E-03     292.504E-03     291.715E-03        -1.05779     292.504E-03        -1.05779     291.715E-03     30.0068E-06     347.662E-03    -173.565E-03    -174.097E-03    -173.559E-03     347.656E-03    -174.097E-03     2.95594E-03    -107.999E+06    -132.392E+06    -260.973E+06    -132.395E+06    -260.971E+06    -107.999E+06        -588.617         50.9244
             918     1.68099E-03     23.5772E-03     291.844E-03     291.495E-03        -1.05689     291.843E-03        -1.05689     291.495E-03     1.00143E-03     347.837E-03    -173.686E-03    -174.151E-03    -173.685E-03     347.836E-03    -174.151E-03     770.005E-06    -128.140E+06    -139.888E+06    -289.231E+06    -139.890E+06    -289.229E+06    -128.140E+06     120.641E+03         50.6281
             919     840.675E-06     23.5796E-03     305.811E-03     277.016E-03        -1.05638     305.808E-03        -1.05638     277.016E-03    -1.02698E-03     348.347E-03    -173.574E-03    -174.773E-03    -174.236E-03     348.347E-03    -174.110E-03    -106.736E-06    -141.566E+06    -144.687E+06    -312.055E+06    -144.692E+06    -312.050E+06    -141.566E+06    -374.982E+03         50.4506
             920     14.2867E-03     23.5025E-03     325.503E-03     303.679E-03        -1.10469     325.503E-03        -1.10469     303.679E-03    -376.648E-06     366.461E-03    -174.934E-03    -191.527E-03    -178.793E-03     353.727E-03    -174.934E-03     161.818E-03     123.856E+06     82.8074E+06    -7.95860E+06    -7.95365E+06     82.8024E+06     123.856E+06     294.861E+03         71.3452
             921     13.4485E-03     23.2198E-03     322.363E-03     302.526E-03        -1.10030     322.363E-03        -1.10030     302.526E-03    -586.005E-06     366.940E-03    -174.779E-03    -192.160E-03    -179.317E-03     354.097E-03    -174.779E-03     162.897E-03     98.3964E+06     70.0000E+06    -15.4604E+06    -15.4564E+06     69.9960E+06     98.3964E+06     149.743E+03         69.5863
             922     12.6075E-03     23.0544E-03     319.182E-03     301.431E-03        -1.09584     319.182E-03        -1.09584     301.431E-03    -799.561E-06     358.664E-03    -174.601E-03    -184.062E-03    -176.535E-03     351.136E-03    -174.601E-03     126.777E-03     79.2084E+06     52.9770E+06    -22.2394E+06    -22.2206E+06     52.9582E+06     79.2084E+06    -539.287E+03         67.6540
             923     11.7686E-03     22.8771E-03     316.133E-03     300.398E-03        -1.09155     316.133E-03        -1.09155     300.398E-03    -964.068E-06     357.307E-03    -174.431E-03    -182.876E-03    -176.191E-03     350.621E-03    -174.431E-03     118.591E-03     69.9750E+06     40.4773E+06    -28.7601E+06    -28.7352E+06     40.4524E+06     69.9750E+06    -1.19612E+06         65.5995
             924     10.9299E-03     22.7328E-03     313.236E-03     299.427E-03        -1.08749     313.236E-03        -1.08749     299.427E-03    -984.090E-06     354.134E-03    -174.231E-03    -179.903E-03    -175.129E-03     349.360E-03    -174.231E-03     100.443E-03     61.9103E+06     32.6550E+06    -35.6043E+06    -35.5919E+06     32.6426E+06     61.9103E+06    -759.128E+03         63.4947
             925     10.0892E-03     22.6032E-03     310.544E-03     298.515E-03        -1.08370     310.544E-03        -1.08370     298.515E-03    -1.01230E-03     352.296E-03    -174.013E-03    -178.283E-03    -174.376E-03     348.389E-03    -174.013E-03     90.4554E-03     51.9626E+06     26.9458E+06    -43.3381E+06    -43.3322E+06     26.9399E+06     51.9626E+06    -441.821E+03         61.4179
             926     9.25204E-03     22.4894E-03     308.023E-03     297.659E-03        -1.08017     308.022E-03        -1.08017     297.659E-03    -1.43465E-03     350.367E-03    -173.805E-03    -176.561E-03    -173.667E-03     347.472E-03    -173.805E-03     77.6426E-03     43.0543E+06     21.0642E+06    -51.5301E+06    -51.5255E+06     21.0597E+06     43.0543E+06    -318.383E+03         59.4428
             927     8.41257E-03     22.3945E-03     305.602E-03     296.856E-03        -1.07682     305.601E-03        -1.07682     296.856E-03    -1.61918E-03     348.305E-03    -173.643E-03    -174.663E-03    -172.578E-03     346.223E-03    -173.644E-03     65.6398E-03     35.5641E+06     13.9093E+06    -60.3220E+06    -60.3168E+06     13.9041E+06     35.5641E+06    -217.328E+03         57.6279
             928     7.57069E-03     22.3166E-03     303.284E-03     296.112E-03        -1.07366     303.284E-03        -1.07366     296.112E-03    -2.08363E-03     346.691E-03    -173.040E-03    -173.652E-03    -171.747E-03     345.304E-03    -173.557E-03     53.2193E-03     25.9183E+06    -553.240E+03    -70.1091E+06    -70.1059E+06    -556.388E+03     25.9183E+06     18.4394E+03         56.0127
             929     6.72942E-03     22.2567E-03     301.134E-03     295.433E-03        -1.07077     301.133E-03        -1.07077     295.433E-03    -2.18331E-03     346.062E-03    -172.545E-03    -173.518E-03    -171.725E-03     345.243E-03    -173.518E-03     40.7540E-03     8.70442E+06    -40.9456E+06    -80.7259E+06    -80.7125E+06     -40.959E+06     8.70442E+06     249.006E+03         54.6175
             930     5.88724E-03     22.2139E-03     299.224E-03     294.820E-03        -1.06818     299.223E-03        -1.06818     294.820E-03    -2.17776E-03     345.969E-03    -172.494E-03    -173.474E-03    -172.057E-03     345.531E-03    -173.474E-03     29.4916E-03    -13.9721E+06    -83.9066E+06    -102.407E+06    -91.6686E+06    -94.6445E+06    -13.9721E+06     160.578E+03         53.4449
             931     5.04712E-03     22.1852E-03     297.492E-03     294.278E-03        -1.06586     297.490E-03        -1.06586     294.278E-03    -2.30745E-03     345.652E-03    -172.215E-03    -173.437E-03    -172.023E-03     345.460E-03    -173.437E-03     19.2139E-03    -36.9260E+06    -102.525E+06    -139.381E+06    -102.539E+06    -139.368E+06    -36.9260E+06    -42.3306E+03         52.4842
             932     4.20517E-03     22.1694E-03     295.980E-03     293.820E-03        -1.06388     295.979E-03        -1.06388     293.820E-03    -1.23793E-03     345.710E-03    -172.275E-03    -173.435E-03    -172.210E-03     345.645E-03    -173.435E-03     10.9604E-03    -61.0434E+06    -113.535E+06    -182.067E+06    -113.549E+06    -182.052E+06    -61.0434E+06    -40.2985E+03         51.7174
             933     3.36402E-03     22.1605E-03     294.802E-03     293.446E-03        -1.06230     294.802E-03        -1.06230     293.446E-03    -278.109E-06     345.959E-03    -172.490E-03    -173.469E-03    -172.473E-03     345.942E-03    -173.469E-03     5.23566E-03    -84.9746E+06    -123.901E+06    -224.706E+06    -123.911E+06    -224.696E+06    -84.9746E+06     74.3491E+03         51.1238
             934     2.52265E-03     22.1599E-03     293.935E-03     293.149E-03        -1.06111     293.934E-03        -1.06111     293.149E-03    -277.445E-06     346.247E-03    -172.699E-03    -173.548E-03    -172.696E-03     346.244E-03    -173.548E-03     1.29549E-03    -108.209E+06    -133.469E+06    -261.231E+06    -133.475E+06    -261.226E+06    -108.209E+06     249.337E+03         50.6836
             935     1.68088E-03     22.1624E-03     293.294E-03     292.924E-03        -1.06022     293.294E-03        -1.06022     292.924E-03     636.020E-06     346.836E-03    -173.182E-03    -173.654E-03    -173.181E-03     346.835E-03    -173.654E-03    -432.717E-06    -128.663E+06    -141.240E+06    -288.493E+06    -141.245E+06    -288.487E+06    -128.663E+06     255.733E+03         50.3797
             936     839.751E-06     22.1641E-03     307.521E-03     278.164E-03        -1.05963     307.519E-03        -1.05962     278.164E-03    -1.55349E-03     347.349E-03    -173.190E-03    -174.159E-03    -174.017E-03     347.348E-03    -173.331E-03    -518.403E-06    -142.988E+06    -146.907E+06    -312.119E+06    -146.529E+06    -312.113E+06    -143.373E+06     67.6063E+03         50.1976
             937     14.2885E-03     22.0852E-03     325.822E-03     304.711E-03        -1.10685     325.821E-03        -1.10685     304.711E-03    -548.879E-06     368.119E-03    -174.857E-03    -193.262E-03    -180.721E-03     355.578E-03    -174.857E-03     161.134E-03     124.995E+06     82.9581E+06    -7.95777E+06    -7.95405E+06     82.9544E+06     124.995E+06     394.593E+03         71.3105
             938     13.4487E-03     21.7952E-03     322.651E-03     303.748E-03        -1.10227     322.650E-03        -1.10227     303.748E-03    -1.17483E-03     367.710E-03    -174.584E-03    -193.126E-03    -180.742E-03     355.326E-03    -174.584E-03     159.614E-03     99.4166E+06     71.1902E+06    -15.1247E+06    -15.1176E+06     71.1831E+06     99.4166E+06    -168.297E+03         69.5533
             939     12.6115E-03     21.6388E-03     319.712E-03     302.841E-03        -1.09814     319.712E-03        -1.09814     302.841E-03    -1.50773E-03     359.414E-03    -174.274E-03    -185.141E-03    -178.158E-03     352.432E-03    -174.274E-03     122.284E-03     79.5995E+06     53.8641E+06    -21.6136E+06    -21.5939E+06     53.8444E+06     79.5995E+06    -905.401E+03         67.6193
             940     11.7737E-03     21.4517E-03     316.886E-03     301.980E-03        -1.09421     316.885E-03        -1.09421     301.980E-03    -1.74096E-03     357.620E-03    -173.957E-03    -183.664E-03    -177.529E-03     351.486E-03    -173.957E-03     113.539E-03     69.4931E+06     40.0463E+06    -28.7069E+06    -28.6826E+06     40.0221E+06     69.4931E+06    -1.13113E+06         65.5587
             941     10.9365E-03     21.3170E-03     314.228E-03     301.170E-03        -1.09051     314.228E-03        -1.09051     301.170E-03    -1.77947E-03     353.685E-03    -173.627E-03    -180.058E-03    -175.805E-03     349.432E-03    -173.627E-03     94.8406E-03     60.8934E+06     31.7322E+06    -36.3322E+06    -36.3151E+06     31.7151E+06     60.8934E+06    -1.05157E+06         63.4414
             942     10.0983E-03     21.1843E-03     311.734E-03     300.406E-03        -1.08706     311.733E-03        -1.08706     300.406E-03    -1.83081E-03     351.269E-03    -173.319E-03    -177.950E-03    -174.463E-03     347.782E-03    -173.319E-03     85.3674E-03     51.6529E+06     26.4981E+06    -43.5169E+06    -43.5065E+06     26.4878E+06     51.6529E+06    -704.441E+03         61.3451
             943     9.25756E-03     21.0722E-03     309.344E-03     299.692E-03        -1.08380     309.343E-03        -1.08379     299.692E-03    -2.25930E-03     348.843E-03    -173.055E-03    -175.788E-03    -173.245E-03     346.299E-03    -173.055E-03     72.5711E-03     42.4626E+06     20.8492E+06    -51.6059E+06    -51.5991E+06     20.8423E+06     42.4626E+06    -504.734E+03         59.3441
             944     8.41631E-03     20.9803E-03     307.050E-03     299.028E-03        -1.08072     307.049E-03        -1.08072     299.028E-03    -2.57136E-03     346.913E-03    -172.850E-03    -174.063E-03    -172.269E-03     345.118E-03    -172.850E-03     60.5811E-03     34.8776E+06     13.5131E+06    -60.5825E+06    -60.5749E+06     13.5056E+06     34.8776E+06    -406.633E+03         57.4992
             945     7.57629E-03     20.9018E-03     304.940E-03     298.416E-03        -1.07791     304.939E-03        -1.07791     298.416E-03    -3.01747E-03     345.513E-03    -172.440E-03    -173.072E-03    -171.681E-03     344.370E-03    -172.689E-03     47.9710E-03     25.4023E+06    -578.008E+03    -70.1984E+06    -70.1911E+06    -585.385E+03     25.4023E+06    -390.345E+03         55.8521
             946     6.73450E-03     20.8449E-03     303.037E-03     297.854E-03        -1.07537     303.035E-03        -1.07537     297.854E-03    -3.12930E-03     344.742E-03    -172.074E-03    -172.668E-03    -171.560E-03     344.112E-03    -172.552E-03     35.3566E-03     8.21356E+06    -40.7923E+06    -80.6726E+06    -80.6691E+06    -40.7959E+06     8.21356E+06    -325.653E+03         54.4247
             947     5.89408E-03     20.7988E-03     301.328E-03     297.339E-03        -1.07310     301.326E-03        -1.07309     297.339E-03    -3.06166E-03     344.169E-03    -171.740E-03    -172.429E-03    -171.448E-03     343.877E-03    -172.429E-03     23.6204E-03    -13.7285E+06    -83.8387E+06    -101.556E+06    -91.6049E+06    -93.7896E+06    -13.7285E+06     222.778E+03         53.2208
             948     5.05161E-03     20.7741E-03     299.834E-03     296.872E-03        -1.07110     299.832E-03        -1.07110     296.872E-03    -3.10795E-03     343.804E-03    -171.484E-03    -172.320E-03    -171.375E-03     343.694E-03    -172.320E-03     14.3276E-03    -37.3250E+06    -102.909E+06    -138.849E+06    -102.923E+06    -138.835E+06    -37.3250E+06     49.0744E+03         52.2315
             949     4.21044E-03     20.7554E-03     298.561E-03     296.454E-03        -1.06940     298.560E-03        -1.06940     296.454E-03    -2.08934E-03     343.677E-03    -171.430E-03    -172.246E-03    -171.396E-03     343.642E-03    -172.246E-03     7.41230E-03    -61.0733E+06    -113.621E+06    -181.922E+06    -113.628E+06    -181.914E+06    -61.0733E+06    -29.7130E+03         51.4398
             950     3.36821E-03     20.7504E-03     297.482E-03     296.088E-03        -1.06795     297.482E-03        -1.06795     296.088E-03    -1.06722E-03     343.574E-03    -171.337E-03    -172.237E-03    -171.332E-03     343.569E-03    -172.237E-03     2.13103E-03    -84.9130E+06    -123.906E+06    -225.122E+06    -123.916E+06    -225.113E+06    -84.9130E+06     542.606E+03         50.8256
             951     2.52522E-03     20.7474E-03     296.537E-03     295.796E-03        -1.06672     296.537E-03        -1.06672     295.796E-03    -691.216E-06     343.936E-03    -171.669E-03    -172.267E-03    -171.667E-03     343.934E-03    -172.267E-03    -940.530E-06    -107.903E+06    -133.320E+06    -261.024E+06    -133.330E+06    -261.014E+06    -107.903E+06     426.942E+03         50.3694
             952     1.68401E-03     20.7501E-03     295.914E-03     295.590E-03        -1.06585     295.914E-03        -1.06585     295.590E-03     224.277E-06     344.450E-03    -172.058E-03    -172.392E-03    -172.236E-03     344.447E-03    -172.211E-03    -2.36660E-03    -128.047E+06    -140.858E+06    -288.412E+06    -140.864E+06    -288.406E+06    -128.047E+06     219.762E+03         50.0542
             953     842.707E-06     20.7508E-03     308.995E-03     282.022E-03        -1.06535     308.993E-03        -1.06535     282.022E-03    -1.55752E-03     344.229E-03    -171.928E-03    -172.301E-03    -172.283E-03     344.226E-03    -171.944E-03    -2.20954E-03    -141.382E+06    -145.131E+06    -311.547E+06    -144.752E+06    -311.542E+06    -141.767E+06     668.858E+03         49.8652
             954     14.2913E-03     20.6616E-03     326.193E-03     306.584E-03        -1.10911     326.193E-03        -1.10911     306.584E-03    -447.986E-06     370.873E-03    -174.670E-03    -196.203E-03    -184.044E-03     358.714E-03    -174.670E-03     160.506E-03     125.708E+06     83.0885E+06    -8.03894E+06    -8.03714E+06     83.0867E+06     125.708E+06    -104.612E+03         71.2952
             955     13.4560E-03     20.3758E-03     323.234E-03     305.851E-03        -1.10506     323.233E-03        -1.10506     305.851E-03    -1.63386E-03     369.697E-03    -174.166E-03    -195.531E-03    -183.979E-03     358.144E-03    -174.166E-03     154.765E-03     99.7753E+06     71.8968E+06    -15.4220E+06    -15.4134E+06     71.8881E+06     99.7753E+06    -445.609E+03         69.5426
             956     12.6195E-03     20.2133E-03     320.540E-03     305.162E-03        -1.10137     320.539E-03        -1.10137     305.162E-03    -2.11941E-03     360.267E-03    -173.626E-03    -186.641E-03    -180.378E-03     354.005E-03    -173.626E-03     116.184E-03     79.7110E+06     54.4750E+06    -22.1159E+06    -22.1042E+06     54.4633E+06     79.7110E+06    -859.367E+03         67.6078
             957     11.7845E-03     20.0336E-03     318.049E-03     304.500E-03        -1.09796     318.048E-03        -1.09796     304.500E-03    -2.43562E-03     357.051E-03    -173.131E-03    -183.920E-03    -178.528E-03     351.659E-03    -173.131E-03     106.477E-03     69.4370E+06     39.4628E+06    -29.1592E+06    -29.1502E+06     39.4539E+06     69.4370E+06    -723.022E+03         65.5381
             958     10.9460E-03     19.8966E-03     315.674E-03     303.881E-03        -1.09474     315.673E-03        -1.09474     303.881E-03    -2.67440E-03     353.050E-03    -172.648E-03    -180.402E-03    -176.712E-03     349.360E-03    -172.648E-03     88.2666E-03     60.9424E+06     31.7934E+06    -36.2887E+06    -36.2809E+06     31.7855E+06     60.9424E+06    -679.969E+03         63.4032
             959     10.1082E-03     19.7681E-03     313.418E-03     303.299E-03        -1.09171     313.416E-03        -1.09171     303.299E-03    -2.92832E-03     350.317E-03    -172.165E-03    -178.153E-03    -175.294E-03     347.458E-03    -172.165E-03     76.8811E-03     50.6590E+06     26.4227E+06    -43.9557E+06    -43.9433E+06     26.4103E+06     50.6590E+06    -846.099E+03         61.2819
             960     9.26851E-03     19.6600E-03     311.254E-03     302.763E-03        -1.08887     311.252E-03        -1.08886     302.763E-03    -3.35712E-03     347.029E-03    -171.737E-03    -175.292E-03    -173.356E-03     345.093E-03    -171.737E-03     62.9432E-03     41.9080E+06     20.7501E+06    -51.8417E+06    -51.8216E+06     20.7301E+06     41.9080E+06    -1.06007E+06         59.2488
             961     8.42929E-03     19.5651E-03     309.277E-03     302.267E-03        -1.08629     309.274E-03        -1.08629     302.267E-03    -3.66154E-03     345.036E-03    -171.368E-03    -173.668E-03    -172.418E-03     343.786E-03    -171.368E-03     50.0628E-03     34.4999E+06     13.4974E+06    -60.6413E+06    -60.6234E+06     13.4795E+06     34.4999E+06    -1.00503E+06         57.3661
             962     7.58736E-03     19.4925E-03     307.495E-03     301.807E-03        -1.08397     307.492E-03        -1.08397     301.807E-03    -4.00545E-03     343.399E-03    -171.016E-03    -172.382E-03    -171.673E-03     342.689E-03    -171.016E-03     37.3003E-03     25.0934E+06    -626.589E+03    -70.6086E+06    -70.5960E+06    -639.225E+03     25.0934E+06    -936.715E+03         55.6780
             963     6.74709E-03     19.4302E-03     305.883E-03     301.375E-03        -1.08188     305.880E-03        -1.08187     301.375E-03    -4.08259E-03     341.835E-03    -170.676E-03    -171.158E-03    -170.774E-03     341.481E-03    -170.707E-03     25.5644E-03     7.70632E+06    -40.8216E+06    -81.6194E+06    -81.6126E+06    -40.8284E+06     7.70632E+06    -517.697E+03         54.2079
             964     5.90447E-03     19.3922E-03     304.471E-03     300.966E-03        -1.08002     304.468E-03        -1.08002     300.966E-03    -3.90626E-03     340.650E-03    -170.181E-03    -170.469E-03    -170.047E-03     340.516E-03    -170.469E-03     15.2500E-03    -14.5961E+06    -83.9780E+06    -101.749E+06    -92.2949E+06    -93.4324E+06    -14.5961E+06    -340.454E+03         52.9619
             965     5.06189E-03     19.3628E-03     303.204E-03     300.581E-03        -1.07835     303.201E-03        -1.07834     300.581E-03    -3.79749E-03     340.046E-03    -169.755E-03    -170.291E-03    -169.713E-03     340.005E-03    -170.291E-03     7.23337E-03    -37.2457E+06    -102.402E+06    -137.960E+06    -102.445E+06    -137.917E+06    -37.2457E+06    -74.2967E+03         51.9335
             966     4.21810E-03     19.3494E-03     302.065E-03     300.229E-03        -1.07686     302.064E-03        -1.07686     300.229E-03    -2.69765E-03     339.714E-03    -169.544E-03    -170.171E-03    -169.532E-03     339.703E-03    -170.171E-03     1.16957E-03    -61.1727E+06    -113.273E+06    -181.975E+06    -113.276E+06    -181.971E+06    -61.1727E+06    -17.0556E+03         51.1075
             967     3.37430E-03     19.3410E-03     301.127E-03     299.919E-03        -1.07563     301.126E-03        -1.07563     299.919E-03    -1.68874E-03     339.721E-03    -169.621E-03    -170.100E-03    -169.616E-03     339.711E-03    -170.095E-03    -2.61164E-03    -84.2679E+06    -123.288E+06    -225.051E+06    -123.295E+06    -225.045E+06    -84.2679E+06     103.140E+03         50.4648
             968     2.53154E-03     19.3416E-03     300.384E-03     299.654E-03        -1.07463     300.383E-03        -1.07463     299.654E-03    -1.14998E-03     339.858E-03    -169.848E-03    -170.010E-03    -169.842E-03     339.847E-03    -170.005E-03    -4.16207E-03    -106.677E+06    -131.504E+06    -260.051E+06    -131.512E+06    -260.043E+06    -106.677E+06     243.970E+03         49.9863
             969     1.68738E-03     19.3399E-03     299.793E-03     299.443E-03        -1.07380     299.793E-03        -1.07380     299.443E-03    -175.691E-06     339.763E-03    -169.673E-03    -170.089E-03    -169.845E-03     339.753E-03    -169.908E-03    -4.19937E-03    -126.193E+06    -138.397E+06    -288.085E+06    -138.401E+06    -288.081E+06    -126.193E+06     101.790E+03         49.6550
             970     844.002E-06     19.3458E-03     311.184E-03     287.519E-03        -1.07323     311.183E-03        -1.07323     287.519E-03    -1.55015E-03     339.684E-03    -169.513E-03    -170.172E-03    -169.961E-03     339.679E-03    -169.718E-03    -2.83095E-03    -139.294E+06    -143.225E+06    -311.249E+06    -142.908E+06    -311.246E+06    -139.614E+06     274.043E+03         49.4562
             971     14.2934E-03     19.2248E-03     326.395E-03     309.237E-03        -1.11164     326.395E-03        -1.11164     309.237E-03    -337.442E-06     374.700E-03    -174.356E-03    -200.345E-03    -188.812E-03     363.167E-03    -174.356E-03     158.765E-03     126.188E+06     83.3714E+06    -8.03118E+06    -8.02740E+06     83.3676E+06     126.188E+06    -272.562E+03         71.3108
             972     13.4644E-03     18.9519E-03     323.914E-03     308.763E-03        -1.10841     323.913E-03        -1.10841     308.763E-03    -1.81653E-03     372.081E-03    -173.540E-03    -198.541E-03    -187.990E-03     361.530E-03    -173.540E-03     149.291E-03     100.830E+06     72.5900E+06    -15.2400E+06    -15.2338E+06     72.5838E+06     100.830E+06    -582.474E+03         69.5651
             973     12.6328E-03     18.7861E-03     321.558E-03     308.316E-03        -1.10536     321.557E-03        -1.10536     308.316E-03    -2.74211E-03     361.912E-03    -172.696E-03    -189.216E-03    -183.582E-03     356.278E-03    -172.696E-03     110.810E-03     80.0258E+06     55.0364E+06    -22.4149E+06    -22.4067E+06     55.0282E+06     80.0258E+06    -780.276E+03         67.6304
             974     11.7979E-03     18.6164E-03     319.403E-03     307.885E-03        -1.10254     319.401E-03        -1.10254     307.885E-03    -3.30688E-03     357.792E-03    -171.901E-03    -185.892E-03    -181.364E-03     353.265E-03    -171.901E-03     97.6958E-03     69.6767E+06     39.6496E+06    -29.0802E+06    -29.0678E+06     39.6372E+06     69.6767E+06    -877.472E+03         65.5520
             975     10.9622E-03     18.4777E-03     317.401E-03     307.489E-03        -1.09994     317.398E-03        -1.09993     307.489E-03    -3.68543E-03     352.838E-03    -171.108E-03    -181.730E-03    -178.860E-03     349.968E-03    -171.108E-03     77.6512E-03     61.6402E+06     31.7852E+06    -35.8956E+06    -35.8791E+06     31.7687E+06     61.6402E+06    -937.092E+03         63.3993
             976     10.1266E-03     18.3518E-03     315.529E-03     307.122E-03        -1.09753     315.526E-03        -1.09753     307.122E-03    -3.90424E-03     349.338E-03    -170.301E-03    -179.036E-03    -177.048E-03     347.349E-03    -170.301E-03     63.8589E-03     51.0754E+06     26.7202E+06    -43.7058E+06    -43.6915E+06     26.7059E+06     51.0754E+06    -747.603E+03         61.2504
             977     9.28981E-03     18.2481E-03     313.836E-03     306.782E-03        -1.09539     313.833E-03        -1.09538     306.782E-03    -4.35333E-03     345.722E-03    -169.515E-03    -176.208E-03    -174.992E-03     344.507E-03    -169.515E-03     49.3617E-03     41.9936E+06     21.0110E+06    -51.8807E+06    -51.8591E+06     20.9894E+06     41.9936E+06    -1.06857E+06         59.1811
             978     8.44907E-03     18.1558E-03     312.288E-03     306.462E-03        -1.09345     312.284E-03        -1.09345     306.462E-03    -4.69062E-03     342.357E-03    -168.787E-03    -173.570E-03    -172.879E-03     341.666E-03    -168.787E-03     36.2217E-03     34.1885E+06     13.2850E+06    -61.0616E+06    -61.0335E+06     13.2569E+06     34.1885E+06    -1.42415E+06         57.2540
             979     7.61063E-03     18.0821E-03     310.885E-03     306.155E-03        -1.09169     310.880E-03        -1.09169     306.155E-03    -4.97357E-03     339.295E-03    -168.144E-03    -171.150E-03    -170.837E-03     338.981E-03    -168.144E-03     23.5881E-03     24.7785E+06     -613.32E+03    -70.8853E+06    -70.8644E+06    -634.193E+03     24.7785E+06    -1.18079E+06         55.5149
             980     6.76730E-03     18.0274E-03     309.627E-03     305.851E-03        -1.09010     309.622E-03        -1.09010     305.851E-03    -5.00384E-03     336.627E-03    -167.610E-03    -169.018E-03    -168.880E-03     336.512E-03    -167.632E-03     12.6943E-03     8.15747E+06    -39.8833E+06    -80.8540E+06    -80.7899E+06    -39.9474E+06     8.15747E+06    -1.05824E+06         53.9906
             981     5.92310E-03     17.9873E-03     308.491E-03     305.547E-03        -1.08865     308.486E-03        -1.08865     305.547E-03    -4.77121E-03     334.871E-03    -167.217E-03    -167.655E-03    -167.582E-03     334.837E-03    -167.255E-03     3.80552E-03    -14.4165E+06    -83.2521E+06    -100.892E+06    -91.4356E+06    -92.7087E+06    -14.4165E+06    -1.19438E+06         52.6910
             982     5.07802E-03     17.9621E-03     307.473E-03     305.249E-03        -1.08734     307.469E-03        -1.08734     305.249E-03    -4.53260E-03     333.854E-03    -166.797E-03    -167.057E-03    -166.846E-03     333.830E-03    -166.984E-03    -2.65528E-03    -37.5909E+06    -102.703E+06    -138.262E+06    -102.752E+06    -138.212E+06    -37.5909E+06    -613.578E+03         51.6123
             983     4.23248E-03     17.9474E-03     306.523E-03     304.965E-03        -1.08616     306.520E-03        -1.08615     304.965E-03    -3.33545E-03     333.331E-03    -166.495E-03    -166.836E-03    -166.507E-03     333.297E-03    -166.790E-03    -7.00726E-03    -61.6529E+06    -113.254E+06    -181.376E+06    -113.261E+06    -181.369E+06    -61.6529E+06     124.844E+03         50.7417
             984     3.38639E-03     17.9418E-03     305.669E-03     304.718E-03        -1.08509     305.668E-03        -1.08509     304.718E-03    -2.02539E-03     333.161E-03    -166.467E-03    -166.694E-03    -166.472E-03     333.115E-03    -166.643E-03    -9.02283E-03    -85.1227E+06    -122.897E+06    -224.345E+06    -122.901E+06    -224.342E+06    -85.1227E+06    -139.375E+03         50.0615
             985     2.53958E-03     17.9393E-03     305.027E-03     304.520E-03        -1.08424     305.022E-03        -1.08424     304.524E-03    -1.38736E-03     332.846E-03    -166.298E-03    -166.548E-03    -166.259E-03     332.802E-03    -166.543E-03    -8.88076E-03    -107.693E+06    -131.759E+06    -259.660E+06    -131.762E+06    -259.658E+06    -107.693E+06     27.9113E+03         49.5533
             986     1.69353E-03     17.9428E-03     304.634E-03     304.369E-03        -1.08371     304.629E-03        -1.08371     304.374E-03    -504.581E-06     332.679E-03    -166.087E-03    -166.592E-03    -166.059E-03     332.652E-03    -166.592E-03    -7.10810E-03    -126.870E+06    -138.086E+06    -287.298E+06    -138.088E+06    -287.296E+06    -126.870E+06     144.492E+03         49.2004
             987     845.479E-06     17.9445E-03     313.795E-03     294.817E-03        -1.08326     313.794E-03        -1.08326     294.817E-03    -1.70936E-03     333.314E-03    -166.346E-03    -166.968E-03    -166.644E-03     333.302E-03    -166.659E-03    -4.16083E-03    -139.139E+06    -142.821E+06    -310.672E+06    -142.501E+06    -310.672E+06    -139.459E+06    -142.230E+03         48.9883
             988     14.3040E-03     17.7907E-03     326.518E-03     312.578E-03        -1.11462     326.518E-03        -1.11462     312.578E-03    -841.817E-06     379.770E-03    -173.976E-03    -205.794E-03    -194.559E-03     368.535E-03    -173.976E-03     158.926E-03     127.257E+06     83.8762E+06    -7.82423E+06    -7.81991E+06     83.8718E+06     127.257E+06    -270.964E+03         71.3657
             989     13.4753E-03     17.5193E-03     324.525E-03     312.392E-03        -1.11221     324.524E-03        -1.11221     312.392E-03    -2.39987E-03     375.511E-03    -172.800E-03    -202.711E-03    -192.886E-03     365.686E-03    -172.800E-03     145.054E-03     101.522E+06     72.6558E+06    -15.2620E+06    -15.2574E+06     72.6512E+06     101.522E+06    -428.676E+03         69.6288
             990     12.6454E-03     17.3592E-03     322.625E-03     312.218E-03        -1.10995     322.623E-03        -1.10994     312.218E-03    -3.45947E-03     365.584E-03    -171.546E-03    -194.039E-03    -189.082E-03     360.628E-03    -171.546E-03     104.745E-03     81.0049E+06     55.7935E+06    -21.8553E+06    -21.8420E+06     55.7802E+06     81.0049E+06    -840.798E+03         67.6967
             991     11.8180E-03     17.1903E-03     320.910E-03     312.044E-03        -1.10785     320.907E-03        -1.10785     312.044E-03    -4.29092E-03     360.944E-03    -170.246E-03    -190.698E-03    -187.030E-03     357.276E-03    -170.246E-03     88.3563E-03      69.989E+06     40.3282E+06    -28.7687E+06    -28.7452E+06     40.3047E+06      69.989E+06    -1.20166E+06         65.6143
             992     10.9888E-03     17.0593E-03     319.443E-03     311.892E-03        -1.10605     319.439E-03        -1.10605     311.892E-03    -4.79628E-03     354.476E-03    -168.905E-03    -185.571E-03    -183.514E-03     352.420E-03    -168.905E-03     65.9422E-03     61.7166E+06     31.4928E+06    -36.1201E+06    -36.0970E+06     31.4697E+06     61.7166E+06    -1.22432E+06         63.4479
             993     10.1545E-03     16.9380E-03     318.151E-03     311.748E-03        -1.10449     318.147E-03        -1.10449     311.748E-03    -5.11596E-03     348.936E-03    -167.568E-03    -181.368E-03    -180.116E-03     347.685E-03    -167.568E-03     50.3689E-03     52.0069E+06     26.8089E+06    -43.7828E+06    -43.7478E+06     26.7740E+06     52.0069E+06    -1.23675E+06         61.2726
             994     9.31933E-03     16.8349E-03     316.966E-03     311.610E-03        -1.10310     316.960E-03        -1.10309     311.610E-03    -5.61521E-03     344.014E-03    -166.261E-03    -177.753E-03    -177.127E-03     343.388E-03    -166.261E-03     34.6903E-03     42.3578E+06     21.3552E+06    -51.9734E+06    -51.9418E+06     21.3235E+06     42.3578E+06    -1.15879E+06         59.1643
             995     8.48456E-03     16.7511E-03     315.890E-03     311.467E-03        -1.10187     315.884E-03        -1.10186     311.467E-03    -5.98495E-03     338.738E-03    -165.044E-03    -173.695E-03    -173.436E-03     338.479E-03    -165.044E-03     21.2220E-03     34.2318E+06     13.7239E+06    -60.5821E+06    -60.5654E+06     13.7072E+06     34.2318E+06    -1.02259E+06         57.1876
             996     7.64121E-03     16.6810E-03     314.965E-03     311.311E-03        -1.10079     314.957E-03        -1.10078     311.311E-03    -6.27569E-03     333.640E-03    -164.005E-03    -169.636E-03    -169.552E-03     333.556E-03    -164.005E-03     9.02956E-03     24.5138E+06     295.200E+03    -70.8411E+06    -70.8139E+06     268.007E+03     24.5138E+06    -1.28651E+06         55.3901
             997     6.79806E-03     16.6311E-03     314.116E-03     311.130E-03        -1.09978     314.110E-03        -1.09977     311.130E-03    -6.17328E-03     329.907E-03    -163.173E-03    -166.734E-03    -166.695E-03     329.869E-03    -163.173E-03    -1.52928E-03     7.41928E+06    -38.2534E+06    -82.0238E+06    -81.9453E+06    -38.3319E+06     7.41928E+06    -1.43131E+06         53.8030
             998     5.95160E-03     16.5940E-03     313.285E-03     310.926E-03        -1.09877     313.279E-03        -1.09877     310.926E-03    -5.73647E-03     327.043E-03    -162.530E-03    -164.513E-03    -164.436E-03     326.966E-03    -162.530E-03    -9.50342E-03    -15.5679E+06    -83.3224E+06    -102.029E+06    -93.3297E+06    -92.0216E+06    -15.5679E+06    -1.01667E+06         52.4404
             999     5.10292E-03     16.5713E-03     312.492E-03     310.710E-03        -1.09781     312.487E-03        -1.09781     310.710E-03    -5.27403E-03     324.971E-03    -162.033E-03    -162.938E-03    -162.768E-03     324.832E-03    -162.064E-03    -14.8771E-03    -39.7968E+06    -104.362E+06    -138.523E+06    -104.380E+06    -138.505E+06    -39.7968E+06    -537.301E+03         51.3020
            1000     4.25288E-03     16.5575E-03     311.722E-03     310.499E-03        -1.09691     311.720E-03        -1.09691     310.499E-03    -3.97576E-03     323.755E-03    -161.695E-03    -162.060E-03    -161.821E-03     323.583E-03    -161.761E-03    -17.1265E-03    -63.5577E+06    -114.163E+06    -180.372E+06    -114.168E+06    -180.367E+06    -63.5577E+06    -138.574E+03         50.3773
            1001     3.40303E-03     16.5520E-03     311.095E-03     310.307E-03        -1.09617     311.094E-03        -1.09617     310.307E-03    -2.60739E-03     323.111E-03    -161.475E-03    -161.636E-03    -161.362E-03     322.952E-03    -161.590E-03    -16.8407E-03    -86.5723E+06    -123.290E+06    -222.724E+06    -123.294E+06    -222.719E+06    -86.5723E+06     73.0492E+03         49.6509
            1002     2.55259E-03     16.5523E-03     310.585E-03     310.136E-03        -1.09553     310.580E-03        -1.09553     310.141E-03    -1.70725E-03     322.794E-03    -161.262E-03    -161.532E-03    -161.151E-03     322.670E-03    -161.519E-03    -14.9730E-03    -108.990E+06    -131.807E+06    -259.716E+06    -131.813E+06    -259.710E+06    -108.990E+06    -312.010E+03         49.1059
            1003     1.70040E-03     16.5546E-03     310.204E-03     309.965E-03        -1.09502     310.128E-03        -1.09502     310.040E-03    -627.620E-06     322.845E-03    -161.245E-03    -161.600E-03    -161.240E-03     322.771E-03    -161.531E-03    -11.3782E-03    -127.666E+06    -138.558E+06    -287.240E+06    -138.565E+06    -287.234E+06    -127.666E+06    -120.605E+03         48.7263
            1004     850.983E-06     16.5560E-03     317.147E-03     302.886E-03        -1.09485     317.075E-03        -1.09485     302.957E-03    -1.35024E-03     323.090E-03    -161.163E-03    -161.927E-03    -161.792E-03     323.064E-03    -161.271E-03    -6.52818E-03    -139.067E+06    -143.060E+06    -310.404E+06    -142.399E+06    -310.397E+06    -139.735E+06    -193.179E+03         48.4973
            1005     14.3039E-03     16.3414E-03     326.593E-03     316.527E-03        -1.11802     326.593E-03        -1.11802     316.527E-03    -1.64854E-03     385.316E-03    -173.649E-03    -211.668E-03    -200.620E-03     374.269E-03    -173.649E-03     159.750E-03     127.923E+06      83.851E+06    -8.09318E+06    -8.08527E+06     83.8431E+06     127.923E+06    -428.337E+03         71.4636
            1006     13.4845E-03     16.0825E-03     325.047E-03     316.651E-03        -1.11645     325.045E-03        -1.11645     316.651E-03    -3.10843E-03     381.586E-03    -172.031E-03    -209.555E-03    -200.369E-03     372.400E-03    -172.031E-03     141.613E-03     102.610E+06     73.3487E+06    -15.6036E+06    -15.5972E+06     73.3423E+06     102.610E+06    -330.646E+03         69.7383
            1007     12.6643E-03     15.9202E-03     323.718E-03     316.769E-03        -1.11501     323.714E-03        -1.11501     316.769E-03    -4.44613E-03     371.453E-03    -170.204E-03    -201.249E-03    -196.934E-03     367.138E-03    -170.204E-03     98.9081E-03     81.4403E+06     56.7357E+06    -23.2851E+06    -23.2646E+06     56.7152E+06     81.4403E+06    -904.412E+03         67.8143
            1008     11.8422E-03     15.7606E-03     322.627E-03     316.865E-03        -1.11384     322.622E-03        -1.11383     316.865E-03    -5.44309E-03     365.193E-03    -168.270E-03    -196.923E-03    -193.945E-03     362.215E-03    -168.270E-03     80.3491E-03     70.3338E+06     41.4183E+06    -30.2633E+06    -30.2279E+06     41.3828E+06     70.3338E+06    -1.58895E+06         65.7324
            1009     11.0173E-03     15.6329E-03     321.718E-03     316.962E-03        -1.11289     321.711E-03        -1.11289     316.962E-03    -6.29993E-03     357.804E-03    -166.249E-03    -191.554E-03    -190.038E-03     356.288E-03    -166.249E-03     56.8210E-03     62.0868E+06     32.0807E+06    -37.1055E+06    -37.0609E+06     32.0362E+06     62.0868E+06    -1.61518E+06         63.5561
            1010     10.1920E-03     15.5238E-03     321.083E-03     317.042E-03        -1.11227     321.075E-03        -1.11226     317.042E-03    -6.81718E-03     350.224E-03    -164.196E-03    -186.027E-03    -185.263E-03     349.459E-03    -164.196E-03     39.4503E-03     52.0144E+06     26.6780E+06    -44.4387E+06    -44.3802E+06     26.6195E+06     52.0144E+06    -1.85662E+06         61.3585
            1011     9.36037E-03     15.4259E-03     320.561E-03     317.100E-03        -1.11180     320.552E-03        -1.11179     317.100E-03    -7.19037E-03     342.220E-03    -162.226E-03    -179.994E-03    -179.698E-03     341.924E-03    -162.226E-03     23.2727E-03     41.9041E+06     21.1329E+06    -52.3705E+06    -52.3202E+06     21.0826E+06     41.9041E+06    -1.74413E+06         59.2131
            1012     8.52241E-03     15.3496E-03     320.055E-03     317.122E-03        -1.11137     320.046E-03        -1.11136     317.122E-03    -7.45041E-03     335.147E-03    -160.410E-03    -174.738E-03    -174.661E-03     335.071E-03    -160.410E-03     8.33565E-03     33.2322E+06     13.2297E+06    -61.1035E+06    -61.0817E+06     13.2079E+06     33.2322E+06    -889.587E+03         57.1860
            1013     7.68376E-03     15.2904E-03     319.572E-03     317.100E-03        -1.11094     319.562E-03        -1.11093     317.100E-03    -7.51950E-03     328.425E-03    -158.782E-03    -169.643E-03    -169.588E-03     328.370E-03    -158.782E-03    -4.93117E-03     23.8662E+06     1.28689E+06    -71.0918E+06    -71.0775E+06     1.27256E+06     23.8662E+06    -382.551E+03         55.3292
            1014     6.83752E-03     15.2437E-03     319.086E-03     317.035E-03        -1.11048     319.076E-03        -1.11047     317.035E-03    -7.26055E-03     322.523E-03    -157.399E-03    -165.124E-03    -164.951E-03     322.350E-03    -157.399E-03    -16.0233E-03     6.44357E+06    -35.8480E+06    -82.6174E+06    -82.5963E+06    -35.8691E+06     6.44357E+06    -545.248E+03         53.6771
            1015     5.98906E-03     15.2142E-03     318.595E-03     316.930E-03        -1.10999     318.587E-03        -1.10998     316.930E-03    -6.73043E-03     317.873E-03    -156.280E-03    -161.592E-03    -161.257E-03     317.537E-03    -156.280E-03    -23.8952E-03    -16.9093E+06    -82.3194E+06    -102.530E+06    -94.0500E+06    -90.7995E+06    -16.9093E+06    -480.097E+03         52.2476
            1016     5.13738E-03     15.1940E-03     318.077E-03     316.796E-03        -1.10944     318.070E-03        -1.10943     316.796E-03    -6.14899E-03     314.035E-03    -155.426E-03    -158.609E-03    -158.156E-03     313.582E-03    -155.426E-03    -28.2854E-03    -40.5435E+06    -104.672E+06    -137.369E+06    -104.677E+06    -137.364E+06    -40.5435E+06    -284.179E+03         51.0442
            1017     4.28338E-03     15.1845E-03     317.532E-03     316.652E-03        -1.10887     317.528E-03        -1.10887     316.652E-03    -4.71795E-03     311.098E-03    -154.828E-03    -156.270E-03    -155.756E-03     310.620E-03    -154.864E-03    -29.1427E-03    -65.4293E+06    -115.569E+06    -179.396E+06    -115.573E+06    -179.392E+06    -65.4293E+06    -19.1717E+03         50.0598
            1018     3.42633E-03     15.1797E-03     317.073E-03     316.517E-03        -1.10840     317.071E-03        -1.10840     316.517E-03    -3.23545E-03     309.481E-03    -154.524E-03    -154.956E-03    -154.486E-03     309.073E-03    -154.587E-03    -26.7620E-03    -89.0847E+06    -125.947E+06    -221.548E+06    -125.951E+06    -221.544E+06    -89.0847E+06     193.287E+03         49.2815
            1019     2.56947E-03     15.1802E-03     316.743E-03     316.393E-03        -1.10802     316.742E-03        -1.10802     316.393E-03    -2.18829E-03     309.124E-03    -154.420E-03    -154.705E-03    -154.389E-03     308.837E-03    -154.447E-03    -22.4487E-03    -110.669E+06    -134.417E+06    -258.667E+06    -134.426E+06    -258.658E+06    -110.669E+06     57.2610E+03         48.6946
            1020     1.71440E-03     15.1826E-03     316.512E-03     316.220E-03        -1.10766     316.441E-03        -1.10766     316.291E-03    -1.12038E-03     308.897E-03    -154.283E-03    -154.615E-03    -154.458E-03     308.741E-03    -154.283E-03    -16.4412E-03    -130.035E+06    -141.477E+06    -286.996E+06    -141.489E+06    -286.984E+06    -130.035E+06    -154.602E+03         48.2842
            1021     856.715E-06     15.1842E-03     321.239E-03     311.261E-03        -1.10739     321.167E-03        -1.10739     311.332E-03    -1.81317E-03     308.373E-03    -153.802E-03    -154.570E-03    -154.517E-03     308.320E-03    -153.802E-03    -8.84267E-03    -142.828E+06    -147.273E+06    -310.691E+06    -146.618E+06    -310.678E+06    -143.496E+06    -174.980E+03         48.0360
            1022     14.3106E-03     14.8898E-03     326.496E-03     320.976E-03        -1.12180     326.495E-03        -1.12180     320.976E-03    -2.22585E-03     391.012E-03    -173.319E-03    -217.693E-03    -207.066E-03     380.385E-03    -173.319E-03     158.551E-03     128.779E+06     84.1680E+06    -7.82859E+06    -7.81789E+06     84.1573E+06     128.779E+06     49.4711E+03         71.6067
            1023     13.4952E-03     14.6286E-03     325.464E-03     321.429E-03        -1.12085     325.461E-03        -1.12084     321.429E-03    -3.99065E-03     387.767E-03    -171.243E-03    -216.524E-03    -207.861E-03     379.103E-03    -171.243E-03     139.116E-03     103.485E+06     73.6444E+06    -15.9261E+06    -15.9107E+06     73.6289E+06     103.485E+06    -314.935E+03         69.8943
            1024     12.6822E-03     14.4718E-03     324.806E-03     321.851E-03        -1.12036     324.799E-03        -1.12036     321.851E-03    -5.90042E-03     377.926E-03    -168.843E-03    -209.083E-03    -205.123E-03     373.965E-03    -168.843E-03     95.9836E-03     83.2850E+06     58.5360E+06    -22.9584E+06    -22.9414E+06     58.5190E+06     83.2850E+06    -915.476E+03         67.9799
            1025     11.8678E-03     14.3223E-03     324.502E-03     322.217E-03        -1.12028     324.493E-03        -1.12027     322.217E-03    -7.20432E-03     370.522E-03    -166.251E-03    -204.271E-03    -201.645E-03     367.896E-03    -166.251E-03     76.3383E-03     71.6604E+06     43.0288E+06    -30.1041E+06    -30.0732E+06     42.9979E+06     71.6604E+06    -1.44541E+06         65.9012
            1026     11.0501E-03     14.2023E-03     324.405E-03     322.550E-03        -1.12048     324.394E-03        -1.12047     322.550E-03    -8.04326E-03     361.683E-03    -163.529E-03    -198.153E-03    -196.889E-03     360.418E-03    -163.529E-03     52.3807E-03     62.4167E+06     32.3834E+06    -37.5233E+06    -37.4703E+06     32.3304E+06     62.4167E+06    -1.85519E+06         63.7189
            1027     10.2282E-03     14.1011E-03     324.363E-03     322.831E-03        -1.12075     324.350E-03        -1.12074     322.831E-03    -8.50683E-03     352.697E-03    -160.732E-03    -191.964E-03    -191.403E-03     352.135E-03    -160.732E-03     33.8799E-03     51.9537E+06     26.3910E+06    -45.0190E+06    -44.9684E+06     26.3404E+06     51.9537E+06    -1.80126E+06         61.5038
            1028     9.40097E-03     14.0219E-03     324.481E-03     323.059E-03        -1.12119     324.468E-03        -1.12118     323.059E-03    -8.76751E-03     342.948E-03    -157.963E-03    -184.984E-03    -184.823E-03     342.786E-03    -157.963E-03     15.8383E-03     41.1529E+06     20.3272E+06    -53.4045E+06    -53.3688E+06     20.2915E+06     41.1529E+06    -1.32463E+06         59.3289
            1029     8.56860E-03     13.9523E-03     324.610E-03     323.218E-03        -1.12163     324.596E-03        -1.12162     323.218E-03    -8.76115E-03     333.352E-03    -155.325E-03    -178.026E-03    -177.983E-03     333.308E-03    -155.325E-03    -1.65943E-03     31.4399E+06     11.6467E+06    -62.7911E+06    -62.7688E+06     11.6245E+06     31.4399E+06    -791.573E+03         57.2600
            1030     7.72922E-03     13.9036E-03     324.566E-03     323.307E-03        -1.12185     324.554E-03        -1.12183     323.307E-03    -8.53747E-03     324.522E-03    -152.864E-03    -171.658E-03    -171.471E-03     324.336E-03    -152.864E-03    -16.9792E-03     21.3733E+06     1.06156E+06    -72.7014E+06    -72.6962E+06     1.05629E+06     21.3733E+06     57.5846E+03         55.3511
            1031     6.88605E-03     13.8694E-03     324.392E-03     323.333E-03        -1.12189     324.381E-03        -1.12187     323.333E-03    -8.07431E-03     315.993E-03    -150.655E-03    -165.338E-03    -164.860E-03     315.515E-03    -150.655E-03    -29.1536E-03     4.66272E+06    -32.5450E+06    -83.7260E+06    -83.6705E+06    -32.6005E+06     4.66272E+06     884.048E+03         53.6398
            1032     6.03550E-03     13.8463E-03     324.177E-03     323.312E-03        -1.12184     324.168E-03        -1.12183     323.312E-03    -7.33238E-03     308.218E-03    -148.797E-03    -159.421E-03    -158.642E-03     307.439E-03    -148.797E-03    -37.4134E-03    -18.2236E+06    -80.8161E+06    -101.876E+06    -95.5796E+06    -87.1128E+06    -18.2236E+06     925.958E+03         52.1471
            1033     5.18052E-03     13.8348E-03     323.928E-03     323.253E-03        -1.12170     323.921E-03        -1.12169     323.253E-03    -6.47935E-03     301.696E-03    -147.335E-03    -154.362E-03    -153.415E-03     300.750E-03    -147.335E-03    -40.9586E-03    -42.3898E+06    -107.536E+06    -136.122E+06    -107.625E+06    -136.033E+06    -42.3898E+06     493.094E+03         50.8804
            1034     4.32064E-03     13.8300E-03     323.666E-03     323.174E-03        -1.12154     323.661E-03        -1.12153     323.174E-03    -5.18374E-03     296.707E-03    -146.268E-03    -150.439E-03    -149.506E-03     295.774E-03    -146.268E-03    -40.3268E-03    -67.6100E+06    -118.794E+06    -178.187E+06    -118.823E+06    -178.159E+06    -67.6100E+06     1.00946E+06         49.8368
            1035     3.45882E-03     13.8300E-03     323.402E-03     323.091E-03        -1.12133     323.400E-03        -1.12133     323.091E-03    -3.58230E-03     293.268E-03    -145.572E-03    -147.697E-03    -146.923E-03     292.494E-03    -145.572E-03    -36.4399E-03    -92.3426E+06    -129.262E+06    -219.518E+06    -129.298E+06    -219.482E+06    -92.3426E+06     1.40108E+06         49.0067
            1036     2.59462E-03     13.8296E-03     323.138E-03     323.029E-03        -1.12112     323.137E-03        -1.12112     323.029E-03    -2.41343E-03     291.213E-03    -145.180E-03    -146.033E-03    -145.505E-03     290.685E-03    -145.180E-03    -29.8256E-03    -114.656E+06    -138.971E+06    -257.027E+06    -138.987E+06    -257.011E+06    -114.656E+06     704.065E+03         48.3770
            1037     1.72927E-03     13.8325E-03     323.076E-03     322.966E-03        -1.12111     323.061E-03        -1.12111     322.981E-03    -1.34270E-03     290.332E-03    -144.954E-03    -145.378E-03    -145.097E-03     290.051E-03    -144.954E-03    -21.3689E-03    -134.196E+06    -146.254E+06    -286.342E+06    -146.262E+06    -286.334E+06    -134.196E+06     26.7449E+03         47.9349
            1038     865.416E-06     13.8366E-03     326.097E-03     319.805E-03        -1.12100     326.081E-03        -1.12100     319.820E-03    -1.43927E-03     289.763E-03    -144.741E-03    -145.022E-03    -144.918E-03     289.666E-03    -144.748E-03    -11.7852E-03    -147.277E+06    -151.745E+06    -310.144E+06    -150.961E+06    -310.137E+06    -148.069E+06     245.277E+03         47.6669
            1039     14.3156E-03     13.4310E-03     327.370E-03     324.730E-03        -1.12526     326.286E-03        -1.12526     325.812E-03    -2.59504E-03     396.635E-03    -172.963E-03    -223.672E-03    -213.211E-03     386.174E-03    -172.963E-03     158.466E-03     129.799E+06     84.5474E+06    -7.46871E+06    -7.46314E+06     84.5418E+06     129.799E+06     312.052E+03         71.7882
            1040     13.5056E-03     13.1662E-03     327.463E-03     325.031E-03        -1.12522     325.892E-03        -1.12522     326.597E-03    -5.58417E-03     392.424E-03    -170.521E-03    -221.903E-03    -213.174E-03     383.695E-03    -170.521E-03     140.637E-03     105.315E+06     75.1097E+06    -14.6706E+06    -14.6603E+06     75.0995E+06     105.315E+06    -135.114E+03         70.0858
            1041     12.6970E-03     13.0137E-03     327.720E-03     325.731E-03        -1.12599     326.122E-03        -1.12598     327.318E-03    -7.93825E-03     382.804E-03    -167.710E-03    -215.094E-03    -211.115E-03     378.825E-03    -167.710E-03     97.1265E-03     84.3246E+06     59.6148E+06    -21.9904E+06    -21.9823E+06     59.6067E+06     84.3246E+06    -400.142E+03         68.1777
            1042     11.8883E-03     12.8722E-03     328.173E-03     326.402E-03        -1.12713     326.623E-03        -1.12712     327.936E-03    -9.39812E-03     375.976E-03    -164.595E-03    -211.381E-03    -208.684E-03     373.279E-03    -164.595E-03     78.2416E-03     72.0981E+06     43.6462E+06    -29.5920E+06    -29.5788E+06     43.6329E+06     72.0981E+06    -478.622E+03         66.1022
            1043     11.0768E-03     12.7645E-03     328.697E-03     327.108E-03        -1.12850     327.307E-03        -1.12848     328.481E-03    -10.2870E-03     366.719E-03    -161.229E-03    -205.490E-03    -204.191E-03     365.420E-03    -161.229E-03     53.5935E-03     62.4148E+06     33.0398E+06    -37.6894E+06     -37.669E+06     33.0194E+06     62.4148E+06    -1.01860E+06         63.9184
            1044     10.2593E-03     12.6782E-03     329.090E-03     327.965E-03        -1.12994     328.104E-03        -1.12992     328.931E-03    -10.6670E-03     356.889E-03    -157.678E-03    -199.211E-03    -198.689E-03     356.366E-03    -157.678E-03     32.4202E-03     51.7659E+06     26.1567E+06    -46.1026E+06    -46.0792E+06     26.1333E+06     51.7659E+06    -1.21847E+06         61.6948
            1045     9.43955E-03     12.6065E-03     329.480E-03     328.608E-03        -1.13123     328.780E-03        -1.13121     329.288E-03    -10.6466E-03     346.177E-03    -154.023E-03    -192.154E-03    -192.046E-03     346.069E-03    -154.023E-03     11.7927E-03     40.8945E+06     19.3061E+06    -54.7724E+06    -54.7589E+06     19.2926E+06     40.8945E+06    -689.667E+03         59.5030
            1046     8.61268E-03     12.5592E-03     329.836E-03     329.053E-03        -1.13231     329.321E-03        -1.13229     329.551E-03    -10.2290E-03     334.423E-03    -150.384E-03    -184.039E-03    -183.973E-03     334.357E-03    -150.384E-03    -7.03205E-03     30.0463E+06     10.5312E+06    -63.8738E+06    -63.8612E+06     10.5186E+06     30.0463E+06     124.355E+03         57.4075
            1047     7.77824E-03     12.5204E-03     330.048E-03     329.463E-03        -1.13323     329.776E-03        -1.13321     329.719E-03    -9.61274E-03     322.479E-03    -146.896E-03    -175.584E-03    -175.243E-03     322.139E-03    -146.896E-03    -24.4170E-03     18.4947E+06    -235.468E+03    -74.7573E+06    -74.6881E+06    -304.668E+03     18.4947E+06     1.31062E+06         55.4616
            1048     6.93588E-03     12.5020E-03     330.107E-03     329.736E-03        -1.13385     330.034E-03        -1.13384     329.796E-03    -8.72071E-03     310.808E-03    -143.683E-03    -167.125E-03    -166.337E-03     310.020E-03    -143.683E-03    -38.1318E-03     1.79415E+06    -30.0830E+06    -86.9790E+06    -86.7989E+06    -30.2631E+06     1.79415E+06     2.67195E+06         53.7045
            1049     6.08632E-03     12.4931E-03     330.068E-03     329.792E-03        -1.13415     330.047E-03        -1.13414     329.804E-03    -7.59920E-03     299.511E-03    -140.887E-03    -158.624E-03    -157.427E-03     298.315E-03    -140.887E-03    -46.4707E-03    -20.2369E+06    -78.8985E+06    -102.117E+06    -98.7144E+06    -82.3015E+06    -20.2369E+06     2.58643E+06         52.1607
            1050     5.22778E-03     12.4935E-03     329.990E-03     329.761E-03        -1.13429     329.972E-03        -1.13428     329.772E-03    -6.48786E-03     289.760E-03    -138.587E-03    -151.173E-03    -149.756E-03     288.343E-03    -138.587E-03    -49.7577E-03    -43.8552E+06    -109.823E+06    -133.594E+06    -110.303E+06    -133.114E+06    -43.8552E+06     1.98403E+06         50.8416
            1051     4.36396E-03     12.4969E-03     329.879E-03     329.695E-03        -1.13433     329.845E-03        -1.13433     329.724E-03    -5.04652E-03     282.054E-03    -136.753E-03    -145.301E-03    -143.907E-03     280.660E-03    -136.753E-03    -48.5520E-03    -68.8073E+06    -121.486E+06    -176.809E+06    -121.582E+06    -176.714E+06    -68.8073E+06     2.05217E+06         49.7481
            1052     3.49552E-03     12.5018E-03     329.768E-03     329.641E-03        -1.13435     329.728E-03        -1.13435     329.679E-03    -3.31332E-03     275.891E-03    -135.358E-03    -140.532E-03    -139.378E-03     274.737E-03    -135.358E-03    -43.4873E-03    -93.8697E+06    -131.702E+06    -216.295E+06    -131.761E+06    -216.236E+06    -93.8697E+06     2.19035E+06         48.8735
            1053     2.62389E-03     12.5078E-03     329.733E-03     329.621E-03        -1.13444     329.724E-03        -1.13444     329.630E-03    -2.27847E-03     271.312E-03    -134.418E-03    -136.894E-03    -136.108E-03     270.526E-03    -134.418E-03    -35.3432E-03    -117.736E+06    -140.922E+06    -253.490E+06    -140.954E+06    -253.458E+06    -117.736E+06     1.36608E+06         48.2070
            1054     1.74961E-03     12.5111E-03     329.650E-03     329.553E-03        -1.13447     329.620E-03        -1.13447     329.583E-03    -1.26411E-03     268.653E-03    -133.919E-03    -134.734E-03    -134.307E-03     268.227E-03    -133.919E-03    -25.5995E-03    -136.689E+06    -148.353E+06    -285.596E+06    -148.365E+06    -285.584E+06    -136.689E+06     185.665E+03         47.7370
            1055     874.425E-06     12.5143E-03     331.387E-03     327.730E-03        -1.13448     331.357E-03        -1.13448     327.760E-03    -928.732E-06     267.639E-03    -133.651E-03    -133.988E-03    -133.824E-03     267.483E-03    -133.658E-03    -14.5308E-03    -148.465E+06    -153.588E+06    -309.448E+06    -152.806E+06    -309.437E+06    -149.257E+06     421.748E+03         47.4514
            1056     14.3210E-03     11.9647E-03     330.887E-03     325.780E-03        -1.12779     325.776E-03        -1.12779     330.887E-03    -3.69193E-03     400.231E-03    -172.704E-03    -227.527E-03    -216.957E-03     389.660E-03    -172.704E-03     159.621E-03     130.059E+06     84.7107E+06    -7.39712E+06    -7.39470E+06     84.7083E+06     130.059E+06    -286.457E+03         71.9882
            1057     13.5130E-03     11.6983E-03     331.984E-03     326.505E-03        -1.12947     326.494E-03        -1.12946     331.984E-03    -7.80598E-03     395.710E-03    -170.043E-03    -225.667E-03    -216.479E-03     386.522E-03    -170.043E-03     145.037E-03     105.388E+06     75.0424E+06    -14.4194E+06    -14.4160E+06     75.0390E+06     105.388E+06    -152.464E+03         70.2907
            1058     12.7058E-03     11.5507E-03     332.980E-03     327.618E-03        -1.13172     327.598E-03        -1.13170     332.980E-03    -10.6827E-03     385.580E-03    -167.004E-03    -218.576E-03    -214.292E-03     381.296E-03    -167.004E-03     101.324E-03     83.9683E+06     59.3384E+06    -21.8516E+06    -21.8427E+06     59.3295E+06     83.9683E+06     638.305E+03         68.3852
            1059     11.8994E-03     11.4129E-03     333.831E-03     329.055E-03        -1.13430     329.028E-03        -1.13427     333.831E-03    -12.4553E-03     379.994E-03    -163.578E-03    -216.416E-03    -213.397E-03     376.975E-03    -163.578E-03     83.4323E-03     72.3195E+06     44.2727E+06    -28.9853E+06    -28.9650E+06     44.2523E+06     72.3195E+06     959.266E+03         66.3116
            1060     11.0921E-03     11.3187E-03     334.558E-03     330.647E-03        -1.13700     330.617E-03        -1.13697     334.558E-03    -13.1462E-03     372.421E-03    -159.706E-03    -212.715E-03    -211.232E-03     370.938E-03    -159.706E-03     57.8844E-03     62.1938E+06     34.0216E+06    -37.3642E+06    -37.3294E+06     33.9868E+06     62.1938E+06     826.512E+03         64.1309
            1061     10.2853E-03     11.2409E-03     335.140E-03     332.152E-03        -1.13955     332.124E-03        -1.13952     335.140E-03    -12.9326E-03     362.463E-03    -155.453E-03    -207.011E-03    -206.380E-03     361.833E-03    -155.453E-03     36.3049E-03     50.5860E+06     26.4894E+06    -46.3024E+06    -46.2716E+06     26.4586E+06     50.5860E+06     551.761E+03         61.9098
            1062     9.46987E-03     11.1920E-03     335.585E-03     333.443E-03        -1.14175     333.417E-03        -1.14172     335.585E-03    -12.2189E-03     350.704E-03    -150.958E-03    -199.746E-03    -199.590E-03     350.548E-03    -150.958E-03     14.5361E-03     38.9926E+06     18.6996E+06    -55.1440E+06    -55.1166E+06     18.6723E+06     38.9926E+06     677.526E+03         59.7158
            1063     8.64893E-03     11.1549E-03     335.898E-03     334.447E-03        -1.14352     334.426E-03        -1.14350     335.898E-03    -11.2543E-03     337.228E-03    -146.371E-03    -190.856E-03    -190.789E-03     337.160E-03    -146.371E-03    -6.33695E-03     27.7863E+06     9.13121E+06    -64.9061E+06    -64.8196E+06     9.04478E+06     27.7863E+06     1.93951E+06         57.6113
            1064     7.82056E-03     11.1424E-03     336.088E-03     335.198E-03        -1.14490     335.181E-03        -1.14488     336.088E-03    -10.0073E-03     322.139E-03    -141.896E-03    -180.243E-03    -179.920E-03     321.816E-03    -141.896E-03    -23.8732E-03     16.5784E+06    -1.98763E+06    -76.1756E+06    -75.9600E+06    -2.20323E+06     16.5784E+06     3.77539E+06         55.6481
            1065     6.98115E-03     11.1388E-03     336.191E-03     335.657E-03        -1.14587     335.662E-03        -1.14586     336.173E-03    -8.67338E-03     307.189E-03    -137.720E-03    -169.469E-03    -168.690E-03     306.410E-03    -137.720E-03    -37.7076E-03     590.430E+03    -28.2468E+06    -88.2741E+06    -87.8879E+06    -28.6331E+06     590.430E+03     4.60771E+06         53.8659
            1066     6.13140E-03     11.1522E-03     336.193E-03     335.936E-03        -1.14652     335.944E-03        -1.14651     336.176E-03    -7.42120E-03     293.334E-03    -133.952E-03    -159.381E-03    -158.159E-03     292.111E-03    -133.952E-03    -46.7203E-03    -20.9629E+06    -74.9405E+06    -101.671E+06    -99.6851E+06    -76.9263E+06    -20.9629E+06     3.95632E+06         52.2924
            1067     5.27283E-03     11.1665E-03     336.165E-03     336.019E-03        -1.14687     336.051E-03        -1.14687     336.126E-03    -6.15199E-03     280.622E-03    -130.651E-03    -149.971E-03    -148.487E-03     279.138E-03    -130.651E-03    -50.4076E-03    -43.9096E+06    -109.274E+06    -131.668E+06    -111.625E+06    -129.317E+06    -43.9096E+06     3.35427E+06         50.9420
            1068     4.40630E-03     11.1833E-03     336.098E-03     335.968E-03        -1.14700     336.003E-03        -1.14700     336.059E-03    -4.66618E-03     269.429E-03    -127.841E-03    -141.588E-03    -140.076E-03     267.917E-03    -127.841E-03    -49.7560E-03    -68.9691E+06    -123.686E+06    -174.739E+06    -123.926E+06    -174.499E+06    -68.9691E+06     3.16723E+06         49.8176
            1069     3.53257E-03     11.1986E-03     336.042E-03     335.950E-03        -1.14713     336.002E-03        -1.14713     335.987E-03    -3.04591E-03     260.128E-03    -125.537E-03    -134.592E-03    -133.282E-03     258.818E-03    -125.537E-03    -45.3453E-03    -95.1244E+06    -134.946E+06    -213.601E+06    -135.055E+06    -213.491E+06    -95.1244E+06     2.64242E+06         48.9147
            1070     2.65353E-03     11.2113E-03     336.028E-03     335.874E-03        -1.14722     335.993E-03        -1.14722     335.908E-03    -1.86982E-03     252.680E-03    -123.755E-03    -128.925E-03    -127.991E-03     251.746E-03    -123.755E-03    -37.4499E-03    -119.610E+06    -143.625E+06    -249.305E+06    -143.680E+06    -249.250E+06    -119.610E+06     2.34957E+06         48.2242
            1071     1.77151E-03     11.2197E-03     335.907E-03     335.801E-03        -1.14722     335.867E-03        -1.14722     335.842E-03    -1.03762E-03     247.266E-03    -122.543E-03    -124.723E-03    -124.214E-03     246.758E-03    -122.543E-03    -26.9357E-03    -140.610E+06    -151.526E+06    -282.675E+06    -151.568E+06    -282.633E+06    -140.610E+06     1.59605E+06         47.7360
            1072     886.019E-06     11.2258E-03     336.805E-03     334.811E-03        -1.14730     336.790E-03        -1.14730     334.826E-03    -851.123E-06     244.322E-03    -121.658E-03    -122.665E-03    -122.482E-03     244.139E-03    -121.658E-03    -15.2339E-03    -152.902E+06    -157.659E+06    -308.576E+06    -156.662E+06    -308.546E+06    -153.930E+06     452.490E+03         47.4386
            1073     14.3211E-03     10.4952E-03     335.990E-03     325.100E-03        -1.12975     325.091E-03        -1.12974     335.990E-03    -6.29363E-03     401.493E-03    -172.628E-03    -228.865E-03    -217.995E-03     390.623E-03    -172.628E-03     161.642E-03     129.091E+06     84.7794E+06    -7.31781E+06    -7.31467E+06     84.7763E+06     129.091E+06    -509.911E+03         72.1833
            1074     13.5137E-03     10.2257E-03     337.378E-03     326.870E-03        -1.13330     326.846E-03        -1.13328     337.378E-03    -11.2505E-03     396.971E-03    -169.916E-03    -227.054E-03    -217.280E-03     387.196E-03    -169.916E-03     150.022E-03     104.151E+06     74.1695E+06    -14.2881E+06    -14.2843E+06     74.1657E+06     104.151E+06    -111.593E+03         70.4851
            1075     12.7089E-03     10.0844E-03     338.624E-03     329.332E-03        -1.13749     329.294E-03        -1.13745     338.624E-03    -14.7991E-03     387.318E-03    -166.807E-03    -220.510E-03    -215.769E-03     382.576E-03    -166.807E-03     106.897E-03     83.3852E+06     58.0470E+06    -21.4462E+06    -21.4370E+06     58.0378E+06     83.3852E+06     723.617E+03         68.5799
            1076     11.9022E-03     9.95250E-03     339.662E-03     332.071E-03        -1.14198     332.027E-03        -1.14193     339.662E-03    -16.0389E-03     382.683E-03    -163.227E-03    -219.456E-03    -216.013E-03     379.239E-03    -163.227E-03     89.5035E-03     71.4941E+06     42.9162E+06    -28.8452E+06    -28.7852E+06     42.8562E+06     71.4941E+06     1.79819E+06         66.5096
            1077     11.1004E-03     9.85695E-03     340.511E-03     334.528E-03        -1.14611     334.486E-03        -1.14607     340.511E-03    -15.7024E-03     375.384E-03    -159.108E-03    -216.276E-03    -214.484E-03     373.592E-03    -159.108E-03     64.2634E-03     61.8814E+06     34.1707E+06    -36.1656E+06    -36.0217E+06     34.0268E+06     61.8814E+06     3.01107E+06         64.3348
            1078     10.2931E-03     9.80244E-03     341.161E-03     336.641E-03        -1.14965     336.605E-03        -1.14962     341.161E-03    -14.5681E-03     366.374E-03    -154.484E-03    -211.890E-03    -210.970E-03     365.454E-03    -154.484E-03     44.9570E-03     49.6622E+06     27.3385E+06    -44.8686E+06    -44.6334E+06     27.1032E+06     49.6622E+06     3.64601E+06         62.1220
            1079     9.48553E-03     9.76010E-03     341.632E-03     338.397E-03        -1.15261     338.370E-03        -1.15259     341.632E-03    -12.6798E-03     354.216E-03    -149.498E-03    -204.719E-03    -204.379E-03     353.877E-03    -149.498E-03     24.6985E-03     37.4343E+06     18.6914E+06    -54.5075E+06    -54.2001E+06     18.3840E+06     37.4343E+06     4.13281E+06         59.9374
            1080     8.67109E-03     9.75255E-03     341.933E-03     339.706E-03        -1.15489     339.686E-03        -1.15487     341.933E-03    -10.8687E-03     338.947E-03    -144.376E-03    -194.572E-03    -194.475E-03     338.850E-03    -144.376E-03     6.00330E-03     26.4372E+06     8.07705E+06    -65.6162E+06    -65.2012E+06     7.66203E+06     26.4372E+06     5.12102E+06         57.8403
            1081     7.84413E-03     9.75817E-03     342.097E-03     340.549E-03        -1.15646     340.535E-03        -1.15645     342.097E-03    -9.11517E-03     322.467E-03    -139.337E-03    -183.130E-03    -182.988E-03     322.325E-03    -139.337E-03    -9.65281E-03     16.1454E+06    -3.01862E+06    -77.0684E+06    -76.5016E+06    -3.58545E+06     16.1454E+06     6.24168E+06         55.8813
            1082     7.00723E-03     9.78402E-03     342.158E-03     341.079E-03        -1.15754     341.069E-03        -1.15753     342.158E-03    -7.48679E-03     306.098E-03    -134.520E-03    -171.577E-03    -171.219E-03     305.740E-03    -134.520E-03    -22.5033E-03     1.10374E+06    -25.8110E+06    -88.7224E+06    -88.0270E+06    -26.5064E+06     1.10374E+06     6.43094E+06         54.1013
            1083     6.15968E-03     9.81346E-03     342.145E-03     341.455E-03        -1.15831     341.448E-03        -1.15830     342.145E-03    -6.14087E-03     290.879E-03    -129.994E-03    -160.885E-03    -160.232E-03     290.226E-03    -129.994E-03    -31.7237E-03    -20.7386E+06    -70.7630E+06    -102.646E+06    -100.632E+06    -72.7767E+06    -20.7386E+06     5.81350E+06         52.5285
            1084     5.30320E-03     9.85071E-03     342.080E-03     341.681E-03        -1.15879     341.677E-03        -1.15878     342.080E-03    -4.83229E-03     276.374E-03    -125.796E-03    -150.578E-03    -149.691E-03     275.487E-03    -125.796E-03    -37.1839E-03    -44.4870E+06    -108.533E+06    -131.340E+06    -113.525E+06    -126.348E+06    -44.4870E+06     5.34336E+06         51.1773
            1085     4.43570E-03     9.88351E-03     341.988E-03     341.792E-03        -1.15907     341.790E-03        -1.15907     341.987E-03    -3.62220E-03     262.552E-03    -121.998E-03    -140.554E-03    -139.567E-03     261.565E-03    -121.998E-03    -38.7564E-03    -68.9001E+06    -125.025E+06    -171.810E+06    -125.651E+06    -171.184E+06    -68.9001E+06     4.72536E+06         50.0509
            1086     3.56059E-03     9.91347E-03     341.933E-03     341.799E-03        -1.15923     341.852E-03        -1.15923     341.878E-03    -2.38667E-03     250.210E-03    -118.695E-03    -131.515E-03    -130.582E-03     249.277E-03    -118.695E-03    -37.0203E-03    -94.8956E+06    -136.936E+06    -210.768E+06    -137.155E+06    -210.549E+06    -94.8956E+06     3.79308E+06         49.1446
            1087     2.67830E-03     9.93718E-03     341.878E-03     341.705E-03        -1.15926     341.823E-03        -1.15926     341.760E-03    -1.33612E-03     239.640E-03    -115.983E-03    -123.657E-03    -122.946E-03     238.929E-03    -115.983E-03    -31.5086E-03    -121.157E+06    -148.359E+06    -246.932E+06    -148.490E+06    -246.801E+06    -121.157E+06     3.45427E+06         48.4503
            1088     1.78843E-03     9.95558E-03     341.753E-03     341.622E-03        -1.15926     341.727E-03        -1.15926     341.647E-03    -611.086E-06     231.573E-03    -113.939E-03    -117.634E-03    -117.236E-03     231.175E-03    -113.939E-03    -22.8377E-03    -143.230E+06    -156.348E+06    -277.861E+06    -156.433E+06    -277.775E+06    -143.230E+06     3.09323E+06         47.9585
            1089     895.897E-06     9.96417E-03     342.279E-03     340.872E-03        -1.15930     342.279E-03        -1.15930     340.872E-03    -613.196E-06     226.303E-03    -112.206E-03    -114.098E-03    -113.957E-03     226.162E-03    -112.206E-03    -12.8870E-03    -157.410E+06    -163.093E+06    -305.417E+06    -162.099E+06    -305.384E+06    -158.437E+06     896.857E+03         47.6586
            1090     14.3199E-03     9.02266E-03     340.923E-03     324.159E-03        -1.13119     324.134E-03        -1.13116     340.923E-03    -11.1670E-03     400.152E-03    -172.765E-03    -227.387E-03    -216.177E-03     388.942E-03    -172.765E-03     162.415E-03     128.147E+06     84.9420E+06    -7.24609E+06    -7.23887E+06     84.9348E+06     128.147E+06    -733.971E+03         72.3567
            1091     13.5118E-03     8.75515E-03     342.554E-03     327.944E-03        -1.13730     327.892E-03        -1.13725     342.554E-03    -17.0721E-03     396.223E-03    -170.184E-03    -226.039E-03    -215.298E-03     385.481E-03    -170.184E-03     157.231E-03     102.663E+06     73.3155E+06    -14.4188E+06    -14.4129E+06     73.3096E+06     102.663E+06    -423.802E+03         70.6534
            1092     12.7023E-03     8.61760E-03     343.962E-03     332.033E-03        -1.14405     331.967E-03        -1.14398     343.962E-03    -19.5856E-03     388.031E-03    -167.176E-03    -220.855E-03    -215.336E-03     382.512E-03    -167.176E-03     115.283E-03     81.1369E+06     55.8366E+06    -21.5878E+06    -21.5671E+06     55.8159E+06     81.1369E+06     802.436E+03         68.7472
            1093     11.9016E-03     8.47986E-03     345.086E-03     335.727E-03        -1.15030     335.663E-03        -1.15023     345.086E-03    -19.3476E-03     383.140E-03    -163.666E-03    -219.474E-03    -215.223E-03     378.889E-03    -163.666E-03     99.6367E-03     69.9804E+06     40.8445E+06    -28.0194E+06    -27.9089E+06     40.7340E+06     69.9804E+06     2.45551E+06         66.6809
            1094     11.0940E-03     8.40614E-03     345.964E-03     339.027E-03        -1.15577     338.975E-03        -1.15572     345.964E-03    -17.4646E-03     375.631E-03    -159.636E-03    -215.994E-03    -213.524E-03     373.161E-03    -159.636E-03     75.3560E-03     60.8126E+06     32.1835E+06    -35.4391E+06    -35.1018E+06     31.8462E+06     60.8126E+06     4.55788E+06         64.5140
            1095     10.2893E-03     8.34754E-03     346.593E-03     341.627E-03        -1.16022     341.592E-03        -1.16019     346.593E-03    -14.4852E-03     365.325E-03    -155.161E-03    -210.164E-03    -208.695E-03     363.857E-03    -155.161E-03     57.0167E-03     49.9035E+06     26.7719E+06    -43.6521E+06    -42.9575E+06     26.0773E+06     49.9035E+06     6.72905E+06         62.3125
            1096     9.47967E-03     8.33373E-03     347.015E-03     343.413E-03        -1.16346     343.391E-03        -1.16344     347.015E-03    -11.3305E-03     351.688E-03    -150.460E-03    -201.228E-03    -200.340E-03     350.801E-03    -150.460E-03     42.2931E-03     38.2193E+06     18.4974E+06    -53.6644E+06    -52.5901E+06     17.4231E+06     38.2193E+06     8.42593E+06         60.1416
            1097     8.65967E-03     8.34350E-03     347.275E-03     344.580E-03        -1.16570     344.567E-03        -1.16569     347.275E-03    -8.68505E-03     337.261E-03    -145.696E-03    -191.565E-03    -190.994E-03     336.690E-03    -145.696E-03     30.9620E-03     27.5972E+06     8.93353E+06    -64.4223E+06    -63.1806E+06     7.69187E+06     27.5972E+06     9.17309E+06         58.0628
            1098     7.83468E-03     8.37738E-03     347.413E-03     345.387E-03        -1.16728     345.379E-03        -1.16727     347.413E-03    -6.64847E-03     322.692E-03    -140.928E-03    -181.764E-03    -181.369E-03     322.297E-03    -140.928E-03     20.3991E-03     18.4745E+06    -1.54030E+06    -75.6084E+06    -74.4958E+06    -2.65291E+06     18.4745E+06     8.90109E+06         56.1302
            1099     6.99907E-03     8.42384E-03     347.458E-03     345.982E-03        -1.16841     345.977E-03        -1.16840     347.458E-03    -5.14719E-03     308.058E-03    -136.184E-03    -171.874E-03    -171.566E-03     307.750E-03    -136.184E-03     10.7414E-03     4.21442E+06    -23.4401E+06    -87.6767E+06    -86.5038E+06     -24.613E+06     4.21442E+06     8.40713E+06         54.3838
            1100     6.15467E-03     8.47789E-03     347.439E-03     346.346E-03        -1.16913     346.343E-03        -1.16913     347.439E-03    -3.91289E-03     293.679E-03    -131.512E-03    -162.167E-03    -161.892E-03     293.404E-03    -131.512E-03     2.28554E-03    -18.4166E+06    -68.1903E+06    -102.751E+06    -99.3589E+06    -71.5826E+06    -18.4166E+06     7.70404E+06         52.8484
            1101     5.30022E-03     8.53328E-03     347.380E-03     346.601E-03        -1.16962     346.599E-03        -1.16962     347.380E-03    -2.83602E-03     279.640E-03    -126.953E-03    -152.687E-03    -152.405E-03     279.358E-03    -126.953E-03    -5.05721E-03    -42.5406E+06    -106.698E+06    -129.777E+06    -112.245E+06    -124.230E+06    -42.5406E+06     6.84466E+06         51.5346
            1102     4.43848E-03     8.58796E-03     347.294E-03     346.810E-03        -1.16998     346.809E-03        -1.16998     347.294E-03    -1.99850E-03     265.431E-03    -122.591E-03    -142.839E-03    -142.538E-03     265.130E-03    -122.591E-03    -10.2684E-03    -65.7995E+06    -123.520E+06    -169.441E+06    -124.554E+06    -168.407E+06    -65.7995E+06     6.23411E+06         50.4425
            1103     3.56555E-03     8.63462E-03     347.199E-03     346.885E-03        -1.17014     346.884E-03        -1.17014     347.199E-03    -1.05045E-03     251.568E-03    -118.609E-03    -132.958E-03    -132.662E-03     251.271E-03    -118.609E-03    -13.2028E-03    -91.4186E+06    -137.274E+06    -208.925E+06    -137.828E+06    -208.372E+06    -91.4186E+06     5.97968E+06         49.5651
            1104     2.68296E-03     8.67561E-03     347.167E-03     346.908E-03        -1.17028     346.972E-03        -1.17028     347.103E-03    -578.723E-06     239.375E-03    -115.183E-03    -124.192E-03    -123.957E-03     239.140E-03    -115.183E-03    -13.5573E-03    -117.953E+06    -149.917E+06    -243.819E+06    -150.216E+06     -243.52E+06    -117.953E+06     4.65739E+06         48.8932
            1105     1.79439E-03     8.70342E-03     347.133E-03     346.917E-03        -1.17045     347.070E-03        -1.17045     346.979E-03    -327.620E-06     229.399E-03    -112.475E-03    -116.924E-03    -116.784E-03     229.259E-03    -112.475E-03    -10.8557E-03    -141.156E+06    -159.025E+06    -273.771E+06    -159.093E+06    -273.703E+06    -141.156E+06     2.42742E+06         48.4172
            1106     898.595E-06     8.72242E-03     347.479E-03     346.261E-03        -1.17044     347.479E-03        -1.17044     346.261E-03    -493.852E-06     222.610E-03    -110.468E-03    -112.142E-03    -112.088E-03     222.556E-03    -110.468E-03    -6.37291E-03    -157.708E+06    -165.917E+06    -301.630E+06    -164.755E+06    -301.611E+06    -158.889E+06     1.27808E+06         48.1268
            1107     14.3175E-03     7.56261E-03     345.441E-03     324.199E-03        -1.13228     324.132E-03        -1.13221     345.441E-03    -18.8280E-03     397.485E-03    -173.229E-03    -224.256E-03    -212.284E-03     385.512E-03    -173.229E-03     166.046E-03     126.810E+06     84.2143E+06    -8.27222E+06    -8.26060E+06     84.2027E+06     126.810E+06    -911.355E+03         72.5087
            1108     13.4977E-03     7.28882E-03     347.180E-03     329.985E-03        -1.14216     329.883E-03        -1.14206     347.180E-03    -24.2151E-03     394.492E-03    -170.931E-03    -223.562E-03    -211.386E-03     382.317E-03    -170.931E-03     167.493E-03     99.8262E+06     71.3177E+06    -16.6226E+06    -16.6135E+06     71.3087E+06     99.8262E+06    -119.861E+03         70.8012
            1109     12.6933E-03     7.14158E-03     348.613E-03     335.671E-03        -1.15167     335.566E-03        -1.15156     348.613E-03    -24.8042E-03     386.262E-03    -168.250E-03    -218.012E-03    -211.281E-03     379.531E-03    -168.250E-03     126.636E-03     78.3889E+06     53.7986E+06    -22.6901E+06    -22.6645E+06     53.7730E+06     78.3889E+06     1.09053E+06         68.8950
            1110     11.8795E-03     7.02355E-03     349.672E-03     340.731E-03        -1.15998     340.650E-03        -1.15990     349.672E-03    -21.7053E-03     381.667E-03    -165.085E-03    -216.581E-03    -211.368E-03     376.453E-03    -165.085E-03     110.101E-03     66.0472E+06     37.8122E+06    -29.4866E+06    -29.3381E+06     37.6637E+06     66.0472E+06     2.80314E+06         66.8342
            1111     11.0745E-03     6.93800E-03     350.421E-03     344.248E-03        -1.16631     344.203E-03        -1.16627     350.421E-03    -15.9652E-03     370.651E-03    -161.574E-03    -209.076E-03    -205.870E-03     367.444E-03    -161.574E-03     85.5184E-03     57.9512E+06     28.9816E+06    -36.7275E+06    -36.2892E+06     28.5433E+06     57.9512E+06     5.21517E+06         64.6761
            1112     10.2639E-03     6.91086E-03     350.930E-03     346.267E-03        -1.17043     346.246E-03        -1.17041     350.930E-03    -10.6635E-03     356.094E-03    -158.045E-03    -198.050E-03    -195.540E-03     353.585E-03    -158.045E-03     73.4142E-03     48.8318E+06     23.4321E+06    -44.6666E+06    -43.6544E+06     22.4199E+06     48.8318E+06     8.07566E+06         62.4824
            1113     9.43987E-03     6.91248E-03     351.287E-03     347.524E-03        -1.17319     347.514E-03        -1.17318     351.287E-03    -6.61936E-03     343.163E-03    -154.676E-03    -188.487E-03    -186.126E-03     340.802E-03    -154.676E-03     68.5760E-03     39.3094E+06     17.4325E+06    -53.0915E+06    -51.4517E+06     15.7927E+06     39.3094E+06     10.5935E+06         60.3244
            1114     8.61358E-03     6.94383E-03     351.540E-03     348.422E-03        -1.17514     348.418E-03        -1.17513     351.540E-03    -3.95449E-03     332.654E-03    -151.369E-03    -181.285E-03    -179.063E-03     330.431E-03    -151.369E-03     64.3608E-03     31.1895E+06     10.5361E+06    -62.0257E+06    -60.1950E+06     8.70537E+06     31.1895E+06     11.3745E+06         58.2745
            1115     7.77869E-03     6.99461E-03     351.708E-03     349.143E-03        -1.17657     349.141E-03        -1.17656     351.708E-03    -2.37936E-03     322.785E-03    -147.993E-03    -174.792E-03    -172.708E-03     320.701E-03    -147.993E-03     60.3252E-03     24.1675E+06     2.01112E+06    -71.8809E+06    -70.3474E+06     477.536E+03     24.1675E+06     10.4787E+06         56.3901
            1116     6.94170E-03     7.06035E-03     351.810E-03     349.719E-03        -1.17762     349.718E-03        -1.17762     351.810E-03    -1.41594E-03     313.437E-03    -144.464E-03    -168.973E-03    -167.011E-03     311.475E-03    -144.464E-03     56.3720E-03     10.4557E+06    -23.4273E+06    -83.9104E+06    -82.1620E+06    -25.1757E+06     10.4557E+06     9.71615E+06         54.7087
            1117     6.09870E-03     7.13295E-03     351.859E-03     350.228E-03        -1.17844     350.227E-03        -1.17844     351.859E-03    -849.616E-06     303.875E-03    -140.732E-03    -163.143E-03    -161.425E-03     302.157E-03    -140.732E-03     50.3734E-03    -11.3644E+06    -67.2457E+06    -100.510E+06    -94.7480E+06    -73.0079E+06    -11.3644E+06     9.83665E+06         53.2488
            1118     5.25032E-03     7.20682E-03     351.864E-03     350.639E-03        -1.17905     350.639E-03        -1.17905     351.864E-03    -429.338E-06     293.369E-03    -136.839E-03    -156.530E-03    -155.169E-03     292.008E-03    -136.839E-03     42.3389E-03    -34.5766E+06    -101.961E+06    -128.704E+06    -107.990E+06    -122.675E+06    -34.5766E+06     8.43475E+06         52.0133
            1119     4.39363E-03     7.27884E-03     351.842E-03     350.915E-03        -1.17945     350.914E-03        -1.17945     351.842E-03    -40.1281E-06     282.064E-03    -132.894E-03    -149.170E-03    -148.208E-03     281.102E-03    -132.894E-03     33.2897E-03    -58.2646E+06    -120.485E+06    -169.490E+06    -121.575E+06    -168.400E+06    -58.2646E+06     6.66154E+06         50.9951
            1120     3.52970E-03     7.34672E-03     351.806E-03     351.191E-03        -1.17980     351.191E-03        -1.17980     351.806E-03     434.833E-06     270.352E-03    -129.072E-03    -141.280E-03    -140.657E-03     269.729E-03    -129.072E-03     24.5607E-03    -82.0054E+06    -133.126E+06    -206.972E+06    -133.662E+06    -206.436E+06    -82.0054E+06     5.68100E+06         50.1824
            1121     2.65816E-03     7.40042E-03     351.758E-03     351.421E-03        -1.18009     351.421E-03        -1.18009     351.758E-03     477.415E-06     259.152E-03    -125.597E-03    -133.555E-03    -133.193E-03     258.790E-03    -125.597E-03     16.3541E-03    -107.402E+06    -143.995E+06    -237.874E+06    -144.216E+06    -237.653E+06    -107.402E+06     3.42897E+06         49.5625
            1122     1.77730E-03     7.44561E-03     351.756E-03     351.561E-03        -1.18033     351.638E-03        -1.18033     351.679E-03     451.544E-06     249.526E-03    -122.729E-03    -126.797E-03    -126.634E-03     249.363E-03    -122.729E-03     9.64948E-03    -134.197E+06    -153.532E+06    -271.273E+06    -153.565E+06    -271.240E+06    -134.197E+06     366.843E+03         49.1241
            1123     890.571E-06     7.47089E-03     351.958E-03     351.207E-03        -1.18044     351.858E-03        -1.18044     351.307E-03     240.281E-06     242.668E-03    -120.558E-03    -122.110E-03    -121.647E-03     242.620E-03    -120.973E-03     4.69225E-03    -152.568E+06    -159.649E+06    -301.648E+06    -158.490E+06    -301.626E+06    -153.749E+06     -373.21E+03         48.8566
            1124     14.2970E-03     6.09485E-03     349.165E-03     324.463E-03        -1.13385     324.275E-03        -1.13366     349.165E-03    -31.8297E-03     393.582E-03    -174.346E-03    -219.236E-03    -204.688E-03     379.034E-03    -174.346E-03     180.434E-03     126.227E+06     84.4647E+06    -8.63587E+06    -8.61063E+06     84.4394E+06     126.227E+06     510.973E+03         72.6715
            1125     13.4879E-03     5.82521E-03     350.853E-03     334.189E-03        -1.14949     333.985E-03        -1.14929     350.853E-03    -34.2240E-03     397.196E-03    -172.473E-03    -224.723E-03    -209.437E-03     381.911E-03    -172.473E-03     187.660E-03     98.3884E+06     70.9002E+06    -17.3611E+06    -17.3380E+06     70.8770E+06     98.3884E+06     1.11983E+06         70.9697
            1126     12.6624E-03     5.68498E-03     352.038E-03     342.100E-03        -1.16260     341.959E-03        -1.16246     352.038E-03    -28.1327E-03     387.901E-03    -170.028E-03    -217.873E-03    -210.292E-03     380.319E-03    -170.028E-03     133.859E-03     74.6132E+06     50.9821E+06    -25.3598E+06    -25.2856E+06     50.9078E+06     74.6132E+06     1.94578E+06         69.0806
            1127     11.8567E-03     5.54813E-03     352.773E-03     346.414E-03        -1.17136     346.356E-03        -1.17130     352.773E-03    -17.0961E-03     373.373E-03    -167.392E-03    -205.981E-03    -200.841E-03     368.233E-03    -167.392E-03     107.900E-03     61.8222E+06     34.7566E+06    -32.4973E+06    -32.3084E+06     34.5677E+06     61.8222E+06     3.24323E+06         67.0334
            1128     11.0398E-03     5.49921E-03     353.287E-03     348.048E-03        -1.17591     348.030E-03        -1.17589     353.287E-03    -8.04674E-03     354.295E-03    -165.207E-03    -189.088E-03    -185.147E-03     350.354E-03    -165.207E-03     91.7946E-03     54.1059E+06     25.5105E+06    -39.6106E+06    -39.2148E+06     25.1147E+06     54.1059E+06     4.96785E+06         64.8738
            1129     10.2039E-03     5.49079E-03     353.708E-03     348.888E-03        -1.17858     348.882E-03        -1.17858     353.708E-03    -2.46743E-03     340.887E-03    -162.397E-03    -178.490E-03    -173.069E-03     336.731E-03    -163.662E-03     91.4765E-03     46.3411E+06     19.5655E+06    -46.3770E+06    -45.5848E+06     18.7734E+06     46.3411E+06     6.96526E+06         62.6760
            1130     9.36562E-03     5.51197E-03     354.092E-03     349.563E-03        -1.18045     349.560E-03        -1.18045     354.092E-03     809.228E-06     332.894E-03    -159.040E-03    -173.853E-03    -165.678E-03     328.249E-03    -162.570E-03     95.1160E-03     40.0269E+06     15.5944E+06    -52.6408E+06    -51.4192E+06     14.3728E+06     40.0269E+06     8.84642E+06         60.5326
            1131     8.52040E-03     5.55104E-03     354.447E-03     350.310E-03        -1.18201     350.308E-03        -1.18201     354.447E-03     2.27605E-03     328.037E-03    -156.787E-03    -171.250E-03    -161.416E-03     323.102E-03    -161.686E-03     96.9430E-03     36.7027E+06     11.7106E+06    -59.0944E+06    -57.7586E+06     10.3749E+06     36.7027E+06     9.43475E+06         58.5246
            1132     7.67839E-03     5.61626E-03     354.760E-03     351.153E-03        -1.18341     351.151E-03        -1.18341     354.760E-03     2.73703E-03     325.393E-03    -156.155E-03    -169.238E-03    -159.429E-03     320.207E-03    -160.778E-03     98.6637E-03     32.6755E+06     3.42830E+06    -67.3036E+06    -65.9475E+06     2.07223E+06     32.6755E+06     9.55375E+06         56.7100
            1133     6.83225E-03     5.68858E-03     355.025E-03     351.986E-03        -1.18462     351.984E-03        -1.18462     355.025E-03     2.83053E-03     324.017E-03    -156.277E-03    -167.740E-03    -159.133E-03     318.774E-03    -159.641E-03     99.0537E-03     20.7111E+06    -26.8885E+06    -78.2975E+06    -76.2046E+06    -28.9815E+06     20.7111E+06     9.48914E+06         55.1226
            1134     5.98924E-03     5.77042E-03     355.241E-03     352.752E-03        -1.18565     352.751E-03        -1.18565     355.241E-03     2.50962E-03     322.278E-03    -156.096E-03    -166.182E-03    -159.258E-03     317.382E-03    -158.124E-03     95.5825E-03     2.01567E+06    -68.4635E+06    -94.1088E+06    -87.4273E+06    -75.1450E+06     2.01567E+06     8.68818E+06         53.7722
            1135     5.14482E-03     5.85536E-03     355.406E-03     353.493E-03        -1.18658     353.492E-03        -1.18658     355.406E-03     2.26087E-03     319.055E-03    -155.494E-03    -163.561E-03    -158.613E-03     314.813E-03    -156.200E-03     88.3964E-03    -19.5975E+06    -94.3889E+06    -125.681E+06    -98.4414E+06    -121.628E+06    -19.5975E+06     6.59568E+06         52.6512
            1136     4.29863E-03     5.94068E-03     355.521E-03     354.121E-03        -1.18735     354.121E-03        -1.18735     355.521E-03     1.98074E-03     314.519E-03    -153.887E-03    -160.631E-03    -157.241E-03     311.182E-03    -153.941E-03     77.5493E-03    -44.0915E+06    -108.575E+06    -168.814E+06    -109.126E+06    -168.263E+06    -44.0915E+06     3.21022E+06         51.7428
            1137     3.44888E-03     6.01860E-03     355.589E-03     354.700E-03        -1.18801     354.700E-03        -1.18801     355.589E-03     1.77967E-03     308.701E-03    -151.468E-03    -157.233E-03    -154.903E-03     306.371E-03    -151.468E-03     63.9265E-03    -70.2648E+06    -118.704E+06    -205.423E+06    -118.858E+06    -205.269E+06    -70.2648E+06     538.266E+03         51.0272
            1138     2.59295E-03     6.08899E-03     355.597E-03     355.211E-03        -1.18854     355.211E-03        -1.18854     355.597E-03     1.47828E-03     302.071E-03    -149.036E-03    -153.036E-03    -151.639E-03     300.674E-03    -149.036E-03     48.7096E-03    -96.9917E+06    -127.264E+06    -236.808E+06    -127.312E+06    -236.760E+06    -96.9917E+06    -407.376E+03         50.4865
            1139     1.73310E-03     6.14137E-03     355.567E-03     355.447E-03        -1.18877     355.479E-03        -1.18877     355.535E-03     1.17372E-03     296.066E-03    -146.931E-03    -149.135E-03    -148.465E-03     295.396E-03    -146.931E-03     32.6667E-03    -121.675E+06    -136.156E+06    -272.224E+06    -136.205E+06    -272.175E+06    -121.675E+06     47.8807E+03         50.1061
            1140     868.487E-06     6.17918E-03     355.792E-03     355.093E-03        -1.18881     355.692E-03        -1.18881     355.193E-03     1.17774E-03     291.396E-03    -144.934E-03    -146.463E-03    -145.838E-03     291.187E-03    -145.349E-03     17.2249E-03    -138.900E+06    -144.461E+06    -302.720E+06    -143.436E+06    -302.676E+06    -139.970E+06     473.371E+03         49.8743
            1141     14.2740E-03     4.64825E-03     351.583E-03     329.715E-03        -1.14156     329.235E-03        -1.14108     351.583E-03    -51.8417E-03     399.989E-03    -176.365E-03    -223.624E-03    -204.073E-03     380.438E-03    -176.365E-03     213.346E-03     126.174E+06     83.8830E+06    -9.75522E+06    -9.68955E+06     83.8173E+06     126.174E+06     2.36566E+06         72.9358
            1142     13.4323E-03     4.35648E-03     352.742E-03     342.385E-03        -1.16378     342.091E-03        -1.16349     352.742E-03    -39.3405E-03     409.451E-03    -174.405E-03    -235.046E-03    -220.056E-03     394.461E-03    -174.405E-03     183.088E-03     95.4781E+06     67.9493E+06    -18.6708E+06    -18.5919E+06     67.8704E+06     95.4781E+06     2.38687E+06         71.2854
            1143     12.6456E-03     4.18834E-03     353.338E-03     347.364E-03        -1.17615     347.276E-03        -1.17606     353.338E-03    -18.2890E-03     380.614E-03    -172.004E-03    -208.610E-03    -203.038E-03     375.042E-03    -172.004E-03     110.948E-03     71.5834E+06     49.5769E+06    -25.6144E+06    -25.4048E+06     49.3673E+06     71.5834E+06     3.70025E+06         69.4396
            1144     11.8273E-03     4.11832E-03     353.768E-03     347.590E-03        -1.17993     347.573E-03        -1.17992     353.768E-03    -3.57057E-03     351.562E-03    -166.258E-03    -185.304E-03    -176.359E-03     346.983E-03    -170.625E-03     98.1996E-03     58.3979E+06     33.7651E+06    -32.9373E+06    -32.6326E+06     33.4604E+06     58.3979E+06     4.44637E+06         67.3931
            1145     10.9735E-03     4.09060E-03     354.257E-03     347.477E-03        -1.18149     347.468E-03        -1.18148     354.257E-03     3.59231E-03     333.359E-03    -158.766E-03    -174.593E-03    -158.068E-03     328.722E-03    -170.653E-03     95.3382E-03     51.9642E+06     24.2063E+06    -39.8364E+06    -39.4829E+06     23.8528E+06     51.9642E+06     4.66810E+06         65.2134
            1146     10.1193E-03     4.10028E-03     354.821E-03     347.828E-03        -1.18272     347.817E-03        -1.18271     354.821E-03     6.78824E-03     326.026E-03    -153.926E-03    -172.100E-03    -149.058E-03     320.737E-03    -171.679E-03     100.031E-03     45.9358E+06     18.4672E+06    -46.2764E+06    -45.9352E+06      18.126E+06     45.9358E+06     4.31194E+06         63.0085
            1147     9.25760E-03     4.12428E-03     355.424E-03     348.725E-03        -1.18416     348.715E-03        -1.18415     355.424E-03     7.66016E-03     324.493E-03    -151.160E-03    -173.332E-03    -145.078E-03     318.410E-03    -173.332E-03     106.809E-03     41.3557E+06     14.5702E+06    -51.8760E+06    -51.4888E+06     14.1830E+06     41.3557E+06     3.53019E+06         60.8870
            1148     8.39926E-03     4.17204E-03     356.024E-03     349.963E-03        -1.18580     349.953E-03        -1.18579     356.024E-03     7.38761E-03     326.794E-03    -151.430E-03    -175.364E-03    -144.874E-03     320.238E-03    -175.364E-03     111.188E-03     41.3608E+06     11.8986E+06    -56.8569E+06    -56.4418E+06     11.4835E+06     41.3608E+06     3.55395E+06         58.9345
            1149     7.53925E-03     4.23166E-03     356.591E-03     351.320E-03        -1.18747     351.312E-03        -1.18747     356.591E-03     6.64202E-03     332.549E-03    -155.069E-03    -177.480E-03    -148.115E-03     325.595E-03    -177.480E-03     115.619E-03     38.6485E+06     346.414E+03    -62.8875E+06    -62.3671E+06    -174.039E+03     38.6485E+06     4.07462E+06         57.2088
            1150     6.69009E-03     4.30225E-03     357.104E-03     352.749E-03        -1.18918     352.743E-03        -1.18918     357.104E-03     5.79002E-03     339.805E-03    -160.404E-03    -179.401E-03    -153.343E-03     332.744E-03    -179.401E-03     118.004E-03     25.4668E+06    -31.0222E+06    -70.0119E+06    -68.7726E+06    -32.2615E+06     25.4668E+06     3.56187E+06         55.7372
            1151     5.84362E-03     4.37974E-03     357.546E-03     354.104E-03        -1.19077     354.100E-03        -1.19076     357.546E-03     4.82281E-03     346.829E-03    -165.870E-03    -180.959E-03    -159.156E-03     340.115E-03    -180.959E-03     116.519E-03     5.45890E+06    -63.8431E+06    -87.1601E+06    -74.6738E+06    -76.3294E+06     5.45890E+06     652.415E+03         54.5190
            1152     5.00363E-03     4.46380E-03     357.913E-03     355.291E-03        -1.19215     355.288E-03        -1.19215     357.913E-03     4.21194E-03     353.257E-03    -171.202E-03    -182.055E-03    -165.209E-03     347.264E-03    -182.055E-03     111.364E-03    -16.8355E+06    -79.5077E+06    -125.534E+06    -80.5744E+06    -124.468E+06    -16.8355E+06    -2.07281E+06         53.5356
            1153     4.16764E-03     4.54782E-03     358.207E-03     356.335E-03        -1.19337     356.333E-03        -1.19336     358.207E-03     3.47589E-03     358.266E-03    -175.321E-03    -182.945E-03    -170.728E-03     353.351E-03    -182.623E-03     101.729E-03    -40.1126E+06    -86.9694E+06    -170.537E+06    -87.2382E+06    -170.268E+06    -40.1126E+06    -3.03052E+06         52.7598
            1154     3.33411E-03     4.62905E-03     358.421E-03     357.260E-03        -1.19440     357.259E-03        -1.19440     358.421E-03     2.80920E-03     361.382E-03    -177.975E-03    -183.407E-03    -175.125E-03     357.808E-03    -182.683E-03     87.0994E-03    -64.7630E+06    -94.9810E+06    -208.999E+06    -95.0805E+06    -208.900E+06    -64.7630E+06    -3.31866E+06         52.1628
            1155     2.50265E-03     4.70206E-03     358.553E-03     357.937E-03        -1.19511     357.936E-03        -1.19511     358.553E-03     2.30829E-03     362.784E-03    -179.710E-03    -183.073E-03    -178.157E-03     360.550E-03    -182.394E-03     68.7861E-03    -87.3386E+06    -102.718E+06    -245.329E+06    -102.787E+06    -245.261E+06    -87.3386E+06    -1.33135E+06         51.7194
            1156     1.66884E-03     4.75963E-03     358.634E-03     358.312E-03        -1.19553     358.315E-03        -1.19553     358.631E-03     1.68242E-03     362.972E-03    -180.538E-03    -182.434E-03    -179.848E-03     361.865E-03    -182.017E-03     47.7273E-03    -102.416E+06    -109.191E+06    -276.200E+06    -109.270E+06    -276.121E+06    -102.416E+06     2.53482E+06         51.4111
            1157     834.644E-06     4.79907E-03     359.081E-03     358.162E-03        -1.19585     358.732E-03        -1.19585     358.511E-03     833.829E-06     362.990E-03    -180.936E-03    -182.054E-03    -181.139E-03     362.621E-03    -181.481E-03     26.4920E-03    -111.851E+06    -115.391E+06    -298.319E+06    -114.406E+06    -298.234E+06    -112.921E+06     3.80105E+06         51.2246
            1158     14.1983E-03     3.14685E-03     351.548E-03     338.337E-03        -1.16486     337.334E-03        -1.16385     351.548E-03    -70.1909E-03     425.587E-03    -177.869E-03    -247.717E-03    -228.705E-03     406.574E-03    -177.869E-03     209.691E-03     130.153E+06     82.1845E+06    -9.77244E+06    -9.64765E+06     82.0597E+06     130.153E+06     3.27597E+06         73.5206
            1159     13.4538E-03     2.82326E-03     351.858E-03     345.116E-03        -1.18358     344.919E-03        -1.18338     351.858E-03    -26.2649E-03     400.661E-03    -172.544E-03    -228.117E-03    -218.099E-03     393.385E-03    -175.286E-03     118.273E-03     99.2000E+06     67.6473E+06    -16.3124E+06    -16.0535E+06     67.3884E+06     99.2000E+06     4.22057E+06         71.9793
            1160     12.6322E-03     2.76169E-03     352.215E-03     342.935E-03        -1.18375     342.916E-03        -1.18374     352.215E-03    -376.226E-06     349.860E-03    -163.872E-03    -185.988E-03    -173.030E-03     346.940E-03    -173.910E-03     77.2853E-03     71.0416E+06     50.0913E+06    -23.8205E+06    -23.4222E+06     49.6930E+06     71.0416E+06     5.30911E+06         70.1485
            1161     11.7640E-03     2.72023E-03     352.876E-03     341.725E-03        -1.18205     341.708E-03        -1.18203     352.876E-03     8.81887E-03     326.933E-03    -151.772E-03    -175.161E-03    -148.511E-03     323.243E-03    -174.732E-03     83.3649E-03     56.5475E+06     34.5658E+06    -30.1983E+06    -29.8724E+06     34.2398E+06     56.5475E+06     4.47103E+06         68.0695
            1162     10.9009E-03     2.71417E-03     353.734E-03     342.156E-03        -1.18185     342.133E-03        -1.18183     353.734E-03     11.7479E-03     317.314E-03    -140.253E-03    -177.061E-03    -136.349E-03     313.411E-03    -177.061E-03     83.6768E-03     50.6556E+06     25.6199E+06    -35.4914E+06    -35.2946E+06     25.4232E+06     50.6556E+06     2.93324E+06         65.8667
            1163     10.0226E-03     2.72707E-03     354.687E-03     343.640E-03        -1.18284     343.617E-03        -1.18282     354.687E-03     11.7457E-03     315.777E-03    -135.350E-03    -180.426E-03    -130.904E-03     311.330E-03    -180.426E-03     88.5384E-03     43.2454E+06     20.6973E+06    -41.3141E+06    -41.2284E+06     20.6116E+06     43.2454E+06     997.939E+03         63.6633
            1164     9.14707E-03     2.75128E-03     355.651E-03     345.740E-03        -1.18469     345.721E-03        -1.18467     355.651E-03     10.6424E-03     320.571E-03    -136.025E-03    -184.546E-03    -131.076E-03     315.622E-03    -184.546E-03     93.7304E-03     33.8856E+06     16.4506E+06    -47.1921E+06    -47.0739E+06     16.3325E+06     33.8856E+06    -1.55083E+06         61.5746
            1165     8.27186E-03     2.78988E-03     356.575E-03     348.066E-03        -1.18695     348.052E-03        -1.18694     356.575E-03     9.29056E-03     329.923E-03    -140.771E-03    -189.152E-03    -135.663E-03     324.815E-03    -189.152E-03     96.3266E-03     28.1606E+06     9.94519E+06    -52.9371E+06    -52.6262E+06     11.4770E+06     26.3180E+06    -3.15966E+06         59.6891
            1166     7.40851E-03     2.83626E-03     357.427E-03     350.346E-03        -1.18931     350.336E-03        -1.18930     357.427E-03     7.91976E-03     342.215E-03    -148.217E-03    -193.998E-03    -142.944E-03     336.941E-03    -193.998E-03     99.7762E-03     20.2171E+06    -5.52877E+06    -57.6721E+06    -56.8442E+06    -1.66345E+06     15.5239E+06    -4.43524E+06         58.0611
            1167     6.54879E-03     2.89023E-03     358.193E-03     352.489E-03        -1.19162     352.482E-03        -1.19161     358.193E-03     6.64436E-03     356.496E-03    -157.598E-03    -198.898E-03    -152.322E-03     351.220E-03    -198.898E-03     101.993E-03     2.84007E+06    -31.1221E+06    -64.3412E+06    -59.1420E+06    -33.4706E+06    -10.5195E+03    -7.55765E+06         56.7105
            1168     5.70198E-03     2.95248E-03     358.863E-03     354.447E-03        -1.19379     354.442E-03        -1.19379     358.863E-03     5.46512E-03     372.001E-03    -168.336E-03    -203.665E-03    -163.292E-03     366.957E-03    -203.665E-03     102.086E-03    -15.9992E+06    -52.5362E+06    -90.2347E+06    -60.8311E+06    -81.9398E+06    -15.9992E+06    -9.34406E+06         55.6279
            1169     4.86399E-03     3.01909E-03     359.427E-03     356.182E-03        -1.19574     356.178E-03        -1.19574     359.427E-03     4.59551E-03     387.646E-03    -179.562E-03    -208.084E-03    -175.011E-03     383.095E-03    -208.084E-03     99.3065E-03    -32.8113E+06    -63.2143E+06    -135.639E+06    -64.3121E+06    -134.541E+06    -32.8113E+06    -7.84672E+06         54.7851
            1170     4.03683E-03     3.08736E-03     359.890E-03     357.599E-03        -1.19734     357.597E-03        -1.19734     359.890E-03     3.69631E-03     402.431E-03    -190.439E-03    -211.993E-03    -186.632E-03     398.625E-03    -211.993E-03     92.8349E-03    -48.3205E+06    -68.9938E+06    -180.103E+06    -69.3103E+06    -179.787E+06    -48.3205E+06    -5.21438E+06         54.1455
            1171     3.21882E-03     3.15617E-03     360.269E-03     358.692E-03        -1.19861     358.691E-03        -1.19861     360.269E-03     2.98883E-03     415.766E-03    -200.501E-03    -215.265E-03    -197.631E-03     412.896E-03    -215.265E-03     82.1877E-03    -60.9775E+06    -74.9064E+06    -219.428E+06    -75.0292E+06    -219.306E+06    -60.9775E+06    -1.53588E+06         53.6715
            1172     2.40724E-03     3.21775E-03     360.583E-03     359.569E-03        -1.19964     359.568E-03        -1.19964     360.583E-03     2.40444E-03     426.852E-03    -209.058E-03    -217.794E-03    -207.198E-03     424.992E-03    -217.794E-03     66.8203E-03    -71.6890E+06    -81.7101E+06    -255.528E+06    -81.8182E+06    -255.420E+06    -71.6890E+06     2.47715E+06         53.3310
            1173     1.60261E-03     3.27060E-03     360.832E-03     360.302E-03        -1.20047     360.302E-03        -1.20047     360.832E-03     1.67626E-03     434.899E-03    -215.348E-03    -219.551E-03    -214.411E-03     433.962E-03    -219.551E-03     47.3014E-03    -80.8235E+06    -87.0172E+06    -277.260E+06    -87.1311E+06    -277.146E+06    -80.8235E+06     4.62279E+06         53.1001
            1174     799.705E-06     3.30391E-03     361.181E-03     360.662E-03        -1.20100     360.661E-03        -1.20100     361.181E-03     1.19841E-03     439.925E-03    -219.357E-03    -220.568E-03    -219.068E-03     439.608E-03    -220.540E-03     26.1731E-03    -88.2340E+06    -90.9537E+06    -287.565E+06    -90.6335E+06    -287.473E+06    -88.6460E+06     3.70596E+06         52.9628
            1175     14.2774E-03     1.51277E-03     354.166E-03     341.503E-03        -1.20961     345.571E-03        -1.20865     349.146E-03    -61.5361E-03     467.891E-03    -178.720E-03    -289.171E-03    -276.414E-03     455.135E-03    -178.720E-03     178.202E-03     137.846E+06     81.3256E+06    -5.69982E+06    -5.34872E+06     80.9745E+06     137.846E+06     4.44605E+06         74.7329
            1176     13.4667E-03     1.41309E-03     349.268E-03     337.409E-03        -1.19616     337.365E-03        -1.19611     349.268E-03    -7.98666E-03     369.833E-03    -167.591E-03    -202.242E-03    -192.132E-03     367.749E-03    -175.618E-03     67.7048E-03     108.630E+06     71.2460E+06    -12.1048E+06    -11.5197E+06     70.6610E+06     108.630E+06     6.67205E+06         73.2530
            1177     12.5859E-03     1.37040E-03     350.106E-03     332.808E-03        -1.18408     332.800E-03        -1.18407     350.106E-03     6.16952E-03     324.619E-03    -148.719E-03    -175.899E-03    -147.197E-03     323.096E-03    -175.899E-03     50.2386E-03     77.8132E+06     54.6260E+06    -18.3458E+06    -17.9650E+06     54.2452E+06     77.8132E+06     4.97205E+06         71.3824
            1178     11.7216E-03     1.35413E-03     351.345E-03     333.268E-03        -1.17986     333.250E-03        -1.17984     351.345E-03     10.0023E-03     310.913E-03    -132.446E-03    -178.466E-03    -130.790E-03     309.256E-03    -178.466E-03     49.4355E-03     60.1008E+06     37.4581E+06    -22.0583E+06    -21.9179E+06     37.3177E+06     60.1008E+06     2.32896E+06         69.2693
            1179     10.8310E-03     1.35093E-03     352.710E-03     335.700E-03        -1.17940     335.680E-03        -1.17938     352.710E-03     10.1050E-03     307.242E-03    -124.869E-03    -182.373E-03    -123.161E-03     305.534E-03    -182.373E-03     49.8063E-03     45.0692E+06     27.4463E+06    -26.6053E+06    -26.5792E+06     27.4202E+06     45.0692E+06     651.040E+03         67.0529
            1180     9.94735E-03     1.36604E-03     354.076E-03     339.069E-03        -1.18110     339.054E-03        -1.18108     354.076E-03     9.07854E-03     311.438E-03    -124.166E-03    -187.272E-03    -122.227E-03     309.499E-03    -187.272E-03     52.4069E-03     32.3866E+06     19.3262E+06    -31.0584E+06    -31.0228E+06     23.6321E+06     28.0451E+06    -941.059E+03         64.8609
            1181     9.06002E-03     1.37714E-03     355.370E-03     342.594E-03        -1.18370     342.582E-03        -1.18369     355.370E-03     7.73559E-03     320.627E-03    -127.672E-03    -192.955E-03    -125.631E-03     318.586E-03    -192.955E-03     54.6097E-03     22.2961E+06     7.89600E+06    -36.6003E+06    -36.4458E+06     18.6841E+06     11.3535E+06    -2.70070E+06         62.8120
            1182     8.18407E-03     1.39804E-03     356.561E-03     345.982E-03        -1.18668     345.973E-03        -1.18667     356.561E-03     6.55850E-03     333.948E-03    -134.703E-03    -199.244E-03    -132.707E-03     331.951E-03    -199.244E-03     55.2575E-03     12.8946E+06    -4.49698E+06    -42.4320E+06    -42.0482E+06     11.9726E+06    -3.95884E+06    -4.33672E+06         60.9926
            1183     7.31083E-03     1.42423E-03     357.633E-03     349.117E-03        -1.18970     349.111E-03        -1.18970     357.633E-03     5.46974E-03     350.442E-03    -144.486E-03    -205.955E-03    -142.451E-03     348.406E-03    -205.955E-03     57.2562E-03     2.39217E+06    -21.2067E+06    -48.9269E+06    -47.5816E+06     1.04685E+06    -21.2067E+06    -7.55985E+06         59.4526
            1184     6.45144E-03     1.45405E-03     358.580E-03     351.873E-03        -1.19254     351.869E-03        -1.19254     358.580E-03     4.53088E-03     369.448E-03    -156.459E-03    -212.989E-03    -154.464E-03     367.453E-03    -212.989E-03     58.2436E-03    -22.5089E+06    -38.7870E+06    -63.0771E+06    -52.6862E+06    -35.7447E+06    -35.9422E+06    -10.9326E+06         58.2072
            1185     5.60083E-03     1.48736E-03     359.410E-03     354.230E-03        -1.19509     354.227E-03        -1.19509     359.410E-03     3.69478E-03     390.586E-03    -170.420E-03    -220.167E-03    -168.537E-03     388.704E-03    -220.167E-03     58.3394E-03    -44.4682E+06    -53.2174E+06    -99.6191E+06    -58.1034E+06    -94.6463E+06    -44.5550E+06    -9.81027E+06         57.2413
            1186     4.76564E-03     1.52401E-03     360.126E-03     356.290E-03        -1.19739     356.288E-03        -1.19739     360.126E-03     3.10660E-03     412.770E-03    -185.571E-03    -227.199E-03    -183.862E-03     411.061E-03    -227.199E-03     57.3267E-03    -51.3214E+06    -62.3229E+06    -148.308E+06    -62.9742E+06    -147.656E+06    -51.3214E+06    -5.85186E+06         56.5200
            1187     3.94257E-03     1.56399E-03     360.729E-03     358.012E-03        -1.19935     358.011E-03        -1.19935     360.729E-03     2.53361E-03     435.030E-03    -201.185E-03    -233.845E-03    -199.728E-03     433.573E-03    -233.845E-03     54.4604E-03    -56.9790E+06    -66.8098E+06    -191.984E+06    -66.9231E+06    -191.870E+06    -56.9790E+06    -2.30963E+06         55.9994
            1188     3.13289E-03     1.60224E-03     361.236E-03     359.357E-03        -1.20092     359.357E-03        -1.20092     361.236E-03     2.09515E-03     456.373E-03    -216.515E-03    -239.858E-03    -215.381E-03     455.239E-03    -239.858E-03     49.1404E-03    -60.7200E+06    -70.1390E+06    -230.811E+06    -70.2074E+06    -230.743E+06    -60.7200E+06     1.06804E+06         55.6357
            1189     2.33722E-03     1.63904E-03     361.662E-03     360.470E-03        -1.20225     360.470E-03        -1.20225     361.662E-03     1.57352E-03     475.414E-03    -230.464E-03    -244.950E-03    -229.714E-03     474.664E-03    -244.950E-03     40.9257E-03    -63.2638E+06    -72.5230E+06    -260.813E+06    -72.6184E+06    -260.717E+06    -63.2638E+06     3.73188E+06         55.3901
            1190     1.55126E-03     1.66959E-03     362.011E-03     361.367E-03        -1.20326     361.367E-03        -1.20326     362.011E-03     1.06769E-03     490.630E-03    -241.823E-03    -248.807E-03    -241.430E-03     490.237E-03    -248.807E-03     30.1860E-03    -68.9175E+06    -75.7135E+06    -272.991E+06    -75.8200E+06    -272.885E+06    -68.9175E+06     4.52583E+06         55.2327
            1191     775.018E-06     1.69200E-03     362.575E-03     361.753E-03        -1.20384     361.752E-03        -1.20384     362.575E-03     876.578E-06     500.514E-03    -249.283E-03    -251.231E-03    -249.245E-03     500.378E-03    -251.133E-03     17.6202E-03    -75.9829E+06    -79.2213E+06    -275.393E+06    -78.8812E+06    -275.321E+06    -76.3950E+06     3.23605E+06         55.1428
            1192     840.270E-06     78.8564E-03     267.840E-03     242.178E-03    -901.990E-03     242.337E-03    -901.967E-03     267.657E-03    -3.58038E-03     349.378E-03    -174.093E-03    -175.285E-03    -175.200E-03     349.378E-03    -174.178E-03    -93.6022E-06    -143.433E+06    -149.289E+06    -319.670E+06    -147.813E+06    -319.656E+06    -144.924E+06     426.457E+03         50.3800
            1193     1.67999E-03     78.8523E-03     255.376E-03     255.073E-03    -902.364E-03     255.365E-03    -902.360E-03     255.080E-03     3.61137E-03     349.103E-03    -174.393E-03    -174.710E-03    -174.392E-03     349.101E-03    -174.710E-03     1.27652E-03    -130.381E+06    -142.404E+06    -297.736E+06    -142.420E+06    -297.719E+06    -130.381E+06     887.254E+03         50.5297
            1194     2.52072E-03     78.8524E-03     255.579E-03     255.203E-03    -902.704E-03     255.571E-03    -902.703E-03     255.210E-03     1.70722E-03     349.108E-03    -174.347E-03    -174.761E-03    -174.370E-03     349.097E-03    -174.727E-03     4.36095E-03    -110.424E+06    -135.894E+06    -268.516E+06    -135.905E+06    -268.505E+06    -110.424E+06     765.337E+03         50.7771
            1195     3.36015E-03     78.8524E-03     256.055E-03     255.361E-03    -903.397E-03     256.054E-03    -903.395E-03     255.361E-03     2.63951E-03     349.498E-03    -174.531E-03    -174.967E-03    -174.619E-03     349.453E-03    -174.834E-03     9.24267E-03    -87.1165E+06    -126.590E+06    -229.961E+06    -126.595E+06    -229.955E+06    -87.1165E+06     398.659E+03         51.1324
            1196     4.19819E-03     78.8598E-03     256.702E-03     255.578E-03    -904.244E-03     256.701E-03    -904.243E-03     255.578E-03     1.58294E-03     349.231E-03    -174.179E-03    -175.052E-03    -174.141E-03     349.094E-03    -174.952E-03     16.3874E-03    -62.5581E+06    -116.098E+06    -188.208E+06    -116.102E+06    -188.204E+06    -62.5581E+06     453.148E+03         51.6110
            1197     5.03955E-03     78.8792E-03     257.457E-03     255.859E-03    -905.264E-03     257.457E-03    -905.264E-03     255.859E-03    -508.209E-06     348.300E-03    -173.336E-03    -174.964E-03    -173.029E-03     347.992E-03    -174.964E-03     24.9225E-03    -38.2684E+06    -105.534E+06    -146.841E+06    -105.578E+06    -146.797E+06    -38.2684E+06     343.368E+03         52.2365
            1198     5.88043E-03     78.9052E-03     258.353E-03     256.203E-03    -906.454E-03     258.352E-03    -906.453E-03     256.203E-03     578.382E-06     348.150E-03    -173.250E-03    -174.901E-03    -172.637E-03     347.538E-03    -174.901E-03     35.2238E-03    -15.3643E+06    -88.3944E+06    -107.433E+06    -94.7877E+06    -101.040E+06    -15.3643E+06     95.4278E+03         53.0409
            1199     6.72146E-03     78.9533E-03     259.363E-03     256.610E-03    -907.773E-03     259.363E-03    -907.772E-03     256.610E-03     584.204E-06     348.510E-03    -173.657E-03    -174.853E-03    -172.578E-03     347.431E-03    -174.853E-03     47.0520E-03     7.15547E+06    -46.5472E+06    -83.8399E+06    -83.8375E+06    -46.5496E+06     7.15547E+06     33.8127E+03         54.0633
            1200     7.56192E-03     79.0141E-03     260.421E-03     257.075E-03    -909.170E-03     260.420E-03    -909.170E-03     257.075E-03     612.054E-06     348.760E-03    -173.941E-03    -174.818E-03    -172.190E-03     347.008E-03    -174.818E-03     59.9953E-03     25.8757E+06    -2.98836E+06    -72.6670E+06    -72.6649E+06    -2.99043E+06     25.8757E+06     47.0024E+03         55.3454
            1201     8.40172E-03     79.0936E-03     261.588E-03     257.591E-03    -910.675E-03     261.587E-03    -910.674E-03     257.591E-03     1.80414E-03     349.452E-03    -174.364E-03    -175.087E-03    -172.119E-03     346.893E-03    -174.774E-03     72.8368E-03     36.1356E+06     14.0345E+06    -61.7969E+06    -61.7943E+06     14.0319E+06     36.1356E+06    -255.549E+03         56.9222
            1202     9.24414E-03     79.1896E-03     262.732E-03     258.149E-03    -912.168E-03     262.731E-03    -912.167E-03     258.149E-03     1.63668E-03     350.654E-03    -174.662E-03    -175.991E-03    -172.477E-03     347.226E-03    -174.749E-03     84.4971E-03     43.6415E+06     20.6640E+06    -51.9101E+06    -51.9066E+06     20.6605E+06     43.6415E+06    -424.650E+03         58.8085
            1203     10.0830E-03     79.3066E-03     263.834E-03     258.737E-03    -913.628E-03     263.833E-03    -913.627E-03     258.737E-03     2.22557E-03     352.045E-03    -174.754E-03    -177.291E-03    -172.788E-03     347.542E-03    -174.754E-03     97.0101E-03     52.8810E+06     25.8702E+06    -43.4074E+06    -43.4042E+06     25.8671E+06     52.8810E+06    -452.911E+03         60.9857
            1204     10.9253E-03     79.4384E-03     264.927E-03     259.340E-03    -915.069E-03     264.926E-03    -915.068E-03     259.340E-03     1.45232E-03     353.451E-03    -174.767E-03    -178.685E-03    -173.265E-03     348.032E-03    -174.767E-03     106.815E-03     61.9046E+06     29.8748E+06    -35.5718E+06    -35.5671E+06     29.8701E+06     61.9046E+06    -479.747E+03         63.3921
            1205     11.7654E-03     79.5772E-03     265.882E-03     259.951E-03    -916.351E-03     265.882E-03    -916.351E-03     259.951E-03     481.160E-06     356.084E-03    -174.769E-03    -181.315E-03    -174.032E-03     348.801E-03    -174.769E-03     123.583E-03     68.9438E+06     36.7663E+06    -28.4001E+06    -28.3953E+06     36.7616E+06     68.9438E+06     49.2832E+03         65.9205
            1206     12.6056E-03     79.7597E-03     266.717E-03     260.555E-03    -917.449E-03     266.717E-03    -917.449E-03     260.555E-03    -521.322E-09     356.966E-03    -174.760E-03    -182.206E-03    -174.335E-03     349.095E-03    -174.760E-03     129.088E-03     77.9012E+06     50.4838E+06    -21.7907E+06    -21.7884E+06     50.4816E+06     77.9012E+06     278.369E+03         68.4294
            1207     13.4483E-03     79.9201E-03     267.416E-03     261.152E-03    -918.286E-03     267.416E-03    -918.286E-03     261.152E-03    -767.276E-06     365.681E-03    -174.797E-03    -190.884E-03    -177.624E-03     352.422E-03    -174.797E-03     164.962E-03     97.4556E+06     70.7755E+06    -14.8508E+06    -14.8487E+06     70.7735E+06     97.4556E+06     34.7914E+03         70.7675
            1208     14.2888E-03     80.2080E-03     267.890E-03     261.725E-03    -918.729E-03     267.890E-03    -918.729E-03     261.725E-03     50.7335E-06     365.760E-03    -174.876E-03    -190.884E-03    -178.106E-03     352.982E-03    -174.876E-03     160.658E-03     124.451E+06     90.0534E+06    -7.60630E+06    -7.60376E+06     90.0509E+06     124.451E+06     121.176E+03         72.8055
            1209     839.329E-06     80.2727E-03     268.040E-03     248.469E-03    -903.796E-03     248.477E-03    -903.749E-03     267.985E-03    -5.47327E-03     349.936E-03    -174.134E-03    -175.802E-03    -175.572E-03     349.936E-03    -174.363E-03    -682.964E-06    -143.635E+06    -151.175E+06    -320.907E+06    -148.908E+06    -320.884E+06    -145.925E+06     139.844E+03         50.3637
            1210     1.67962E-03     80.2700E-03     258.403E-03     258.219E-03    -903.939E-03     258.354E-03    -903.932E-03     258.261E-03     4.15082E-03     349.285E-03    -174.358E-03    -174.927E-03    -174.357E-03     349.284E-03    -174.927E-03     701.956E-06    -131.369E+06    -143.954E+06    -298.684E+06    -143.977E+06    -298.660E+06    -131.369E+06     407.882E+03         50.5129
            1211     2.51962E-03     80.2677E-03     258.610E-03     258.321E-03    -904.239E-03     258.602E-03    -904.238E-03     258.328E-03     1.61377E-03     348.884E-03    -174.071E-03    -174.814E-03    -174.062E-03     348.875E-03    -174.814E-03     3.82903E-03    -110.813E+06    -135.887E+06    -268.104E+06    -135.901E+06    -268.090E+06    -110.813E+06     48.2043E+03         50.7596
            1212     3.36057E-03     80.2707E-03     258.950E-03     258.444E-03    -904.732E-03     258.948E-03    -904.730E-03     258.444E-03     2.95613E-03     348.831E-03    -173.944E-03    -174.887E-03    -173.995E-03     348.783E-03    -174.787E-03     9.33444E-03    -86.6362E+06    -126.301E+06    -230.555E+06    -126.307E+06    -230.549E+06    -86.6362E+06     480.163E+03         51.1138
            1213     4.20067E-03     80.2799E-03     259.329E-03     258.601E-03    -905.245E-03     259.328E-03    -905.244E-03     258.601E-03     1.70470E-03     348.699E-03    -173.790E-03    -174.909E-03    -173.753E-03     348.562E-03    -174.810E-03     16.4517E-03    -62.2941E+06    -116.653E+06    -188.775E+06    -116.679E+06    -188.748E+06    -62.2941E+06     1.11339E+06         51.5907
            1214     5.04051E-03     80.2931E-03     259.719E-03     258.791E-03    -905.803E-03     259.719E-03    -905.803E-03     258.791E-03    -317.977E-06     348.723E-03    -173.873E-03    -174.850E-03    -173.559E-03     348.410E-03    -174.850E-03     25.0893E-03    -37.9183E+06    -106.077E+06    -146.826E+06    -106.127E+06    -146.776E+06    -37.9183E+06     958.061E+03         52.2134
            1215     5.88061E-03     80.3255E-03     260.271E-03     259.025E-03    -906.516E-03     260.271E-03    -906.516E-03     259.025E-03     522.272E-06     348.801E-03    -173.911E-03    -174.891E-03    -173.294E-03     348.185E-03    -174.891E-03     35.4673E-03    -14.5492E+06    -88.0555E+06    -107.168E+06    -94.5759E+06    -100.647E+06    -14.5492E+06     532.605E+03         53.0140
            1216     6.71949E-03     80.3696E-03     260.992E-03     259.314E-03    -907.409E-03     260.991E-03    -907.408E-03     259.314E-03     726.196E-06     348.393E-03    -173.513E-03    -174.880E-03    -172.427E-03     347.307E-03    -174.880E-03     47.1163E-03     7.89474E+06    -46.2424E+06    -83.0595E+06    -83.0428E+06    -46.2591E+06     7.89474E+06     180.420E+03         54.0326
            1217     7.56122E-03     80.4309E-03     261.735E-03     259.659E-03    -908.348E-03     261.734E-03    -908.348E-03     259.659E-03     789.626E-06     348.660E-03    -173.835E-03    -174.825E-03    -172.094E-03     346.919E-03    -174.825E-03     59.8695E-03     26.2494E+06    -2.51175E+06    -71.7174E+06    -71.7158E+06    -2.51336E+06     26.2494E+06    -172.161E+03         55.3120
            1218     8.40339E-03     80.5108E-03     262.477E-03     260.049E-03    -909.278E-03     262.476E-03    -909.277E-03     260.049E-03     1.96985E-03     349.789E-03    -174.585E-03    -175.204E-03    -172.453E-03     347.246E-03    -174.793E-03     72.6162E-03     36.7882E+06     14.8168E+06    -61.3812E+06    -61.3724E+06     14.8080E+06     36.7882E+06    -702.437E+03         56.8876
            1219     9.24113E-03     80.6093E-03     263.166E-03     260.470E-03    -910.153E-03     263.166E-03    -910.152E-03     260.470E-03     1.86545E-03     350.806E-03    -174.784E-03    -176.022E-03    -172.539E-03     347.322E-03    -174.784E-03     85.1703E-03     43.9123E+06     20.8188E+06    -51.9864E+06    -51.9685E+06     20.8009E+06     43.9123E+06    -1.04821E+06         58.7758
            1220     10.0837E-03     80.7220E-03     263.788E-03     260.908E-03    -910.955E-03     263.786E-03    -910.953E-03     260.908E-03     2.46794E-03     351.769E-03    -174.771E-03    -176.998E-03    -172.473E-03     347.244E-03    -174.771E-03     97.2316E-03     52.3176E+06     25.2631E+06    -43.4096E+06    -43.3982E+06     25.2517E+06     52.3176E+06    -614.112E+03         60.9601
            1221     10.9255E-03     80.8542E-03     264.310E-03     261.349E-03    -911.629E-03     264.309E-03    -911.628E-03     261.349E-03     1.69955E-03     353.024E-03    -174.757E-03    -178.267E-03    -172.892E-03     347.649E-03    -174.757E-03     106.288E-03     61.4565E+06     29.5017E+06    -35.6372E+06    -35.6327E+06     29.4972E+06     61.4565E+06    -219.386E+03         63.3786
            1222     11.7660E-03     80.9984E-03     264.700E-03     261.784E-03    -912.118E-03     264.700E-03    -912.118E-03     261.784E-03     768.954E-06     355.949E-03    -174.747E-03    -181.201E-03    -174.024E-03     348.772E-03    -174.747E-03     122.709E-03     68.8026E+06     37.3330E+06    -28.1970E+06    -28.1904E+06     37.3263E+06     68.8026E+06    -172.892E+03         65.9224
            1223     12.6075E-03     81.1747E-03     264.986E-03     262.199E-03    -912.436E-03     264.986E-03    -912.435E-03     262.199E-03     225.867E-06     357.189E-03    -174.748E-03    -182.441E-03    -174.581E-03     349.329E-03    -174.748E-03     129.134E-03     76.9298E+06     50.0764E+06    -21.8054E+06    -21.8017E+06     50.0727E+06     76.9298E+06         595.396         68.4475
            1224     13.4475E-03     81.3394E-03     265.108E-03     262.599E-03    -912.444E-03     265.108E-03    -912.444E-03     262.599E-03    -622.127E-06     365.545E-03    -174.789E-03    -190.756E-03    -177.461E-03     352.250E-03    -174.789E-03     165.341E-03     96.1600E+06     69.6562E+06    -15.5308E+06    -15.5292E+06     69.6546E+06     96.1600E+06     299.278E+03         70.8006
            1225     14.2889E-03     81.6244E-03     265.118E-03     262.855E-03    -912.118E-03     265.009E-03    -912.118E-03     262.964E-03     183.114E-06     365.743E-03    -174.869E-03    -190.874E-03    -178.136E-03     353.005E-03    -174.869E-03     160.398E-03     124.306E+06     90.1123E+06    -8.08055E+06    -8.07854E+06     90.1103E+06     124.306E+06     346.891E+03         72.8493
            1226     839.341E-06     81.6905E-03     268.257E-03     255.447E-03    -906.159E-03     255.458E-03    -906.086E-03     268.173E-03    -6.70592E-03     350.184E-03    -174.549E-03    -175.636E-03    -175.369E-03     350.184E-03    -174.815E-03    -827.723E-06    -142.746E+06    -151.400E+06    -321.705E+06    -149.151E+06    -321.665E+06    -145.035E+06     144.920E+03         50.3477
            1227     1.67916E-03     81.6872E-03     262.006E-03     261.764E-03    -906.258E-03     261.923E-03    -906.246E-03     261.836E-03     4.75013E-03     349.673E-03    -174.559E-03    -175.114E-03    -174.600E-03     349.672E-03    -175.072E-03     856.103E-06    -131.526E+06    -143.961E+06    -298.161E+06    -143.985E+06    -298.137E+06    -131.526E+06    -290.511E+03         50.4966
            1228     2.51943E-03     81.6849E-03     262.034E-03     261.835E-03    -906.364E-03     261.994E-03    -906.362E-03     261.874E-03     1.48649E-03     349.144E-03    -174.171E-03    -174.973E-03    -174.161E-03     349.134E-03    -174.973E-03     4.04991E-03    -111.354E+06    -136.275E+06    -267.996E+06    -136.282E+06    -267.989E+06    -111.354E+06    -93.1373E+03         50.7424
            1229     3.35927E-03     81.6870E-03     262.093E-03     261.860E-03    -906.481E-03     262.034E-03    -906.479E-03     261.916E-03     3.15778E-03     348.526E-03    -173.646E-03    -174.880E-03    -173.607E-03     348.487E-03    -174.880E-03     8.65200E-03    -87.1895E+06    -127.289E+06    -232.172E+06    -127.292E+06    -232.168E+06    -87.1895E+06     498.853E+03         51.0953
            1230     4.20111E-03     81.6950E-03     262.230E-03     261.919E-03    -906.623E-03     262.174E-03    -906.622E-03     261.974E-03     1.65930E-03     348.367E-03    -173.556E-03    -174.811E-03    -173.443E-03     348.254E-03    -174.811E-03     14.8893E-03    -62.1757E+06    -116.318E+06    -189.287E+06    -116.349E+06    -189.256E+06    -62.1757E+06     527.869E+03         51.5703
            1231     5.04114E-03     81.7131E-03     262.442E-03     262.071E-03    -906.950E-03     262.442E-03    -906.950E-03     262.071E-03    -126.692E-06     348.747E-03    -173.921E-03    -174.826E-03    -173.621E-03     348.446E-03    -174.826E-03     24.3881E-03    -37.4910E+06    -104.665E+06    -146.942E+06    -104.733E+06    -146.874E+06    -37.4910E+06     664.001E+03         52.1902
            1232     5.87964E-03     81.7438E-03     262.687E-03     262.209E-03    -907.259E-03     262.686E-03    -907.258E-03     262.209E-03     841.109E-06     348.550E-03    -173.690E-03    -174.860E-03    -173.074E-03     347.934E-03    -174.860E-03     35.4394E-03    -13.7797E+06    -86.9749E+06    -106.813E+06    -93.3678E+06    -100.420E+06    -13.7797E+06     686.129E+03         52.9874
            1233     6.72191E-03     81.7862E-03     262.973E-03     262.345E-03    -907.547E-03     262.935E-03    -907.546E-03     262.382E-03     1.07601E-03     348.456E-03    -173.613E-03    -174.843E-03    -172.511E-03     347.354E-03    -174.843E-03     47.4492E-03     8.81291E+06    -45.8224E+06    -82.1856E+06    -82.1688E+06    -45.8393E+06     8.81291E+06     428.464E+03         54.0024
            1234     7.56185E-03     81.8487E-03     263.298E-03     262.522E-03    -907.879E-03     263.231E-03    -907.878E-03     262.589E-03     1.02635E-03     348.991E-03    -174.180E-03    -174.811E-03    -172.394E-03     347.205E-03    -174.811E-03     60.6674E-03     26.8095E+06    -1.99282E+06    -71.0599E+06    -71.0578E+06    -1.99488E+06     26.8095E+06     87.0083E+03         55.2786
            1235     8.40032E-03     81.9290E-03     263.605E-03     262.743E-03    -908.171E-03     263.521E-03    -908.170E-03     262.827E-03     2.27434E-03     349.597E-03    -174.636E-03    -174.961E-03    -172.203E-03     346.985E-03    -174.782E-03     73.5483E-03     37.4658E+06     15.7103E+06    -60.7417E+06    -60.7353E+06     15.7040E+06     37.4658E+06    -464.721E+03         56.8532
            1236     9.24438E-03     82.0256E-03     263.944E-03     262.881E-03    -908.380E-03     263.740E-03    -908.379E-03     263.083E-03     2.14690E-03     350.801E-03    -174.760E-03    -176.041E-03    -172.510E-03     347.270E-03    -174.760E-03     85.7793E-03     44.5568E+06     20.9193E+06    -52.0691E+06    -52.0537E+06     20.9038E+06     44.5568E+06    -658.249E+03         58.7440
            1237     10.0841E-03     82.1400E-03     264.227E-03     262.956E-03    -908.446E-03     263.837E-03    -908.445E-03     263.345E-03     2.73411E-03     352.442E-03    -174.775E-03    -177.667E-03    -173.186E-03     347.960E-03    -174.775E-03     96.9307E-03     52.0906E+06     24.5244E+06    -44.0928E+06    -44.0750E+06     24.5066E+06     52.0906E+06    -615.763E+03         60.9341
            1238     10.9232E-03     82.2720E-03     264.381E-03     263.000E-03    -908.316E-03     263.787E-03    -908.315E-03     263.593E-03     1.94770E-03     353.052E-03    -174.790E-03    -178.261E-03    -172.945E-03     347.736E-03    -174.790E-03     105.696E-03     60.9696E+06     29.5945E+06    -35.8870E+06    -35.8783E+06     29.5857E+06     60.9696E+06    -305.387E+03         63.3630
            1239     11.7659E-03     82.4129E-03     264.506E-03     262.935E-03    -907.995E-03     263.617E-03    -907.995E-03     263.824E-03     1.03539E-03     355.501E-03    -174.761E-03    -180.740E-03    -173.523E-03     348.284E-03    -174.761E-03     122.902E-03     67.5944E+06     36.9794E+06    -28.9346E+06    -28.9298E+06     36.9747E+06     67.5944E+06    -358.434E+03         65.9225
            1240     12.6061E-03     82.5951E-03     264.544E-03     262.748E-03    -907.414E-03     263.268E-03    -907.414E-03     264.023E-03     463.956E-06     357.163E-03    -174.745E-03    -182.418E-03    -174.583E-03     349.328E-03    -174.745E-03     128.870E-03     75.9222E+06     49.3080E+06    -22.3774E+06    -22.3720E+06     49.3026E+06     75.9222E+06    -175.172E+03         68.4653
            1241     13.4479E-03     82.7542E-03     264.436E-03     262.436E-03    -906.443E-03     262.683E-03    -906.443E-03     264.190E-03    -433.528E-06     365.522E-03    -174.790E-03    -190.731E-03    -177.479E-03     352.269E-03    -174.790E-03     164.865E-03     96.0187E+06     69.6323E+06    -15.5072E+06    -15.5055E+06     69.6306E+06     96.0187E+06     293.758E+03         70.8338
            1242     14.2897E-03     83.0436E-03     264.350E-03     261.890E-03    -905.200E-03     261.933E-03    -905.200E-03     264.307E-03     207.482E-06     365.757E-03    -174.870E-03    -190.887E-03    -178.124E-03     352.993E-03    -174.870E-03     160.507E-03     124.164E+06     90.2787E+06    -8.14102E+06    -8.14015E+06     90.2778E+06     124.164E+06     197.806E+03         72.8933
            1243     840.193E-06     83.1103E-03     268.823E-03     262.576E-03    -908.905E-03     262.569E-03    -908.801E-03     268.725E-03    -8.05947E-03     349.696E-03    -174.525E-03    -175.170E-03    -174.684E-03     349.695E-03    -175.012E-03     60.4910E-06    -141.474E+06    -149.932E+06    -320.800E+06    -147.132E+06    -320.764E+06    -144.311E+06    -402.520E+03         50.3323
            1244     1.67928E-03     83.1044E-03     265.735E-03     265.556E-03    -908.788E-03     265.636E-03    -908.771E-03     265.637E-03     5.26659E-03     349.962E-03    -174.780E-03    -175.183E-03    -175.003E-03     349.961E-03    -174.958E-03     1.03109E-03    -130.256E+06    -142.376E+06    -298.314E+06    -142.387E+06    -298.304E+06    -130.256E+06    -403.665E+03         50.4807
            1245     2.51921E-03     83.1024E-03     265.601E-03     265.415E-03    -908.538E-03     265.412E-03    -908.535E-03     265.601E-03     1.32529E-03     349.538E-03    -174.437E-03    -175.100E-03    -174.494E-03     349.528E-03    -175.035E-03     4.04409E-03    -110.283E+06    -135.492E+06    -268.749E+06    -135.494E+06    -268.747E+06    -110.283E+06     186.421E+03         50.7257
            1246     3.35958E-03     83.1042E-03     265.548E-03     265.320E-03    -908.413E-03     265.317E-03    -908.410E-03     265.548E-03     3.56420E-03     349.139E-03    -174.118E-03    -175.021E-03    -174.079E-03     349.100E-03    -175.021E-03     8.61214E-03    -87.1696E+06    -126.116E+06    -232.157E+06    -126.119E+06    -232.154E+06    -87.1696E+06    -17.2369E+03         51.0770
            1247     4.19865E-03     83.1115E-03     265.555E-03     265.281E-03    -908.315E-03     265.313E-03    -908.314E-03     265.522E-03     1.81180E-03     348.788E-03    -173.794E-03    -174.994E-03    -173.675E-03     348.669E-03    -174.994E-03     15.2077E-03    -62.6704E+06    -115.424E+06    -189.610E+06    -115.439E+06    -189.595E+06    -62.6704E+06    -231.511E+03         51.5497
            1248     5.03920E-03     83.1310E-03     265.614E-03     265.191E-03    -908.230E-03     265.278E-03    -908.230E-03     265.527E-03     83.3064E-06     348.086E-03    -173.144E-03    -174.942E-03    -172.858E-03     347.801E-03    -174.942E-03     23.9076E-03    -37.6517E+06    -104.049E+06    -147.674E+06    -104.125E+06    -147.599E+06    -37.6517E+06     58.1313E+03         52.1668
            1249     5.88194E-03     83.1598E-03     265.624E-03     265.100E-03    -908.058E-03     265.170E-03    -908.058E-03     265.553E-03     903.503E-06     347.842E-03    -172.988E-03    -174.854E-03    -172.392E-03     347.246E-03    -174.854E-03     34.6826E-03    -13.8099E+06    -86.5809E+06    -107.123E+06    -92.7380E+06    -100.966E+06    -13.8099E+06     440.563E+03         52.9609
            1250     6.72082E-03     83.2045E-03     265.612E-03     265.030E-03    -907.829E-03     265.046E-03    -907.829E-03     265.596E-03     1.05987E-03     348.359E-03    -173.569E-03    -174.791E-03    -172.468E-03     347.259E-03    -174.791E-03     47.4248E-03     9.39498E+06    -45.5014E+06    -81.6188E+06    -81.5824E+06    -45.5378E+06     9.39498E+06     610.322E+03         53.9724
            1251     7.56134E-03     83.2664E-03     265.656E-03     264.870E-03    -907.524E-03     264.869E-03    -907.523E-03     265.656E-03     1.05936E-03     348.859E-03    -174.100E-03    -174.759E-03    -172.310E-03     347.068E-03    -174.759E-03     60.7179E-03     27.8321E+06    -1.20256E+06    -70.6216E+06    -70.6187E+06    -1.20543E+06     27.8321E+06     318.618E+03         55.2456
            1252     8.40466E-03     83.3458E-03     265.726E-03     264.651E-03    -907.118E-03     264.650E-03    -907.116E-03     265.726E-03     2.41674E-03     349.709E-03    -174.517E-03    -175.192E-03    -172.393E-03     347.130E-03    -174.737E-03     73.1481E-03     37.6801E+06     16.1164E+06    -60.7352E+06    -60.7328E+06     16.1140E+06     37.6801E+06     209.922E+03         56.8190
            1253     9.24281E-03     83.4426E-03     265.797E-03     264.301E-03    -906.533E-03     264.300E-03    -906.532E-03     265.797E-03     2.24952E-03     351.022E-03    -174.742E-03    -176.279E-03    -172.784E-03     347.526E-03    -174.742E-03     85.3319E-03     44.8775E+06     21.0268E+06    -51.4700E+06    -51.4671E+06     21.0238E+06     44.8775E+06     310.611E+03         58.7114
            1254     10.0829E-03     83.5605E-03     265.854E-03     263.855E-03    -905.806E-03     263.854E-03    -905.804E-03     265.854E-03     2.82827E-03     352.264E-03    -174.762E-03    -177.502E-03    -172.958E-03     347.720E-03    -174.762E-03     97.5378E-03     52.8805E+06     24.7866E+06     -43.328E+06    -43.3138E+06     24.7724E+06     52.8805E+06     81.8493E+03         60.9082
            1255     10.9244E-03     83.6883E-03     265.887E-03     263.291E-03    -904.906E-03     263.290E-03    -904.905E-03     265.887E-03     2.08298E-03     353.430E-03    -174.775E-03    -178.655E-03    -173.266E-03     348.041E-03    -174.775E-03     106.506E-03     60.3958E+06     28.8080E+06    -36.4980E+06    -36.4839E+06     28.7939E+06     60.3958E+06    -169.193E+03         63.3485
            1256     11.7651E-03     83.8291E-03     265.889E-03     262.495E-03    -903.695E-03     262.495E-03    -903.695E-03     265.889E-03     1.11226E-03     356.040E-03    -174.775E-03    -181.264E-03    -174.000E-03     348.775E-03    -174.775E-03     123.403E-03     67.3279E+06     36.6055E+06    -29.3659E+06    -29.3637E+06     36.6033E+06     67.3279E+06    -238.507E+03         65.9225
            1257     12.6075E-03     84.0130E-03     265.846E-03     261.522E-03    -902.197E-03     261.521E-03    -902.197E-03     265.846E-03     514.504E-06     356.976E-03    -174.769E-03    -182.206E-03    -174.370E-03     349.140E-03    -174.769E-03     128.799E-03     76.5632E+06     49.7448E+06    -22.1634E+06    -22.1588E+06     49.7402E+06     76.5632E+06    -129.702E+03         68.4821
            1258     13.4474E-03     84.1722E-03     265.756E-03     260.327E-03    -900.292E-03     260.327E-03    -900.292E-03     265.756E-03    -325.937E-06     365.485E-03    -174.805E-03    -190.680E-03    -177.469E-03     352.274E-03    -174.805E-03     164.545E-03     96.2888E+06     69.8266E+06    -15.1113E+06    -15.1083E+06     69.8236E+06     96.2888E+06    -23.2479E+03         70.8666
            1259     14.2882E-03     84.4597E-03     265.603E-03     258.856E-03    -897.884E-03     258.856E-03    -897.884E-03     265.603E-03     255.139E-06     365.643E-03    -174.879E-03    -190.764E-03    -177.982E-03     352.861E-03    -174.879E-03     160.710E-03     124.199E+06     90.3024E+06    -7.75630E+06    -7.75608E+06     90.3021E+06     124.199E+06     7.95896E+03         72.9374
            1260     840.255E-06     84.5257E-03     270.853E-03     268.057E-03    -911.280E-03     269.115E-03    -911.148E-03     269.663E-03    -9.13888E-03     349.358E-03    -174.254E-03    -175.104E-03    -174.665E-03     349.358E-03    -174.693E-03     370.101E-06    -139.330E+06    -149.389E+06    -319.191E+06    -146.571E+06    -319.172E+06    -142.167E+06    -573.747E+03         50.3171
            1261     1.68022E-03     84.5240E-03     269.364E-03     269.234E-03    -910.954E-03     269.226E-03    -910.932E-03     269.350E-03     5.76460E-03     349.935E-03    -174.794E-03    -175.141E-03    -175.092E-03     349.934E-03    -174.842E-03     1.20038E-03    -129.359E+06    -141.256E+06    -298.964E+06    -141.260E+06    -298.959E+06    -129.359E+06    -178.933E+03         50.4652
            1262     2.51895E-03     84.5200E-03     269.259E-03     268.928E-03    -910.566E-03     268.924E-03    -910.563E-03     269.259E-03     1.39013E-03     349.993E-03    -174.771E-03    -175.222E-03    -174.946E-03     349.985E-03    -175.039E-03     3.75527E-03    -109.927E+06    -133.989E+06    -269.630E+06    -133.990E+06    -269.629E+06    -109.927E+06     76.8377E+03         50.7093
            1263     3.35876E-03     84.5216E-03     269.149E-03     268.670E-03    -910.199E-03     268.667E-03    -910.196E-03     269.149E-03     3.70146E-03     349.320E-03    -174.221E-03    -175.099E-03    -174.178E-03     349.277E-03    -175.099E-03     8.88489E-03    -86.7514E+06    -124.891E+06    -231.391E+06    -124.895E+06    -231.387E+06    -86.7514E+06     51.8976E+03         51.0593
            1264     4.19910E-03     84.5308E-03     269.044E-03     268.374E-03    -909.762E-03     268.374E-03    -909.761E-03     269.044E-03     1.72355E-03     348.666E-03    -173.616E-03    -175.051E-03    -173.481E-03     348.532E-03    -175.051E-03     16.2433E-03    -62.6391E+06    -115.409E+06    -189.960E+06    -115.419E+06    -189.950E+06    -62.6391E+06     115.529E+03         51.5299
            1265     5.03941E-03     84.5466E-03     268.935E-03     267.911E-03    -909.131E-03     267.910E-03    -909.131E-03     268.935E-03     171.574E-06     348.161E-03    -173.189E-03    -174.972E-03    -172.887E-03     347.858E-03    -174.972E-03     24.7193E-03    -38.2361E+06    -104.652E+06    -148.212E+06    -104.689E+06    -148.175E+06    -38.2361E+06    -39.6286E+03         52.1441
            1266     5.87943E-03     84.5756E-03     268.824E-03     267.499E-03    -908.493E-03     267.498E-03    -908.492E-03     268.824E-03     826.961E-06     347.988E-03    -173.100E-03    -174.888E-03    -172.494E-03     347.383E-03    -174.888E-03     34.9893E-03    -14.4014E+06    -87.3203E+06    -107.379E+06    -93.4442E+06    -101.255E+06    -14.4014E+06    -79.7507E+03         52.9344
            1267     6.72219E-03     84.6221E-03     268.727E-03     267.076E-03    -907.814E-03     267.075E-03    -907.813E-03     268.727E-03     1.17219E-03     348.128E-03    -173.312E-03    -174.817E-03    -172.241E-03     347.058E-03    -174.817E-03     46.8107E-03     9.31750E+06    -45.9608E+06    -81.9773E+06    -81.9276E+06    -46.0105E+06     9.31750E+06     399.323E+03         53.9420
            1268     7.56318E-03     84.6832E-03     268.631E-03     266.427E-03    -906.857E-03     266.426E-03    -906.856E-03     268.631E-03     1.14875E-03     348.717E-03    -173.951E-03    -174.766E-03    -172.228E-03     346.994E-03    -174.766E-03     59.5155E-03     27.9082E+06    -1.28654E+06    -70.8784E+06    -70.8643E+06    -1.30058E+06     27.9082E+06     788.753E+03         55.2119
            1269     8.40126E-03     84.7635E-03     268.521E-03     265.658E-03    -905.695E-03     265.657E-03    -905.693E-03     268.521E-03     2.39666E-03     349.826E-03    -174.606E-03    -175.220E-03    -172.519E-03     347.265E-03    -174.746E-03     72.8474E-03     37.7984E+06     16.5590E+06    -60.8699E+06    -60.8558E+06     16.5449E+06     37.7984E+06     812.787E+03         56.7836
            1270     9.24275E-03     84.8624E-03     268.392E-03     264.806E-03    -904.378E-03     264.805E-03    -904.377E-03     268.392E-03     2.28771E-03     350.660E-03    -174.738E-03    -175.922E-03    -172.417E-03     347.155E-03    -174.738E-03     85.4058E-03     44.2870E+06     20.9814E+06    -51.7669E+06    -51.7594E+06     20.9740E+06     44.2870E+06     626.572E+03         58.6782
            1271     10.0851E-03     84.9745E-03     268.234E-03     263.794E-03    -902.836E-03     263.792E-03    -902.835E-03     268.234E-03     2.80348E-03     351.742E-03    -174.722E-03    -177.020E-03    -172.474E-03     347.196E-03    -174.722E-03     97.4596E-03     52.2892E+06     24.9044E+06    -43.7154E+06    -43.7046E+06     24.8936E+06     52.2892E+06     547.175E+03         60.8824
            1272     10.9262E-03     85.1081E-03     268.034E-03     262.599E-03    -901.034E-03     262.598E-03    -901.033E-03     268.034E-03     2.01699E-03     353.612E-03    -174.733E-03    -178.879E-03    -173.495E-03     348.229E-03    -174.733E-03     106.501E-03     61.4568E+06     29.6651E+06    -36.1619E+06    -36.1552E+06     29.6584E+06     61.4568E+06     272.200E+03         63.3345
            1273     11.7651E-03     85.2483E-03     267.788E-03     261.236E-03    -898.965E-03     261.236E-03    -898.965E-03     267.788E-03     1.03434E-03     356.663E-03    -174.771E-03    -181.892E-03    -174.673E-03     349.445E-03    -174.771E-03     123.171E-03     68.5340E+06     36.6374E+06    -28.8978E+06    -28.8900E+06     36.6296E+06     68.5340E+06    -256.479E+03         65.9228
            1274     12.6049E-03     85.4280E-03     267.482E-03     259.663E-03    -896.561E-03     259.663E-03    -896.561E-03     267.482E-03     447.690E-06     357.170E-03    -174.793E-03    -182.377E-03    -174.561E-03     349.354E-03    -174.793E-03     128.708E-03     76.7462E+06     49.1962E+06    -21.9745E+06    -21.9637E+06     49.1854E+06     76.7462E+06    -276.684E+03         68.4986
            1275     13.4478E-03     85.5905E-03     267.113E-03     257.814E-03    -893.646E-03     257.814E-03    -893.645E-03     267.113E-03    -453.444E-06     365.279E-03    -174.826E-03    -190.454E-03    -177.200E-03     352.025E-03    -174.826E-03     164.748E-03     96.4406E+06     69.3522E+06    -15.0498E+06    -15.0462E+06     69.3486E+06     96.4406E+06    -45.7888E+03         70.8994
            1276     14.2891E-03     85.8775E-03     266.663E-03     255.669E-03    -890.211E-03     255.669E-03    -890.211E-03     266.663E-03     149.899E-06     365.541E-03    -174.887E-03    -190.654E-03    -177.863E-03     352.750E-03    -174.887E-03     160.624E-03     124.837E+06     90.3211E+06    -7.42773E+06    -7.42752E+06     90.3209E+06     124.837E+06         928.840         72.9819
            1277     839.556E-06     85.9418E-03     275.322E-03     270.418E-03    -912.873E-03     275.161E-03    -912.720E-03     270.426E-03    -9.62911E-03     349.925E-03    -174.462E-03    -175.463E-03    -175.351E-03     349.924E-03    -174.574E-03    -200.134E-06    -137.218E+06    -149.734E+06    -319.396E+06    -145.085E+06    -319.381E+06    -141.883E+06     947.795E+03         50.3017
            1278     1.67967E-03     85.9415E-03     272.727E-03     272.515E-03    -912.355E-03     272.489E-03    -912.328E-03     272.727E-03     6.05125E-03     349.714E-03    -174.604E-03    -175.110E-03    -174.720E-03     349.713E-03    -174.993E-03     1.11573E-03    -128.824E+06    -141.273E+06    -298.568E+06    -141.284E+06    -298.557E+06    -128.824E+06     125.957E+03         50.4496
            1279     2.51940E-03     85.9397E-03     272.592E-03     272.161E-03    -911.895E-03     272.157E-03    -911.890E-03     272.592E-03     1.09170E-03     349.667E-03    -174.538E-03    -175.129E-03    -174.645E-03     349.657E-03    -175.012E-03     4.03814E-03    -109.951E+06    -133.973E+06    -269.607E+06    -133.975E+06    -269.605E+06    -109.951E+06    -154.213E+03         50.6932
            1280     3.35857E-03     85.9394E-03     272.436E-03     271.740E-03    -911.310E-03     271.736E-03    -911.306E-03     272.436E-03     3.56303E-03     349.235E-03    -174.201E-03    -175.034E-03    -174.157E-03     349.192E-03    -175.034E-03     9.12334E-03    -86.7026E+06    -125.232E+06    -231.905E+06    -125.234E+06    -231.903E+06    -86.7026E+06     153.679E+03         51.0421
            1281     4.19973E-03     85.9463E-03     272.252E-03     271.111E-03    -910.458E-03     271.110E-03    -910.457E-03     272.252E-03     1.58185E-03     348.475E-03    -173.485E-03    -174.989E-03    -173.359E-03     348.348E-03    -174.989E-03     15.7624E-03    -61.9121E+06    -115.315E+06    -190.095E+06    -115.321E+06    -190.090E+06    -61.9121E+06     321.330E+03         51.5109
            1282     5.04070E-03     85.9645E-03     272.044E-03     270.466E-03    -909.531E-03     270.465E-03    -909.530E-03     272.044E-03     225.738E-06     348.286E-03    -173.363E-03    -174.923E-03    -173.063E-03     347.986E-03    -174.923E-03     24.5042E-03    -37.4990E+06    -104.643E+06    -147.871E+06    -104.654E+06    -147.860E+06    -37.4990E+06     263.765E+03         52.1223
            1283     5.88101E-03     85.9932E-03     271.819E-03     269.652E-03    -908.373E-03     269.651E-03    -908.372E-03     271.819E-03     798.716E-06     348.453E-03    -173.563E-03    -174.890E-03    -172.939E-03     347.829E-03    -174.890E-03     35.5373E-03    -13.7964E+06    -87.3015E+06    -106.930E+06    -93.3665E+06    -100.865E+06    -13.7964E+06     80.2893E+03         52.9086
            1284     6.71961E-03     86.0386E-03     271.570E-03     268.658E-03    -906.951E-03     268.657E-03    -906.950E-03     271.570E-03     1.13809E-03     348.581E-03    -173.712E-03    -174.869E-03    -172.621E-03     347.490E-03    -174.869E-03     47.3158E-03     8.98822E+06    -47.4865E+06    -82.1377E+06    -82.1117E+06    -47.5126E+06     8.98822E+06     353.296E+03         53.9116
            1285     7.56033E-03     86.1003E-03     271.293E-03     267.583E-03    -905.367E-03     267.582E-03    -905.366E-03     271.293E-03     1.04223E-03     348.864E-03    -174.028E-03    -174.836E-03    -172.295E-03     347.131E-03    -174.836E-03     59.6917E-03     27.2436E+06    -2.54222E+06    -71.1466E+06    -71.1214E+06    -2.56739E+06     27.2436E+06     1.24525E+06         55.1775
            1286     8.40321E-03     86.1819E-03     270.989E-03     266.409E-03    -903.582E-03     266.407E-03    -903.581E-03     270.989E-03     2.23817E-03     349.319E-03    -174.433E-03    -174.886E-03    -171.972E-03     346.758E-03    -174.786E-03     72.7863E-03     37.6445E+06     17.1263E+06    -60.7815E+06    -60.7492E+06     17.0940E+06     37.6445E+06     1.43822E+06         56.7477
            1287     9.24387E-03     86.2781E-03     270.652E-03     265.063E-03    -901.540E-03     265.062E-03    -901.539E-03     270.652E-03     2.01716E-03     350.416E-03    -174.673E-03    -175.743E-03    -172.226E-03     346.967E-03    -174.741E-03     84.7297E-03     43.9668E+06     21.2361E+06    -52.3454E+06    -52.3216E+06     21.2123E+06     43.9668E+06     1.17269E+06         58.6444
            1288     10.0838E-03     86.3923E-03     270.268E-03     263.485E-03    -899.186E-03     263.484E-03    -899.185E-03     270.268E-03     2.54590E-03     351.992E-03    -174.734E-03    -177.258E-03    -172.808E-03     347.543E-03    -174.734E-03     96.4588E-03     52.3927E+06     25.3684E+06    -44.1262E+06    -44.1171E+06     25.3593E+06     52.3927E+06     570.634E+03         60.8546
            1289     10.9242E-03     86.5250E-03     269.827E-03     261.723E-03    -896.539E-03     261.722E-03    -896.538E-03     269.827E-03     1.68047E-03     353.181E-03    -174.746E-03    -178.435E-03    -173.070E-03     347.816E-03    -174.746E-03     106.210E-03     61.9659E+06     30.3234E+06    -35.9795E+06    -35.9776E+06     30.3215E+06     61.9659E+06     61.3400E+03         63.3181
            1290     11.7664E-03     86.6675E-03     269.321E-03     259.763E-03    -893.574E-03     259.763E-03    -893.574E-03     269.321E-03     675.065E-06     356.252E-03    -174.750E-03    -181.502E-03    -174.223E-03     348.973E-03    -174.750E-03     123.599E-03     68.6977E+06     36.9150E+06    -29.1923E+06    -29.1835E+06     36.9062E+06     68.6977E+06    -193.218E+03         65.9232
            1291     12.6067E-03     86.8477E-03     268.741E-03     257.556E-03    -890.222E-03     257.556E-03    -890.222E-03     268.741E-03     73.5514E-06     357.631E-03    -174.771E-03    -182.860E-03    -175.002E-03     349.774E-03    -174.771E-03     129.149E-03     76.9438E+06     48.9370E+06    -22.6135E+06    -22.5967E+06     48.9202E+06     76.9438E+06    -378.116E+03         68.5167
            1292     13.4465E-03     87.0051E-03     268.076E-03     255.077E-03    -886.358E-03     255.077E-03    -886.357E-03     268.076E-03    -779.932E-06     365.617E-03    -174.830E-03    -190.788E-03    -177.507E-03     352.336E-03    -174.830E-03     164.981E-03     97.1015E+06     69.4421E+06    -15.3110E+06    -15.3020E+06     69.4331E+06     97.1015E+06    -120.675E+03         70.9327
            1293     14.2887E-03     87.2955E-03     267.317E-03     252.331E-03    -882.023E-03     252.331E-03    -882.023E-03     267.317E-03     32.6336E-06     365.479E-03    -174.897E-03    -190.582E-03    -177.792E-03     352.688E-03    -174.897E-03     160.519E-03     125.026E+06     90.2761E+06    -7.73060E+06    -7.73032E+06     90.2758E+06     125.026E+06     70.1571E+03         73.0264
            1294     839.358E-06     87.3618E-03     279.632E-03     271.556E-03    -913.006E-03     279.465E-03    -912.843E-03     271.559E-03    -9.99428E-03     350.099E-03    -174.642E-03    -175.458E-03    -175.298E-03     350.099E-03    -174.801E-03     320.838E-06    -140.007E+06    -151.253E+06    -320.547E+06    -146.556E+06    -320.525E+06    -144.725E+06    -21.5613E+03         50.2862
            1295     1.67854E-03     87.3585E-03     275.548E-03     275.302E-03    -912.632E-03     275.347E-03    -912.603E-03     275.474E-03     6.03722E-03     349.431E-03    -174.428E-03    -175.003E-03    -174.426E-03     349.429E-03    -175.003E-03     1.77351E-03    -130.479E+06    -142.250E+06    -298.459E+06    -142.213E+06    -298.442E+06    -130.532E+06     489.042E+03         50.4339
            1296     2.51972E-03     87.3562E-03     275.354E-03     274.845E-03    -912.035E-03     274.840E-03    -912.030E-03     275.354E-03     793.581E-06     349.032E-03    -174.138E-03    -174.893E-03    -174.127E-03     349.020E-03    -174.893E-03     4.54849E-03    -109.711E+06    -135.716E+06    -269.351E+06    -135.725E+06    -269.342E+06    -109.711E+06     292.865E+03         50.6773
            1297     3.36050E-03     87.3578E-03     275.157E-03     274.242E-03    -911.206E-03     274.238E-03    -911.202E-03     275.157E-03     3.51812E-03     349.169E-03    -174.286E-03    -174.883E-03    -174.243E-03     349.126E-03    -174.883E-03     9.07122E-03    -86.3504E+06    -126.466E+06    -232.206E+06    -126.468E+06    -232.204E+06    -86.3504E+06     179.812E+03         51.0253
            1298     4.19909E-03     87.3638E-03     274.911E-03     273.464E-03    -910.134E-03     273.464E-03    -910.134E-03     274.911E-03     1.36541E-03     348.905E-03    -173.982E-03    -174.923E-03    -173.861E-03     348.784E-03    -174.923E-03     15.4792E-03    -62.0514E+06    -116.163E+06    -190.302E+06    -116.166E+06    -190.298E+06    -62.0514E+06     281.318E+03         51.4921
            1299     5.03945E-03     87.3806E-03     274.616E-03     272.475E-03    -908.771E-03     272.475E-03    -908.771E-03     274.616E-03    -91.2144E-06     348.432E-03    -173.505E-03    -174.926E-03    -173.206E-03     348.132E-03    -174.926E-03     24.4071E-03    -37.5690E+06    -105.242E+06    -148.074E+06    -105.256E+06    -148.060E+06    -37.5690E+06     372.056E+03         52.1005
            1300     5.88023E-03     87.4112E-03     274.268E-03     271.239E-03    -907.059E-03     271.238E-03    -907.058E-03     274.268E-03     488.611E-06     348.460E-03    -173.557E-03    -174.903E-03    -172.949E-03     347.852E-03    -174.903E-03     35.1290E-03    -14.4042E+06    -87.5038E+06    -108.194E+06    -94.3175E+06    -101.380E+06    -14.4042E+06     770.989E+03         52.8831
            1301     6.72195E-03     87.4567E-03     273.865E-03     269.848E-03    -905.080E-03     269.847E-03    -905.080E-03     273.865E-03     786.841E-06     348.605E-03    -173.725E-03    -174.880E-03    -172.622E-03     347.502E-03    -174.880E-03     47.4404E-03     7.90368E+06    -48.2438E+06    -83.4349E+06    -83.3735E+06    -48.3052E+06     7.90368E+06     1.01880E+06         53.8818
            1302     7.56154E-03     87.5190E-03     273.415E-03     268.366E-03    -902.888E-03     268.365E-03    -902.887E-03     273.415E-03     698.817E-06     348.971E-03    -174.050E-03    -174.920E-03    -172.346E-03     347.193E-03    -174.847E-03     60.5586E-03     26.1108E+06    -3.54384E+06    -72.2449E+06    -72.2210E+06    -3.56776E+06     26.1108E+06     1.23983E+06         55.1439
            1303     8.40081E-03     87.5970E-03     272.919E-03     266.714E-03    -900.416E-03     266.713E-03    -900.415E-03     272.919E-03     1.93745E-03     349.753E-03    -174.501E-03    -175.252E-03    -172.397E-03     347.216E-03    -174.819E-03     72.5801E-03     36.7582E+06     16.9585E+06    -61.7180E+06    -61.6868E+06     16.9273E+06     36.7582E+06     1.46063E+06         56.7116
            1304     9.24273E-03     87.6956E-03     272.368E-03     264.836E-03    -897.607E-03     264.835E-03    -897.607E-03     272.368E-03     1.66589E-03     350.611E-03    -174.735E-03    -175.876E-03    -172.410E-03     347.212E-03    -174.803E-03     84.1216E-03     44.1025E+06     22.0606E+06    -52.0336E+06    -52.0135E+06     22.0405E+06     44.1025E+06     948.781E+03         58.6089
            1305     10.0834E-03     87.8111E-03     271.754E-03     262.804E-03    -894.540E-03     262.803E-03    -894.539E-03     271.754E-03     2.11634E-03     351.712E-03    -174.787E-03    -176.925E-03    -172.459E-03     347.246E-03    -174.787E-03     96.5505E-03     52.7680E+06     26.2171E+06    -43.3372E+06    -43.3307E+06     26.2107E+06     52.7680E+06     562.010E+03         60.8251
            1306     10.9248E-03     87.9411E-03     271.070E-03     260.542E-03    -891.136E-03     260.541E-03    -891.135E-03     271.070E-03     1.26848E-03     352.944E-03    -174.768E-03    -178.176E-03    -172.763E-03     347.531E-03    -174.768E-03     106.637E-03     62.2330E+06     30.6333E+06    -35.5669E+06    -35.5626E+06     30.6289E+06     62.2330E+06     379.187E+03         63.3007
            1307     11.7659E-03     88.0840E-03     270.304E-03     257.957E-03    -887.262E-03     257.957E-03    -887.262E-03     270.304E-03     283.295E-06     355.839E-03    -174.744E-03    -181.095E-03    -173.811E-03     348.555E-03    -174.744E-03     123.576E-03     69.0716E+06      37.176E+06    -28.6975E+06    -28.6918E+06     37.1703E+06     69.0716E+06     434.352E+03         65.9225
            1308     12.6074E-03     88.2663E-03     269.447E-03     255.180E-03    -883.038E-03     255.179E-03    -883.037E-03     269.447E-03    -278.304E-06     357.274E-03    -174.745E-03    -182.529E-03    -174.736E-03     349.481E-03    -174.745E-03     128.511E-03     77.6798E+06     49.2173E+06    -21.9156E+06    -21.9043E+06     49.2060E+06     77.6798E+06     53.1393E+03         68.5346
            1309     13.4479E-03     88.4250E-03     268.490E-03     252.194E-03    -878.374E-03     252.193E-03    -878.374E-03     268.490E-03    -1.00567E-03     365.783E-03    -174.804E-03    -190.979E-03    -177.738E-03     352.542E-03    -174.804E-03     164.656E-03     97.2928E+06     69.3649E+06    -15.1717E+06    -15.1635E+06     69.3568E+06     97.2928E+06    -408.989E+03         70.9670
            1310     14.2883E-03     88.7108E-03     267.431E-03     248.987E-03    -873.250E-03     248.987E-03    -873.250E-03     267.431E-03    -88.2354E-06     365.799E-03    -174.884E-03    -190.915E-03    -178.057E-03     352.941E-03    -174.884E-03     161.203E-03     124.459E+06     89.9126E+06    -8.22512E+06    -8.22375E+06     89.9112E+06     124.459E+06    -96.7641E+03         73.0718
            1311     839.946E-06     88.7794E-03     282.432E-03     272.882E-03    -911.718E-03     282.234E-03    -911.554E-03     272.916E-03    -10.1236E-03     349.426E-03    -174.279E-03    -175.147E-03    -174.957E-03     349.426E-03    -174.469E-03     223.203E-06    -141.313E+06    -152.800E+06    -321.055E+06    -149.064E+06    -321.041E+06    -145.063E+06    -481.688E+03         50.2708
            1312     1.68090E-03     88.7752E-03     277.602E-03     277.323E-03    -911.318E-03     277.368E-03    -911.290E-03     277.528E-03     5.93230E-03     349.142E-03    -174.407E-03    -174.735E-03    -174.404E-03     349.140E-03    -174.735E-03     1.50739E-03    -130.932E+06    -143.665E+06    -299.639E+06    -143.621E+06    -299.630E+06    -130.985E+06     203.226E+03         50.4184
            1313     2.52007E-03     88.7732E-03     277.383E-03     276.763E-03    -910.593E-03     276.758E-03    -910.588E-03     277.383E-03     748.098E-06     349.110E-03    -174.363E-03    -174.747E-03    -174.352E-03     349.099E-03    -174.747E-03     4.39692E-03    -109.974E+06    -135.876E+06    -269.547E+06    -135.887E+06    -269.536E+06    -109.974E+06     829.002E+03         50.6613
            1314     3.35979E-03     88.7745E-03     277.135E-03     275.966E-03    -909.511E-03     275.962E-03    -909.508E-03     277.135E-03     3.30614E-03     348.913E-03    -174.123E-03    -174.789E-03    -174.081E-03     348.871E-03    -174.789E-03     8.91923E-03    -86.7813E+06    -127.246E+06    -232.354E+06    -127.251E+06    -232.348E+06    -86.7813E+06     720.296E+03         51.0084
            1315     4.20056E-03     88.7831E-03     276.813E-03     274.980E-03    -908.152E-03     274.979E-03    -908.152E-03     276.813E-03     1.07284E-03     349.003E-03    -174.159E-03    -174.844E-03    -174.035E-03     348.879E-03    -174.844E-03     15.6352E-03    -62.8829E+06    -117.013E+06    -190.776E+06    -117.041E+06    -190.748E+06    -62.8829E+06     783.484E+03         51.4735
            1316     5.04020E-03     88.7970E-03     276.418E-03     273.664E-03    -906.365E-03     273.663E-03    -906.364E-03     276.418E-03    -224.687E-06     349.035E-03    -174.112E-03    -174.923E-03    -173.810E-03     348.733E-03    -174.923E-03     24.5830E-03    -38.7331E+06    -106.580E+06    -148.569E+06    -106.639E+06    -148.510E+06    -38.7331E+06     1.18422E+06         52.0789
            1317     5.88006E-03     88.8297E-03     275.946E-03     272.162E-03    -904.255E-03     272.161E-03    -904.254E-03     275.946E-03     347.442E-06     348.568E-03    -173.615E-03    -174.953E-03    -173.007E-03     347.959E-03    -174.953E-03     35.1536E-03    -15.3512E+06    -89.0495E+06    -108.438E+06    -95.5933E+06    -101.894E+06    -15.3512E+06     1.02049E+06         52.8574
            1318     6.71927E-03     88.8729E-03     275.407E-03     270.504E-03    -901.858E-03     270.503E-03    -901.857E-03     275.407E-03     636.586E-06     348.326E-03    -173.414E-03    -174.912E-03    -172.341E-03     347.253E-03    -174.912E-03     46.8426E-03     7.20415E+06    -49.2411E+06    -83.9509E+06    -83.8826E+06    -49.3095E+06     7.20415E+06     1.03971E+06         53.8519
            1319     7.56182E-03     88.9359E-03     274.801E-03     268.586E-03    -899.068E-03     268.585E-03    -899.067E-03     274.801E-03     429.242E-06     348.834E-03    -173.905E-03    -174.929E-03    -172.230E-03     347.085E-03    -174.855E-03     59.9825E-03     25.7801E+06    -3.84233E+06    -72.8907E+06    -72.8597E+06    -3.87334E+06     25.7801E+06     1.29179E+06         55.1102
            1320     8.40282E-03     89.0170E-03     274.121E-03     266.478E-03    -895.932E-03     266.477E-03    -895.932E-03     274.121E-03     1.62467E-03     349.907E-03    -174.583E-03    -175.323E-03    -172.489E-03     347.315E-03    -174.826E-03     73.3167E-03     36.9624E+06     17.2227E+06    -62.4014E+06    -62.3879E+06     17.2092E+06     36.9624E+06     686.261E+03         56.6757
            1321     9.24072E-03     89.1136E-03     273.367E-03     264.178E-03    -892.484E-03     264.177E-03    -892.484E-03     273.367E-03     1.40902E-03     350.760E-03    -174.812E-03    -175.948E-03    -172.434E-03     347.246E-03    -174.812E-03     85.5442E-03     44.3483E+06     22.5074E+06    -52.4240E+06    -52.4190E+06     22.5025E+06     44.3483E+06     273.012E+03         58.5741
            1322     10.0833E-03     89.2253E-03     272.533E-03     261.636E-03    -888.673E-03     261.635E-03    -888.672E-03     272.533E-03     1.79660E-03     351.878E-03    -174.793E-03    -177.085E-03    -172.549E-03     347.343E-03    -174.793E-03     97.3676E-03     52.2965E+06     26.3821E+06    -43.7982E+06    -43.7926E+06     26.3764E+06     52.2965E+06     329.457E+03         60.7962
            1323     10.9249E-03     89.3595E-03     271.612E-03     258.853E-03    -884.483E-03     258.852E-03    -884.483E-03     271.612E-03     1.04210E-03     353.213E-03    -174.790E-03    -178.423E-03    -173.075E-03     347.866E-03    -174.790E-03     106.068E-03     61.7931E+06     30.5323E+06    -35.7632E+06    -35.7589E+06     30.5280E+06     61.7931E+06     320.829E+03         63.2825
            1324     11.7656E-03     89.5005E-03     270.594E-03     255.841E-03    -879.913E-03     255.841E-03    -879.913E-03     270.594E-03     118.074E-06     355.822E-03    -174.783E-03    -181.039E-03    -173.814E-03     348.598E-03    -174.783E-03     122.971E-03     69.7922E+06     37.5722E+06    -28.0390E+06    -28.0339E+06     37.5670E+06     69.7922E+06     410.978E+03         65.9196
            1325     12.6062E-03     89.6839E-03     269.478E-03     252.592E-03    -874.946E-03     252.592E-03    -874.946E-03     269.478E-03    -370.734E-06     356.607E-03    -174.759E-03    -181.847E-03    -174.040E-03     348.799E-03    -174.759E-03     128.464E-03     78.0050E+06     49.1977E+06    -21.1383E+06    -21.1345E+06     49.1939E+06     78.0050E+06     255.164E+03         68.5507
            1326     13.4481E-03     89.8420E-03     268.244E-03     249.093E-03    -869.483E-03     249.093E-03    -869.483E-03     268.244E-03    -1.08289E-03     365.261E-03    -174.778E-03    -190.483E-03    -177.256E-03     352.034E-03    -174.778E-03     164.484E-03     96.9624E+06     68.7244E+06    -14.6723E+06    -14.6624E+06     68.7146E+06     96.9624E+06     346.244E+03         71.0014
            1327     14.2900E-03     90.1295E-03     266.897E-03     245.485E-03    -863.720E-03     245.484E-03    -863.719E-03     266.897E-03    -277.497E-06     366.074E-03    -174.857E-03    -191.217E-03    -178.402E-03     353.259E-03    -174.857E-03     160.940E-03     124.956E+06     90.3358E+06    -7.62616E+06    -7.61633E+06     90.3259E+06     124.956E+06     328.462E+03         73.1183
            1328     840.005E-06     90.1948E-03     283.880E-03     273.956E-03    -908.863E-03     283.587E-03    -908.712E-03     274.099E-03    -9.60265E-03     349.263E-03    -174.021E-03    -175.243E-03    -175.147E-03     349.263E-03    -174.116E-03    -688.360E-06    -141.198E+06    -151.497E+06    -321.199E+06    -147.804E+06    -321.195E+06    -144.896E+06     212.633E+03         50.2555
            1329     1.67962E-03     90.1921E-03     278.722E-03     278.294E-03    -908.000E-03     278.266E-03    -907.973E-03     278.722E-03     5.48724E-03     349.333E-03    -174.512E-03    -174.822E-03    -174.622E-03     349.332E-03    -174.710E-03     768.267E-06    -130.792E+06    -143.419E+06    -299.792E+06    -143.420E+06    -299.790E+06    -130.792E+06    -124.697E+03         50.4029
            1330     2.52021E-03     90.1905E-03     278.473E-03     277.675E-03    -907.156E-03     277.670E-03    -907.150E-03     278.473E-03     507.229E-06     349.094E-03    -174.333E-03    -174.761E-03    -174.324E-03     349.085E-03    -174.761E-03     3.83065E-03    -112.363E+06    -136.189E+06    -270.780E+06    -136.194E+06    -270.776E+06    -112.363E+06     159.096E+03         50.6452
            1331     3.36008E-03     90.1923E-03     278.166E-03     276.777E-03    -905.924E-03     276.774E-03    -905.921E-03     278.166E-03     3.00807E-03     348.813E-03    -174.031E-03    -174.782E-03    -173.992E-03     348.774E-03    -174.782E-03     8.66758E-03    -89.1060E+06    -127.517E+06    -233.960E+06    -127.541E+06    -233.936E+06    -89.1060E+06     1.15731E+06         50.9913
            1332     4.20051E-03     90.1982E-03     277.771E-03     275.531E-03    -904.228E-03     275.530E-03    -904.228E-03     277.771E-03     862.525E-06     348.885E-03    -174.060E-03    -174.825E-03    -173.934E-03     348.759E-03    -174.825E-03     15.6864E-03    -63.1426E+06    -117.063E+06    -191.218E+06    -117.114E+06    -191.167E+06    -63.1426E+06     1.67783E+06         51.4546
            1333     5.03959E-03     90.2193E-03     277.281E-03     274.038E-03    -902.168E-03     274.037E-03    -902.167E-03     277.281E-03    -363.245E-06     349.010E-03    -174.111E-03    -174.899E-03    -173.810E-03     348.709E-03    -174.899E-03     24.6369E-03    -38.1600E+06    -105.790E+06    -148.529E+06    -105.856E+06    -148.463E+06    -38.1600E+06     1.56662E+06         52.0572
            1334     5.87932E-03     90.2445E-03     276.704E-03     272.323E-03    -899.726E-03     272.323E-03    -899.725E-03     276.704E-03     51.7907E-06     348.699E-03    -173.759E-03    -174.940E-03    -173.138E-03     348.078E-03    -174.940E-03     35.4590E-03    -14.8548E+06    -88.1582E+06    -108.435E+06    -94.7258E+06    -101.867E+06    -14.8548E+06     1.27789E+06         52.8319
            1335     6.72148E-03     90.2925E-03     276.038E-03     270.313E-03    -896.839E-03     270.313E-03    -896.839E-03     276.038E-03     358.927E-06     348.580E-03    -173.657E-03    -174.923E-03    -172.548E-03     347.471E-03    -174.923E-03     47.6878E-03     7.62258E+06    -50.0004E+06    -83.8793E+06    -83.7514E+06    -50.1282E+06     7.62258E+06     1.27109E+06         53.8219
            1336     7.55997E-03     90.3517E-03     275.280E-03     268.067E-03    -893.557E-03     268.066E-03    -893.557E-03     275.280E-03     121.668E-06     348.860E-03    -173.985E-03    -174.874E-03    -172.198E-03     347.072E-03    -174.874E-03     60.6477E-03     26.4440E+06    -3.87155E+06    -72.4591E+06    -72.4358E+06    -3.89486E+06     26.4440E+06     1.02572E+06         55.0760
            1337     8.40109E-03     90.4347E-03     274.433E-03     265.647E-03    -889.932E-03     265.646E-03    -889.932E-03     274.433E-03     1.23752E-03     349.218E-03    -174.348E-03    -174.869E-03    -171.826E-03     346.632E-03    -174.806E-03     73.1832E-03     37.3656E+06     18.4404E+06    -61.9810E+06    -61.9729E+06     18.4323E+06     37.3656E+06     527.666E+03         56.6397
            1338     9.24533E-03     90.5301E-03     273.496E-03     262.986E-03    -885.924E-03     262.985E-03    -885.923E-03     273.496E-03     997.449E-06     350.608E-03    -174.655E-03    -175.953E-03    -172.369E-03     347.128E-03    -174.759E-03     85.0912E-03     44.3171E+06     22.8306E+06    -52.5704E+06    -52.5564E+06     22.8165E+06     44.3171E+06     63.3660E+03         58.5400
            1339     10.0840E-03     90.6450E-03     272.462E-03     260.021E-03    -881.469E-03     260.021E-03    -881.468E-03     272.462E-03     1.47555E-03     352.678E-03    -174.781E-03    -177.898E-03    -173.379E-03     348.159E-03    -174.781E-03     97.3304E-03     52.9357E+06     26.3229E+06    -43.8338E+06    -43.8241E+06     26.3132E+06     52.9357E+06    -178.827E+03         60.7671
            1340     10.9231E-03     90.7763E-03     271.326E-03     256.832E-03    -876.643E-03     256.832E-03    -876.643E-03     271.326E-03     770.815E-06     353.738E-03    -174.829E-03    -178.909E-03    -173.574E-03     348.404E-03    -174.829E-03     106.038E-03     61.5894E+06     30.2133E+06    -36.2255E+06    -36.2243E+06     30.2122E+06     61.5894E+06     35.9771E+03         63.2630
            1341     11.7643E-03     90.9182E-03     270.083E-03     253.423E-03    -871.436E-03     253.423E-03    -871.436E-03     270.083E-03    -20.7228E-06     355.593E-03    -174.828E-03    -180.765E-03    -173.575E-03     348.404E-03    -174.828E-03     122.623E-03     68.8068E+06     37.5022E+06    -28.9090E+06    -28.9083E+06     37.5015E+06     68.8068E+06     52.7208E+03         65.9159
            1342     12.6066E-03     91.0995E-03     268.730E-03     249.772E-03    -865.816E-03     249.772E-03    -865.816E-03     268.730E-03    -382.000E-06     356.205E-03    -174.782E-03    -181.423E-03    -173.612E-03     348.395E-03    -174.782E-03     128.418E-03     77.1105E+06     48.5894E+06    -22.3587E+06    -22.3582E+06     48.5889E+06     77.1105E+06     47.5084E+03         68.5664
            1343     13.4488E-03     91.2584E-03     267.245E-03     245.905E-03    -859.720E-03     245.905E-03    -859.720E-03     267.245E-03    -997.560E-06     365.200E-03    -174.784E-03    -190.416E-03    -177.181E-03     351.966E-03    -174.784E-03     164.629E-03     96.3597E+06     68.0770E+06    -15.6941E+06    -15.6844E+06     68.0673E+06     96.3597E+06     406.324E+03         71.0353
            1344     14.2890E-03     91.5483E-03     265.639E-03     241.907E-03    -853.260E-03     241.907E-03    -853.260E-03     265.639E-03    -239.563E-06     365.849E-03    -174.858E-03    -190.991E-03    -178.239E-03     353.098E-03    -174.858E-03     160.401E-03     125.141E+06     90.9473E+06    -7.77536E+06    -7.76504E+06      90.937E+06     125.141E+06     505.837E+03         73.1649
            1345     840.287E-06     91.6130E-03     282.836E-03     274.961E-03    -903.389E-03     282.592E-03    -903.256E-03     275.072E-03    -8.68428E-03     349.451E-03    -174.360E-03    -175.091E-03    -174.870E-03     349.451E-03    -174.580E-03    -315.355E-06    -142.630E+06    -150.158E+06    -321.197E+06    -148.218E+06    -321.195E+06    -144.573E+06     84.0304E+03         50.2403
            1346     1.67970E-03     91.6096E-03     278.717E-03     278.290E-03    -902.522E-03     278.264E-03    -902.496E-03     278.717E-03     5.27379E-03     349.637E-03    -174.705E-03    -174.932E-03    -174.815E-03     349.636E-03    -174.821E-03     1.27796E-03    -131.868E+06    -143.757E+06    -300.663E+06    -143.760E+06    -300.661E+06    -131.868E+06     282.123E+03         50.3874
            1347     2.51913E-03     91.6075E-03     278.443E-03     277.474E-03    -901.440E-03     277.470E-03    -901.435E-03     278.443E-03     288.235E-06     349.246E-03    -174.364E-03    -174.882E-03    -174.356E-03     349.239E-03    -174.882E-03     3.62058E-03    -112.938E+06    -137.576E+06    -271.762E+06    -137.582E+06    -271.756E+06    -112.938E+06     565.488E+03         50.6291
            1348     3.36031E-03     91.6081E-03     278.075E-03     276.441E-03    -900.015E-03     276.438E-03    -900.013E-03     278.075E-03     2.69664E-03     348.980E-03    -174.096E-03    -174.884E-03    -174.057E-03     348.941E-03    -174.884E-03     8.45477E-03    -89.6067E+06    -128.335E+06    -234.722E+06    -128.368E+06    -234.689E+06    -89.6067E+06     630.471E+03         50.9739
            1349     4.19933E-03     91.6182E-03     277.615E-03     275.117E-03    -898.165E-03     275.117E-03    -898.165E-03     277.615E-03     614.970E-06     348.648E-03    -173.765E-03    -174.883E-03    -173.641E-03     348.524E-03    -174.883E-03     15.5952E-03    -64.3269E+06    -117.266E+06    -192.529E+06    -117.299E+06    -192.496E+06    -64.3269E+06     576.697E+03         51.4353
            1350     5.04087E-03     91.6340E-03     277.052E-03     273.425E-03    -895.838E-03     273.425E-03    -895.837E-03     277.052E-03    -707.219E-06     348.298E-03    -173.431E-03    -174.867E-03    -173.122E-03     347.990E-03    -174.867E-03     24.7897E-03    -38.7996E+06    -105.531E+06    -149.464E+06    -105.598E+06    -149.397E+06    -38.7996E+06     1.22941E+06         52.0352
            1351     5.88118E-03     91.6657E-03     276.381E-03     271.488E-03    -893.074E-03     271.487E-03    -893.073E-03     276.381E-03    -238.701E-06     348.542E-03    -173.687E-03    -174.856E-03    -173.064E-03     347.919E-03    -174.856E-03     35.6206E-03    -14.7920E+06    -87.8153E+06    -108.757E+06    -94.5099E+06    -102.062E+06    -14.7920E+06     1.87711E+06         52.8063
            1352     6.71970E-03     91.7068E-03     275.606E-03     269.298E-03    -889.893E-03     269.298E-03    -889.892E-03     275.606E-03     60.6386E-06     348.793E-03    -173.934E-03    -174.860E-03    -172.812E-03     347.672E-03    -174.860E-03     47.9029E-03     8.05340E+06    -49.5153E+06    -83.5390E+06    -83.3680E+06    -49.6863E+06     8.05340E+06     1.61705E+06         53.7917
            1353     7.56229E-03     91.7725E-03     274.726E-03     266.836E-03    -886.262E-03     266.835E-03    -886.261E-03     274.726E-03    -70.5319E-06     349.062E-03    -174.217E-03    -174.845E-03    -172.439E-03     347.284E-03    -174.845E-03     60.5915E-03     26.6640E+06    -3.37437E+06    -72.2223E+06    -72.2043E+06    -3.39236E+06     26.6640E+06     879.483E+03         55.0414
            1354     8.40280E-03     91.8490E-03     273.738E-03     264.097E-03    -882.168E-03     264.097E-03    -882.167E-03     273.738E-03     1.01956E-03     349.692E-03    -174.540E-03    -175.151E-03    -172.354E-03     347.174E-03    -174.820E-03     72.2605E-03     37.7210E+06     19.3626E+06    -61.5499E+06    -61.5418E+06     19.3545E+06     37.7210E+06     353.098E+03         56.6021
            1355     9.24152E-03     91.9479E-03     272.641E-03     261.100E-03    -877.658E-03     261.099E-03    -877.658E-03     272.641E-03     832.282E-06     350.691E-03    -174.704E-03    -175.988E-03    -172.482E-03     347.290E-03    -174.808E-03     84.1485E-03     45.1953E+06     23.8930E+06    -51.7887E+06    -51.7727E+06     23.8770E+06     45.1953E+06        -817.375         58.5026
            1356     10.0833E-03     92.0634E-03     271.432E-03     257.883E-03    -872.760E-03     257.882E-03    -872.760E-03     271.432E-03     1.38987E-03     352.182E-03    -174.812E-03    -177.370E-03    -172.879E-03     347.691E-03    -174.812E-03     96.9092E-03     53.1992E+06     25.9617E+06    -43.5573E+06    -43.5475E+06     25.9519E+06     53.1992E+06    -113.395E+03         60.7360
            1357     10.9242E-03     92.1958E-03     270.113E-03     254.398E-03    -867.444E-03     254.398E-03    -867.443E-03     270.113E-03     720.495E-06     353.493E-03    -174.824E-03    -178.669E-03    -173.261E-03     348.085E-03    -174.824E-03     106.697E-03     61.4191E+06     29.4169E+06    -36.2715E+06    -36.2703E+06     29.4157E+06     61.4191E+06     116.707E+03         63.2447
            1358     11.7643E-03     92.3351E-03     268.674E-03     250.629E-03    -861.672E-03     250.629E-03    -861.672E-03     268.674E-03    -18.5103E-06     355.767E-03    -174.813E-03    -180.954E-03    -173.719E-03     348.532E-03    -174.813E-03     123.127E-03     68.3915E+06     37.3161E+06    -29.4625E+06    -29.4563E+06     37.3098E+06     68.3915E+06     438.495E+03         65.9144
            1359     12.6061E-03     92.5139E-03     267.117E-03     246.709E-03    -855.566E-03     246.709E-03    -855.566E-03     267.117E-03    -352.585E-06     356.749E-03    -174.789E-03    -181.960E-03    -174.102E-03     348.891E-03    -174.789E-03     128.972E-03     77.1726E+06     49.0462E+06    -22.6517E+06    -22.6460E+06     49.0405E+06     77.1726E+06     410.179E+03         68.5832
            1360     13.4471E-03     92.6767E-03     265.414E-03     242.617E-03    -848.996E-03     242.617E-03    -848.996E-03     265.414E-03    -925.635E-06     365.461E-03    -174.812E-03    -190.650E-03    -177.334E-03     352.146E-03    -174.812E-03     165.294E-03     96.9473E+06     68.0578E+06    -15.3882E+06    -15.3863E+06     68.0559E+06     96.9473E+06     97.1306E+03         71.0695
            1361     14.2889E-03     92.9650E-03     263.583E-03     238.329E-03    -841.925E-03     238.328E-03    -841.925E-03     263.583E-03    -140.163E-06     365.468E-03    -174.873E-03    -190.595E-03    -177.801E-03     352.674E-03    -174.873E-03     160.613E-03     125.256E+06     90.5268E+06    -7.83608E+06    -7.83343E+06     90.5241E+06     125.256E+06     218.885E+03         73.2124
            1362     839.615E-06     93.0286E-03     279.972E-03     275.288E-03    -895.267E-03     279.762E-03    -895.152E-03     275.383E-03    -7.97429E-03     349.699E-03    -174.639E-03    -175.060E-03    -174.742E-03     349.699E-03    -174.957E-03     4.66307E-06    -144.021E+06    -151.389E+06    -323.408E+06    -149.449E+06    -323.406E+06    -145.963E+06     593.965E+03         50.2251
            1363     1.67991E-03     93.0281E-03     277.471E-03     277.074E-03    -894.547E-03     277.052E-03    -894.525E-03     277.471E-03     5.12465E-03     349.582E-03    -174.677E-03    -174.905E-03    -174.676E-03     349.581E-03    -174.905E-03     1.21132E-03    -130.562E+06    -144.454E+06    -302.346E+06    -144.466E+06    -302.334E+06    -130.562E+06     1.10618E+06         50.3719
            1364     2.51980E-03     93.0247E-03     277.192E-03     276.138E-03    -893.340E-03     276.135E-03    -893.336E-03     277.192E-03     463.278E-06     349.627E-03    -174.669E-03    -174.957E-03    -174.660E-03     349.617E-03    -174.957E-03     3.87418E-03    -109.808E+06    -136.198E+06    -271.373E+06    -136.217E+06    -271.354E+06    -109.808E+06     875.024E+03         50.6129
            1365     3.35841E-03     93.0262E-03     276.780E-03     274.921E-03    -891.687E-03     274.919E-03    -891.685E-03     276.780E-03     2.56717E-03     349.130E-03    -174.145E-03    -174.985E-03    -174.103E-03     349.088E-03    -174.985E-03     8.81481E-03    -88.0840E+06    -127.025E+06    -234.060E+06    -127.053E+06    -234.032E+06    -88.0840E+06     145.298E+03         50.9563
            1366     4.19993E-03     93.0345E-03     276.261E-03     273.527E-03    -889.696E-03     273.527E-03    -889.696E-03     276.261E-03     575.233E-06     348.419E-03    -173.482E-03    -174.937E-03    -173.358E-03     348.295E-03    -174.937E-03     15.5923E-03    -64.7804E+06    -117.295E+06    -193.323E+06    -117.316E+06    -193.301E+06    -64.7804E+06     298.499E+03         51.4156
            1367     5.03973E-03     93.0508E-03     275.637E-03     271.752E-03    -887.223E-03     271.751E-03    -887.222E-03     275.637E-03    -797.168E-06     348.069E-03    -173.203E-03    -174.866E-03    -172.906E-03     347.772E-03    -174.866E-03     24.3619E-03    -40.4406E+06    -106.705E+06    -151.043E+06    -106.759E+06    -150.990E+06    -40.4406E+06     601.768E+03         52.0125
            1368     5.88109E-03     93.0817E-03     274.896E-03     269.704E-03    -884.275E-03     269.703E-03    -884.274E-03     274.896E-03    -301.193E-06     348.311E-03    -173.486E-03    -174.825E-03    -172.871E-03     347.696E-03    -174.825E-03     35.3158E-03    -15.9751E+06    -88.9420E+06    -109.330E+06    -94.8551E+06    -103.417E+06    -15.9751E+06     1.22631E+06         52.7796
            1369     6.72241E-03     93.1274E-03     274.039E-03     267.374E-03    -880.866E-03     267.374E-03    -880.866E-03     274.039E-03    -28.5346E-06     349.066E-03    -174.184E-03    -174.882E-03    -173.146E-03     347.987E-03    -174.841E-03     47.1034E-03     7.65050E+06    -49.1760E+06    -83.4102E+06    -83.2657E+06    -49.3205E+06     7.65050E+06     1.59703E+06         53.7603
            1370     7.56064E-03     93.1877E-03     273.063E-03     264.742E-03    -876.972E-03     264.742E-03    -876.971E-03     273.063E-03    -136.979E-06     349.307E-03    -174.396E-03    -174.911E-03    -172.735E-03     347.604E-03    -174.869E-03     59.2640E-03     26.9862E+06    -1.96704E+06    -72.2518E+06    -72.2302E+06    -1.98860E+06     26.9862E+06     939.543E+03         55.0053
            1371     8.40079E-03     93.2697E-03     271.963E-03     261.811E-03    -872.560E-03     261.811E-03    -872.560E-03     271.963E-03     998.082E-06     349.894E-03    -174.594E-03    -175.300E-03    -172.488E-03     347.356E-03    -174.869E-03     72.4858E-03     38.5073E+06     20.0679E+06    -61.6713E+06    -61.6642E+06     20.0607E+06     38.5073E+06     272.910E+03         56.5630
            1372     9.24184E-03     93.3651E-03     270.737E-03     258.569E-03    -867.673E-03     258.569E-03    -867.673E-03     270.737E-03     834.014E-06     350.964E-03    -174.861E-03    -176.103E-03    -172.613E-03     347.473E-03    -174.861E-03     85.2906E-03     45.2469E+06     23.7414E+06    -52.6082E+06    -52.5982E+06     23.7313E+06     45.2469E+06     243.041E+03         58.4642
            1373     10.0826E-03     93.4798E-03     269.382E-03     255.085E-03    -862.363E-03     255.085E-03    -862.362E-03     269.382E-03     1.32082E-03     351.709E-03    -174.840E-03    -176.869E-03    -172.333E-03     347.173E-03    -174.840E-03     97.3219E-03     52.7969E+06     25.3192E+06    -44.2979E+06    -44.2891E+06     25.3104E+06     52.7969E+06     392.834E+03         60.7042
            1374     10.9245E-03     93.6126E-03     267.905E-03     251.367E-03    -856.646E-03     251.366E-03    -856.646E-03     267.905E-03     717.528E-06     352.510E-03    -174.793E-03    -177.717E-03    -172.316E-03     347.109E-03    -174.793E-03     106.445E-03      61.394E+06     28.5620E+06    -36.5386E+06    -36.5316E+06     28.5550E+06      61.394E+06     241.958E+03         63.2268
            1375     11.7667E-03     93.7531E-03     266.298E-03     247.422E-03    -850.527E-03     247.422E-03    -850.527E-03     266.298E-03    -28.4948E-06     355.678E-03    -174.748E-03    -180.930E-03    -173.656E-03     348.404E-03    -174.748E-03     123.411E-03     69.2765E+06     37.2543E+06    -28.7286E+06    -28.7213E+06     37.2470E+06     69.2765E+06     256.753E+03         65.9150
            1376     12.6065E-03     93.9320E-03     264.568E-03     243.320E-03    -844.059E-03     243.320E-03    -844.059E-03     264.568E-03    -444.833E-06     357.605E-03    -174.747E-03    -182.858E-03    -174.888E-03     349.636E-03    -174.747E-03     130.090E-03     78.3497E+06     50.1997E+06    -21.4244E+06    -21.4146E+06     50.1899E+06     78.3497E+06     572.108E+03         68.6026
            1377     13.4476E-03     94.0939E-03     262.679E-03     239.018E-03    -837.084E-03     239.017E-03    -837.083E-03     262.679E-03    -1.00552E-03     365.795E-03    -174.803E-03    -190.992E-03    -177.615E-03     352.418E-03    -174.803E-03     165.876E-03     97.7852E+06     68.7553E+06    -14.7069E+06    -14.7010E+06     68.7494E+06     97.7852E+06     581.984E+03         71.1059
            1378     14.2893E-03     94.3815E-03     260.652E-03     234.576E-03    -829.711E-03     234.576E-03    -829.711E-03     260.652E-03    -103.208E-06     365.459E-03    -174.872E-03    -190.586E-03    -177.778E-03     352.650E-03    -174.872E-03     160.722E-03     125.558E+06     90.3094E+06    -7.76248E+06    -7.76062E+06     90.3075E+06     125.558E+06     303.306E+03         73.2615
            1379     839.564E-06     94.4478E-03     276.242E-03     273.754E-03    -884.501E-03     275.102E-03    -884.407E-03     274.800E-03    -7.36126E-03     349.765E-03    -174.614E-03    -175.151E-03    -175.052E-03     349.764E-03    -174.712E-03     429.403E-06    -144.480E+06    -150.223E+06    -323.431E+06    -149.188E+06    -323.428E+06    -145.518E+06    -87.7076E+03         50.2096
            1380     1.67925E-03     94.4440E-03     274.843E-03     274.409E-03    -883.729E-03     274.392E-03    -883.712E-03     274.843E-03     4.46756E-03     349.636E-03    -174.669E-03    -174.968E-03    -174.704E-03     349.635E-03    -174.931E-03     1.58951E-03    -130.857E+06    -142.726E+06    -302.628E+06    -142.746E+06    -302.608E+06    -130.857E+06    -221.738E+03         50.3560
            1381     2.51935E-03     94.4433E-03     274.567E-03     273.574E-03    -882.632E-03     273.571E-03    -882.629E-03     274.567E-03     392.148E-06     349.386E-03    -174.444E-03    -174.941E-03    -174.434E-03     349.375E-03    -174.941E-03     4.26275E-03    -111.066E+06    -135.338E+06    -272.689E+06    -135.387E+06    -272.640E+06    -111.066E+06     611.048E+03         50.5963
            1382     3.35978E-03     94.4444E-03     274.166E-03     272.332E-03    -880.964E-03     272.330E-03    -880.962E-03     274.166E-03     2.16657E-03     349.053E-03    -174.113E-03    -174.940E-03    -174.070E-03     349.010E-03    -174.940E-03     9.01642E-03    -87.8677E+06    -126.773E+06    -233.791E+06    -126.815E+06    -233.748E+06    -87.8677E+06     1.12414E+06         50.9384
            1383     4.19941E-03     94.4499E-03     273.636E-03     270.834E-03    -878.862E-03     270.834E-03    -878.862E-03     273.636E-03     316.196E-06     348.793E-03    -173.857E-03    -174.936E-03    -173.730E-03     348.665E-03    -174.936E-03     15.8235E-03    -63.7808E+06    -117.020E+06    -193.188E+06    -117.033E+06    -193.175E+06    -63.7808E+06     624.604E+03         51.3954
            1384     5.04043E-03     94.4695E-03     272.980E-03     268.993E-03    -876.278E-03     268.993E-03    -876.277E-03     272.980E-03    -1.00806E-03     348.723E-03    -173.781E-03    -174.942E-03    -173.496E-03     348.438E-03    -174.942E-03     24.0242E-03    -40.3501E+06    -106.327E+06    -151.711E+06    -106.370E+06    -151.668E+06    -40.3501E+06     449.268E+03         51.9888
            1385     5.88034E-03     94.4968E-03     272.194E-03     266.892E-03    -873.210E-03     266.892E-03    -873.209E-03     272.194E-03    -573.159E-06     348.618E-03    -173.669E-03    -174.950E-03    -173.080E-03     348.029E-03    -174.950E-03     34.4802E-03    -16.6573E+06    -89.8337E+06    -110.389E+06    -95.1782E+06    -105.044E+06    -16.6573E+06     914.309E+03         52.7514
            1386     6.71980E-03     94.5469E-03     271.276E-03     264.433E-03    -869.600E-03     264.433E-03    -869.600E-03     271.276E-03    -321.089E-06     348.547E-03    -173.579E-03    -174.968E-03    -172.547E-03     347.474E-03    -174.927E-03     46.8746E-03     7.03719E+06    -49.2607E+06    -83.8522E+06    -83.7579E+06    -49.3551E+06     7.03719E+06     1.22823E+06         53.7274
            1387     7.56018E-03     94.6073E-03     270.221E-03     261.673E-03    -865.493E-03     261.673E-03    -865.492E-03     270.221E-03    -468.957E-06     349.023E-03    -174.037E-03    -174.986E-03    -172.379E-03     347.269E-03    -174.890E-03     60.0563E-03     26.7348E+06    -1.29163E+06    -72.8789E+06    -72.8542E+06    -1.31633E+06     26.7348E+06     1.18120E+06         54.9685
            1388     8.40188E-03     94.6847E-03     269.030E-03     258.674E-03    -860.931E-03     258.673E-03    -860.930E-03     269.030E-03     621.335E-06     349.757E-03    -174.647E-03    -175.109E-03    -172.299E-03     347.156E-03    -174.857E-03     73.4238E-03     37.9628E+06     19.8961E+06    -62.6906E+06    -62.6733E+06     19.8788E+06     37.9628E+06     1.07246E+06         56.5241
            1389     9.24271E-03     94.7848E-03     267.703E-03     255.328E-03    -855.839E-03     255.328E-03    -855.838E-03     267.703E-03     475.968E-06     350.520E-03    -174.821E-03    -175.699E-03    -172.184E-03     347.005E-03    -174.821E-03     85.5257E-03     44.6938E+06     23.7951E+06    -53.5932E+06    -53.5847E+06     23.7865E+06     44.6938E+06     562.273E+03         58.4271
            1390     10.0828E-03     94.8967E-03     266.235E-03     251.680E-03    -850.251E-03     251.680E-03    -850.251E-03     266.235E-03     941.789E-06     351.625E-03    -174.782E-03    -176.843E-03    -172.235E-03     347.017E-03    -174.782E-03     98.0452E-03     52.8795E+06     25.5011E+06    -44.8394E+06    -44.8269E+06     25.4886E+06     52.8795E+06    -39.2287E+03         60.6742
            1391     10.9243E-03     95.0279E-03     264.636E-03     247.852E-03    -844.316E-03     247.851E-03    -844.315E-03     264.636E-03     364.405E-06     352.673E-03    -174.742E-03    -177.931E-03    -172.456E-03     347.198E-03    -174.742E-03     107.211E-03     62.4995E+06     28.8017E+06    -35.9834E+06    -35.9709E+06     28.7891E+06     62.4995E+06    -213.152E+03         63.2091
            1392     11.7665E-03     95.1685E-03     262.899E-03     243.823E-03    -837.978E-03     243.823E-03    -837.978E-03     262.899E-03    -276.402E-06     355.826E-03    -174.709E-03    -181.118E-03    -173.839E-03     348.548E-03    -174.709E-03     123.508E-03      69.762E+06     36.7023E+06    -28.4240E+06    -28.4223E+06     36.7006E+06      69.762E+06    -121.130E+03         65.9144
            1393     12.6084E-03     95.3520E-03     261.033E-03     239.579E-03    -831.226E-03     239.579E-03    -831.226E-03     261.033E-03    -592.647E-06     357.479E-03    -174.717E-03    -182.761E-03    -174.923E-03     349.640E-03    -174.717E-03     128.944E-03     78.1230E+06     49.5243E+06    -21.6562E+06    -21.6498E+06     49.5180E+06     78.1230E+06     483.839E+03         68.6215
            1394     13.4481E-03     95.5118E-03     258.996E-03     235.163E-03    -824.013E-03     235.162E-03    -824.013E-03     258.996E-03    -1.06585E-03     365.710E-03    -174.784E-03    -190.926E-03    -177.715E-03     352.499E-03    -174.784E-03     164.589E-03     97.4178E+06     68.7303E+06    -15.0858E+06    -15.0783E+06     68.7228E+06     97.4178E+06     735.816E+03         71.1430
            1395     14.2891E-03     95.7982E-03     256.818E-03     230.714E-03    -816.530E-03     230.714E-03    -816.530E-03     256.818E-03    -169.448E-06     365.599E-03    -174.867E-03    -190.732E-03    -177.982E-03     352.849E-03    -174.867E-03     160.404E-03     125.399E+06     90.9160E+06    -7.83815E+06    -7.83462E+06     90.9124E+06     125.399E+06     449.860E+03         73.3113
            1396     840.371E-06     95.8638E-03     273.348E-03     268.466E-03    -870.833E-03     268.393E-03    -870.760E-03     273.348E-03    -6.20330E-03     349.695E-03    -174.631E-03    -175.064E-03    -174.966E-03     349.694E-03    -174.728E-03    -137.061E-06    -142.457E+06    -146.587E+06    -321.384E+06    -145.558E+06    -321.375E+06    -143.496E+06    -370.652E+03         50.1934
            1397     1.68001E-03     95.8630E-03     270.763E-03     270.322E-03    -870.017E-03     270.308E-03    -870.003E-03     270.763E-03     3.98152E-03     349.507E-03    -174.592E-03    -174.916E-03    -174.627E-03     349.506E-03    -174.878E-03     1.58339E-03    -131.577E+06    -142.851E+06    -303.696E+06    -142.872E+06    -303.675E+06    -131.577E+06        -762.969         50.3394
            1398     2.51947E-03     95.8599E-03     270.501E-03     269.589E-03    -869.030E-03     269.587E-03    -869.027E-03     270.501E-03     176.320E-06     349.185E-03    -174.314E-03    -174.871E-03    -174.304E-03     349.175E-03    -174.871E-03     4.21686E-03    -112.419E+06    -136.327E+06    -274.763E+06    -136.375E+06    -274.715E+06    -112.419E+06     535.544E+03         50.5790
            1399     3.36015E-03     95.8608E-03     270.140E-03     268.538E-03    -867.572E-03     268.537E-03    -867.571E-03     270.140E-03     1.76390E-03     349.161E-03    -174.276E-03    -174.885E-03    -174.235E-03     349.121E-03    -174.885E-03     8.73385E-03    -88.5736E+06    -126.958E+06    -234.265E+06    -127.008E+06    -234.216E+06    -88.5736E+06     1.20298E+06         50.9199
            1400     4.19996E-03     95.8695E-03     269.649E-03     267.043E-03    -865.515E-03     267.043E-03    -865.515E-03     269.649E-03     19.8430E-06     349.256E-03    -174.301E-03    -174.955E-03    -174.179E-03     349.134E-03    -174.955E-03     15.4807E-03    -63.6243E+06    -117.146E+06    -193.200E+06    -117.175E+06    -193.171E+06    -63.6243E+06     1.02560E+06         51.3746
            1401     5.03888E-03     95.8858E-03     269.006E-03     265.153E-03    -862.882E-03     265.152E-03    -862.881E-03     269.006E-03    -1.37177E-03     349.215E-03    -174.181E-03    -175.034E-03    -173.877E-03     348.911E-03    -175.034E-03     24.5963E-03    -39.3547E+06    -106.481E+06    -151.980E+06    -106.533E+06    -151.928E+06    -39.3547E+06     1.03860E+06         51.9646
            1402     5.87803E-03     95.9182E-03     268.205E-03     262.930E-03    -859.696E-03     262.930E-03    -859.696E-03     268.205E-03    -885.606E-06     348.730E-03    -173.674E-03    -175.055E-03    -173.057E-03     348.113E-03    -175.055E-03     35.3965E-03    -16.0717E+06    -90.0811E+06    -110.728E+06    -95.4701E+06    -105.339E+06    -16.0717E+06     985.360E+03         52.7228
            1403     6.71954E-03     95.9609E-03     267.250E-03     260.434E-03    -856.025E-03     260.433E-03    -856.024E-03     267.250E-03    -743.323E-06     347.831E-03    -172.865E-03    -174.966E-03    -171.750E-03     346.717E-03    -174.966E-03     47.6540E-03     6.65576E+06    -50.5728E+06    -84.0425E+06    -83.9961E+06    -50.6192E+06     6.65576E+06     1.13377E+06         53.6945
            1404     7.56291E-03     96.0243E-03     266.143E-03     257.660E-03    -851.846E-03     257.659E-03    -851.845E-03     266.143E-03    -866.398E-06     348.348E-03    -173.454E-03    -174.894E-03    -171.702E-03     346.541E-03    -174.839E-03     60.9527E-03     26.6429E+06    -2.05201E+06    -72.8205E+06    -72.7787E+06    -2.09389E+06     26.6429E+06     1.68449E+06         54.9322
            1405     8.40151E-03     96.1047E-03     264.887E-03     254.578E-03    -847.138E-03     254.578E-03    -847.138E-03     264.887E-03     168.064E-06     349.662E-03    -174.559E-03    -175.102E-03    -172.272E-03     347.045E-03    -174.773E-03     73.6712E-03     38.3354E+06     20.4719E+06    -62.7066E+06    -62.6826E+06     20.4479E+06     38.3354E+06     1.36265E+06         56.4861
            1406     9.24228E-03     96.1996E-03     263.488E-03     251.264E-03    -842.009E-03     251.264E-03    -842.009E-03     263.488E-03     87.7305E-06     350.258E-03    -174.737E-03    -175.521E-03    -172.008E-03     346.745E-03    -174.737E-03     85.4694E-03     45.7575E+06     25.1207E+06    -52.9678E+06    -52.9612E+06     25.1141E+06     45.7575E+06     500.388E+03         58.3906
            1407     10.0859E-03     96.3136E-03     261.948E-03     247.683E-03    -836.423E-03     247.683E-03    -836.423E-03     261.948E-03     641.222E-06     351.341E-03    -174.693E-03    -176.648E-03    -172.097E-03     346.790E-03    -174.693E-03     97.4211E-03     53.9192E+06     27.2014E+06    -44.3332E+06    -44.3255E+06     27.1937E+06     53.9192E+06    -279.427E+03         60.6447
            1408     10.9268E-03     96.4452E-03     260.272E-03     243.833E-03    -830.382E-03     243.833E-03    -830.382E-03     260.272E-03     66.9317E-06     353.399E-03    -174.684E-03    -178.715E-03    -173.277E-03     347.961E-03    -174.684E-03     106.975E-03     62.2859E+06     29.1372E+06    -36.7172E+06    -36.7079E+06     29.1279E+06     62.2859E+06    -537.405E+03         63.1911
            1409     11.7665E-03     96.5864E-03     258.448E-03     239.764E-03    -823.920E-03     239.764E-03    -823.920E-03     258.448E-03    -510.374E-06     356.551E-03    -174.715E-03    -181.836E-03    -174.599E-03     349.314E-03    -174.715E-03     123.368E-03     69.3089E+06     35.9821E+06    -29.5088E+06    -29.5058E+06     35.9791E+06     69.3089E+06    -159.570E+03         65.9116
            1410     12.6055E-03     96.7700E-03     256.493E-03     235.543E-03    -817.112E-03     235.543E-03    -817.111E-03     256.493E-03    -725.292E-06     357.137E-03    -174.741E-03    -182.396E-03    -174.603E-03     349.344E-03    -174.741E-03     128.522E-03     77.0754E+06     48.2484E+06    -23.2268E+06    -23.2248E+06     48.2465E+06     77.0754E+06     290.115E+03         68.6382
            1411     13.4481E-03     96.9282E-03     254.358E-03     231.188E-03    -809.859E-03     231.188E-03    -809.859E-03     254.358E-03    -1.16275E-03     365.415E-03    -174.785E-03    -190.630E-03    -177.406E-03     352.191E-03    -174.785E-03     164.628E-03     96.2363E+06     67.9090E+06    -16.3108E+06    -16.3082E+06     67.9064E+06     96.2363E+06     344.113E+03         71.1795
            1412     14.2890E-03     97.2175E-03     252.080E-03     226.799E-03    -802.297E-03     226.799E-03    -802.296E-03     252.080E-03    -337.375E-06     365.507E-03    -174.859E-03    -190.648E-03    -177.905E-03     352.764E-03    -174.859E-03     160.317E-03     125.301E+06     91.4641E+06    -8.09462E+06    -8.09170E+06     91.4612E+06     125.301E+06     260.717E+03         73.3619
            1413     838.980E-06     97.2823E-03     270.407E-03     260.601E-03    -854.363E-03     260.545E-03    -854.308E-03     270.407E-03    -5.41897E-03     349.949E-03    -174.350E-03    -175.599E-03    -175.329E-03     349.948E-03    -174.619E-03    -139.550E-06    -142.887E+06    -147.785E+06    -323.594E+06    -147.251E+06    -323.579E+06    -143.436E+06     807.621E+03         50.1762
            1414     1.67940E-03     97.2791E-03     265.398E-03     265.030E-03    -853.756E-03     265.020E-03    -853.746E-03     265.398E-03     3.60435E-03     349.350E-03    -174.403E-03    -174.947E-03    -174.402E-03     349.349E-03    -174.947E-03     998.248E-06    -129.833E+06    -143.579E+06    -305.128E+06    -143.595E+06    -305.112E+06    -129.833E+06     1.53335E+06         50.3220
            1415     2.52037E-03     97.2772E-03     265.164E-03     264.299E-03    -852.840E-03     264.298E-03    -852.839E-03     265.164E-03     211.858E-06     349.381E-03    -174.484E-03    -174.897E-03    -174.475E-03     349.372E-03    -174.897E-03     3.91933E-03    -109.450E+06    -135.468E+06    -274.168E+06    -135.487E+06    -274.149E+06    -109.450E+06     887.648E+03         50.5610
            1416     3.35917E-03     97.2789E-03     264.817E-03     263.290E-03    -851.425E-03     263.289E-03    -851.424E-03     264.817E-03     1.57510E-03     349.347E-03    -174.407E-03    -174.940E-03    -174.366E-03     349.306E-03    -174.940E-03     8.79021E-03    -87.5156E+06    -125.943E+06    -236.050E+06    -125.969E+06    -236.024E+06    -87.5156E+06     576.792E+03         50.9006
            1417     4.19898E-03     97.2873E-03     264.342E-03     261.902E-03    -849.504E-03     261.902E-03    -849.504E-03     264.342E-03    -41.6987E-06     349.127E-03    -174.134E-03    -174.993E-03    -174.002E-03     348.995E-03    -174.993E-03     16.0619E-03    -63.0813E+06    -115.871E+06    -194.243E+06    -115.935E+06    -194.178E+06    -63.0813E+06     1.73577E+06         51.3534
            1418     5.03938E-03     97.3050E-03     263.714E-03     260.058E-03    -846.938E-03     260.057E-03    -846.937E-03     263.714E-03    -1.56397E-03     348.787E-03    -173.769E-03    -175.018E-03    -173.446E-03     348.464E-03    -175.018E-03     25.4047E-03    -38.0752E+06    -105.497E+06    -152.017E+06    -105.598E+06    -151.915E+06    -38.0752E+06     1.94424E+06         51.9406
            1419     5.88044E-03     97.3353E-03     262.922E-03     257.896E-03    -843.825E-03     257.895E-03    -843.824E-03     262.922E-03    -1.10341E-03     348.129E-03    -173.157E-03    -174.973E-03    -172.526E-03     347.499E-03    -174.973E-03     35.8101E-03    -14.8462E+06    -89.1230E+06    -111.278E+06    -94.9828E+06    -105.418E+06    -14.8462E+06     1.54523E+06         52.6954
            1420     6.72093E-03     97.3774E-03     261.965E-03     255.434E-03    -840.191E-03     255.433E-03    -840.191E-03     261.965E-03    -1.05800E-03     348.128E-03    -173.247E-03    -174.881E-03    -172.119E-03     347.000E-03    -174.881E-03     47.9559E-03     7.61488E+06    -51.2572E+06    -84.2409E+06    -84.1003E+06    -51.3978E+06     7.61488E+06     1.51821E+06         53.6627
            1421     7.56046E-03     97.4398E-03     260.840E-03     252.679E-03    -836.013E-03     252.679E-03    -836.012E-03     260.840E-03    -1.09879E-03     348.410E-03    -173.621E-03    -174.788E-03    -171.810E-03     346.598E-03    -174.788E-03     61.0626E-03     26.8362E+06    -2.97852E+06    -72.8750E+06    -72.8378E+06    -3.01572E+06     26.8362E+06     1.55927E+06         54.8960
            1422     8.40422E-03     97.5223E-03     259.555E-03     249.666E-03    -831.342E-03     249.666E-03    -831.342E-03     259.555E-03    -129.305E-06     348.889E-03    -174.012E-03    -174.877E-03    -171.605E-03     346.305E-03    -174.699E-03     73.1153E-03     39.0025E+06     21.7799E+06    -61.8875E+06    -61.8677E+06     21.7601E+06     39.0025E+06     1.24009E+06         56.4479
            1423     9.24501E-03     97.6171E-03     258.123E-03     246.414E-03    -826.250E-03     246.414E-03    -826.250E-03     258.123E-03    -243.513E-06     350.348E-03    -174.515E-03    -175.833E-03    -172.227E-03     346.878E-03    -174.650E-03     84.9668E-03     46.5116E+06     26.0941E+06    -52.3895E+06    -52.3804E+06     26.0851E+06     46.5116E+06     633.036E+03         58.3540
            1424     10.0837E-03     97.7296E-03     256.545E-03     242.944E-03    -820.740E-03     242.944E-03    -820.740E-03     256.545E-03     314.955E-06     352.187E-03    -174.664E-03    -177.522E-03    -173.055E-03     347.719E-03    -174.664E-03     96.7278E-03     54.5844E+06     28.2843E+06    -44.3168E+06    -44.3105E+06     28.2781E+06     54.5844E+06     406.907E+03         60.6129
            1425     10.9256E-03     97.8614E-03     254.827E-03     239.209E-03    -814.775E-03     239.209E-03    -814.774E-03     254.827E-03    -212.044E-06     353.689E-03    -174.712E-03    -178.976E-03    -173.611E-03     348.323E-03    -174.712E-03     106.314E-03     62.8303E+06     30.3478E+06    -37.1022E+06    -37.0971E+06     30.3427E+06     62.8303E+06     132.969E+03         63.1698
            1426     11.7651E-03     98.0087E-03     252.959E-03     235.249E-03    -808.375E-03     235.249E-03    -808.374E-03     252.959E-03    -806.837E-06     356.163E-03    -174.740E-03    -181.423E-03    -174.211E-03     348.951E-03    -174.740E-03     123.079E-03     68.8789E+06     35.8825E+06    -30.1438E+06    -30.1405E+06     35.8792E+06     68.8789E+06    -67.1672E+03         65.9078
            1427     12.6076E-03     98.1838E-03     250.962E-03     231.210E-03    -801.710E-03     231.209E-03    -801.709E-03     250.962E-03    -1.00085E-03     357.057E-03    -174.747E-03    -182.309E-03    -174.472E-03     349.220E-03    -174.747E-03     128.904E-03     76.8825E+06     47.4807E+06    -23.0979E+06    -23.0974E+06     47.4802E+06     76.8825E+06         757.597         68.6556
            1428     13.4480E-03     98.3482E-03     248.782E-03     227.062E-03    -794.618E-03     227.062E-03    -794.618E-03     248.782E-03    -1.33027E-03     365.252E-03    -174.781E-03    -190.470E-03    -177.196E-03     351.977E-03    -174.781E-03     165.042E-03     96.3713E+06     67.1734E+06    -16.1363E+06    -16.1359E+06     67.1730E+06     96.3713E+06    -38.0009E+03         71.2167
            1429     14.2896E-03     98.6325E-03     246.457E-03     222.810E-03    -787.121E-03     222.810E-03    -787.121E-03     246.457E-03    -337.605E-06     365.334E-03    -174.842E-03    -190.491E-03    -177.742E-03     352.584E-03    -174.842E-03     160.355E-03     125.046E+06     91.1209E+06    -8.54665E+06    -8.54614E+06     91.1204E+06     125.046E+06    -187.621E+03         73.4133
            1430     839.855E-06     98.7005E-03     265.911E-03     251.827E-03    -835.593E-03     251.791E-03    -835.556E-03     265.911E-03    -4.37530E-03     349.671E-03    -173.970E-03    -175.701E-03    -175.528E-03     349.670E-03    -174.142E-03    -75.2079E-06    -144.002E+06    -149.670E+06    -327.071E+06    -148.645E+06    -327.057E+06    -145.039E+06     1.41565E+06         50.1585
            1431     1.67968E-03     98.6955E-03     258.803E-03     258.527E-03    -835.089E-03     258.521E-03    -835.082E-03     258.803E-03     2.86699E-03     349.687E-03    -174.610E-03    -175.077E-03    -174.771E-03     349.685E-03    -174.914E-03     1.50608E-03    -128.781E+06    -142.583E+06    -305.500E+06    -142.593E+06    -305.490E+06    -128.781E+06     1.18188E+06         50.3040
            1432     2.51885E-03     98.6951E-03     258.602E-03     257.796E-03    -834.181E-03     257.795E-03    -834.181E-03     258.602E-03     96.8562E-06     349.510E-03    -174.522E-03    -174.988E-03    -174.538E-03     349.499E-03    -174.960E-03     4.49704E-03    -109.230E+06    -134.713E+06    -274.432E+06    -134.729E+06    -274.416E+06    -109.230E+06     1.32738E+06         50.5425
            1433     3.35943E-03     98.6971E-03     258.267E-03     256.775E-03    -832.752E-03     256.775E-03    -832.752E-03     258.267E-03     1.09366E-03     349.159E-03    -174.180E-03    -174.979E-03    -174.137E-03     349.115E-03    -174.979E-03     9.06749E-03    -86.7270E+06    -126.589E+06    -237.557E+06    -126.623E+06    -237.522E+06    -86.7270E+06     1.52632E+06         50.8812
            1434     4.19996E-03     98.7040E-03     257.796E-03     255.427E-03    -830.898E-03     255.427E-03    -830.898E-03     257.796E-03    -231.334E-06     348.673E-03    -173.714E-03    -174.958E-03    -173.576E-03     348.535E-03    -174.958E-03     16.3592E-03    -62.7598E+06    -116.401E+06    -195.810E+06    -116.464E+06    -195.747E+06    -62.7598E+06     1.69146E+06         51.3324
            1435     5.03987E-03     98.7237E-03     257.179E-03     253.747E-03    -828.516E-03     253.747E-03    -828.515E-03     257.179E-03    -1.77057E-03     348.103E-03    -173.198E-03    -174.904E-03    -172.887E-03     347.791E-03    -174.904E-03     25.0915E-03    -37.9258E+06    -104.969E+06    -153.145E+06    -105.112E+06    -153.003E+06    -37.9258E+06     2.34397E+06         51.9173
            1436     5.88045E-03     98.7501E-03     256.409E-03     251.778E-03    -825.624E-03     251.777E-03    -825.623E-03     256.409E-03    -1.29508E-03     348.112E-03    -173.269E-03    -174.843E-03    -172.657E-03     347.500E-03    -174.843E-03     35.2318E-03    -13.7543E+06    -88.5872E+06    -110.635E+06    -93.8039E+06    -105.418E+06    -13.7543E+06     2.31512E+06         52.6686
            1437     6.72196E-03     98.7955E-03     255.473E-03     249.436E-03    -822.132E-03     249.435E-03    -822.132E-03     255.473E-03    -1.28837E-03     348.471E-03    -173.666E-03    -174.806E-03    -172.570E-03     347.375E-03    -174.806E-03     47.3554E-03     9.08924E+06    -51.2278E+06    -82.8567E+06    -82.5983E+06    -51.4863E+06     9.08924E+06     2.10694E+06         53.6313
            1438     7.56267E-03     98.8582E-03     254.364E-03     246.809E-03    -818.104E-03     246.808E-03    -818.103E-03     254.364E-03    -1.39444E-03     348.471E-03    -173.715E-03    -174.755E-03    -171.940E-03     346.695E-03    -174.755E-03     60.3961E-03     27.9346E+06    -2.61529E+06    -72.0195E+06    -71.9445E+06    -2.69031E+06     27.9346E+06     1.98768E+06         54.8600
            1439     8.40196E-03     98.9359E-03     253.088E-03     243.950E-03    -813.613E-03     243.950E-03    -813.613E-03     253.088E-03    -489.014E-06     348.880E-03    -174.022E-03    -174.858E-03    -171.637E-03     346.313E-03    -174.676E-03     72.8786E-03     39.4294E+06     22.4391E+06    -61.7774E+06    -61.7519E+06     22.4136E+06     39.4294E+06     1.40162E+06         56.4091
            1440     9.24441E-03     99.0346E-03     251.655E-03     240.811E-03    -808.627E-03     240.811E-03    -808.627E-03     251.655E-03    -610.708E-06     350.458E-03    -174.503E-03    -175.955E-03    -172.385E-03     347.023E-03    -174.638E-03     84.5602E-03     46.6371E+06     26.4543E+06    -52.6166E+06    -52.5995E+06     26.4372E+06     46.6371E+06     1.13936E+06         58.3157
            1441     10.0861E-03     99.1487E-03     250.068E-03     237.457E-03    -803.223E-03     237.457E-03    -803.223E-03     250.068E-03    -170.437E-06     352.677E-03    -174.677E-03    -177.999E-03    -173.495E-03     348.172E-03    -174.677E-03     97.1576E-03     54.6967E+06     28.2136E+06    -44.1678E+06    -44.1524E+06     28.1983E+06     54.6967E+06     1.02661E+06         60.5798
            1442     10.9232E-03     99.2818E-03     248.346E-03     233.986E-03    -797.531E-03     233.985E-03    -797.531E-03     248.346E-03    -614.990E-06     353.798E-03    -174.742E-03    -179.056E-03    -173.616E-03     348.358E-03    -174.742E-03     107.078E-03     63.6258E+06     30.7796E+06    -35.9003E+06    -35.8882E+06     30.7675E+06     63.6258E+06     836.470E+03         63.1482
            1443     11.7665E-03     99.4215E-03     246.481E-03     230.348E-03    -791.471E-03     230.348E-03    -791.471E-03     246.481E-03    -1.10051E-03     355.860E-03    -174.754E-03    -181.106E-03    -173.864E-03     348.618E-03    -174.754E-03     123.262E-03     69.8825E+06     36.4693E+06    -28.9490E+06    -28.9400E+06     36.4602E+06     69.8825E+06     319.011E+03         65.9044
            1444     12.6066E-03     99.6050E-03     244.495E-03     226.576E-03    -785.095E-03     226.576E-03    -785.094E-03     244.495E-03    -1.22664E-03     356.796E-03    -174.742E-03    -182.054E-03    -174.257E-03     348.999E-03    -174.742E-03     128.485E-03     77.5747E+06     47.3478E+06    -22.2532E+06    -22.2513E+06     47.3459E+06     77.5747E+06    -133.807E+03         68.6737
            1445     13.4478E-03     99.7626E-03     242.320E-03     222.669E-03    -778.268E-03     222.669E-03    -778.267E-03     242.320E-03    -1.39751E-03     365.097E-03    -174.766E-03    -190.331E-03    -177.055E-03     351.821E-03    -174.766E-03     164.836E-03     97.2348E+06     67.1743E+06    -15.1610E+06    -15.1598E+06     67.1730E+06     97.2348E+06    -147.526E+03         71.2549
            1446     14.2902E-03     100.050E-03     239.999E-03     218.704E-03    -771.103E-03     218.704E-03    -771.103E-03     239.999E-03    -246.480E-06     365.635E-03    -174.828E-03    -190.807E-03    -177.992E-03     352.820E-03    -174.828E-03     160.798E-03     125.746E+06     91.2801E+06    -7.83399E+06    -7.83254E+06     91.2786E+06     125.746E+06    -127.637E+03         73.4655
            1447     840.730E-06     100.117E-03     260.304E-03     242.015E-03    -814.503E-03     241.996E-03    -814.484E-03     260.304E-03    -3.08013E-03     349.159E-03    -174.118E-03    -175.041E-03    -174.794E-03     349.158E-03    -174.364E-03    -87.5345E-06    -143.838E+06    -148.062E+06    -328.526E+06    -147.580E+06    -328.518E+06    -144.327E+06     223.973E+03         50.1405
            1448     1.67990E-03     100.114E-03     251.062E-03     250.657E-03    -813.816E-03     250.654E-03    -813.812E-03     251.061E-03     2.37799E-03     349.691E-03    -174.699E-03    -174.991E-03    -174.957E-03     349.689E-03    -174.731E-03     1.77702E-03    -130.695E+06    -141.807E+06    -306.629E+06    -141.819E+06    -306.616E+06    -130.695E+06     638.052E+03         50.2861
            1449     2.51976E-03     100.113E-03     250.832E-03     250.038E-03    -812.981E-03     250.037E-03    -812.981E-03     250.832E-03     152.570E-06     349.440E-03    -174.526E-03    -174.914E-03    -174.540E-03     349.427E-03    -174.887E-03     4.80823E-03    -110.270E+06    -135.271E+06    -276.797E+06    -135.293E+06    -276.776E+06    -110.270E+06     1.55860E+06         50.5242
            1450     3.35964E-03     100.114E-03     250.510E-03     249.123E-03    -811.702E-03     249.123E-03    -811.702E-03     250.510E-03     721.989E-06     349.054E-03    -174.131E-03    -174.922E-03    -174.086E-03     349.009E-03    -174.922E-03     9.33522E-03    -86.3197E+06    -126.099E+06    -238.607E+06    -126.148E+06    -238.558E+06    -86.3197E+06     2.24339E+06         50.8622
            1451     4.19926E-03     100.122E-03     250.068E-03     247.904E-03    -810.027E-03     247.904E-03    -810.027E-03     250.068E-03    -505.151E-06     348.409E-03    -173.517E-03    -174.892E-03    -173.390E-03     348.283E-03    -174.892E-03     15.7873E-03    -62.0396E+06    -116.190E+06    -195.993E+06    -116.240E+06    -195.942E+06    -62.0396E+06     1.97582E+06         51.3120
            1452     5.04099E-03     100.138E-03     249.488E-03     246.406E-03    -807.867E-03     246.405E-03    -807.866E-03     249.488E-03    -2.07342E-03     347.973E-03    -173.144E-03    -174.829E-03    -172.845E-03     347.674E-03    -174.829E-03     24.4901E-03    -37.9073E+06    -105.002E+06    -155.003E+06    -105.101E+06    -154.905E+06    -37.9073E+06     1.93122E+06         51.8944
            1453     5.88207E-03     100.168E-03     248.753E-03     244.575E-03    -805.155E-03     244.574E-03    -805.154E-03     248.753E-03    -1.54597E-03     348.330E-03    -173.542E-03    -174.788E-03    -172.926E-03     347.715E-03    -174.788E-03     35.3210E-03    -14.4874E+06    -88.5329E+06    -112.390E+06    -94.0056E+06    -106.917E+06    -14.4874E+06     2.90439E+06         52.6421
            1454     6.72023E-03     100.214E-03     247.854E-03     242.460E-03    -801.940E-03     242.459E-03    -801.939E-03     247.854E-03    -1.58240E-03     348.386E-03    -173.612E-03    -174.774E-03    -172.529E-03     347.303E-03    -174.774E-03     47.1222E-03     8.71935E+06    -50.9018E+06    -84.0513E+06    -83.3634E+06    -51.5897E+06     8.71935E+06     3.23762E+06         53.6003
            1455     7.56167E-03     100.273E-03     246.788E-03     240.086E-03    -798.216E-03     240.085E-03    -798.215E-03     246.788E-03    -1.69024E-03     348.493E-03    -173.758E-03    -174.735E-03    -172.012E-03     346.746E-03    -174.735E-03     59.8938E-03     28.9371E+06    -1.63176E+06    -72.1939E+06    -72.0771E+06    -1.74854E+06     28.9371E+06     2.66509E+06         54.8245
            1456     8.40451E-03     100.355E-03     245.552E-03     237.402E-03    -793.951E-03     237.402E-03    -793.951E-03     245.552E-03    -865.610E-06     349.440E-03    -174.401E-03    -175.039E-03    -172.199E-03     346.889E-03    -174.690E-03     72.7168E-03     40.2703E+06     22.9371E+06    -61.9863E+06    -61.9374E+06     22.8882E+06     40.2703E+06     1.98018E+06         56.3701
            1457     9.24360E-03     100.451E-03     244.150E-03     234.514E-03    -789.257E-03     234.514E-03    -789.257E-03     244.150E-03    -967.077E-06     350.800E-03    -174.687E-03    -176.113E-03    -172.640E-03     347.327E-03    -174.687E-03     85.0192E-03     47.2089E+06     26.5844E+06    -52.8179E+06    -52.7873E+06     26.5538E+06     47.2089E+06     1.51054E+06         58.2761
            1458     10.0831E-03     100.568E-03     242.599E-03     231.467E-03    -784.203E-03     231.466E-03    -784.202E-03     242.599E-03    -521.348E-06     352.168E-03    -174.710E-03    -177.457E-03    -172.953E-03     347.664E-03    -174.710E-03     97.0993E-03     55.0811E+06     28.1564E+06    -44.2045E+06    -44.1868E+06     28.1387E+06     55.0811E+06     1.11398E+06         60.5461
            1459     10.9270E-03     100.699E-03     240.923E-03     228.292E-03    -778.863E-03     228.292E-03    -778.862E-03     240.923E-03    -916.876E-06     353.250E-03    -174.732E-03    -178.518E-03    -173.159E-03     347.891E-03    -174.732E-03     106.167E-03     63.1695E+06     30.3189E+06    -36.5359E+06    -36.5219E+06     30.3048E+06     63.1695E+06     933.349E+03         63.1276
            1460     11.7649E-03     100.841E-03     239.109E-03     225.013E-03    -773.232E-03     225.013E-03    -773.232E-03     239.109E-03    -1.33200E-03     355.915E-03    -174.733E-03    -181.182E-03    -173.872E-03     348.605E-03    -174.733E-03     123.728E-03     70.6066E+06     36.9285E+06    -28.8893E+06    -28.8759E+06     36.9152E+06     70.6066E+06     586.286E+03         65.9023
            1461     12.6068E-03     101.021E-03     237.179E-03     221.592E-03    -767.297E-03     221.591E-03    -767.296E-03     237.179E-03    -1.36407E-03     356.763E-03    -174.716E-03    -182.047E-03    -174.152E-03     348.869E-03    -174.716E-03     129.214E-03     78.4221E+06     48.2375E+06    -22.3752E+06    -22.3699E+06     48.2322E+06     78.4221E+06     112.811E+03         68.6928
            1462     13.4494E-03     101.179E-03     235.058E-03     218.033E-03    -760.918E-03     218.032E-03    -760.917E-03     235.058E-03    -1.43088E-03     365.421E-03    -174.743E-03    -190.677E-03    -177.385E-03     352.128E-03    -174.743E-03     165.026E-03     97.2344E+06     68.0193E+06    -15.8535E+06    -15.8523E+06     68.0182E+06     97.2344E+06    -82.3670E+03         71.2937
            1463     14.2898E-03     101.468E-03     232.791E-03     214.515E-03    -754.299E-03     214.515E-03    -754.299E-03     232.791E-03    -173.017E-06     366.049E-03    -174.830E-03    -191.219E-03    -178.414E-03     353.245E-03    -174.830E-03     160.754E-03     126.102E+06     91.5873E+06    -8.04002E+06    -8.03656E+06     91.5839E+06     126.102E+06    -245.215E+03         73.5178
            1464     839.834E-06     101.533E-03     252.475E-03     232.117E-03    -791.014E-03     232.106E-03    -791.004E-03     252.475E-03    -2.28883E-03     349.578E-03    -174.440E-03    -175.138E-03    -174.688E-03     349.577E-03    -174.890E-03    -59.5228E-06    -141.345E+06    -147.045E+06    -328.834E+06    -145.695E+06    -328.823E+06    -142.705E+06     380.031E+03         50.1229
            1465     1.68008E-03     101.532E-03     242.206E-03     241.830E-03    -790.468E-03     241.828E-03    -790.466E-03     242.206E-03     1.79633E-03     349.447E-03    -174.521E-03    -174.926E-03    -174.617E-03     349.446E-03    -174.829E-03     1.23284E-03    -130.752E+06    -142.503E+06    -308.502E+06    -142.518E+06    -308.487E+06    -130.752E+06     685.660E+03         50.2685
            1466     2.51998E-03     101.529E-03     241.997E-03     241.271E-03    -789.708E-03     241.271E-03    -789.708E-03     241.997E-03     220.848E-06     349.272E-03    -174.416E-03    -174.856E-03    -174.406E-03     349.262E-03    -174.856E-03     3.93496E-03    -110.355E+06    -134.977E+06    -278.931E+06    -134.994E+06    -278.913E+06    -110.355E+06     1.39533E+06         50.5065
            1467     3.35986E-03     101.532E-03     241.703E-03     240.449E-03    -788.563E-03     240.449E-03    -788.563E-03     241.703E-03     581.812E-06     348.799E-03    -173.946E-03    -174.853E-03    -173.902E-03     348.756E-03    -174.853E-03     9.04952E-03    -87.0686E+06    -125.611E+06    -240.399E+06    -125.640E+06    -240.370E+06    -87.0686E+06     1.77463E+06         50.8440
            1468     4.20055E-03     101.539E-03     241.299E-03     239.395E-03    -787.082E-03     239.395E-03    -787.081E-03     241.299E-03    -557.702E-06     348.488E-03    -173.659E-03    -174.829E-03    -173.538E-03     348.367E-03    -174.829E-03     15.5112E-03    -62.1712E+06    -115.050E+06    -197.136E+06    -115.159E+06    -197.026E+06    -62.1712E+06     2.47820E+06         51.2924
            1469     5.04038E-03     101.555E-03     240.763E-03     238.037E-03    -785.116E-03     238.036E-03    -785.114E-03     240.763E-03    -2.22711E-03     348.324E-03    -173.505E-03    -174.819E-03    -173.207E-03     348.026E-03    -174.819E-03     24.3431E-03    -38.0617E+06    -105.254E+06    -155.954E+06    -105.478E+06    -155.730E+06    -38.0617E+06     3.04996E+06         51.8723
            1470     5.87998E-03     101.586E-03     240.075E-03     236.445E-03    -782.700E-03     236.444E-03    -782.699E-03     240.075E-03    -1.73736E-03     348.034E-03    -173.243E-03    -174.790E-03    -172.628E-03     347.418E-03    -174.790E-03     35.3463E-03    -14.4455E+06    -90.3094E+06    -112.884E+06    -94.6668E+06    -108.527E+06    -14.4455E+06     3.05178E+06         52.6163
            1471     6.72301E-03     101.630E-03     239.233E-03     234.623E-03    -779.840E-03     234.622E-03    -779.839E-03     239.233E-03    -1.87473E-03     348.196E-03    -173.451E-03    -174.745E-03    -172.369E-03     347.115E-03    -174.745E-03     47.0585E-03     9.04207E+06    -52.1415E+06    -83.4198E+06    -82.6391E+06    -52.9223E+06     9.04207E+06     3.56333E+06         53.5701
            1472     7.56284E-03     101.691E-03     238.231E-03     232.534E-03    -776.473E-03     232.533E-03    -776.472E-03     238.231E-03    -1.89895E-03     348.862E-03    -174.144E-03    -174.718E-03    -172.395E-03     347.112E-03    -174.718E-03     60.0018E-03     29.2161E+06    -1.64015E+06    -71.7977E+06    -71.5779E+06    -1.85993E+06     29.2161E+06     3.48351E+06         54.7895
            1473     8.40142E-03     101.771E-03     237.064E-03     230.197E-03    -772.629E-03     230.196E-03    -772.628E-03     237.064E-03    -1.06074E-03     349.763E-03    -174.600E-03    -175.163E-03    -172.471E-03     347.182E-03    -174.711E-03     73.1466E-03     41.7193E+06     24.3950E+06    -61.1092E+06    -61.0072E+06     24.2930E+06     41.7193E+06     2.89899E+06         56.3312
            1474     9.24338E-03     101.869E-03     235.740E-03     227.689E-03    -768.404E-03     227.689E-03    -768.404E-03     235.740E-03    -1.12803E-03     350.923E-03    -174.720E-03    -176.204E-03    -172.690E-03     347.410E-03    -174.720E-03     85.5474E-03     48.4998E+06     27.6530E+06    -51.9296E+06    -51.8682E+06     27.5917E+06     48.4998E+06     2.10184E+06         58.2369
            1475     10.0850E-03     101.985E-03     234.275E-03     225.026E-03    -763.837E-03     225.026E-03    -763.837E-03     234.275E-03    -656.238E-06     352.004E-03    -174.733E-03    -177.270E-03    -172.733E-03     347.466E-03    -174.733E-03     97.4167E-03     56.0747E+06     28.0519E+06    -43.5297E+06    -43.4949E+06     28.0171E+06     56.0747E+06     1.48732E+06         60.5124
            1476     10.9230E-03     102.116E-03     232.692E-03     222.209E-03    -758.970E-03     222.209E-03    -758.970E-03     232.692E-03    -1.03366E-03     352.806E-03    -174.726E-03    -178.080E-03    -172.693E-03     347.419E-03    -174.726E-03     106.358E-03     64.4131E+06     30.8478E+06    -35.6812E+06    -35.6460E+06     30.8127E+06     64.4131E+06     1.38498E+06         63.1068
            1477     11.7677E-03     102.257E-03     230.971E-03     219.245E-03    -753.772E-03     219.245E-03    -753.771E-03     230.971E-03    -1.43272E-03     355.494E-03    -174.694E-03    -180.801E-03    -173.499E-03     348.193E-03    -174.694E-03     123.582E-03     71.0438E+06     37.3491E+06    -28.6558E+06    -28.6351E+06     37.3284E+06     71.0438E+06     1.07766E+06         65.9005
            1478     12.6088E-03     102.438E-03     229.134E-03     216.226E-03    -748.363E-03     216.225E-03    -748.363E-03     229.134E-03    -1.37245E-03     357.040E-03    -174.681E-03    -182.360E-03    -174.527E-03     349.207E-03    -174.681E-03     128.757E-03     78.9822E+06     48.5701E+06    -21.8907E+06    -21.8828E+06     48.5622E+06     78.9822E+06     584.244E+03         68.7121
            1479     13.4485E-03     102.597E-03     227.110E-03     213.193E-03    -742.659E-03     213.192E-03    -742.659E-03     227.110E-03    -1.40249E-03     365.966E-03    -174.744E-03    -191.222E-03    -178.006E-03     352.750E-03    -174.744E-03     164.603E-03     98.3160E+06     69.1636E+06    -14.9224E+06    -14.9207E+06     69.1619E+06     98.3160E+06     198.225E+03         71.3317
            1480     14.2894E-03     102.887E-03     224.951E-03     210.230E-03    -736.789E-03     210.230E-03    -736.789E-03     224.951E-03    -156.085E-06     366.152E-03    -174.855E-03    -191.298E-03    -178.544E-03     353.399E-03    -174.855E-03     160.440E-03     126.444E+06     91.6756E+06    -7.64600E+06    -7.64325E+06     91.6728E+06     126.444E+06    -62.3389E+03         73.5693
            1481     838.945E-06     102.951E-03     242.674E-03     222.035E-03    -765.394E-03     222.031E-03    -765.391E-03     242.674E-03    -1.36532E-03     350.081E-03    -174.825E-03    -175.256E-03    -174.975E-03     350.080E-03    -175.105E-03     55.9229E-06    -140.835E+06    -147.367E+06    -330.408E+06    -146.014E+06      -330.4E+06    -142.195E+06     922.295E+03         50.1061
            1482     1.67926E-03     102.948E-03     232.318E-03     232.115E-03    -765.143E-03     232.114E-03    -765.142E-03     232.318E-03     1.25687E-03     349.483E-03    -174.475E-03    -175.008E-03    -174.473E-03     349.481E-03    -175.008E-03     1.64422E-03    -128.824E+06    -141.319E+06    -309.017E+06    -141.331E+06    -309.005E+06    -128.824E+06     1.07905E+06         50.2517
            1483     2.51912E-03     102.948E-03     232.194E-03     231.711E-03    -764.598E-03     231.711E-03    -764.598E-03     232.194E-03     189.730E-06     349.088E-03    -174.185E-03    -174.903E-03    -174.176E-03     349.078E-03    -174.903E-03     4.07060E-03    -110.413E+06    -134.531E+06    -281.025E+06    -134.542E+06    -281.014E+06    -110.413E+06     1.05261E+06         50.4896
            1484     3.35992E-03     102.947E-03     231.977E-03     231.011E-03    -763.662E-03     231.011E-03    -763.662E-03     231.977E-03     251.944E-06     348.624E-03    -173.789E-03    -174.835E-03    -173.749E-03     348.584E-03    -174.835E-03     8.63602E-03    -87.5588E+06    -125.913E+06    -242.805E+06    -125.986E+06    -242.733E+06    -87.5588E+06     2.15095E+06         50.8266
            1485     4.20045E-03     102.956E-03     231.635E-03     230.056E-03    -762.341E-03     230.055E-03    -762.341E-03     231.635E-03    -633.986E-06     348.511E-03    -173.709E-03    -174.803E-03    -173.585E-03     348.388E-03    -174.803E-03     15.5919E-03    -62.8264E+06    -116.429E+06    -200.048E+06    -116.603E+06    -199.873E+06    -62.8264E+06     3.43562E+06         51.2737
            1486     5.04025E-03     102.973E-03     231.159E-03     228.894E-03    -760.638E-03     228.892E-03    -760.637E-03     231.159E-03    -2.34399E-03     348.470E-03    -173.656E-03    -174.814E-03    -173.357E-03     348.170E-03    -174.814E-03     24.4643E-03    -37.5574E+06    -105.316E+06    -156.441E+06    -105.568E+06    -156.188E+06    -37.5574E+06     3.38479E+06         51.8511
            1487     5.88189E-03     103.002E-03     230.542E-03     227.584E-03    -758.600E-03     227.583E-03    -758.599E-03     230.542E-03    -1.87674E-03     348.153E-03    -173.348E-03    -174.806E-03    -172.744E-03     347.550E-03    -174.806E-03     35.0291E-03    -13.7844E+06    -90.6551E+06    -112.302E+06    -93.9140E+06    -109.043E+06    -13.7844E+06     3.07108E+06         52.5913
            1488     6.72098E-03     103.047E-03     229.779E-03     226.064E-03    -756.128E-03     226.063E-03    -756.126E-03     229.779E-03    -2.00384E-03     348.147E-03    -173.384E-03    -174.762E-03    -172.320E-03     347.082E-03    -174.762E-03     46.6682E-03     8.63803E+06    -54.2246E+06    -83.9685E+06    -82.9977E+06    -55.1954E+06     8.63803E+06     3.44451E+06         53.5403
            1489     7.56195E-03     103.109E-03     228.866E-03     224.369E-03    -753.252E-03     224.368E-03    -753.250E-03     228.866E-03    -1.96526E-03     348.727E-03    -174.005E-03    -174.722E-03    -172.265E-03     346.987E-03    -174.722E-03     59.8146E-03     29.1861E+06    -2.05258E+06    -71.9331E+06    -71.6785E+06    -2.30717E+06     29.1861E+06     3.92584E+06         54.7548
            1490     8.40428E-03     103.189E-03     227.803E-03     222.492E-03    -749.983E-03     222.492E-03    -749.982E-03     227.803E-03    -1.11054E-03     349.776E-03    -174.583E-03    -175.192E-03    -172.459E-03     347.166E-03    -174.707E-03     73.5245E-03     42.2414E+06     25.1656E+06    -60.9460E+06    -60.7988E+06     25.0184E+06     42.2414E+06     3.52171E+06         56.2929
            1491     9.24333E-03     103.288E-03     226.595E-03     220.382E-03    -746.277E-03     220.382E-03    -746.277E-03     226.595E-03    -1.11809E-03     350.724E-03    -174.707E-03    -176.017E-03    -172.484E-03     347.191E-03    -174.707E-03     85.8024E-03     49.5541E+06     29.3485E+06    -51.2785E+06    -51.1927E+06     29.2628E+06     49.5541E+06     2.57857E+06         58.1985
            1492     10.0832E-03     103.401E-03     225.252E-03     218.099E-03    -742.225E-03     218.099E-03    -742.225E-03     225.252E-03    -733.167E-06     351.764E-03    -174.704E-03    -177.060E-03    -172.490E-03     347.194E-03    -174.704E-03     97.6942E-03     57.0988E+06     28.6241E+06    -42.7709E+06    -42.7145E+06     28.5677E+06     57.0988E+06     1.97079E+06         60.4797
            1493     10.9275E-03     103.533E-03     223.795E-03     215.726E-03    -737.947E-03     215.726E-03    -737.947E-03     223.795E-03    -1.09188E-03     353.080E-03    -174.700E-03    -178.379E-03    -172.988E-03     347.689E-03    -174.700E-03     106.479E-03     65.2092E+06     30.4123E+06    -35.1445E+06    -35.0954E+06     30.3631E+06     65.2092E+06     1.77587E+06         63.0857
            1494     11.7660E-03     103.672E-03     222.205E-03     213.230E-03    -733.372E-03     213.230E-03    -733.371E-03     222.205E-03    -1.37846E-03     355.968E-03    -174.704E-03    -181.264E-03    -174.112E-03     348.815E-03    -174.704E-03     122.469E-03     71.8984E+06     38.0498E+06    -27.8726E+06    -27.8323E+06     38.0094E+06     71.8984E+06     1.57224E+06         65.8958
            1495     12.6075E-03     103.856E-03     220.506E-03     210.693E-03    -728.601E-03     210.692E-03    -728.601E-03     220.506E-03    -1.28123E-03     357.146E-03    -174.725E-03    -182.421E-03    -174.727E-03     349.452E-03    -174.725E-03     127.686E-03     80.1859E+06     49.3805E+06    -20.8533E+06    -20.8339E+06     49.3612E+06     80.1859E+06     924.585E+03         68.7273
            1496     13.4483E-03     104.016E-03     218.623E-03     208.156E-03    -723.555E-03     208.156E-03    -723.555E-03     218.623E-03    -1.31621E-03     365.705E-03    -174.788E-03    -190.917E-03    -177.762E-03     352.550E-03    -174.788E-03     164.091E-03     99.0569E+06     69.4830E+06    -14.5488E+06    -14.5398E+06     69.4741E+06     99.0569E+06     659.636E+03         71.3675
            1497     14.2890E-03     104.304E-03     216.618E-03     205.774E-03    -718.484E-03     205.774E-03    -718.484E-03     216.618E-03    -334.195E-06     365.917E-03    -174.879E-03    -191.038E-03    -178.274E-03     353.153E-03    -174.879E-03     160.579E-03     126.449E+06     92.1281E+06    -7.80313E+06    -7.79343E+06     92.1184E+06     126.449E+06     784.507E+03         73.6206
            1498     840.314E-06     104.370E-03     231.303E-03     212.265E-03    -738.362E-03     212.264E-03    -738.360E-03     231.303E-03    -909.809E-06     349.639E-03    -174.399E-03    -175.239E-03    -175.161E-03     349.638E-03    -174.477E-03     642.330E-06    -141.393E+06    -148.283E+06    -331.758E+06    -146.159E+06    -331.748E+06    -143.526E+06    -38.3264E+03         50.0902
            1499     1.67952E-03     104.365E-03     221.755E-03     221.538E-03    -738.140E-03     221.537E-03    -738.139E-03     221.755E-03     988.730E-06     349.420E-03    -174.513E-03    -174.907E-03    -174.566E-03     349.418E-03    -174.851E-03     1.95914E-03    -129.103E+06    -141.360E+06    -310.387E+06    -141.368E+06    -310.379E+06    -129.103E+06     994.926E+03         50.2359
            1500     2.52030E-03     104.364E-03     221.645E-03     221.258E-03    -737.757E-03     221.258E-03    -737.757E-03     221.645E-03     386.947E-06     349.092E-03    -174.253E-03    -174.840E-03    -174.243E-03     349.082E-03    -174.840E-03     4.37529E-03    -109.340E+06    -134.493E+06    -283.426E+06    -134.541E+06    -283.378E+06    -109.340E+06     1.95549E+06         50.4737
            1501     3.35995E-03     104.364E-03     221.475E-03     220.764E-03    -737.110E-03     220.764E-03    -737.110E-03     221.475E-03    -7.46432E-06     348.841E-03    -174.012E-03    -174.828E-03    -173.973E-03     348.801E-03    -174.828E-03     8.61733E-03    -85.9127E+06    -125.835E+06    -245.436E+06    -125.946E+06    -245.325E+06    -85.9127E+06     3.00660E+06         50.8101
            1502     4.20011E-03     104.373E-03     221.212E-03     220.143E-03    -736.217E-03     220.142E-03    -736.216E-03     221.212E-03    -756.723E-06     348.467E-03    -173.653E-03    -174.814E-03    -173.525E-03     348.339E-03    -174.814E-03     15.7816E-03    -61.3621E+06    -114.945E+06    -201.756E+06    -115.072E+06    -201.628E+06    -61.3621E+06     3.11351E+06         51.2558
            1503     5.04118E-03     104.390E-03     220.835E-03     219.279E-03    -734.911E-03     219.277E-03    -734.909E-03     220.835E-03    -2.51170E-03     348.415E-03    -173.605E-03    -174.810E-03    -173.311E-03     348.121E-03    -174.810E-03     24.3740E-03    -36.7735E+06    -103.394E+06    -158.298E+06    -103.712E+06    -157.981E+06    -36.7735E+06     3.54999E+06         51.8307
            1504     5.87989E-03     104.419E-03     220.327E-03     218.231E-03    -733.249E-03     218.229E-03    -733.248E-03     220.327E-03    -2.04629E-03     348.285E-03    -173.480E-03    -174.805E-03    -172.873E-03     347.678E-03    -174.805E-03     34.9978E-03    -13.8913E+06    -90.1344E+06    -114.490E+06    -93.8796E+06    -110.745E+06    -13.8913E+06     4.39552E+06         52.5670
            1505     6.72152E-03     104.464E-03     219.678E-03     217.079E-03    -731.270E-03     217.078E-03    -731.269E-03     219.678E-03    -2.12455E-03     348.254E-03    -173.480E-03    -174.774E-03    -172.372E-03     347.146E-03    -174.774E-03     47.6230E-03     9.09800E+06    -53.8328E+06    -84.8451E+06    -83.1406E+06    -55.5374E+06     9.09800E+06     4.31072E+06         53.5109
            1506     7.56263E-03     104.525E-03     218.884E-03     215.760E-03    -728.898E-03     215.759E-03    -728.897E-03     218.884E-03    -2.05893E-03     348.921E-03    -174.087E-03    -174.833E-03    -172.417E-03     347.158E-03    -174.741E-03     60.2988E-03     29.4581E+06    -2.01593E+06    -72.3778E+06    -72.1099E+06    -2.28382E+06     29.4581E+06     3.98770E+06         54.7198
            1507     8.40181E-03     104.607E-03     217.947E-03     214.254E-03    -726.134E-03     214.254E-03    -726.133E-03     217.947E-03    -1.29688E-03     349.597E-03    -174.579E-03    -175.019E-03    -172.320E-03     347.047E-03    -174.727E-03     72.7113E-03     42.2861E+06     25.0481E+06    -61.6999E+06    -61.5628E+06     24.9111E+06     42.2861E+06     3.39865E+06         56.2537
            1508     9.24386E-03     104.705E-03     216.876E-03     212.619E-03    -723.051E-03     212.618E-03    -723.050E-03     216.876E-03    -1.29634E-03     350.318E-03    -174.683E-03    -175.635E-03    -172.155E-03     346.865E-03    -174.710E-03     84.7425E-03     50.2585E+06     29.8166E+06    -51.6552E+06    -51.5445E+06     29.7060E+06     50.2585E+06     2.96523E+06         58.1589
            1509     10.0864E-03     104.818E-03     215.680E-03     210.847E-03    -719.662E-03     210.846E-03    -719.662E-03     215.680E-03    -921.833E-06     351.854E-03    -174.703E-03    -177.152E-03    -172.693E-03     347.396E-03    -174.703E-03     96.5463E-03     57.6484E+06     29.7482E+06    -43.3568E+06    -43.2644E+06     29.6557E+06     57.6484E+06     2.52670E+06         60.4446
            1510     10.9245E-03     104.950E-03     214.377E-03     208.969E-03    -716.042E-03     208.968E-03    -716.041E-03     214.377E-03    -1.23005E-03     353.543E-03    -174.734E-03    -178.809E-03    -173.550E-03     348.284E-03    -174.734E-03     105.261E-03     65.3859E+06     30.6901E+06    -35.9401E+06    -35.8950E+06     30.6450E+06     65.3859E+06     1.68796E+06         63.0608
            1511     11.7662E-03     105.093E-03     212.954E-03     207.048E-03    -712.213E-03     207.047E-03    -712.212E-03     212.954E-03    -1.44832E-03     356.204E-03    -174.767E-03    -181.437E-03    -174.336E-03     349.104E-03    -174.767E-03     122.028E-03     71.9300E+06     37.8412E+06    -28.4243E+06    -28.3901E+06     37.8070E+06     71.9300E+06     1.45744E+06         65.8873
            1512     12.6054E-03     105.273E-03     211.436E-03     205.098E-03    -708.225E-03     205.097E-03    -708.225E-03     211.436E-03    -1.34936E-03     357.078E-03    -174.782E-03    -182.296E-03    -174.482E-03     349.264E-03    -174.782E-03     128.705E-03     80.1540E+06     49.9305E+06    -21.5339E+06    -21.4640E+06     49.8606E+06     80.1540E+06     1.78708E+06         68.7405
            1513     13.4472E-03     105.433E-03     209.741E-03     203.125E-03    -703.922E-03     203.125E-03    -703.922E-03     209.741E-03    -1.33970E-03     365.515E-03    -174.820E-03    -190.694E-03    -177.417E-03     352.237E-03    -174.820E-03     165.092E-03     99.0069E+06     69.8929E+06    -15.2633E+06    -15.1993E+06     69.8288E+06     99.0069E+06     1.81385E+06         71.4028
            1514     14.2888E-03     105.722E-03     207.931E-03     201.259E-03    -699.441E-03     201.259E-03    -699.441E-03     207.931E-03    -530.814E-06     365.407E-03    -174.882E-03    -190.525E-03    -177.730E-03     352.612E-03    -174.882E-03     160.759E-03     126.866E+06     93.0993E+06    -7.93216E+06    -7.91604E+06     93.0832E+06     126.866E+06     1.19417E+06         73.6725
            1515     840.063E-06     105.785E-03     218.126E-03     203.233E-03    -710.352E-03     203.232E-03    -710.352E-03     218.126E-03    -377.072E-06     349.382E-03    -174.051E-03    -175.332E-03    -175.253E-03     349.382E-03    -174.129E-03    -273.402E-06    -138.664E+06    -147.027E+06    -333.732E+06    -144.919E+06    -333.706E+06    -140.797E+06     897.638E+03         50.0751
            1516     1.68043E-03     105.784E-03     210.658E-03     210.455E-03    -710.092E-03     210.454E-03    -710.091E-03     210.658E-03     573.553E-06     349.320E-03    -174.508E-03    -174.812E-03    -174.563E-03     349.319E-03    -174.756E-03     1.00748E-03    -126.180E+06    -140.357E+06    -313.968E+06    -140.403E+06    -313.923E+06    -126.180E+06     2.08449E+06         50.2208
            1517     2.51978E-03     105.780E-03     210.573E-03     210.303E-03    -709.851E-03     210.302E-03    -709.850E-03     210.573E-03     358.742E-06     349.067E-03    -174.287E-03    -174.780E-03    -174.276E-03     349.056E-03    -174.780E-03     4.05649E-03    -107.065E+06    -133.135E+06    -285.662E+06    -133.218E+06    -285.579E+06    -107.065E+06     2.74890E+06         50.4585
            1518     3.36001E-03     105.784E-03     210.458E-03     210.040E-03    -709.490E-03     210.039E-03    -709.490E-03     210.458E-03    -82.4324E-06     348.881E-03    -174.093E-03    -174.788E-03    -174.053E-03     348.841E-03    -174.788E-03     8.84306E-03    -85.4990E+06    -123.849E+06    -247.113E+06    -123.915E+06    -247.048E+06    -85.4990E+06     2.36114E+06         50.7942
            1519     4.20036E-03     105.788E-03     210.276E-03     209.677E-03    -708.943E-03     209.676E-03    -708.942E-03     210.276E-03    -726.300E-06     348.541E-03    -173.744E-03    -174.797E-03    -173.614E-03     348.411E-03    -174.797E-03     15.8238E-03    -61.2259E+06    -113.180E+06    -204.053E+06    -113.356E+06    -203.877E+06    -61.2259E+06     3.36199E+06         51.2384
            1520     5.04012E-03     105.809E-03     210.005E-03     209.211E-03    -708.138E-03     209.209E-03    -708.136E-03     210.005E-03    -2.54964E-03     348.149E-03    -173.367E-03    -174.783E-03    -173.056E-03     347.838E-03    -174.783E-03     25.0344E-03    -37.1215E+06    -103.111E+06    -161.215E+06    -103.625E+06    -160.702E+06    -37.1215E+06     4.96919E+06         51.8106
            1521     5.88183E-03     105.836E-03     209.623E-03     208.548E-03    -706.992E-03     208.547E-03    -706.991E-03     209.623E-03    -2.08476E-03     348.324E-03    -173.554E-03    -174.770E-03    -172.941E-03     347.710E-03    -174.770E-03     35.3012E-03    -12.5865E+06    -89.4707E+06    -114.917E+06    -92.5379E+06    -111.850E+06    -12.5865E+06     5.04769E+06         52.5428
            1522     6.72227E-03     105.881E-03     209.110E-03     207.714E-03    -705.468E-03     207.712E-03    -705.466E-03     209.110E-03    -2.31276E-03     348.628E-03    -173.855E-03    -174.773E-03    -172.771E-03     347.544E-03    -174.773E-03     47.1382E-03     10.8358E+06    -54.4379E+06    -83.3784E+06    -80.9048E+06    -56.9115E+06     10.8358E+06     5.02627E+06         53.4811
            1523     7.56176E-03     105.944E-03     208.451E-03     206.741E-03    -703.581E-03     206.740E-03    -703.580E-03     208.451E-03    -2.27509E-03     349.038E-03    -174.178E-03    -174.859E-03    -172.493E-03     347.260E-03    -174.768E-03     60.4784E-03     31.3113E+06    -1.85222E+06    -70.7663E+06    -70.3091E+06    -2.30943E+06     31.3113E+06     5.21358E+06         54.6840
            1524     8.40269E-03     106.025E-03     207.657E-03     205.653E-03    -701.386E-03     205.653E-03    -701.386E-03     207.657E-03    -1.57506E-03     349.811E-03    -174.582E-03    -175.229E-03    -172.491E-03     347.253E-03    -174.762E-03     72.9176E-03     44.0543E+06     26.5986E+06    -61.0110E+06    -60.7689E+06     26.3565E+06     44.0543E+06     4.39379E+06         56.2130
            1525     9.24317E-03     106.120E-03     206.742E-03     204.531E-03    -698.982E-03     204.530E-03    -698.981E-03     206.742E-03    -1.60683E-03     350.774E-03    -174.744E-03    -176.030E-03    -172.613E-03     347.383E-03    -174.771E-03     84.0583E-03     50.8067E+06     29.4778E+06    -51.9533E+06    -51.7898E+06     29.3143E+06     50.8067E+06     3.60322E+06         58.1160
            1526     10.0826E-03     106.236E-03     205.716E-03     203.356E-03    -696.368E-03     203.355E-03    -696.368E-03     205.716E-03    -1.20137E-03     352.108E-03    -174.788E-03    -177.320E-03    -172.902E-03     347.690E-03    -174.788E-03     96.1301E-03     58.1329E+06     30.0881E+06    -43.6427E+06    -43.4837E+06     29.9291E+06     58.1329E+06     3.37111E+06         60.4049
            1527     10.9246E-03     106.369E-03     204.599E-03     202.069E-03    -693.530E-03     202.068E-03    -693.529E-03     204.599E-03    -1.42793E-03     353.269E-03    -174.804E-03    -178.465E-03    -173.111E-03     347.915E-03    -174.804E-03     106.104E-03     66.4385E+06     32.2327E+06    -35.6843E+06    -35.5406E+06     32.0890E+06     66.4385E+06     2.90627E+06         63.0325
            1528     11.7640E-03     106.510E-03     203.375E-03     200.702E-03    -690.471E-03     200.702E-03    -690.470E-03     203.375E-03    -1.65513E-03     355.798E-03    -174.790E-03    -181.008E-03    -173.765E-03     348.555E-03    -174.790E-03     123.202E-03     71.8168E+06     37.8216E+06    -29.3104E+06    -29.1843E+06     37.6956E+06     71.8168E+06     2.54554E+06         65.8785
            1529     12.6076E-03     106.689E-03     202.067E-03     199.351E-03    -687.295E-03     199.350E-03    -687.294E-03     202.067E-03    -1.52561E-03     357.073E-03    -174.775E-03    -182.298E-03    -174.405E-03     349.180E-03    -174.775E-03     129.343E-03     79.2223E+06     49.6413E+06    -23.1745E+06    -23.0616E+06     49.5285E+06     79.2223E+06     2.36994E+06         68.7550
            1530     13.4481E-03     106.852E-03     200.590E-03     198.018E-03    -683.830E-03     198.017E-03    -683.829E-03     200.590E-03    -1.61216E-03     365.403E-03    -174.804E-03    -190.599E-03    -177.236E-03     352.040E-03    -174.804E-03     165.594E-03     99.0989E+06     70.7462E+06    -15.5701E+06    -15.5058E+06     70.6819E+06     99.0989E+06     1.89036E+06         71.4393
            1531     14.2891E-03     107.138E-03     199.024E-03     196.665E-03    -680.068E-03     196.683E-03    -680.068E-03     199.005E-03    -708.800E-06     365.153E-03    -174.854E-03    -190.299E-03    -177.459E-03     352.313E-03    -174.854E-03     160.859E-03     127.552E+06     94.2786E+06    -7.98062E+06    -7.96691E+06     94.2649E+06     127.552E+06     950.793E+03         73.7251
            1532     839.571E-06     107.203E-03     203.565E-03     194.768E-03    -681.264E-03     194.767E-03    -681.263E-03     203.565E-03     184.154E-06     349.664E-03    -174.466E-03    -175.198E-03    -175.041E-03     349.664E-03    -174.623E-03    -176.579E-06    -138.541E+06    -146.725E+06    -338.266E+06    -144.361E+06    -338.233E+06    -140.938E+06     1.77657E+06         50.0603
            1533     1.67937E-03     107.200E-03     199.215E-03     199.026E-03    -681.216E-03     199.071E-03    -681.215E-03     199.169E-03     448.249E-06     349.291E-03    -174.450E-03    -174.841E-03    -174.449E-03     349.290E-03    -174.841E-03     1.00640E-03    -125.931E+06    -138.611E+06    -317.372E+06    -138.670E+06    -317.313E+06    -125.931E+06     2.63147E+06         50.2059
            1534     2.52011E-03     107.198E-03     199.208E-03     199.109E-03    -681.279E-03     199.159E-03    -681.278E-03     199.157E-03     248.545E-06     348.925E-03    -174.141E-03    -174.784E-03    -174.132E-03     348.916E-03    -174.784E-03     3.88803E-03    -106.524E+06    -130.989E+06    -287.281E+06    -131.081E+06    -287.189E+06    -106.524E+06     2.90568E+06         50.4433
            1535     3.36072E-03     107.198E-03     199.219E-03     199.033E-03    -681.246E-03     199.116E-03    -681.245E-03     199.135E-03    -410.542E-06     348.730E-03    -173.977E-03    -174.753E-03    -173.933E-03     348.687E-03    -174.753E-03     8.97179E-03    -85.4861E+06    -123.033E+06    -248.994E+06    -123.143E+06    -248.883E+06    -85.4861E+06     3.17481E+06         50.7782
            1536     4.20019E-03     107.208E-03     199.224E-03     198.852E-03    -681.071E-03     199.017E-03    -681.070E-03     199.058E-03    -944.495E-06     348.645E-03    -173.876E-03    -174.769E-03    -173.753E-03     348.522E-03    -174.769E-03     15.5822E-03    -62.2013E+06    -114.314E+06    -207.973E+06    -114.520E+06    -207.766E+06    -62.2013E+06     3.98478E+06         51.2206
            1537     5.04165E-03     107.222E-03     199.034E-03     198.681E-03    -680.653E-03     198.812E-03    -680.651E-03     198.900E-03    -2.70336E-03     348.251E-03    -173.468E-03    -174.784E-03    -173.176E-03     347.960E-03    -174.784E-03     24.0796E-03    -37.0283E+06    -103.024E+06    -163.596E+06    -103.465E+06    -163.155E+06    -37.0283E+06     4.74001E+06         51.7898
            1538     5.88174E-03     107.255E-03     198.771E-03     198.360E-03    -679.959E-03     198.492E-03    -679.958E-03     198.637E-03    -2.23411E-03     348.311E-03    -173.532E-03    -174.779E-03    -172.925E-03     347.704E-03    -174.779E-03     35.0401E-03    -11.9901E+06    -88.5854E+06    -116.275E+06    -91.7204E+06    -113.140E+06    -11.9901E+06     5.45634E+06         52.5175
            1539     6.72018E-03     107.299E-03     198.452E-03     197.844E-03    -678.945E-03     198.040E-03    -678.943E-03     198.254E-03    -2.47381E-03     348.873E-03    -174.052E-03    -174.821E-03    -172.979E-03     347.774E-03    -174.795E-03     47.4392E-03     11.2940E+06    -55.6421E+06    -85.0867E+06    -81.5920E+06    -59.1369E+06     11.2940E+06     6.05801E+06         53.4500
            1540     7.56192E-03     107.360E-03     197.997E-03     197.238E-03    -677.640E-03     197.490E-03    -677.638E-03     197.743E-03    -2.47384E-03     349.145E-03    -174.314E-03    -174.831E-03    -172.581E-03     347.385E-03    -174.804E-03     60.2600E-03     31.9833E+06    -2.63494E+06    -71.4956E+06    -70.8187E+06    -3.31190E+06     31.9833E+06     6.45647E+06         54.6465
            1541     8.40288E-03     107.443E-03     197.483E-03     196.560E-03    -676.142E-03     196.931E-03    -676.141E-03     197.111E-03    -1.86443E-03     349.814E-03    -174.592E-03    -175.222E-03    -172.477E-03     347.274E-03    -174.797E-03     72.5977E-03     44.7911E+06     27.7028E+06    -60.8925E+06    -60.4193E+06     27.2296E+06     44.7911E+06     6.36164E+06         56.1703
            1542     9.24190E-03     107.540E-03     196.913E-03     195.792E-03    -674.447E-03     196.329E-03    -674.446E-03     196.376E-03    -1.89525E-03     351.057E-03    -174.808E-03    -176.250E-03    -172.786E-03     347.593E-03    -174.808E-03     84.9630E-03     51.5364E+06     30.4174E+06    -52.0590E+06    -51.6845E+06     30.0429E+06     51.5364E+06     5.36165E+06         58.0714
            1543     10.0831E-03     107.653E-03     196.225E-03     194.988E-03    -672.558E-03     195.667E-03    -672.557E-03     195.545E-03    -1.51755E-03     352.092E-03    -174.818E-03    -177.273E-03    -172.702E-03     347.520E-03    -174.818E-03     97.7514E-03     58.7117E+06     30.5142E+06    -44.2586E+06    -43.9417E+06     30.1973E+06     58.7117E+06     4.75052E+06         60.3645
            1544     10.9238E-03     107.785E-03     195.503E-03     194.109E-03    -670.541E-03     194.976E-03    -670.540E-03     194.635E-03    -1.71371E-03     352.796E-03    -174.798E-03    -177.998E-03    -172.553E-03     347.351E-03    -174.798E-03     106.926E-03     66.5567E+06     32.6850E+06    -37.1427E+06    -36.8377E+06     32.3800E+06     66.5567E+06     4.56943E+06         63.0046
            1545     11.7677E-03     107.926E-03     194.743E-03     193.119E-03    -668.326E-03     194.233E-03    -668.325E-03     193.628E-03    -1.97217E-03     355.725E-03    -174.759E-03    -180.966E-03    -173.665E-03     348.425E-03    -174.759E-03     123.640E-03     72.5262E+06     38.9196E+06    -30.1347E+06    -29.9102E+06     38.6952E+06     72.5262E+06     3.87863E+06         65.8700
            1546     12.6059E-03     108.108E-03     193.907E-03     192.104E-03    -665.966E-03     193.463E-03    -665.965E-03     192.547E-03    -1.87299E-03     357.065E-03    -174.743E-03    -182.322E-03    -174.412E-03     349.155E-03    -174.743E-03     129.443E-03     80.3761E+06     50.9413E+06    -23.0917E+06    -22.9745E+06     50.8241E+06     80.3761E+06     2.61156E+06         68.7693
            1547     13.4478E-03     108.267E-03     192.958E-03     191.018E-03    -663.308E-03     192.668E-03    -663.307E-03     191.307E-03    -1.96505E-03     365.176E-03    -174.766E-03    -190.410E-03    -177.046E-03     351.813E-03    -174.766E-03     165.400E-03      99.478E+06     71.8041E+06    -16.2396E+06    -16.2019E+06     71.7664E+06      99.478E+06     1.42764E+06         71.4759
            1548     14.2909E-03     108.555E-03     192.097E-03     189.882E-03    -660.585E-03     192.009E-03    -660.584E-03     189.969E-03    -897.816E-06     365.299E-03    -174.818E-03    -190.481E-03    -177.645E-03     352.463E-03    -174.818E-03     160.678E-03     127.811E+06     95.2351E+06    -8.45657E+06    -8.44897E+06     95.2275E+06     127.811E+06     462.931E+03         73.7777
            1549     839.895E-06     108.620E-03     189.858E-03     185.363E-03    -651.951E-03     187.280E-03    -651.950E-03     187.939E-03     348.511E-06     349.587E-03    -174.423E-03    -175.164E-03    -175.086E-03     349.586E-03    -174.501E-03     173.674E-06    -141.197E+06    -147.536E+06    -341.628E+06    -145.158E+06    -341.607E+06    -143.595E+06     215.266E+03         50.0448
            1550     1.68015E-03     108.617E-03     187.764E-03     187.582E-03    -652.190E-03     187.698E-03    -652.188E-03     187.647E-03     369.920E-06     349.407E-03    -174.564E-03    -174.843E-03    -174.588E-03     349.406E-03    -174.819E-03     1.08233E-03    -131.121E+06    -140.577E+06    -319.902E+06    -140.610E+06    -319.869E+06    -131.121E+06     1.44764E+06         50.1903
            1551     2.51992E-03     108.614E-03     187.853E-03     187.698E-03    -652.378E-03     187.852E-03    -652.376E-03     187.698E-03     368.727E-06     349.172E-03    -174.340E-03    -174.832E-03    -174.333E-03     349.165E-03    -174.832E-03     3.52348E-03    -110.170E+06    -133.779E+06    -290.256E+06    -133.847E+06    -290.189E+06    -110.170E+06     2.61182E+06         50.4272
            1552     3.35986E-03     108.615E-03     188.012E-03     187.738E-03    -652.605E-03     188.011E-03    -652.604E-03     187.738E-03    -565.760E-06     348.852E-03    -174.014E-03    -174.838E-03    -173.976E-03     348.814E-03    -174.838E-03     8.33023E-03    -85.8291E+06    -124.852E+06    -252.469E+06    -125.014E+06    -252.307E+06    -85.8291E+06     4.12980E+06         50.7611
            1553     4.20110E-03     108.624E-03     188.235E-03     187.748E-03    -652.833E-03     188.234E-03    -652.831E-03     187.748E-03    -1.17904E-03     348.659E-03    -173.818E-03    -174.841E-03    -173.704E-03     348.545E-03    -174.841E-03     15.0104E-03    -61.2754E+06    -114.865E+06    -209.858E+06    -115.096E+06    -209.627E+06    -61.2754E+06     4.53462E+06         51.2016
            1554     5.03931E-03     108.641E-03     188.348E-03     187.704E-03    -652.845E-03     188.345E-03    -652.843E-03     187.704E-03    -2.90402E-03     348.517E-03    -173.664E-03    -174.853E-03    -173.375E-03     348.227E-03    -174.853E-03     23.9268E-03    -37.2705E+06    -104.204E+06    -166.935E+06    -104.694E+06    -166.445E+06    -37.2705E+06     4.96635E+06         51.7674
            1555     5.87998E-03     108.670E-03     188.329E-03     187.567E-03    -652.598E-03     188.327E-03    -652.596E-03     187.567E-03    -2.39100E-03     348.260E-03    -173.418E-03    -174.842E-03    -172.798E-03     347.640E-03    -174.842E-03     35.3902E-03    -13.4081E+06    -90.2318E+06    -120.590E+06    -94.2298E+06    -116.592E+06    -13.4081E+06     6.62486E+06         52.4903
            1556     6.72342E-03     108.717E-03     188.314E-03     187.320E-03    -652.157E-03     188.311E-03    -652.154E-03     187.320E-03    -2.57377E-03     348.645E-03    -173.794E-03    -174.851E-03    -172.718E-03     347.542E-03    -174.825E-03     47.5467E-03     10.2304E+06    -56.5280E+06    -87.9215E+06    -83.3831E+06    -61.0664E+06     10.2304E+06     7.54672E+06         53.4170
            1557     7.56107E-03     108.780E-03     188.270E-03     186.971E-03    -651.521E-03     188.268E-03    -651.519E-03     186.971E-03    -2.58559E-03     349.319E-03    -174.469E-03    -174.850E-03    -172.732E-03     347.556E-03    -174.824E-03     60.2981E-03     31.2926E+06    -3.51886E+06    -73.4084E+06    -72.5000E+06    -4.42730E+06     31.2926E+06     7.42930E+06         54.6071
            1558     8.40079E-03     108.859E-03     188.172E-03     186.522E-03    -650.683E-03     188.171E-03    -650.682E-03     186.522E-03    -2.05731E-03     349.685E-03    -174.739E-03    -174.945E-03    -172.281E-03     347.094E-03    -174.814E-03     73.2549E-03     44.7135E+06     27.3035E+06    -62.3881E+06    -61.7982E+06     26.7135E+06     44.7135E+06       7.233E+06         56.1257
            1559     9.24382E-03     108.958E-03     188.068E-03     185.981E-03    -649.691E-03     188.067E-03    -649.690E-03     185.981E-03    -2.12650E-03     350.378E-03    -174.782E-03    -175.596E-03    -172.105E-03     346.887E-03    -174.782E-03     85.2420E-03     51.8078E+06     30.8913E+06    -52.9278E+06    -52.3168E+06     30.2803E+06     51.8078E+06     7.08044E+06         58.0260
            1560     10.0841E-03     109.071E-03     187.934E-03     185.357E-03    -648.551E-03     187.933E-03    -648.550E-03     185.357E-03    -1.80699E-03     351.658E-03    -174.751E-03    -176.906E-03    -172.347E-03     347.098E-03    -174.751E-03     97.5413E-03     59.3320E+06     31.2130E+06    -44.7030E+06    -44.0944E+06     30.6044E+06     59.3320E+06     6.70264E+06         60.3246
            1561     10.9258E-03     109.202E-03     187.781E-03     184.666E-03    -647.300E-03     187.780E-03    -647.299E-03     184.666E-03    -1.96802E-03     353.169E-03    -174.739E-03    -178.430E-03    -172.960E-03     347.698E-03    -174.739E-03     107.258E-03     67.7396E+06     33.4565E+06    -37.0445E+06    -36.5737E+06     32.9857E+06     67.7396E+06     5.66637E+06         62.9764
            1562     11.7647E-03     109.342E-03     187.608E-03     183.886E-03    -645.897E-03     187.606E-03    -645.895E-03     183.886E-03    -2.17541E-03     355.852E-03    -174.726E-03    -181.126E-03    -173.814E-03     348.539E-03    -174.726E-03     123.792E-03     74.3022E+06     40.4362E+06    -29.3021E+06    -29.0328E+06     40.1668E+06     74.3022E+06      4.2374E+06         65.8601
            1563     12.6085E-03     109.527E-03     187.455E-03     183.046E-03    -644.419E-03     187.454E-03    -644.417E-03     183.046E-03    -2.07152E-03     356.681E-03    -174.706E-03    -181.975E-03    -174.069E-03     348.775E-03    -174.706E-03     129.329E-03     82.0066E+06     52.6377E+06    -22.4759E+06    -22.3142E+06     52.4760E+06     82.0066E+06     3.42625E+06         68.7828
            1564     13.4498E-03     109.683E-03     187.320E-03     182.062E-03    -642.709E-03     187.318E-03    -642.708E-03     182.062E-03    -1.98135E-03     365.303E-03    -174.727E-03    -190.576E-03    -177.243E-03     351.970E-03    -174.727E-03     165.335E-03     101.009E+06     74.2325E+06    -15.8923E+06    -15.8186E+06     74.1588E+06     101.009E+06     2.12162E+06         71.5123
            1565     14.2896E-03     109.973E-03     187.264E-03     180.993E-03    -640.865E-03     187.264E-03    -640.865E-03     180.993E-03    -992.163E-06     365.338E-03    -174.791E-03    -190.547E-03    -177.737E-03     352.529E-03    -174.791E-03     160.639E-03     129.040E+06     96.7800E+06    -8.32083E+06    -8.31521E+06     96.7744E+06     129.040E+06     337.046E+03         73.8303
            1566     840.166E-06     110.037E-03     180.961E-03     171.565E-03    -622.976E-03     180.916E-03    -622.974E-03     171.608E-03     90.3495E-06     349.715E-03    -174.135E-03    -175.580E-03    -175.433E-03     349.714E-03    -174.281E-03    -699.028E-06    -138.483E+06    -148.180E+06    -342.126E+06    -144.768E+06    -342.119E+06    -141.902E+06     157.120E+03         50.0272
            1567     1.67960E-03     110.034E-03     176.514E-03     176.275E-03    -623.320E-03     176.469E-03    -623.318E-03     176.318E-03     191.128E-06     349.496E-03    -174.587E-03    -174.909E-03    -174.610E-03     349.495E-03    -174.885E-03     828.937E-06    -129.658E+06    -141.669E+06    -323.658E+06    -141.691E+06    -323.636E+06    -129.658E+06     1.13705E+06         50.1726
            1568     2.51947E-03     110.031E-03     176.817E-03     176.432E-03    -623.757E-03     176.815E-03    -623.755E-03     176.432E-03     378.706E-06     349.442E-03    -174.539E-03    -174.903E-03    -174.530E-03     349.433E-03    -174.903E-03     3.92583E-03    -110.544E+06    -135.014E+06    -293.902E+06    -135.065E+06    -293.851E+06    -110.544E+06     2.61546E+06         50.4092
            1569     3.35943E-03     110.033E-03     177.110E-03     176.547E-03    -624.203E-03     177.110E-03    -624.203E-03     176.547E-03    -570.396E-06     349.164E-03    -174.221E-03    -174.943E-03    -174.179E-03     349.123E-03    -174.943E-03     8.77514E-03    -86.2415E+06    -125.507E+06    -256.127E+06    -125.631E+06    -256.003E+06    -86.2415E+06     3.61572E+06         50.7420
            1570     4.19865E-03     110.041E-03     177.480E-03     176.632E-03    -624.663E-03     177.478E-03    -624.662E-03     176.632E-03    -1.06976E-03     348.608E-03    -173.673E-03    -174.935E-03    -173.551E-03     348.486E-03    -174.935E-03     15.5185E-03    -61.4127E+06    -114.998E+06    -213.611E+06    -115.340E+06    -213.268E+06    -61.4127E+06     5.41089E+06         51.1806
            1571     5.04134E-03     110.058E-03     177.920E-03     176.678E-03    -625.088E-03     177.918E-03    -625.085E-03     176.678E-03    -2.65675E-03     348.468E-03    -173.556E-03    -174.912E-03    -173.264E-03     348.176E-03    -174.912E-03     24.1867E-03    -36.7457E+06    -104.622E+06    -170.062E+06    -105.393E+06    -169.292E+06    -36.7457E+06     6.71265E+06         51.7433
            1572     5.88143E-03     110.087E-03     178.313E-03     176.660E-03    -625.377E-03     178.311E-03    -625.376E-03     176.660E-03    -2.20023E-03     348.698E-03    -173.790E-03    -174.908E-03    -173.176E-03     348.085E-03    -174.908E-03     35.2214E-03    -13.3835E+06    -90.9229E+06    -123.936E+06    -94.5690E+06    -120.290E+06    -13.3835E+06     7.50880E+06         52.4614
            1573     6.71876E-03     110.134E-03     178.712E-03     176.560E-03    -625.509E-03     178.710E-03    -625.507E-03     176.560E-03    -2.46583E-03     348.500E-03    -173.609E-03    -174.892E-03    -172.513E-03     347.404E-03    -174.892E-03     47.4012E-03     9.65609E+06    -58.1641E+06    -89.6302E+06    -83.3745E+06    -64.4198E+06     9.65609E+06     8.71662E+06         53.3819
            1574     7.56223E-03     110.198E-03     179.107E-03     176.375E-03    -625.483E-03     179.105E-03    -625.481E-03     176.375E-03    -2.49187E-03     348.492E-03    -173.665E-03    -174.827E-03    -171.889E-03     346.716E-03    -174.827E-03     60.3797E-03     31.5928E+06    -4.03742E+06    -74.2633E+06    -72.7499E+06    -5.55089E+06     31.5928E+06     9.24064E+06         54.5662
            1575     8.40345E-03     110.278E-03     179.472E-03     176.109E-03    -625.310E-03     179.471E-03    -625.309E-03     176.109E-03    -2.07989E-03     349.325E-03    -174.363E-03    -174.962E-03    -171.948E-03     346.705E-03    -174.757E-03     73.6515E-03     45.2944E+06     27.6237E+06    -63.7359E+06    -62.9202E+06     26.8080E+06     45.2944E+06     8.51671E+06         56.0805
            1576     9.24234E-03     110.373E-03     179.847E-03     175.766E-03    -625.005E-03     179.845E-03    -625.004E-03     175.766E-03    -2.15415E-03     350.391E-03    -174.715E-03    -175.676E-03    -172.152E-03     346.867E-03    -174.715E-03     85.6307E-03     51.7671E+06     30.0336E+06    -54.5752E+06    -53.7865E+06     29.2449E+06     51.7671E+06     8.07494E+06         57.9796
            1577     10.0850E-03     110.487E-03     180.236E-03     175.353E-03    -624.606E-03     180.235E-03    -624.605E-03     175.353E-03    -1.84017E-03     351.639E-03    -174.696E-03    -176.943E-03    -172.447E-03     347.143E-03    -174.696E-03     96.9349E-03     59.5767E+06     31.5174E+06    -45.6431E+06    -44.9006E+06     30.7749E+06     59.5767E+06     7.51909E+06         60.2825
            1578     10.9261E-03     110.618E-03     180.622E-03     174.884E-03    -624.124E-03     180.620E-03    -624.123E-03     174.884E-03    -1.99038E-03     353.063E-03    -174.694E-03    -178.369E-03    -172.926E-03     347.620E-03    -174.694E-03     106.924E-03     68.8972E+06     35.2628E+06    -37.2631E+06    -36.7017E+06     34.7015E+06     68.8972E+06     6.31951E+06         62.9462
            1579     11.7677E-03     110.764E-03     181.013E-03     174.341E-03    -623.535E-03     181.012E-03    -623.534E-03     174.341E-03    -2.17898E-03     355.792E-03    -174.686E-03    -181.106E-03    -173.817E-03     348.503E-03    -174.686E-03     123.700E-03     75.6119E+06     42.0698E+06    -29.7273E+06    -29.3790E+06     41.7215E+06     75.6119E+06     4.91306E+06         65.8491
            1580     12.6075E-03     110.938E-03     181.465E-03     173.753E-03    -622.940E-03     181.464E-03    -622.939E-03     173.753E-03    -2.02117E-03     356.780E-03    -174.676E-03    -182.104E-03    -174.261E-03     348.937E-03    -174.676E-03     128.886E-03     83.3100E+06     54.1537E+06    -22.3643E+06    -22.1883E+06     53.9777E+06     83.3100E+06     3.55986E+06         68.7953
            1581     13.4490E-03     111.105E-03     181.935E-03     173.036E-03    -622.109E-03     181.934E-03    -622.107E-03     173.036E-03    -1.95528E-03     365.014E-03    -174.700E-03    -190.314E-03    -176.995E-03     351.695E-03    -174.700E-03     165.204E-03     102.628E+06     76.1588E+06    -14.8823E+06    -14.8112E+06     76.0876E+06     102.628E+06     2.31751E+06         71.5481
            1582     14.2914E-03     111.387E-03     182.420E-03     172.243E-03    -621.050E-03     182.419E-03    -621.050E-03     172.243E-03    -959.719E-06     365.109E-03    -174.756E-03    -190.353E-03    -177.531E-03     352.287E-03    -174.756E-03     160.775E-03     131.243E+06     98.9813E+06    -7.15859E+06    -7.13052E+06     98.9533E+06     131.243E+06     1.37890E+06         73.8836
            1583     838.928E-06     111.455E-03     175.421E-03     155.202E-03    -594.559E-03     175.375E-03    -594.557E-03     155.245E-03     256.960E-06     349.743E-03    -174.355E-03    -175.388E-03    -175.242E-03     349.742E-03    -174.501E-03    -416.087E-06    -139.749E+06    -151.233E+06    -345.261E+06    -147.827E+06    -345.248E+06    -143.168E+06     1.45096E+06         50.0062
            1584     1.67970E-03     111.450E-03     165.647E-03     165.340E-03    -594.975E-03     165.602E-03    -594.973E-03     165.383E-03    -1.13837E-06     349.490E-03    -174.557E-03    -174.933E-03    -174.577E-03     349.488E-03    -174.912E-03     1.22461E-03    -127.815E+06    -143.082E+06    -327.566E+06    -143.104E+06    -327.544E+06    -127.815E+06     1.94041E+06         50.1517
            1585     2.52003E-03     111.449E-03     166.175E-03     165.551E-03    -595.706E-03     166.174E-03    -595.705E-03     165.551E-03     224.676E-06     349.323E-03    -174.423E-03    -174.900E-03    -174.412E-03     349.312E-03    -174.900E-03     4.36021E-03    -108.785E+06    -134.814E+06    -297.197E+06    -134.888E+06    -297.122E+06    -108.785E+06     3.21975E+06         50.3882
            1586     3.35960E-03     111.450E-03     166.727E-03     165.759E-03    -596.513E-03     166.726E-03    -596.512E-03     165.759E-03    -645.942E-06     348.995E-03    -174.094E-03    -174.901E-03    -174.050E-03     348.951E-03    -174.901E-03     9.09943E-03    -86.8474E+06    -125.920E+06    -259.809E+06    -126.074E+06    -259.655E+06    -86.8474E+06     4.42525E+06         50.7204
            1587     4.20074E-03     111.458E-03     167.245E-03     165.944E-03    -597.254E-03     167.244E-03    -597.253E-03     165.944E-03    -958.354E-06     348.731E-03    -173.832E-03    -174.899E-03    -173.698E-03     348.596E-03    -174.899E-03     16.2014E-03    -62.9151E+06    -116.324E+06    -218.809E+06    -116.691E+06    -218.441E+06    -62.9151E+06     5.70368E+06         51.1575
            1588     5.03913E-03     111.475E-03     167.832E-03     166.081E-03    -597.936E-03     167.830E-03    -597.934E-03     166.081E-03    -2.47962E-03     348.887E-03    -173.964E-03    -174.924E-03    -173.654E-03     348.578E-03    -174.924E-03     24.9392E-03    -37.5122E+06    -104.286E+06    -173.935E+06    -105.170E+06    -173.050E+06    -37.5122E+06     7.40226E+06         51.7172
            1589     5.87914E-03     111.506E-03     168.568E-03     166.169E-03    -598.682E-03     168.567E-03    -598.680E-03     166.169E-03    -2.08917E-03     348.737E-03    -173.786E-03    -174.951E-03    -173.160E-03     348.111E-03    -174.951E-03     35.5757E-03    -13.0487E+06    -90.4630E+06    -127.058E+06    -94.1064E+06    -123.414E+06    -13.0487E+06     8.53867E+06         52.4308
            1590     6.72182E-03     111.552E-03     169.371E-03     166.207E-03    -599.369E-03     169.369E-03    -599.367E-03     166.207E-03    -2.30102E-03     348.214E-03    -173.303E-03    -174.911E-03    -172.188E-03     347.099E-03    -174.911E-03     47.7605E-03     9.83085E+06    -60.6851E+06    -91.7485E+06    -83.3754E+06    -69.0582E+06     9.83085E+06     10.0786E+06         53.3457
            1591     7.56104E-03     111.612E-03     170.164E-03     166.181E-03    -599.912E-03     170.162E-03    -599.910E-03     166.181E-03    -2.35300E-03     348.164E-03    -173.360E-03    -174.804E-03    -171.569E-03     346.372E-03    -174.804E-03     60.6525E-03     31.5210E+06    -6.01981E+06    -75.1275E+06    -72.8613E+06    -8.28603E+06     31.5210E+06     11.2610E+06         54.5242
            1592     8.40295E-03     111.694E-03     170.984E-03     166.089E-03    -600.372E-03     170.983E-03    -600.371E-03     166.089E-03    -1.93321E-03     348.794E-03    -173.975E-03    -174.819E-03    -171.517E-03     346.212E-03    -174.695E-03     73.0754E-03     45.6085E+06     28.4341E+06    -64.1602E+06    -62.8667E+06     27.1405E+06     45.6085E+06     10.8060E+06         56.0341
            1593     9.24596E-03     111.791E-03     171.845E-03     165.937E-03    -600.746E-03     171.844E-03    -600.745E-03     165.937E-03    -1.98225E-03     350.205E-03    -174.485E-03    -175.720E-03    -172.046E-03     346.682E-03    -174.636E-03     85.5353E-03     52.6062E+06     30.7589E+06    -54.7999E+06    -53.6890E+06     29.6481E+06     52.6062E+06     9.64658E+06         57.9321
            1594     10.0846E-03     111.905E-03     172.703E-03     165.731E-03    -601.026E-03     172.702E-03    -601.025E-03     165.731E-03    -1.69925E-03     352.149E-03    -174.639E-03    -177.510E-03    -172.933E-03     347.572E-03    -174.639E-03     97.8948E-03     60.7409E+06     32.4557E+06    -46.1205E+06    -45.2311E+06     31.5663E+06     60.7409E+06     8.25046E+06         60.2390
            1595     10.9252E-03     112.035E-03     173.601E-03     165.485E-03    -601.296E-03     173.600E-03    -601.295E-03     165.485E-03    -1.82664E-03     353.137E-03    -174.664E-03    -178.472E-03    -173.057E-03     347.722E-03    -174.664E-03     106.703E-03     69.7495E+06     36.9248E+06    -37.9384E+06    -37.2678E+06     36.2542E+06     69.7495E+06     7.01807E+06         62.9139
            1596     11.7674E-03     112.178E-03     174.561E-03     165.182E-03    -601.518E-03     174.559E-03    -601.517E-03     165.182E-03    -2.03422E-03     355.529E-03    -174.657E-03    -180.872E-03    -173.595E-03     348.252E-03    -174.657E-03     123.443E-03     76.7272E+06     44.3662E+06    -30.2685E+06    -29.8336E+06     43.9312E+06     76.7272E+06     5.54753E+06         65.8364
            1597     12.6085E-03     112.361E-03     175.504E-03     164.843E-03    -601.672E-03     175.503E-03    -601.671E-03     164.843E-03    -1.92078E-03     356.823E-03    -174.643E-03    -182.179E-03    -174.296E-03     348.939E-03    -174.643E-03     129.190E-03     84.3924E+06     55.9502E+06    -22.9132E+06    -22.7529E+06     55.7899E+06     84.3924E+06     3.28646E+06         68.8072
            1598     13.4496E-03     112.517E-03     176.420E-03     164.388E-03    -601.579E-03     176.419E-03    -601.577E-03     164.388E-03    -1.90137E-03     364.962E-03    -174.669E-03    -190.293E-03    -176.947E-03     351.616E-03    -174.669E-03     165.263E-03     103.469E+06     76.9427E+06    -15.6675E+06    -15.6024E+06     76.8776E+06     103.469E+06     2.39599E+06         71.5838
            1599     14.2922E-03     112.806E-03     177.504E-03     163.865E-03    -601.463E-03     177.504E-03    -601.463E-03     163.865E-03    -872.323E-06     365.164E-03    -174.729E-03    -190.435E-03    -177.616E-03     352.345E-03    -174.729E-03     160.571E-03     132.382E+06     100.911E+06    -8.20430E+06    -8.15354E+06     100.860E+06     132.382E+06     1.97679E+06         73.9367
            1600     841.088E-06     112.872E-03     170.790E-03     139.284E-03    -567.343E-03     170.788E-03    -567.341E-03     139.284E-03     252.155E-06     348.818E-03    -174.245E-03    -174.573E-03    -174.534E-03     348.817E-03    -174.283E-03     502.887E-06    -143.628E+06    -152.834E+06    -349.492E+06    -150.528E+06    -349.480E+06    -145.946E+06     1.03757E+06         49.9813
            1601     1.67991E-03     112.868E-03     155.439E-03     155.134E-03    -567.900E-03     155.437E-03    -567.899E-03     155.134E-03    -10.5135E-06     349.382E-03    -174.501E-03    -174.882E-03    -174.793E-03     349.380E-03    -174.586E-03     2.05702E-03    -129.420E+06    -143.562E+06    -331.450E+06    -143.607E+06    -331.406E+06    -129.420E+06     2.64747E+06         50.1270
            1602     2.51950E-03     112.866E-03     156.038E-03     155.336E-03    -568.704E-03     156.037E-03    -568.703E-03     155.336E-03     215.225E-06     349.116E-03    -174.280E-03    -174.836E-03    -174.369E-03     349.103E-03    -174.735E-03     4.78678E-03    -110.295E+06    -136.727E+06    -302.322E+06    -136.824E+06    -302.225E+06    -110.295E+06     3.87636E+06         50.3636
            1603     3.36035E-03     112.867E-03     156.735E-03     155.581E-03    -569.688E-03     156.735E-03    -569.687E-03     155.581E-03    -604.817E-06     348.777E-03    -174.014E-03    -174.764E-03    -173.969E-03     348.733E-03    -174.764E-03     9.24440E-03    -88.0877E+06    -127.329E+06    -264.125E+06    -127.532E+06    -263.922E+06    -88.0877E+06     5.10258E+06         50.6956
            1604     4.20004E-03     112.874E-03     157.531E-03     155.831E-03    -570.781E-03     157.530E-03    -570.780E-03     155.831E-03    -956.447E-06     348.853E-03    -174.053E-03    -174.801E-03    -173.913E-03     348.714E-03    -174.801E-03     16.4256E-03    -63.4009E+06    -116.484E+06    -222.225E+06    -116.879E+06    -221.831E+06    -63.4009E+06     6.28431E+06         51.1316
            1605     5.04123E-03     112.894E-03     158.451E-03     156.067E-03    -571.897E-03     158.449E-03    -571.895E-03     156.067E-03    -2.41819E-03     348.845E-03    -173.987E-03    -174.858E-03    -173.656E-03     348.514E-03    -174.858E-03     25.8339E-03    -39.5525E+06    -105.878E+06    -179.035E+06    -106.845E+06    -178.068E+06    -39.5525E+06     7.79659E+06         51.6890
            1606     5.88074E-03     112.924E-03     159.374E-03     156.275E-03    -572.966E-03     159.372E-03    -572.964E-03     156.275E-03    -2.03755E-03     348.372E-03    -173.497E-03    -174.876E-03    -172.860E-03     347.736E-03    -174.876E-03     36.0101E-03    -14.9472E+06    -91.8970E+06    -132.243E+06    -95.9071E+06    -128.233E+06    -14.9472E+06     9.78178E+06         52.3989
            1607     6.72021E-03     112.968E-03     160.477E-03     156.443E-03    -574.088E-03     160.475E-03    -574.087E-03     156.443E-03    -2.21043E-03     348.006E-03    -173.185E-03    -174.821E-03    -172.059E-03     346.880E-03    -174.821E-03     47.9481E-03     8.81303E+06    -63.0839E+06    -95.5202E+06    -84.7586E+06    -73.8455E+06     8.81303E+06     11.3654E+06         53.3089
            1608     7.56297E-03     113.030E-03     161.701E-03     156.567E-03    -575.215E-03     161.700E-03    -575.213E-03     156.567E-03    -2.21311E-03     348.430E-03    -173.700E-03    -174.731E-03    -171.878E-03     346.608E-03    -174.731E-03     61.2123E-03     31.0765E+06    -8.20155E+06    -76.5686E+06    -73.7272E+06    -11.0429E+06     31.0765E+06     12.3612E+06         54.4815
            1609     8.40341E-03     113.110E-03     162.911E-03     156.644E-03    -576.240E-03     162.910E-03    -576.239E-03     156.644E-03    -1.75068E-03     349.137E-03    -174.241E-03    -174.895E-03    -171.903E-03     346.565E-03    -174.662E-03     73.0334E-03     45.5879E+06     28.2123E+06    -64.8626E+06    -63.1176E+06     26.4673E+06     45.5879E+06     12.5790E+06         55.9859
            1610     9.24374E-03     113.206E-03     164.175E-03     156.678E-03    -577.210E-03     164.173E-03    -577.209E-03     156.678E-03    -1.78526E-03     349.913E-03    -174.467E-03    -175.446E-03    -171.852E-03     346.470E-03    -174.618E-03     84.5242E-03     52.8568E+06     32.1850E+06    -55.3895E+06    -53.8107E+06     30.6062E+06     52.8568E+06     11.5937E+06         57.8820
            1611     10.0874E-03     113.323E-03     165.508E-03     156.671E-03    -578.162E-03     165.508E-03    -578.161E-03     156.671E-03    -1.45397E-03     351.493E-03    -174.593E-03    -176.900E-03    -172.340E-03     346.933E-03    -174.593E-03     97.5447E-03     61.3027E+06     34.4462E+06    -47.0476E+06    -45.8691E+06     33.2678E+06     61.3027E+06     9.70390E+06         60.1939
            1612     10.9272E-03     113.455E-03     166.877E-03     156.642E-03    -579.112E-03     166.876E-03    -579.111E-03     156.642E-03    -1.57409E-03     353.237E-03    -174.606E-03    -178.631E-03    -173.197E-03     347.803E-03    -174.606E-03     106.937E-03     70.8246E+06     38.4179E+06    -38.8328E+06    -38.0726E+06     37.6577E+06     70.8246E+06     7.51085E+06         62.8813
            1613     11.7668E-03     113.593E-03     168.223E-03     156.569E-03    -579.963E-03     168.222E-03    -579.962E-03     156.569E-03    -1.76370E-03     355.859E-03    -174.618E-03    -181.241E-03    -173.894E-03     348.512E-03    -174.618E-03     124.013E-03     78.5471E+06     47.5599E+06    -30.4254E+06    -30.0069E+06     47.1414E+06     78.5471E+06     5.58757E+06         65.8228
            1614     12.6095E-03     113.777E-03     169.591E-03     156.466E-03    -580.770E-03     169.590E-03    -580.769E-03     156.466E-03    -1.63247E-03     356.575E-03    -174.612E-03    -181.963E-03    -174.092E-03     348.705E-03    -174.612E-03     128.934E-03     85.9630E+06     58.0206E+06    -23.0953E+06    -22.8609E+06     57.7861E+06     85.9630E+06     4.12352E+06         68.8179
            1615     13.4508E-03     113.935E-03     170.988E-03     156.262E-03    -581.402E-03     170.987E-03    -581.401E-03     156.262E-03    -1.58846E-03     365.058E-03    -174.644E-03    -190.415E-03    -177.192E-03     351.836E-03    -174.644E-03     164.340E-03     104.254E+06     77.3346E+06    -16.5939E+06    -16.4592E+06     77.1998E+06     104.254E+06     3.29098E+06         71.6185
            1616     14.2911E-03     114.222E-03     172.487E-03     156.000E-03    -581.984E-03     172.486E-03    -581.984E-03     156.000E-03    -933.897E-06     365.211E-03    -174.715E-03    -190.495E-03    -177.658E-03     352.373E-03    -174.715E-03     160.891E-03     133.808E+06     103.578E+06    -8.53546E+06    -8.47886E+06     103.522E+06     133.808E+06     2.11141E+06         73.9887
            1617     840.590E-06     114.285E-03     167.260E-03     124.092E-03    -541.760E-03     167.258E-03    -541.759E-03     124.092E-03    -165.636E-06     348.350E-03    -173.924E-03    -174.426E-03    -174.280E-03     348.349E-03    -174.069E-03     128.104E-06    -143.865E+06    -151.116E+06    -352.048E+06    -148.810E+06    -352.036E+06    -146.183E+06     1.16905E+06         49.9522
            1618     1.68142E-03     114.287E-03     146.163E-03     145.778E-03    -542.417E-03     146.161E-03    -542.415E-03     145.778E-03     93.0289E-06     348.763E-03    -174.172E-03    -174.591E-03    -174.444E-03     348.761E-03    -174.317E-03     1.84306E-03    -132.241E+06    -144.844E+06    -336.755E+06    -144.884E+06    -336.715E+06    -132.241E+06     2.46939E+06         50.0983
            1619     2.52114E-03     114.282E-03     146.704E-03     145.999E-03    -543.185E-03     146.702E-03    -543.184E-03     145.999E-03     355.139E-06     348.904E-03    -174.272E-03    -174.632E-03    -174.400E-03     348.892E-03    -174.491E-03     4.48248E-03    -111.484E+06    -136.348E+06    -306.768E+06    -136.470E+06    -306.647E+06    -111.484E+06     4.27040E+06         50.3354
            1620     3.36098E-03     114.284E-03     147.451E-03     146.250E-03    -544.230E-03     147.450E-03    -544.230E-03     146.250E-03    -336.935E-06     348.893E-03    -174.235E-03    -174.658E-03    -174.227E-03     348.845E-03    -174.619E-03     9.48540E-03    -88.6647E+06    -127.680E+06    -268.536E+06    -127.943E+06    -268.273E+06    -88.6647E+06     5.89498E+06         50.6675
            1621     4.20102E-03     114.292E-03     148.473E-03     146.535E-03    -545.583E-03     148.472E-03    -545.582E-03     146.535E-03    -703.166E-06     348.749E-03    -174.037E-03    -174.712E-03    -173.896E-03     348.608E-03    -174.712E-03     16.6092E-03    -64.9531E+06    -118.351E+06    -227.052E+06    -118.877E+06    -226.526E+06    -64.9531E+06     7.26795E+06         51.1028
            1622     5.04013E-03     114.311E-03     149.660E-03     146.844E-03    -547.053E-03     149.658E-03    -547.051E-03     146.844E-03    -2.00213E-03     348.122E-03    -173.384E-03    -174.738E-03    -173.058E-03     347.796E-03    -174.738E-03     25.6075E-03    -40.6971E+06    -107.286E+06    -183.710E+06    -108.302E+06    -182.695E+06    -40.6971E+06     8.39645E+06         51.6586
            1623     5.88152E-03     114.341E-03     150.887E-03     147.154E-03    -548.534E-03     150.886E-03    -548.533E-03     147.154E-03    -1.64572E-03     347.960E-03    -173.253E-03    -174.706E-03    -172.610E-03     347.316E-03    -174.706E-03     36.1507E-03    -17.0241E+06    -93.5140E+06    -138.177E+06    -97.2998E+06    -134.391E+06    -17.0241E+06     10.2354E+06         52.3656
            1624     6.72327E-03     114.384E-03     152.266E-03     147.445E-03    -550.066E-03     152.265E-03    -550.064E-03     147.445E-03    -1.92781E-03     348.379E-03    -173.695E-03    -174.684E-03    -172.575E-03     347.259E-03    -174.684E-03     47.9251E-03     6.85027E+06    -65.5794E+06    -99.1545E+06    -85.8877E+06    -78.8462E+06     6.85027E+06     12.3238E+06         53.2708
            1625     7.56290E-03     114.446E-03     153.763E-03     147.707E-03    -551.601E-03     153.762E-03    -551.600E-03     147.707E-03    -1.89818E-03     348.476E-03    -173.826E-03    -174.651E-03    -172.030E-03     346.681E-03    -174.651E-03     60.7462E-03     30.1339E+06    -10.7506E+06    -78.3495E+06    -74.8499E+06    -14.2501E+06     30.1339E+06     13.4007E+06         54.4374
            1626     8.40390E-03     114.528E-03     155.348E-03     147.940E-03    -553.150E-03     155.347E-03    -553.149E-03     147.940E-03    -1.42662E-03     349.258E-03    -174.197E-03    -175.061E-03    -172.025E-03     346.629E-03    -174.604E-03     73.7829E-03     45.1153E+06     27.0971E+06    -66.5472E+06    -64.4840E+06     25.0339E+06     45.1153E+06     13.7146E+06         55.9367
            1627     9.24449E-03     114.624E-03     157.001E-03     148.149E-03    -554.685E-03     157.000E-03    -554.684E-03     148.149E-03    -1.38331E-03     350.519E-03    -174.592E-03    -175.926E-03    -172.423E-03     347.016E-03    -174.592E-03     85.4297E-03     52.6028E+06     32.7322E+06    -56.9040E+06    -54.9525E+06     30.7807E+06     52.6028E+06     13.0528E+06         57.8301
            1628     10.0842E-03     114.737E-03     158.671E-03     148.333E-03    -556.169E-03     158.671E-03    -556.169E-03     148.333E-03    -1.09313E-03     351.254E-03    -174.585E-03    -176.668E-03    -172.127E-03     346.712E-03    -174.585E-03     97.2906E-03     61.8762E+06     37.7848E+06    -47.5451E+06    -46.0313E+06     36.2710E+06     61.8762E+06     11.1963E+06         60.1454
            1629     10.9280E-03     114.872E-03     160.384E-03     148.499E-03    -557.645E-03     160.383E-03    -557.644E-03     148.499E-03    -1.26560E-03     352.528E-03    -174.571E-03    -177.957E-03    -172.543E-03     347.114E-03    -174.571E-03     106.605E-03     72.3434E+06     42.1100E+06    -38.7937E+06    -37.9121E+06     41.2284E+06     72.3434E+06     8.21639E+06         62.8455
            1630     11.7693E-03     115.012E-03     162.119E-03     148.631E-03    -559.069E-03     162.118E-03    -559.069E-03     148.631E-03    -1.47497E-03     355.833E-03    -174.573E-03    -181.260E-03    -174.012E-03     348.585E-03    -174.573E-03     123.248E-03     80.1459E+06     48.8156E+06    -30.7720E+06    -30.2969E+06     48.3406E+06     80.1459E+06     6.04277E+06         65.8072
            1631     12.6085E-03     115.193E-03     163.900E-03     148.747E-03    -560.495E-03     163.899E-03    -560.495E-03     148.747E-03    -1.41580E-03     356.816E-03    -174.586E-03    -182.230E-03    -174.375E-03     348.961E-03    -174.586E-03     128.955E-03     87.4322E+06     59.4739E+06    -23.5905E+06    -23.2296E+06     59.1130E+06     87.4322E+06     5.40344E+06         68.8261
            1632     13.4501E-03     115.352E-03     165.662E-03     148.775E-03    -561.678E-03     165.661E-03    -561.677E-03     148.775E-03    -1.43749E-03     364.879E-03    -174.619E-03    -190.260E-03    -176.946E-03     351.566E-03    -174.619E-03     165.000E-03     105.991E+06     79.9000E+06    -16.2288E+06    -16.0378E+06     79.7089E+06     105.991E+06     3.92852E+06         71.6512
            1633     14.2924E-03     115.639E-03     167.404E-03     148.750E-03    -562.588E-03     167.403E-03    -562.588E-03     148.750E-03    -939.071E-06     364.812E-03    -174.670E-03    -190.141E-03    -177.231E-03     351.901E-03    -174.670E-03     161.390E-03     135.320E+06     106.143E+06    -8.29582E+06    -8.24958E+06     106.097E+06     135.320E+06     2.18250E+06         74.0404
            1634     839.801E-06     115.702E-03     164.316E-03     110.368E-03    -518.012E-03     164.248E-03    -518.012E-03     110.435E-03    -152.877E-06     349.121E-03    -174.187E-03    -174.934E-03    -174.697E-03     349.121E-03    -174.424E-03    -194.554E-06    -147.702E+06    -153.378E+06    -355.355E+06    -152.309E+06    -355.337E+06    -148.789E+06     1.49896E+06         49.9192
            1635     1.68024E-03     115.700E-03     137.754E-03     137.340E-03    -518.510E-03     137.685E-03    -518.509E-03     137.408E-03     188.083E-06     348.448E-03    -173.927E-03    -174.521E-03    -173.927E-03     348.447E-03    -174.521E-03     917.437E-06    -135.370E+06    -147.555E+06    -340.452E+06    -147.578E+06    -340.429E+06    -135.370E+06     2.07015E+06         50.0659
            1636     2.52115E-03     115.700E-03     138.419E-03     137.615E-03    -519.444E-03     138.418E-03    -519.443E-03     137.615E-03     404.819E-06     348.300E-03    -173.828E-03    -174.472E-03    -173.857E-03     348.289E-03    -174.432E-03     4.02057E-03    -115.203E+06    -139.735E+06    -312.661E+06    -139.833E+06    -312.563E+06    -115.203E+06     3.60260E+06         50.3036
            1637     3.36089E-03     115.700E-03     139.310E-03     137.908E-03    -520.696E-03     139.310E-03    -520.695E-03     137.908E-03    -210.445E-06     348.475E-03    -173.969E-03    -174.505E-03    -173.954E-03     348.420E-03    -174.466E-03     10.0042E-03    -91.4434E+06    -130.341E+06    -274.256E+06    -130.643E+06    -273.954E+06    -91.4434E+06     6.31296E+06         50.6362
            1638     4.20082E-03     115.710E-03     140.331E-03     138.239E-03    -522.104E-03     140.331E-03    -522.103E-03     138.239E-03    -532.983E-06     348.337E-03    -173.797E-03    -174.539E-03    -173.647E-03     348.186E-03    -174.539E-03     17.3063E-03    -66.6068E+06    -120.060E+06    -232.013E+06    -120.684E+06    -231.389E+06    -66.6068E+06     8.09711E+06         51.0714
            1639     5.04223E-03     115.727E-03     141.604E-03     138.596E-03    -523.710E-03     141.603E-03    -523.709E-03     138.596E-03    -1.72112E-03     347.929E-03    -173.358E-03    -174.571E-03    -173.036E-03     347.607E-03    -174.571E-03     25.4834E-03    -41.9241E+06    -108.522E+06    -187.984E+06    -109.655E+06    -186.851E+06    -41.9241E+06     9.09239E+06         51.6259
            1640     5.88347E-03     115.755E-03     143.122E-03     138.973E-03    -525.554E-03     143.122E-03    -525.553E-03     138.973E-03    -1.42327E-03     347.854E-03    -173.288E-03    -174.565E-03    -172.649E-03     347.214E-03    -174.565E-03     35.9654E-03    -18.3506E+06    -95.0299E+06    -143.580E+06    -98.2904E+06    -140.319E+06    -18.3506E+06     10.5480E+06         52.3300
            1641     6.72252E-03     115.803E-03     144.789E-03     139.361E-03    -527.457E-03     144.788E-03    -527.456E-03     139.361E-03    -1.65855E-03     348.314E-03    -173.754E-03    -174.561E-03    -172.625E-03     347.186E-03    -174.561E-03     48.0876E-03     4.41949E+06    -68.3155E+06    -104.405E+06    -87.3248E+06    -85.3961E+06     4.41949E+06     12.8842E+06         53.2305
            1642     7.56275E-03     115.863E-03     146.528E-03     139.744E-03    -529.364E-03     146.527E-03    -529.363E-03     139.744E-03    -1.63515E-03     348.546E-03    -173.965E-03    -174.582E-03    -172.196E-03     346.747E-03    -174.551E-03     60.8423E-03     28.0017E+06    -14.5484E+06    -80.6485E+06    -76.3836E+06    -18.8132E+06     28.0017E+06     14.5395E+06         54.3914
            1643     8.40512E-03     115.943E-03     148.365E-03     140.113E-03    -531.301E-03     148.365E-03    -531.301E-03     140.113E-03    -1.19708E-03     348.979E-03    -174.178E-03    -174.801E-03    -171.802E-03     346.316E-03    -174.514E-03     74.1816E-03     44.5408E+06     25.4602E+06    -68.1550E+06    -65.5860E+06     22.8913E+06     44.5408E+06     15.2341E+06         55.8856
            1644     9.24621E-03     116.043E-03     150.282E-03     140.468E-03    -533.227E-03     150.282E-03    -533.226E-03     140.468E-03    -1.16172E-03     350.555E-03    -174.502E-03    -176.053E-03    -172.494E-03     346.996E-03    -174.502E-03     86.1383E-03     53.1187E+06     34.5156E+06    -58.5165E+06    -56.2413E+06     32.2405E+06     53.1187E+06     14.2501E+06         57.7771
            1645     10.0866E-03     116.155E-03     152.228E-03     140.811E-03    -535.141E-03     152.227E-03    -535.140E-03     140.811E-03    -984.419E-06     352.251E-03    -174.548E-03    -177.703E-03    -173.176E-03     347.724E-03    -174.548E-03     97.3605E-03     62.9416E+06     41.4015E+06    -48.5666E+06    -47.0528E+06     39.8877E+06     62.9416E+06     11.4334E+06         60.0944
            1646     10.9265E-03     116.285E-03     154.226E-03     141.146E-03    -537.064E-03     154.225E-03    -537.063E-03     141.146E-03    -1.18515E-03     352.751E-03    -174.592E-03    -178.159E-03    -172.785E-03     347.376E-03    -174.592E-03     106.245E-03     73.7631E+06     45.9171E+06    -39.0067E+06    -38.0450E+06     44.9555E+06     73.7631E+06     8.91773E+06         62.8039
            1647     11.7681E-03     116.431E-03     156.281E-03     141.457E-03    -538.958E-03     156.280E-03    -538.957E-03     141.457E-03    -1.45288E-03     354.830E-03    -174.573E-03    -180.257E-03    -173.041E-03     347.614E-03    -174.573E-03     122.760E-03     80.9511E+06     49.4366E+06    -31.4482E+06    -30.7961E+06     48.7845E+06     80.9511E+06     7.19071E+06         65.7860
            1648     12.6105E-03     116.609E-03     158.336E-03     141.758E-03    -540.816E-03     158.335E-03    -540.815E-03     141.758E-03    -1.53462E-03     356.273E-03    -174.535E-03    -181.738E-03    -173.820E-03     348.354E-03    -174.535E-03     129.397E-03     88.5972E+06     60.2708E+06    -23.6837E+06    -23.2526E+06     59.8397E+06     88.5972E+06     5.95043E+06         68.8324
            1649     13.4516E-03     116.770E-03     160.337E-03     141.981E-03    -542.400E-03     160.336E-03    -542.399E-03     141.981E-03    -1.71037E-03     364.726E-03    -174.545E-03    -190.180E-03    -176.774E-03     351.319E-03    -174.545E-03     165.738E-03     107.804E+06     82.8089E+06    -15.8821E+06    -15.6334E+06     82.5602E+06     107.804E+06     4.66637E+06         71.6836
            1650     14.2939E-03     117.054E-03     162.296E-03     142.153E-03    -543.704E-03     162.295E-03    -543.703E-03     142.153E-03    -1.15404E-03     364.839E-03    -174.599E-03    -190.240E-03    -177.338E-03     351.936E-03    -174.599E-03     161.290E-03     137.189E+06     109.655E+06    -8.71925E+06    -8.63419E+06     109.570E+06     137.189E+06     2.70261E+06         74.0910
            1651     839.527E-06     117.119E-03     161.611E-03     98.3728E-03    -495.997E-03     161.543E-03    -495.997E-03     98.4402E-03    -72.2013E-06     349.284E-03    -174.197E-03    -175.086E-03    -174.827E-03     349.283E-03    -174.456E-03     167.250E-06    -152.218E+06    -158.687E+06    -359.271E+06    -157.609E+06    -359.263E+06    -153.304E+06     614.298E+03         49.8826
            1652     1.67949E-03     117.116E-03     130.385E-03     129.986E-03    -496.560E-03     130.317E-03    -496.559E-03     130.054E-03     288.196E-06     348.479E-03    -173.890E-03    -174.589E-03    -173.888E-03     348.476E-03    -174.589E-03     1.68438E-03    -138.034E+06    -151.235E+06    -344.093E+06    -151.269E+06    -344.060E+06    -138.034E+06     2.03360E+06         50.0299
            1653     2.52062E-03     117.113E-03     131.176E-03     130.274E-03    -497.597E-03     131.175E-03    -497.597E-03     130.274E-03     327.164E-06     347.954E-03    -173.531E-03    -174.424E-03    -173.518E-03     347.942E-03    -174.424E-03     4.71765E-03    -118.625E+06    -144.376E+06    -318.039E+06    -144.444E+06    -317.972E+06    -118.625E+06     3.20351E+06         50.2684
            1654     3.36249E-03     117.117E-03     132.124E-03     130.599E-03    -498.939E-03     132.123E-03    -498.938E-03     130.599E-03    -221.309E-06     347.781E-03    -173.435E-03    -174.346E-03    -173.383E-03     347.728E-03    -174.346E-03     9.88299E-03    -95.1890E+06    -134.008E+06    -280.420E+06    -134.211E+06    -280.217E+06    -95.1890E+06     4.97140E+06         50.6017
            1655     4.20321E-03     117.126E-03     133.270E-03     130.971E-03    -500.499E-03     133.270E-03    -500.499E-03     130.971E-03    -483.752E-06     347.781E-03    -173.435E-03    -174.346E-03    -173.292E-03     347.638E-03    -174.346E-03     16.7889E-03    -69.4966E+06    -121.826E+06    -237.787E+06    -122.321E+06    -237.293E+06    -69.4966E+06     7.23481E+06         51.0371
            1656     5.04286E-03     117.143E-03     134.649E-03     131.383E-03    -502.267E-03     134.648E-03    -502.266E-03     131.383E-03    -1.57604E-03     348.016E-03    -173.619E-03    -174.397E-03    -173.300E-03     347.697E-03    -174.397E-03     25.3074E-03    -44.1918E+06    -109.871E+06    -192.727E+06    -111.081E+06    -191.517E+06    -44.1918E+06     9.34811E+06         51.5904
            1657     5.88191E-03     117.173E-03     136.219E-03     131.823E-03    -504.219E-03     136.218E-03    -504.219E-03     131.823E-03    -1.35910E-03     347.927E-03    -173.476E-03    -174.452E-03    -172.837E-03     347.288E-03    -174.452E-03     35.9911E-03    -20.5263E+06    -97.4448E+06    -148.901E+06    -100.364E+06    -145.982E+06    -20.5263E+06     11.0887E+06         52.2914
            1658     6.72451E-03     117.218E-03     138.039E-03     132.282E-03    -506.357E-03     138.039E-03    -506.356E-03     132.282E-03    -1.50448E-03     347.729E-03    -173.282E-03    -174.446E-03    -172.134E-03     346.580E-03    -174.446E-03     48.4192E-03     2.46514E+06    -72.3358E+06    -108.720E+06    -88.9390E+06    -92.1173E+06     2.46514E+06     12.7850E+06         53.1874
            1659     7.56598E-03     117.281E-03     139.978E-03     132.754E-03    -508.540E-03     139.977E-03    -508.539E-03     132.754E-03    -1.51632E-03     348.461E-03    -173.906E-03    -174.555E-03    -172.239E-03     346.658E-03    -174.419E-03     60.9926E-03     26.0297E+06    -19.6422E+06    -82.5818E+06    -77.6049E+06    -24.6190E+06     26.0297E+06     15.2890E+06         54.3427
            1660     8.40462E-03     117.359E-03     141.952E-03     133.226E-03    -510.718E-03     141.952E-03    -510.718E-03     133.226E-03    -1.22350E-03     349.445E-03    -174.427E-03    -175.018E-03    -172.394E-03     346.821E-03    -174.427E-03     73.7058E-03     43.1163E+06     23.1527E+06    -70.7153E+06    -67.5164E+06     19.9538E+06     43.1163E+06     16.9799E+06         55.8309
            1661     9.24655E-03     117.458E-03     144.041E-03     133.691E-03    -512.918E-03     144.041E-03    -512.917E-03     133.691E-03    -1.21461E-03     350.510E-03    -174.457E-03    -176.053E-03    -172.533E-03     346.990E-03    -174.457E-03     85.6668E-03     54.3018E+06     38.0026E+06    -59.6056E+06    -57.1321E+06     35.5291E+06     54.3018E+06     15.1598E+06         57.7190
            1662     10.0871E-03     117.574E-03     146.231E-03     134.157E-03    -515.163E-03     146.230E-03    -515.162E-03     134.157E-03    -1.06270E-03     352.011E-03    -174.507E-03    -177.504E-03    -173.023E-03     347.531E-03    -174.507E-03     96.8304E-03     64.7530E+06     44.5309E+06    -49.4938E+06    -48.0366E+06     43.0736E+06     64.7530E+06     11.5365E+06         60.0394
            1663     10.9258E-03     117.705E-03     148.476E-03     134.633E-03    -517.471E-03     148.475E-03    -517.470E-03     134.633E-03    -1.33484E-03     352.832E-03    -174.550E-03    -178.282E-03    -172.824E-03     347.374E-03    -174.550E-03     107.027E-03     74.7518E+06     47.3976E+06    -40.7999E+06    -39.7034E+06     46.3011E+06     74.7518E+06     9.72563E+06         62.7603
            1664     11.7681E-03     117.843E-03     150.692E-03     135.093E-03    -519.670E-03     150.691E-03    -519.669E-03     135.093E-03    -1.63308E-03     354.910E-03    -174.528E-03    -180.381E-03    -172.961E-03     347.489E-03    -174.528E-03     124.533E-03     82.6065E+06     52.7600E+06    -32.1083E+06    -31.3064E+06     51.9581E+06     82.6065E+06     8.11891E+06         65.7623
            1665     12.6111E-03     118.026E-03     152.849E-03     135.539E-03    -521.761E-03     152.848E-03    -521.760E-03     135.539E-03    -1.77236E-03     355.832E-03    -174.473E-03    -181.359E-03    -173.412E-03     347.885E-03    -174.473E-03     129.454E-03     89.4034E+06     61.5464E+06    -24.6619E+06    -24.2002E+06     61.0847E+06     89.4034E+06     6.22076E+06         68.8350
            1666     13.4535E-03     118.185E-03     154.925E-03     135.911E-03    -523.554E-03     154.924E-03    -523.553E-03     135.911E-03    -1.98378E-03     364.489E-03    -174.476E-03    -190.013E-03    -176.733E-03     351.209E-03    -174.476E-03     164.847E-03     108.354E+06     83.3952E+06    -17.3186E+06    -17.0519E+06     83.1285E+06     108.354E+06     5.02313E+06         71.7123
            1667     14.2948E-03     118.472E-03     156.995E-03     136.235E-03    -525.207E-03     156.993E-03    -525.206E-03     136.235E-03    -1.60290E-03     364.789E-03    -174.542E-03    -190.247E-03    -177.439E-03     351.981E-03    -174.542E-03     160.697E-03     139.665E+06     114.126E+06    -8.55132E+06    -8.44343E+06     114.019E+06     139.665E+06     3.23910E+06         74.1382
            1668     840.487E-06     118.536E-03     158.969E-03     88.3686E-03    -475.751E-03     158.969E-03    -475.751E-03     88.3686E-03    -346.191E-06     347.923E-03    -173.420E-03    -174.503E-03    -174.375E-03     347.922E-03    -173.547E-03     889.683E-06    -152.323E+06    -160.637E+06    -362.656E+06    -158.893E+06    -362.635E+06    -154.089E+06     1.40580E+06         49.8418
            1669     1.68159E-03     118.531E-03     124.263E-03     123.774E-03    -476.666E-03     124.262E-03    -476.665E-03     123.774E-03     312.414E-06     348.326E-03    -173.865E-03    -174.461E-03    -174.208E-03     348.323E-03    -174.115E-03     2.13694E-03    -138.508E+06    -152.924E+06    -348.152E+06    -152.949E+06    -348.127E+06    -138.508E+06     1.57963E+06         49.9899
            1670     2.52146E-03     118.530E-03     125.030E-03     124.062E-03    -477.710E-03     125.030E-03    -477.709E-03     124.062E-03     312.988E-06     348.325E-03    -173.920E-03    -174.406E-03    -174.051E-03     348.312E-03    -174.261E-03     4.94772E-03    -119.471E+06    -144.712E+06    -321.012E+06    -144.785E+06    -320.939E+06    -119.471E+06     3.20955E+06         50.2294
            1671     3.36098E-03     118.531E-03     125.964E-03     124.405E-03    -479.066E-03     125.964E-03    -479.066E-03     124.405E-03    -9.66119E-06     347.770E-03    -173.467E-03    -174.303E-03    -173.420E-03     347.723E-03    -174.303E-03     9.49578E-03    -97.6596E+06    -135.604E+06    -284.437E+06    -135.718E+06    -284.323E+06    -97.6596E+06     3.94004E+06         50.5635
            1672     4.20224E-03     118.541E-03     127.220E-03     124.802E-03    -480.757E-03     127.219E-03    -480.756E-03     124.802E-03    -346.973E-06     347.288E-03    -173.016E-03    -174.272E-03    -172.877E-03     347.149E-03    -174.272E-03     16.4503E-03    -74.0439E+06    -125.271E+06    -243.902E+06    -125.593E+06    -243.580E+06    -74.0439E+06     5.62122E+06         50.9991
            1673     5.04353E-03     118.559E-03     128.701E-03     125.253E-03    -482.668E-03     128.700E-03    -482.667E-03     125.253E-03    -1.39374E-03     347.391E-03    -173.137E-03    -174.255E-03    -172.803E-03     347.058E-03    -174.255E-03     25.8105E-03    -49.1835E+06    -113.283E+06    -199.420E+06    -114.193E+06    -198.510E+06    -49.1835E+06     8.29884E+06         51.5515
            1674     5.88494E-03     118.590E-03     130.301E-03     125.743E-03    -484.703E-03     130.301E-03    -484.703E-03     125.743E-03    -1.24268E-03     347.816E-03    -173.496E-03    -174.320E-03    -172.872E-03     347.168E-03    -174.296E-03     36.3350E-03    -23.5265E+06    -99.3145E+06    -154.021E+06    -101.946E+06    -151.389E+06    -23.5265E+06     10.5386E+06         52.2497
            1675     6.72406E-03     118.633E-03     132.089E-03     126.253E-03    -486.857E-03     132.088E-03    -486.856E-03     126.253E-03    -1.46423E-03     348.016E-03    -173.649E-03    -174.367E-03    -172.553E-03     346.896E-03    -174.343E-03     47.8980E-03     568.612E+03    -76.6258E+06    -111.818E+06    -90.2823E+06    -98.1615E+06     568.612E+03     12.7555E+06         53.1407
            1676     7.56496E-03     118.697E-03     134.063E-03     126.778E-03    -489.126E-03     134.062E-03    -489.125E-03     126.778E-03    -1.44893E-03     348.456E-03    -173.984E-03    -174.472E-03    -172.318E-03     346.674E-03    -174.356E-03     60.5885E-03     23.1715E+06    -26.8707E+06    -85.7833E+06    -79.4630E+06    -33.1910E+06     23.1715E+06     16.2408E+06         54.2894
            1677     8.40693E-03     118.778E-03     136.156E-03     127.314E-03    -491.464E-03     136.156E-03    -491.463E-03     127.314E-03    -1.13883E-03     349.647E-03    -174.383E-03    -175.264E-03    -172.685E-03     347.069E-03    -174.383E-03     73.1499E-03     41.1612E+06     21.1030E+06    -72.2781E+06    -68.5843E+06     17.4092E+06     41.1612E+06     18.0328E+06         55.7712
            1678     9.24527E-03     118.875E-03     138.377E-03     127.861E-03    -493.876E-03     138.376E-03    -493.875E-03     127.861E-03    -1.23410E-03     350.320E-03    -174.423E-03    -175.898E-03    -172.331E-03     346.753E-03    -174.423E-03     86.0562E-03     53.8803E+06     41.0948E+06    -61.0871E+06    -58.6077E+06     38.6154E+06     53.8803E+06     15.5711E+06         57.6559
            1679     10.0860E-03     118.992E-03     140.700E-03     128.422E-03    -496.345E-03     140.699E-03    -496.344E-03     128.422E-03    -1.14967E-03     350.827E-03    -174.419E-03    -176.408E-03    -171.760E-03     346.179E-03    -174.419E-03     98.4023E-03     65.2086E+06     46.9273E+06    -51.2919E+06    -49.6376E+06     45.2729E+06     65.2086E+06     12.6319E+06         59.9809
            1680     10.9307E-03     119.119E-03     143.022E-03     128.998E-03    -498.815E-03     143.021E-03    -498.814E-03     128.998E-03    -1.48037E-03     352.369E-03    -174.404E-03    -177.965E-03    -172.453E-03     346.857E-03    -174.404E-03     107.511E-03     75.9603E+06     48.9472E+06    -42.2530E+06    -41.0242E+06     47.7184E+06     75.9603E+06     10.4541E+06         62.7154
            1681     11.7714E-03     119.262E-03     145.315E-03     129.562E-03    -501.191E-03     145.313E-03    -501.190E-03     129.562E-03    -1.78205E-03     355.550E-03    -174.407E-03    -181.143E-03    -173.750E-03     348.157E-03    -174.407E-03     124.452E-03     84.2147E+06     55.5906E+06    -33.9423E+06    -33.0203E+06     54.6686E+06     84.2147E+06     8.98959E+06         65.7367
            1682     12.6111E-03     119.441E-03     147.537E-03     130.115E-03    -503.433E-03     147.535E-03    -503.432E-03     130.115E-03    -1.94846E-03     356.371E-03    -174.408E-03    -181.963E-03    -174.025E-03     348.434E-03    -174.408E-03     129.528E-03     90.6322E+06     64.6914E+06    -27.0241E+06    -26.3811E+06     64.0484E+06     90.6322E+06     7.49478E+06         68.8330
            1683     13.4531E-03     119.601E-03     149.616E-03     130.599E-03    -505.328E-03     149.615E-03    -505.326E-03     130.599E-03    -2.07659E-03     364.533E-03    -174.432E-03    -190.101E-03    -176.703E-03     351.135E-03    -174.432E-03     165.454E-03     109.046E+06     86.3445E+06    -19.7155E+06    -19.4450E+06     86.0740E+06     109.046E+06     4.86625E+06         71.7356
            1684     14.2945E-03     119.889E-03     151.688E-03     131.039E-03    -506.973E-03     151.687E-03    -506.972E-03     131.039E-03    -1.84284E-03     363.940E-03    -174.473E-03    -189.467E-03    -176.560E-03     351.033E-03    -174.473E-03     160.932E-03     140.637E+06     117.217E+06    -10.5645E+06    -10.5045E+06     117.157E+06     140.637E+06     1.87659E+06         74.1822
            1685     842.275E-06     119.948E-03     156.499E-03     80.8513E-03    -458.099E-03     156.483E-03    -458.099E-03     80.8666E-03    -266.703E-06     347.097E-03    -173.214E-03    -173.884E-03    -173.882E-03     347.096E-03    -173.214E-03     46.6094E-06    -157.966E+06    -163.262E+06    -365.411E+06    -161.297E+06    -365.354E+06    -159.988E+06     535.116E+03         49.7953
            1686     1.68156E-03     119.947E-03     119.168E-03     118.747E-03    -458.740E-03     119.153E-03    -458.739E-03     118.762E-03     510.739E-06     347.816E-03    -173.710E-03    -174.106E-03    -174.067E-03     347.814E-03    -173.747E-03     1.76171E-03    -143.354E+06    -156.160E+06    -350.460E+06    -156.070E+06    -350.450E+06    -143.454E+06     1.32466E+06         49.9445
            1687     2.52156E-03     119.945E-03     119.974E-03     119.021E-03    -459.837E-03     119.974E-03    -459.837E-03     119.021E-03     326.239E-06     347.959E-03    -173.832E-03    -174.127E-03    -173.959E-03     347.941E-03    -173.982E-03     5.48264E-03    -123.628E+06    -148.075E+06    -324.309E+06    -148.117E+06    -324.267E+06    -123.628E+06     1.55050E+06         50.1854
            1688     3.36227E-03     119.948E-03     120.958E-03     119.368E-03    -461.250E-03     120.958E-03    -461.250E-03     119.368E-03     11.1273E-06     347.723E-03    -173.624E-03    -174.098E-03    -173.566E-03     347.665E-03    -174.098E-03     10.6744E-03    -101.667E+06    -138.626E+06    -287.903E+06    -138.705E+06    -287.824E+06    -101.667E+06     2.66285E+06         50.5208
            1689     4.20279E-03     119.954E-03     122.158E-03     119.774E-03    -462.909E-03     122.158E-03    -462.908E-03     119.774E-03    -377.617E-06     347.365E-03    -173.220E-03    -174.145E-03    -173.065E-03     347.210E-03    -174.145E-03     17.4699E-03    -77.5756E+06    -127.841E+06    -247.757E+06    -128.024E+06    -247.574E+06    -77.5756E+06     4.18592E+06         50.9568
            1690     5.04423E-03     119.974E-03     123.617E-03     120.232E-03    -464.803E-03     123.617E-03    -464.803E-03     120.232E-03    -1.33603E-03     347.236E-03    -173.073E-03    -174.162E-03    -172.748E-03     346.910E-03    -174.162E-03     25.6896E-03    -52.7374E+06    -115.653E+06    -204.704E+06    -116.146E+06    -204.212E+06    -52.7374E+06     6.05711E+06         51.5082
            1691     5.88486E-03     120.005E-03     125.227E-03     120.733E-03    -466.849E-03     125.226E-03    -466.849E-03     120.733E-03    -1.19405E-03     347.567E-03    -173.344E-03    -174.223E-03    -172.738E-03     346.937E-03    -174.199E-03     35.7150E-03    -27.8229E+06    -101.778E+06    -159.935E+06    -103.450E+06    -158.263E+06    -27.8229E+06     8.54517E+06         52.2037
            1692     6.72545E-03     120.052E-03     127.020E-03     121.266E-03    -469.027E-03     127.019E-03    -469.026E-03     121.266E-03    -1.46687E-03     348.185E-03    -173.868E-03    -174.317E-03    -172.801E-03     347.064E-03    -174.263E-03     47.9275E-03    -3.90769E+06    -80.8238E+06    -117.820E+06    -91.8472E+06    -106.796E+06    -3.90769E+06     12.4704E+06         53.0897
            1693     7.56535E-03     120.112E-03     128.985E-03     121.823E-03    -471.319E-03     128.984E-03    -471.318E-03     121.823E-03    -1.48857E-03     348.675E-03    -174.244E-03    -174.431E-03    -172.526E-03     346.836E-03    -174.310E-03     61.4700E-03     19.1813E+06    -34.6236E+06    -89.0688E+06    -81.0477E+06    -42.6447E+06     19.1813E+06     16.5298E+06         54.2316
            1694     8.40480E-03     120.197E-03     131.104E-03     122.402E-03    -473.720E-03     131.104E-03    -473.719E-03     122.402E-03    -1.19205E-03     348.851E-03    -174.115E-03    -174.736E-03    -171.862E-03     346.167E-03    -174.305E-03     74.5168E-03     38.3429E+06     18.1570E+06    -73.8207E+06    -69.9119E+06     14.2483E+06     38.3429E+06     18.3162E+06         55.7075
            1695     9.24693E-03     120.292E-03     133.323E-03     123.004E-03    -476.179E-03     133.323E-03    -476.178E-03     123.004E-03    -1.32529E-03     349.346E-03    -174.076E-03    -175.271E-03    -171.437E-03     345.702E-03    -174.265E-03     86.8534E-03     52.2907E+06     44.3037E+06    -62.8369E+06    -59.9416E+06     41.4084E+06     52.2907E+06     17.2564E+06         57.5903
            1696     10.0912E-03     120.404E-03     135.605E-03     123.621E-03    -478.667E-03     135.604E-03    -478.666E-03     123.621E-03    -1.34668E-03     350.900E-03    -174.244E-03    -176.656E-03    -171.983E-03     346.228E-03    -174.244E-03     98.7228E-03     64.0372E+06     50.3290E+06    -53.6672E+06    -51.5980E+06     48.2599E+06     64.0372E+06     14.4106E+06         59.9186
            1697     10.9301E-03     120.538E-03     137.909E-03     124.250E-03    -481.155E-03     137.907E-03    -481.154E-03     124.250E-03    -1.70972E-03     352.682E-03    -174.280E-03    -178.401E-03    -172.977E-03     347.258E-03    -174.280E-03     106.761E-03     75.8338E+06     51.2177E+06    -44.8461E+06    -43.4097E+06     49.7814E+06     75.8338E+06     11.5690E+06         62.6630
            1698     11.7710E-03     120.678E-03     140.164E-03     124.872E-03    -483.534E-03     140.162E-03    -483.532E-03     124.872E-03    -2.07247E-03     355.270E-03    -174.322E-03    -180.949E-03    -173.714E-03     348.036E-03    -174.322E-03     123.040E-03     84.6171E+06     56.2592E+06    -36.5073E+06    -35.4705E+06     55.2224E+06     84.6171E+06     9.62679E+06         65.7031
            1699     12.6135E-03     120.859E-03     142.387E-03     125.486E-03    -485.828E-03     142.385E-03    -485.826E-03     125.486E-03    -2.26161E-03     356.159E-03    -174.327E-03    -181.832E-03    -173.906E-03     348.233E-03    -174.327E-03     129.458E-03     92.3259E+06     68.1708E+06    -27.5418E+06    -26.9063E+06     67.5353E+06     92.3259E+06     7.53512E+06         68.8255
            1700     13.4538E-03     121.017E-03     144.512E-03     126.043E-03    -487.799E-03     144.509E-03    -487.797E-03     126.043E-03    -2.46151E-03     364.020E-03    -174.333E-03    -189.688E-03    -176.103E-03     350.435E-03    -174.333E-03     166.432E-03     111.959E+06     91.5190E+06    -17.6233E+06    -17.3805E+06     91.2761E+06     111.959E+06     4.60404E+06         71.7557
            1701     14.2977E-03     121.303E-03     146.463E-03     126.559E-03    -489.325E-03     146.461E-03    -489.323E-03     126.559E-03    -2.17418E-03     363.423E-03    -174.344E-03    -189.079E-03    -176.001E-03     350.345E-03    -174.344E-03     161.805E-03     143.869E+06     120.793E+06    -8.20788E+06    -8.15743E+06     120.742E+06     143.869E+06     1.75612E+06         74.2233
            1702     839.521E-06     121.361E-03     154.025E-03     75.7036E-03    -442.501E-03     154.009E-03    -442.501E-03     75.7190E-03    -327.593E-06     347.155E-03    -173.363E-03    -173.793E-03    -173.379E-03     347.154E-03    -173.775E-03     376.802E-06    -163.767E+06    -168.918E+06    -366.440E+06    -168.736E+06    -366.365E+06    -164.024E+06    -448.207E+03         49.7411
            1703     1.68180E-03     121.361E-03     115.268E-03     114.935E-03    -443.027E-03     115.253E-03    -443.026E-03     114.950E-03     522.097E-06     346.724E-03    -173.137E-03    -173.587E-03    -173.146E-03     346.720E-03    -173.574E-03     2.53821E-03    -152.132E+06    -163.465E+06    -351.011E+06    -163.388E+06    -350.988E+06    -152.232E+06    -421.629E+03         49.8917
            1704     2.52322E-03     121.359E-03     115.984E-03     115.163E-03    -443.984E-03     115.984E-03    -443.984E-03     115.163E-03     279.694E-06     346.915E-03    -173.331E-03    -173.584E-03    -173.311E-03     346.895E-03    -173.584E-03     5.98784E-03    -130.984E+06    -154.757E+06    -324.826E+06    -154.768E+06    -324.816E+06    -130.984E+06    -774.821E+03         50.1346
            1705     3.36405E-03     121.362E-03     116.958E-03     115.476E-03    -445.348E-03     116.958E-03    -445.348E-03     115.476E-03     115.133E-06     347.350E-03    -173.545E-03    -173.805E-03    -173.571E-03     347.288E-03    -173.717E-03     10.9640E-03    -107.056E+06    -143.868E+06    -290.401E+06    -143.904E+06    -290.365E+06    -107.056E+06    -196.226E+03         50.4719
            1706     4.20433E-03     121.370E-03     118.130E-03     115.864E-03    -446.960E-03     118.130E-03    -446.960E-03     115.864E-03    -285.626E-06     347.735E-03    -173.711E-03    -174.025E-03    -173.678E-03     347.577E-03    -173.900E-03     17.7038E-03    -82.0683E+06    -131.773E+06    -250.882E+06    -131.828E+06    -250.827E+06    -82.0683E+06     1.43116E+06         50.9089
            1707     5.04372E-03     121.390E-03     119.462E-03     116.305E-03    -448.710E-03     119.462E-03    -448.710E-03     116.305E-03    -1.11397E-03     347.644E-03    -173.556E-03    -174.088E-03    -173.245E-03     347.296E-03    -174.052E-03     26.4437E-03    -57.8048E+06    -119.825E+06    -208.881E+06    -119.989E+06    -208.716E+06    -57.8048E+06     3.07909E+06         51.4598
            1708     5.88405E-03     121.421E-03     121.014E-03     116.792E-03    -450.687E-03     121.013E-03    -450.687E-03     116.792E-03    -1.03774E-03     347.427E-03    -173.297E-03    -174.130E-03    -172.636E-03     346.766E-03    -174.130E-03     36.6516E-03    -35.0649E+06    -107.726E+06    -167.204E+06    -108.551E+06    -166.379E+06    -35.0649E+06     5.97605E+06         52.1527
            1709     6.72565E-03     121.466E-03     122.793E-03     117.322E-03    -452.844E-03     122.793E-03    -452.843E-03     117.322E-03    -1.21794E-03     347.653E-03    -173.458E-03    -174.195E-03    -172.331E-03     346.496E-03    -174.165E-03     48.6153E-03    -11.4738E+06    -88.9242E+06    -124.570E+06     -96.102E+06    -117.393E+06    -11.4738E+06     10.1802E+06         53.0343
            1710     7.56608E-03     121.531E-03     124.684E-03     117.887E-03    -455.065E-03     124.683E-03    -455.064E-03     117.887E-03    -1.33279E-03     347.948E-03    -173.677E-03    -174.271E-03    -171.906E-03     346.067E-03    -174.161E-03     62.1409E-03     12.8405E+06    -44.5855E+06    -92.3545E+06    -83.6004E+06    -53.3396E+06     12.8405E+06     15.1770E+06         54.1704
            1711     8.40815E-03     121.610E-03     126.703E-03     118.481E-03    -457.390E-03     126.702E-03    -457.389E-03     118.481E-03    -1.18788E-03     348.178E-03    -173.684E-03    -174.494E-03    -171.353E-03     345.466E-03    -174.113E-03     74.8360E-03     34.5475E+06     14.1139E+06    -77.0055E+06    -72.8756E+06     9.98403E+06     34.5475E+06     18.4638E+06         55.6406
            1712     9.25128E-03     121.706E-03     128.816E-03     119.097E-03    -459.748E-03     128.816E-03    -459.747E-03     119.097E-03    -1.32898E-03     349.452E-03    -173.893E-03    -175.559E-03    -171.813E-03     345.897E-03    -174.083E-03     85.9331E-03     49.9111E+06     45.9473E+06    -66.0752E+06    -62.9922E+06     42.8642E+06     49.9111E+06     18.2797E+06         57.5195
            1713     10.0895E-03     121.822E-03     130.946E-03     119.727E-03    -462.080E-03     130.945E-03    -462.079E-03     119.727E-03    -1.48920E-03     351.317E-03    -174.126E-03    -177.191E-03    -172.618E-03     346.745E-03    -174.126E-03     97.6915E-03     63.1213E+06     53.8099E+06    -55.7776E+06    -53.3747E+06     51.4071E+06     63.1213E+06     15.9848E+06         59.8480
            1714     10.9314E-03     121.954E-03     133.109E-03     120.367E-03    -464.428E-03     133.107E-03    -464.426E-03     120.367E-03    -1.92853E-03     352.483E-03    -174.196E-03    -178.287E-03    -172.800E-03     346.997E-03    -174.196E-03     107.322E-03     76.3079E+06     55.3426E+06    -46.2596E+06    -44.6126E+06     53.6956E+06     76.3079E+06     12.7183E+06         62.6016
            1715     11.7723E-03     122.095E-03     135.263E-03     121.003E-03    -466.717E-03     135.261E-03    -466.714E-03     121.003E-03    -2.36686E-03     354.906E-03    -174.224E-03    -180.682E-03    -173.313E-03     347.537E-03    -174.224E-03     124.106E-03     85.9598E+06     58.5225E+06    -35.8522E+06    -34.9652E+06     57.6356E+06     85.9598E+06     8.77946E+06         65.6618
            1716     12.6132E-03     122.273E-03     137.360E-03     121.634E-03    -468.902E-03     137.357E-03    -468.899E-03     121.634E-03    -2.64906E-03     355.501E-03    -174.200E-03    -181.300E-03    -173.248E-03     347.448E-03    -174.200E-03     130.321E-03     95.1197E+06     71.2062E+06    -24.9370E+06    -24.5558E+06      70.825E+06     95.1197E+06     5.87963E+06         68.8117
            1717     13.4572E-03     122.434E-03     139.289E-03     122.212E-03    -470.701E-03     139.286E-03    -470.697E-03     122.212E-03    -2.87259E-03     363.242E-03    -174.175E-03    -189.067E-03    -175.554E-03     349.730E-03    -174.175E-03     166.052E-03     114.233E+06     94.8830E+06    -16.6497E+06    -16.4760E+06     94.7094E+06     114.233E+06     4.20188E+06         71.7696
            1718     14.3007E-03     122.714E-03     141.074E-03     122.744E-03    -472.183E-03     141.071E-03    -472.180E-03     122.744E-03    -2.49265E-03     363.338E-03    -174.190E-03    -189.148E-03    -176.173E-03     350.363E-03    -174.190E-03     161.345E-03     145.667E+06     124.097E+06    -9.07344E+06    -9.01587E+06     124.040E+06     145.667E+06     2.51646E+06         74.2563
            1719     841.406E-06     122.776E-03     151.426E-03     72.8188E-03    -428.668E-03     151.425E-03    -428.667E-03     72.8188E-03    -275.508E-06     346.345E-03    -172.692E-03    -173.654E-03    -173.241E-03     346.344E-03    -173.103E-03     930.251E-06    -165.946E+06    -175.614E+06    -365.336E+06    -172.386E+06    -365.289E+06    -169.221E+06    -228.719E+03         49.6774
            1720     1.68268E-03     122.771E-03     112.587E-03     112.207E-03    -429.354E-03     112.587E-03    -429.354E-03     112.207E-03     664.651E-06     346.017E-03    -172.745E-03    -173.272E-03    -172.821E-03     346.012E-03    -173.190E-03     2.90707E-03    -154.958E+06    -167.269E+06    -347.292E+06    -167.360E+06    -347.201E+06    -154.958E+06    -2.82772E+06         49.8298
            1721     2.52398E-03     122.774E-03     113.225E-03     112.433E-03    -430.246E-03     113.225E-03    -430.246E-03     112.433E-03     366.750E-06     346.300E-03    -173.060E-03    -173.239E-03    -173.057E-03     346.280E-03    -173.223E-03     6.16700E-03    -136.284E+06    -158.657E+06    -323.187E+06    -158.779E+06    -323.065E+06    -136.284E+06    -3.81075E+06         50.0751
            1722     3.36472E-03     122.775E-03     113.995E-03     112.717E-03    -431.361E-03     113.994E-03    -431.361E-03     112.717E-03     341.361E-06     346.905E-03    -173.386E-03    -173.519E-03    -173.441E-03     346.836E-03    -173.395E-03     11.4110E-03    -113.197E+06    -148.834E+06    -290.935E+06    -148.918E+06    -290.850E+06    -113.197E+06    -3.15759E+06         50.4150
            1723     4.20477E-03     122.788E-03     115.011E-03     113.055E-03    -432.772E-03     115.011E-03    -432.772E-03     113.055E-03    -65.7083E-06     347.294E-03    -173.536E-03    -173.757E-03    -173.511E-03     347.123E-03    -173.612E-03     18.5420E-03    -88.8815E+06    -137.499E+06    -253.911E+06    -137.584E+06    -253.826E+06    -88.8815E+06    -2.37836E+06         50.8540
            1724     5.04539E-03     122.805E-03     116.296E-03     113.454E-03    -434.432E-03     116.296E-03    -434.432E-03     113.454E-03    -745.786E-06     347.231E-03    -173.412E-03    -173.820E-03    -173.070E-03     346.853E-03    -173.783E-03     27.4886E-03    -64.5674E+06    -124.990E+06    -213.413E+06    -125.060E+06    -213.344E+06    -64.5674E+06    -416.554E+03         51.4056
            1725     5.88644E-03     122.837E-03     117.714E-03     113.908E-03    -436.253E-03     117.714E-03    -436.253E-03     113.908E-03    -815.402E-06     347.279E-03    -173.390E-03    -173.889E-03    -172.665E-03     346.554E-03    -173.889E-03     38.4567E-03    -41.2538E+06    -112.407E+06    -172.969E+06    -112.694E+06    -172.681E+06    -41.2538E+06     2.41674E+06         52.0971
            1726     6.72593E-03     122.882E-03     119.335E-03     114.408E-03    -438.230E-03     119.334E-03    -438.229E-03     114.408E-03    -961.359E-06     347.360E-03    -173.418E-03    -173.942E-03    -172.185E-03     346.127E-03    -173.942E-03     50.2052E-03    -18.3457E+06    -96.6946E+06    -129.705E+06    -99.7622E+06    -126.637E+06    -18.3457E+06     5.89057E+06         52.9746
            1727     7.56824E-03     122.945E-03     121.080E-03     114.947E-03    -440.271E-03     121.079E-03    -440.271E-03     114.947E-03    -1.05723E-03     347.668E-03    -173.387E-03    -174.281E-03    -171.838E-03     345.785E-03    -173.947E-03     62.2956E-03     5.30786E+06    -58.0814E+06    -94.5819E+06    -86.3408E+06    -66.3225E+06     5.30786E+06     11.6022E+06         54.1047
            1728     8.41005E-03     123.025E-03     122.841E-03     115.512E-03    -442.304E-03     122.841E-03    -442.304E-03     115.512E-03    -980.173E-06     348.655E-03    -173.714E-03    -174.941E-03    -172.096E-03     346.049E-03    -173.953E-03     73.4839E-03     29.4463E+06     5.90376E+06    -77.6640E+06    -73.6070E+06     1.90685E+06     29.3861E+06     17.4039E+06         55.5673
            1729     9.24848E-03     123.124E-03     124.748E-03     116.096E-03    -444.406E-03     124.747E-03    -444.405E-03     116.096E-03    -1.31656E-03     349.709E-03    -173.998E-03    -175.712E-03    -172.184E-03     346.182E-03    -173.998E-03     85.5492E-03     48.9847E+06     46.1152E+06    -65.8171E+06    -62.5793E+06     42.9375E+06     48.9245E+06     18.6918E+06         57.4397
            1730     10.0912E-03     123.238E-03     126.739E-03     116.697E-03    -446.556E-03     126.738E-03    -446.555E-03     116.697E-03    -1.55611E-03     350.748E-03    -174.044E-03    -176.704E-03    -172.063E-03     346.107E-03    -174.044E-03     98.3213E-03     63.4116E+06     55.6817E+06    -55.0539E+06    -52.5363E+06     53.1640E+06     63.4116E+06     16.4163E+06         59.7682
            1731     10.9324E-03     123.370E-03     128.678E-03     117.311E-03    -448.664E-03     128.676E-03    -448.662E-03     117.311E-03    -2.07728E-03     351.613E-03    -174.064E-03    -177.549E-03    -171.994E-03     346.058E-03    -174.064E-03     107.818E-03     77.8322E+06     61.0889E+06    -44.5150E+06    -42.9310E+06     59.5049E+06     77.8322E+06     12.6846E+06         62.5320
            1732     11.7751E-03     123.510E-03     130.608E-03     117.921E-03    -450.691E-03     130.605E-03    -450.688E-03     117.921E-03    -2.60761E-03     354.116E-03    -174.051E-03    -180.065E-03    -172.601E-03     346.652E-03    -174.051E-03     124.737E-03     88.7838E+06     64.0426E+06    -34.8960E+06    -34.1794E+06     63.3260E+06     88.7838E+06     8.13678E+06         65.6122
            1733     12.6175E-03     123.690E-03     132.415E-03     118.521E-03    -452.570E-03     132.412E-03    -452.566E-03     118.521E-03    -2.91879E-03     355.210E-03    -174.012E-03    -181.198E-03    -173.117E-03     347.129E-03    -174.012E-03     130.466E-03     96.4084E+06     72.8386E+06    -27.1013E+06    -26.7982E+06     72.5356E+06     96.4084E+06     5.44705E+06         68.7878
            1734     13.4595E-03     123.845E-03     134.037E-03     119.066E-03    -454.069E-03     134.032E-03    -454.064E-03     119.066E-03    -3.16907E-03     363.440E-03    -174.007E-03    -189.433E-03    -175.940E-03     349.948E-03    -174.007E-03     165.961E-03     115.370E+06     97.2596E+06    -19.1530E+06    -18.9742E+06     97.0808E+06     115.370E+06     4.42885E+06         71.7700
            1735     14.3008E-03     124.133E-03     135.615E-03     119.565E-03    -455.326E-03     135.611E-03    -455.322E-03     119.565E-03    -2.98822E-03     362.954E-03    -174.038E-03    -188.916E-03    -175.913E-03     349.951E-03    -174.038E-03     161.542E-03     147.642E+06     127.632E+06    -9.85672E+06    -9.79304E+06     127.568E+06     147.642E+06     2.54798E+06         74.2740
            1736     841.958E-06     124.187E-03     148.655E-03     72.4360E-03    -417.058E-03     148.638E-03    -417.057E-03     72.4520E-03    -32.4991E-06     345.243E-03    -172.134E-03    -173.109E-03    -173.108E-03     345.242E-03    -172.134E-03     474.888E-06    -171.192E+06    -179.615E+06    -359.833E+06    -176.435E+06    -359.737E+06    -174.467E+06    -3.08728E+06         49.6020
            1737     1.68300E-03     124.184E-03     110.784E-03     110.552E-03    -417.444E-03     110.767E-03    -417.444E-03     110.568E-03     881.805E-06     345.849E-03    -172.740E-03    -173.109E-03    -173.058E-03     345.844E-03    -172.786E-03     2.68173E-03    -160.778E+06    -171.217E+06    -341.054E+06    -171.378E+06    -340.893E+06    -160.778E+06    -4.10933E+06         49.7565
            1738     2.52440E-03     124.185E-03     111.363E-03     110.723E-03    -418.209E-03     111.363E-03    -418.209E-03     110.723E-03     338.943E-06     345.835E-03    -172.779E-03    -173.057E-03    -172.820E-03     345.813E-03    -172.993E-03     6.38133E-03    -140.405E+06    -164.409E+06    -319.643E+06    -164.618E+06    -319.434E+06    -140.405E+06    -5.36258E+06         50.0049
            1739     3.36553E-03     124.190E-03     112.098E-03     110.966E-03    -419.240E-03     112.098E-03    -419.240E-03     110.966E-03     470.374E-06     345.820E-03    -172.686E-03    -173.134E-03    -172.643E-03     345.740E-03    -173.097E-03     12.2970E-03    -118.868E+06    -154.283E+06    -289.562E+06    -154.652E+06    -289.192E+06    -118.868E+06    -6.51049E+06         50.3483
            1740     4.20676E-03     124.201E-03     112.932E-03     111.263E-03    -420.425E-03     112.931E-03    -420.425E-03     111.263E-03     110.172E-06     346.069E-03    -172.845E-03    -173.224E-03    -172.667E-03     345.871E-03    -173.204E-03     19.8657E-03    -95.3704E+06    -142.220E+06    -253.966E+06    -142.726E+06    -253.460E+06    -95.3704E+06    -6.91031E+06         50.7907
            1741     5.04755E-03     124.220E-03     114.011E-03     111.610E-03    -421.820E-03     114.011E-03    -421.820E-03     111.610E-03    -428.897E-06     346.557E-03    -173.118E-03    -173.439E-03    -172.806E-03     346.154E-03    -173.349E-03     28.5138E-03    -70.7162E+06    -129.069E+06    -217.060E+06    -129.605E+06    -216.525E+06    -70.7162E+06    -5.80258E+06         51.3442
            1742     5.88804E-03     124.251E-03     115.203E-03     112.005E-03    -423.349E-03     115.202E-03    -423.349E-03     112.005E-03    -491.347E-06     346.861E-03    -173.279E-03    -173.581E-03    -172.616E-03     346.107E-03    -173.491E-03     39.1324E-03    -47.1918E+06    -115.535E+06    -177.624E+06    -115.963E+06    -177.197E+06    -47.1918E+06    -3.54721E+06         52.0352
            1743     6.73006E-03     124.298E-03     116.546E-03     112.440E-03    -424.988E-03     116.545E-03    -424.987E-03     112.440E-03    -756.050E-06     347.364E-03    -173.435E-03    -173.929E-03    -172.515E-03     346.124E-03    -173.609E-03     50.4735E-03    -24.4566E+06    -101.570E+06    -134.840E+06    -102.551E+06    -133.859E+06    -24.4566E+06    -324.622E+03         52.9091
            1744     7.56992E-03     124.359E-03     118.039E-03     112.909E-03    -426.694E-03     118.039E-03    -426.693E-03     112.909E-03    -885.774E-06     348.386E-03    -173.640E-03    -174.746E-03    -172.740E-03     346.456E-03    -173.717E-03     63.0173E-03    -1.54837E+06    -70.1461E+06    -96.9080E+06    -88.0740E+06    -78.9800E+06    -1.54837E+06     4.65426E+06         54.0320
            1745     8.40837E-03     124.444E-03     119.601E-03     113.408E-03    -428.441E-03     119.601E-03    -428.441E-03     113.408E-03    -886.564E-06     349.015E-03    -173.805E-03    -175.210E-03    -172.495E-03     346.300E-03    -173.805E-03     75.0661E-03     22.5430E+06    -10.5705E+06    -75.7676E+06    -73.2717E+06    -13.0062E+06     22.4829E+06     12.0863E+06         55.4857
            1746     9.25128E-03     124.538E-03     121.234E-03     113.929E-03    -430.208E-03     121.233E-03    -430.207E-03     113.929E-03    -1.26827E-03     349.369E-03    -173.856E-03    -175.513E-03    -171.883E-03     345.739E-03    -173.856E-03     86.7466E-03     48.0071E+06     37.9928E+06    -63.8311E+06    -60.5041E+06     38.1630E+06     44.5098E+06     18.4006E+06         57.3510
            1747     10.0924E-03     124.654E-03     122.914E-03     114.465E-03    -431.976E-03     122.913E-03    -431.975E-03     114.465E-03    -1.60218E-03     350.239E-03    -173.877E-03    -176.361E-03    -171.670E-03     345.547E-03    -173.877E-03     98.8208E-03     64.5990E+06     56.9884E+06    -54.0622E+06    -51.2011E+06     57.5645E+06     61.1618E+06     17.6858E+06         59.6780
            1748     10.9347E-03     124.784E-03     124.597E-03     115.012E-03    -433.749E-03     124.594E-03    -433.747E-03     115.012E-03    -2.21647E-03     351.035E-03    -173.891E-03    -177.144E-03    -171.610E-03     345.501E-03    -173.891E-03     107.509E-03     77.9880E+06     66.8302E+06    -44.6406E+06    -43.0171E+06     65.2067E+06     77.9880E+06     13.2545E+06         62.4484
            1749     11.7768E-03     124.925E-03     126.156E-03     115.551E-03    -435.348E-03     126.152E-03    -435.345E-03     115.551E-03    -2.87354E-03     353.507E-03    -173.880E-03    -179.627E-03    -172.222E-03     346.103E-03    -173.880E-03     124.137E-03     91.3994E+06     69.7363E+06    -36.0181E+06    -35.0480E+06     68.7661E+06     91.3994E+06     9.92110E+06         65.5444
            1750     12.6199E-03     125.103E-03     127.597E-03     116.071E-03    -436.783E-03     127.592E-03    -436.778E-03     116.071E-03    -3.26168E-03     355.004E-03    -173.851E-03    -181.153E-03    -173.175E-03     347.026E-03    -173.851E-03     129.595E-03     99.6687E+06     76.7099E+06    -27.7176E+06    -27.2534E+06     76.2457E+06     99.6687E+06     6.52065E+06         68.7421
            1751     13.4609E-03     125.263E-03     128.901E-03     116.537E-03    -437.884E-03     128.895E-03    -437.878E-03     116.537E-03    -3.67734E-03     362.758E-03    -173.848E-03    -188.909E-03    -175.491E-03     349.340E-03    -173.848E-03     165.142E-03     118.048E+06     99.2224E+06    -18.2908E+06    -18.1528E+06     99.0843E+06     118.048E+06     3.51266E+06         71.7472
            1752     14.3055E-03     125.544E-03     130.093E-03     116.956E-03    -438.652E-03     130.087E-03    -438.645E-03     116.956E-03    -3.78070E-03     361.490E-03    -173.842E-03    -187.648E-03    -174.594E-03     348.436E-03    -173.842E-03     161.662E-03     150.539E+06     129.631E+06    -8.78009E+06    -8.72970E+06     129.580E+06     150.539E+06     2.22551E+06         74.2691
            1753     842.307E-06     125.596E-03     145.524E-03     73.9058E-03    -406.725E-03     145.508E-03    -406.724E-03     73.9217E-03    -72.1228E-06     344.238E-03    -171.819E-03    -172.419E-03    -172.373E-03     344.235E-03    -171.863E-03     1.61406E-03    -174.436E+06    -184.096E+06    -352.553E+06    -181.116E+06    -352.463E+06    -177.506E+06    -2.04539E+06         49.5120
            1754     1.68345E-03     125.598E-03     109.964E-03     109.733E-03    -407.148E-03     109.948E-03    -407.148E-03     109.749E-03     741.373E-06     344.865E-03    -172.247E-03    -172.618E-03    -172.564E-03     344.855E-03    -172.291E-03     4.20461E-03    -165.067E+06    -177.122E+06    -334.979E+06    -177.326E+06    -334.775E+06    -165.067E+06    -4.15025E+06         49.6693
            1755     2.52440E-03     125.596E-03     110.449E-03     109.891E-03    -407.784E-03     110.449E-03    -407.784E-03     109.891E-03     352.470E-06     345.087E-03    -172.360E-03    -172.727E-03    -172.523E-03     345.051E-03    -172.528E-03     7.96913E-03    -144.361E+06    -168.749E+06    -312.225E+06    -169.146E+06    -311.828E+06    -144.361E+06    -6.88425E+06         49.9217
            1756     3.36659E-03     125.602E-03     111.020E-03     110.097E-03    -408.623E-03     111.019E-03    -408.623E-03     110.097E-03     705.396E-06     344.920E-03    -172.192E-03    -172.728E-03    -172.168E-03     344.833E-03    -172.664E-03     13.1821E-03    -122.249E+06    -158.749E+06    -283.782E+06    -159.523E+06    -283.009E+06    -122.249E+06    -9.48888E+06         50.2697
            1757     4.20914E-03     125.612E-03     111.714E-03     110.345E-03    -409.609E-03     111.714E-03    -409.609E-03     110.345E-03     335.995E-06     345.020E-03    -172.268E-03    -172.753E-03    -172.062E-03     344.815E-03    -172.753E-03     20.1270E-03    -99.3132E+06    -146.477E+06    -250.680E+06    -147.832E+06    -249.324E+06    -99.3132E+06    -11.3593E+06         50.7164
            1758     5.05052E-03     125.635E-03     112.506E-03     110.629E-03    -410.642E-03     112.506E-03    -410.642E-03     110.629E-03    -162.915E-06     345.717E-03    -172.702E-03    -173.015E-03    -172.419E-03     345.302E-03    -172.883E-03     29.0023E-03    -76.7819E+06    -133.639E+06    -217.989E+06    -135.548E+06    -216.080E+06    -76.7819E+06    -11.9799E+06         51.2726
            1759     5.89101E-03     125.665E-03     113.390E-03     110.944E-03    -411.767E-03     113.390E-03    -411.767E-03     110.944E-03    -203.203E-06     346.565E-03    -173.039E-03    -173.526E-03    -172.735E-03     345.802E-03    -173.067E-03     39.3740E-03    -54.3698E+06    -119.492E+06    -181.940E+06    -121.923E+06    -179.509E+06    -54.3698E+06    -11.1361E+06         51.9634
            1760     6.73087E-03     125.713E-03     114.394E-03     111.287E-03    -412.952E-03     114.394E-03    -412.952E-03     111.287E-03    -441.103E-06     347.420E-03    -173.239E-03    -174.180E-03    -172.871E-03     346.138E-03    -173.267E-03     51.2787E-03    -31.2297E+06    -103.718E+06    -141.675E+06    -106.821E+06    -138.572E+06    -31.2297E+06    -9.00505E+06         52.8334
            1761     7.57080E-03     125.777E-03     115.574E-03     111.660E-03    -414.237E-03     115.574E-03    -414.237E-03     111.660E-03    -640.976E-06     348.047E-03    -173.427E-03    -174.621E-03    -172.618E-03     346.045E-03    -173.427E-03     64.1849E-03    -8.79654E+06    -77.5607E+06    -103.474E+06    -91.9170E+06    -89.1182E+06    -8.79654E+06    -4.96838E+06         53.9488
            1762     8.41338E-03     125.858E-03     116.909E-03     112.064E-03    -415.648E-03     116.909E-03    -415.648E-03     112.064E-03    -708.382E-06     348.642E-03    -173.527E-03    -175.115E-03    -172.296E-03     345.822E-03    -173.527E-03     76.4607E-03     13.1042E+06    -31.6443E+06    -79.3858E+06    -77.7432E+06    -33.2869E+06     13.1042E+06     4.06811E+06         55.3930
            1763     9.25270E-03     125.955E-03     118.217E-03     112.494E-03    -416.983E-03     118.216E-03    -416.983E-03     112.494E-03    -1.01798E-03     349.514E-03    -173.582E-03    -175.933E-03    -172.273E-03     345.855E-03    -173.582E-03     87.2334E-03     41.0936E+06     18.4836E+06    -67.9581E+06    -65.5771E+06     24.6598E+06     32.5365E+06     14.7404E+06         57.2485
            1764     10.0944E-03     126.068E-03     119.463E-03     112.932E-03    -418.212E-03     119.462E-03    -418.211E-03     112.932E-03    -1.57885E-03     350.199E-03    -173.633E-03    -176.566E-03    -171.894E-03     345.527E-03    -173.633E-03     98.5904E-03     64.9095E+06     51.5225E+06    -57.4132E+06    -54.7263E+06     62.1019E+06     51.6433E+06     17.7571E+06         59.5689
            1765     10.9362E-03     126.199E-03     120.677E-03     113.368E-03    -419.399E-03     120.675E-03    -419.397E-03     113.368E-03    -2.36166E-03     350.939E-03    -173.705E-03    -177.234E-03    -171.746E-03     345.450E-03    -173.705E-03     107.091E-03     78.7836E+06     67.4591E+06    -46.7375E+06    -44.9804E+06     70.4112E+06     74.0744E+06     14.2176E+06         62.3401
            1766     11.7790E-03     126.337E-03     121.797E-03     113.785E-03    -420.441E-03     121.792E-03    -420.436E-03     113.785E-03    -3.15190E-03     353.645E-03    -173.753E-03    -179.892E-03    -172.571E-03     346.324E-03    -173.753E-03     123.442E-03     92.5958E+06     74.6714E+06    -36.8304E+06    -35.8449E+06     73.6859E+06     92.5958E+06     10.2360E+06         65.4458
            1767     12.6201E-03     126.519E-03     122.834E-03     114.177E-03    -421.347E-03     122.827E-03    -421.340E-03     114.177E-03    -3.90043E-03     354.112E-03    -173.738E-03    -180.374E-03    -172.394E-03     346.132E-03    -173.738E-03     129.435E-03     104.325E+06     82.2004E+06    -26.8941E+06    -26.4157E+06     81.7220E+06     104.325E+06     6.79623E+06         68.6623
            1768     13.4635E-03     126.676E-03     123.725E-03     114.513E-03    -421.933E-03     123.715E-03    -421.923E-03     114.513E-03    -4.59768E-03     360.935E-03    -173.668E-03    -187.267E-03    -173.754E-03     347.421E-03    -173.668E-03     165.168E-03     121.701E+06     101.565E+06    -18.9971E+06    -18.8343E+06     101.402E+06     121.701E+06     3.89126E+06         71.6913
            1769     14.3077E-03     126.954E-03     124.516E-03     114.799E-03    -422.196E-03     124.505E-03    -422.185E-03     114.799E-03    -4.91138E-03     359.695E-03    -173.571E-03    -186.124E-03    -172.931E-03     346.502E-03    -173.571E-03     162.117E-03     153.242E+06     131.547E+06    -11.0462E+06    -10.9828E+06     131.484E+06     153.242E+06     1.85825E+06         74.2314
            1770     842.264E-06     127.006E-03     142.348E-03     76.9295E-03    -397.753E-03     142.347E-03    -397.752E-03     76.9295E-03     184.726E-06     342.545E-03    -171.117E-03    -171.428E-03    -171.358E-03     342.540E-03    -171.182E-03     2.70660E-03    -179.984E+06    -188.121E+06    -346.105E+06    -185.163E+06    -345.992E+06    -183.054E+06    -1.83897E+06         49.4027
            1771     1.68583E-03     127.006E-03     109.939E-03     109.690E-03    -398.224E-03     109.938E-03    -398.223E-03     109.690E-03     930.748E-06     342.833E-03    -171.327E-03    -171.506E-03    -171.425E-03     342.817E-03    -171.393E-03     5.50006E-03    -166.877E+06    -179.270E+06    -325.502E+06    -179.587E+06    -325.185E+06    -166.877E+06    -5.45299E+06         49.5634
            1772     2.52825E-03     127.008E-03     110.290E-03     109.830E-03    -398.714E-03     110.290E-03    -398.713E-03     109.830E-03     637.008E-06     343.646E-03    -171.622E-03    -172.024E-03    -171.976E-03     343.598E-03    -171.622E-03     9.57890E-03    -147.450E+06    -170.226E+06    -303.210E+06    -170.946E+06    -302.490E+06    -147.450E+06    -9.38022E+06         49.8207
            1773     3.36902E-03     127.012E-03     110.610E-03     109.985E-03    -399.233E-03     110.610E-03    -399.232E-03     109.985E-03     898.351E-06     344.504E-03    -171.891E-03    -172.613E-03    -172.439E-03     344.390E-03    -171.951E-03     14.9782E-03    -122.849E+06    -158.677E+06    -275.280E+06    -160.030E+06    -273.928E+06    -122.849E+06    -12.1471E+06         50.1741
            1774     4.20962E-03     127.024E-03     111.061E-03     110.155E-03    -399.885E-03     111.061E-03    -399.885E-03     110.155E-03     652.988E-06     344.921E-03    -172.056E-03    -172.866E-03    -172.436E-03     344.694E-03    -172.258E-03     21.3498E-03    -99.5371E+06    -147.136E+06    -245.142E+06    -149.294E+06    -242.984E+06    -99.5371E+06    -14.1213E+06         50.6253
            1775     5.05170E-03     127.045E-03     111.607E-03     110.351E-03    -400.570E-03     111.607E-03    -400.570E-03     110.351E-03     348.604E-06     345.126E-03    -172.345E-03    -172.781E-03    -172.210E-03     344.696E-03    -172.486E-03     29.4607E-03    -78.3749E+06    -134.365E+06    -213.930E+06    -138.084E+06    -210.211E+06    -78.3749E+06    -16.2171E+06         51.1842
            1776     5.89323E-03     127.080E-03     112.198E-03     110.571E-03    -401.281E-03     112.197E-03    -401.281E-03     110.571E-03     231.621E-06     346.047E-03    -172.693E-03    -173.354E-03    -172.564E-03     345.257E-03    -172.693E-03     40.0472E-03    -57.8639E+06    -119.320E+06    -181.945E+06    -125.483E+06    -175.782E+06    -57.8639E+06    -17.9894E+06         51.8746
            1777     6.73355E-03     127.128E-03     112.939E-03     110.815E-03    -402.077E-03     112.939E-03    -402.077E-03     110.815E-03     93.1650E-06     346.989E-03    -172.915E-03    -174.073E-03    -172.759E-03     345.674E-03    -172.915E-03     51.9368E-03    -37.7664E+06    -102.667E+06    -149.753E+06    -112.251E+06    -140.169E+06    -37.7664E+06    -18.0553E+06         52.7398
            1778     7.57484E-03     127.192E-03     113.755E-03     111.085E-03    -402.873E-03     113.755E-03    -402.873E-03     111.085E-03    -150.530E-06     347.453E-03    -173.096E-03    -174.356E-03    -172.369E-03     345.466E-03    -173.096E-03     63.9775E-03    -17.0638E+06    -81.6460E+06    -114.786E+06    -98.5759E+06    -97.8563E+06    -17.0638E+06    -14.0932E+06         53.8461
            1779     8.41457E-03     127.272E-03     114.544E-03     111.372E-03    -403.598E-03     114.543E-03    -403.598E-03     111.372E-03    -302.702E-06     348.419E-03    -173.224E-03    -175.195E-03    -172.398E-03     345.622E-03    -173.224E-03     76.1140E-03     2.39621E+06    -49.5878E+06    -88.1658E+06    -84.4922E+06    -53.2614E+06     2.39621E+06    -5.67237E+06         55.2774
            1780     9.25635E-03     127.372E-03     115.422E-03     111.666E-03    -404.327E-03     115.421E-03    -404.327E-03     111.666E-03    -789.439E-06     349.441E-03    -173.315E-03    -176.126E-03    -172.498E-03     345.813E-03    -173.315E-03     86.8993E-03     27.1672E+06     1.39083E+06    -70.7704E+06    -69.2592E+06     4.99954E+06     22.0473E+06     5.15312E+06         57.1189
            1781     10.0962E-03     127.483E-03     116.234E-03     111.962E-03    -404.967E-03     116.233E-03    -404.966E-03     111.962E-03    -1.47810E-03     350.374E-03    -173.398E-03    -176.975E-03    -172.373E-03     345.771E-03    -173.398E-03     97.9065E-03     59.0899E+06     43.0749E+06    -56.4453E+06    -54.7267E+06     57.2936E+06     43.1526E+06     13.5917E+06         59.4277
            1782     10.9384E-03     127.613E-03     116.863E-03     112.242E-03    -405.403E-03     116.860E-03    -405.400E-03     112.242E-03    -2.47780E-03     351.208E-03    -173.517E-03    -177.691E-03    -172.243E-03     345.760E-03    -173.517E-03     106.772E-03     78.4924E+06     63.7896E+06    -45.9316E+06    -44.1273E+06     73.8486E+06     66.6291E+06     14.6214E+06         62.1939
            1783     11.7786E-03     127.754E-03     117.443E-03     112.490E-03    -405.719E-03     117.436E-03    -405.712E-03     112.490E-03    -3.67397E-03     353.069E-03    -173.605E-03    -179.465E-03    -172.093E-03     345.698E-03    -173.605E-03     123.660E-03     91.5930E+06     79.4769E+06    -37.3575E+06    -36.2521E+06     79.4174E+06     90.5471E+06     11.0957E+06         65.3060
            1784     12.6220E-03     127.931E-03     117.952E-03     112.702E-03    -405.968E-03     117.940E-03    -405.957E-03     112.702E-03    -4.84248E-03     352.424E-03    -173.559E-03    -178.865E-03    -170.797E-03     344.356E-03    -173.559E-03     129.736E-03     106.698E+06     87.2162E+06    -29.6586E+06    -29.1316E+06     86.6892E+06     106.698E+06     7.53563E+06         68.5416
            1785     13.4678E-03     128.085E-03     118.391E-03     112.854E-03    -405.977E-03     118.372E-03    -405.959E-03     112.854E-03    -6.06166E-03     358.904E-03    -173.398E-03    -185.506E-03    -171.749E-03     345.146E-03    -173.398E-03     165.911E-03     125.887E+06     104.384E+06    -20.2631E+06    -20.0647E+06     104.186E+06     125.887E+06     4.44145E+06         71.5954
            1786     14.3149E-03     128.365E-03     118.818E-03     112.953E-03    -405.844E-03     118.795E-03    -405.821E-03     112.953E-03    -6.82496E-03     357.446E-03    -173.190E-03    -184.256E-03    -170.798E-03     343.994E-03    -173.195E-03     162.978E-03     159.156E+06     134.931E+06    -9.34094E+06    -9.27435E+06     134.864E+06     159.156E+06     2.03669E+06         74.1548
            1787     844.060E-06     128.412E-03     139.274E-03     81.3936E-03    -390.212E-03     139.203E-03    -390.211E-03     81.4635E-03     314.268E-06     340.669E-03    -170.217E-03    -170.452E-03    -170.410E-03     340.665E-03    -170.255E-03     2.58009E-03    -178.363E+06    -181.031E+06    -335.267E+06    -181.166E+06    -335.071E+06    -178.424E+06    -4.87679E+06         49.2648
            1788     1.68682E-03     128.412E-03     110.390E-03     110.232E-03    -390.246E-03     110.299E-03    -390.245E-03     110.323E-03     923.121E-06     340.938E-03    -170.396E-03    -170.542E-03    -170.486E-03     340.920E-03    -170.435E-03     5.75011E-03    -166.315E+06    -175.408E+06    -314.563E+06    -175.938E+06    -314.033E+06    -166.315E+06    -7.85509E+06         49.4292
            1789     2.53009E-03     128.415E-03     110.535E-03     110.326E-03    -390.435E-03     110.514E-03    -390.435E-03     110.347E-03     730.741E-06     341.886E-03    -170.684E-03    -171.202E-03    -171.149E-03     341.833E-03    -170.684E-03     10.1154E-03    -146.562E+06    -168.379E+06    -291.761E+06    -169.527E+06    -290.613E+06    -146.562E+06    -11.3838E+06         49.6916
            1790     3.37286E-03     128.423E-03     110.741E-03     110.419E-03    -390.775E-03     110.741E-03    -390.775E-03     110.419E-03     1.04882E-03     343.215E-03    -171.079E-03    -172.137E-03    -172.004E-03     343.083E-03    -171.079E-03     16.1333E-03    -123.468E+06    -157.567E+06    -265.911E+06    -159.778E+06    -263.700E+06    -123.468E+06    -14.8732E+06         50.0505
            1791     4.21390E-03     128.436E-03     110.960E-03     110.510E-03    -391.086E-03     110.960E-03    -391.086E-03     110.510E-03     938.623E-06     344.449E-03    -171.530E-03    -172.919E-03    -172.644E-03     344.174E-03    -171.530E-03     23.5188E-03    -100.249E+06    -144.842E+06    -237.824E+06    -148.369E+06    -234.297E+06    -100.249E+06    -17.3388E+06         50.5063
            1792     5.05348E-03     128.457E-03     111.251E-03     110.616E-03    -391.389E-03     111.251E-03    -391.389E-03     110.616E-03     817.237E-06     345.307E-03    -171.953E-03    -173.354E-03    -172.854E-03     344.807E-03    -171.953E-03     31.8304E-03    -77.7214E+06    -130.850E+06    -207.361E+06    -136.319E+06    -201.892E+06    -77.7214E+06    -19.1715E+06         51.0673
            1793     5.89477E-03     128.492E-03     111.555E-03     110.738E-03    -391.703E-03     111.554E-03    -391.703E-03     110.738E-03     793.373E-06     345.830E-03    -172.295E-03    -173.536E-03    -172.681E-03     344.976E-03    -172.295E-03     41.7358E-03    -57.3557E+06    -116.372E+06    -177.056E+06    -125.486E+06    -167.942E+06    -57.3557E+06    -21.1068E+06         51.7557
            1794     6.73563E-03     128.543E-03     111.921E-03     110.873E-03    -391.967E-03     111.920E-03    -391.966E-03     110.873E-03     608.841E-06     346.536E-03    -172.562E-03    -173.973E-03    -172.636E-03     345.198E-03    -172.562E-03     52.4295E-03    -39.8014E+06    -100.202E+06    -151.200E+06    -115.243E+06    -136.160E+06    -39.8014E+06    -22.6480E+06         52.6140
            1795     7.57557E-03     128.605E-03     112.248E-03     111.015E-03    -392.106E-03     112.248E-03    -392.106E-03     111.015E-03     333.174E-06     347.688E-03    -172.799E-03    -174.889E-03    -172.894E-03     345.694E-03    -172.799E-03     64.1290E-03    -22.9598E+06    -81.2217E+06    -125.699E+06    -103.442E+06    -103.478E+06    -22.9598E+06    -21.4465E+06         53.7075
            1796     8.41700E-03     128.689E-03     112.526E-03     111.153E-03    -392.133E-03     112.526E-03    -392.133E-03     111.153E-03     49.6626E-06     348.543E-03    -173.002E-03    -175.541E-03    -172.774E-03     345.776E-03    -173.002E-03     75.7822E-03    -5.26407E+06    -55.1474E+06    -99.7875E+06    -89.4128E+06    -65.5222E+06    -5.26407E+06    -17.2303E+06         55.1211
            1797     9.25669E-03     128.786E-03     112.826E-03     111.282E-03    -392.081E-03     112.826E-03    -392.081E-03     111.282E-03    -596.076E-06     349.114E-03    -173.135E-03    -175.979E-03    -172.409E-03     345.544E-03    -173.135E-03     86.1446E-03     13.1780E+06    -13.7908E+06    -77.4124E+06    -74.1625E+06    -17.0407E+06     13.1780E+06    -8.41819E+06         56.9437
            1798     10.0990E-03     128.899E-03     113.055E-03     111.395E-03    -391.898E-03     113.055E-03    -391.898E-03     111.395E-03    -1.28830E-03     350.048E-03    -173.204E-03    -176.844E-03    -172.288E-03     345.492E-03    -173.204E-03     97.3798E-03     45.9604E+06     25.4701E+06    -61.4489E+06    -60.4414E+06     39.2570E+06     31.1660E+06     4.65159E+06         59.2373
            1799     10.9381E-03     129.029E-03     113.149E-03     111.480E-03    -391.571E-03     113.146E-03    -391.567E-03     111.480E-03    -2.43172E-03     350.501E-03    -173.271E-03    -177.230E-03    -171.719E-03     344.990E-03    -173.271E-03     107.214E-03     74.4844E+06     52.1089E+06    -50.6236E+06    -49.4186E+06     73.2794E+06     52.1089E+06     11.7802E+06         61.9979
            1800     11.7821E-03     129.166E-03     113.187E-03     111.426E-03    -391.031E-03     113.082E-03    -391.023E-03     111.523E-03    -3.91268E-03     351.675E-03    -173.322E-03    -178.352E-03    -170.890E-03     344.212E-03    -173.322E-03     124.206E-03     87.9424E+06     76.2371E+06    -39.9954E+06    -38.9361E+06     82.7590E+06     80.3612E+06     11.2001E+06         65.1187
            1801     12.6268E-03     129.342E-03     113.228E-03     111.221E-03    -390.387E-03     112.917E-03    -390.371E-03     111.516E-03    -5.46544E-03     350.617E-03    -173.250E-03    -177.367E-03    -169.306E-03     342.557E-03    -173.250E-03     129.266E-03     107.048E+06     92.5007E+06    -28.8093E+06    -28.2678E+06     91.9592E+06     107.048E+06     7.60196E+06         68.3769
            1802     13.4720E-03     129.493E-03     113.221E-03     110.954E-03    -389.605E-03     112.710E-03    -389.577E-03     111.437E-03    -7.42523E-03     356.251E-03    -173.014E-03    -183.237E-03    -169.299E-03     342.313E-03    -173.014E-03     165.944E-03     131.255E+06     109.334E+06    -19.0634E+06    -18.8923E+06     109.163E+06     131.255E+06     4.18524E+06         71.4612
            1803     14.3211E-03     129.769E-03     113.203E-03     110.871E-03    -389.012E-03     112.729E-03    -388.968E-03     111.301E-03    -9.19295E-03     353.283E-03    -171.385E-03    -181.899E-03    -166.787E-03     339.435E-03    -172.649E-03     164.504E-03     164.021E+06     136.964E+06    -9.94901E+06    -9.87774E+06     136.893E+06     164.021E+06     2.58614E+06         74.0497
            1804     843.703E-06     129.814E-03     135.925E-03     86.4642E-03    -382.765E-03     135.774E-03    -382.764E-03     86.6143E-03     464.357E-06     338.935E-03    -169.101E-03    -169.835E-03    -169.813E-03     338.930E-03    -169.117E-03     2.78408E-03    -170.535E+06    -173.734E+06    -321.224E+06    -173.941E+06    -320.957E+06    -170.596E+06    -4.87951E+06         49.0817
            1805     1.68874E-03     129.816E-03     111.218E-03     110.983E-03    -382.736E-03     111.047E-03    -382.735E-03     111.154E-03     753.890E-06     339.405E-03    -169.585E-03    -169.820E-03    -169.779E-03     339.381E-03    -169.602E-03     6.59215E-03    -158.809E+06    -168.549E+06    -301.267E+06    -169.262E+06    -300.553E+06    -158.809E+06    -9.04710E+06         49.2492
            1806     2.53210E-03     129.821E-03     111.271E-03     111.127E-03    -382.824E-03     111.250E-03    -382.824E-03     111.148E-03     667.633E-06     340.391E-03    -169.887E-03    -170.504E-03    -170.436E-03     340.324E-03    -169.887E-03     11.3906E-03    -140.066E+06    -159.876E+06    -278.438E+06    -161.377E+06    -276.937E+06    -140.066E+06    -12.9446E+06         49.5158
            1807     3.37456E-03     129.830E-03     111.264E-03     111.099E-03    -382.810E-03     111.190E-03    -382.809E-03     111.173E-03     1.19411E-03     341.431E-03    -170.258E-03    -171.174E-03    -171.024E-03     341.282E-03    -170.258E-03     17.1875E-03    -120.529E+06    -151.059E+06    -254.757E+06    -153.845E+06    -251.971E+06    -120.529E+06    -16.4382E+06         49.8793
            1808     4.21730E-03     129.846E-03     111.304E-03     111.067E-03    -382.794E-03     111.185E-03    -382.794E-03     111.185E-03     1.13613E-03     342.825E-03    -170.681E-03    -172.145E-03    -171.833E-03     342.514E-03    -170.681E-03     24.9104E-03    -99.2490E+06    -140.176E+06    -228.566E+06    -144.957E+06    -223.785E+06    -99.2490E+06    -19.6661E+06         50.3386
            1809     5.05915E-03     129.871E-03     111.389E-03     111.079E-03    -382.743E-03     111.264E-03    -382.743E-03     111.203E-03     1.04210E-03     344.761E-03    -171.181E-03    -173.580E-03    -173.006E-03     344.186E-03    -171.181E-03     34.1830E-03    -77.0384E+06    -126.952E+06    -200.989E+06    -134.463E+06    -193.477E+06    -77.0384E+06    -21.9258E+06         50.9000
            1810     5.89760E-03     129.906E-03     111.435E-03     110.970E-03    -382.537E-03     111.184E-03    -382.536E-03     111.221E-03     1.03590E-03     346.070E-03    -171.697E-03    -174.373E-03    -173.428E-03     345.126E-03    -171.697E-03     43.9862E-03    -55.4638E+06    -111.913E+06    -172.130E+06    -123.089E+06    -160.954E+06    -55.4638E+06    -22.9517E+06         51.5842
            1811     6.73847E-03     129.955E-03     111.448E-03     110.843E-03    -382.148E-03     111.065E-03    -382.148E-03     111.226E-03     868.174E-06     346.939E-03    -172.135E-03    -174.804E-03    -173.366E-03     345.501E-03    -172.135E-03     54.4501E-03    -36.2176E+06    -94.2288E+06    -146.292E+06    -111.741E+06    -128.780E+06    -36.2176E+06    -24.0427E+06         52.4322
            1812     7.57901E-03     130.022E-03     111.436E-03     110.748E-03    -381.648E-03     110.966E-03    -381.648E-03     111.217E-03     633.970E-06     348.168E-03    -172.496E-03    -175.672E-03    -173.594E-03     346.090E-03    -172.496E-03     65.6008E-03    -20.8400E+06    -75.3809E+06    -126.868E+06    -101.416E+06    -100.833E+06    -20.8400E+06    -25.4843E+06         53.5094
            1813     8.41703E-03     130.104E-03     111.440E-03     110.570E-03    -381.030E-03     110.814E-03    -381.030E-03     111.195E-03     398.863E-06     348.661E-03    -172.773E-03    -175.887E-03    -173.081E-03     345.855E-03    -172.773E-03     76.3539E-03    -7.11266E+06    -52.6476E+06    -108.124E+06    -91.1677E+06    -69.6044E+06    -7.11266E+06    -24.5284E+06         54.9024
            1814     9.25871E-03     130.201E-03     111.360E-03     110.304E-03    -380.137E-03     110.516E-03    -380.137E-03     111.148E-03    -115.832E-06     348.832E-03    -172.929E-03    -175.903E-03    -172.191E-03     345.120E-03    -172.929E-03     87.6991E-03     6.84032E+06    -26.0310E+06    -87.4388E+06    -79.5098E+06    -33.9600E+06     6.84032E+06    -18.9534E+06         56.7048
            1815     10.0983E-03     130.314E-03     111.208E-03     109.961E-03    -379.045E-03     110.103E-03    -379.045E-03     111.065E-03    -869.735E-06     349.204E-03    -172.955E-03    -176.249E-03    -171.498E-03     344.452E-03    -172.955E-03     99.3173E-03     29.7891E+06     6.96795E+06    -68.1368E+06    -65.5419E+06     13.7281E+06     20.4341E+06    -7.74409E+06         58.9851
            1816     10.9434E-03     130.441E-03     111.012E-03     109.511E-03    -377.811E-03     109.581E-03    -377.809E-03     110.939E-03    -1.95488E-03     349.081E-03    -172.921E-03    -176.161E-03    -170.515E-03     343.436E-03    -172.921E-03     108.252E-03     64.2164E+06     40.5872E+06    -51.3199E+06    -50.6810E+06     63.5775E+06     40.5872E+06     4.13614E+06         61.7468
            1817     11.7858E-03     130.578E-03     110.765E-03     108.844E-03    -376.273E-03     108.845E-03    -376.267E-03     110.757E-03    -3.43644E-03     349.811E-03    -172.868E-03    -176.943E-03    -169.348E-03     342.215E-03    -172.868E-03     124.915E-03     85.8998E+06     67.4350E+06    -39.5869E+06    -39.0782E+06     84.4948E+06     68.3313E+06     7.67343E+06         64.8876
            1818     12.6304E-03     130.749E-03     110.509E-03     107.934E-03    -374.543E-03     107.918E-03    -374.528E-03     110.509E-03    -5.38436E-03     348.096E-03    -172.571E-03    -175.526E-03    -167.037E-03     339.751E-03    -172.714E-03     130.958E-03     102.719E+06     91.8385E+06    -30.3948E+06    -30.0957E+06     94.8336E+06     99.4245E+06     5.84235E+06         68.1854
            1819     13.4793E-03     130.897E-03     110.172E-03     106.936E-03    -372.603E-03     106.901E-03    -372.568E-03     110.172E-03    -8.07188E-03     352.501E-03    -172.212E-03    -180.288E-03    -165.511E-03     337.866E-03    -172.355E-03     168.831E-03     132.637E+06     113.638E+06    -20.3891E+06    -20.2182E+06     113.467E+06     132.637E+06     4.63344E+06         71.3235
            1820     14.3331E-03     131.166E-03     109.765E-03     106.309E-03    -371.030E-03     106.233E-03    -370.953E-03     109.765E-03    -11.7334E-03     347.247E-03    -167.853E-03    -179.393E-03    -160.737E-03     332.483E-03    -171.745E-03     168.625E-03     168.573E+06     138.686E+06    -9.71113E+06    -9.61470E+06     138.589E+06     168.573E+06     3.32165E+06         73.9664
            1821     845.701E-06     131.216E-03     132.697E-03     91.5468E-03    -375.375E-03     132.575E-03    -375.374E-03     91.6689E-03     815.666E-06     336.429E-03    -167.387E-03    -169.041E-03    -169.029E-03     336.417E-03    -167.387E-03     4.38471E-03    -161.443E+06    -165.376E+06    -305.374E+06    -164.423E+06    -305.051E+06    -162.719E+06    -5.44620E+06         48.8254
            1822     1.68967E-03     131.218E-03     112.127E-03     111.875E-03    -375.368E-03     111.939E-03    -375.367E-03     112.062E-03     831.225E-06     337.562E-03    -168.450E-03    -169.111E-03    -169.070E-03     337.521E-03    -168.450E-03     8.67748E-03    -150.459E+06    -159.093E+06    -285.421E+06    -159.940E+06    -284.533E+06    -150.499E+06    -10.1065E+06         48.9949
            1823     2.53411E-03     131.225E-03     112.109E-03     111.914E-03    -375.226E-03     111.992E-03    -375.225E-03     112.030E-03     759.995E-06     338.523E-03    -168.865E-03    -169.658E-03    -169.559E-03     338.424E-03    -168.865E-03     13.8195E-03    -133.222E+06    -151.632E+06    -265.804E+06    -153.370E+06    -264.066E+06    -133.222E+06    -13.6452E+06         49.2642
            1824     3.37797E-03     131.236E-03     112.018E-03     111.779E-03    -374.981E-03     111.792E-03    -374.980E-03     112.004E-03     1.21408E-03     339.689E-03    -169.279E-03    -170.409E-03    -170.208E-03     339.488E-03    -169.279E-03     19.9284E-03    -112.891E+06    -142.092E+06    -243.093E+06    -145.106E+06    -240.079E+06    -112.891E+06    -16.9281E+06         49.6299
            1825     4.22080E-03     131.252E-03     111.945E-03     111.518E-03    -374.594E-03     111.518E-03    -374.593E-03     111.945E-03     1.22364E-03     341.383E-03    -169.750E-03    -171.633E-03    -171.244E-03     340.994E-03    -169.750E-03     27.7880E-03    -91.7924E+06    -131.430E+06    -217.763E+06    -136.326E+06    -212.867E+06    -91.7924E+06    -19.6617E+06         50.0897
            1826     5.06229E-03     131.281E-03     111.861E-03     111.202E-03    -373.997E-03     111.202E-03    -373.996E-03     111.861E-03     1.19114E-03     343.456E-03    -170.299E-03    -173.157E-03    -172.497E-03     342.796E-03    -170.299E-03     36.6206E-03    -71.7504E+06    -119.541E+06    -191.246E+06    -127.966E+06    -182.821E+06    -71.7504E+06    -22.5266E+06         50.6486
            1827     5.90414E-03     131.320E-03     111.753E-03     110.786E-03    -373.267E-03     110.785E-03    -373.266E-03     111.753E-03     1.14786E-03     345.587E-03    -170.904E-03    -174.682E-03    -173.653E-03     344.557E-03    -170.904E-03     45.9569E-03    -52.5810E+06    -105.412E+06    -166.783E+06    -118.723E+06    -153.472E+06    -52.5810E+06    -24.9581E+06         51.3258
            1828     6.74213E-03     131.370E-03     111.621E-03     110.370E-03    -372.391E-03     110.369E-03    -372.390E-03     111.621E-03     1.11139E-03     347.383E-03    -171.506E-03    -175.877E-03    -174.294E-03     345.801E-03    -171.506E-03     57.1246E-03    -33.3191E+06    -88.4120E+06    -142.947E+06    -108.638E+06    -122.721E+06    -33.3191E+06    -25.6150E+06         52.1615
            1829     7.58051E-03     131.438E-03     111.467E-03     109.861E-03    -371.279E-03     109.861E-03    -371.278E-03     111.467E-03     888.282E-06     348.003E-03    -172.001E-03    -176.002E-03    -173.754E-03     345.755E-03    -172.001E-03     68.2683E-03    -16.3301E+06    -70.0149E+06    -123.406E+06    -98.9604E+06    -94.4601E+06    -16.3301E+06    -26.3687E+06         53.2222
            1830     8.42153E-03     131.520E-03     111.280E-03     109.178E-03    -369.883E-03     109.178E-03    -369.883E-03     111.280E-03     712.356E-06     347.970E-03    -172.307E-03    -175.663E-03    -172.619E-03     344.926E-03    -172.307E-03     79.3428E-03    -3.85890E+06    -49.3033E+06    -107.925E+06    -89.4862E+06    -67.7424E+06    -3.85890E+06    -26.6752E+06         54.5984
            1831     9.26146E-03     131.613E-03     111.051E-03     108.414E-03    -368.267E-03     108.414E-03    -368.267E-03     111.051E-03     226.207E-06     347.988E-03    -172.439E-03    -175.548E-03    -171.508E-03     343.947E-03    -172.439E-03     91.3858E-03     7.10732E+06    -27.2382E+06    -91.9401E+06    -79.5285E+06    -39.6498E+06     7.10732E+06    -25.1758E+06         56.3889
            1832     10.1059E-03     131.727E-03     110.774E-03     107.482E-03    -366.356E-03     107.482E-03    -366.356E-03     110.774E-03    -494.400E-06     348.031E-03    -172.425E-03    -175.606E-03    -170.427E-03     342.852E-03    -172.425E-03     103.415E-03     18.5439E+06     774.139E+03    -74.3048E+06    -67.2931E+06    -5.56867E+06     17.8750E+06    -19.8588E+06         58.6705
            1833     10.9464E-03     131.852E-03     110.438E-03     106.296E-03    -364.094E-03     106.294E-03    -364.093E-03     110.438E-03    -1.51153E-03     347.212E-03    -172.268E-03    -174.944E-03    -168.783E-03     341.051E-03    -172.268E-03     112.616E-03     46.4693E+06     27.6631E+06    -55.7923E+06    -53.6694E+06     42.1470E+06     29.8626E+06    -8.27198E+06         61.4562
            1834     11.7926E-03     131.987E-03     110.027E-03     104.900E-03    -361.503E-03     104.895E-03    -361.498E-03     110.027E-03    -2.92231E-03     346.753E-03    -172.016E-03    -174.738E-03    -166.329E-03     338.344E-03    -172.016E-03     130.409E-03     80.4024E+06     53.0458E+06    -41.6493E+06    -41.2976E+06     80.0508E+06     53.0458E+06     1.54294E+06         64.6513
            1835     12.6426E-03     132.152E-03     109.534E-03     103.267E-03    -358.569E-03     103.253E-03    -358.555E-03     109.534E-03    -4.86307E-03     344.466E-03    -171.066E-03    -173.400E-03    -163.406E-03     335.071E-03    -171.665E-03     137.910E-03     98.5935E+06     85.0191E+06    -30.7425E+06    -30.5962E+06     96.4684E+06     86.9980E+06     4.10740E+06         68.0316
            1836     13.4943E-03     132.296E-03     108.934E-03     101.386E-03    -355.120E-03     101.350E-03    -355.084E-03     108.934E-03    -7.92559E-03     347.410E-03    -170.504E-03    -176.905E-03    -160.392E-03     331.496E-03    -171.104E-03     174.660E-03     126.983E+06     113.616E+06    -20.8467E+06    -20.7180E+06     113.664E+06     126.806E+06     3.91487E+06         71.2699
            1837     14.3541E-03     132.552E-03     108.233E-03     99.5595E-03    -351.525E-03     99.4560E-03    -351.421E-03     108.233E-03    -13.1964E-03     340.171E-03    -164.136E-03    -176.035E-03    -153.887E-03     324.120E-03    -170.233E-03     173.860E-03     170.624E+06     140.395E+06    -10.5199E+06    -10.4358E+06     140.311E+06     170.624E+06     3.40031E+06         74.0083
            1838     847.340E-06     132.612E-03     129.170E-03     96.6033E-03    -367.774E-03     129.108E-03    -367.774E-03     96.6655E-03     614.527E-06     333.065E-03    -165.894E-03    -167.172E-03    -167.130E-03     333.048E-03    -165.918E-03     5.43540E-03    -148.026E+06    -151.060E+06    -287.734E+06    -150.149E+06    -287.368E+06    -149.302E+06    -6.11588E+06         48.4548
            1839     1.69341E-03     132.617E-03     112.829E-03     112.663E-03    -367.594E-03     112.663E-03    -367.594E-03     112.829E-03     534.167E-06     334.331E-03    -166.749E-03    -167.582E-03    -167.493E-03     334.266E-03    -166.773E-03     10.9972E-03    -140.107E+06    -147.104E+06    -270.524E+06    -148.036E+06    -269.551E+06    -140.148E+06    -10.4969E+06         48.6247
            1840     2.53821E-03     132.625E-03     112.747E-03     112.482E-03    -367.193E-03     112.481E-03    -367.192E-03     112.747E-03     633.430E-06     335.775E-03    -167.270E-03    -168.505E-03    -168.356E-03     335.626E-03    -167.270E-03     17.0181E-03    -124.542E+06    -142.285E+06    -253.114E+06    -144.127E+06    -251.273E+06    -124.542E+06    -13.8564E+06         48.8942
            1841     3.38300E-03     132.638E-03     112.645E-03     112.144E-03    -366.678E-03     112.143E-03    -366.678E-03     112.645E-03     957.741E-06     337.710E-03    -167.845E-03    -169.865E-03    -169.581E-03     337.426E-03    -167.845E-03     23.6723E-03    -104.563E+06    -133.959E+06    -230.822E+06    -137.148E+06    -227.633E+06    -104.563E+06    -17.0377E+06         49.2590
            1842     4.22621E-03     132.658E-03     112.501E-03     111.627E-03    -365.914E-03     111.627E-03    -365.914E-03     112.501E-03     1.06178E-03     340.039E-03    -168.510E-03    -171.529E-03    -171.028E-03     339.538E-03    -168.510E-03     31.6449E-03    -84.0017E+06    -123.010E+06    -207.050E+06    -128.182E+06    -201.878E+06    -84.0017E+06    -19.8791E+06         49.7160
            1843     5.06818E-03     132.690E-03     112.313E-03     111.013E-03    -364.876E-03     111.012E-03    -364.875E-03     112.313E-03     1.04160E-03     342.022E-03    -169.200E-03    -172.822E-03    -172.012E-03     341.211E-03    -169.200E-03     40.4932E-03    -63.6167E+06    -110.190E+06    -180.147E+06    -118.370E+06    -171.966E+06    -63.6167E+06    -22.0549E+06         50.2694
            1844     5.90787E-03     132.731E-03     112.084E-03     110.309E-03    -363.671E-03     110.308E-03    -363.670E-03     112.084E-03     1.00403E-03     344.171E-03    -169.874E-03    -174.297E-03    -173.042E-03     342.916E-03    -169.874E-03     50.5300E-03    -44.3091E+06    -96.6764E+06    -156.701E+06    -109.465E+06    -143.913E+06    -44.3091E+06    -24.1703E+06         50.9386
            1845     6.74869E-03     132.786E-03     111.819E-03     109.541E-03    -362.241E-03     109.540E-03    -362.240E-03     111.819E-03     970.314E-06     345.944E-03    -170.503E-03    -175.440E-03    -173.562E-03     344.065E-03    -170.503E-03     62.0838E-03    -26.8093E+06    -81.8320E+06    -136.349E+06    -100.763E+06    -117.418E+06    -26.8093E+06    -25.3515E+06         51.7646
            1846     7.58792E-03     132.854E-03     111.513E-03     108.597E-03    -360.481E-03     108.597E-03    -360.480E-03     111.513E-03     765.142E-06     346.256E-03    -170.988E-03    -175.268E-03    -172.626E-03     343.614E-03    -170.988E-03     73.7283E-03    -9.73989E+06    -63.0917E+06    -116.326E+06    -91.4889E+06    -87.9289E+06    -9.73989E+06    -25.7434E+06         52.8171
            1847     8.42869E-03     132.930E-03     111.156E-03     107.510E-03    -358.444E-03     107.510E-03    -358.443E-03     111.156E-03     562.569E-06     346.445E-03    -171.271E-03    -175.173E-03    -171.569E-03     342.840E-03    -171.271E-03     86.0330E-03     3.67721E+06    -43.7360E+06    -101.648E+06    -82.9160E+06    -62.4677E+06     3.67721E+06    -26.9013E+06         54.1912
            1848     9.27168E-03     133.029E-03     110.746E-03     106.322E-03    -356.116E-03     106.322E-03    -356.116E-03     110.746E-03     87.1800E-06     346.391E-03    -171.372E-03    -175.019E-03    -170.380E-03     341.752E-03    -171.372E-03     97.6707E-03     12.5915E+06    -23.2995E+06    -89.3073E+06    -74.6372E+06    -37.9696E+06     12.5915E+06    -26.8889E+06         55.9937
            1849     10.1133E-03     133.134E-03     110.276E-03     104.898E-03    -353.397E-03     104.898E-03    -353.397E-03     110.276E-03    -485.476E-06     345.086E-03    -171.264E-03    -173.823E-03    -167.794E-03     339.057E-03    -171.264E-03     110.709E-03     19.8367E+06    -839.186E+03    -76.7516E+06    -66.8427E+06    -10.7481E+06     19.8367E+06    -25.1868E+06         58.3141
            1850     10.9617E-03     133.264E-03     109.732E-03     103.205E-03    -350.272E-03     103.204E-03    -350.271E-03     109.732E-03    -1.39342E-03     342.968E-03    -170.823E-03    -172.145E-03    -164.635E-03     335.522E-03    -170.887E-03     122.647E-03     35.0451E+06     17.3190E+06    -63.0682E+06    -57.5317E+06     22.7692E+06     24.0584E+06    -19.5972E+06         61.1783
            1851     11.8109E-03     133.384E-03     109.100E-03     101.236E-03    -346.655E-03     101.232E-03    -346.651E-03     109.100E-03    -2.63170E-03     342.510E-03    -170.277E-03    -172.233E-03    -162.027E-03     332.368E-03    -170.341E-03     141.976E-03     66.5009E+06     40.5589E+06    -45.7731E+06    -44.0889E+06     64.8167E+06     40.5589E+06    -9.27526E+06         64.4954
            1852     12.6645E-03     133.552E-03     108.371E-03     98.9257E-03    -342.478E-03     98.9144E-03    -342.467E-03     108.371E-03    -4.31299E-03     339.960E-03    -168.647E-03    -171.312E-03    -158.896E-03     328.620E-03    -169.724E-03     150.023E-03     92.4818E+06     72.5449E+06    -31.3895E+06    -31.0779E+06     92.1702E+06     72.5449E+06    -864.164E+03         68.0300
            1853     13.5206E-03     133.685E-03     107.511E-03     96.1710E-03    -337.395E-03     96.1386E-03    -337.363E-03     107.511E-03    -7.24253E-03     342.526E-03    -167.883E-03    -174.643E-03    -155.719E-03     324.679E-03    -168.960E-03     184.162E-03     120.134E+06     107.150E+06    -20.6536E+06    -20.5986E+06     112.077E+06     115.152E+06     2.46516E+06         71.4349
            1854     14.3876E-03     133.929E-03     106.508E-03     92.8461E-03    -331.077E-03     92.7476E-03    -330.978E-03     106.508E-03    -12.4297E-03     336.514E-03    -162.808E-03    -173.706E-03    -151.255E-03     319.279E-03    -168.024E-03     178.535E-03     168.894E+06     140.575E+06    -9.90543E+06    -9.79000E+06     140.459E+06     168.894E+06     3.62258E+06         74.3160
            1855     847.659E-06     134.003E-03     125.506E-03     100.642E-03    -358.984E-03     125.376E-03    -358.984E-03     100.773E-03     293.491E-06     328.824E-03    -164.037E-03    -164.787E-03    -164.731E-03     328.792E-03    -164.061E-03     7.23870E-03    -135.669E+06    -140.431E+06    -270.223E+06    -139.590E+06    -269.890E+06    -136.844E+06    -5.62651E+06         47.9162
            1856     1.69673E-03     134.010E-03     113.015E-03     112.807E-03    -358.678E-03     112.807E-03    -358.678E-03     113.015E-03     44.9997E-06     329.779E-03    -164.577E-03    -165.201E-03    -165.079E-03     329.680E-03    -164.601E-03     13.4725E-03    -126.075E+06    -135.637E+06    -254.894E+06    -136.630E+06    -253.901E+06    -126.075E+06    -10.0870E+06         48.0849
            1857     2.54445E-03     134.021E-03     112.910E-03     112.604E-03    -358.231E-03     112.604E-03    -358.231E-03     112.910E-03     24.3217E-06     332.003E-03    -165.111E-03    -166.892E-03    -166.676E-03     331.787E-03    -165.111E-03     20.3774E-03    -110.731E+06    -127.933E+06    -239.573E+06    -129.993E+06    -237.513E+06    -110.731E+06    -14.6801E+06         48.3522
            1858     3.38955E-03     134.037E-03     112.763E-03     112.023E-03    -357.396E-03     112.023E-03    -357.396E-03     112.763E-03     340.445E-06     334.824E-03    -165.864E-03    -168.960E-03    -168.542E-03     334.406E-03    -165.864E-03     28.5127E-03    -91.5444E+06    -118.017E+06    -218.674E+06    -121.243E+06    -215.448E+06    -91.5444E+06    -17.5924E+06         48.7137
            1859     4.23280E-03     134.063E-03     112.545E-03     111.333E-03    -356.326E-03     111.333E-03    -356.326E-03     112.545E-03     511.153E-06     337.305E-03    -166.697E-03    -170.608E-03    -169.900E-03     336.597E-03    -166.697E-03     37.4210E-03    -71.3617E+06    -108.183E+06    -195.764E+06    -113.189E+06    -190.758E+06    -71.3617E+06    -19.9399E+06         49.1664
            1860     5.07510E-03     134.095E-03     112.273E-03     110.550E-03    -355.001E-03     110.550E-03    -355.000E-03     112.273E-03     577.754E-06     339.328E-03    -167.471E-03    -171.856E-03    -170.733E-03     338.205E-03    -167.471E-03     47.3093E-03    -52.3380E+06    -97.5375E+06    -170.821E+06    -105.099E+06    -163.259E+06    -52.3380E+06    -21.9546E+06         49.7158
            1861     5.91864E-03     134.140E-03     111.941E-03     109.474E-03    -353.271E-03     109.474E-03    -353.271E-03     111.941E-03     456.065E-06     341.000E-03    -168.144E-03    -172.856E-03    -171.136E-03     339.280E-03    -168.144E-03     58.8418E-03    -33.3437E+06    -85.4670E+06    -146.709E+06    -95.7655E+06    -136.410E+06    -33.3437E+06    -22.6160E+06         50.3823
            1862     6.75874E-03     134.197E-03     111.540E-03     108.271E-03    -351.214E-03     108.271E-03    -351.214E-03     111.540E-03     337.457E-06     341.769E-03    -168.662E-03    -173.107E-03    -170.624E-03     339.286E-03    -168.662E-03     70.8028E-03    -16.0053E+06    -72.0163E+06    -124.957E+06    -86.9055E+06    -110.068E+06    -16.0053E+06    -23.2883E+06         51.2110
            1863     7.60240E-03     134.262E-03     111.079E-03     107.021E-03    -348.938E-03     107.020E-03    -348.937E-03     111.079E-03     123.594E-06     342.657E-03    -169.011E-03    -173.646E-03    -170.180E-03     339.191E-03    -169.011E-03     83.7370E-03    -522.324E+03    -55.1353E+06    -104.915E+06    -78.6032E+06    -81.4476E+06    -522.324E+03    -24.0944E+06         52.2759
            1864     8.44560E-03     134.343E-03     110.560E-03     105.616E-03    -346.348E-03     105.616E-03    -346.348E-03     110.560E-03    -92.4504E-06     343.192E-03    -169.223E-03    -173.968E-03    -169.335E-03     338.558E-03    -169.223E-03     96.9722E-03     13.1580E+06    -37.9574E+06    -89.7635E+06    -71.0572E+06    -56.6638E+06     13.1580E+06    -24.5423E+06         53.6799
            1865     9.28824E-03     134.436E-03     109.976E-03     103.982E-03    -343.310E-03     103.982E-03    -343.309E-03     109.976E-03    -492.070E-06     342.172E-03    -169.216E-03    -172.956E-03    -166.883E-03     336.100E-03    -169.216E-03     110.478E-03     22.2247E+06    -20.2025E+06    -78.4755E+06    -64.2261E+06    -34.4519E+06     22.2247E+06    -24.5628E+06         55.5428
            1866     10.1362E-03     134.541E-03     109.315E-03     102.106E-03    -339.861E-03     102.105E-03    -339.860E-03     109.315E-03    -1.04249E-03     340.051E-03    -168.915E-03    -171.136E-03    -163.353E-03     332.268E-03    -168.915E-03     124.530E-03     28.9243E+06     1.37614E+06    -67.9148E+06    -57.7282E+06    -8.81046E+06     28.9243E+06    -24.0730E+06         57.9691
            1867     10.9884E-03     134.654E-03     108.567E-03     99.9578E-03    -335.941E-03     99.9556E-03    -335.939E-03     108.567E-03    -1.81914E-03     337.505E-03    -168.271E-03    -169.233E-03    -159.723E-03     328.059E-03    -168.336E-03     136.624E-03     37.2904E+06     21.5229E+06    -58.0854E+06    -51.1931E+06     17.4184E+06     34.5026E+06    -22.3986E+06         60.9940
            1868     11.8449E-03     134.784E-03     107.713E-03     97.4192E-03    -331.349E-03     97.4137E-03    -331.343E-03     107.713E-03    -2.95741E-03     336.962E-03    -167.465E-03    -169.497E-03    -156.986E-03     324.515E-03    -167.530E-03     155.913E-03     57.4325E+06     36.5930E+06    -48.0871E+06    -44.7426E+06     51.0652E+06     39.6159E+06    -16.8092E+06         64.5263
            1869     12.7033E-03     134.937E-03     106.742E-03     94.4597E-03    -326.023E-03     94.4471E-03    -326.010E-03     106.742E-03    -4.48691E-03     335.105E-03    -166.057E-03    -169.049E-03    -154.762E-03     321.439E-03    -166.677E-03     163.403E-03     81.3132E+06     58.4663E+06    -37.0155E+06    -35.9421E+06     80.2398E+06     58.4663E+06    -9.01287E+06         68.3082
            1870     13.5663E-03     135.070E-03     105.609E-03     90.9191E-03    -319.484E-03     90.8897E-03    -319.455E-03     105.609E-03    -6.77293E-03     341.250E-03    -165.293E-03    -175.958E-03    -155.910E-03     321.823E-03    -165.913E-03     193.756E-03     108.682E+06     95.1736E+06    -24.8733E+06    -24.5101E+06     105.059E+06     98.4333E+06    -2.17203E+06         71.9519
            1871     14.4301E-03     135.304E-03     104.296E-03     86.2901E-03    -311.004E-03     86.2255E-03    -310.940E-03     104.296E-03    -9.79869E-03     341.638E-03    -163.657E-03    -177.981E-03    -159.016E-03     324.425E-03    -165.409E-03     178.972E-03     163.764E+06     136.906E+06    -13.1527E+06    -13.0771E+06     139.261E+06     161.333E+06     1.88731E+06         75.0105
            1872     851.851E-06     135.388E-03     121.647E-03     103.426E-03    -348.760E-03     121.536E-03    -348.760E-03     103.536E-03     311.578E-06     322.715E-03    -160.949E-03    -161.766E-03    -161.686E-03     322.664E-03    -160.977E-03     9.11761E-03    -120.265E+06    -124.065E+06    -253.713E+06    -123.248E+06    -253.356E+06    -121.439E+06    -6.29962E+06         47.1503
            1873     1.70164E-03     135.396E-03     112.459E-03     112.172E-03    -348.314E-03     112.176E-03    -348.314E-03     112.455E-03    -398.889E-06     324.263E-03    -161.623E-03    -162.640E-03    -162.482E-03     324.104E-03    -161.623E-03     16.9928E-03    -109.379E+06    -117.631E+06    -238.515E+06    -118.626E+06    -237.520E+06    -109.379E+06    -10.1640E+06         47.3171
            1874     2.55085E-03     135.410E-03     112.297E-03     111.831E-03    -347.650E-03     111.831E-03    -347.650E-03     112.297E-03    -514.864E-06     326.409E-03    -162.222E-03    -164.187E-03    -163.830E-03     326.051E-03    -162.222E-03     25.7639E-03    -93.7625E+06    -110.437E+06    -224.192E+06    -112.591E+06    -222.037E+06    -93.7625E+06    -15.1717E+06         47.5818
            1875     3.39846E-03     135.432E-03     112.097E-03     111.249E-03    -346.736E-03     111.248E-03    -346.736E-03     112.097E-03    -330.810E-06     329.032E-03    -162.928E-03    -166.104E-03    -165.415E-03     328.343E-03    -162.928E-03     36.1321E-03    -77.9999E+06    -102.135E+06    -207.914E+06    -105.538E+06    -204.512E+06    -77.9999E+06    -18.5271E+06         47.9414
            1876     4.24483E-03     135.460E-03     111.826E-03     110.417E-03    -345.435E-03     110.417E-03    -345.435E-03     111.826E-03    -354.635E-06     331.615E-03    -163.687E-03    -167.929E-03    -166.787E-03     330.474E-03    -163.687E-03     47.0303E-03    -60.2564E+06    -92.8679E+06    -185.184E+06    -97.5538E+06    -180.498E+06    -60.2564E+06    -20.1043E+06         48.3949
            1877     5.09078E-03     135.496E-03     111.476E-03     109.339E-03    -343.701E-03     109.339E-03    -343.701E-03     111.476E-03    -356.551E-06     333.929E-03    -164.424E-03    -169.505E-03    -167.746E-03     332.170E-03    -164.424E-03     58.6320E-03    -41.3605E+06    -83.1056E+06    -161.352E+06    -89.5417E+06    -154.916E+06    -41.3605E+06    -21.2514E+06         48.9500
            1878     5.93363E-03     135.543E-03     111.038E-03     107.999E-03    -341.579E-03     107.999E-03    -341.578E-03     111.038E-03    -496.214E-06     334.861E-03    -165.015E-03    -169.845E-03    -167.318E-03     332.334E-03    -165.015E-03     70.5663E-03    -24.3117E+06    -73.7971E+06    -139.449E+06    -82.1475E+06    -131.098E+06    -24.3117E+06    -21.6674E+06         49.6313
            1879     6.78181E-03     135.598E-03     110.518E-03     106.555E-03    -339.132E-03     106.554E-03    -339.131E-03     110.518E-03    -723.296E-06     335.239E-03    -165.380E-03    -169.859E-03    -166.327E-03     331.706E-03    -165.380E-03     83.4795E-03    -7.29544E+06    -62.3517E+06    -115.292E+06    -74.3495E+06    -103.294E+06    -7.29544E+06    -21.3892E+06         50.4891
            1880     7.62794E-03     135.665E-03     109.922E-03     104.961E-03    -336.327E-03     104.960E-03    -336.326E-03     109.922E-03    -1.02910E-03     336.207E-03    -165.569E-03    -170.638E-03    -165.716E-03     331.285E-03    -165.569E-03     98.6201E-03     8.76322E+06    -49.2005E+06    -93.7444E+06    -67.1598E+06    -75.7851E+06     8.76322E+06    -21.3867E+06         51.6045
            1881     8.47331E-03     135.747E-03     109.247E-03     103.125E-03    -333.100E-03     103.124E-03    -333.099E-03     109.247E-03    -1.28194E-03     335.904E-03    -165.587E-03    -170.317E-03    -163.831E-03     329.419E-03    -165.587E-03     113.056E-03     22.5885E+06    -34.9885E+06    -78.0994E+06    -60.6268E+06    -52.4611E+06     22.5885E+06    -20.6143E+06         53.0927
            1882     9.32477E-03     135.832E-03     108.488E-03     101.092E-03    -329.456E-03     101.089E-03    -329.454E-03     108.488E-03    -1.74913E-03     334.443E-03    -165.348E-03    -169.096E-03    -160.713E-03     326.061E-03    -165.348E-03     128.039E-03     33.9141E+06    -17.4618E+06    -66.5021E+06    -54.7023E+06    -29.2616E+06     33.9141E+06    -20.6226E+06         55.0890
            1883     10.1790E-03     135.934E-03     107.635E-03     98.7823E-03    -325.315E-03     98.7784E-03    -325.311E-03     107.635E-03    -2.38627E-03     333.676E-03    -164.862E-03    -168.814E-03    -158.368E-03     323.230E-03    -164.862E-03     142.797E-03     40.9084E+06     2.34969E+06    -58.0217E+06    -49.6789E+06    -5.99310E+06     40.9084E+06    -20.2146E+06         57.7089
            1884     11.0337E-03     136.043E-03     106.679E-03     96.1061E-03    -320.609E-03     96.0994E-03    -320.602E-03     106.679E-03    -3.17627E-03     332.811E-03    -164.240E-03    -168.571E-03    -156.414E-03     320.653E-03    -164.240E-03     153.794E-03     47.2552E+06     23.1007E+06    -50.3349E+06    -45.2690E+06     18.0348E+06     47.2552E+06    -18.2651E+06         60.9896
            1885     11.8928E-03     136.164E-03     105.593E-03     93.0243E-03    -315.192E-03     93.0132E-03    -315.181E-03     105.593E-03    -4.13320E-03     333.087E-03    -163.484E-03    -169.603E-03    -154.682E-03     318.166E-03    -163.484E-03     170.083E-03     60.8016E+06     41.7087E+06    -43.5621E+06    -40.1501E+06     48.5122E+06     50.5861E+06    -17.0640E+06         64.8293
            1886     12.7579E-03     136.315E-03     104.367E-03     89.4610E-03    -308.928E-03     89.4435E-03    -308.910E-03     104.367E-03    -5.21024E-03     334.482E-03    -162.826E-03    -171.656E-03    -156.404E-03     319.230E-03    -162.826E-03     172.720E-03     77.3507E+06     58.1734E+06    -34.8831E+06    -33.0418E+06     69.5609E+06     64.1219E+06    -13.3601E+06         68.9336
            1887     13.6163E-03     136.450E-03     102.944E-03     85.1756E-03    -301.350E-03     85.1496E-03    -301.324E-03     102.944E-03    -6.27988E-03     347.386E-03    -162.581E-03    -184.805E-03    -165.364E-03     327.945E-03    -162.581E-03     197.836E-03     102.487E+06     89.9071E+06    -25.3076E+06    -24.7158E+06     94.7594E+06     97.0425E+06    -6.41214E+06         72.8602
            1888     14.4681E-03     136.699E-03     101.320E-03     79.9549E-03    -292.120E-03     79.9262E-03    -292.091E-03     101.320E-03    -6.25884E-03     356.555E-03    -163.045E-03    -193.510E-03    -177.431E-03     340.476E-03    -163.045E-03     176.449E-03     159.375E+06     134.351E+06    -13.8009E+06    -13.7380E+06     136.718E+06     156.944E+06    -1.44070E+06         76.1105
            1889     854.659E-06     136.763E-03     117.203E-03     104.844E-03    -336.688E-03     117.143E-03    -336.687E-03     104.903E-03    -212.546E-06     313.970E-03    -156.392E-03    -157.578E-03    -157.378E-03     313.880E-03    -156.502E-03     11.7634E-03    -105.491E+06    -107.207E+06    -235.727E+06    -107.126E+06    -235.267E+06    -106.032E+06    -7.02006E+06         46.1056
            1890     1.70854E-03     136.774E-03     110.940E-03     110.669E-03    -336.213E-03     110.673E-03    -336.212E-03     110.936E-03    -1.00762E-03     315.266E-03    -157.066E-03    -158.199E-03    -157.821E-03     314.968E-03    -157.147E-03     22.5651E-03    -97.4466E+06    -101.603E+06    -222.915E+06    -102.692E+06    -221.825E+06    -97.4466E+06    -11.2299E+06         46.2725
            1891     2.56134E-03     136.790E-03     110.745E-03     110.161E-03    -335.355E-03     110.160E-03    -335.353E-03     110.745E-03    -1.37540E-03     317.334E-03    -157.630E-03    -159.703E-03    -159.039E-03     316.669E-03    -157.630E-03     34.5621E-03    -83.8005E+06    -97.0494E+06    -209.227E+06    -99.0532E+06    -207.223E+06    -83.8005E+06    -14.5385E+06         46.5396
            1892     3.41402E-03     136.815E-03     110.477E-03     109.424E-03    -334.192E-03     109.422E-03    -334.190E-03     110.477E-03    -1.45043E-03     319.498E-03    -158.206E-03    -161.292E-03    -160.128E-03     318.334E-03    -158.206E-03     46.4899E-03    -68.7850E+06    -91.1923E+06    -195.797E+06    -94.5307E+06    -192.459E+06    -68.7850E+06    -18.2286E+06         46.9065
            1893     4.26574E-03     136.846E-03     110.124E-03     108.426E-03    -332.631E-03     108.424E-03    -332.629E-03     110.124E-03    -1.56212E-03     321.870E-03    -158.785E-03    -163.084E-03    -161.202E-03     319.987E-03    -158.785E-03     59.3778E-03    -53.1035E+06    -82.5027E+06    -175.921E+06    -87.2244E+06    -171.199E+06    -53.1035E+06    -20.3030E+06         47.3758
            1894     5.11465E-03     136.887E-03     109.682E-03     107.205E-03    -330.631E-03     107.203E-03    -330.629E-03     109.682E-03    -1.73316E-03     323.910E-03    -159.337E-03    -164.573E-03    -161.751E-03     321.088E-03    -159.337E-03     73.1462E-03    -35.2423E+06    -73.4917E+06    -153.476E+06    -79.4465E+06    -147.522E+06    -35.2423E+06    -20.9188E+06         47.9599
            1895     5.96615E-03     136.933E-03     109.152E-03     105.758E-03    -328.295E-03     105.755E-03    -328.292E-03     109.152E-03    -2.01117E-03     325.091E-03    -159.778E-03    -165.312E-03    -161.384E-03     321.163E-03    -159.778E-03     86.5251E-03    -16.1736E+06    -64.2023E+06    -132.618E+06    -71.4970E+06    -125.323E+06    -16.1736E+06    -20.9770E+06         48.6893
            1896     6.81528E-03     136.986E-03     108.532E-03     104.084E-03    -325.518E-03     104.080E-03    -325.514E-03     108.532E-03    -2.37078E-03     326.017E-03    -160.033E-03    -165.984E-03    -160.547E-03     320.581E-03    -160.033E-03     101.687E-03     1.61011E+06    -53.9600E+06    -108.365E+06    -63.5556E+06    -98.7694E+06     1.61011E+06    -20.3818E+06         49.6201
            1897     7.66706E-03     137.057E-03     107.813E-03     102.112E-03    -322.204E-03     102.107E-03    -322.199E-03     107.813E-03    -2.80141E-03     325.840E-03    -160.067E-03    -165.773E-03    -158.502E-03     318.569E-03    -160.067E-03     117.662E-03     18.6417E+06    -43.6892E+06    -85.1557E+06    -56.1290E+06     -72.716E+06     18.6417E+06    -18.5594E+06         50.8436
            1898     8.52408E-03     137.131E-03     106.990E-03     99.8933E-03    -318.440E-03     99.8864E-03    -318.433E-03     106.990E-03    -3.15767E-03     325.411E-03    -159.867E-03    -165.545E-03    -156.318E-03     316.184E-03    -159.867E-03     132.543E-03     34.4304E+06    -31.5101E+06    -66.6501E+06    -48.9434E+06    -49.2167E+06     34.4304E+06    -16.8601E+06         52.4879
            1899     9.38045E-03     137.217E-03     106.063E-03     97.4464E-03    -314.210E-03     97.4375E-03    -314.201E-03     106.063E-03    -3.63127E-03     325.807E-03    -159.511E-03    -166.296E-03    -155.120E-03     314.631E-03    -159.511E-03     146.086E-03     46.9009E+06    -15.8788E+06    -52.3377E+06    -42.6654E+06    -25.5511E+06     46.9009E+06    -15.3317E+06         54.6987
            1900     10.2394E-03     137.312E-03     105.020E-03     94.6610E-03    -309.421E-03     94.6492E-03    -309.410E-03     105.020E-03    -4.20253E-03     326.899E-03    -159.084E-03    -167.816E-03    -154.494E-03     313.578E-03    -159.084E-03     159.746E-03     55.6128E+06     1.81887E+06    -43.0358E+06    -38.1179E+06    -3.09901E+06     55.6128E+06    -13.6091E+06         57.5979
            1901     11.1001E-03     137.426E-03     103.854E-03     91.5178E-03    -304.052E-03     91.5028E-03    -304.037E-03     103.854E-03    -4.78735E-03     329.132E-03    -158.693E-03    -170.439E-03    -155.724E-03     314.417E-03    -158.693E-03     168.799E-03     63.7758E+06     23.8937E+06    -36.4917E+06    -33.3636E+06     20.7655E+06     63.7758E+06    -13.1297E+06         61.2162
            1902     11.9589E-03     137.538E-03     102.539E-03     87.9501E-03    -297.983E-03     87.9314E-03    -297.964E-03     102.539E-03    -5.31501E-03     335.313E-03    -158.481E-03    -176.831E-03    -160.278E-03     318.759E-03    -158.481E-03     180.966E-03     72.7194E+06     51.4114E+06    -30.5399E+06    -28.2964E+06     51.1854E+06     70.7019E+06    -12.5939E+06         65.4195
            1903     12.8140E-03     137.697E-03     101.059E-03     83.8285E-03    -291.057E-03     83.8070E-03    -291.035E-03     101.059E-03    -5.66149E-03     343.548E-03    -158.725E-03    -184.823E-03    -169.121E-03     327.846E-03    -158.725E-03     178.684E-03     84.6753E+06     65.4103E+06    -24.9385E+06    -23.5395E+06     66.0288E+06     82.6578E+06    -10.3512E+06         69.8624
            1904     13.6599E-03     137.844E-03     99.3458E-03     79.0535E-03    -282.950E-03     79.0332E-03    -282.930E-03     99.3458E-03    -5.40005E-03     362.256E-03    -159.651E-03    -202.605E-03    -184.342E-03     343.993E-03    -159.651E-03     198.264E-03     107.573E+06     87.6082E+06    -17.8506E+06    -17.3404E+06     87.0979E+06     107.573E+06    -5.79867E+06         74.0586
            1905     14.4929E-03     138.119E-03     97.4249E-03     73.9142E-03    -274.080E-03     73.9029E-03    -274.068E-03     97.4249E-03    -3.67700E-03     376.169E-03    -161.425E-03    -214.743E-03    -199.981E-03     361.407E-03    -161.425E-03     175.285E-03     158.898E+06     131.419E+06    -9.50827E+06    -9.43839E+06     131.349E+06     158.898E+06    -2.00824E+06         77.4805
            1906     859.273E-06     138.123E-03     112.414E-03     104.288E-03    -322.434E-03     112.286E-03    -322.433E-03     104.416E-03    -754.473E-06     300.544E-03    -149.653E-03    -150.891E-03    -150.652E-03     300.386E-03    -149.734E-03     15.2888E-03    -96.8196E+06    -99.3404E+06    -216.469E+06    -98.4868E+06    -216.038E+06    -98.1042E+06    -6.45074E+06         44.7578
            1907     1.72064E-03     138.134E-03     108.239E-03     107.934E-03    -321.891E-03     107.931E-03    -321.889E-03     108.239E-03    -1.85187E-03     301.424E-03    -150.217E-03    -151.207E-03    -150.619E-03     300.916E-03    -150.298E-03     29.2281E-03    -91.0598E+06    -95.6765E+06    -206.950E+06    -97.0301E+06    -205.596E+06    -91.0598E+06    -11.8250E+06         44.9323
            1908     2.58061E-03     138.155E-03     108.016E-03     107.449E-03    -320.991E-03     107.445E-03    -320.987E-03     108.016E-03    -2.53574E-03     303.290E-03    -150.592E-03    -152.699E-03    -151.607E-03     302.198E-03    -150.592E-03     43.6935E-03    -79.4850E+06    -89.3466E+06    -196.067E+06    -91.8109E+06    -193.603E+06    -79.4850E+06    -15.8363E+06         45.2141
            1909     3.43806E-03     138.182E-03     107.706E-03     106.533E-03    -319.591E-03     106.528E-03    -319.586E-03     107.706E-03    -2.82974E-03     305.499E-03    -151.026E-03    -154.473E-03    -152.551E-03     303.577E-03    -151.026E-03     58.3356E-03    -62.8897E+06    -82.4162E+06    -183.428E+06    -85.8799E+06    -179.964E+06    -62.8897E+06    -18.2548E+06         45.6079
            1910     4.29535E-03     138.215E-03     107.281E-03     105.371E-03    -317.787E-03     105.365E-03    -317.781E-03     107.281E-03    -3.02690E-03     307.301E-03    -151.435E-03    -155.866E-03    -152.823E-03     304.258E-03    -151.435E-03     73.7592E-03    -45.5477E+06    -74.7015E+06    -166.600E+06    -79.6346E+06    -161.667E+06    -45.5477E+06    -20.4619E+06         46.1216
            1911     5.15458E-03     138.258E-03     106.760E-03     104.063E-03    -315.629E-03     104.055E-03    -315.622E-03     106.760E-03    -3.37814E-03     308.546E-03    -151.711E-03    -156.835E-03    -152.407E-03     304.118E-03    -151.711E-03     89.3447E-03    -28.5868E+06    -66.1271E+06    -147.147E+06    -72.1882E+06    -141.086E+06    -28.5868E+06    -21.2733E+06         46.7739
            1912     6.01189E-03     138.304E-03     106.143E-03     102.430E-03    -313.005E-03     102.420E-03    -312.995E-03     106.143E-03    -3.91034E-03     310.522E-03    -151.898E-03    -158.623E-03    -152.394E-03     304.292E-03    -151.898E-03     106.112E-03    -9.35074E+06    -57.4600E+06    -126.817E+06    -64.2765E+06    -120.000E+06    -9.35074E+06    -20.5043E+06         47.6010
            1913     6.87069E-03     138.362E-03     105.419E-03     100.501E-03    -309.889E-03     100.488E-03    -309.876E-03     105.419E-03    -4.43321E-03     312.468E-03    -152.022E-03    -160.446E-03    -152.085E-03     304.107E-03    -152.022E-03     123.551E-03     9.16889E+06    -49.6189E+06    -103.663E+06    -57.2022E+06    -96.0795E+06     9.16889E+06    -18.5009E+06         48.6655
            1914     7.73070E-03     138.424E-03     104.582E-03     98.3288E-03    -306.295E-03     98.3127E-03    -306.279E-03     104.582E-03    -4.94306E-03     313.458E-03    -152.030E-03    -161.428E-03    -150.919E-03     302.949E-03    -152.030E-03     138.899E-03     26.0827E+06    -42.3176E+06    -80.9687E+06    -50.9642E+06     -72.322E+06     26.0827E+06    -15.5644E+06         50.0670
            1915     8.59212E-03     138.498E-03     103.630E-03     95.8547E-03    -302.174E-03     95.8359E-03    -302.155E-03     103.630E-03    -5.33669E-03     315.305E-03    -151.939E-03    -163.365E-03    -150.741E-03     302.680E-03    -151.939E-03     152.780E-03     41.5641E+06    -33.0299E+06    -60.3064E+06    -45.7105E+06    -47.6259E+06     41.5641E+06    -12.4460E+06         51.9404
            1916     9.45462E-03     138.586E-03     102.553E-03     93.0548E-03    -297.492E-03     93.0333E-03    -297.471E-03     102.553E-03    -5.68132E-03     318.666E-03    -151.891E-03    -166.774E-03    -152.463E-03     304.354E-03    -151.891E-03     163.878E-03     54.1990E+06    -20.3423E+06    -47.0212E+06    -41.5978E+06    -25.7657E+06     54.1990E+06    -8.97509E+06         54.4350
            1917     10.3147E-03     138.680E-03     101.343E-03     89.9008E-03    -292.226E-03     89.8767E-03    -292.202E-03     101.343E-03    -5.98322E-03     323.430E-03    -152.001E-03    -171.429E-03    -155.769E-03     307.769E-03    -152.001E-03     173.115E-03     65.2657E+06     1.82699E+06    -39.5393E+06    -37.5997E+06    -112.615E+03     65.2657E+06    -6.85217E+06         57.6689
            1918     11.1751E-03     138.795E-03     99.9853E-03     86.3553E-03    -286.356E-03     86.3286E-03    -286.329E-03     99.9853E-03    -6.24847E-03     330.568E-03    -152.394E-03    -178.175E-03    -162.273E-03     314.667E-03    -152.394E-03     176.994E-03     74.0069E+06     31.1117E+06    -35.5050E+06    -33.8569E+06     29.4636E+06     74.0069E+06    -9.33979E+06         61.6513
            1919     12.0272E-03     138.923E-03     98.4486E-03     82.3565E-03    -279.761E-03     82.3292E-03    -279.734E-03     98.4486E-03    -6.23964E-03     344.192E-03    -153.294E-03    -190.898E-03    -174.439E-03     327.733E-03    -153.294E-03     184.666E-03     78.3462E+06     53.0894E+06    -28.8905E+06    -27.2775E+06     51.4764E+06     78.3462E+06    -10.5288E+06         66.2068
            1920     12.8670E-03     139.097E-03     96.7215E-03     77.8756E-03    -272.390E-03     77.8522E-03    -272.366E-03     96.7215E-03    -5.72030E-03     359.640E-03    -154.945E-03    -204.695E-03    -189.795E-03     344.740E-03    -154.945E-03     179.904E-03     85.7816E+06     62.3795E+06    -21.2384E+06    -20.3506E+06     61.4918E+06     85.7816E+06    -6.33691E+06         70.9435
            1921     13.6900E-03     139.267E-03     94.7431E-03     73.0003E-03    -264.201E-03     72.9853E-03    -264.186E-03     94.7431E-03    -4.40025E-03     381.814E-03    -157.368E-03    -224.446E-03    -207.284E-03     364.652E-03    -157.368E-03     199.537E-03     106.323E+06     83.1758E+06    -15.8073E+06    -15.5135E+06     82.8820E+06     106.323E+06    -2.53840E+06         75.3482
            1922     14.5006E-03     139.566E-03     92.5673E-03     68.1196E-03    -255.703E-03     68.1143E-03    -255.698E-03     92.5673E-03    -2.32819E-03     394.151E-03    -160.456E-03    -233.695E-03    -219.426E-03     379.882E-03    -160.456E-03     179.550E-03     159.205E+06     127.350E+06    -8.57729E+06    -8.52818E+06     127.301E+06     159.205E+06    -275.824E+03         78.8885
            1923     869.824E-06     139.462E-03     106.836E-03     102.114E-03    -306.010E-03     106.760E-03    -306.008E-03     102.189E-03    -1.16099E-03     281.699E-03    -140.268E-03    -141.431E-03    -140.706E-03     281.460E-03    -140.753E-03     18.2334E-03    -90.7434E+06    -92.5257E+06    -197.908E+06    -92.2213E+06    -197.390E+06    -91.5660E+06    -6.83698E+06         43.1296
            1924     1.73636E-03     139.474E-03     104.347E-03     104.031E-03    -305.344E-03     104.027E-03    -305.340E-03     104.347E-03    -2.59589E-03     282.939E-03    -140.855E-03    -142.084E-03    -141.317E-03     282.172E-03    -140.855E-03     34.8222E-03    -85.0814E+06    -89.6357E+06    -189.677E+06    -91.0887E+06    -188.145E+06    -85.1605E+06    -11.8922E+06         43.3239
            1925     2.60372E-03     139.496E-03     104.076E-03     103.371E-03    -304.246E-03     103.363E-03    -304.238E-03     104.076E-03    -3.52928E-03     283.929E-03    -141.033E-03    -142.896E-03    -141.232E-03     282.265E-03    -141.033E-03     52.0446E-03     -74.833E+06    -85.1762E+06    -182.705E+06    -88.0537E+06    -179.827E+06     -74.833E+06    -16.3684E+06         43.6421
            1926     3.47273E-03     139.525E-03     103.703E-03     102.468E-03    -302.762E-03     102.456E-03    -302.750E-03     103.703E-03    -4.24144E-03     285.332E-03    -141.120E-03    -144.212E-03    -141.221E-03     282.341E-03    -141.120E-03     70.2803E-03    -61.3253E+06    -79.2411E+06    -173.126E+06    -83.3530E+06    -169.014E+06    -61.3253E+06    -19.0938E+06         44.0941
            1927     4.34012E-03     139.561E-03     103.227E-03     101.272E-03    -300.872E-03     101.256E-03    -300.856E-03     103.227E-03    -4.87328E-03     286.882E-03    -141.172E-03    -145.709E-03    -140.990E-03     282.162E-03    -141.172E-03     88.7130E-03    -44.6611E+06    -73.0263E+06    -157.632E+06    -78.1766E+06    -152.481E+06    -44.6611E+06    -20.1033E+06         44.6944
            1928     5.20760E-03     139.600E-03     102.642E-03     99.7785E-03    -298.513E-03     99.7580E-03    -298.493E-03     102.642E-03    -5.51208E-03     288.700E-03    -141.188E-03    -147.511E-03    -140.677E-03     281.865E-03    -141.188E-03     107.092E-03    -26.6179E+06    -67.5941E+06    -141.600E+06    -72.9326E+06    -136.261E+06    -26.6179E+06    -19.1340E+06         45.4670
            1929     6.07804E-03     139.650E-03     101.940E-03     97.9966E-03    -295.674E-03     97.9711E-03    -295.648E-03     101.940E-03    -6.16485E-03     291.655E-03    -141.205E-03    -150.450E-03    -141.084E-03     282.289E-03    -141.205E-03     126.217E-03    -9.72921E+06    -64.4654E+06    -122.614E+06    -69.4379E+06    -117.641E+06    -9.72921E+06    -16.1460E+06         46.4518
            1930     6.94656E-03     139.708E-03     101.120E-03     95.9505E-03    -292.374E-03     95.9198E-03    -292.343E-03     101.120E-03    -6.75184E-03     295.732E-03    -141.326E-03    -154.406E-03    -142.529E-03     283.856E-03    -141.326E-03     143.517E-03     7.27051E+06    -61.9123E+06    -100.756E+06    -67.1898E+06    -95.4786E+06     7.27051E+06    -12.6733E+06         47.7158
            1931     7.81425E-03     139.772E-03     100.181E-03     93.6252E-03    -288.580E-03     93.5901E-03    -288.545E-03     100.181E-03    -7.19320E-03     301.315E-03    -141.650E-03    -159.665E-03    -145.527E-03     287.177E-03    -141.650E-03     158.418E-03     24.0192E+06    -55.8855E+06    -81.8808E+06    -64.6227E+06    -73.1436E+06     24.0192E+06    -8.72241E+06         49.3605
            1932     8.67924E-03     139.850E-03     99.1119E-03     90.9527E-03    -284.211E-03     90.9138E-03    -284.172E-03     99.1119E-03    -7.51210E-03     307.797E-03    -142.221E-03    -165.576E-03    -149.714E-03     291.935E-03    -142.221E-03     170.156E-03     38.9703E+06    -42.5288E+06    -67.0691E+06    -61.8645E+06    -47.7333E+06     38.9703E+06    -5.12031E+06         51.5191
            1933     9.54197E-03     139.940E-03     97.9024E-03     87.9661E-03    -279.275E-03     87.9239E-03    -279.233E-03     97.9024E-03    -7.75258E-03     315.573E-03    -143.087E-03    -172.486E-03    -155.774E-03     298.860E-03    -143.087E-03     177.468E-03     51.7535E+06    -23.8265E+06    -58.3016E+06    -57.3495E+06    -24.7787E+06     51.7535E+06    -3.91086E+06         54.3354
            1934     10.3998E-03     140.047E-03     96.5401E-03     84.6182E-03    -273.754E-03     84.5750E-03    -273.710E-03     96.5401E-03    -7.77418E-03     326.594E-03    -144.366E-03    -182.228E-03    -165.449E-03     309.815E-03    -144.366E-03     181.677E-03     62.9683E+06     4.95212E+06    -49.7922E+06    -49.2942E+06     4.45420E+06     62.9683E+06    -4.78244E+06         57.9084
            1935     11.2459E-03     140.171E-03     95.0082E-03     80.8205E-03    -267.559E-03     80.7784E-03    -267.516E-03     95.0082E-03    -7.59926E-03     340.672E-03    -146.221E-03    -194.451E-03    -178.600E-03     324.821E-03    -146.221E-03     181.262E-03     72.7071E+06     41.2911E+06    -40.7840E+06    -40.0321E+06     40.5392E+06     72.7071E+06    -7.34394E+06         62.2146
            1936     12.0818E-03     140.322E-03     93.2662E-03     76.5817E-03    -260.602E-03     76.5463E-03    -260.566E-03     93.2662E-03    -6.87895E-03     359.123E-03    -148.735E-03    -210.388E-03    -194.689E-03     343.424E-03    -148.735E-03     186.422E-03     72.2155E+06     54.1342E+06    -35.5370E+06    -34.3740E+06     52.9711E+06     72.2155E+06    -9.50922E+06         67.0472
            1937     12.9029E-03     140.524E-03     91.3147E-03     71.9798E-03    -253.012E-03     71.9552E-03    -252.988E-03     91.3147E-03    -5.61097E-03     377.184E-03    -151.950E-03    -225.234E-03    -211.138E-03     363.088E-03    -151.950E-03     181.342E-03     75.4642E+06     53.0072E+06    -30.2333E+06    -28.9276E+06     51.7015E+06     75.4642E+06    -7.99540E+06         71.9952
            1938     13.7105E-03     140.719E-03     89.1097E-03     67.2266E-03    -244.866E-03     67.2134E-03    -244.853E-03     89.1097E-03    -3.96910E-03     399.108E-03    -155.724E-03    -243.384E-03    -226.760E-03     382.484E-03    -155.724E-03     202.339E-03     98.5882E+06     78.2304E+06    -20.7525E+06    -20.1195E+06     77.5975E+06     98.5882E+06    -3.26835E+06         76.5350
            1939     14.5108E-03     141.038E-03     86.7342E-03     62.5704E-03    -236.459E-03     62.5660E-03    -236.454E-03     86.7342E-03    -2.04097E-03     407.055E-03    -159.816E-03    -247.239E-03    -233.197E-03     393.013E-03    -159.816E-03     182.849E-03     156.447E+06     126.329E+06    -11.5994E+06    -11.5120E+06     126.242E+06     156.447E+06    -679.237E+03         80.1371
            1940     877.835E-06     140.772E-03     100.708E-03     97.9963E-03    -287.132E-03     100.657E-03    -287.129E-03     98.0437E-03    -2.02163E-03     258.342E-03    -128.413E-03    -129.929E-03    -129.016E-03     257.983E-03    -128.966E-03     21.6504E-03    -89.6130E+06    -90.1307E+06    -180.410E+06    -90.7525E+06    -179.709E+06    -89.6921E+06    -7.06160E+06         41.2990
            1941     1.75718E-03     140.787E-03     99.2084E-03     98.9010E-03    -286.429E-03     98.8916E-03    -286.419E-03     99.2084E-03    -3.60640E-03     258.566E-03    -128.826E-03    -129.739E-03    -128.538E-03     257.432E-03    -128.894E-03     40.3952E-03    -86.0458E+06    -88.5520E+06    -174.780E+06    -90.0106E+06    -173.242E+06    -86.1249E+06    -11.2049E+06         41.5308
            1942     2.63639E-03     140.807E-03     98.9034E-03     98.1333E-03    -285.231E-03     98.1162E-03    -285.214E-03     98.9034E-03    -4.97528E-03     258.909E-03    -128.670E-03    -130.239E-03    -127.743E-03     256.413E-03    -128.670E-03     60.7391E-03     -77.657E+06    -87.1248E+06    -169.487E+06    -89.4331E+06    -167.178E+06     -77.657E+06    -13.4774E+06         41.9149
            1943     3.51573E-03     140.836E-03     98.4768E-03     97.1645E-03    -283.666E-03     97.1388E-03    -283.640E-03     98.4768E-03    -6.10308E-03     259.464E-03    -128.341E-03    -131.122E-03    -126.663E-03     255.004E-03    -128.341E-03     81.6604E-03    -67.4786E+06    -87.3151E+06    -164.053E+06    -90.1424E+06    -161.225E+06    -67.4786E+06    -13.9031E+06         42.4655
            1944     4.39809E-03     140.871E-03     97.9468E-03     95.9736E-03    -281.751E-03     95.9387E-03    -281.716E-03     97.9468E-03    -7.12263E-03     261.263E-03    -128.008E-03    -133.255E-03    -126.321E-03     254.329E-03    -128.008E-03     102.487E-03    -55.1338E+06    -89.7484E+06    -150.312E+06    -92.4860E+06    -147.575E+06    -55.1338E+06    -11.8573E+06         43.2013
            1945     5.28033E-03     140.913E-03     97.3095E-03     94.5015E-03    -279.427E-03     94.4572E-03    -279.382E-03     97.3095E-03    -7.98299E-03     265.496E-03    -127.894E-03    -137.602E-03    -127.746E-03     255.640E-03    -127.894E-03     123.483E-03    -39.3974E+06    -92.9374E+06    -136.956E+06    -95.3082E+06    -134.586E+06    -39.3974E+06    -9.39058E+06         44.1483
            1946     6.15894E-03     140.964E-03     96.5521E-03     92.7299E-03    -276.611E-03     92.6773E-03    -276.558E-03     96.5521E-03    -8.67083E-03     271.732E-03    -128.120E-03    -143.611E-03    -130.756E-03     258.876E-03    -128.120E-03     143.136E-03    -21.2285E+06    -91.9839E+06    -121.457E+06    -95.6558E+06    -117.786E+06    -21.2285E+06    -6.56619E+06         45.3469
            1947     7.03782E-03     141.026E-03     95.6622E-03     90.6053E-03    -273.212E-03     90.5446E-03    -273.152E-03     95.6622E-03    -9.24515E-03     280.094E-03    -128.757E-03    -151.337E-03    -135.960E-03     264.717E-03    -128.757E-03     159.572E-03    -2.93920E+06    -85.0703E+06    -103.251E+06    -93.0280E+06    -95.2935E+06    -2.93920E+06    -3.76167E+06         46.8630
            1948     7.91041E-03     141.101E-03     94.6283E-03     88.1285E-03    -269.220E-03     88.0619E-03    -269.153E-03     94.6283E-03    -9.61957E-03     291.170E-03    -129.924E-03    -161.245E-03    -144.021E-03     273.945E-03    -129.924E-03     172.999E-03     14.8216E+06    -70.6852E+06    -90.3820E+06    -87.3700E+06    -73.6972E+06     14.8216E+06    -1.96348E+06         48.7935
            1949     8.77546E-03     141.190E-03     93.4444E-03     85.3511E-03    -264.684E-03     85.2812E-03    -264.614E-03     93.4444E-03    -9.77315E-03     304.257E-03    -131.697E-03    -172.560E-03    -154.544E-03     286.241E-03    -131.697E-03     181.778E-03     32.3139E+06    -45.4797E+06    -78.1244E+06    -78.0242E+06    -45.5799E+06     32.3139E+06    -1.34967E+06         51.2616
            1950     9.63107E-03     141.292E-03     92.1040E-03     82.2733E-03    -259.601E-03     82.2015E-03    -259.530E-03     92.1040E-03    -9.81430E-03     319.190E-03    -134.097E-03    -185.093E-03    -167.368E-03     301.464E-03    -134.097E-03     185.666E-03     46.0681E+06    -18.1904E+06    -67.2004E+06    -66.8167E+06    -18.5741E+06     46.0681E+06    -3.62771E+06         54.3924
            1951     10.4761E-03     141.418E-03     90.5911E-03     78.8571E-03    -253.914E-03     78.7895E-03    -253.846E-03     90.5911E-03    -9.42481E-03     336.466E-03    -137.135E-03    -199.330E-03    -182.531E-03     319.667E-03    -137.135E-03     186.596E-03     57.5322E+06     14.5919E+06    -56.9849E+06    -56.0336E+06     13.6407E+06     57.5322E+06    -7.98632E+06         58.2595
            1952     11.3085E-03     141.570E-03     88.8893E-03     74.9995E-03    -247.516E-03     74.9412E-03    -247.458E-03     88.8893E-03    -8.62983E-03     355.774E-03    -140.821E-03    -214.953E-03    -199.505E-03     340.326E-03    -140.821E-03     185.031E-03     65.7504E+06     45.6018E+06    -47.0688E+06    -46.0115E+06     44.5444E+06     65.7504E+06    -9.58012E+06         62.8131
            1953     12.1238E-03     141.746E-03     86.9600E-03     70.7015E-03    -240.387E-03     70.6559E-03    -240.341E-03     86.9600E-03    -7.46983E-03     376.865E-03    -145.077E-03    -231.789E-03    -216.529E-03     361.606E-03    -145.077E-03     190.269E-03     66.4620E+06     53.8291E+06    -38.1974E+06    -37.4915E+06     53.1232E+06     66.4620E+06    -7.69710E+06         67.8290
            1954     12.9302E-03     141.972E-03     84.8159E-03     66.1825E-03    -232.749E-03     66.1518E-03    -232.718E-03     84.8159E-03    -5.97810E-03     394.074E-03    -149.766E-03    -244.308E-03    -230.480E-03     380.246E-03    -149.766E-03     185.196E-03     72.8099E+06     52.9888E+06    -31.2977E+06    -30.2709E+06     51.9620E+06     72.8099E+06    -8.52884E+06         72.8984
            1955     13.7248E-03     142.194E-03     82.4309E-03     61.5810E-03    -224.619E-03     61.5645E-03    -224.602E-03     82.4309E-03    -4.25529E-03     411.888E-03    -154.628E-03    -257.261E-03    -241.200E-03     395.828E-03    -154.628E-03     203.315E-03     94.6658E+06     72.5052E+06    -24.1234E+06    -22.5255E+06     70.9073E+06     94.6658E+06    -9.56984E+06         77.5049
            1956     14.5136E-03     142.520E-03     79.9163E-03     57.0643E-03    -216.323E-03     57.0586E-03    -216.317E-03     79.9163E-03    -2.23520E-03     414.825E-03    -159.411E-03    -255.414E-03    -241.927E-03     401.338E-03    -159.411E-03     182.157E-03     153.432E+06     119.384E+06    -11.9954E+06    -11.0951E+06     118.484E+06     153.432E+06    -4.34088E+06         81.1265
            1957     890.865E-06     142.050E-03     93.5240E-03     92.2364E-03    -265.558E-03     93.4343E-03    -265.552E-03     92.3197E-03    -2.75231E-03     229.196E-03    -114.205E-03    -114.991E-03    -114.410E-03     228.687E-03    -114.277E-03     24.0413E-03    -97.7992E+06    -98.5423E+06    -165.691E+06    -98.6909E+06    -165.136E+06     -98.206E+06    -5.03636E+06         39.4000
            1958     1.78301E-03     142.062E-03     92.7377E-03     92.4798E-03    -264.955E-03     92.4618E-03    -264.937E-03     92.7377E-03    -4.91430E-03     228.328E-03    -113.935E-03    -114.393E-03    -112.682E-03     226.688E-03    -114.007E-03     45.5811E-03    -100.847E+06    -103.041E+06    -165.711E+06    -103.696E+06    -164.963E+06    -100.940E+06    -5.43176E+06         39.6903
            1959     2.67679E-03     142.081E-03     92.4547E-03     91.8700E-03    -264.000E-03     91.8363E-03    -263.966E-03     92.4547E-03    -6.77298E-03     228.409E-03    -113.377E-03    -115.032E-03    -111.492E-03     224.868E-03    -113.377E-03     67.9491E-03    -100.006E+06    -109.760E+06    -165.361E+06    -111.487E+06    -163.634E+06    -100.006E+06    -2.79250E+06         40.1708
            1960     3.57242E-03     142.108E-03     92.0531E-03     90.9511E-03    -262.641E-03     90.8997E-03    -262.589E-03     92.0531E-03    -8.34564E-03     229.908E-03    -112.876E-03    -117.032E-03    -110.856E-03     223.732E-03    -112.876E-03     90.6004E-03    -90.4352E+06    -116.761E+06    -164.181E+06    -119.779E+06    -161.163E+06    -90.4352E+06     1.07639E+06         40.8585
            1961     4.46792E-03     142.142E-03     91.5271E-03     89.8303E-03    -260.900E-03     89.7623E-03    -260.832E-03     91.5271E-03    -9.59271E-03     234.072E-03    -112.634E-03    -121.438E-03    -112.056E-03     224.689E-03    -112.634E-03     113.056E-03    -74.6898E+06    -119.490E+06    -154.023E+06    -125.710E+06    -147.803E+06    -74.6898E+06     4.05162E+06         41.7714
            1962     5.36193E-03     142.189E-03     90.8725E-03     88.4217E-03    -258.696E-03     88.3393E-03    -258.613E-03     90.8725E-03    -10.5359E-03     241.988E-03    -112.897E-03    -129.092E-03    -116.297E-03     229.193E-03    -112.897E-03     134.807E-03    -54.7221E+06    -118.655E+06    -140.148E+06    -126.054E+06    -132.748E+06    -54.7221E+06     4.16393E+06         42.9334
            1963     6.25274E-03     142.249E-03     90.0704E-03     86.6298E-03    -255.886E-03     86.5333E-03    -255.789E-03     90.0704E-03    -11.3335E-03     253.539E-03    -113.857E-03    -139.681E-03    -123.789E-03     237.646E-03    -113.857E-03     154.574E-03    -32.0237E+06    -109.439E+06    -126.422E+06    -120.753E+06    -115.107E+06    -32.0237E+06     2.44007E+06         44.3816
            1964     7.13360E-03     142.322E-03     89.1051E-03     84.5030E-03    -252.458E-03     84.3939E-03    -252.349E-03     89.1051E-03    -11.9626E-03     268.184E-03    -115.588E-03    -152.596E-03    -134.372E-03     249.960E-03    -115.588E-03     171.168E-03    -11.3204E+06    -91.4316E+06    -111.706E+06    -110.854E+06    -92.2840E+06    -11.3204E+06    -8.75953E+03         46.1746
            1965     8.00637E-03     142.414E-03     87.9705E-03     82.0716E-03    -248.445E-03     81.9565E-03    -248.330E-03     87.9705E-03    -12.2006E-03     285.692E-03    -118.145E-03    -167.547E-03    -148.135E-03     266.281E-03    -118.145E-03     183.465E-03     7.75217E+06    -67.9936E+06    -97.9178E+06    -96.9727E+06    -68.9386E+06     7.75217E+06    -3.35677E+06         48.3987
            1966     8.86749E-03     142.524E-03     86.6649E-03     79.3004E-03    -243.819E-03     79.1853E-03    -243.704E-03     86.6649E-03    -12.0778E-03     305.894E-03    -121.571E-03    -184.323E-03    -165.057E-03     286.628E-03    -121.571E-03     190.403E-03     25.3605E+06    -39.6369E+06    -82.8956E+06    -81.6739E+06    -40.8586E+06     25.3605E+06    -6.07916E+06         51.1610
            1967     9.71277E-03     142.655E-03     85.1825E-03     76.1703E-03    -238.548E-03     76.0593E-03    -238.437E-03     85.1825E-03    -11.7319E-03     328.157E-03    -125.859E-03    -202.298E-03    -184.085E-03     309.944E-03    -125.859E-03     193.026E-03     40.9416E+06    -9.34063E+06     -69.279E+06    -67.8103E+06    -10.8094E+06     40.9416E+06    -8.16904E+06         54.5628
            1968     10.5412E-03     142.807E-03     83.5095E-03     72.6842E-03    -232.632E-03     72.5836E-03    -232.531E-03     83.5095E-03    -10.9875E-03     350.792E-03    -130.877E-03    -219.915E-03    -203.052E-03     333.929E-03    -130.877E-03     193.118E-03     54.5527E+06     24.6148E+06    -58.5077E+06    -57.2610E+06     23.3680E+06     54.5527E+06    -10.0675E+06         58.6532
            1969     11.3555E-03     142.988E-03     81.6324E-03     68.8161E-03    -226.080E-03     68.7339E-03    -225.998E-03     81.6324E-03    -9.75123E-03     372.758E-03    -136.414E-03    -236.344E-03    -220.999E-03     357.414E-03    -136.414E-03     190.705E-03     60.1959E+06     46.7216E+06    -50.1564E+06    -48.8776E+06     45.4428E+06     60.1959E+06    -11.0438E+06         63.3674
            1970     12.1591E-03     143.194E-03     79.5275E-03     64.6445E-03    -218.916E-03     64.5831E-03    -218.855E-03     79.5275E-03    -8.28743E-03     394.022E-03    -142.283E-03    -251.739E-03    -236.970E-03     379.253E-03    -142.283E-03     193.003E-03     63.0339E+06     54.9227E+06    -41.1236E+06    -38.9370E+06     52.8644E+06     62.9055E+06    -12.9691E+06         68.4788
            1971     12.9482E-03     143.444E-03     77.2344E-03     60.3186E-03    -211.360E-03     60.2780E-03    -211.319E-03     77.2344E-03    -6.56580E-03     408.169E-03    -148.237E-03    -259.933E-03    -246.616E-03     394.853E-03    -148.237E-03     186.264E-03     72.3359E+06     56.2498E+06    -30.4849E+06    -27.6441E+06     53.5374E+06     72.2076E+06    -13.7316E+06         73.5941
            1972     13.7313E-03     143.682E-03     74.7382E-03     55.8886E-03    -203.414E-03     55.8678E-03    -203.393E-03     74.7382E-03    -4.54540E-03     420.435E-03    -153.919E-03    -266.516E-03    -250.867E-03     404.786E-03    -153.919E-03     203.452E-03     93.5809E+06     68.8524E+06    -20.3835E+06    -18.2743E+06     66.7432E+06     93.5809E+06    -10.3888E+06         78.2179
            1973     14.5168E-03     144.011E-03     72.1579E-03     51.5476E-03    -195.373E-03     51.5404E-03    -195.366E-03     72.1579E-03    -2.41393E-03     419.767E-03    -159.154E-03    -260.614E-03    -247.367E-03     406.521E-03    -159.154E-03     182.513E-03     150.922E+06     109.511E+06    -12.5333E+06    -11.3251E+06     108.303E+06     150.922E+06    -6.51652E+06         81.8326
            1974     906.904E-06     143.286E-03     85.6759E-03     85.0242E-03    -241.898E-03     85.5617E-03    -241.888E-03     85.1283E-03    -3.35098E-03     193.674E-03    -96.6318E-03    -97.0427E-03    -96.3171E-03     192.967E-03    -96.6502E-03     26.1269E-03    -123.442E+06    -125.547E+06     -172.68E+06    -129.224E+06    -166.898E+06    -125.547E+06     7.30924E+06         37.6093
            1975     1.81529E-03     143.296E-03     85.2084E-03     84.9639E-03    -241.413E-03     84.9329E-03    -241.382E-03     85.2084E-03    -6.10491E-03     193.883E-03    -96.2926E-03    -97.5899E-03    -95.3648E-03     191.662E-03    -96.2968E-03     48.9542E-03    -130.573E+06    -134.501E+06    -180.108E+06    -143.153E+06    -169.132E+06    -132.895E+06     11.6598E+06         37.9731
            1976     2.72511E-03     143.313E-03     84.9462E-03     84.5813E-03    -240.823E-03     84.5203E-03    -240.762E-03     84.9462E-03    -8.70175E-03     195.454E-03    -95.9563E-03    -99.4981E-03    -94.8530E-03     190.809E-03    -95.9563E-03     72.2300E-03    -129.823E+06    -141.617E+06    -184.575E+06    -154.142E+06    -171.109E+06    -130.763E+06     15.2630E+06         38.5706
            1977     3.63513E-03     143.339E-03     84.5987E-03     83.9799E-03    -239.968E-03     83.8872E-03    -239.875E-03     84.5987E-03    -10.7817E-03     200.207E-03    -95.9346E-03    -104.272E-03    -96.4503E-03     192.385E-03    -95.9346E-03     95.4465E-03    -114.819E+06    -142.282E+06    -181.282E+06    -157.378E+06    -166.186E+06    -114.819E+06     17.1169E+06         39.4172
            1978     4.54330E-03     143.378E-03     84.1161E-03     83.0075E-03    -238.564E-03     82.8851E-03    -238.441E-03     84.1161E-03    -12.3631E-03     209.022E-03    -96.5010E-03    -112.521E-03    -101.043E-03     197.544E-03    -96.5010E-03     118.767E-03    -89.1235E+06    -132.893E+06    -167.279E+06    -152.904E+06    -147.267E+06    -89.1235E+06     15.4725E+06         40.5266
            1979     5.44664E-03     143.433E-03     83.4560E-03     81.6304E-03    -236.466E-03     81.4820E-03    -236.317E-03     83.4560E-03    -13.5291E-03     221.990E-03    -97.8270E-03    -124.164E-03    -109.092E-03     206.919E-03    -97.8270E-03     141.017E-03    -61.6001E+06    -121.123E+06    -148.447E+06    -142.651E+06    -126.919E+06    -61.6001E+06     10.2795E+06         41.9172
            1980     6.34106E-03     143.507E-03     82.6010E-03     79.9168E-03    -233.729E-03     79.7495E-03    -233.562E-03     82.6010E-03    -14.3041E-03     239.115E-03    -100.031E-03    -139.084E-03    -121.051E-03     221.082E-03    -100.031E-03     161.078E-03    -37.7875E+06    -105.374E+06    -131.330E+06    -129.457E+06    -107.247E+06    -37.7875E+06     3.34537E+06         43.6185
            1981     7.22616E-03     143.602E-03     81.5475E-03     77.8692E-03    -230.339E-03     77.6890E-03    -230.158E-03     81.5475E-03    -14.7509E-03     260.179E-03    -103.218E-03    -156.961E-03    -136.947E-03     240.165E-03    -103.218E-03     178.270E-03    -16.0050E+06    -80.6210E+06    -115.008E+06    -113.648E+06    -81.9813E+06    -16.0050E+06    -4.25744E+06         45.6786
            1982     8.09547E-03     143.719E-03     80.2916E-03     75.5114E-03    -226.284E-03     75.3238E-03    -226.096E-03     80.2916E-03    -14.8917E-03     284.811E-03    -107.444E-03    -177.367E-03    -156.507E-03     263.951E-03    -107.444E-03     191.833E-03     2.51224E+06    -55.1554E+06    -100.448E+06    -96.8532E+06    -58.7506E+06     2.51224E+06    -11.3793E+06         48.1685
            1983     8.94676E-03     143.862E-03     78.8340E-03     72.8278E-03    -221.570E-03     72.6436E-03    -221.385E-03     78.8340E-03    -14.5751E-03     311.845E-03    -112.698E-03    -199.147E-03    -178.761E-03     291.459E-03    -112.698E-03     199.848E-03     19.2778E+06    -30.2237E+06    -85.5216E+06    -80.4403E+06    -35.3050E+06     19.2778E+06    -15.2744E+06         51.1762
            1984     9.78035E-03     144.027E-03     77.1780E-03     69.7006E-03    -216.103E-03     69.5305E-03    -215.932E-03     77.1780E-03    -13.8124E-03     339.419E-03    -118.863E-03    -220.555E-03    -201.580E-03     320.443E-03    -118.863E-03     202.438E-03     35.6316E+06    -4.59644E+06    -69.4301E+06    -65.2663E+06    -8.76019E+06     35.6316E+06    -15.0166E+06         54.7830
            1985     10.5964E-03     144.217E-03     75.3188E-03     66.1543E-03    -209.937E-03     66.0054E-03    -209.788E-03     75.3188E-03    -12.7205E-03     366.476E-03    -125.715E-03    -240.761E-03    -223.486E-03     349.201E-03    -125.715E-03     201.683E-03     51.3731E+06     27.5877E+06    -54.8497E+06    -52.5204E+06     25.2584E+06     51.3731E+06    -12.1983E+06         59.0184
            1986     11.3962E-03     144.428E-03     73.2638E-03     62.3814E-03    -203.290E-03     62.2634E-03    -203.172E-03     73.2638E-03    -11.1026E-03     390.304E-03    -132.963E-03    -257.341E-03    -241.961E-03     374.924E-03    -132.963E-03     196.977E-03     62.2726E+06     53.5567E+06    -43.5001E+06    -41.5621E+06     52.3353E+06     61.5560E+06    -13.0592E+06         63.8088
            1987     12.1794E-03     144.667E-03     71.0153E-03     58.4096E-03    -196.228E-03     58.3230E-03    -196.141E-03     71.0153E-03    -9.30238E-03     409.056E-03    -140.226E-03    -268.830E-03    -254.140E-03     394.366E-03    -140.226E-03     197.383E-03     65.4408E+06     60.5008E+06    -35.5654E+06    -32.4852E+06     58.2655E+06     64.5959E+06    -16.2169E+06         68.9423
            1988     12.9580E-03     144.933E-03     68.6305E-03     54.3198E-03    -188.950E-03     54.2599E-03    -188.890E-03     68.6305E-03    -7.48987E-03     418.925E-03    -147.144E-03    -271.781E-03    -258.422E-03     405.566E-03    -147.144E-03     189.866E-03     71.8481E+06     55.4499E+06    -30.3581E+06    -26.5264E+06     51.7466E+06     71.7198E+06    -17.2598E+06         74.0557
            1989     13.7378E-03     145.178E-03     66.1001E-03     50.2292E-03    -181.479E-03     50.1967E-03    -181.447E-03     66.1001E-03    -5.28660E-03     426.635E-03    -153.409E-03    -273.226E-03    -258.021E-03     411.430E-03    -153.409E-03     202.747E-03     90.2427E+06     61.8100E+06    -22.7907E+06    -18.6673E+06     57.6866E+06     90.2427E+06    -14.6736E+06         78.6636
            1990     14.5213E-03     145.505E-03     63.5380E-03     46.2322E-03    -174.023E-03     46.2213E-03    -174.012E-03     63.5380E-03    -2.84077E-03     422.752E-03    -158.973E-03    -263.780E-03    -251.092E-03     410.065E-03    -158.973E-03     179.825E-03     148.945E+06     98.7230E+06    -9.50399E+06    -6.85680E+06     96.0758E+06     148.945E+06    -7.07717E+06         82.2527
            1991     926.653E-06     144.476E-03     77.2791E-03     76.6976E-03    -216.644E-03     77.1993E-03    -216.625E-03     76.7586E-03    -4.32478E-03     154.751E-03    -76.7133E-03    -78.0380E-03    -77.0883E-03     153.816E-03    -76.7276E-03     27.2552E-03    -174.309E+06    -201.400E+06    -227.419E+06    -206.214E+06    -194.674E+06    -202.240E+06     19.4872E+06         36.1167
            1992     1.85149E-03     144.485E-03     76.9897E-03     76.7251E-03    -216.537E-03     76.7858E-03    -216.482E-03     76.8738E-03    -7.71659E-03     158.250E-03    -77.2727E-03    -80.9772E-03    -78.1875E-03     155.460E-03    -77.2727E-03     49.8566E-03    -165.629E+06    -185.694E+06    -224.184E+06    -203.776E+06    -186.037E+06    -185.694E+06     25.8778E+06         36.5550
            1993     2.77615E-03     144.502E-03     76.7590E-03     76.5343E-03    -216.282E-03     76.5153E-03    -216.175E-03     76.6715E-03    -10.9270E-03     164.410E-03    -78.0838E-03    -86.3266E-03    -80.6697E-03     158.754E-03    -78.0838E-03     73.5158E-03    -155.104E+06    -166.067E+06    -218.185E+06    -196.815E+06    -181.599E+06    -160.942E+06     27.1269E+06         37.2695
            1994     3.69820E-03     144.533E-03     76.3861E-03     76.1702E-03    -215.750E-03     76.0412E-03    -215.589E-03     76.3539E-03    -13.4747E-03     174.441E-03    -79.3904E-03    -95.0509E-03    -85.8854E-03     165.276E-03    -79.3904E-03     97.1677E-03    -132.421E+06    -150.149E+06    -202.295E+06    -186.007E+06    -166.437E+06    -132.421E+06     22.1777E+06         38.2703
            1995     4.61455E-03     144.582E-03     75.8695E-03     75.4107E-03    -214.636E-03     75.2018E-03    -214.427E-03     75.8695E-03    -15.3479E-03     188.644E-03    -81.4125E-03    -107.232E-03    -94.3517E-03     175.764E-03    -81.4125E-03     120.505E-03    -100.308E+06    -133.203E+06    -176.268E+06    -168.841E+06    -140.629E+06    -100.308E+06     13.3205E+06         39.5650
            1996     5.52256E-03     144.652E-03     75.1801E-03     74.2919E-03    -212.872E-03     74.0446E-03    -212.624E-03     75.1801E-03    -16.6591E-03     207.044E-03    -84.2719E-03    -122.772E-03    -106.386E-03     190.658E-03    -84.2719E-03     143.250E-03    -69.8074E+06    -114.375E+06    -151.293E+06    -148.743E+06    -116.924E+06    -69.8074E+06     4.11743E+06         41.1641
            1997     6.42027E-03     144.748E-03     74.2673E-03     72.8134E-03    -210.372E-03     72.5385E-03    -210.097E-03     74.2673E-03    -17.4500E-03     229.578E-03    -88.0524E-03    -141.525E-03    -122.340E-03     210.393E-03    -88.0524E-03     164.326E-03    -43.8140E+06    -92.5457E+06    -130.013E+06    -127.680E+06    -94.8786E+06    -43.8140E+06    -5.37878E+06         43.0867
            1998     7.30207E-03     144.870E-03     73.1131E-03     70.8807E-03    -207.021E-03     70.5911E-03    -206.732E-03     73.1131E-03    -17.7363E-03     256.342E-03    -92.8569E-03    -163.485E-03    -142.546E-03     235.403E-03    -92.8569E-03     182.752E-03    -20.0728E+06    -64.6349E+06    -111.865E+06    -107.563E+06    -68.9373E+06    -20.0728E+06    -12.9086E+06         45.3674
            1999     8.16710E-03     145.022E-03     71.7052E-03     68.5192E-03    -202.820E-03     68.2240E-03    -202.525E-03     71.7052E-03    -17.7196E-03     286.636E-03    -98.7427E-03    -187.894E-03    -166.338E-03     265.081E-03    -98.7427E-03     197.526E-03    -646.319E+03    -39.4071E+06    -98.8454E+06    -91.5995E+06    -46.6529E+06    -646.319E+03    -18.9777E+06         48.0613
            2000     9.01260E-03     145.204E-03     70.0533E-03     65.8204E-03    -197.874E-03     65.5350E-03    -197.588E-03     70.0533E-03    -17.1846E-03     318.401E-03    -105.641E-03    -212.760E-03    -191.662E-03     297.303E-03    -105.641E-03     207.309E-03     15.2869E+06    -19.0114E+06    -87.8276E+06    -78.1514E+06    -28.6876E+06     15.2869E+06    -23.7171E+06         51.2401
            2001     9.83548E-03     145.413E-03     68.1801E-03     62.7557E-03    -192.238E-03     62.5042E-03    -191.986E-03     68.1801E-03    -15.8774E-03     350.639E-03    -113.388E-03    -237.251E-03    -217.489E-03     330.877E-03    -113.388E-03     211.675E-03     29.9354E+06     533.722E+03    -74.4355E+06    -64.8935E+06    -9.00834E+06     29.9354E+06    -24.7023E+06         54.9690
            2002     10.6391E-03     145.640E-03     66.1082E-03     59.3324E-03    -185.959E-03     59.1217E-03    -185.748E-03     66.1082E-03    -14.2723E-03     380.976E-03    -121.753E-03    -259.223E-03    -241.286E-03     363.039E-03    -121.753E-03     211.063E-03     45.6704E+06     26.3106E+06    -57.5740E+06    -50.2808E+06     19.0175E+06     45.6704E+06    -21.8213E+06         59.2662
            2003     11.4218E-03     145.898E-03     63.8835E-03     55.6904E-03    -179.315E-03     55.5212E-03    -179.146E-03     63.8835E-03    -12.4783E-03     404.338E-03    -130.326E-03    -274.013E-03    -258.028E-03     388.354E-03    -130.326E-03     205.586E-03     66.0039E+06     55.8034E+06    -41.5813E+06    -37.2554E+06     56.0756E+06     61.4058E+06    -18.3038E+06         64.0642
            2004     12.1982E-03     146.151E-03     61.5346E-03     51.9310E-03    -172.492E-03     51.8082E-03    -172.369E-03     61.5346E-03    -10.3953E-03     420.589E-03    -138.606E-03    -281.983E-03    -266.842E-03     405.448E-03    -138.606E-03     204.007E-03     71.9933E+06     62.6522E+06    -32.3616E+06    -28.1911E+06     63.0798E+06     67.3952E+06    -18.2177E+06         69.1733
            2005     12.9729E-03     146.435E-03     59.1242E-03     48.1331E-03    -165.621E-03     48.0518E-03    -165.540E-03     59.1242E-03    -8.25999E-03     427.786E-03    -146.252E-03    -281.534E-03    -268.196E-03     414.447E-03    -146.252E-03     192.145E-03     74.0902E+06     51.9507E+06    -23.8325E+06    -19.7352E+06     47.8534E+06     74.0902E+06    -16.1394E+06         74.2487
            2006     13.7435E-03     146.683E-03     56.6449E-03     44.3819E-03    -158.747E-03     44.3404E-03    -158.705E-03     56.6449E-03    -5.64520E-03     431.767E-03    -153.019E-03    -278.747E-03    -264.353E-03     417.373E-03    -153.019E-03     199.070E-03     91.9625E+06     56.2605E+06    -18.7635E+06    -15.3457E+06     52.8427E+06     91.9625E+06    -13.0282E+06         78.8193
            2007     14.5176E-03     147.007E-03     54.1998E-03     40.8787E-03    -152.133E-03     40.8662E-03    -152.120E-03     54.1998E-03    -2.85544E-03     424.401E-03    -158.871E-03    -265.530E-03    -253.495E-03     412.366E-03    -158.871E-03     176.410E-03     147.910E+06     85.9337E+06    -15.6872E+06    -12.5254E+06     82.7719E+06     147.910E+06     -9.4592E+06         82.3727
            2008     944.015E-06     145.619E-03     68.1295E-03     67.8820E-03    -190.162E-03     68.0432E-03    -190.129E-03     67.9353E-03    -5.41843E-03     119.220E-03    -58.5624E-03    -60.6580E-03    -59.6026E-03     118.165E-03    -58.5624E-03     25.6606E-03    -215.767E+06    -331.339E+06    -338.045E+06    -332.249E+06    -220.320E+06    -332.583E+06     5.53747E+06         35.0875
            2009     1.88645E-03     145.632E-03     68.2833E-03     67.9233E-03    -190.501E-03     68.1886E-03    -190.406E-03     67.9233E-03    -9.53682E-03     126.427E-03    -60.0319E-03    -66.3950E-03    -63.2961E-03     123.328E-03    -60.0319E-03     47.4162E-03    -191.071E+06    -284.131E+06    -305.703E+06    -297.589E+06    -199.185E+06    -284.131E+06     7.06445E+06         35.5870
            2010     2.82312E-03     145.656E-03     68.1871E-03     67.7915E-03    -190.560E-03     68.0028E-03    -190.376E-03     67.7915E-03    -13.4841E-03     138.355E-03    -62.2616E-03    -76.0932E-03    -69.9015E-03     132.163E-03    -62.2616E-03     71.2563E-03    -175.494E+06    -224.182E+06    -264.463E+06    -253.705E+06    -186.447E+06    -223.987E+06     5.43583E+06         36.3966
            2011     3.75277E-03     145.699E-03     67.8671E-03     67.4581E-03    -190.207E-03     67.5808E-03    -189.932E-03     67.4693E-03    -16.5687E-03     154.322E-03    -65.2594E-03    -89.0629E-03    -79.2186E-03     144.478E-03    -65.2594E-03     95.6407E-03    -146.500E+06    -171.153E+06    -217.562E+06    -209.205E+06    -160.276E+06    -165.734E+06     407.050E+03         37.5208
            2012     4.67346E-03     145.763E-03     67.4348E-03     66.8960E-03    -189.482E-03     67.0313E-03    -189.133E-03     66.9499E-03    -18.6770E-03     174.082E-03    -69.0000E-03    -105.082E-03    -91.5512E-03     160.551E-03    -69.0000E-03     119.817E-03    -112.795E+06    -131.912E+06    -177.584E+06    -171.931E+06    -131.550E+06    -118.810E+06    -6.22865E+06         38.9601
            2013     5.58342E-03     145.854E-03     66.7108E-03     66.0414E-03    -188.069E-03     66.1342E-03    -187.662E-03     66.2112E-03    -20.0641E-03     197.625E-03    -73.5438E-03    -124.081E-03    -107.262E-03     180.805E-03    -73.5438E-03     143.212E-03    -82.6662E+06    -102.632E+06    -148.978E+06    -143.578E+06    -107.826E+06    -82.8723E+06    -11.1087E+06         40.7154
            2014     6.47883E-03     145.976E-03     65.6226E-03     64.8314E-03    -185.762E-03     64.7955E-03    -185.316E-03     65.2121E-03    -20.8942E-03     224.956E-03    -78.9732E-03    -145.983E-03    -126.637E-03     205.610E-03    -78.9732E-03     164.936E-03    -52.5142E+06    -76.1250E+06    -129.069E+06    -123.424E+06    -81.7708E+06    -52.5142E+06    -15.9290E+06         42.7933
            2015     7.35877E-03     146.131E-03     64.2147E-03     63.2304E-03    -182.551E-03     63.0582E-03    -182.088E-03     63.9248E-03    -21.0752E-03     256.376E-03    -85.3681E-03    -171.008E-03    -150.004E-03     235.372E-03    -85.3681E-03     184.721E-03    -27.0946E+06    -47.9103E+06    -117.400E+06    -109.010E+06    -56.2996E+06    -27.0946E+06    -22.6128E+06         45.2140
            2016     8.21736E-03     146.324E-03     62.4587E-03     61.1632E-03    -178.336E-03     60.8239E-03    -177.882E-03     62.3443E-03    -20.6331E-03     290.035E-03    -92.7346E-03    -197.300E-03    -175.770E-03     268.505E-03    -92.7346E-03     200.154E-03    -4.46300E+06    -22.1876E+06    -105.953E+06    -93.6369E+06    -34.5037E+06    -4.46300E+06    -29.4426E+06         48.0184
            2017     9.05388E-03     146.549E-03     60.4841E-03     58.5084E-03    -173.146E-03     58.0854E-03    -172.723E-03     60.4841E-03    -19.6130E-03     324.645E-03    -100.963E-03    -223.682E-03    -202.667E-03     303.630E-03    -100.963E-03     210.354E-03     14.2488E+06    -4.41075E+06    -92.9324E+06    -76.0501E+06    -21.2930E+06     14.2488E+06    -34.4563E+06         51.2663
            2018     9.87266E-03     146.802E-03     58.3741E-03     55.4315E-03    -167.250E-03     55.0647E-03    -166.883E-03     58.3741E-03    -17.8853E-03     359.356E-03    -109.898E-03    -249.458E-03    -229.589E-03     339.487E-03    -109.898E-03     216.122E-03     30.0464E+06     9.53166E+06    -77.5789E+06    -58.8731E+06    -9.17418E+06     30.0464E+06    -35.1057E+06         55.0148
            2019     10.6648E-03     147.086E-03     56.0844E-03     52.1625E-03    -160.937E-03     51.8613E-03    -160.636E-03     56.0844E-03    -15.8561E-03     388.993E-03    -119.222E-03    -269.771E-03    -251.403E-03     370.625E-03    -119.222E-03     216.758E-03     44.0965E+06     26.2268E+06    -59.8516E+06    -44.9389E+06     11.3141E+06     44.0965E+06    -31.6605E+06         59.2893
            2020     11.4464E-03     147.368E-03     53.7062E-03     48.7228E-03    -154.408E-03     48.4908E-03    -154.176E-03     53.7062E-03    -13.6089E-03     411.799E-03    -128.501E-03    -283.297E-03    -266.617E-03     395.118E-03    -128.501E-03     212.585E-03     63.0583E+06     51.0678E+06    -42.2621E+06    -34.3330E+06     47.0202E+06     59.1767E+06    -24.4513E+06         64.0393
            2021     12.2164E-03     147.655E-03     51.2939E-03     45.2392E-03    -147.879E-03     45.0771E-03    -147.717E-03     51.2939E-03    -11.0887E-03     428.150E-03    -137.386E-03    -290.764E-03    -275.527E-03     412.914E-03    -137.386E-03     207.026E-03     73.5594E+06     63.0021E+06    -31.4886E+06    -26.8302E+06     62.2252E+06     69.6778E+06    -17.6133E+06         69.0850
            2022     12.9782E-03     147.944E-03     48.9205E-03     41.7967E-03    -141.551E-03     41.6944E-03    -141.449E-03     48.9205E-03    -8.53436E-03     434.078E-03    -145.552E-03    -288.526E-03    -275.403E-03     420.955E-03    -145.552E-03     192.617E-03     74.5639E+06     50.7247E+06    -29.4469E+06    -24.6413E+06     45.9191E+06     74.5639E+06    -16.5321E+06         74.1000
            2023     13.7448E-03     148.203E-03     46.5708E-03     38.4547E-03    -135.398E-03     38.4031E-03    -135.347E-03     46.5708E-03    -5.77817E-03     435.210E-03    -152.680E-03    -282.530E-03    -268.853E-03     421.533E-03    -152.680E-03     195.523E-03     89.9060E+06     51.1630E+06    -22.3411E+06    -17.9559E+06     46.7779E+06     89.9060E+06    -14.3804E+06         78.6193
            2024     14.5244E-03     148.504E-03     44.3297E-03     35.4232E-03    -129.692E-03     35.4060E-03    -129.675E-03     44.3297E-03    -3.09012E-03     424.941E-03    -158.758E-03    -266.183E-03    -255.097E-03     413.855E-03    -158.758E-03     169.908E-03     151.070E+06     75.3882E+06    -9.74986E+06    -5.52168E+06       71.16E+06     151.070E+06    -7.28709E+06         82.1349
            2025     956.131E-06     146.725E-03     59.0102E-03     58.6177E-03    -162.872E-03     58.9008E-03    -162.815E-03     58.6710E-03    -6.41096E-03     96.3794E-03    -47.0243E-03    -49.3551E-03    -48.4569E-03     95.4812E-03    -47.0243E-03     21.3728E-03    -204.884E+06    -368.418E+06    -375.501E+06    -372.242E+06    -207.739E+06    -368.821E+06    -18.6385E+06         34.6364
            2026     1.90861E-03     146.745E-03     59.0830E-03     58.6422E-03    -163.183E-03     58.9229E-03    -163.023E-03     58.6422E-03    -11.4905E-03     105.364E-03    -48.9450E-03    -56.4189E-03    -53.7085E-03     102.653E-03    -48.9450E-03     40.6402E-03    -179.399E+06    -333.919E+06    -352.351E+06    -345.251E+06    -186.499E+06    -333.919E+06    -30.2087E+06         35.1738
            2027     2.85446E-03     146.784E-03     59.2549E-03     58.4429E-03    -163.534E-03     58.9505E-03    -163.230E-03     58.4429E-03    -16.1068E-03     120.100E-03    -51.9124E-03    -68.1874E-03    -62.5825E-03     114.495E-03    -51.9124E-03     63.5419E-03    -160.669E+06    -282.697E+06    -318.692E+06    -305.706E+06    -173.655E+06    -282.697E+06    -40.8475E+06         36.0417
            2028     3.79001E-03     146.843E-03     59.2948E-03     58.0858E-03    -163.666E-03     58.8382E-03    -163.210E-03     58.0858E-03    -19.8258E-03     139.847E-03    -55.8824E-03    -83.9650E-03    -74.7519E-03     130.634E-03    -55.8824E-03     88.7250E-03    -131.706E+06    -228.050E+06    -277.241E+06    -259.815E+06    -149.132E+06    -228.050E+06    -46.8643E+06         37.2403
            2029     4.71403E-03     146.929E-03     59.0806E-03     57.5237E-03    -163.292E-03     58.5006E-03    -162.712E-03     57.5237E-03    -22.3512E-03     164.251E-03    -60.8205E-03    -103.431E-03    -90.4998E-03     151.320E-03    -60.8205E-03     114.729E-03    -101.943E+06    -174.776E+06    -235.799E+06    -214.247E+06    -123.495E+06    -174.776E+06    -48.7246E+06         38.7617
            2030     5.62273E-03     147.046E-03     58.4448E-03     56.7085E-03    -162.167E-03     57.7844E-03    -161.507E-03     56.7085E-03    -23.8073E-03     192.654E-03    -66.7425E-03    -125.912E-03    -109.806E-03     176.548E-03    -66.7425E-03     139.556E-03    -79.0155E+06    -126.884E+06    -196.696E+06    -171.829E+06    -106.385E+06    -124.382E+06    -46.9312E+06         40.5957
            2031     6.51551E-03     147.198E-03     57.3501E-03     55.5953E-03    -160.131E-03     56.6424E-03    -159.423E-03     55.5953E-03    -24.4924E-03     224.812E-03    -73.6380E-03    -151.174E-03    -132.743E-03     206.381E-03    -73.6380E-03     162.276E-03    -52.5768E+06    -81.3281E+06    -157.212E+06     -134.35E+06    -80.5650E+06    -76.2014E+06    -40.9071E+06         42.7353
            2032     7.38776E-03     147.391E-03     55.7762E-03     54.1595E-03    -157.059E-03     55.0598E-03    -156.343E-03     54.1595E-03    -24.3920E-03     259.187E-03    -81.4527E-03    -177.735E-03    -157.935E-03     239.388E-03    -81.4527E-03     181.613E-03    -24.4659E+06    -36.5479E+06    -123.882E+06    -103.749E+06    -48.6637E+06    -32.4827E+06    -37.4833E+06         45.1873
            2033     8.24005E-03     147.626E-03     53.6969E-03     52.3459E-03    -152.873E-03     52.9644E-03    -152.197E-03     52.4019E-03    -23.3776E-03     294.426E-03    -90.0417E-03    -204.384E-03    -184.236E-03     274.278E-03    -90.0417E-03     196.164E-03     934.545E+03    -4.65769E+06    -102.153E+06    -82.0459E+06    -23.7384E+06    -92.3342E+03    -38.9040E+06         47.9816
            2034     9.07392E-03     147.892E-03     51.2789E-03     49.9947E-03    -147.606E-03     50.3274E-03    -146.998E-03     50.3383E-03    -21.7479E-03     330.411E-03    -99.2873E-03    -231.123E-03    -211.433E-03     310.721E-03    -99.2873E-03     206.296E-03     19.9301E+06     8.09790E+06    -90.9329E+06    -69.4320E+06    -13.4030E+06     19.9301E+06    -40.7508E+06         51.1702
            2035     9.87931E-03     148.200E-03     48.6299E-03     47.2278E-03    -141.543E-03     47.3175E-03    -141.024E-03     48.0212E-03    -19.6368E-03     362.800E-03    -108.939E-03    -253.861E-03    -234.963E-03     343.902E-03    -108.939E-03     212.406E-03     32.4684E+06     14.6627E+06    -85.7351E+06    -63.1335E+06    -7.93889E+06     32.4684E+06    -41.4928E+06         54.8181
            2036     10.6745E-03     148.518E-03     45.8310E-03     44.3402E-03    -135.136E-03     44.2043E-03    -134.723E-03     45.5546E-03    -17.0620E-03     389.883E-03    -118.622E-03    -271.261E-03    -253.611E-03     372.233E-03    -118.622E-03     212.927E-03     44.0154E+06     28.8245E+06    -77.3584E+06    -56.2026E+06     7.66868E+06     44.0154E+06    -41.8260E+06         58.9725
            2037     11.4552E-03     148.841E-03     43.1159E-03     41.3511E-03    -128.742E-03     41.1069E-03    -128.436E-03     43.0533E-03    -14.2995E-03     412.103E-03    -128.082E-03    -284.021E-03    -268.157E-03     396.239E-03    -128.082E-03     207.522E-03     55.2561E+06     45.8170E+06    -61.5112E+06    -45.6502E+06     29.9560E+06     55.2561E+06    -37.3092E+06         63.6025
            2038     12.2213E-03     149.163E-03     40.6017E-03     38.2279E-03    -122.528E-03     38.0177E-03    -122.318E-03     40.6017E-03    -11.4769E-03     427.511E-03    -137.079E-03    -290.432E-03    -276.025E-03     413.104E-03    -137.079E-03     201.255E-03     64.6712E+06     52.2432E+06    -43.3103E+06    -33.2717E+06     42.2045E+06     64.6712E+06    -25.5918E+06         68.5492
            2039     12.9872E-03     149.461E-03     38.2919E-03     35.1529E-03    -116.723E-03     35.0270E-03    -116.597E-03     38.2919E-03    -8.62615E-03     433.859E-03    -145.359E-03    -288.500E-03    -276.183E-03     421.542E-03    -145.359E-03     186.467E-03     82.6862E+06     51.0288E+06    -26.7509E+06    -20.6995E+06     44.9775E+06     82.6862E+06    -15.4988E+06         73.4955
            2040     13.7536E-03     149.724E-03     36.1167E-03     32.3203E-03    -111.406E-03     32.2605E-03    -111.346E-03     36.1167E-03    -5.68679E-03     434.181E-03    -152.591E-03    -281.591E-03    -269.382E-03     421.973E-03    -152.591E-03     184.745E-03     98.2812E+06     47.1533E+06    -20.4062E+06    -16.3225E+06     43.0696E+06     98.2812E+06    -12.9834E+06         77.9768
            2041     14.5195E-03     150.013E-03     34.1475E-03     29.9382E-03    -106.836E-03     29.9203E-03    -106.818E-03     34.1475E-03    -2.86843E-03     422.846E-03    -158.705E-03    -264.141E-03    -254.448E-03     413.153E-03    -158.705E-03     158.872E-03     149.271E+06     59.7931E+06    -19.7775E+06    -14.8692E+06     54.8848E+06     149.271E+06    -9.87210E+06         81.4589
            2042     958.326E-06     147.816E-03     49.5583E-03     49.1647E-03    -134.275E-03     49.4511E-03    -134.184E-03     49.1808E-03    -7.45543E-03     92.7757E-03    -45.4373E-03    -47.3384E-03    -46.8613E-03     92.2986E-03    -45.4373E-03     14.6501E-03    -156.707E+06    -286.922E+06    -299.469E+06    -293.324E+06    -162.338E+06    -287.436E+06    -26.5296E+06         34.8116
            2043     1.91264E-03     147.845E-03     49.7417E-03     49.1045E-03    -134.755E-03     49.4782E-03    -134.491E-03     49.1045E-03    -13.4342E-03     101.057E-03    -47.3776E-03    -53.6795E-03    -52.1104E-03     99.4880E-03    -47.3776E-03     29.2162E-03    -132.685E+06    -270.208E+06    -300.188E+06    -285.863E+06    -147.009E+06    -270.208E+06    -45.7940E+06         35.3594
            2044     2.86046E-03     147.896E-03     50.1696E-03     48.8576E-03    -135.511E-03     49.6828E-03    -135.025E-03     48.8576E-03    -18.5924E-03     114.597E-03    -50.3148E-03    -64.2817E-03    -60.7562E-03     111.071E-03    -50.3148E-03     48.1313E-03    -111.787E+06    -247.910E+06    -299.865E+06    -273.777E+06    -137.876E+06    -247.910E+06    -64.0172E+06         36.2415
            2045     3.79958E-03     147.974E-03     50.4728E-03     48.4561E-03    -136.079E-03     49.7534E-03    -135.359E-03     48.4561E-03    -22.7656E-03     134.012E-03    -54.3501E-03    -79.6616E-03    -73.4185E-03     127.769E-03    -54.3501E-03     70.5408E-03    -85.2524E+06    -219.665E+06    -292.317E+06    -254.333E+06    -123.236E+06    -219.665E+06    -78.7305E+06         37.4537
            2046     4.72450E-03     148.084E-03     50.4845E-03     47.8259E-03    -136.120E-03     49.5699E-03    -135.206E-03     47.8259E-03    -25.7288E-03     159.245E-03    -59.5648E-03    -99.6798E-03    -90.2757E-03     149.840E-03    -59.5648E-03     95.7035E-03    -61.9513E+06    -184.720E+06    -273.438E+06    -226.709E+06    -108.680E+06    -184.720E+06    -86.2797E+06         38.9806
            2047     5.63295E-03     148.232E-03     50.1012E-03     46.9137E-03    -135.409E-03     49.0703E-03    -134.378E-03     46.9137E-03    -27.2391E-03     190.067E-03    -65.9980E-03    -124.069E-03    -111.702E-03     177.700E-03    -65.9980E-03     121.262E-03    -48.2070E+06    -146.546E+06    -248.337E+06    -194.998E+06    -101.545E+06    -146.546E+06    -87.7264E+06         40.8008
            2048     6.52066E-03     148.419E-03     49.1667E-03     45.6774E-03    -133.652E-03     48.0834E-03    -132.569E-03     45.6774E-03    -27.7345E-03     225.038E-03    -73.5940E-03    -151.444E-03    -136.668E-03     210.262E-03    -73.5940E-03     145.516E-03    -32.1359E+06    -107.314E+06    -216.418E+06    -161.243E+06    -87.3110E+06    -107.314E+06    -84.3206E+06         42.8939
            2049     7.38581E-03     148.655E-03     47.6042E-03     44.0926E-03    -130.676E-03     46.5321E-03    -129.604E-03     44.0926E-03    -27.2697E-03     261.395E-03    -82.1833E-03    -179.212E-03    -163.012E-03     245.195E-03    -82.1833E-03     165.191E-03    -7.45469E+06    -63.3579E+06    -176.636E+06    -127.421E+06    -56.6701E+06    -63.3579E+06    -76.7360E+06         45.2545
            2050     8.23241E-03     148.922E-03     45.4304E-03     42.1605E-03    -126.472E-03     44.4434E-03    -125.485E-03     42.1605E-03    -25.6989E-03     298.179E-03    -91.5654E-03    -206.614E-03    -190.012E-03     281.577E-03    -91.5654E-03     179.455E-03     10.7608E+06    -21.2777E+06    -139.844E+06    -98.7213E+06    -32.3089E+06    -19.3310E+06    -66.2864E+06         47.9028
            2051     9.05232E-03     149.244E-03     42.7714E-03     39.9181E-03    -121.211E-03     41.9153E-03    -120.354E-03     39.9181E-03    -23.4007E-03     332.154E-03    -101.414E-03    -230.740E-03    -214.270E-03     315.684E-03    -101.414E-03     189.286E-03     23.5425E+06     4.16257E+06    -109.359E+06    -76.2383E+06    -22.0242E+06     16.6088E+06    -53.3855E+06         50.8936
            2052     9.86169E-03     149.583E-03     39.8162E-03     37.4542E-03    -115.242E-03     39.1106E-03    -114.536E-03     37.4542E-03    -20.6736E-03     360.964E-03    -111.300E-03    -249.664E-03    -233.902E-03     345.202E-03    -111.300E-03     193.028E-03     43.1352E+06     19.0413E+06    -84.1155E+06    -57.2095E+06    -7.86475E+06     43.1352E+06    -44.1603E+06         54.3107
            2053     10.6558E-03     149.941E-03     36.7232E-03     34.8774E-03    -108.918E-03     36.1759E-03    -108.371E-03     34.8774E-03    -17.6385E-03     385.424E-03    -120.942E-03    -264.482E-03    -249.879E-03     370.820E-03    -120.942E-03     191.970E-03     60.8240E+06     33.6869E+06    -64.4722E+06    -41.5679E+06     10.7825E+06     60.8240E+06    -40.5346E+06         58.2290
            2054     11.4321E-03     150.308E-03     33.6838E-03     32.2353E-03    -102.584E-03     33.2207E-03    -102.194E-03     32.3079E-03    -14.4149E-03     403.626E-03    -130.119E-03    -273.507E-03    -260.243E-03     390.362E-03    -130.119E-03     187.272E-03     68.6255E+06     36.0893E+06    -50.0788E+06    -31.5072E+06     17.5178E+06     68.6255E+06    -34.7134E+06         62.6613
            2055     12.2083E-03     150.645E-03     30.9114E-03     29.5613E-03    -96.5908E-03     30.3729E-03    -96.3463E-03     29.8552E-03    -11.0285E-03     416.238E-03    -138.594E-03    -277.644E-03    -265.319E-03     403.913E-03    -138.594E-03     183.103E-03     73.1828E+06     37.1792E+06    -39.4239E+06    -27.0363E+06     24.7915E+06     73.1828E+06    -25.0643E+06         67.4870
            2056     12.9764E-03     150.975E-03     28.5618E-03     27.0005E-03    -91.3061E-03     27.8168E-03    -91.1757E-03     27.6150E-03    -7.75641E-03     424.579E-03    -146.322E-03    -278.256E-03    -267.376E-03     413.698E-03    -146.322E-03     173.145E-03     88.1456E+06     44.2978E+06    -31.4772E+06    -23.5450E+06     36.3655E+06     88.1456E+06    -19.0341E+06         72.3927
            2057     13.7409E-03     151.240E-03     26.6401E-03     24.7452E-03    -86.9053E-03     25.7071E-03    -86.8524E-03     25.6253E-03    -4.67524E-03     425.934E-03    -153.181E-03    -272.754E-03    -262.568E-03     415.748E-03    -153.181E-03     167.085E-03     109.422E+06     39.1417E+06    -20.6434E+06    -16.1705E+06     34.6687E+06     109.422E+06    -12.1392E+06         76.8779
            2058     14.5258E-03     151.514E-03     25.0733E-03     23.0312E-03    -83.4773E-03     24.1307E-03    -83.4647E-03     23.9612E-03    -2.07763E-03     414.460E-03    -158.986E-03    -255.475E-03    -247.583E-03     406.569E-03    -158.986E-03     142.228E-03     165.142E+06     53.9177E+06    -13.6412E+06    -4.32218E+06     44.5987E+06     165.142E+06    -5.32781E+06         80.3870
            2059     949.247E-06     148.916E-03     40.1355E-03     39.6581E-03    -104.269E-03     39.9791E-03    -104.129E-03     39.6743E-03    -8.33966E-03     111.725E-03    -55.2161E-03    -56.5092E-03    -56.2271E-03     111.610E-03    -55.3833E-03     5.77453E-03    -103.786E+06    -192.747E+06    -205.037E+06    -197.942E+06    -110.367E+06    -193.261E+06    -23.4188E+06         35.5712
            2060     1.89550E-03     148.951E-03     40.6459E-03     39.6245E-03    -105.363E-03     40.2609E-03    -104.978E-03     39.6245E-03    -14.4924E-03     118.428E-03    -57.1055E-03    -61.3228E-03    -60.8988E-03     118.004E-03    -57.1055E-03     11.5265E-03    -79.3721E+06    -175.583E+06    -209.201E+06    -190.995E+06    -97.5780E+06    -175.583E+06    -43.8078E+06         36.1035
            2061     2.83651E-03     149.013E-03     41.0808E-03     39.3922E-03    -106.472E-03     40.3559E-03    -105.747E-03     39.3922E-03    -20.2287E-03     129.390E-03    -59.9573E-03    -69.4330E-03    -68.3703E-03     128.328E-03    -59.9573E-03     21.1014E-03    -56.9591E+06    -151.946E+06    -213.238E+06    -179.416E+06    -90.7808E+06    -151.946E+06    -63.3702E+06         36.9555
            2062     3.76746E-03     149.107E-03     41.4784E-03     38.9339E-03    -107.472E-03     40.4046E-03    -106.398E-03     38.9339E-03    -24.8067E-03     145.011E-03    -63.8494E-03    -81.1618E-03    -79.0622E-03     142.912E-03    -63.8494E-03     34.6753E-03    -36.4072E+06    -129.822E+06    -215.897E+06    -167.670E+06    -84.6338E+06    -129.822E+06    -79.1453E+06         38.1179
            2063     4.68667E-03     149.240E-03     41.6361E-03     38.2233E-03    -108.034E-03     40.2699E-03    -106.667E-03     38.2233E-03    -28.0738E-03     165.960E-03    -68.8363E-03    -97.1241E-03    -93.5540E-03     162.390E-03    -68.8363E-03     52.1596E-03    -23.0940E+06    -113.793E+06    -217.443E+06    -159.704E+06    -80.8333E+06    -113.793E+06    -88.6874E+06         39.5681
            2064     5.59037E-03     149.414E-03     41.3734E-03     37.2099E-03    -107.782E-03     39.8244E-03    -106.234E-03     37.2099E-03    -29.8441E-03     192.832E-03    -75.0134E-03    -117.819E-03    -112.469E-03     187.483E-03    -75.0134E-03     73.0855E-03    -14.7021E+06    -100.802E+06    -217.627E+06    -152.294E+06    -80.0351E+06    -100.802E+06    -94.6186E+06         41.2764
            2065     6.47229E-03     149.641E-03     40.4705E-03     35.8534E-03    -106.346E-03     38.8720E-03    -104.747E-03     35.8534E-03    -30.0969E-03     224.049E-03    -82.3691E-03    -141.680E-03    -134.594E-03     216.963E-03    -82.3691E-03     93.8775E-03    -4.05288E+06    -84.8932E+06    -214.165E+06    -142.735E+06    -75.4828E+06    -84.8932E+06    -99.3092E+06         43.2131
            2066     7.33668E-03     149.907E-03     38.7521E-03     34.1278E-03    -103.447E-03     37.2099E-03    -101.905E-03     34.1278E-03    -29.1125E-03     258.302E-03    -90.7662E-03    -167.536E-03    -159.162E-03     249.928E-03    -90.7662E-03     112.092E-03     12.2294E+06    -61.7797E+06    -200.377E+06    -129.423E+06    -58.7240E+06    -61.7797E+06    -99.6199E+06         45.3621
            2067     8.17243E-03     150.229E-03     36.4177E-03     32.0419E-03    -99.2435E-03     35.0129E-03    -97.8387E-03     32.0419E-03    -27.1344E-03     292.348E-03    -99.9479E-03    -192.400E-03    -183.209E-03     283.157E-03    -99.9479E-03     127.316E-03     19.4929E+06    -31.3643E+06    -177.406E+06    -111.167E+06    -46.7467E+06    -31.3643E+06    -92.3205E+06         47.7399
            2068     8.99375E-03     150.578E-03     33.7359E-03     29.6673E-03    -94.1047E-03     32.5394E-03    -92.9082E-03     29.6673E-03    -24.3023E-03     322.572E-03    -109.431E-03    -213.142E-03    -203.553E-03     312.984E-03    -109.431E-03     137.759E-03     24.4228E+06    -5.97208E+06    -151.422E+06    -88.4100E+06    -44.1440E+06    -417.478E+03    -81.7144E+06         50.4119
            2069     9.79801E-03     150.957E-03     30.8333E-03     27.1047E-03    -88.3016E-03     29.8751E-03    -87.3434E-03     27.1047E-03    -21.0037E-03     348.750E-03    -118.759E-03    -229.991E-03    -220.481E-03     339.240E-03    -118.759E-03     144.214E-03     38.8972E+06     10.3616E+06    -120.172E+06    -65.9752E+06    -30.9515E+06     26.0137E+06    -69.2149E+06         53.4866
            2070     10.5841E-03     151.353E-03     27.8811E-03     24.4675E-03    -82.2034E-03     27.1566E-03    -81.4789E-03     24.4675E-03    -17.5659E-03     368.880E-03    -127.600E-03    -241.280E-03    -231.818E-03     359.418E-03    -127.600E-03     149.501E-03     56.0348E+06      26.586E+06    -88.0380E+06    -50.6791E+06    -6.28532E+06     51.5472E+06    -54.8425E+06         57.0903
            2071     11.3751E-03     151.737E-03     25.0518E-03     21.8827E-03    -76.2364E-03     24.5539E-03    -75.7385E-03     21.8827E-03    -13.9331E-03     383.571E-03    -135.690E-03    -247.881E-03    -238.318E-03     374.008E-03    -135.690E-03     153.690E-03     76.0599E+06     21.6091E+06    -66.2430E+06    -40.8018E+06    -3.83212E+06     76.0599E+06    -39.6176E+06         61.3009
            2072     12.1570E-03     152.111E-03     22.5143E-03     19.4569E-03    -70.7874E-03     22.2123E-03    -70.4854E-03     19.4569E-03    -10.3508E-03     395.394E-03    -142.891E-03    -252.503E-03    -242.966E-03     385.857E-03    -142.891E-03     155.830E-03     95.4466E+06     20.3156E+06    -47.5275E+06    -32.0903E+06     4.87846E+06     95.4466E+06    -24.8150E+06         66.0435
            2073     12.9439E-03     152.446E-03     20.4355E-03     17.2802E-03    -66.1476E-03     20.2783E-03    -65.9903E-03     17.2802E-03    -7.12159E-03     404.208E-03    -149.266E-03    -254.942E-03    -245.791E-03     395.057E-03    -149.266E-03     154.031E-03     108.323E+06     41.2568E+06    -33.6880E+06    -25.0599E+06     32.6287E+06     108.323E+06    -15.3596E+06         70.9987
            2074     13.7286E-03     152.756E-03     18.9036E-03     15.4400E-03    -62.4899E-03     18.8425E-03    -62.4289E-03     15.4400E-03    -4.15931E-03     406.882E-03    -154.877E-03    -252.005E-03    -243.522E-03     398.399E-03    -154.877E-03     148.447E-03     112.427E+06     34.5394E+06    -25.3134E+06    -17.6633E+06     26.8893E+06     112.427E+06    -13.3118E+06         75.6284
            2075     14.5049E-03     152.987E-03     18.0750E-03     14.0536E-03    -60.0923E-03     18.0619E-03    -60.0792E-03     14.0536E-03    -1.76759E-03     396.966E-03    -159.695E-03    -237.271E-03    -230.950E-03     390.645E-03    -159.695E-03     124.854E-03     159.536E+06     41.7458E+06    -22.6574E+06    -11.3795E+06     30.4679E+06     159.536E+06    -7.98685E+06         79.3010
            2076     928.919E-06     150.050E-03     31.8339E-03     31.3394E-03    -74.1120E-03     31.5217E-03    -73.9528E-03     31.4924E-03    -7.57353E-03     157.810E-03    -78.2796E-03    -79.5302E-03    -79.0293E-03     157.682E-03    -78.6527E-03    -7.55091E-03    -50.5049E+06    -88.2124E+06    -105.132E+06    -92.3365E+06    -63.3003E+06    -88.2124E+06    -18.4214E+06         36.7306
            2077     1.85422E-03     150.092E-03     31.9271E-03     31.1383E-03    -75.0531E-03     31.3890E-03    -74.5964E-03     31.2196E-03    -13.5710E-03     164.433E-03    -80.5611E-03    -83.8715E-03    -83.4589E-03     164.020E-03    -80.5611E-03    -14.7262E-03    -26.8513E+06    -74.0830E+06    -111.918E+06    -89.1513E+06    -49.6183E+06    -74.0830E+06    -35.8440E+06         37.2309
            2078     2.77243E-03     150.163E-03     32.0906E-03     30.8159E-03    -76.3118E-03     31.1978E-03    -75.4190E-03     30.8159E-03    -19.2756E-03     173.820E-03    -83.6958E-03    -90.1241E-03    -89.2484E-03     172.944E-03    -83.6958E-03    -20.8062E-03    -9.62806E+06    -57.5495E+06    -122.661E+06    -86.4503E+06    -45.8383E+06    -57.5495E+06    -52.0109E+06         38.0223
            2079     3.68306E-03     150.269E-03     32.2318E-03     30.2167E-03    -77.5891E-03     30.8599E-03    -76.2172E-03     30.2167E-03    -24.1134E-03     185.277E-03    -87.6899E-03    -97.5869E-03    -96.1623E-03     183.852E-03    -87.6899E-03    -23.5405E-03    -1.02066E+06    -44.7071E+06    -132.023E+06    -85.1847E+06    -47.8592E+06    -44.7071E+06    -62.1128E+06         39.0868
            2080     4.58299E-03     150.415E-03     32.1598E-03     29.3684E-03    -78.5343E-03     30.3561E-03    -76.7305E-03     29.3684E-03    -27.7000E-03     199.576E-03    -92.5481E-03    -107.027E-03    -105.149E-03     197.697E-03    -92.5481E-03    -21.3650E-03     5.61917E+06    -34.6464E+06    -137.170E+06    -83.1853E+06    -48.3657E+06    -34.6464E+06    -68.3504E+06         40.3951
            2081     5.46715E-03     150.612E-03     31.6744E-03     28.2220E-03    -78.7266E-03     29.5684E-03    -76.6207E-03     28.2220E-03    -29.8236E-03     217.096E-03    -98.3729E-03    -118.723E-03    -116.374E-03     214.747E-03    -98.3729E-03    -14.8111E-03     11.6189E+06    -23.8885E+06    -140.274E+06    -79.0337E+06    -49.6218E+06    -23.8885E+06    -73.6675E+06         41.9116
            2082     6.33889E-03     150.858E-03     30.4625E-03     26.7341E-03    -77.6311E-03     28.2660E-03    -75.4346E-03     26.7341E-03    -30.0730E-03     237.667E-03    -105.176E-03    -132.491E-03    -129.702E-03     234.878E-03    -105.176E-03    -7.35904E-03     20.1852E+06    -11.3536E+06    -140.278E+06    -73.6320E+06    -48.3628E+06    -9.45205E+06    -77.7167E+06         43.6017
            2083     7.18695E-03     151.160E-03     28.4752E-03     24.8803E-03    -75.0219E-03     26.3597E-03    -72.9063E-03     24.8803E-03    -28.8415E-03     259.594E-03    -112.761E-03    -146.833E-03    -143.717E-03     256.478E-03    -112.761E-03     1.63313E-03     31.2461E+06     80.8055E+03    -135.492E+06    -69.1843E+06    -40.1038E+06     5.12342E+06    -79.2558E+06         45.4474
            2084     8.02196E-03     151.507E-03     25.8988E-03     22.6838E-03    -71.0897E-03     23.9625E-03    -69.1534E-03     22.6838E-03    -26.6696E-03     280.312E-03    -120.717E-03    -159.595E-03    -156.218E-03     276.935E-03    -120.717E-03     11.1621E-03     36.2251E+06     4.59107E+06    -131.203E+06    -67.7161E+06    -37.1035E+06     14.4327E+06    -77.2465E+06         47.4712
            2085     8.84150E-03     151.889E-03     23.0091E-03     20.2139E-03    -66.1846E-03     21.3072E-03    -64.4828E-03     20.2139E-03    -23.8670E-03     299.215E-03    -128.134E-03    -171.081E-03    -167.308E-03     295.917E-03    -128.609E-03     21.4597E-03     38.8617E+06     5.87225E+06    -131.893E+06    -69.8129E+06    -38.3009E+06     20.9550E+06    -75.9114E+06         49.7540
            2086     9.64580E-03     152.300E-03     20.1369E-03     17.5699E-03    -60.7608E-03     18.7046E-03    -59.3285E-03     17.5699E-03    -20.7023E-03     313.982E-03    -132.940E-03    -181.042E-03    -174.804E-03     310.757E-03    -135.953E-03     36.2354E-03     41.0511E+06     6.29101E+06    -131.655E+06    -73.2642E+06    -39.2158E+06     28.1675E+06    -73.0371E+06         52.4451
            2087     10.4569E-03     152.716E-03     17.5139E-03     14.8768E-03    -55.2359E-03     16.3667E-03    -54.0887E-03     14.8768E-03    -17.4003E-03     324.487E-03    -136.269E-03    -188.218E-03    -178.765E-03     321.041E-03    -142.276E-03     55.8041E-03     47.9873E+06     14.0107E+06    -119.607E+06    -73.7073E+06    -27.4014E+06     43.4997E+06    -64.4247E+06         55.7423
            2088     11.2594E-03     153.129E-03     15.2651E-03     12.2532E-03    -49.9800E-03     14.4103E-03    -49.1252E-03     12.2532E-03    -14.0579E-03     334.974E-03    -141.800E-03    -193.174E-03    -183.424E-03     330.878E-03    -147.454E-03     79.6796E-03     66.3314E+06     10.6494E+06    -103.685E+06    -66.1864E+06    -26.8491E+06     66.3314E+06    -52.9063E+06         59.8072
            2089     12.0702E-03     153.520E-03     13.5373E-03     9.80208E-03    -45.3520E-03     12.9785E-03    -44.7932E-03     9.80208E-03    -10.6897E-03     347.958E-03    -149.435E-03    -198.523E-03    -190.771E-03     342.392E-03    -151.621E-03     106.090E-03     86.6810E+06     6.05021E+06    -82.0327E+06    -52.4503E+06    -23.5322E+06     86.6810E+06    -40.6891E+06         64.6187
            2090     12.8723E-03     153.889E-03     12.2920E-03     7.63500E-03    -41.4579E-03     12.0052E-03    -41.1710E-03     7.63500E-03    -7.25172E-03     360.579E-03    -155.009E-03    -205.570E-03    -197.843E-03     352.852E-03    -155.009E-03     130.332E-03     109.313E+06     32.7112E+06    -53.3312E+06    -31.4501E+06     10.8301E+06     109.313E+06    -29.7108E+06         69.8603
            2091     13.6777E-03     154.202E-03     11.6425E-03     5.85940E-03    -38.5441E-03     11.5462E-03    -38.4478E-03     5.85940E-03    -3.96974E-03     373.084E-03    -157.958E-03    -215.126E-03    -205.590E-03     363.547E-03    -157.958E-03     147.060E-03     124.611E+06     32.9841E+06    -29.9615E+06    -12.7147E+06     15.7374E+06     124.611E+06    -15.8532E+06         74.8849
            2092     14.4981E-03     154.461E-03     11.9237E-03     4.65741E-03    -37.2069E-03     11.9070E-03    -37.1901E-03     4.65741E-03    -1.49214E-03     374.023E-03    -160.798E-03    -213.225E-03    -206.333E-03     367.131E-03    -160.798E-03     121.953E-03     166.229E+06     47.0586E+06    -27.2870E+06     1.23650E+06     18.5350E+06     166.229E+06    -4.11407E+06         78.8778
            2093     893.738E-06     151.255E-03     26.9092E-03     26.4225E-03    -46.2536E-03     26.3450E-03    -46.1760E-03     26.9092E-03    -3.74680E-03     240.666E-03    -119.838E-03    -120.828E-03    -119.863E-03     239.907E-03    -120.043E-03    -30.0229E-03     25.8186E+06     19.4402E+06    -32.7889E+06     17.1675E+06    -24.9089E+06     20.2112E+06    -13.1105E+06         37.8829
            2094     1.78231E-03     151.305E-03     26.3752E-03     25.2877E-03    -46.0172E-03     25.1651E-03    -45.7681E-03     26.2487E-03    -7.44419E-03     246.724E-03    -122.216E-03    -124.508E-03    -122.315E-03     244.530E-03    -122.216E-03    -54.0284E-03     38.1535E+06     23.4724E+06    -33.4726E+06     14.5351E+06    -15.2862E+06     28.9044E+06    -20.0895E+06         38.3498
            2095     2.66311E-03     151.385E-03     25.8832E-03     23.7400E-03    -46.2437E-03     23.6297E-03    -45.7391E-03     25.4890E-03    -10.8962E-03     256.040E-03    -125.540E-03    -130.499E-03    -126.073E-03     251.613E-03    -125.540E-03    -79.2982E-03     50.2823E+06     24.9750E+06    -39.5838E+06     9.56706E+06    -13.5501E+06     39.6567E+06    -25.6273E+06         39.0795
            2096     3.53478E-03     151.498E-03     25.1618E-03     21.7917E-03    -46.3881E-03     21.6062E-03    -45.5588E-03     24.5179E-03    -14.2477E-03     267.214E-03    -129.986E-03    -137.228E-03    -129.863E-03     259.849E-03    -129.986E-03    -104.256E-03     57.2132E+06     26.0351E+06    -47.2251E+06     4.77171E+06    -18.3857E+06     49.6372E+06    -29.8381E+06         40.0432
            2097     4.39587E-03     151.654E-03     24.2451E-03     19.5247E-03    -46.3607E-03     19.2545E-03    -45.1253E-03     23.2798E-03    -17.6484E-03     278.751E-03    -135.373E-03    -143.378E-03    -132.296E-03     267.669E-03    -135.373E-03    -128.192E-03     64.3844E+06     26.6512E+06    -51.7602E+06     1.34252E+06    -20.9356E+06     58.8686E+06    -34.0528E+06         41.2019
            2098     5.24732E-03     151.856E-03     22.9795E-03     17.1135E-03    -45.9717E-03     16.6278E-03    -44.2462E-03     21.7398E-03    -20.6224E-03     288.849E-03    -141.031E-03    -147.818E-03    -132.148E-03     273.621E-03    -141.472E-03    -148.901E-03     69.8030E+06     27.4625E+06    -54.8017E+06    -2.85715E+06    -21.8962E+06     67.2171E+06    -37.2128E+06         42.5145
            2099     6.08027E-03     152.112E-03     21.1227E-03     14.8007E-03    -44.9413E-03     13.7983E-03    -42.6826E-03     19.8664E-03    -22.5428E-03     296.141E-03    -143.161E-03    -152.980E-03    -129.459E-03     277.427E-03    -147.968E-03    -162.235E-03     74.8201E+06     27.6567E+06    -57.4428E+06    -8.14441E+06    -21.2910E+06     74.4695E+06    -39.5433E+06         43.9474
            2100     6.90376E-03     152.419E-03     18.8175E-03     12.6561E-03    -43.2205E-03     11.0248E-03    -40.4338E-03     17.6621E-03    -23.2462E-03     299.832E-03    -141.178E-03    -158.653E-03    -124.273E-03     278.732E-03    -154.459E-03    -167.381E-03     80.2859E+06     24.9829E+06    -57.1865E+06    -14.5188E+06    -17.6848E+06     80.2859E+06    -39.1127E+06         45.4899
            2101     7.71722E-03     152.768E-03     16.0920E-03     10.7698E-03    -40.7267E-03     8.37805E-03    -37.4064E-03     15.1634E-03    -23.0287E-03     299.552E-03    -136.427E-03    -163.125E-03    -117.411E-03     277.907E-03    -160.497E-03    -163.497E-03     86.2374E+06     21.2241E+06    -55.4981E+06    -19.4452E+06    -14.8287E+06     86.2374E+06    -36.8088E+06         47.1758
            2102     8.52360E-03     153.158E-03     13.0677E-03     9.15080E-03    -37.5542E-03     5.96408E-03    -33.7282E-03     12.4283E-03    -22.1891E-03     294.801E-03    -128.216E-03    -166.585E-03    -109.323E-03     274.899E-03    -165.576E-03    -148.129E-03     92.2255E+06     16.5050E+06    -53.1706E+06    -23.3675E+06    -13.2982E+06     92.2255E+06    -32.0477E+06         49.1085
            2103     9.34089E-03     153.568E-03     10.1484E-03     7.68758E-03    -34.0137E-03     4.06371E-03    -29.7983E-03     9.55685E-03    -20.7576E-03     286.094E-03    -116.899E-03    -169.195E-03    -100.319E-03     269.513E-03    -169.195E-03    -123.961E-03     99.1601E+06     13.8413E+06    -50.9863E+06    -24.2603E+06    -12.8848E+06     99.1601E+06    -29.3734E+06         51.4781
            2104     10.1634E-03     153.989E-03     7.64267E-03     6.11650E-03    -30.2630E-03     2.80122E-03    -25.9800E-03     6.67496E-03    -18.6683E-03     276.076E-03    -105.010E-03    -171.066E-03    -92.3557E-03     263.421E-03    -171.066E-03    -93.2199E-03     101.617E+06     13.5570E+06    -54.1779E+06    -24.0860E+06    -16.5349E+06     101.617E+06    -26.8675E+06         54.5445
            2105     11.0133E-03     154.410E-03     6.11483E-03     3.89907E-03    -26.4561E-03     2.23149E-03    -22.5728E-03     3.89907E-03    -15.9857E-03     268.647E-03    -97.3291E-03    -171.318E-03    -88.1599E-03     259.478E-03    -171.318E-03    -56.5854E-03     101.772E+06     15.8900E+06    -54.4633E+06    -23.8358E+06    -14.7375E+06     101.772E+06    -27.6579E+06         58.5539
            2106     11.8730E-03     154.827E-03     5.43458E-03     1.33351E-03    -22.8274E-03     2.28022E-03    -19.6730E-03     1.33351E-03    -12.8561E-03     266.126E-03    -94.2923E-03    -171.834E-03    -88.7904E-03     259.121E-03    -170.331E-03    -15.7612E-03     99.5903E+06     12.2873E+06    -58.5424E+06    -22.8221E+06    -23.4330E+06     99.5903E+06    -25.9964E+06         63.5679
            2107     12.7517E-03     155.227E-03     4.92810E-03    -904.302E-06    -19.5391E-03     2.88362E-03    -17.4946E-03    -904.302E-06    -9.10518E-03     270.208E-03    -95.0635E-03    -175.145E-03    -94.5158E-03     263.076E-03    -168.560E-03     20.9047E-03     110.290E+06     34.2478E+06    -58.3620E+06    -24.5208E+06     406.580E+03     110.290E+06    -30.2351E+06         69.2669
            2108     13.6391E-03     155.575E-03     4.85377E-03    -2.26049E-03    -17.3531E-03     3.99148E-03    -16.0344E-03    -2.71690E-03    -5.15980E-03     284.208E-03    -101.086E-03    -183.122E-03    -110.390E-03     277.053E-03    -166.663E-03     56.3383E-03     125.948E+06     26.8517E+06    -55.3107E+06    -18.4091E+06    -10.0499E+06     125.948E+06    -17.4139E+06         74.8377
            2109     14.4812E-03     155.895E-03     5.69023E-03    -2.50335E-03    -16.8901E-03     5.50221E-03    -15.3304E-03    -3.87512E-03    -1.92251E-03     293.513E-03    -108.968E-03    -184.545E-03    -124.627E-03     289.534E-03    -164.907E-03     58.5353E-03     154.470E+06     43.6134E+06    -44.8215E+06     3.27395E+06    -4.48203E+06     154.470E+06     1.15088E+06         79.2652


