********************************************************************************
Field Output Report, written Tue May  6 11:45:07 2025

Source 1
---------

   ODB: D:/AISI_1020/Vel_20/1020_2a_32_rd_500_cal_75_v_20_f_025.odb
   Step: Step-1
   Frame: Increment   4996551: Step Time =   0.6264

Loc 1 : Nodal values from source 1

Output sorted by column "Node Label".

Field Output reported at nodes for region: DIE_2A_32_D0_36-1.Region_1
   Computation algorithm: EXTRAPOLATE_COMPUTE_AVERAGE
   Averaged at nodes
   Averaging regions: ODB_REGIONS

      Node Label     COORD.COOR1     COORD.COOR2
                          @Loc 1          @Loc 1
-------------------------------------------------
               1     21.8134E-03     174.826E-03


Field Output reported at nodes for region: DIE_2A_32_D0_36-1.Region_2
   Computation algorithm: EXTRAPOLATE_COMPUTE_AVERAGE
   Averaged at nodes
   Averaging regions: ODB_REGIONS

      Node Label     COORD.COOR1     COORD.COOR2
                          @Loc 1          @Loc 1
-------------------------------------------------
               1     21.8134E-03     174.826E-03


Field Output reported at nodes for part: WIRE_1-1
   Computation algorithm: EXTRAPOLATE_COMPUTE_AVERAGE
   Averaged at nodes
   Averaging regions: ODB_REGIONS

      Node Label     COORD.COOR1     COORD.COOR2    ER.Max. Prin    ER.Mid. Prin    ER.Min. Prin         ER.ER11         ER.ER22         ER.ER33         ER.ER12    PE.Max. Prin    PE.Mid. Prin    PE.Min. Prin         PE.PE11         PE.PE22         PE.PE33         PE.PE12     S.Max. Prin     S.Mid. Prin     S.Min. Prin           S.S11           S.S22           S.S33           S.S12            TEMP
                          @Loc 1          @Loc 1          @Loc 1          @Loc 1          @Loc 1          @Loc 1          @Loc 1          @Loc 1          @Loc 1          @Loc 1          @Loc 1          @Loc 1          @Loc 1          @Loc 1          @Loc 1          @Loc 1          @Loc 1          @Loc 1          @Loc 1          @Loc 1          @Loc 1          @Loc 1          @Loc 1          @Loc 1
-----------------------------------------------------------------------------------------------------------------------------------------------------------------------------------------------------------------------------------------------------------------------------------------------------------------------------------------------------------------------------------------------------------------
               1     16.9971E-03     62.3717E-03     723.195E-03     709.390E-03        -2.49546     714.164E-03        -2.49458     717.547E-03     103.829E-03     120.433E-03    -58.1760E-03    -62.2505E-03    -54.9566E-03     113.139E-03    -58.1760E-03     71.5170E-03     155.608E+06     128.804E+06    -4.22816E+06    -4.22516E+06     155.605E+06     128.804E+06     329.906E+03         56.6488
               2    -308.697E-09     61.6775E-03         5.68163         2.57825        -9.32499        -1.09713        -2.54623         2.57825        -14.9355     115.876E-03    -57.9046E-03    -57.9716E-03    -57.9040E-03     115.876E-03    -57.9716E-03     408.649E-06    -71.1472E+06    -74.7977E+06    -268.508E+06    -72.3454E+06    -268.491E+06    -73.6170E+06     294.691E+03         28.9659
               3     743.526E-09    -63.3299E-09         1.08225     911.271E-03        -3.57656     902.250E-03        -3.56754         1.08225     401.996E-03     265.523E-03    -132.343E-03    -133.184E-03    -133.181E-03     265.520E-03    -132.343E-03     2.05832E-03    -63.7443E+06    -65.3561E+06    -256.333E+06    -63.7512E+06    -256.326E+06    -65.3561E+06     1.15083E+06         40.6203
               4     16.5169E-03    -63.3299E-09         1.26166     977.820E-03        -4.21896         1.25341        -4.21071     977.820E-03    -425.088E-03     270.356E-03    -79.5146E-03    -190.714E-03    -158.293E-03     237.936E-03    -79.5146E-03     235.771E-03     147.117E+06     139.718E+06     22.0497E+06     26.4632E+06     142.703E+06     139.718E+06     23.0761E+06         48.7129
               5     16.3624E-03     125.306E-03     84.8055E-03     12.1403E-03    -106.085E-03    -74.2435E-03    -19.7009E-03     84.8055E-03     104.892E-03     40.7180E-03     37.0092E-03    -77.7186E-03     40.0825E-03     37.6446E-03    -77.7186E-03     2.79485E-03     69.6897E+06    -14.8503E+06    -40.7873E+06     59.5923E+06    -30.6899E+06    -14.8503E+06     31.8367E+06         48.4265
               6     3.33648E-06     121.965E-03     155.621E-03     71.4609E-03    -15.1750E-03     146.315E-03    -5.86849E-03     71.4609E-03     77.5345E-03     54.1464E-03    -26.1771E-03    -27.9702E-03    -27.9413E-03     54.1175E-03    -26.1771E-03    -3.07822E-03     81.7909E+06     75.4236E+06     4.71492E+06     74.2821E+06     5.85641E+06     81.7909E+06    -8.91122E+06         23.3921
               7     16.0505E-03     62.2883E-03     728.213E-03     713.641E-03        -2.50371     723.481E-03        -2.50305     717.720E-03     14.8227E-03     139.219E-03    -58.1766E-03    -81.0798E-03    -56.4863E-03     114.626E-03    -58.1766E-03     130.889E-03     153.559E+06     124.957E+06    -8.41108E+06    -8.39933E+06     153.547E+06     124.957E+06     211.415E+03         55.3937
               8     15.1062E-03     62.0773E-03     736.937E-03     717.721E-03        -2.51697     736.551E-03        -2.51659     717.721E-03    -3.93077E-03     147.477E-03    -58.1207E-03    -89.4720E-03    -57.7358E-03     115.741E-03    -58.1207E-03     159.898E-03     147.243E+06     102.237E+06    -15.3598E+06    -15.2562E+06     147.139E+06     102.237E+06    -180.616E+03         52.3009
               9     14.1612E-03     61.9335E-03     733.223E-03     717.258E-03        -2.51305     733.038E-03        -2.51287     717.258E-03     28.9084E-03     128.391E-03    -57.9708E-03    -70.5425E-03    -56.6978E-03     114.546E-03    -57.9708E-03     97.5364E-03     137.951E+06     59.9195E+06    -19.7145E+06    -19.5780E+06     137.815E+06     59.9195E+06    -86.4151E+03         48.2880
              10     13.2167E-03     61.8606E-03     723.039E-03     716.882E-03        -2.50406     723.022E-03        -2.50405     716.882E-03    -8.51586E-03     118.624E-03    -57.8208E-03    -60.8537E-03    -56.1079E-03     113.878E-03    -57.8208E-03     56.9914E-03     123.320E+06     19.7082E+06    -23.6227E+06    -23.5699E+06     123.267E+06     19.7082E+06      699.73E+03         44.0616
              11     12.2714E-03     61.8090E-03     729.169E-03     716.403E-03        -2.51258     729.110E-03        -2.51252     716.403E-03     14.4640E-03     116.846E-03    -57.7971E-03    -59.0781E-03    -56.7082E-03     114.477E-03    -57.7971E-03     39.5655E-03     69.4647E+06    -5.62609E+06    -26.4756E+06    -26.4612E+06     69.4503E+06    -5.62609E+06     486.496E+03         40.2839
              12     11.3273E-03     61.7755E-03     732.374E-03     715.364E-03        -2.51753     732.305E-03        -2.51747     715.364E-03     21.0986E-03     116.018E-03    -57.8271E-03    -58.2282E-03    -57.0843E-03     114.940E-03    -57.8936E-03     27.0716E-03     9.74522E+06    -21.6989E+06    -36.0697E+06    -28.1107E+06    -9.95245E+06    -9.96024E+06    -21.1063E+03         37.1694
              13     10.3827E-03     61.7505E-03     723.557E-03     713.499E-03        -2.50880     722.517E-03        -2.50867     714.403E-03    -24.7081E-03     115.981E-03    -57.9142E-03    -58.0455E-03    -57.2750E-03     115.296E-03    -57.9995E-03     21.7176E-03    -3.51650E+06    -30.0924E+06    -66.8398E+06     -30.109E+06    -66.8233E+06    -3.51650E+06     22.9969E+03         34.7507
              14     9.43882E-03     61.7292E-03     722.394E-03     712.872E-03        -2.50623     720.741E-03        -2.50548     713.776E-03     36.5017E-03     115.998E-03    -57.8415E-03    -58.1207E-03    -57.4645E-03     115.575E-03    -58.0747E-03     16.8477E-03    -1.95593E+06    -32.9412E+06    -104.676E+06    -32.9516E+06    -104.666E+06    -1.95593E+06     128.435E+03         33.0609
              15     8.49472E-03     61.7142E-03     724.190E-03     713.015E-03        -2.50671     721.646E-03        -2.50417     713.015E-03    -47.5930E-03     115.751E-03    -57.6235E-03    -58.1389E-03    -57.4013E-03     115.529E-03    -58.1389E-03     12.3231E-03    -4.51530E+06    -36.8723E+06    -136.052E+06    -36.8809E+06    -136.044E+06    -4.51530E+06     188.147E+03         31.9771
              16     7.55053E-03     61.7021E-03     718.839E-03     706.114E-03        -2.49254     704.726E-03        -2.48542     713.111E-03     70.0106E-03     115.785E-03    -57.6064E-03    -58.2077E-03    -57.4653E-03     115.644E-03    -58.2077E-03     9.82200E-03    -9.55357E+06    -40.8047E+06    -162.724E+06    -40.8129E+06    -162.716E+06    -9.55357E+06     11.5977E+03         31.2107
              17     6.60612E-03     61.6943E-03     727.545E-03     707.628E-03        -2.50150     701.338E-03        -2.48229     714.625E-03    -119.720E-03     115.993E-03    -57.7517E-03    -58.2715E-03    -57.6659E-03     115.907E-03    -58.2715E-03     7.64251E-03    -15.9534E+06    -44.9525E+06    -186.832E+06    -44.9572E+06    -186.827E+06    -15.9534E+06     37.3895E+03         30.5996
              18     5.66224E-03     61.6869E-03     773.518E-03     714.280E-03        -2.55231     730.157E-03        -2.50895     714.280E-03     140.928E-03     116.246E-03    -57.9581E-03    -58.3197E-03    -57.9122E-03     116.201E-03    -58.3197E-03     5.55789E-03    -22.4549E+06    -49.5266E+06    -209.481E+06    -49.5339E+06    -209.474E+06    -22.4549E+06     484.747E+03         30.1225
              19     4.71856E-03     61.6830E-03     820.267E-03     711.147E-03        -2.59830     729.405E-03        -2.50744     711.147E-03    -197.837E-03     116.410E-03    -58.0866E-03    -58.3501E-03    -58.0645E-03     116.388E-03    -58.3501E-03     3.85908E-03    -29.8120E+06    -54.3012E+06    -231.801E+06    -54.3110E+06    -231.791E+06    -29.8120E+06     926.091E+03         29.7534
              20     3.77465E-03     61.6798E-03     916.113E-03     711.734E-03        -2.69838     692.481E-03        -2.47475     711.734E-03     418.789E-03     116.499E-03    -58.1662E-03    -58.3489E-03    -58.1571E-03     116.490E-03    -58.3489E-03     2.36589E-03    -39.4962E+06    -59.2223E+06    -248.543E+06    -59.2291E+06    -248.536E+06    -39.4962E+06     872.066E+03         29.4660
              21     2.83069E-03     61.6780E-03         1.22786     716.771E-03        -3.01365     700.940E-03        -2.48673     716.771E-03    -644.284E-03     116.565E-03    -58.2375E-03    -58.3370E-03    -58.2626E-03     116.562E-03    -58.3088E-03     1.42223E-03    -51.1365E+06    -64.7224E+06    -256.496E+06    -64.7324E+06    -256.485E+06    -51.1365E+06     1.16507E+06         29.2464
              22     1.88749E-03     61.6767E-03         2.04194     722.153E-03        -3.82747     711.065E-03        -2.49659     722.153E-03         1.43681     116.547E-03    -58.1868E-03    -58.3674E-03    -58.3523E-03     116.545E-03    -58.2002E-03     940.017E-06    -62.3082E+06    -69.4304E+06    -262.748E+06    -69.4426E+06    -262.735E+06    -62.3082E+06     1.23226E+06         29.0920
              23     944.803E-06     61.6757E-03         4.15354         1.65158        -6.86743    -201.908E-03        -2.51198         1.65158        -4.32817     116.193E-03    -58.0100E-03    -58.1859E-03    -58.1482E-03     116.192E-03    -58.0468E-03     501.910E-06    -69.2722E+06    -72.9856E+06    -266.972E+06    -71.7631E+06    -266.959E+06    -70.5071E+06     588.218E+03         28.9984
              24     243.484E-09     60.5536E-03         6.14482         2.43960        -9.66682        -1.06956        -2.45244         2.43960        -15.7510     116.693E-03    -57.9473E-03    -58.7461E-03    -58.6996E-03     116.693E-03    -57.9932E-03     412.565E-06    -71.9543E+06    -73.3950E+06    -267.356E+06    -73.4136E+06    -267.337E+06    -71.9543E+06     234.013E+03         28.9702
              25     1.18641E-06     59.4303E-03         6.46848         2.36033        -9.93050    -917.458E-03        -2.54456         2.36033        -16.3173     116.452E-03    -57.7040E-03    -58.7530E-03    -58.7529E-03     116.452E-03    -57.7040E-03     176.301E-06    -70.6378E+06    -71.7941E+06    -265.449E+06    -70.9113E+06    -265.435E+06    -71.5341E+06    -32.8129E+03         28.9779
              26    -638.051E-09     58.3103E-03         6.73546         2.28413        -10.1353    -786.559E-03        -2.61329         2.28413        -16.7716     116.397E-03    -57.8994E-03    -58.5030E-03    -58.5028E-03     116.397E-03    -57.8994E-03     338.605E-06    -67.6329E+06    -70.5753E+06    -263.513E+06    -69.7005E+06    -263.491E+06    -68.5292E+06    -405.864E+03         28.9828
              27     1.25239E-06     57.1861E-03         7.05082         2.21666        -10.4041    -687.919E-03        -2.66532         2.21666        -17.3423     116.884E-03    -58.1470E-03    -58.7371E-03    -58.7368E-03     116.884E-03    -58.1470E-03     429.108E-06    -68.5287E+06    -72.8187E+06    -264.766E+06     -70.594E+06    -264.747E+06    -70.7726E+06    -561.039E+03         28.9847
              28    -741.857E-09     56.0625E-03         7.43196         2.07659        -10.6588    -530.085E-03        -2.69676         2.07659        -17.9605     116.602E-03    -58.0826E-03    -58.5158E-03    -58.5150E-03     116.601E-03    -58.0826E-03     766.230E-06    -69.0083E+06    -73.5143E+06    -263.687E+06    -71.2780E+06    -263.680E+06    -71.2522E+06     1.20903E+06         28.9814
              29     1.06239E-06     54.9424E-03         7.76425         1.84049        -10.7544    -405.592E-03        -2.58459         1.84049        -18.3899     116.515E-03    -58.0683E-03    -58.4429E-03    -58.4418E-03     116.514E-03    -58.0683E-03     864.754E-06    -70.5867E+06    -74.3485E+06    -262.883E+06    -72.8628E+06    -262.869E+06    -72.0864E+06    -436.019E+03         28.9737
              30    -654.493E-09     53.8162E-03         7.93391         1.70583        -10.8037    -267.790E-03        -2.60196         1.70583        -18.5906     116.095E-03    -57.8322E-03    -58.2665E-03    -58.2626E-03     116.092E-03    -57.8322E-03     1.49390E-03    -73.3781E+06    -75.0472E+06    -265.257E+06    -73.4088E+06    -265.226E+06    -75.0472E+06     383.420E+03         28.9623
              31     1.04535E-06     52.6973E-03         8.04856         1.71783        -10.9553    -100.452E-03        -2.80629         1.71783        -18.8097     116.001E-03    -57.5202E-03    -58.4841E-03    -58.4808E-03     115.998E-03    -57.5202E-03     1.11092E-03    -71.5546E+06    -73.0474E+06    -262.917E+06    -72.8998E+06    -262.895E+06    -71.7239E+06     1.77498E+06         28.9529
              32     401.361E-09     51.5758E-03         8.23111         1.63610        -11.0659     12.1908E-03        -2.84703         1.63610        -19.0840     116.016E-03    -57.4523E-03    -58.5616E-03    -58.2059E-03     116.016E-03    -57.8078E-03    -155.445E-06    -68.8558E+06    -71.9423E+06    -261.791E+06    -70.1900E+06    -261.781E+06    -70.6188E+06    -559.578E+03         28.9530
              33    -1.08810E-06     50.4544E-03         8.38468         1.46898        -11.0538     94.1733E-03        -2.76329         1.46898        -19.2273     116.210E-03    -57.6715E-03    -58.5386E-03    -58.1827E-03     116.210E-03    -58.0271E-03     85.5901E-06    -70.1990E+06    -72.8620E+06    -263.207E+06    -71.1147E+06    -263.191E+06    -71.9620E+06    -162.318E+03         28.9640
              34     2.06895E-06     49.3300E-03         8.39737         1.36124        -10.9770     161.200E-03        -2.74086         1.36124        -19.1558     116.708E-03    -57.8400E-03    -58.8654E-03    -58.8647E-03     116.707E-03    -57.8400E-03     689.448E-06    -69.7023E+06    -71.1104E+06    -261.836E+06    -71.1225E+06    -261.823E+06    -69.7023E+06     42.0314E+03         28.9746
              35    -1.08592E-06     48.2090E-03         8.41685         1.32546        -10.9560     256.599E-03        -2.79577         1.32546        -19.1306     116.333E-03    -57.7417E-03    -58.5886E-03    -58.2550E-03     116.333E-03    -58.0747E-03     721.018E-06    -68.9987E+06    -70.6753E+06    -263.049E+06    -69.5282E+06    -263.028E+06    -70.1673E+06    -1.98148E+06         28.9718
              36     455.605E-09     47.0859E-03         8.43825         1.30609        -10.9688     412.780E-03        -2.94332         1.30609        -19.1137     116.294E-03    -57.7267E-03    -58.5686E-03    -58.2350E-03     116.294E-03    -58.0596E-03     688.349E-06    -70.6635E+06    -72.7234E+06    -264.905E+06    -71.5719E+06    -264.888E+06    -71.8322E+06    -891.872E+03         28.9635
              37     520.787E-09     45.9638E-03         8.38412         1.21833        -10.8512     537.244E-03        -3.00435         1.21833        -18.9065     116.345E-03    -57.6771E-03    -58.6698E-03    -58.6693E-03     116.345E-03    -57.6771E-03     548.444E-06    -71.5550E+06    -72.4584E+06    -265.848E+06    -72.4597E+06    -265.847E+06    -71.5550E+06     436.092E+03         28.9583
              38     392.090E-09     44.8422E-03         8.30716         1.14787        -10.7125     567.518E-03        -2.97284         1.14787        -18.6872     115.786E-03    -57.6343E-03    -58.1547E-03    -58.1546E-03     115.786E-03    -57.6343E-03     287.274E-06    -70.1489E+06    -70.7321E+06    -264.304E+06    -70.1656E+06    -264.300E+06    -70.7200E+06    -567.564E+03         28.9521
              39    -324.799E-09     43.7211E-03         8.31302         1.08707        -10.6553     612.148E-03        -2.95444         1.08707        -18.6300     115.952E-03    -57.8756E-03    -58.0787E-03    -58.0786E-03     115.952E-03    -57.8756E-03    -55.7149E-06    -71.3550E+06    -72.3798E+06    -264.152E+06    -71.3603E+06    -264.147E+06    -72.3798E+06    -938.249E+03         28.9497
              40     635.598E-09     42.5997E-03         8.29790         1.02502        -10.5950     689.850E-03        -2.98691         1.02502        -18.5313     116.696E-03    -58.0196E-03    -58.6808E-03    -58.6798E-03     116.695E-03    -58.0196E-03     393.664E-06    -72.7012E+06    -74.0171E+06    -264.045E+06    -73.5655E+06    -264.042E+06    -73.1549E+06     56.2786E+03         28.9569
              41     310.658E-09     41.4727E-03         8.11592         1.04467        -10.4557     779.092E-03        -3.11886         1.04467        -18.1570     116.643E-03    -57.8687E-03    -58.7767E-03    -58.7731E-03     116.639E-03    -57.8687E-03     1.53627E-03    -69.6671E+06    -70.8564E+06    -261.816E+06    -70.5484E+06    -261.797E+06    -69.9942E+06     1.66033E+06         28.9639
              42     464.563E-09     40.3535E-03         7.95413         1.10215        -10.3692     794.495E-03        -3.20956         1.10215        -17.8805     115.847E-03    -57.6444E-03    -58.2044E-03    -58.0549E-03     115.845E-03    -57.7911E-03     1.00739E-03    -69.1479E+06    -69.9173E+06    -262.363E+06    -69.6259E+06    -262.327E+06    -69.4750E+06     16.8322E+03         28.9646
              43    -726.736E-09     39.2328E-03         7.84513         1.09443        -10.2609     725.475E-03        -3.14123         1.09443        -17.6882     115.966E-03    -57.8376E-03    -58.1292E-03    -57.9818E-03     115.966E-03    -57.9844E-03     524.138E-06    -67.4849E+06    -69.5035E+06    -261.329E+06    -67.9494E+06    -261.307E+06    -69.0612E+06    -645.088E+03         28.9705
              44     985.641E-09     38.1091E-03         7.67198         1.10052        -10.0800     758.900E-03        -3.16696         1.10052        -17.3113     116.973E-03    -58.2004E-03    -58.7711E-03    -58.7705E-03     116.973E-03    -58.2004E-03     405.803E-06    -67.5388E+06    -70.6032E+06    -261.194E+06    -69.0473E+06    -261.174E+06    -69.1150E+06    -567.721E+03         28.9846
              45    -155.688E-09     36.9876E-03         7.33874         1.17697        -9.83073     784.969E-03        -3.27697         1.17697        -16.6819     117.020E-03    -58.1700E-03    -58.8525E-03    -58.8525E-03     117.020E-03    -58.1700E-03    -88.3632E-06    -71.2224E+06    -72.9864E+06    -263.036E+06    -72.7362E+06    -263.011E+06    -71.4982E+06    -2.18384E+06         28.9908
              46     649.299E-09     35.8624E-03         7.03689         1.20985        -9.60645     727.728E-03        -3.29729         1.20985        -16.1493     116.529E-03    -57.9749E-03    -58.5613E-03    -58.5597E-03     116.528E-03    -57.9749E-03     747.912E-06    -71.5433E+06    -73.2693E+06    -263.999E+06    -71.5766E+06    -263.966E+06    -73.2693E+06     554.356E+03         28.9868
              47    -46.6738E-09     34.7411E-03         6.75489         1.23502        -9.35892     681.638E-03        -3.28567         1.23502        -15.6177     116.394E-03    -57.8312E-03    -58.5707E-03    -58.5688E-03     116.392E-03    -57.8312E-03     1.04864E-03    -69.3398E+06    -72.3253E+06    -262.758E+06    -70.9061E+06    -262.727E+06    -70.7901E+06     2.35003E+06         28.9843
              48     841.999E-09     33.6191E-03         6.40166         1.25381        -8.99996     645.774E-03        -3.24408         1.25381        -14.9022     116.537E-03    -57.8744E-03    -58.6675E-03    -58.6670E-03     116.537E-03    -57.8744E-03     536.845E-06    -67.8730E+06    -70.1994E+06    -260.065E+06    -70.2130E+06    -260.051E+06    -67.8730E+06      68.991E+03         28.9837
              49    -105.122E-09     32.4973E-03         5.98418         1.32300        -8.65475     652.188E-03        -3.32275         1.32300        -14.0867     116.743E-03    -58.0186E-03    -58.7248E-03    -58.7243E-03     116.742E-03    -58.0186E-03    -86.8237E-06    -72.7592E+06    -73.5549E+06    -261.686E+06    -73.6003E+06    -261.636E+06    -72.7637E+06    -2.78875E+06         28.9779
              50     719.960E-09     31.3740E-03         5.52348         1.45863        -8.35361     681.431E-03        -3.51156         1.45863        -13.2269     116.652E-03    -58.1485E-03    -58.5099E-03    -58.5069E-03     116.649E-03    -58.1485E-03     640.495E-06    -74.9382E+06    -77.7767E+06    -264.289E+06    -75.0117E+06    -264.216E+06    -77.7767E+06    -329.170E+03         28.9687
              51    -693.636E-09     30.2494E-03         5.13919         1.44948        -7.95901     658.015E-03        -3.47784         1.44948        -12.4281     116.303E-03    -58.0734E-03    -58.2386E-03    -58.2358E-03     116.301E-03    -58.0734E-03     1.14853E-03    -68.4927E+06    -74.3102E+06    -261.806E+06    -71.5090E+06    -261.773E+06    -71.3267E+06     2.21624E+06         28.9622
              52     974.586E-09     29.1305E-03         4.75850         1.41609        -7.52553     569.685E-03        -3.33672         1.41609        -11.6463     115.879E-03    -57.7670E-03    -58.1158E-03    -58.1157E-03     115.879E-03    -57.7670E-03     176.127E-06    -67.7824E+06    -73.2851E+06    -261.148E+06    -70.7770E+06    -261.137E+06    -70.3015E+06    -360.610E+03         28.9577
              53    -581.228E-09     28.0085E-03         4.31830         1.50699        -7.21230     556.361E-03        -3.45036         1.50699        -10.8068     115.966E-03    -57.8087E-03    -58.1608E-03    -58.1608E-03     115.966E-03    -57.8087E-03    -74.2609E-06    -68.5408E+06    -73.6967E+06    -260.352E+06    -71.1857E+06    -260.343E+06    -71.0600E+06    -900.606E+03         28.9540
              54     863.381E-09     26.8861E-03         3.88614         1.53681        -6.82548     589.062E-03        -3.52841         1.53681        -9.88812     116.400E-03    -57.9344E-03    -58.4682E-03    -58.4679E-03     116.400E-03    -57.9344E-03     200.965E-06    -69.5854E+06    -74.7749E+06    -260.873E+06    -72.2444E+06    -260.851E+06    -72.1382E+06    -1.47341E+06         28.9527
              55    -134.511E-09     25.7638E-03         3.41979         1.52858        -6.34621     553.029E-03        -3.47945         1.52858        -8.89185     116.392E-03    -57.9791E-03    -58.4152E-03    -58.3826E-03     116.392E-03    -58.0114E-03     435.211E-06    -70.3734E+06    -74.2509E+06    -262.168E+06    -71.7455E+06    -262.121E+06    -72.9262E+06     85.6024E+03         28.9506
              56     99.5023E-09     24.6409E-03         2.94778         1.54231        -5.89339     525.276E-03        -3.47089         1.54231        -7.88448     116.089E-03    -57.7686E-03    -58.3233E-03    -58.2902E-03     116.089E-03    -57.8008E-03     665.221E-06    -68.5637E+06    -70.8098E+06    -259.944E+06    -69.9268E+06    -259.906E+06    -69.4851E+06     420.336E+03         28.9399
              57     876.308E-09     23.5187E-03         2.50333         1.53724        -5.47112     510.309E-03        -3.47810         1.53724        -6.89937     115.315E-03    -57.3778E-03    -57.9397E-03    -57.9390E-03     115.314E-03    -57.3778E-03     543.135E-06    -71.9927E+06    -73.1825E+06    -261.045E+06    -72.0098E+06    -261.028E+06    -73.1825E+06    -521.302E+03         28.9146
              58    -797.016E-09     22.4004E-03         2.09222         1.54961        -5.06396     518.073E-03        -3.48981         1.54961        -5.92365     114.915E-03    -57.2528E-03    -57.6606E-03    -57.6593E-03     114.914E-03    -57.2528E-03     712.709E-06    -73.1546E+06    -73.8455E+06    -262.188E+06    -73.5813E+06    -262.184E+06    -73.4230E+06     789.348E+03         28.8778
              59     1.50447E-06     21.2762E-03         1.77192         1.55908        -4.76362     584.424E-03        -3.57612         1.55908        -5.02246     115.069E-03    -57.1025E-03    -57.9636E-03    -57.9618E-03     115.067E-03    -57.1025E-03     1.07886E-03    -73.9400E+06    -75.6808E+06    -262.230E+06    -75.6920E+06    -262.219E+06    -73.9400E+06     1.18645E+06         28.8318
              60    -553.444E-09     20.1584E-03         1.51082         1.44197        -4.40252     638.625E-03        -3.57586         1.48751        -4.07401     113.892E-03    -56.6435E-03    -57.2526E-03    -57.2509E-03     113.890E-03    -56.6435E-03    -246.826E-06    -74.2833E+06    -76.7323E+06    -261.496E+06    -75.6399E+06    -261.458E+06    -75.4140E+06    -604.157E+03         28.7586
              61     756.891E-09     19.0395E-03         1.40067         1.20157        -4.05841     625.541E-03        -3.48237         1.40067        -3.27509     112.212E-03    -55.8447E-03    -56.3733E-03    -56.3720E-03     112.211E-03    -55.8447E-03    -466.666E-06    -72.3337E+06    -73.8424E+06    -260.155E+06    -72.7446E+06    -260.122E+06    -73.4644E+06    -888.859E+03         28.6388
              62     21.2496E-09     17.9217E-03         1.37023         1.09655        -3.91894     731.866E-03        -3.55426         1.37023        -2.57259     110.729E-03    -54.9571E-03    -55.7756E-03    -55.7747E-03     110.728E-03    -54.9571E-03    -361.812E-06    -72.4714E+06    -73.2656E+06    -260.502E+06    -73.2719E+06    -260.496E+06    -72.4714E+06     428.582E+03         28.4584
              63     739.319E-09     16.8092E-03         1.34992         1.05760        -3.85115     854.427E-03        -3.64797         1.34992        -1.93766     107.856E-03    -53.7105E-03    -54.1479E-03    -54.1442E-03     107.852E-03    -53.7105E-03    -1.48377E-03    -74.6458E+06    -75.8863E+06    -260.018E+06    -75.0628E+06    -260.017E+06    -75.4702E+06    -279.708E+03         28.1834
              64    -702.601E-09     15.6975E-03         1.25872     987.065E-03        -3.69310     870.962E-03        -3.57700         1.25872        -1.44473     103.010E-03    -51.4283E-03    -51.5819E-03    -51.4509E-03     103.001E-03    -51.5508E-03    -2.23912E-03    -73.3548E+06    -75.7291E+06    -256.347E+06    -73.3550E+06    -256.347E+06    -75.7291E+06     126.767E+03         27.7880
              65     433.479E-09     14.5939E-03         1.14777         1.00340        -3.58667     938.879E-03        -3.52215         1.14777        -1.06517     96.3596E-03    -48.0634E-03    -48.2947E-03    -48.1609E-03     96.3482E-03    -48.1859E-03    -2.55737E-03    -68.2300E+06    -71.2291E+06    -254.081E+06    -69.6795E+06    -254.081E+06    -69.7799E+06     228.209E+03         27.2767
              66    -222.219E-09     13.4959E-03         1.10053         1.02842        -3.60394         1.00245        -3.57797         1.10053    -642.302E-03     88.0292E-03    -43.7150E-03    -44.3152E-03    -44.2929E-03     88.0069E-03    -43.7150E-03    -3.30227E-03    -65.4318E+06    -68.4451E+06    -251.671E+06    -66.8852E+06    -251.667E+06    -66.9959E+06    -507.628E+03         26.6671
              67     1.10675E-06     12.4130E-03         1.05108         1.02127        -3.54571         1.01503        -3.53948         1.05108    -333.565E-03     78.9786E-03    -39.0400E-03    -39.9402E-03    -39.9082E-03     78.9467E-03    -39.0400E-03    -3.89779E-03    -59.8217E+06    -63.7408E+06    -244.630E+06    -62.2124E+06    -244.595E+06    -61.3858E+06     1.07563E+06         26.0341
              68    -323.792E-09     11.3351E-03         1.06482     981.656E-03        -3.53476     974.836E-03        -3.52794         1.06482    -344.684E-03     69.8906E-03    -34.7031E-03    -35.1850E-03    -35.0801E-03     69.8587E-03    -34.7762E-03    -3.65131E-03    -52.0620E+06    -56.6092E+06    -238.477E+06    -54.4494E+06    -238.445E+06    -54.2542E+06     1.95717E+06         25.5599
              69     116.137E-09     10.2697E-03         1.10190     997.890E-03        -3.62729         1.01456        -3.62050         1.07844    -347.711E-03     61.1917E-03    -30.4288E-03    -30.7613E-03    -30.6544E-03     61.1579E-03    -30.5019E-03    -3.52024E-03    -51.7463E+06    -54.8267E+06    -236.034E+06    -52.7724E+06    -235.896E+06    -53.9384E+06     3.77048E+06         25.4185
              70     364.849E-09     9.21169E-03         1.07292         1.04114        -3.59662         1.06208        -3.59411         1.04946    -201.857E-03     55.2546E-03    -27.3980E-03    -27.8583E-03    -27.8334E-03     55.2298E-03    -27.3980E-03    -2.82837E-03    -42.0328E+06    -45.1989E+06    -226.117E+06    -45.3363E+06    -225.979E+06    -42.0328E+06     3.36427E+06         25.6572
              71     31.8227E-09     8.15953E-03         1.06210         1.00672        -3.53744         1.00607        -3.53679         1.06210    -11.0388E-03     55.0456E-03    -27.3545E-03    -27.6928E-03    -27.6817E-03     55.0345E-03    -27.3545E-03    -1.87793E-03    -31.6271E+06    -36.1984E+06    -218.542E+06    -33.9075E+06    -218.539E+06    -33.9206E+06     323.882E+03         26.2706
              72     190.651E-09     7.10281E-03         1.05606     950.629E-03        -3.53630     949.750E-03        -3.53542         1.05606    -25.5895E-03     63.5781E-03    -31.6398E-03    -31.9373E-03    -31.9304E-03     63.5712E-03    -31.6398E-03     77.5417E-06    -38.3908E+06    -44.5968E+06    -224.676E+06    -42.3299E+06    -224.650E+06    -40.6843E+06    -1.00385E+06         27.2765
              73     177.580E-09     6.03182E-03         1.01145     918.062E-03        -3.42723     950.446E-03        -3.42458     976.424E-03     58.0235E-03     84.1817E-03    -41.9206E-03    -42.2614E-03    -42.2367E-03     84.1569E-03    -41.9206E-03     3.35380E-03    -49.4963E+06    -54.4877E+06    -233.150E+06    -53.5263E+06    -233.032E+06    -50.5752E+06    -4.37593E+06         28.7210
              74     158.689E-09     4.93119E-03         1.06799     939.703E-03        -3.51613     972.370E-03        -3.51377         1.03297     188.065E-03     118.893E-03    -59.2372E-03    -59.6580E-03    -59.3306E-03     118.806E-03    -59.4773E-03     7.75978E-03    -55.2883E+06    -58.2433E+06    -241.372E+06    -55.3892E+06    -241.271E+06    -58.2433E+06    -2.05354E+06         30.6936
              75    -647.177E-09     3.78231E-03         1.10638     956.644E-03        -3.62019     954.154E-03        -3.61770         1.10638     194.873E-03     164.897E-03    -82.2854E-03    -82.6060E-03    -82.2547E-03     164.786E-03    -82.5255E-03     10.3304E-03    -56.7449E+06    -60.1306E+06    -247.092E+06    -56.7558E+06    -247.081E+06    -60.1306E+06     1.41135E+06         33.3865
              76     781.693E-09     2.57421E-03     993.256E-03     881.565E-03        -3.40736     879.344E-03        -3.40513     993.256E-03     115.681E-03     213.461E-03    -106.494E-03    -106.958E-03    -106.879E-03     213.382E-03    -106.494E-03     9.99130E-03    -60.3591E+06    -63.9691E+06    -248.883E+06    -62.4703E+06    -248.872E+06    -61.8687E+06    -269.010E+03         36.5598
              77    -85.7690E-09     1.30569E-03         1.00446     863.756E-03        -3.42636     859.179E-03        -3.42179         1.00446     177.702E-03     251.283E-03    -125.238E-03    -126.043E-03    -126.007E-03     251.248E-03    -125.238E-03     5.94491E-03    -62.8714E+06    -65.7777E+06    -252.644E+06    -64.9827E+06    -252.633E+06    -63.6773E+06     -250.23E+03         39.3967
              78     873.204E-06    -63.3299E-09         1.02921     928.002E-03        -3.52960     923.262E-03        -3.52486         1.02921     155.813E-03     262.641E-03    -130.381E-03    -132.252E-03    -130.786E-03     262.626E-03    -131.832E-03     4.25653E-03    -61.1149E+06    -64.7372E+06    -252.922E+06    -63.9349E+06    -252.918E+06    -61.9208E+06     678.476E+03         40.4879
              79     1.74973E-03    -63.3299E-09     977.634E-03     957.490E-03        -3.48333     961.455E-03        -3.48287     973.206E-03     296.611E-06     254.758E-03    -124.743E-03    -130.004E-03    -124.685E-03     254.701E-03    -130.004E-03     8.93274E-03    -59.0609E+06    -62.3489E+06    -249.366E+06    -62.3559E+06    -249.359E+06    -59.0609E+06    -701.588E+03         40.0863
              80     2.63307E-03    -63.3299E-09     975.306E-03     970.544E-03        -3.47395     974.682E-03        -3.47366     970.878E-03     22.8298E-03     243.051E-03    -116.155E-03    -126.887E-03    -116.037E-03     242.934E-03    -126.887E-03     12.8693E-03    -59.8761E+06    -61.3020E+06    -250.623E+06    -61.3118E+06    -250.613E+06    -59.8761E+06    -279.504E+03         39.4029
              81     3.52669E-03    -63.3299E-09     970.150E-03     959.524E-03        -3.45866     959.420E-03        -3.45855     970.150E-03    -2.59432E-03     228.864E-03    -105.903E-03    -122.906E-03    -105.727E-03     228.688E-03    -122.906E-03     15.2539E-03    -58.0716E+06    -62.3462E+06    -251.102E+06    -59.1944E+06    -250.933E+06    -61.3918E+06    -3.48037E+06         38.4870
              82     4.43097E-03    -63.3299E-09     966.786E-03     947.192E-03        -3.45062     947.012E-03        -3.45044     966.786E-03    -14.3350E-03     213.775E-03    -95.3074E-03    -118.372E-03    -95.0746E-03     213.542E-03    -118.372E-03     16.8981E-03    -54.4535E+06    -63.6249E+06    -249.087E+06    -54.6333E+06    -248.907E+06    -63.6249E+06    -5.18426E+06         37.4648
              83     5.34382E-03    -63.3299E-09     963.847E-03     952.688E-03        -3.46379     952.435E-03        -3.46353     963.847E-03    -66.8362E-03     198.663E-03    -84.9829E-03    -113.570E-03    -84.7041E-03     198.384E-03    -113.570E-03     17.7520E-03    -50.5884E+06    -65.9336E+06    -246.554E+06    -50.7685E+06    -246.374E+06    -65.9336E+06    -5.21531E+06         36.4626
              84     6.26875E-03    -63.3299E-09     980.422E-03     962.142E-03        -3.49947     978.217E-03        -3.49912     963.999E-03    -77.9826E-03     184.766E-03    -75.9952E-03    -108.692E-03    -75.6610E-03     184.432E-03    -108.692E-03     18.5994E-03    -45.7496E+06    -70.3894E+06    -241.631E+06    -45.9981E+06    -241.382E+06    -70.3894E+06    -6.87386E+06         35.5918
              85     7.19879E-03    -63.3299E-09     999.310E-03     967.175E-03        -3.51981     999.073E-03        -3.51957     967.175E-03    -53.6430E-03     172.946E-03    -69.0872E-03    -103.898E-03    -68.6646E-03     172.524E-03    -103.898E-03     20.1516E-03    -37.5260E+06    -86.5437E+06    -214.342E+06    -38.3685E+06    -213.500E+06    -86.5437E+06    -10.5647E+06         34.9692
              86     8.13516E-03    -63.3299E-09     985.411E-03     961.397E-03        -3.50558     977.063E-03        -3.50553     969.700E-03    -26.6389E-03     162.681E-03    -63.4298E-03    -99.3812E-03    -62.9073E-03     162.159E-03    -99.3812E-03     21.6676E-03    -26.9421E+06    -103.740E+06    -164.075E+06    -27.9910E+06    -163.026E+06    -103.740E+06    -11.8044E+06         34.7208
              87     9.07665E-03    -63.3299E-09     969.518E-03     957.589E-03        -3.49693     957.550E-03        -3.49689     969.518E-03    -19.7158E-03     153.518E-03    -58.3835E-03    -95.2697E-03    -57.7756E-03     152.911E-03    -95.2697E-03     22.6438E-03    -15.7867E+06    -96.1147E+06    -122.040E+06    -17.8492E+06    -108.915E+06    -107.178E+06    -12.0258E+06         34.9349
              88     10.0230E-03    -63.3299E-09     969.145E-03     965.111E-03        -3.51214     965.480E-03        -3.51210     968.738E-03     17.1708E-03     144.279E-03    -52.9266E-03    -91.3840E-03    -52.2371E-03     143.589E-03    -91.3840E-03     23.2466E-03    -3.22964E+06    -46.2507E+06    -106.826E+06    -9.28431E+06    -40.1960E+06    -106.826E+06    -10.3421E+06         35.6402
              89     10.9732E-03    -63.3299E-09     970.239E-03     968.636E-03        -3.52919     970.199E-03        -3.52915     968.636E-03     22.9793E-03     135.171E-03    -47.4225E-03    -87.7130E-03    -46.6818E-03     134.430E-03    -87.7130E-03     23.2068E-03     39.2011E+06    -5.80981E+06    -90.2975E+06    -4.28023E+06     37.6715E+06    -90.2975E+06    -5.13460E+06         36.8322
              90     11.9346E-03    -63.3299E-09     969.816E-03     965.587E-03        -3.54015     966.658E-03        -3.54002     968.620E-03    -28.6659E-03     128.933E-03    -44.4877E-03    -84.5498E-03    -43.5928E-03     128.038E-03    -84.5498E-03     24.7475E-03     100.836E+06    -1.32845E+06    -37.8617E+06    -2.69393E+06     100.643E+06    -36.3033E+06    -2.46211E+06         38.4802
              91     12.8854E-03    -63.3299E-09     968.190E-03     958.855E-03        -3.55044     958.654E-03        -3.55023     968.190E-03    -59.7767E-03     129.041E-03    -47.1707E-03    -81.9940E-03    -45.8078E-03     127.678E-03    -81.9940E-03     30.7077E-03     129.841E+06     28.8223E+06    -3.73561E+06    -3.45982E+06     129.565E+06     28.8223E+06     4.63098E+06         40.5162
              92     13.8430E-03    -63.3299E-09     970.730E-03     961.415E-03        -3.59587     964.347E-03        -3.59578     967.717E-03    -31.5098E-03     134.978E-03    -55.0927E-03    -80.0342E-03    -52.0613E-03     131.946E-03    -80.0342E-03     46.5615E-03     142.549E+06     83.1812E+06     1.99585E+06     2.30156E+06     142.244E+06     83.1812E+06     5.84155E+06         42.8509
              93     14.7577E-03    -63.3299E-09     986.008E-03     968.154E-03        -3.69387     985.725E-03        -3.69359     968.154E-03     46.5381E-03     139.126E-03    -60.8721E-03    -78.6014E-03    -55.5850E-03     133.839E-03    -78.6014E-03     63.9393E-03     147.360E+06     122.438E+06     4.76478E+06     5.15391E+06     146.971E+06     122.438E+06    -3.54929E+06         45.3529
              94     15.7193E-03    -63.3299E-09         1.13003     973.265E-03        -3.98642         1.12562        -3.98201     973.265E-03    -160.979E-03     204.922E-03    -70.7179E-03    -134.352E-03    -107.011E-03     185.615E-03    -78.7529E-03     152.656E-03     145.036E+06     137.535E+06     11.2144E+06     13.7792E+06     142.471E+06     137.535E+06     6.49901E+06         47.6684
              95     16.6898E-03     1.41190E-03         1.18636     987.665E-03        -3.97235         1.17367        -3.95966     987.665E-03    -499.799E-03     233.487E-03    -76.7820E-03    -156.603E-03    -117.539E-03     194.423E-03    -76.7820E-03     229.675E-03     138.448E+06     121.968E+06    -18.7520E+06    -16.5427E+06     136.239E+06     121.968E+06     12.0317E+06         48.7513
              96     16.7644E-03     2.49360E-03         1.08881         1.00507        -3.65889         1.07345        -3.64353         1.00507    -538.646E-03     178.612E-03    -71.7553E-03    -106.871E-03    -72.4230E-03     144.164E-03    -71.7553E-03     184.605E-03     143.705E+06     127.302E+06    -9.78068E+06    -9.56286E+06     143.487E+06     127.302E+06     4.04532E+06         49.0634
              97     16.8432E-03     3.61212E-03         1.04278         1.01550        -3.56322         1.02979        -3.55054         1.01581    -482.376E-03     159.299E-03    -67.0854E-03    -92.2671E-03    -78.0928E-03     145.125E-03    -67.0854E-03     108.457E-03     154.446E+06     136.531E+06     5.75174E+06     6.42871E+06     153.769E+06     136.531E+06     9.97692E+06         49.7252
              98     16.8986E-03     4.76291E-03         1.02232         1.01720        -3.51667         1.00805        -3.50752         1.02232    -402.856E-03     160.886E-03    -63.1366E-03    -97.7938E-03    -94.2457E-03     157.338E-03    -63.1366E-03     58.2485E-03     149.764E+06     128.197E+06    -5.30647E+06    -4.79801E+06     149.256E+06     128.197E+06     8.17029E+06         50.5021
              99     16.9394E-03     5.95586E-03         1.02827     994.429E-03        -3.45387     988.881E-03        -3.44832         1.02827    -312.899E-03     162.185E-03    -60.5395E-03    -101.707E-03    -99.7478E-03     160.226E-03    -60.5395E-03     45.3048E-03     148.300E+06     127.496E+06    -729.948E+03    -353.381E+03     147.924E+06     127.496E+06     6.99314E+06         51.2350
             100     16.9677E-03     7.13673E-03         1.03265     965.359E-03        -3.41529     962.247E-03        -3.41217         1.03265    -226.832E-03     159.035E-03    -58.8945E-03    -100.256E-03    -98.2534E-03     157.033E-03    -58.8945E-03     45.3954E-03     149.859E+06     125.166E+06    -6.54301E+06    -6.21161E+06     149.528E+06     125.166E+06     4.90960E+06         51.8841
             101     16.9822E-03     8.31408E-03         1.03534     982.041E-03        -3.43842     980.583E-03        -3.43696         1.03534    -159.987E-03     154.888E-03    -57.9835E-03    -97.0707E-03    -94.9578E-03     152.775E-03    -57.9835E-03     45.9290E-03     149.160E+06     124.950E+06    -4.31351E+06    -4.29019E+06     149.136E+06     124.950E+06     987.901E+03         52.4574
             102     16.9913E-03     9.48811E-03         1.03621         1.00476        -3.47008         1.00374        -3.46906         1.03621    -134.617E-03     149.658E-03    -57.6242E-03    -92.2346E-03    -89.6643E-03     147.088E-03    -57.6242E-03     49.4329E-03     148.225E+06     124.800E+06    -5.22288E+06    -5.19763E+06     148.200E+06     124.800E+06     821.853E+03         52.9615
             103     16.9928E-03     10.6461E-03         1.03729     991.473E-03        -3.47373     991.039E-03        -3.47329         1.03729    -75.9913E-03     145.129E-03    -57.5298E-03    -87.7874E-03    -84.7850E-03     142.126E-03    -57.5298E-03     52.5372E-03     149.566E+06     127.400E+06    -1.98760E+06    -1.96235E+06     149.541E+06     127.400E+06     806.059E+03         53.4098
             104     16.9967E-03     11.7991E-03         1.03974     993.624E-03        -3.48930     993.584E-03        -3.48926         1.03974    -26.4414E-03     140.636E-03    -57.5602E-03    -83.2233E-03    -79.8304E-03     137.243E-03    -57.5602E-03     54.6000E-03     150.245E+06     127.237E+06    -5.21441E+06    -5.19032E+06     150.221E+06     127.237E+06     887.342E+03         53.8127
             105     16.9949E-03     12.9529E-03         1.04140         1.01772        -3.51968         1.01768        -3.51964         1.04140    -26.3581E-03     134.322E-03    -57.7502E-03    -76.6295E-03    -72.4474E-03     130.140E-03    -57.7502E-03     58.6452E-03     151.507E+06     128.986E+06    -1.00699E+06    -1.00333E+06     151.503E+06     128.986E+06    -106.834E+03         54.1733
             106     16.9962E-03     14.0852E-03         1.04235         1.00169        -3.48984         1.00154        -3.48969         1.04235    -48.7846E-03     128.696E-03    -57.9311E-03    -70.7038E-03    -65.8298E-03     123.822E-03    -57.9311E-03     61.5476E-03     151.134E+06     128.220E+06    -1.18243E+06    -1.17956E+06     151.131E+06     128.220E+06     659.548E+03         54.4988
             107     16.9956E-03     15.2139E-03         1.04347     980.001E-03        -3.46225     979.858E-03        -3.46210         1.04347    -20.8404E-03     125.443E-03    -57.9989E-03    -67.4008E-03    -62.4689E-03     120.511E-03    -57.9989E-03     60.8823E-03     153.882E+06     128.277E+06    -4.16975E+06    -4.16804E+06      153.88E+06     128.277E+06     456.969E+03         54.7924
             108     16.9973E-03     16.3460E-03         1.04787         1.01422        -3.50836         1.01802        -3.50830         1.04401     31.6288E-03     122.698E-03    -58.0572E-03    -64.6495E-03    -59.4103E-03     117.459E-03    -58.0572E-03     61.6852E-03     153.952E+06     129.221E+06    -2.61886E+06    -2.58348E+06     153.916E+06     129.221E+06    -1.50873E+06         55.0484
             109     16.9970E-03     17.4678E-03         1.04804         1.02177        -3.52464         1.02557        -3.52458         1.04418     5.50090E-03     122.098E-03    -58.0979E-03    -64.0447E-03    -57.9136E-03     115.967E-03    -58.0979E-03     66.4115E-03     152.039E+06     127.444E+06    -3.02789E+06    -2.97596E+06     151.987E+06     127.444E+06    -464.579E+03         55.2647
             110     16.9966E-03     18.6009E-03         1.04427     976.203E-03        -3.45978     976.062E-03        -3.45964         1.04427    -46.0844E-03     122.305E-03    -58.1336E-03    -64.1722E-03    -57.5249E-03     115.658E-03    -58.1336E-03     69.1439E-03     153.057E+06     125.974E+06    -5.15676E+06    -5.13637E+06     153.036E+06     125.974E+06     1.69438E+06         55.4422
             111     16.9964E-03     19.7185E-03         1.04421     973.166E-03        -3.45343     972.938E-03        -3.45320         1.04421    -1.30824E-03     120.800E-03    -58.1543E-03    -62.6138E-03    -56.5735E-03     114.760E-03    -58.1543E-03     65.3632E-03     153.002E+06     126.313E+06    -5.51799E+06    -5.51388E+06     152.998E+06     126.313E+06     719.032E+03         55.5849
             112     16.9976E-03     20.8326E-03         1.04446         1.00816        -3.49314         1.00801        -3.49299         1.04446     51.4774E-03     120.927E-03    -58.1070E-03    -62.7779E-03    -57.7335E-03     115.883E-03    -58.1070E-03     60.0035E-03     151.995E+06     126.986E+06    -3.42545E+06    -3.41076E+06     151.980E+06     126.986E+06    -850.801E+03         55.7002
             113     16.9962E-03     21.9682E-03         1.04381         1.00549        -3.48293         1.00543        -3.48288         1.04381     30.3280E-03     121.074E-03    -58.1328E-03    -62.8938E-03    -57.4212E-03     115.602E-03    -58.1328E-03     62.3432E-03     152.370E+06     128.106E+06    -1.75299E+06    -1.72791E+06     152.345E+06     128.106E+06    -107.478E+03         55.7896
             114     16.9975E-03     23.0908E-03         1.04063     977.292E-03        -3.45999     977.278E-03        -3.45998         1.04063     4.94941E-03     119.454E-03    -58.1880E-03    -61.2120E-03    -55.1702E-03     113.412E-03    -58.1880E-03     64.9607E-03     153.906E+06     129.000E+06    -1.49229E+06    -1.46753E+06     153.881E+06     129.000E+06    -104.364E+03         55.8597
             115     16.9973E-03     24.2024E-03         1.03674     972.336E-03        -3.43746     972.261E-03        -3.43738         1.03674     20.2613E-03     119.209E-03    -58.1429E-03    -61.0279E-03    -55.6827E-03     113.864E-03    -58.1429E-03     61.0539E-03     153.902E+06     128.128E+06    -4.83772E+06    -4.81785E+06     153.882E+06     128.128E+06    -331.166E+03         55.9191
             116     16.9978E-03     25.3326E-03         1.03406     973.617E-03        -3.41026     973.506E-03        -3.41015         1.03406     43.6548E-03     120.089E-03    -58.1120E-03    -61.9883E-03    -56.4544E-03     114.555E-03    -58.1120E-03     62.3742E-03     153.088E+06     127.279E+06    -6.19306E+06    -6.18704E+06     153.082E+06     127.279E+06     610.460E+03         55.9670
             117     16.9971E-03     26.4584E-03         1.03034     961.269E-03        -3.39110     961.019E-03        -3.39085         1.03034     61.1418E-03     120.900E-03    -58.1440E-03    -62.7860E-03    -55.9782E-03     114.092E-03    -58.1440E-03     69.3499E-03     155.121E+06     129.875E+06    -2.28390E+06    -2.27446E+06     155.112E+06     129.875E+06     779.708E+03         56.0050
             118     16.9974E-03     27.5819E-03         1.02458     969.914E-03        -3.39233     969.442E-03        -3.39186         1.02458     90.6017E-03     120.740E-03    -58.1644E-03    -62.6166E-03    -55.4852E-03     113.609E-03    -58.1644E-03     70.8955E-03     156.596E+06     129.625E+06    -4.46134E+06    -4.43549E+06     156.570E+06     129.625E+06    -282.867E+03         56.0367
             119     16.9972E-03     28.6996E-03         1.01851     976.364E-03        -3.39795     975.908E-03        -3.39750         1.01851     89.1155E-03     120.551E-03    -58.1511E-03    -62.4243E-03    -55.7733E-03     113.900E-03    -58.1511E-03     68.4719E-03     155.239E+06     128.159E+06    -5.03500E+06    -5.01181E+06     155.215E+06     128.159E+06    -420.727E+03         56.0646
             120     16.9978E-03     29.8206E-03         1.01231     947.260E-03        -3.35201     946.831E-03        -3.35158         1.01231     85.8329E-03     121.271E-03    -58.1048E-03    -63.1656E-03    -56.8591E-03     114.964E-03    -58.1048E-03     67.0311E-03     156.179E+06     128.554E+06    -3.73238E+06    -3.72507E+06     156.172E+06     128.554E+06     955.402E+03         56.0899
             121     16.9980E-03     30.9493E-03         1.00471     938.984E-03        -3.31325     938.458E-03        -3.31273         1.00471     94.4475E-03     121.059E-03    -58.1205E-03    -62.9654E-03    -56.1334E-03     114.227E-03    -58.1205E-03     69.5036E-03     158.794E+06     130.162E+06    -2.07360E+06    -2.06803E+06     158.788E+06     130.162E+06     856.634E+03         56.1105
             122     16.9973E-03     32.0731E-03     996.625E-03     958.645E-03        -3.32224     957.434E-03        -3.32103     996.625E-03     138.712E-03     120.499E-03    -58.1882E-03    -62.3483E-03    -54.9931E-03     113.143E-03    -58.1882E-03     71.8538E-03     157.618E+06     130.374E+06    -2.39136E+06    -2.36611E+06     157.593E+06     130.374E+06    -635.430E+03         56.1284
             123     16.9965E-03     33.1865E-03     988.594E-03     952.670E-03        -3.30226     951.742E-03        -3.30133     988.594E-03     97.6406E-03     120.493E-03    -58.1646E-03    -62.3326E-03    -55.6608E-03     113.821E-03    -58.1646E-03     68.4875E-03     154.321E+06     127.752E+06    -5.25655E+06    -5.22721E+06     154.292E+06     127.752E+06    -414.997E+03         56.1485
             124     16.9987E-03     34.3096E-03     978.393E-03     921.729E-03        -3.25078     921.470E-03        -3.25052     978.393E-03     54.2368E-03     120.778E-03    -58.1236E-03    -62.6687E-03    -56.5390E-03     114.649E-03    -58.1236E-03     65.9357E-03     154.991E+06     128.366E+06    -4.24713E+06     -4.2266E+06     154.971E+06     128.366E+06     -99.499E+03         56.1692
             125     16.9964E-03     35.4370E-03     967.453E-03     932.378E-03        -3.24084     931.027E-03        -3.23949     967.453E-03     141.732E-03     120.911E-03    -58.1312E-03    -62.8225E-03    -56.6006E-03     114.690E-03    -58.1312E-03     66.4669E-03     154.067E+06     127.559E+06    -4.78067E+06    -4.76910E+06     154.055E+06     127.559E+06    -877.375E+03         56.1874
             126     16.9981E-03     36.5533E-03     957.121E-03     954.538E-03        -3.24970     953.149E-03        -3.24831     957.121E-03     145.501E-03     120.170E-03    -58.1311E-03    -62.0722E-03    -56.1984E-03     114.296E-03    -58.1311E-03     64.3438E-03     152.830E+06     128.009E+06    -3.84454E+06    -3.83419E+06     152.820E+06     128.009E+06    -812.960E+03         56.2050
             127     16.9975E-03     37.6785E-03     945.500E-03     920.707E-03        -3.19309     920.343E-03        -3.19272     945.500E-03     73.9098E-03     119.899E-03    -58.1447E-03    -61.7265E-03    -55.2445E-03     113.417E-03    -58.1447E-03     67.1859E-03     154.397E+06     130.524E+06    -1.01803E+06    -975.444E+03     154.354E+06     130.524E+06     708.460E+03         56.2207
             128     16.9983E-03     38.8091E-03     932.817E-03     897.434E-03        -3.13582     896.417E-03        -3.13480     932.817E-03     111.798E-03     120.646E-03    -58.1789E-03    -62.4517E-03    -54.6521E-03     112.846E-03    -58.1789E-03     73.9385E-03     152.230E+06     127.878E+06    -4.46884E+06    -4.38892E+06     152.150E+06     127.878E+06    -328.964E+03         56.2333
             129     16.9961E-03     39.9218E-03     920.610E-03     905.786E-03        -3.13584     904.039E-03        -3.13409     920.610E-03     167.882E-03     120.330E-03    -58.1887E-03    -62.1560E-03    -55.0862E-03     113.260E-03    -58.1887E-03     70.2380E-03     148.228E+06     127.725E+06    -3.31825E+06    -3.26574E+06     148.175E+06     127.725E+06    -1.32430E+06         56.2453
             130     16.9986E-03     41.0385E-03     908.579E-03     905.024E-03        -3.12851     904.032E-03        -3.12752     908.579E-03     119.407E-03     120.136E-03    -58.1454E-03    -61.9716E-03    -56.1566E-03     114.321E-03    -58.1454E-03     64.0225E-03     146.927E+06     128.286E+06    -2.30443E+06    -2.29777E+06     146.921E+06     128.286E+06     235.314E+03         56.2577
             131     16.9970E-03     42.1647E-03     895.611E-03     882.495E-03        -3.07478     882.135E-03        -3.07442     895.611E-03     75.4405E-03     121.127E-03    -58.0873E-03    -63.0209E-03    -57.2397E-03     115.346E-03    -58.0873E-03     64.2193E-03     148.898E+06     126.120E+06    -5.42327E+06    -5.41294E+06     148.888E+06     126.120E+06     456.896E+03         56.2691
             132     16.9986E-03     43.2909E-03     882.758E-03     860.571E-03        -3.02689     859.480E-03        -3.02580     882.758E-03     121.130E-03     121.393E-03    -58.1038E-03    -63.2845E-03    -56.9537E-03     115.062E-03    -58.1038E-03     67.1666E-03     152.204E+06     128.203E+06    -3.12518E+06    -3.11622E+06     152.195E+06     128.203E+06     650.318E+03         56.2777
             133     16.9965E-03     44.4156E-03     886.616E-03     861.672E-03        -3.01808     875.695E-03        -3.01652     871.035E-03     155.189E-03     121.187E-03    -58.1422E-03    -63.0290E-03    -56.0420E-03     114.200E-03    -58.1422E-03     70.3647E-03     152.872E+06     128.095E+06    -4.15090E+06    -4.14084E+06     152.862E+06     128.095E+06     710.683E+03         56.2852
             134     16.9985E-03     45.5371E-03     883.482E-03     858.956E-03        -3.00646     882.500E-03        -3.00548     858.956E-03     122.155E-03     121.068E-03    -58.1675E-03    -62.8795E-03    -55.7162E-03     113.905E-03    -58.1675E-03     71.1704E-03     153.734E+06     128.576E+06    -3.50323E+06    -3.49342E+06     153.724E+06     128.576E+06     779.910E+03         56.2930
             135     16.9962E-03     46.6589E-03     871.860E-03     846.092E-03        -2.96673     871.276E-03        -2.96615     846.092E-03     94.3694E-03     120.539E-03    -58.1789E-03    -62.3552E-03    -55.5534E-03     113.737E-03    -58.1789E-03     69.2052E-03     154.954E+06     130.177E+06    -2.64522E+06    -2.62991E+06     154.938E+06     130.177E+06     1.00506E+06         56.3011
             136     16.9986E-03     47.7761E-03     856.082E-03     833.618E-03        -2.91424     855.108E-03        -2.91327     833.618E-03     116.889E-03     119.897E-03    -58.1376E-03    -61.7622E-03    -55.6689E-03     113.804E-03    -58.1376E-03     65.3727E-03     154.469E+06     128.235E+06    -4.68839E+06    -4.64053E+06     154.421E+06     128.235E+06    -492.005E+03         56.3103
             137     16.9974E-03     48.8969E-03     840.792E-03     821.983E-03        -2.88328     839.229E-03        -2.88172     821.983E-03     152.431E-03     120.743E-03    -58.1063E-03    -62.6455E-03    -56.8680E-03     114.966E-03    -58.1063E-03     64.0665E-03     155.230E+06     129.395E+06    -4.04046E+06    -4.00429E+06     155.194E+06     129.395E+06    -1.06904E+06         56.3202
             138     16.9978E-03     50.0274E-03     856.581E-03     810.524E-03        -2.87471     855.609E-03        -2.87374     810.524E-03     111.105E-03     121.776E-03    -58.1258E-03    -63.5984E-03    -56.9694E-03     115.147E-03    -58.1258E-03     68.7310E-03     156.344E+06     130.308E+06    -4.64529E+06    -4.64178E+06     156.341E+06     130.308E+06     581.759E+03         56.3296
             139     16.9975E-03     51.1525E-03     841.283E-03     799.337E-03        -2.83564     840.758E-03        -2.83512     799.337E-03     85.1159E-03     121.152E-03    -58.1684E-03    -62.9367E-03    -55.6229E-03     113.838E-03    -58.1684E-03     71.9136E-03     157.381E+06     130.259E+06    -3.20051E+06    -3.19006E+06     157.370E+06     130.259E+06     967.082E+03         56.3411
             140     16.9971E-03     52.2690E-03     811.673E-03     789.426E-03        -2.78080     810.301E-03        -2.77943     789.426E-03     136.690E-03     120.108E-03    -58.1793E-03    -61.9102E-03    -55.2703E-03     113.468E-03    -58.1793E-03     68.1757E-03     156.837E+06     129.312E+06    -3.27106E+06    -3.24748E+06     156.813E+06     129.312E+06    -107.398E+03         56.3608
             141     16.9977E-03     53.3863E-03     816.714E-03     780.299E-03        -2.76377     814.919E-03        -2.76198     780.299E-03     160.100E-03     120.170E-03    -58.1539E-03    -61.9824E-03    -55.9452E-03     114.133E-03    -58.1539E-03     65.2148E-03     157.026E+06     128.716E+06    -4.20272E+06    -4.18497E+06     157.008E+06     128.716E+06    -411.008E+03         56.3892
             142     16.9974E-03     54.5158E-03     817.254E-03     770.420E-03        -2.75776     816.414E-03        -2.75692     770.420E-03     91.4799E-03     120.456E-03    -58.1546E-03    -62.3059E-03    -55.9906E-03     114.141E-03    -58.1546E-03     66.7464E-03     157.843E+06     128.803E+06    -4.01493E+06    -4.01030E+06     157.839E+06     128.803E+06     554.324E+03         56.4215
             143     16.9976E-03     55.6351E-03     802.749E-03     760.300E-03        -2.72182     802.285E-03        -2.72136     760.300E-03     70.1966E-03     120.514E-03    -58.1581E-03    -62.4130E-03    -55.6594E-03     113.760E-03    -58.1581E-03     68.9815E-03     158.313E+06     128.196E+06    -4.60374E+06    -4.59227E+06     158.302E+06     128.196E+06     914.560E+03         56.4570
             144     16.9978E-03     56.7588E-03     774.476E-03     752.002E-03        -2.66143     773.164E-03        -2.66012     752.002E-03     131.987E-03     121.338E-03    -58.1464E-03    -63.2562E-03    -56.2157E-03     114.297E-03    -58.1464E-03     70.7118E-03     160.248E+06     130.628E+06    -2.33720E+06    -2.32123E+06     160.232E+06     130.628E+06     370.362E+03         56.4945
             145     16.9971E-03     57.8853E-03     755.721E-03     744.862E-03        -2.61823     754.297E-03        -2.61681     744.862E-03     137.642E-03     120.694E-03    -58.1596E-03    -62.5471E-03    -55.4859E-03     113.633E-03    -58.1596E-03     70.5416E-03     158.693E+06     130.381E+06    -2.38632E+06    -2.38138E+06     158.688E+06     130.381E+06    -420.540E+03         56.5309
             146     16.9989E-03     58.9982E-03     770.630E-03     737.192E-03        -2.61936     769.834E-03        -2.61857     737.192E-03     102.058E-03     119.609E-03    -58.1468E-03    -61.4596E-03    -55.2545E-03     113.404E-03    -58.1468E-03     65.7389E-03     155.608E+06     128.133E+06    -4.55015E+06    -4.49901E+06     155.557E+06     128.133E+06    -1.81893E+06         56.5684
             147     16.9970E-03     60.1185E-03     772.629E-03     729.596E-03        -2.60455     772.075E-03        -2.60399     729.596E-03     86.3941E-03     120.408E-03    -58.1178E-03    -62.3409E-03    -56.6937E-03     114.761E-03    -58.1178E-03     63.2417E-03     154.957E+06     128.769E+06    -3.71065E+06    -3.62790E+06     154.874E+06     128.769E+06    -402.799E+03         56.6045
             148     16.9981E-03     61.2509E-03     739.822E-03     714.845E-03        -2.53623     731.100E-03        -2.53567     723.002E-03     85.9189E-03     120.871E-03    -58.1509E-03    -62.7553E-03    -56.0166E-03     114.132E-03    -58.1509E-03     68.8854E-03     155.409E+06     128.829E+06    -4.81989E+06    -4.78763E+06     155.377E+06     128.829E+06     1.45912E+06         56.6311
             149     16.9981E-03     63.4869E-03     729.611E-03     712.954E-03        -2.49124     728.846E-03        -2.49047     712.954E-03     94.2444E-03     120.852E-03    -58.1325E-03    -62.7168E-03    -56.3091E-03     114.445E-03    -58.1325E-03     67.3031E-03     156.339E+06     130.447E+06    -2.13793E+06    -2.13069E+06     156.331E+06     130.447E+06    -127.228E+03         56.6629
             150     16.9974E-03     64.6116E-03     718.035E-03     698.881E-03        -2.45315     709.729E-03        -2.45299     707.026E-03     37.5804E-03     121.304E-03    -58.0878E-03    -63.1906E-03    -57.4287E-03     115.542E-03    -58.0878E-03     64.1811E-03     157.063E+06     130.656E+06    -3.82457E+06    -3.81460E+06     157.053E+06     130.656E+06     74.0228E+03         56.6735
             151     16.9988E-03     65.7365E-03     699.786E-03     684.962E-03        -2.40257     684.375E-03        -2.40198     699.786E-03     65.7310E-03     120.825E-03    -58.1107E-03    -62.6892E-03    -56.3762E-03     114.512E-03    -58.1107E-03     66.7975E-03     158.072E+06     130.060E+06    -4.80969E+06    -4.80273E+06     158.065E+06     130.060E+06     1.01570E+06         56.6797
             152     16.9970E-03     66.8648E-03     700.322E-03     688.218E-03        -2.38355     692.189E-03        -2.38209     694.897E-03     133.117E-03     120.482E-03    -58.1686E-03    -62.3066E-03    -54.9623E-03     113.138E-03    -58.1686E-03     71.7623E-03     158.479E+06     130.265E+06    -3.00286E+06    -2.98903E+06     158.465E+06     130.265E+06     1.34225E+06         56.6846
             153     16.9982E-03     67.9811E-03     696.615E-03     690.724E-03        -2.36426     695.714E-03        -2.36336     690.724E-03     86.1506E-03     119.689E-03    -58.1847E-03    -61.4807E-03    -54.5423E-03     112.750E-03    -58.1847E-03     69.4287E-03     158.834E+06     130.680E+06    -3.17865E+06    -3.14394E+06     158.799E+06     130.680E+06    -354.818E+03         56.6915
             154     16.9974E-03     69.0956E-03     683.897E-03     664.322E-03        -2.31091     664.624E-03        -2.31074     683.432E-03     41.0964E-03     119.256E-03    -58.1374E-03    -61.0882E-03    -55.4269E-03     113.595E-03    -58.1374E-03     62.8312E-03     158.859E+06     129.959E+06    -4.63532E+06    -4.59728E+06     158.821E+06     129.959E+06    -218.650E+03         56.7013
             155     16.9987E-03     70.2190E-03     675.562E-03     642.277E-03        -2.26394     641.131E-03        -2.26280     675.562E-03     104.752E-03     119.821E-03    -58.0946E-03    -61.6876E-03    -56.4770E-03     114.611E-03    -58.0946E-03     60.6177E-03     159.315E+06     129.408E+06    -5.10195E+06    -5.07056E+06     159.283E+06     129.408E+06    -6.77987E+03         56.7115
             156     16.9975E-03     71.3449E-03     669.530E-03     649.936E-03        -2.24435     648.502E-03        -2.24292     669.530E-03     126.005E-03     121.027E-03    -58.0893E-03    -62.9012E-03    -56.9685E-03     115.094E-03    -58.0893E-03     64.8905E-03     160.838E+06     130.303E+06    -4.23941E+06    -4.21771E+06     160.816E+06     130.303E+06    -436.283E+03         56.7205
             157     16.9984E-03     72.4732E-03     663.221E-03     643.105E-03        -2.22064     642.565E-03        -2.22010     663.221E-03     75.0500E-03     121.522E-03    -58.1176E-03    -63.3919E-03    -56.6078E-03     114.738E-03    -58.1176E-03     69.5184E-03     161.333E+06     131.725E+06    -2.86895E+06    -2.86099E+06     161.326E+06     131.725E+06     301.360E+03         56.7280
             158     16.9972E-03     73.5959E-03     655.650E-03     614.483E-03        -2.16664     613.586E-03        -2.16574     655.650E-03     90.7576E-03     120.477E-03    -58.1667E-03    -62.2722E-03    -55.0687E-03     113.273E-03    -58.1667E-03     71.1021E-03     160.483E+06     131.190E+06    -3.06679E+06    -3.04928E+06     160.465E+06     131.190E+06     726.444E+03         56.7340
             159     16.9983E-03     74.7137E-03     647.561E-03     599.554E-03        -2.12209     597.907E-03        -2.12044     647.561E-03     133.820E-03     120.439E-03    -58.1602E-03    -62.2379E-03    -55.2406E-03     113.442E-03    -58.1602E-03     70.0700E-03     160.078E+06     130.251E+06    -3.02286E+06    -2.99496E+06     160.050E+06     130.251E+06     125.789E+03         56.7412
             160     16.9970E-03     75.8345E-03     639.161E-03     601.592E-03        -2.10724     600.446E-03        -2.10609     639.161E-03     107.501E-03     120.704E-03    -58.1309E-03    -62.5248E-03    -56.3722E-03     114.551E-03    -58.1309E-03     65.9862E-03     161.006E+06     130.610E+06    -3.37256E+06    -3.35789E+06     160.991E+06     130.610E+06    -563.551E+03         56.7488
             161     16.9982E-03     76.9571E-03     630.052E-03     591.603E-03        -2.07196     591.239E-03        -2.07160     630.052E-03     59.7526E-03     120.044E-03    -58.1375E-03    -61.8570E-03    -55.8544E-03     114.041E-03    -58.1375E-03     64.9733E-03     160.766E+06     129.933E+06    -4.22489E+06    -4.21472E+06     160.756E+06     129.933E+06    -363.522E+03         56.7550
             162     16.9976E-03     78.0800E-03     619.498E-03     564.820E-03        -2.01190     564.432E-03        -2.01151     619.498E-03     60.0842E-03     119.793E-03    -58.1440E-03    -61.6088E-03    -55.2826E-03     113.467E-03    -58.1440E-03     66.5582E-03     161.363E+06     130.309E+06    -3.44238E+06    -3.42302E+06     161.343E+06     130.309E+06     174.510E+03         56.7612
             163     16.9983E-03     79.2017E-03     608.135E-03     539.230E-03        -1.94915     538.818E-03        -1.94874     608.135E-03     62.0279E-03     120.229E-03    -58.1206E-03    -62.0493E-03    -55.7247E-03     113.904E-03    -58.1206E-03     66.7149E-03     162.357E+06     131.163E+06    -3.40174E+06    -3.37504E+06     162.330E+06     131.163E+06    -145.330E+03         56.7683
             164     16.9983E-03     80.3217E-03     596.604E-03     536.450E-03        -1.91279     536.303E-03        -1.91264     596.604E-03     37.0262E-03     121.052E-03    -58.0964E-03    -62.9046E-03    -56.5234E-03     114.671E-03    -58.0964E-03     67.3209E-03     162.403E+06     131.278E+06    -3.88749E+06    -3.86851E+06     162.384E+06     131.278E+06    -560.633E+03         56.7751
             165     16.9981E-03     81.4534E-03     584.216E-03     548.420E-03        -1.89722     548.215E-03        -1.89702     584.216E-03     42.5907E-03     121.425E-03    -58.1248E-03    -63.2593E-03    -56.2164E-03     114.382E-03    -58.1248E-03     70.6913E-03     161.464E+06     130.619E+06    -4.39306E+06    -4.38920E+06     161.460E+06     130.619E+06     645.770E+03         56.7791
             166     16.9974E-03     82.5710E-03     570.398E-03     531.219E-03        -1.84929     531.030E-03        -1.84910     570.398E-03     38.9663E-03     120.627E-03    -58.1608E-03    -62.4134E-03    -55.2163E-03     113.430E-03    -58.1608E-03     71.1335E-03     160.523E+06     130.283E+06    -4.19687E+06    -4.18552E+06     160.511E+06     130.283E+06     1.04721E+06         56.7822
             167     16.9983E-03     83.6902E-03     555.701E-03     503.410E-03        -1.78648     503.348E-03        -1.78642     555.701E-03     23.7576E-03     120.493E-03    -58.1311E-03    -62.3525E-03    -55.9028E-03     114.043E-03    -58.1311E-03     67.4166E-03     160.367E+06     130.284E+06    -3.35194E+06    -3.31848E+06     160.334E+06     130.284E+06    -380.843E+03         56.7866
             168     16.9974E-03     84.8110E-03     541.112E-03     504.441E-03        -1.75977     504.348E-03        -1.75968     541.112E-03     28.9365E-03     120.584E-03    -58.1019E-03    -62.5062E-03    -56.8532E-03     114.931E-03    -58.1019E-03     63.3066E-03     161.758E+06     131.468E+06    -2.36693E+06    -2.31889E+06     161.710E+06     131.468E+06     118.618E+03         56.7893
             169     16.9982E-03     85.9351E-03     525.747E-03     496.005E-03        -1.71538     495.907E-03        -1.71528     525.747E-03     29.4151E-03     119.997E-03    -58.1099E-03    -61.8946E-03    -56.1797E-03     114.282E-03    -58.1099E-03     63.4052E-03     164.254E+06     132.191E+06    -3.15076E+06    -3.12453E+06     164.228E+06     132.191E+06     1.64125E+06         56.7887
             170     16.9984E-03     87.0588E-03     507.979E-03     467.753E-03        -1.64005     467.683E-03        -1.63998     507.979E-03     24.3180E-03     120.310E-03    -58.1137E-03    -62.2505E-03    -55.7237E-03     113.783E-03    -58.1137E-03     67.7695E-03     168.387E+06     132.773E+06    -4.24442E+06    -4.20750E+06     168.351E+06     132.773E+06     1.97173E+06         56.7859
             171     16.9980E-03     88.1859E-03     489.620E-03     446.360E-03        -1.58744     445.791E-03        -1.58687     489.620E-03     57.3603E-03     120.469E-03    -58.1497E-03    -62.3775E-03    -55.2436E-03     113.335E-03    -58.1497E-03     70.7951E-03     171.635E+06     133.834E+06    -6.16834E+06    -6.12569E+06     171.592E+06     133.834E+06     1.05242E+06         56.7807
             172     16.9974E-03     89.3036E-03     472.950E-03     440.935E-03        -1.55326     440.382E-03        -1.55271     472.950E-03     53.7953E-03     119.633E-03    -58.1750E-03    -61.4989E-03    -54.5473E-03     112.681E-03    -58.1750E-03     69.5638E-03     171.671E+06     134.643E+06    -4.45964E+06    -4.44892E+06     171.660E+06     134.643E+06    -109.201E+03         56.7753
             173     16.9990E-03     90.4186E-03     455.350E-03     444.739E-03        -1.52230     444.824E-03        -1.52229     455.251E-03     9.28527E-03     119.784E-03    -58.1262E-03    -61.6962E-03    -55.6976E-03     113.786E-03    -58.1262E-03     64.8117E-03     172.836E+06     136.843E+06    -2.44407E+06    -2.43439E+06     172.826E+06     136.843E+06    -40.0352E+03         56.7722
             174     16.9982E-03     91.5438E-03     434.953E-03     426.413E-03        -1.45785     426.460E-03        -1.45780     434.854E-03     15.6006E-03     120.172E-03    -58.0876E-03    -62.1006E-03    -56.6255E-03     114.697E-03    -58.0876E-03     62.2249E-03     173.577E+06     137.379E+06    -4.17728E+06    -4.15291E+06     173.552E+06     137.379E+06     637.747E+03         56.7675
             175     16.9995E-03     92.6675E-03     414.669E-03     393.738E-03        -1.39802     393.574E-03        -1.39786     414.669E-03     33.5936E-03     119.426E-03    -58.1030E-03    -61.3680E-03    -55.3294E-03     113.387E-03    -58.1030E-03     64.8846E-03     176.071E+06     137.699E+06    -4.32264E+06    -4.27940E+06     176.028E+06     137.699E+06     2.78950E+06         56.7583
             176     16.9993E-03     93.7921E-03     398.501E-03     382.873E-03        -1.35133     385.826E-03        -1.35114     395.363E-03     35.6953E-03     119.800E-03    -58.0890E-03    -61.7365E-03    -54.6831E-03     112.746E-03    -58.0890E-03     70.1344E-03     181.014E+06     139.293E+06    -5.73392E+06    -5.70523E+06     180.985E+06     139.293E+06     808.025E+03         56.7461
             177     17.0004E-03     94.9126E-03     388.562E-03     375.078E-03        -1.30491     388.406E-03        -1.30476     375.078E-03     32.5325E-03     120.678E-03    -58.0494E-03    -62.6835E-03    -55.3550E-03     113.350E-03    -58.0494E-03     71.8291E-03     181.941E+06     142.182E+06    -3.92638E+06    -3.91759E+06     181.932E+06     142.182E+06    -1.27777E+06         56.7287
             178     17.0007E-03     96.0352E-03     365.567E-03     354.248E-03        -1.25512     365.475E-03        -1.25503     354.248E-03     21.4576E-03     119.530E-03    -58.0255E-03    -61.5924E-03    -54.5459E-03     112.483E-03    -58.0255E-03     70.0461E-03     182.094E+06     144.502E+06    -1.20506E+06    -1.16061E+06     182.050E+06     144.502E+06     1.32830E+06         56.7010
             179     17.0035E-03     97.1507E-03     350.115E-03     333.950E-03        -1.19481     349.953E-03        -1.19464     333.950E-03     26.3844E-03     117.826E-03    -57.9597E-03    -59.8747E-03    -53.3586E-03     111.310E-03    -57.9597E-03     66.7659E-03     183.111E+06     143.890E+06    -4.52739E+06    -4.48490E+06     183.069E+06     143.890E+06     1.48933E+06         56.6612
             180     17.0044E-03     98.2662E-03     347.302E-03     313.747E-03        -1.15007     347.075E-03        -1.14984     313.747E-03     36.2728E-03     117.225E-03    -57.8299E-03    -59.4405E-03    -53.3473E-03     111.132E-03    -57.8299E-03     64.4769E-03     183.500E+06     142.746E+06    -4.47191E+06    -4.45686E+06     183.485E+06     142.746E+06     653.774E+03         56.6063
             181     17.0078E-03     99.3910E-03     334.432E-03     293.855E-03        -1.10457     334.216E-03        -1.10436     293.855E-03     34.6486E-03     116.559E-03    -57.6470E-03    -58.9926E-03    -52.3878E-03     109.954E-03    -57.6470E-03     66.7452E-03     182.923E+06     140.168E+06    -4.30302E+06    -4.28809E+06     182.908E+06     140.168E+06     668.886E+03         56.5336
             182     17.0124E-03     100.503E-03     330.745E-03     274.598E-03        -1.05455     330.597E-03        -1.05440     274.598E-03     17.1396E-03     114.871E-03    -57.1744E-03    -57.8362E-03    -50.9405E-03     108.168E-03    -57.3670E-03     66.6536E-03     184.116E+06     138.854E+06    -4.39591E+06    -4.38261E+06     184.102E+06     138.854E+06     604.455E+03         56.4467
             183     17.0201E-03     101.616E-03     303.814E-03     255.524E-03    -989.317E-03     303.676E-03    -989.178E-03     255.524E-03     15.1539E-03     113.975E-03    -56.7403E-03    -57.4406E-03    -50.7838E-03     107.511E-03    -56.9330E-03     65.2651E-03     185.419E+06     135.756E+06    -4.24548E+06    -4.19694E+06     185.371E+06     135.756E+06    -850.742E+03         56.3534
             184     17.0279E-03     102.735E-03     277.726E-03     237.304E-03    -929.856E-03     277.464E-03    -929.594E-03     237.304E-03     35.5515E-03     114.412E-03    -56.3188E-03    -58.2284E-03    -50.6292E-03     106.813E-03    -56.3188E-03     70.6846E-03     181.390E+06     128.247E+06    -3.02949E+06    -2.97691E+06     181.337E+06     128.247E+06    -714.362E+03         56.2673
             185     17.0425E-03     103.852E-03     281.697E-03     219.876E-03    -891.158E-03     281.476E-03    -890.937E-03     219.876E-03     2.59767E-03     115.695E-03    -55.4801E-03    -60.2041E-03    -50.6440E-03     106.135E-03    -55.4801E-03     79.6632E-03     176.120E+06     121.833E+06    -4.19445E+06    -4.17073E+06     176.096E+06     121.833E+06     297.492E+03         56.2115
             186     17.0580E-03     104.967E-03     260.769E-03     202.015E-03    -834.426E-03     260.603E-03    -834.259E-03     202.015E-03    -26.9688E-03     116.128E-03    -54.4208E-03    -61.6036E-03    -51.9043E-03     106.429E-03    -54.4208E-03     80.6593E-03     170.209E+06     119.367E+06    -1.81451E+06    -1.78459E+06     170.179E+06     119.367E+06     447.039E+03         56.2077
             187     17.0791E-03     106.071E-03     231.718E-03     184.977E-03    -764.792E-03     231.044E-03    -764.118E-03     184.977E-03     21.7870E-03     117.565E-03    -53.2505E-03    -64.2031E-03    -57.0030E-03     110.365E-03    -53.2505E-03     70.2814E-03     162.937E+06     118.626E+06    -4.23857E+06    -4.15356E+06     162.852E+06     118.626E+06    -1.02238E+06         56.2677
             188     17.0927E-03     107.187E-03     227.381E-03     169.870E-03    -728.298E-03     226.773E-03    -727.690E-03     169.870E-03     37.2014E-03     123.886E-03    -52.1704E-03    -71.6550E-03    -67.4893E-03     119.720E-03    -52.1704E-03     55.3619E-03     158.463E+06     128.178E+06    -2.23696E+06    -2.04832E+06     158.274E+06     128.178E+06     703.110E+03         56.3887
             189     17.1007E-03     108.329E-03     224.055E-03     155.110E-03    -701.154E-03     224.025E-03    -701.124E-03     155.110E-03    -3.36491E-03     134.077E-03    -51.3863E-03    -82.6303E-03    -79.9043E-03     131.351E-03    -51.3863E-03     48.2723E-03     155.139E+06     136.321E+06    -5.70473E+06    -5.31457E+06     154.748E+06     136.321E+06    -1.74009E+06         56.5602
             190     17.1026E-03     109.472E-03     202.012E-03     140.490E-03    -643.328E-03     201.777E-03    -643.092E-03     140.490E-03    -24.8732E-03     146.203E-03    -50.8507E-03    -95.2241E-03    -92.9716E-03     143.950E-03    -50.8507E-03     46.0670E-03     146.451E+06     137.146E+06    -5.27623E+06    -4.96077E+06     146.079E+06     137.202E+06    -6.59612E+06         56.7726
             191     17.1044E-03     110.646E-03     181.582E-03     127.324E-03    -580.692E-03     181.293E-03    -580.403E-03     127.324E-03    -28.9806E-03     156.985E-03    -50.4827E-03    -106.479E-03    -104.316E-03     154.822E-03    -50.4827E-03     47.4533E-03     133.029E+06     130.648E+06    -5.91761E+06    -5.27754E+06     130.008E+06     133.029E+06    -8.28044E+06         57.0059
             192     17.1038E-03     111.823E-03     176.220E-03     115.203E-03    -541.976E-03     175.740E-03    -541.497E-03     115.203E-03    -34.4244E-03     168.387E-03    -50.1578E-03    -118.308E-03    -115.957E-03     166.036E-03    -50.1578E-03     51.6280E-03     131.029E+06     111.650E+06    -2.57868E+06    -1.90502E+06     110.976E+06     131.029E+06    -8.36139E+06         57.2400
             193     17.1057E-03     113.006E-03     157.843E-03     103.140E-03    -501.440E-03     157.028E-03    -500.625E-03     103.140E-03    -46.2883E-03     183.880E-03    -49.7438E-03    -134.163E-03    -132.240E-03     181.957E-03    -49.7438E-03     49.0656E-03     134.328E+06     98.5755E+06    -4.38604E+06    -4.28191E+06     98.4714E+06     134.328E+06    -2.99085E+06         57.4827
             194     17.1049E-03     114.223E-03     141.621E-03     92.8949E-03    -448.629E-03     141.208E-03    -448.216E-03     92.8949E-03    -22.1561E-03     200.908E-03    -49.2203E-03    -151.580E-03    -149.978E-03     199.306E-03    -49.2203E-03     47.3862E-03     130.149E+06     90.4900E+06    -6.26556E+06    -6.08716E+06     90.3116E+06     130.149E+06    -3.49607E+06         57.7359
             195     17.1079E-03     115.451E-03     141.211E-03     84.9206E-03    -410.146E-03     141.021E-03    -409.957E-03     84.9206E-03    -13.8865E-03     221.704E-03    -48.5968E-03    -172.988E-03    -171.215E-03     219.931E-03    -48.5968E-03     52.7695E-03     122.767E+06     72.5801E+06    -7.01871E+06    -5.83522E+06     71.3966E+06     122.767E+06    -8.96901E+06         57.9388
             196     17.1068E-03     116.724E-03     121.075E-03     77.1349E-03    -372.373E-03     120.881E-03    -372.180E-03     77.1349E-03    -16.2498E-03     244.872E-03    -48.0528E-03    -196.878E-03    -194.760E-03     242.754E-03    -48.0528E-03     61.0296E-03     132.037E+06     56.1598E+06    -4.25412E+06     132.914E+03     51.7728E+06     132.037E+06     263.707E+03         57.8938
             197     17.1095E-03     118.028E-03     92.4050E-03     70.9409E-03    -316.141E-03     92.4003E-03    -316.137E-03     70.9409E-03    -2.46109E-03     261.878E-03    -47.6749E-03    -214.338E-03    -211.575E-03     259.115E-03    -47.6749E-03     72.0973E-03     139.918E+06     40.3692E+06    -13.4118E+06    -9.67761E+06     36.6350E+06     139.918E+06     3.16697E+06         57.4110
             198     17.1093E-03     119.334E-03     82.6631E-03     68.4720E-03    -270.340E-03     82.1818E-03    -269.859E-03     68.4720E-03    -18.4883E-03     278.371E-03    -47.3051E-03    -231.108E-03    -226.095E-03     273.358E-03    -47.3051E-03     99.3283E-03     161.012E+06     55.1498E+06    -4.18215E+06     9.63539E+06     41.3322E+06     161.012E+06     7.55283E+06         56.3926
             199     17.1139E-03     120.707E-03     76.1473E-03     68.0912E-03    -224.621E-03     74.3268E-03    -223.351E-03     68.6425E-03    -38.2836E-03     291.550E-03    -47.1058E-03    -244.453E-03    -232.109E-03     279.206E-03    -47.1058E-03     156.379E-03     157.778E+06     67.9167E+06    -31.6398E+06    -13.4066E+06     49.6834E+06     157.778E+06    -7.34040E+06         54.7074
             200     17.1123E-03     122.102E-03     70.6639E-03     39.7627E-03    -150.143E-03     37.8682E-03    -148.248E-03     70.6639E-03    -4.30452E-03     276.081E-03    -47.8434E-03    -228.271E-03    -196.680E-03     244.490E-03    -47.8434E-03     235.054E-03     110.878E+06     51.5656E+06    -50.3847E+06    -21.6713E+06     22.8521E+06     110.878E+06    -13.0305E+06         52.6464
             201     17.1196E-03     123.341E-03     74.8851E-03     7.07496E-03    -84.2828E-03    -3.04833E-03    -74.1595E-03     74.8851E-03     45.1460E-03     198.424E-03    -52.4948E-03    -145.974E-03    -96.0170E-03     148.467E-03    -52.4948E-03     233.752E-03     62.2248E+06     9.50279E+06    -37.1802E+06    -11.3136E+06    -16.3638E+06     62.2248E+06    -627.269E+03         50.6949
             202     16.9380E-03     124.349E-03     81.1717E-03     7.37875E-03    -84.3522E-03    -44.8301E-03    -32.1433E-03     81.1717E-03     81.6221E-03     89.9615E-03    -9.70649E-03    -80.2784E-03     5.95810E-03     61.0889E-03    -67.0704E-03     97.0557E-03     49.2891E+06    -23.2864E+06    -57.7338E+06    -5.60280E+06    -33.1474E+06     7.01908E+06     9.75992E+06         49.1015
             203     15.5272E-03     124.764E-03     86.4282E-03     9.21998E-03    -83.1694E-03    -37.0531E-03    -36.8963E-03     86.4282E-03     71.7370E-03     48.6999E-03     29.1697E-03    -77.8675E-03     33.4363E-03     44.4333E-03    -77.8675E-03     14.1726E-03     100.716E+06     52.0719E+06    -28.8295E+06     22.0125E+06     43.5000E+06     58.4463E+06     9.29417E+06         47.3562
             204     14.5627E-03     124.335E-03     88.2907E-03    -526.605E-06    -59.6830E-03    -16.6102E-03    -43.5994E-03     88.2907E-03     45.1704E-03     88.2789E-03    -11.9246E-03    -76.4605E-03    -5.78003E-03     82.1343E-03    -76.4605E-03    -20.0969E-03     110.130E+06     39.2836E+06    -51.6425E+06    -28.3767E+06     16.0178E+06     110.130E+06    -3.69452E+06         45.0023
             205     13.7557E-03     123.868E-03     89.0334E-03    -3.17281E-03    -58.2344E-03    -16.8571E-03    -44.5501E-03     89.0334E-03     34.6958E-03     115.898E-03    -43.8770E-03    -72.1748E-03    -37.6878E-03     109.709E-03    -72.1748E-03    -61.6210E-03     89.7963E+06     18.9266E+06    -65.7253E+06    -27.9482E+06    -18.8505E+06     89.7963E+06    -23.6228E+06         42.2575
             206     12.9171E-03     123.478E-03     90.0793E-03     10.8331E-03    -56.2841E-03     9.08442E-03    -54.5354E-03     90.0793E-03     21.3597E-03     117.246E-03    -49.8231E-03    -67.4588E-03    -43.3894E-03     110.813E-03    -67.4588E-03    -64.2614E-03     83.9920E+06     33.6832E+06    -61.1123E+06    -12.8121E+06    -14.6170E+06     83.9920E+06    -26.5895E+06         39.3626
             207     12.0433E-03     123.169E-03     91.4091E-03     23.1268E-03    -65.2880E-03     20.8340E-03    -62.9952E-03     91.4091E-03     28.0844E-03     131.756E-03    -58.9949E-03    -72.7643E-03    -60.2742E-03     123.466E-03    -63.1953E-03    -79.7943E-03     94.8620E+06     16.1087E+06    -37.6267E+06    -635.538E+03    -20.8825E+06     94.8620E+06    -8.07077E+06         36.5819
             208     11.1859E-03     122.899E-03     92.6600E-03     43.0681E-03    -77.1636E-03     41.3992E-03    -75.4947E-03     92.6600E-03     4.45939E-03     141.584E-03    -58.3675E-03    -83.2909E-03    -74.6285E-03     132.922E-03    -58.3675E-03    -86.4672E-03     106.513E+06     36.8984E+06    -17.1496E+06     19.8771E+06    -128.306E+03     106.513E+06    -11.0658E+06         34.0142
             209     10.3266E-03     122.682E-03     93.3927E-03     63.8780E-03    -77.2782E-03     63.2411E-03    -76.6413E-03     93.3927E-03    -18.5133E-03     137.323E-03    -53.3942E-03    -84.0571E-03    -77.5588E-03     130.825E-03    -53.3942E-03    -74.2995E-03     109.460E+06     34.7709E+06    -10.9901E+06     33.6536E+06    -9.87279E+06     109.460E+06    -6.13648E+06         31.7468
             210     9.44532E-03     122.507E-03     93.8366E-03     75.5032E-03    -90.9001E-03     75.1839E-03    -90.5808E-03     93.8366E-03    -531.938E-06     127.218E-03    -48.7558E-03    -78.4723E-03    -74.4176E-03     123.163E-03    -48.7558E-03    -56.9519E-03     112.415E+06     41.5820E+06    -4.99707E+06     40.5282E+06    -3.94329E+06     112.415E+06    -407.173E+03         29.8020
             211     8.54482E-03     122.371E-03     94.1138E-03     88.5084E-03    -102.760E-03     85.5854E-03    -99.3411E-03     93.6182E-03     41.9888E-03     116.595E-03    -44.5226E-03    -71.9680E-03    -69.3630E-03     113.990E-03    -44.5226E-03    -43.8473E-03     107.449E+06     39.9580E+06    -1.56654E+06     39.7402E+06    -1.34875E+06     107.449E+06     2.52373E+06         28.1665
             212     7.63315E-03     122.260E-03     93.6190E-03     86.1647E-03    -90.1464E-03     80.8709E-03    -84.3570E-03     93.1234E-03     62.9157E-03     105.264E-03    -40.6891E-03    -64.5339E-03    -62.8965E-03     103.627E-03    -40.6891E-03    -33.0414E-03     101.985E+06     36.1372E+06     3.71943E+06     36.1228E+06     3.73380E+06     101.985E+06    -680.463E+03         26.8861
             213     6.70760E-03     122.176E-03     94.1457E-03     71.4817E-03    -77.9438E-03     68.3193E-03    -74.7814E-03     94.1457E-03     41.3582E-03     93.5226E-03    -37.2461E-03    -56.2765E-03    -55.2633E-03     92.5094E-03    -37.2461E-03    -24.4771E-03     91.4999E+06     36.2354E+06    -1.09517E+06     35.7711E+06     -630.83E+03     91.4999E+06    -2.81354E+06         25.9632
             214     5.76984E-03     122.108E-03     98.0068E-03     59.0597E-03    -67.0502E-03     58.3481E-03    -66.3386E-03     98.0068E-03     16.7410E-03     82.7255E-03    -34.2470E-03    -48.4999E-03    -47.8584E-03     82.0840E-03    -34.2470E-03    -18.2459E-03     74.6972E+06     36.4632E+06    -142.272E+03     35.9738E+06     347.164E+03     74.6972E+06    -3.23483E+06         25.2839
             215     4.82288E-03     122.060E-03     104.470E-03     69.6279E-03    -85.1447E-03     62.3158E-03    -77.8325E-03     104.470E-03     54.5773E-03     73.5016E-03    -31.7516E-03    -41.7977E-03    -41.4057E-03     73.1096E-03    -31.7516E-03    -13.3487E-03     61.3602E+06     38.7376E+06     1.62071E+06     38.2942E+06     2.06409E+06     61.3602E+06    -3.16616E+06         24.7302
             216     3.86755E-03     122.021E-03     112.539E-03     87.8519E-03    -103.969E-03     73.7792E-03    -89.8962E-03     112.539E-03     100.026E-03     65.9766E-03    -29.7812E-03    -36.2154E-03    -35.9854E-03     65.7467E-03    -29.7812E-03    -9.64067E-03     60.2832E+06     43.6793E+06    -113.683E+03     42.8390E+06      726.66E+03     60.2832E+06    -5.87962E+06         24.2649
             217     2.90510E-03     121.995E-03     121.475E-03     107.276E-03    -104.575E-03     90.7346E-03    -88.0338E-03     121.475E-03     113.611E-03     60.2555E-03    -28.2439E-03    -31.9996E-03    -31.8645E-03     60.1204E-03    -28.2439E-03    -7.00305E-03     60.1286E+06     52.6763E+06    -3.54367E+06     51.9680E+06    -2.83541E+06     60.1286E+06    -6.25958E+06         23.8891
             218     1.93911E-03     121.974E-03     143.781E-03     123.713E-03    -136.386E-03     127.830E-03    -121.548E-03     124.826E-03     121.359E-03     55.6801E-03    -27.1153E-03    -28.5564E-03    -28.3812E-03     55.6084E-03    -27.2187E-03    -4.85538E-03     61.1706E+06     55.4392E+06    -1.00545E+06     59.5277E+06    -591.242E+03     56.6679E+06    -4.83932E+06         23.6137
             219     969.508E-06     121.963E-03     158.557E-03     97.5224E-03    -87.8188E-03     148.801E-03    -78.0627E-03     97.5224E-03     95.1730E-03     53.8539E-03    -26.4270E-03    -27.4269E-03    -27.2855E-03     53.8159E-03    -26.5304E-03    -3.48414E-03     71.6537E+06     63.9674E+06    -2.72336E+06     67.7611E+06    -2.01439E+06     67.1510E+06    -6.67703E+06         23.4475
             220    -1.59392E-06     120.907E-03     132.190E-03     62.5594E-03    -33.6775E-03     126.891E-03    -28.3783E-03     62.5594E-03     24.4053E-03     45.6252E-03    -21.9550E-03    -23.6690E-03    -22.8291E-03     45.6027E-03    -22.7724E-03    -2.47855E-03     49.9278E+06     42.6800E+06    -19.5669E+06     45.2952E+06    -18.1180E+06     45.8637E+06    -9.59518E+06         23.0537
             221    -78.1778E-09     119.868E-03     130.676E-03     72.0018E-03    -119.012E-03     112.851E-03    -101.186E-03     72.0018E-03     87.8532E-03     30.2471E-03    -14.5900E-03    -15.6548E-03    -14.8247E-03     30.2344E-03    -15.4074E-03    -1.51156E-03    -7.26960E+06    -14.5738E+06    -41.9663E+06    -8.59052E+06    -40.6453E+06    -14.5738E+06    -3.93137E+06         22.2753
             222     512.362E-09     118.848E-03     155.016E-03     98.2983E-03    -239.802E-03     116.477E-03    -201.263E-03     98.2983E-03    -29.8809E-03     18.6209E-03    -9.17249E-03    -9.44798E-03    -9.40811E-03     18.6091E-03    -9.20055E-03    -1.11770E-03    -43.8442E+06    -55.3244E+06    -61.5802E+06    -57.5858E+06    -47.8386E+06    -55.3244E+06    -1.83680E+06         21.4860
             223    -520.823E-09     117.832E-03     122.165E-03     80.1729E-03    -261.253E-03     83.4681E-03    -238.955E-03     96.5713E-03    -155.074E-03     10.8729E-03    -5.41530E-03    -5.45758E-03    -5.41888E-03     10.8623E-03    -5.44336E-03    -832.289E-06    -64.4204E+06    -101.285E+06    -108.203E+06    -105.135E+06    -66.3267E+06    -102.447E+06    -8.80243E+06         20.8931
             224     505.462E-09     116.827E-03     80.5543E-03     15.4734E-03    -184.534E-03     54.7577E-03    -175.136E-03     31.8717E-03    -80.7990E-03     6.16739E-03    -3.05386E-03    -3.11333E-03    -3.06460E-03     6.16392E-03    -3.09911E-03    -278.087E-06    -89.2645E+06    -156.935E+06    -158.539E+06    -156.029E+06    -90.6130E+06    -158.097E+06    -8.09923E+06         20.4880
             225    -594.631E-09     115.819E-03     56.4915E-03    -5.27891E-03    -156.638E-03     34.7471E-03    -147.982E-03     7.80891E-03    -66.3823E-03     3.39818E-03    -1.66137E-03    -1.73682E-03    -1.65895E-03     3.39577E-03    -1.73682E-03     138.393E-06    -104.872E+06    -202.404E+06    -204.019E+06    -202.692E+06    -105.026E+06    -203.577E+06    -1.41509E+06         20.2587
             226     512.920E-09     114.820E-03     61.5772E-03     592.486E-06    -183.787E-03     48.2843E-03    -183.582E-03     13.6803E-03    -6.57394E-03     2.44594E-03    -1.20247E-03    -1.24345E-03    -1.18957E-03     2.43303E-03    -1.24345E-03     411.267E-06    -91.9477E+06    -183.624E+06    -188.346E+06    -181.707E+06    -93.8646E+06    -188.346E+06     8.64133E+06         20.2278
             227    -631.660E-09     113.814E-03     87.9766E-03     29.7523E-03    -252.907E-03     87.3535E-03    -252.284E-03     29.7523E-03    -20.2536E-03     4.06409E-03    -2.00211E-03    -2.06189E-03    -2.01780E-03     4.03078E-03    -2.01289E-03     900.148E-06    -41.0855E+06    -122.217E+06    -130.866E+06    -121.446E+06    -46.9571E+06    -125.765E+06     21.6714E+06         20.4054
             228     698.692E-09     112.812E-03     97.1885E-03     82.9188E-03    -353.954E-03     95.9193E-03    -352.685E-03     82.9188E-03    -47.7537E-03     9.38859E-03    -4.63537E-03    -4.75329E-03    -4.68448E-03     9.31977E-03    -4.63537E-03     1.96695E-03     20.7238E+06    -68.2351E+06    -79.2655E+06    -74.8931E+06     16.3514E+06    -68.2351E+06     18.2875E+06         20.8108
             229    -577.092E-09     111.795E-03     141.797E-03     60.6149E-03    -396.539E-03     140.755E-03    -395.496E-03     60.6149E-03    -46.7054E-03     18.7329E-03    -9.24799E-03    -9.48535E-03    -9.38750E-03     18.6350E-03    -9.24799E-03     3.29329E-03     50.1701E+06    -14.3831E+06    -22.1816E+06    -19.8832E+06     49.7405E+06    -16.2519E+06     5.12146E+06         21.4815
             230     786.116E-09     110.773E-03     173.659E-03     20.7361E-03    -436.720E-03     93.7198E-03    -432.464E-03     96.4186E-03    -82.4066E-03     31.4659E-03    -15.4859E-03    -15.9820E-03    -15.9034E-03     31.3873E-03    -15.4859E-03     3.71073E-03     51.1965E+06     26.8853E+06     18.5648E+06     22.5812E+06     49.0490E+06     25.0164E+06    -2.50034E+06         22.4096
             231    -124.054E-09     109.733E-03     148.009E-03     56.7231E-03    -483.420E-03     21.4806E-03    -432.573E-03     132.406E-03    -283.374E-03     46.7718E-03    -23.2096E-03    -23.5640E-03    -23.5007E-03     46.7085E-03    -23.2096E-03     4.21989E-03     59.5203E+06     54.7158E+06     33.7693E+06     54.3631E+06     38.9264E+06     54.7158E+06    -4.25746E+06         23.5103
             232     62.8621E-09     108.676E-03     162.943E-03     82.4181E-03    -530.563E-03     63.1301E-03    -430.750E-03     82.4181E-03    -486.665E-03     62.3059E-03    -30.9962E-03    -31.3085E-03    -31.2463E-03     62.2437E-03    -30.9962E-03     4.77188E-03     70.8337E+06     63.1587E+06     22.9669E+06     66.3161E+06     23.8381E+06     66.8051E+06    -5.48460E+06         24.6609
             233     501.912E-09     107.603E-03     214.137E-03     79.7543E-03    -620.143E-03     77.7003E-03    -553.167E-03     149.215E-03    -408.547E-03     76.0369E-03    -37.7602E-03    -38.2737E-03    -38.2300E-03     75.9932E-03    -37.7602E-03     4.43482E-03     65.6625E+06     57.6676E+06    -3.17814E+06     61.0189E+06    -2.18093E+06     61.3141E+06    -7.15336E+06         25.7470
             234    -144.270E-09     106.519E-03     249.798E-03     91.4732E-03    -683.041E-03     38.5731E-03    -630.141E-03     249.798E-03    -378.583E-03     88.0034E-03    -43.8117E-03    -44.1877E-03    -44.1613E-03     87.9770E-03    -43.8117E-03     3.63868E-03     65.0945E+06     57.1904E+06    -26.7048E+06     61.1825E+06    -26.3484E+06     60.7461E+06    -5.58969E+06         26.6960
             235     468.002E-09     105.419E-03     306.147E-03     87.7044E-03    -763.947E-03    -36.0711E-03    -640.172E-03     306.147E-03    -590.720E-03     98.5118E-03    -48.8542E-03    -49.6545E-03    -49.6368E-03     98.4941E-03    -48.8542E-03     3.24138E-03     61.4569E+06     54.4829E+06    -48.5311E+06     57.6057E+06    -48.2356E+06     58.0386E+06    -5.53664E+06         27.4745
             236     713.541E-09     104.312E-03     419.664E-03     143.517E-03    -963.452E-03    -43.3550E-03    -776.580E-03     419.664E-03    -828.277E-03     106.258E-03    -52.6893E-03    -53.5661E-03    -53.5556E-03     106.247E-03    -52.6893E-03     2.30221E-03     46.2273E+06     40.5691E+06    -70.2898E+06     43.5964E+06    -69.8988E+06     42.8090E+06    -6.51906E+06         28.0548
             237    -258.151E-09     103.196E-03     530.370E-03     192.202E-03        -1.12060    -43.5558E-03    -884.846E-03     530.370E-03        -1.00490     110.602E-03    -54.9360E-03    -55.6640E-03    -55.6598E-03     110.598E-03    -54.9360E-03     1.60364E-03     32.9291E+06     27.4046E+06    -94.0762E+06     30.3478E+06    -93.7347E+06     29.6444E+06    -6.06067E+06         28.4331
             238     1.16526E-06     102.077E-03     543.019E-03     153.366E-03        -1.10034    -140.761E-03    -806.208E-03     543.019E-03        -1.05750     112.712E-03    -56.0943E-03    -56.6165E-03    -56.6125E-03     112.708E-03    -56.0943E-03     1.55653E-03     13.0672E+06     7.31572E+06    -116.293E+06     10.4511E+06    -116.144E+06     9.78249E+06    -4.33084E+06         28.6601
             239    -1.09821E-06     100.960E-03     659.517E-03     201.654E-03        -1.29340    -200.947E-03    -890.803E-03     659.517E-03        -1.32637     114.157E-03    -56.8447E-03    -57.3114E-03    -56.8618E-03     114.155E-03    -57.2927E-03     1.03253E-03    -3.22864E+06    -7.25631E+06    -132.903E+06    -6.03544E+06    -132.563E+06    -4.78954E+06    -6.39428E+06         28.8017
             240     234.745E-09     99.8375E-03     827.239E-03     284.965E-03        -1.56625    -227.549E-03        -1.05374     827.239E-03        -1.65622     116.098E-03    -57.2479E-03    -58.8482E-03    -58.3993E-03     116.097E-03    -57.6959E-03     354.831E-06    -23.6469E+06    -25.3124E+06    -154.488E+06    -23.9589E+06    -154.175E+06    -25.3124E+06    -6.03957E+06         28.8924
             241     1.93656E-06     98.7149E-03     856.398E-03     388.250E-03        -1.71588    -310.089E-03        -1.01754     856.398E-03        -1.97272     117.267E-03    -57.9950E-03    -59.2707E-03    -59.2692E-03     117.266E-03    -57.9950E-03     569.815E-06    -39.5116E+06    -40.2383E+06    -171.326E+06    -40.2245E+06    -171.236E+06    -39.6162E+06    -3.41953E+06         28.9397
             242    -1.69014E-06     97.5889E-03     996.263E-03     496.682E-03        -1.99935    -376.785E-03        -1.12588     996.263E-03        -2.37902     116.657E-03    -58.1435E-03    -58.5114E-03    -58.2650E-03     116.655E-03    -58.3879E-03     1.13449E-03    -51.8810E+06    -52.5537E+06    -186.110E+06    -52.6725E+06    -185.941E+06    -51.9315E+06    -4.50736E+06         28.9530
             243     1.23971E-06     96.4663E-03         1.13681     568.074E-03        -2.21746    -399.244E-03        -1.25014         1.13681        -2.65114     116.224E-03    -57.7095E-03    -58.5143E-03    -58.2660E-03     116.221E-03    -57.9539E-03     1.49815E-03    -68.9280E+06    -70.9861E+06    -207.227E+06    -69.1190E+06    -207.036E+06    -70.9861E+06    -4.99074E+06         28.9550
             244    -208.519E-09     95.3464E-03         1.20431     602.203E-03        -2.34370    -488.800E-03        -1.25270         1.20431        -2.84454     116.713E-03    -57.8894E-03    -58.8280E-03    -58.8240E-03     116.709E-03    -57.8894E-03     614.744E-06    -74.3096E+06    -78.1388E+06    -222.734E+06    -76.1982E+06    -222.667E+06    -76.3171E+06    -2.89356E+06         28.9602
             245     941.558E-09     94.2222E-03         1.36317     623.171E-03        -2.53811    -610.623E-03        -1.30432         1.36317        -3.08355     116.960E-03    -58.0871E-03    -58.8740E-03    -58.8726E-03     116.958E-03    -58.0871E-03     92.9149E-06    -79.3461E+06    -81.9334E+06    -233.113E+06    -81.3003E+06    -232.981E+06    -80.1117E+06    -3.95271E+06         28.9632
             246    -174.303E-09     93.0989E-03         1.48268     689.572E-03        -2.74843    -663.227E-03        -1.39563         1.48268        -3.35881     116.699E-03    -57.9671E-03    -58.7322E-03    -58.7312E-03     116.698E-03    -57.9671E-03     731.349E-06    -85.7021E+06    -86.7754E+06    -246.194E+06    -85.8264E+06    -246.070E+06    -86.7754E+06    -3.45789E+06         28.9584
             247     849.697E-09     91.9754E-03         1.61011     682.794E-03        -2.88669    -689.673E-03        -1.51422         1.61011        -3.47287     116.419E-03    -57.9866E-03    -58.4375E-03    -58.4362E-03     116.418E-03    -57.9866E-03     829.296E-06    -89.6568E+06    -90.9011E+06    -258.745E+06    -90.6573E+06    -258.681E+06    -89.9646E+06    -2.67262E+06         28.9530
             248    -660.569E-09     90.8556E-03         1.77760     640.095E-03        -3.01871    -800.056E-03        -1.57856         1.77760        -3.57391     116.725E-03    -58.1028E-03    -58.6238E-03    -58.6222E-03     116.724E-03    -58.1028E-03     303.062E-06    -87.9652E+06    -90.1937E+06    -268.141E+06    -88.9806E+06    -268.062E+06    -89.2571E+06    -3.55692E+06         28.9515
             249     1.44834E-06     89.7310E-03         1.84771     653.460E-03        -3.11259    -944.923E-03        -1.51421         1.84771        -3.71999     116.570E-03    -57.8628E-03    -58.7044E-03    -58.7036E-03     116.570E-03    -57.8628E-03     50.4760E-06    -90.2881E+06    -92.3516E+06    -272.511E+06    -91.0966E+06    -272.474E+06      -91.58E+06     116.375E+03         28.9470
             250    -657.769E-09     88.6088E-03         2.01250     622.208E-03        -3.26343        -1.02397        -1.61726         2.01250        -3.83715     116.277E-03    -57.8981E-03    -58.3786E-03    -58.3107E-03     116.274E-03    -57.9633E-03     1.28631E-03    -87.9271E+06    -88.8861E+06    -272.927E+06    -88.9121E+06    -272.901E+06    -87.9271E+06     627.077E+03         28.9387
             251     537.806E-09     87.4862E-03         2.25148     545.000E-03        -3.46996        -1.10906        -1.81591         2.25148        -3.95185     116.563E-03    -58.0135E-03    -58.5488E-03    -58.4805E-03     116.560E-03    -58.0787E-03     1.44451E-03    -84.0356E+06    -86.0703E+06    -274.644E+06    -84.2284E+06    -274.638E+06    -85.8829E+06    -784.135E+03         28.9353
             252     328.612E-09     86.3629E-03         2.33670     585.382E-03        -3.61440        -1.27000        -1.75902         2.33670        -4.16697     116.032E-03    -57.6943E-03    -58.3346E-03    -58.3336E-03     116.031E-03    -57.6943E-03     751.735E-06    -82.5092E+06    -85.4350E+06    -274.436E+06    -83.5936E+06    -274.430E+06    -84.3565E+06     693.475E+03         28.9364
             253     7.83849E-09     85.2449E-03         2.46887     586.303E-03        -3.76245        -1.37721        -1.79894         2.46887        -4.32704     115.684E-03    -57.7501E-03    -57.9356E-03    -57.9355E-03     115.684E-03    -57.7501E-03     242.592E-06    -77.7131E+06    -80.6632E+06    -271.686E+06    -78.7988E+06    -271.679E+06    -79.5848E+06     1.10152E+06         28.9383
             254    -3.54383E-09     84.1205E-03         2.66103     477.303E-03        -3.85527        -1.45183        -1.92614         2.66103        -4.30627     116.168E-03    -57.8636E-03    -58.3051E-03    -58.3042E-03     116.167E-03    -57.8636E-03     608.861E-06    -74.7554E+06    -78.5660E+06    -268.450E+06    -76.6957E+06    -268.449E+06    -76.6270E+06     271.422E+03         28.9455
             255     832.606E-09     82.9983E-03         2.80355     447.911E-03        -4.00637        -1.61340        -1.94506         2.80355        -4.44072     116.749E-03    -57.8705E-03    -58.8751E-03    -58.8723E-03     116.746E-03    -57.8705E-03     1.39035E-03    -73.2645E+06    -75.8524E+06    -269.229E+06    -75.2043E+06    -269.228E+06    -73.9134E+06    -333.081E+03         28.9580
             256     251.785E-09     81.8757E-03         2.93723     462.679E-03        -4.16316        -1.73803        -1.96245         2.93723        -4.62036     116.764E-03    -58.0223E-03    -58.7402E-03    -58.5987E-03     116.762E-03    -58.1618E-03     752.614E-06    -73.7335E+06    -75.1054E+06    -271.934E+06    -74.4577E+06    -271.933E+06    -74.3824E+06    -28.6545E+03         28.9657
             257    -503.357E-09     80.7541E-03         3.05946     486.337E-03        -4.33269        -1.84434        -2.00202         3.05946        -4.81611     116.234E-03    -57.8356E-03    -58.4003E-03    -58.2607E-03     116.234E-03    -57.9751E-03     81.8356E-06    -74.3328E+06    -75.7222E+06    -273.117E+06    -75.0631E+06    -273.110E+06    -74.9992E+06    -591.447E+03         28.9676
             258     1.30233E-06     79.6315E-03         3.18576     495.608E-03        -4.50974        -1.92090        -2.09323         3.18576        -5.00195     116.360E-03    -57.7252E-03    -58.6358E-03    -58.6355E-03     116.359E-03    -57.7252E-03     450.839E-06    -73.9390E+06    -75.3179E+06    -273.272E+06    -74.6591E+06    -273.264E+06    -74.6054E+06    -1.12407E+06         28.9714
             259    -378.096E-09     78.5101E-03         3.29071     495.621E-03        -4.61144        -1.96817        -2.14765         3.29071        -5.10353     116.631E-03    -57.9367E-03    -58.6962E-03    -58.6956E-03     116.630E-03    -57.9367E-03    -76.8950E-06    -76.1902E+06    -77.4315E+06    -275.997E+06    -76.9097E+06    -275.990E+06    -76.7190E+06    -1.08298E+06         28.9761
             260     890.134E-09     77.3873E-03         3.36348     588.518E-03        -4.78938        -2.05861        -2.14225         3.36348        -5.37710     116.589E-03    -57.9469E-03    -58.6454E-03    -58.6440E-03     116.587E-03    -57.9469E-03     253.341E-06    -78.8673E+06    -79.4740E+06    -278.823E+06    -78.8756E+06    -278.815E+06    -79.4740E+06    -310.018E+03         28.9785
             261    -84.6527E-09     76.2635E-03         3.42098     787.237E-03        -5.06932        -2.06213        -2.21995         3.42098        -5.85351     116.444E-03    -57.9385E-03    -58.5041E-03    -58.5027E-03     116.442E-03    -57.9385E-03     954.067E-06    -75.0434E+06    -75.2797E+06    -273.887E+06    -75.0501E+06    -273.881E+06    -75.2797E+06     1.13570E+06         28.9818
             262     350.683E-09     75.1424E-03         3.44680     961.414E-03        -5.28691        -2.07402        -2.25148         3.44680        -6.24509     116.480E-03    -57.8328E-03    -58.6451E-03    -58.6447E-03     116.480E-03    -57.8328E-03     343.396E-06    -70.0419E+06    -70.3738E+06    -269.428E+06    -70.2223E+06    -269.421E+06    -70.2003E+06     1.15618E+06         28.9828
             263     922.782E-09     74.0208E-03         3.43473         1.17878        -5.49091        -2.10934        -2.20279         3.43473        -6.66903     116.507E-03    -57.7832E-03    -58.7275E-03    -58.4543E-03     116.507E-03    -58.0563E-03     197.978E-06    -72.3858E+06    -73.0400E+06    -269.831E+06    -73.0523E+06    -269.818E+06    -72.3858E+06    -485.591E+03         28.9728
             264    -1.42735E-06     72.8968E-03         3.45664         1.46567        -5.80534        -2.10101        -2.23866         3.45664        -7.26964     116.129E-03    -57.8821E-03    -58.2520E-03    -57.9787E-03     116.129E-03    -58.1551E-03     404.354E-06    -73.4165E+06    -75.8049E+06    -270.565E+06    -73.9127E+06    -270.550E+06    -75.3242E+06    -224.892E+03         28.9548
             265     1.58905E-06     71.7754E-03         3.45209         1.72769        -6.09731        -2.07027        -2.29935         3.45209        -7.82151     115.979E-03    -57.6447E-03    -58.3345E-03    -58.3334E-03     115.978E-03    -57.6447E-03     798.843E-06    -70.6780E+06    -74.3750E+06    -269.590E+06    -72.4867E+06    -269.570E+06    -72.5856E+06     1.91060E+06         28.9453
             266    -439.630E-09     70.6539E-03         3.42396         2.04953        -6.41552        -1.97122        -2.39477         3.42396        -8.45358     116.232E-03    -57.7780E-03    -58.4482E-03    -58.3693E-03     116.231E-03    -57.8553E-03     1.05383E-03    -67.7610E+06    -70.0690E+06    -265.185E+06    -69.5678E+06    -265.167E+06    -68.2797E+06     1.75760E+06         28.9512
             267     295.289E-09     69.5313E-03         3.37106         2.42550        -6.76656        -1.89599        -2.44507         3.37106        -9.17558     116.472E-03    -57.9375E-03    -58.5256E-03    -58.4471E-03     116.471E-03    -58.0148E-03     898.626E-06    -69.6764E+06    -70.6922E+06    -266.042E+06    -70.1916E+06    -266.024E+06    -70.1951E+06    -587.739E+03         28.9591
             268     684.551E-09     68.4080E-03         3.24097         2.87082        -7.10639        -1.83585        -2.37003         3.21129        -9.99259     116.156E-03    -57.5328E-03    -58.6191E-03    -58.6185E-03     116.155E-03    -57.5328E-03     374.414E-06    -71.6426E+06     -72.793E+06    -266.851E+06    -72.1639E+06    -266.827E+06    -72.2959E+06    -214.929E+03         28.9588
             269     394.503E-09     67.2897E-03         3.39383         3.11204        -7.50059        -1.71762        -2.38914         3.11204        -10.8731     115.889E-03    -57.6051E-03    -58.2845E-03    -58.1805E-03     115.888E-03    -57.7090E-03    -201.654E-06    -69.1500E+06    -70.2150E+06    -263.403E+06    -69.5818E+06    -263.383E+06    -69.8033E+06     -30.643E+03         28.9608
             270    -580.768E-09     66.1656E-03         3.84830         3.04491        -7.88691        -1.56721        -2.47140         3.04491        -11.7002     116.275E-03    -57.9014E-03    -58.3751E-03    -58.2707E-03     116.274E-03    -58.0053E-03     245.712E-06    -71.5653E+06    -72.8902E+06    -265.315E+06    -72.9057E+06    -265.299E+06    -71.5653E+06    -1.69910E+06         28.9720
             271     1.29354E-06     65.0426E-03         4.32607         2.87249        -8.20063        -1.46417        -2.41039         2.87249        -12.4906     116.827E-03    -57.9221E-03    -58.9001E-03    -58.8986E-03     116.825E-03    -57.9221E-03     992.469E-06    -73.3927E+06    -75.6107E+06    -268.053E+06    -74.3110E+06    -268.048E+06    -74.6976E+06    -762.082E+03         28.9819
             272    -156.529E-09     63.9207E-03         4.80352         2.74788        -8.57949        -1.33484        -2.44113         2.74788        -13.3361     117.075E-03    -58.2102E-03    -58.8553E-03    -58.8533E-03     117.073E-03    -58.2102E-03     1.18761E-03    -71.8539E+06    -74.2672E+06    -268.443E+06    -72.9676E+06    -268.438E+06    -73.1588E+06     644.690E+03         28.9817
             273     245.646E-09     62.7955E-03         5.23083         2.70434        -8.98781        -1.15293        -2.60405         2.70434        -14.1441     116.308E-03    -58.1232E-03    -58.1812E-03    -58.1591E-03     116.307E-03    -58.1442E-03     534.551E-06    -71.8418E+06    -75.4200E+06    -269.036E+06    -72.9613E+06    -269.025E+06    -74.3115E+06    -55.3137E+03         28.9727
             274     16.0515E-03     61.1673E-03     739.972E-03     718.884E-03        -2.54124     735.348E-03        -2.54069     722.963E-03     1.40656E-03     138.846E-03    -58.1540E-03    -80.7421E-03    -56.2452E-03     114.349E-03    -58.1540E-03     129.372E-03     153.875E+06     125.397E+06    -7.94006E+06    -7.88445E+06     153.820E+06     125.397E+06     44.6409E+03         55.3777
             275     15.1051E-03     60.9536E-03     739.005E-03     722.834E-03        -2.54219     738.449E-03        -2.54164     722.834E-03     1.76277E-03     147.032E-03    -58.1084E-03    -89.0189E-03    -57.2738E-03     115.287E-03    -58.1084E-03     159.331E-03     147.621E+06     101.095E+06    -14.4591E+06    -14.3545E+06     147.517E+06     101.095E+06    -1.51164E+06         52.2885
             276     14.1622E-03     60.8094E-03     734.671E-03     722.632E-03        -2.53395     734.325E-03        -2.53361     722.632E-03     32.5549E-03     128.353E-03    -57.9544E-03    -70.5141E-03    -56.9660E-03     114.805E-03    -57.9544E-03     96.4571E-03     136.451E+06     57.3568E+06    -21.1524E+06    -21.0471E+06     136.345E+06     57.3568E+06    -620.512E+03         48.2806
             277     13.2162E-03     60.7409E-03     736.342E-03     722.179E-03        -2.53856     736.227E-03        -2.53845     722.179E-03    -27.1606E-03     118.480E-03    -57.7915E-03    -60.7498E-03    -56.0600E-03     113.790E-03    -57.7915E-03     56.7797E-03     123.019E+06     18.0379E+06    -24.7863E+06    -24.7437E+06     122.977E+06     18.0379E+06     466.447E+03         44.0584
             278     12.2712E-03     60.6846E-03     743.373E-03     721.079E-03        -2.54680     743.204E-03        -2.54663     721.079E-03     9.79676E-03     116.771E-03    -57.7745E-03    -59.0289E-03    -56.6411E-03     114.383E-03    -57.7745E-03     39.4749E-03     70.0029E+06    -7.20335E+06    -26.4784E+06    -26.4747E+06     69.9992E+06    -7.20335E+06     367.228E+03         40.2821
             279     11.3274E-03     60.6540E-03     733.737E-03     719.274E-03        -2.53730     733.027E-03        -2.53714     719.821E-03     44.0452E-03     115.918E-03    -57.8242E-03    -58.1287E-03    -57.0457E-03     114.894E-03    -57.8830E-03     26.4422E-03     9.43455E+06    -22.4867E+06    -35.6475E+06    -28.4637E+06    -9.68913E+06    -10.5468E+06     420.043E+03         37.1682
             280     10.3828E-03     60.6279E-03     726.767E-03     718.506E-03        -2.53139     725.982E-03        -2.53115     719.053E-03    -16.5978E-03     115.920E-03    -57.8458E-03    -58.0531E-03    -57.2178E-03     115.231E-03    -57.9927E-03     21.7710E-03    -4.27098E+06    -30.7006E+06    -66.7268E+06    -30.7660E+06    -66.6614E+06    -4.27098E+06     393.126E+03         34.7497
             281     9.43888E-03     60.6065E-03     727.806E-03     718.407E-03        -2.53061     726.665E-03        -2.52947     718.407E-03     42.7599E-03     115.948E-03    -57.8025E-03    -58.1196E-03    -57.4201E-03     115.520E-03    -58.0736E-03     16.9317E-03    -2.59248E+06    -33.5834E+06    -105.024E+06    -33.5956E+06    -105.012E+06    -2.59248E+06     402.951E+03         33.0599
             282     8.49504E-03     60.5923E-03     724.381E-03     716.720E-03        -2.52414     720.073E-03        -2.52105     717.940E-03    -40.0148E-03     115.662E-03    -57.5364E-03    -58.1464E-03    -57.3078E-03     115.433E-03    -58.1464E-03     12.5223E-03    -4.30006E+06    -36.5469E+06    -135.553E+06    -36.5583E+06    -135.542E+06    -4.30006E+06     482.876E+03         31.9765
             283     7.54986E-03     60.5808E-03     731.505E-03     713.082E-03        -2.52618     717.829E-03        -2.51730     717.875E-03     91.9352E-03     115.721E-03    -57.5245E-03    -58.2288E-03    -57.3740E-03     115.570E-03    -58.2288E-03     10.1332E-03    -9.26212E+06    -40.2674E+06    -162.688E+06    -40.2753E+06    -162.680E+06    -9.26212E+06     263.011E+03         31.2106
             284     6.60585E-03     60.5713E-03     745.353E-03     714.243E-03        -2.54042     719.081E-03        -2.51772     717.816E-03    -113.717E-03     116.077E-03    -57.8091E-03    -58.3000E-03    -57.7234E-03     115.991E-03    -58.3000E-03     7.58743E-03    -15.3986E+06    -44.9153E+06    -187.048E+06    -44.9208E+06    -187.042E+06    -15.3986E+06     400.559E+03         30.6007
             285     5.66204E-03     60.5650E-03     771.716E-03     717.231E-03        -2.56771     723.262E-03        -2.51926     717.231E-03     141.008E-03     116.248E-03    -57.9374E-03    -58.3448E-03    -57.8934E-03     116.204E-03    -58.3448E-03     5.46182E-03    -22.8061E+06    -49.8538E+06    -209.755E+06    -49.8573E+06    -209.752E+06    -22.8061E+06     556.407E+03         30.1252
             286     4.71797E-03     60.5603E-03     823.185E-03     715.703E-03        -2.61958     726.084E-03        -2.52248     715.703E-03    -196.887E-03     116.483E-03    -58.1358E-03    -58.3765E-03    -58.1133E-03     116.460E-03    -58.3765E-03     3.87233E-03    -29.9691E+06    -54.3120E+06    -231.881E+06    -54.3191E+06    -231.874E+06    -29.9691E+06     814.523E+03         29.7577
             287     3.77483E-03     60.5572E-03     960.394E-03     712.391E-03        -2.75700     730.699E-03        -2.52731     712.391E-03     428.773E-03     116.648E-03    -58.2804E-03    -58.3872E-03    -58.2997E-03     116.639E-03    -58.3585E-03     2.42453E-03    -39.5505E+06    -59.5674E+06    -248.599E+06    -59.5867E+06    -248.580E+06    -39.5505E+06     1.52134E+06         29.4718
             288     2.83145E-03     60.5559E-03         1.30189     703.335E-03        -3.09167     743.932E-03        -2.53371     703.335E-03    -699.262E-03     116.569E-03    -58.2312E-03    -58.3532E-03    -58.2844E-03     116.565E-03    -58.2963E-03     1.52611E-03    -50.4963E+06    -64.5648E+06    -255.869E+06    -64.5872E+06    -255.847E+06    -50.4963E+06     1.73080E+06         29.2520
             289     1.88757E-03     60.5540E-03         2.13713     690.026E-03        -3.91119     716.139E-03        -2.49019     690.026E-03         1.47449     116.354E-03    -58.0787E-03    -58.2866E-03    -58.1052E-03     116.353E-03    -58.2584E-03     973.284E-06    -60.6652E+06    -68.1242E+06    -261.379E+06    -68.1337E+06    -261.369E+06    -60.6652E+06     1.00860E+06         29.0953
             290     942.751E-06     60.5546E-03         4.44037         1.56154        -7.08309    -194.962E-03        -2.44776         1.56154        -4.61221     116.452E-03    -57.9553E-03    -58.5005E-03    -58.3309E-03     116.451E-03    -58.1241E-03     543.281E-06    -68.9679E+06    -71.5433E+06    -265.777E+06    -71.5537E+06    -265.767E+06    -68.9679E+06     360.483E+03         29.0016
             291     16.0551E-03     60.0529E-03     759.581E-03     729.172E-03        -2.59078     758.924E-03        -2.59012     729.172E-03    -6.31267E-03     139.731E-03    -58.1025E-03    -81.7135E-03    -56.9486E-03     114.966E-03    -58.1025E-03     129.037E-03     155.060E+06     125.752E+06    -6.78860E+06    -6.69547E+06     154.966E+06     125.752E+06    -498.497E+03         55.3549
             292     15.1072E-03     59.8290E-03     740.592E-03     728.991E-03        -2.56627     739.912E-03        -2.56559     728.991E-03    -5.44629E-03     147.263E-03    -58.0342E-03    -89.3385E-03    -57.0026E-03     114.927E-03    -58.0342E-03     160.640E-03     147.442E+06     99.6819E+06    -14.2140E+06    -14.1439E+06     147.372E+06     99.6819E+06    -193.396E+03         52.2742
             293     14.1609E-03     59.6881E-03     739.852E-03     729.247E-03        -2.56329     739.397E-03        -2.56284     729.247E-03     12.4940E-03     127.648E-03    -57.9126E-03    -69.8433E-03    -56.4524E-03     114.257E-03    -57.9126E-03     95.6896E-03     135.787E+06     56.4367E+06    -20.8706E+06    -20.8314E+06     135.748E+06     56.4367E+06    -210.150E+03         48.2740
             294     13.2173E-03     59.6173E-03     751.694E-03     728.646E-03        -2.57687     751.426E-03        -2.57660     728.646E-03    -59.1294E-03     118.661E-03    -57.7680E-03    -60.9631E-03    -56.2896E-03     113.987E-03    -57.7680E-03     56.6203E-03     123.045E+06     17.4672E+06    -25.7768E+06    -25.7537E+06     123.022E+06     17.4672E+06    -34.9556E+03         44.0558
             295     12.2726E-03     59.5639E-03     754.140E-03     727.146E-03        -2.57660     753.960E-03        -2.57642     727.146E-03    -13.9115E-03     116.485E-03    -57.6740E-03    -58.8481E-03    -56.4071E-03     114.114E-03    -57.7443E-03     39.5668E-03     69.6447E+06    -8.95624E+06    -28.9226E+06    -28.9020E+06     69.6242E+06    -8.95624E+06     762.307E+03         40.2809
             296     11.3272E-03     59.5305E-03     744.794E-03     725.038E-03        -2.56618     744.134E-03        -2.56607     725.585E-03     26.4106E-03     115.743E-03    -57.8021E-03    -57.9757E-03    -56.8246E-03     114.662E-03    -57.8723E-03     26.9987E-03     8.99992E+06    -23.6021E+06    -36.4364E+06    -30.1117E+06    -9.10088E+06    -11.8260E+06     552.324E+03         37.1674
             297     10.3835E-03     59.5065E-03     738.960E-03     723.808E-03        -2.56113     737.976E-03        -2.56069     724.356E-03    -35.8787E-03     115.868E-03    -57.7865E-03    -58.0643E-03    -57.1590E-03     115.172E-03    -57.9954E-03     21.9177E-03    -5.71582E+06    -31.7865E+06    -66.6994E+06    -31.8927E+06    -66.5933E+06    -5.71582E+06     323.619E+03         34.7483
             298     9.43841E-03     59.4838E-03     735.515E-03     723.324E-03        -2.55735     733.735E-03        -2.55557     723.324E-03     46.9021E-03     115.686E-03    -57.5673E-03    -58.0978E-03    -57.1223E-03     115.241E-03    -58.0978E-03     17.1879E-03    -3.76882E+06    -34.2646E+06    -105.540E+06    -34.2881E+06    -105.517E+06    -3.76882E+06     364.227E+03         33.0592
             299     8.49385E-03     59.4706E-03     730.682E-03     721.484E-03        -2.55051     725.755E-03        -2.54680     722.704E-03    -27.4910E-03     115.825E-03    -57.6696E-03    -58.1818E-03    -57.4436E-03     115.599E-03    -58.1818E-03     12.4456E-03    -4.87350E+06    -37.5234E+06    -135.464E+06    -37.5429E+06    -135.445E+06    -4.87350E+06     426.646E+03         31.9795
             300     7.55018E-03     59.4589E-03     744.189E-03     720.608E-03        -2.56038     733.818E-03        -2.55122     721.829E-03     89.6110E-03     115.987E-03    -57.7817E-03    -58.2396E-03    -57.6332E-03     115.839E-03    -58.2396E-03     10.0952E-03    -10.0877E+06    -41.6474E+06    -162.196E+06    -41.6589E+06    -162.184E+06    -10.0877E+06     623.901E+03         31.2149
             301     6.60611E-03     59.4487E-03     760.781E-03     719.813E-03        -2.57549     737.915E-03        -2.55263     719.813E-03    -112.867E-03     116.055E-03    -57.7904E-03    -58.2947E-03    -57.7053E-03     115.970E-03    -58.2947E-03     7.54302E-03    -16.2122E+06    -45.8963E+06    -187.511E+06    -45.9025E+06    -187.505E+06    -16.2122E+06     712.079E+03         30.6031
             302     5.66203E-03     59.4430E-03     763.344E-03     719.161E-03        -2.57708     711.676E-03        -2.52542     719.161E-03     157.128E-03     116.241E-03    -57.9342E-03    -58.3409E-03    -57.8921E-03     116.199E-03    -58.3409E-03     5.35732E-03    -22.9370E+06    -50.3198E+06    -209.406E+06    -50.3256E+06    -209.400E+06    -22.9370E+06     837.055E+03         30.1258
             303     4.71840E-03     59.4373E-03     823.972E-03     720.036E-03        -2.63711     717.623E-03        -2.53076     720.036E-03    -214.391E-03     116.391E-03    -58.0467E-03    -58.3758E-03    -58.0250E-03     116.369E-03    -58.3758E-03     3.79064E-03    -31.5758E+06    -55.4855E+06    -232.350E+06    -55.4899E+06    -232.346E+06    -31.5758E+06     788.891E+03         29.7566
             304     3.77435E-03     59.4350E-03     982.190E-03     717.392E-03        -2.79487     740.562E-03        -2.55324     717.392E-03     416.928E-03     116.569E-03    -58.1782E-03    -58.4104E-03    -58.1973E-03     116.559E-03    -58.3817E-03     2.53183E-03    -40.8904E+06    -59.9338E+06    -249.014E+06    -59.9502E+06    -248.997E+06    -40.8904E+06     1.38432E+06         29.4710
             305     2.83078E-03     59.4326E-03         1.33556     711.851E-03        -3.14736     727.831E-03        -2.53963     711.851E-03    -782.413E-03     116.616E-03    -58.2497E-03    -58.3804E-03    -58.2742E-03     116.612E-03    -58.3517E-03     1.59561E-03    -50.4988E+06    -63.6625E+06    -254.429E+06    -63.6783E+06    -254.413E+06    -50.4988E+06     965.567E+03         29.2540
             306     1.88722E-03     59.4329E-03         2.20435     710.831E-03        -4.01612     704.347E-03        -2.51612     710.831E-03         1.46786     116.549E-03    -58.1097E-03    -58.4502E-03    -58.2486E-03     116.548E-03    -58.3101E-03     783.651E-06    -59.0292E+06    -66.8456E+06    -260.224E+06     -66.848E+06    -260.221E+06    -59.0292E+06     223.615E+03         29.1002
             307     943.876E-06     59.4315E-03         4.64369         1.53640        -7.28037    -112.463E-03        -2.52422         1.53640        -4.79442     116.509E-03    -57.8541E-03    -58.6613E-03    -58.5184E-03     116.509E-03    -57.9966E-03     337.559E-06    -66.6809E+06    -69.8550E+06    -264.351E+06    -69.4147E+06    -264.343E+06    -67.1291E+06     268.818E+03         29.0085
             308     16.0504E-03     58.9276E-03     761.445E-03     737.077E-03        -2.61065     760.658E-03        -2.60987     737.077E-03     681.398E-06     140.088E-03    -58.1256E-03    -82.0112E-03    -57.1974E-03     115.275E-03    -58.1256E-03     130.534E-03     155.030E+06     125.289E+06    -7.83524E+06    -7.75544E+06     154.951E+06     125.289E+06    -1.25251E+06         55.3225
             309     15.1087E-03     58.7077E-03     760.128E-03     736.974E-03        -2.60783     759.539E-03        -2.60724     736.974E-03    -13.5280E-03     147.930E-03    -58.0351E-03    -90.0065E-03    -57.7522E-03     115.676E-03    -58.0351E-03     161.233E-03     148.052E+06     100.787E+06    -14.5894E+06    -14.4983E+06     147.960E+06     100.787E+06     198.566E+03         52.2542
             310     14.1628E-03     58.5678E-03     763.829E-03     736.441E-03        -2.61195     763.518E-03        -2.61164     736.441E-03     13.4671E-03     127.668E-03    -57.8976E-03    -69.8801E-03    -56.1428E-03     113.931E-03    -57.8976E-03     97.0921E-03     135.286E+06     55.5858E+06    -21.3135E+06    -21.2709E+06     135.243E+06     55.5858E+06     1.12074E+06         48.2668
             311     13.2168E-03     58.4928E-03     753.757E-03     731.304E-03        -2.59850     749.295E-03        -2.59832     735.588E-03    -43.7709E-03     118.621E-03    -57.7664E-03    -60.9043E-03    -56.0830E-03     113.800E-03    -57.7664E-03     57.2803E-03     122.123E+06     15.3542E+06    -26.5711E+06    -26.5556E+06     122.108E+06     15.3542E+06     1.17013E+06         44.0527
             312     12.2722E-03     58.4437E-03     750.208E-03     730.731E-03        -2.59074     745.849E-03        -2.59067     735.015E-03    -16.6034E-03     116.494E-03    -57.6850E-03    -58.8355E-03    -56.3676E-03     114.096E-03    -57.7553E-03     40.0519E-03     70.1227E+06    -9.55004E+06    -29.2833E+06    -29.2473E+06     70.0867E+06    -9.55004E+06     776.894E+03         40.2785
             313     11.3268E-03     58.4080E-03     757.509E-03     733.886E-03        -2.60143     757.498E-03        -2.60142     733.886E-03     7.51215E-03     115.766E-03    -57.6786E-03    -58.1237E-03    -56.7592E-03     114.609E-03    -57.8867E-03     27.8404E-03     8.33684E+06    -24.4888E+06    -36.6929E+06    -30.6872E+06    -9.15134E+06    -13.0063E+06     286.347E+03         37.1664
             314     10.3824E-03     58.3838E-03     758.162E-03     731.942E-03        -2.60080     757.723E-03        -2.60036     731.942E-03    -49.2517E-03     115.847E-03    -57.7584E-03    -58.0737E-03    -57.1252E-03     115.159E-03    -58.0193E-03     21.7687E-03    -6.56141E+06    -32.5873E+06    -66.6475E+06    -32.7209E+06    -66.5138E+06    -6.56141E+06     101.811E+03         34.7494
             315     9.43825E-03     58.3629E-03     748.258E-03     730.102E-03        -2.58772     746.628E-03        -2.58609     730.102E-03     35.6526E-03     115.837E-03    -57.6962E-03    -58.1198E-03    -57.2600E-03     115.400E-03    -58.1198E-03     17.0374E-03    -4.68474E+06    -35.5029E+06    -105.722E+06    -35.5372E+06    -105.688E+06    -4.68474E+06     129.587E+03         33.0630
             316     8.49388E-03     58.3477E-03     746.037E-03     728.636E-03        -2.58571     742.138E-03        -2.58182     728.636E-03    -45.2700E-03     115.919E-03    -57.7503E-03    -58.1945E-03    -57.5269E-03     115.695E-03    -58.1945E-03     12.3853E-03    -5.82235E+06    -38.8582E+06    -135.490E+06    -38.8786E+06    -135.469E+06    -5.82235E+06     445.129E+03         31.9849
             317     7.55026E-03     58.3360E-03     747.206E-03     726.243E-03        -2.58501     737.740E-03        -2.57662     727.312E-03     60.2227E-03     116.115E-03    -57.9076E-03    -58.2427E-03    -57.7629E-03     115.970E-03    -58.2427E-03     9.95838E-03    -10.7020E+06    -42.8546E+06    -162.230E+06    -42.8680E+06    -162.216E+06    -10.7020E+06     710.670E+03         31.2201
             318     6.60596E-03     58.3273E-03     757.934E-03     725.110E-03        -2.59342     733.882E-03        -2.57044     726.179E-03    -145.398E-03     116.122E-03    -57.8752E-03    -58.2814E-03    -57.7896E-03     116.036E-03    -58.2814E-03     7.63042E-03    -16.9792E+06    -46.7146E+06    -187.545E+06    -46.7226E+06    -187.537E+06    -16.9792E+06     833.619E+03         30.6060
             319     5.66218E-03     58.3195E-03     787.847E-03     724.812E-03        -2.62270     735.314E-03        -2.57017     724.812E-03     147.550E-03     116.182E-03    -57.8990E-03    -58.3216E-03    -57.8557E-03     116.139E-03    -58.3216E-03     5.37291E-03    -23.6037E+06    -50.9763E+06    -209.191E+06    -50.9812E+06    -209.186E+06    -23.6037E+06     767.518E+03         30.1254
             320     4.71829E-03     58.3160E-03     840.592E-03     723.714E-03        -2.67528     726.287E-03        -2.56098     723.714E-03    -249.111E-03     116.297E-03    -57.9610E-03    -58.3674E-03    -57.9402E-03     116.276E-03    -58.3674E-03     3.76905E-03    -31.3796E+06    -55.7914E+06    -231.904E+06    -55.7981E+06    -231.897E+06    -31.3796E+06     1.03114E+06         29.7538
             321     3.77447E-03     58.3120E-03     970.986E-03     726.734E-03        -2.80978     700.662E-03        -2.53946     726.734E-03     435.113E-03     116.463E-03    -58.0917E-03    -58.3886E-03    -58.0818E-03     116.453E-03    -58.3886E-03     2.51978E-03    -41.5350E+06    -60.2181E+06    -248.721E+06    -60.2364E+06    -248.702E+06    -41.5350E+06     186.703E+03         29.4675
             322     2.83074E-03     58.3107E-03         1.35317     735.530E-03        -3.20278     702.424E-03        -2.55204     735.530E-03    -797.774E-03     116.626E-03    -58.2525E-03    -58.3826E-03    -58.2500E-03     116.624E-03    -58.3826E-03     1.20171E-03    -51.3224E+06    -62.9994E+06    -253.843E+06    -63.0131E+06    -253.829E+06    -51.3224E+06    -673.645E+03         29.2527
             323     1.88708E-03     58.3096E-03         2.29935     744.042E-03        -4.15468     732.118E-03        -2.58744     744.042E-03         1.53892     116.694E-03    -58.2206E-03    -58.4797E-03    -58.3597E-03     116.693E-03    -58.3396E-03     813.669E-06    -59.9870E+06    -66.3256E+06    -259.998E+06    -66.3284E+06    -259.995E+06    -59.9870E+06     201.134E+03         29.1032
             324     944.131E-06     58.3091E-03         4.84671         1.51558        -7.47363    -22.0484E-03        -2.60488         1.51558        -4.87783     116.549E-03    -58.0124E-03    -58.5416E-03    -58.4535E-03     116.548E-03    -58.0997E-03     661.596E-06    -66.3876E+06    -69.8205E+06    -263.886E+06    -69.3850E+06    -263.873E+06    -66.8357E+06     155.077E+03         29.0136
             325     16.0516E-03     57.7994E-03     758.397E-03     744.940E-03        -2.62408     757.467E-03        -2.62315     744.940E-03     30.6218E-03     139.372E-03    -58.1470E-03    -81.2646E-03    -56.6610E-03     114.769E-03    -58.1470E-03     130.655E-03     155.099E+06     125.422E+06    -7.93851E+06    -7.88690E+06     155.047E+06     125.422E+06    -689.759E+03         55.2886
             326     15.1062E-03     57.5867E-03     775.153E-03     744.602E-03        -2.64452     774.739E-03        -2.64410     744.602E-03    -1.51739E-03     147.311E-03    -58.0671E-03    -89.3389E-03    -57.4641E-03     115.436E-03    -58.0671E-03     160.066E-03     145.564E+06     97.8673E+06    -17.5190E+06    -17.4324E+06     145.478E+06     97.8673E+06     36.8512E+03         52.2308
             327     14.1612E-03     57.4443E-03     779.515E-03     743.300E-03        -2.64824     779.296E-03        -2.64802     743.300E-03     39.4417E-03     128.243E-03    -57.9366E-03    -70.4129E-03    -56.4400E-03     114.270E-03    -57.9366E-03     98.0579E-03     134.423E+06     54.6118E+06    -23.1720E+06    -23.1221E+06     134.373E+06     54.6118E+06     1.32463E+06         48.2560
             328     13.2165E-03     57.3725E-03     761.238E-03     737.777E-03        -2.62577     756.903E-03        -2.62571     742.061E-03    -10.9724E-03     118.670E-03    -57.8143E-03    -60.8935E-03    -56.0511E-03     113.827E-03    -57.8143E-03     57.4715E-03     122.846E+06     17.1745E+06    -26.2522E+06    -26.2275E+06     122.821E+06     17.1745E+06     1.10875E+06         44.0483
             329     12.2707E-03     57.3202E-03     752.643E-03     737.267E-03        -2.61765     748.219E-03        -2.61751     741.551E-03     10.0034E-03     116.827E-03    -57.7893E-03    -59.0535E-03    -56.6905E-03     114.464E-03    -57.7893E-03     39.5577E-03     70.9854E+06    -8.14278E+06    -28.6908E+06    -28.6442E+06     70.9388E+06    -8.14278E+06     591.940E+03         40.2761
             330     11.3272E-03     57.2866E-03     755.444E-03     740.855E-03        -2.62178     755.243E-03        -2.62158     740.855E-03     43.9802E-03     115.787E-03    -57.6134E-03    -58.2112E-03    -56.8422E-03     114.703E-03    -57.8977E-03     27.0830E-03     8.86246E+06    -24.3351E+06    -36.5806E+06    -30.8872E+06    -8.93637E+06    -12.2297E+06     518.621E+03         37.1664
             331     10.3821E-03     57.2615E-03     756.666E-03     739.617E-03        -2.61976     756.410E-03        -2.61950     739.617E-03    -11.6149E-03     115.715E-03    -57.6689E-03    -58.0289E-03    -56.9885E-03     115.035E-03    -58.0289E-03     21.6111E-03    -6.70384E+06    -33.4728E+06    -66.9155E+06     -33.587E+06    -66.8012E+06    -6.70384E+06     228.705E+03         34.7528
             332     9.43826E-03     57.2401E-03     751.626E-03     738.375E-03        -2.61512     750.545E-03        -2.61404     738.375E-03     46.4392E-03     116.043E-03    -57.8903E-03    -58.1255E-03    -57.4624E-03     115.615E-03    -58.1255E-03     16.9668E-03    -5.01881E+06    -36.2372E+06    -105.431E+06    -36.2762E+06    -105.392E+06    -5.01881E+06         559.875         33.0692
             333     8.49437E-03     57.2258E-03     755.158E-03     737.110E-03        -2.61809     751.110E-03        -2.61404     737.110E-03    -67.2375E-03     115.980E-03    -57.8205E-03    -58.1907E-03    -57.5896E-03     115.749E-03    -58.1907E-03     12.5864E-03    -6.18485E+06    -39.2861E+06    -135.655E+06    -39.3065E+06    -135.634E+06    -6.18485E+06     167.004E+03         31.9903
             334     7.54961E-03     57.2136E-03     758.199E-03     734.653E-03        -2.61783     747.089E-03        -2.60779     735.722E-03     68.4133E-03     116.126E-03    -57.9302E-03    -58.2395E-03    -57.7872E-03     115.983E-03    -58.2395E-03     9.87965E-03    -10.4347E+06    -42.8626E+06    -162.526E+06    -42.8719E+06    -162.517E+06    -10.4347E+06     442.584E+03         31.2240
             335     6.60646E-03     57.2046E-03     765.021E-03     733.713E-03        -2.62493     739.003E-03        -2.59998     734.782E-03    -134.902E-03     116.212E-03    -57.9822E-03    -58.2676E-03    -57.9017E-03     116.132E-03    -58.2676E-03     7.39901E-03    -16.6603E+06    -46.7009E+06    -187.048E+06    -46.7064E+06    -187.043E+06    -16.6603E+06     495.658E+03         30.6089
             336     5.66236E-03     57.1979E-03     799.031E-03     733.629E-03        -2.65889     744.432E-03        -2.60429     733.629E-03     151.089E-03     116.139E-03    -57.8785E-03    -58.2957E-03    -57.8369E-03     116.098E-03    -58.2957E-03     5.27901E-03    -23.7276E+06    -50.5314E+06    -209.349E+06    -50.5328E+06    -209.348E+06    -23.7276E+06     396.286E+03         30.1256
             337     4.71828E-03     57.1931E-03     855.178E-03     732.308E-03        -2.71243     736.930E-03        -2.59418     732.308E-03    -252.806E-03     116.290E-03    -57.9785E-03    -58.3383E-03    -57.9587E-03     116.270E-03    -58.3383E-03     3.63235E-03    -30.7924E+06    -54.2339E+06    -231.223E+06    -54.2395E+06    -231.218E+06    -30.7924E+06     320.429E+03         29.7522
             338     3.77457E-03     57.1900E-03         1.00131     733.859E-03        -2.86149     717.994E-03        -2.57817     733.859E-03     466.789E-03     116.389E-03    -58.0509E-03    -58.3554E-03    -58.0421E-03     116.380E-03    -58.3554E-03     2.38079E-03    -41.1408E+06    -58.5251E+06    -247.276E+06    -58.5419E+06    -247.259E+06    -41.1408E+06    -582.669E+03         29.4649
             339     2.83085E-03     57.1878E-03         1.39245     737.745E-03        -3.26237     726.336E-03        -2.59625     737.745E-03    -776.169E-03     116.484E-03    -58.1271E-03    -58.3674E-03    -58.1239E-03     116.480E-03    -58.3674E-03     1.40767E-03    -52.5617E+06    -63.8828E+06    -255.285E+06    -63.8953E+06    -255.272E+06    -52.5617E+06    -857.285E+03         29.2495
             340     1.88740E-03     57.1874E-03         2.36162     743.662E-03        -4.23391     727.535E-03        -2.59983     743.662E-03         1.63449     116.613E-03    -58.2306E-03    -58.3904E-03    -58.2293E-03     116.612E-03    -58.3904E-03     738.188E-06    -60.9091E+06    -67.2975E+06    -260.228E+06    -67.3001E+06    -260.226E+06    -60.9091E+06     193.560E+03         29.1019
             341     942.629E-06     57.1867E-03         5.05186         1.48217        -7.66291     12.8988E-03        -2.62395         1.48217        -5.04094     116.744E-03    -58.1784E-03    -58.5682E-03    -58.4728E-03     116.743E-03    -58.2731E-03     443.096E-06    -66.4804E+06    -70.2803E+06    -262.810E+06    -69.1698E+06    -262.798E+06    -67.6024E+06     42.4356E+03         29.0146
             342     16.0536E-03     56.6802E-03     777.303E-03     751.677E-03        -2.66560     776.476E-03        -2.66477     751.677E-03     31.5544E-03     139.454E-03    -58.1384E-03    -81.3790E-03    -56.5451E-03     114.620E-03    -58.1384E-03     130.965E-03     155.131E+06     124.743E+06    -7.74347E+06    -7.72270E+06     155.110E+06     124.743E+06     939.049E+03         55.2562
             343     15.1057E-03     56.4647E-03     775.245E-03     751.119E-03        -2.66351     774.943E-03        -2.66321     751.119E-03    -6.28979E-03     146.870E-03    -58.0828E-03    -88.8742E-03    -56.9675E-03     114.963E-03    -58.0828E-03     159.591E-03     144.572E+06     97.4578E+06    -16.2468E+06    -16.2130E+06     144.538E+06     97.4578E+06     888.080E+03         52.2095
             344     14.1609E-03     56.3209E-03     773.012E-03     750.501E-03        -2.66310     772.862E-03        -2.66295     750.501E-03     32.3507E-03     127.975E-03    -57.9616E-03    -70.1199E-03    -56.5071E-03     114.362E-03    -57.9616E-03     96.5590E-03     134.011E+06     54.3683E+06    -22.5719E+06    -22.5312E+06     133.970E+06     54.3683E+06     284.862E+03         48.2475
             345     13.2155E-03     56.2513E-03     780.751E-03     749.219E-03        -2.67026     780.661E-03        -2.67017     749.219E-03    -16.5035E-03     118.796E-03    -57.8213E-03    -61.0320E-03    -56.3218E-03     114.086E-03    -57.8213E-03     56.8674E-03     122.571E+06     16.6296E+06    -27.0065E+06    -26.9633E+06     122.528E+06     16.6296E+06     734.165E+03         44.0464
             346     12.2722E-03     56.1962E-03     771.989E-03     747.524E-03        -2.65994     771.814E-03        -2.65977     747.524E-03    -679.296E-06     116.768E-03    -57.7136E-03    -59.0808E-03    -56.6566E-03     114.422E-03    -57.7916E-03     39.3138E-03     71.2785E+06    -7.71921E+06    -29.0228E+06    -28.9722E+06     71.2278E+06    -7.71921E+06     1.08802E+06         40.2751
             347     11.3272E-03     56.1654E-03     753.920E-03     745.018E-03        -2.64037     752.163E-03        -2.64018     746.580E-03     33.7024E-03     115.724E-03    -57.6826E-03    -58.0795E-03    -56.7724E-03     114.641E-03    -57.9071E-03     27.1630E-03     9.67327E+06    -23.4593E+06    -36.5030E+06    -30.4726E+06    -8.32690E+06    -11.4895E+06     877.878E+03         37.1662
             348     10.3826E-03     56.1394E-03     748.774E-03     743.415E-03        -2.63282     745.359E-03        -2.63255     746.567E-03    -18.7212E-03     115.876E-03    -57.7828E-03    -58.0780E-03    -57.1058E-03     115.157E-03    -58.0366E-03     22.1903E-03    -5.83925E+06    -32.1909E+06    -66.2251E+06    -32.3457E+06    -66.0704E+06    -5.83925E+06     405.448E+03         34.7544
             349     9.43801E-03     56.1177E-03     754.753E-03     744.894E-03        -2.64048     752.102E-03        -2.63942     746.484E-03     45.3519E-03     116.078E-03    -57.9302E-03    -58.1252E-03    -57.5031E-03     115.651E-03    -58.1252E-03     16.9160E-03    -4.64244E+06    -35.6100E+06    -105.098E+06    -35.6457E+06    -105.062E+06    -4.64244E+06    -5.78734E+03         33.0728
             350     8.49374E-03     56.1031E-03     765.561E-03     745.376E-03        -2.65096     762.176E-03        -2.64757     745.376E-03    -51.8855E-03     116.137E-03    -57.9928E-03    -58.1768E-03    -57.7750E-03     115.919E-03    -58.1768E-03     12.2058E-03    -6.02691E+06    -39.3033E+06    -135.780E+06    -39.3246E+06    -135.759E+06    -6.02691E+06    -9.03844E+03         31.9938
             351     7.55067E-03     56.0913E-03     773.621E-03     743.276E-03        -2.65750     763.066E-03        -2.64694     743.276E-03     105.118E-03     116.088E-03    -57.9151E-03    -58.2120E-03    -57.7783E-03     115.951E-03    -58.2120E-03     9.69738E-03    -10.6703E+06    -42.7861E+06    -162.442E+06    -42.7934E+06    -162.435E+06    -10.6703E+06     1.16883E+03         31.2255
             352     6.60620E-03     56.0817E-03     778.812E-03     741.260E-03        -2.66119     752.829E-03        -2.63521     741.260E-03    -114.526E-03     116.110E-03    -57.8993E-03    -58.2435E-03    -57.8195E-03     116.030E-03    -58.2435E-03     7.31547E-03    -16.7088E+06    -46.6381E+06    -187.160E+06    -46.6403E+06    -187.158E+06    -16.7088E+06    -90.2797E+03         30.6094
             353     5.66256E-03     56.0760E-03     792.258E-03     740.999E-03        -2.67350     734.638E-03        -2.61588     740.999E-03     171.043E-03     116.221E-03    -57.9899E-03    -58.2610E-03    -57.9499E-03     116.181E-03    -58.2610E-03     5.23265E-03    -24.0567E+06    -50.7764E+06    -209.087E+06    -50.7783E+06    -209.086E+06    -24.0567E+06     50.6333E+03         30.1258
             354     4.71877E-03     56.0707E-03     859.706E-03     741.704E-03        -2.74069     740.225E-03        -2.62121     741.704E-03    -232.425E-03     116.245E-03    -57.9870E-03    -58.2817E-03    -57.9666E-03     116.224E-03    -58.2817E-03     3.65396E-03    -32.2828E+06    -54.8758E+06    -231.087E+06    -54.8788E+06    -231.084E+06    -32.2828E+06    -398.297E+03         29.7511
             355     3.77505E-03     56.0678E-03         1.03531     738.997E-03        -2.91571     761.983E-03        -2.64238     738.997E-03     460.631E-03     116.264E-03    -57.9779E-03    -58.3010E-03    -57.9698E-03     116.256E-03    -58.3010E-03     2.31880E-03    -41.5178E+06    -58.9860E+06    -247.475E+06    -58.9922E+06    -247.469E+06    -41.5178E+06    -92.5362E+03         29.4625
             356     2.83072E-03     56.0659E-03         1.43308     731.708E-03        -3.30792     758.263E-03        -2.63310     731.708E-03    -827.617E-03     116.348E-03    -58.0361E-03    -58.3239E-03    -58.0328E-03     116.345E-03    -58.3239E-03     1.35583E-03    -52.6343E+06    -64.0026E+06    -254.890E+06    -64.0089E+06    -254.884E+06    -52.6343E+06    -80.3094E+03         29.2456
             357     1.88674E-03     56.0643E-03         2.40834     733.308E-03        -4.28430     709.214E-03        -2.58518     733.308E-03         1.67163     116.550E-03    -58.2092E-03    -58.3498E-03    -58.2081E-03     116.548E-03    -58.3498E-03     607.293E-06    -61.7289E+06    -68.4323E+06    -260.470E+06    -68.4355E+06    -260.467E+06    -61.7289E+06    -609.123E+03         29.0968
             358     944.467E-06     56.0646E-03         5.26919         1.40796        -7.82354     70.3070E-03        -2.62466         1.40796        -5.26764     116.647E-03    -58.2119E-03    -58.4372E-03    -58.4277E-03     116.647E-03    -58.2206E-03     573.012E-06    -67.1084E+06    -71.7872E+06    -262.859E+06    -70.6695E+06    -262.855E+06    -68.2303E+06     494.721E+03         29.0104
             359     16.0505E-03     55.5595E-03     800.698E-03     759.731E-03        -2.71622     800.235E-03        -2.71575     759.731E-03    -4.85628E-03     139.521E-03    -58.1603E-03    -81.4347E-03    -56.5877E-03     114.674E-03    -58.1603E-03     130.808E-03     155.170E+06     125.339E+06    -7.35586E+06    -7.34700E+06     155.161E+06     125.339E+06     837.881E+03         55.2228
             360     15.1075E-03     55.3408E-03     785.604E-03     759.111E-03        -2.69596     785.283E-03        -2.69564     759.111E-03    -15.7670E-03     147.417E-03    -58.0987E-03    -89.4103E-03    -57.2800E-03     115.287E-03    -58.0987E-03     160.519E-03     145.525E+06     100.022E+06    -14.0163E+06    -14.0004E+06     145.509E+06     100.022E+06     1.03889E+06         52.1896
             361     14.1615E-03     55.2010E-03     774.001E-03     759.013E-03        -2.68659     773.806E-03        -2.68640     759.013E-03     2.05344E-03     128.270E-03    -57.9440E-03    -70.4213E-03    -56.7115E-03     114.560E-03    -57.9440E-03     97.0227E-03     133.760E+06     53.7288E+06    -21.3992E+06    -21.3366E+06     133.698E+06     53.7288E+06     1.39522E+06         48.2427
             362     13.2170E-03     55.1265E-03     786.953E-03     758.220E-03        -2.69927     786.759E-03        -2.69908     758.220E-03    -46.7454E-03     118.652E-03    -57.7997E-03    -60.9118E-03    -56.2057E-03     113.946E-03    -57.7997E-03     56.7670E-03     122.494E+06     15.3176E+06    -26.2382E+06    -26.1672E+06     122.423E+06     15.3176E+06     1.54079E+06         44.0465
             363     12.2713E-03     55.0758E-03     786.305E-03     756.540E-03        -2.69716     786.205E-03        -2.69706     756.540E-03    -17.2941E-03     116.377E-03    -57.7197E-03    -58.6936E-03    -56.2654E-03     114.027E-03    -57.7977E-03     39.4045E-03     70.7790E+06    -7.82328E+06    -28.6545E+06    -28.6179E+06     70.7425E+06    -7.82328E+06     1.13880E+06         40.2737
             364     11.3259E-03     55.0426E-03     767.536E-03     753.744E-03        -2.67807     765.931E-03        -2.67803     755.306E-03     13.7907E-03     115.937E-03    -57.8463E-03    -58.1228E-03    -56.9477E-03     114.840E-03    -57.9243E-03     27.2695E-03     9.95421E+06    -22.9846E+06    -35.2346E+06    -29.7665E+06    -7.72670E+06    -10.7718E+06     707.535E+03         37.1642
             365     10.3820E-03     55.0170E-03     764.353E-03     751.674E-03        -2.66958     760.924E-03        -2.66931     754.826E-03    -34.5361E-03     116.192E-03    -58.0007E-03    -58.1710E-03    -57.4532E-03     115.508E-03    -58.0343E-03     21.6871E-03    -4.94721E+06    -31.7378E+06    -64.9566E+06    -31.9023E+06    -64.7921E+06    -4.94721E+06     494.509E+03         34.7524
             366     9.43837E-03     54.9954E-03     772.904E-03     752.300E-03        -2.67872     770.187E-03        -2.67759     753.890E-03     37.0789E-03     116.104E-03    -57.9558E-03    -58.1359E-03    -57.5776E-03     115.691E-03    -58.1012E-03     16.6425E-03    -4.23906E+06    -35.3522E+06    -105.107E+06    -35.3877E+06    -105.072E+06    -4.23906E+06     311.311E+03         33.0706
             367     8.49494E-03     54.9801E-03     773.403E-03     752.154E-03        -2.67968     770.486E-03        -2.67676     752.154E-03    -40.1227E-03     116.003E-03    -57.8917E-03    -58.1473E-03    -57.6778E-03     115.789E-03    -58.1473E-03     12.1020E-03    -5.88636E+06    -38.6732E+06    -135.729E+06    -38.6859E+06    -135.717E+06    -5.88636E+06     107.138E+03         31.9915
             368     7.55046E-03     54.9691E-03     767.750E-03     750.492E-03        -2.67068     758.809E-03        -2.66195     750.708E-03     95.2289E-03     116.009E-03    -57.8630E-03    -58.1844E-03    -57.7255E-03     115.871E-03    -58.1844E-03     9.72668E-03    -11.0208E+06     -42.417E+06    -162.526E+06    -42.4234E+06    -162.519E+06    -11.0208E+06    -230.995E+03         31.2229
             369     6.60662E-03     54.9598E-03     777.982E-03     749.867E-03        -2.68180     752.874E-03        -2.65691     750.083E-03    -140.708E-03     116.059E-03    -57.8760E-03    -58.2164E-03    -57.7946E-03     115.977E-03    -58.2164E-03     7.38826E-03    -17.1296E+06    -46.5976E+06    -187.485E+06    -46.6005E+06    -187.482E+06    -17.1296E+06    -324.279E+03         30.6069
             370     5.66263E-03     54.9531E-03     809.503E-03     749.608E-03        -2.71243     753.754E-03        -2.65668     749.608E-03     157.201E-03     116.158E-03    -57.9533E-03    -58.2371E-03    -57.9124E-03     116.117E-03    -58.2371E-03     5.28615E-03    -23.9833E+06    -50.9075E+06    -208.856E+06    -50.9093E+06    -208.854E+06    -23.9833E+06    -197.252E+03         30.1244
             371     4.71896E-03     54.9487E-03     881.331E-03     747.877E-03        -2.77996     762.136E-03        -2.66077     747.877E-03    -255.257E-03     116.220E-03    -57.9882E-03    -58.2585E-03    -57.9672E-03     116.199E-03    -58.2585E-03     3.72735E-03    -32.0276E+06    -55.8418E+06    -230.927E+06    -55.8472E+06    -230.922E+06    -32.0276E+06     121.904E+03         29.7498
             372     3.77468E-03     54.9457E-03         1.04081     745.098E-03        -2.93894     756.057E-03        -2.65419     745.098E-03     473.372E-03     116.272E-03    -58.0297E-03    -58.2597E-03    -58.0208E-03     116.263E-03    -58.2597E-03     2.44315E-03    -41.8214E+06    -61.0611E+06    -248.050E+06    -61.0699E+06    -248.041E+06    -41.8214E+06     374.931E+03         29.4601
             373     2.83151E-03     54.9433E-03         1.45033     742.033E-03        -3.34772     752.299E-03        -2.64969     742.033E-03    -849.206E-03     116.347E-03    -58.0827E-03    -58.2752E-03    -58.1164E-03     116.343E-03    -58.2380E-03     1.38933E-03    -52.4952E+06    -64.8129E+06    -254.049E+06    -64.8258E+06    -254.037E+06    -52.4952E+06     472.027E+03         29.2412
             374     1.88772E-03     54.9428E-03         2.48528     734.743E-03        -4.37263     757.118E-03        -2.64447     734.743E-03         1.70913     116.315E-03    -58.0637E-03    -58.2590E-03    -58.1000E-03     116.314E-03    -58.2217E-03     612.308E-06    -62.9718E+06    -68.9545E+06    -260.531E+06    -68.9660E+06    -260.519E+06    -62.9718E+06    -225.898E+03         29.0898
             375     942.808E-06     54.9411E-03         5.49144         1.28482        -7.92614     173.280E-03        -2.60797         1.28482        -5.39665     116.390E-03    -58.0599E-03    -58.3308E-03    -58.2464E-03     116.389E-03    -58.1435E-03     660.565E-06    -69.4227E+06    -72.9950E+06    -263.746E+06    -72.2548E+06    -263.736E+06    -70.1726E+06    -684.618E+03         29.0024
             376     16.0529E-03     54.4353E-03     811.173E-03     769.922E-03        -2.74804     810.480E-03        -2.74735     769.922E-03     1.86151E-03     139.272E-03    -58.1538E-03    -81.1856E-03    -56.4946E-03     114.581E-03    -58.1538E-03     129.617E-03     154.306E+06     124.722E+06    -7.93700E+06    -7.93006E+06     154.299E+06     124.722E+06     391.553E+03         55.1915
             377     15.1047E-03     54.2210E-03     806.509E-03     769.129E-03        -2.74043     806.049E-03        -2.73997     769.129E-03    -7.77869E-03     147.366E-03    -58.0842E-03    -89.3759E-03    -57.2712E-03     115.261E-03    -58.0842E-03     160.311E-03     144.579E+06     99.0711E+06    -15.4880E+06    -15.4631E+06     144.554E+06     99.0711E+06     958.593E+03         52.1707
             378     14.1608E-03     54.0754E-03     795.581E-03     768.409E-03        -2.73268     795.272E-03        -2.73237     768.409E-03     9.26044E-03     128.231E-03    -57.9492E-03    -70.3659E-03    -56.7653E-03     114.630E-03    -57.9492E-03     96.7028E-03     133.931E+06     55.8733E+06    -21.5873E+06    -21.5248E+06     133.869E+06     55.8733E+06     2.05473E+06         48.2368
             379     13.2166E-03     54.0059E-03     787.061E-03     767.533E-03        -2.72339     786.908E-03        -2.72323     767.533E-03    -39.6732E-03     118.398E-03    -57.8185E-03    -60.6319E-03    -55.9820E-03     113.748E-03    -57.8185E-03     56.3101E-03     123.182E+06     18.0601E+06    -25.5512E+06    -25.4874E+06     123.118E+06     18.0601E+06     2.02018E+06         44.0451
             380     12.2708E-03     53.9542E-03     788.397E-03     766.409E-03        -2.72456     788.153E-03        -2.72432     766.409E-03     19.8450E-03     116.618E-03    -57.7965E-03    -58.8397E-03    -56.5231E-03     114.301E-03    -57.7965E-03     39.2075E-03     71.6756E+06    -6.62250E+06    -27.8917E+06    -27.8505E+06     71.6344E+06    -6.62250E+06     988.822E+03         40.2720
             381     11.3272E-03     53.9195E-03     785.726E-03     765.001E-03        -2.72072     785.453E-03        -2.72045     765.001E-03     53.4627E-03     116.186E-03    -57.8930E-03    -58.3167E-03    -57.2612E-03     115.131E-03    -57.8930E-03     26.7043E-03     9.95004E+06    -23.1573E+06    -34.9510E+06    -30.0954E+06    -7.22161E+06    -10.8412E+06     511.828E+03         37.1625
             382     10.3833E-03     53.8945E-03     786.178E-03     763.325E-03        -2.71589     785.831E-03        -2.71554     763.325E-03    -23.5248E-03     116.074E-03    -57.9143E-03    -58.1314E-03    -57.4201E-03     115.432E-03    -57.9840E-03     21.0586E-03    -5.11976E+06    -31.8094E+06    -64.4802E+06    -31.9762E+06    -64.3134E+06    -5.11976E+06     760.274E+03         34.7488
             383     9.43916E-03     53.8726E-03     780.445E-03     759.026E-03        -2.70672     776.764E-03        -2.70571     761.701E-03     26.0986E-03     115.886E-03    -57.7702E-03    -58.0951E-03    -57.3901E-03     115.471E-03    -58.0604E-03     16.6639E-03    -3.83934E+06    -34.2174E+06    -104.910E+06    -34.2406E+06    -104.887E+06    -3.83934E+06     523.223E+03         33.0639
             384     8.49436E-03     53.8584E-03     769.057E-03     758.275E-03        -2.69570     763.280E-03        -2.69259     760.950E-03    -57.7426E-03     115.770E-03    -57.6807E-03    -58.1266E-03    -57.4625E-03     115.552E-03    -58.1266E-03     12.2235E-03    -5.55983E+06    -37.8374E+06    -135.937E+06    -37.8442E+06    -135.930E+06    -5.55983E+06     220.964E+03         31.9843
             385     7.55050E-03     53.8465E-03     769.926E-03     760.736E-03        -2.69736     760.727E-03        -2.68838     760.952E-03     85.3192E-03     115.931E-03    -57.7971E-03    -58.1780E-03    -57.6566E-03     115.791E-03    -58.1780E-03     9.81532E-03    -10.4686E+06    -41.8937E+06    -162.259E+06    -41.8986E+06    -162.254E+06    -10.4686E+06     122.444E+03         31.2173
             386     6.60681E-03     53.8375E-03     786.737E-03     760.703E-03        -2.71322     762.833E-03        -2.68953     760.919E-03    -131.806E-03     116.072E-03    -57.8991E-03    -58.2092E-03    -57.8141E-03     115.987E-03    -58.2092E-03     7.60270E-03    -16.8801E+06    -46.1815E+06    -187.165E+06    -46.1850E+06    -187.162E+06    -16.8801E+06    -89.6654E+03         30.6028
             387     5.66278E-03     53.8310E-03     821.968E-03     760.193E-03        -2.74626     767.972E-03        -2.69226     760.193E-03     165.866E-03     116.113E-03    -57.9103E-03    -58.2350E-03    -57.8667E-03     116.069E-03    -58.2350E-03     5.40071E-03    -23.2865E+06    -50.5180E+06    -209.358E+06    -50.5193E+06    -209.356E+06    -23.2865E+06    -72.5734E+03         30.1219
             388     4.71854E-03     53.8262E-03     899.292E-03     758.078E-03        -2.81711     773.230E-03        -2.69105     758.078E-03    -294.325E-03     116.257E-03    -58.0262E-03    -58.2567E-03    -58.0059E-03     116.237E-03    -58.2567E-03     3.68609E-03    -30.9486E+06    -55.4241E+06    -230.895E+06    -55.4283E+06    -230.891E+06    -30.9486E+06     434.251E+03         29.7488
             389     3.77545E-03     53.8234E-03         1.05907     756.494E-03        -2.97472     757.403E-03        -2.67305     756.494E-03     469.090E-03     116.345E-03    -58.1248E-03    -58.2432E-03    -58.1280E-03     116.336E-03    -58.2310E-03     2.41549E-03    -41.5017E+06    -60.8522E+06    -247.284E+06    -60.8569E+06    -247.279E+06    -41.5017E+06     442.080E+03         29.4585
             390     2.83099E-03     53.8214E-03         1.48313     756.822E-03        -3.40247     754.339E-03        -2.67368     756.822E-03    -878.407E-03     116.287E-03    -58.0659E-03    -58.2348E-03    -58.1119E-03     116.283E-03    -58.1853E-03     1.50396E-03    -52.4972E+06    -65.5267E+06    -254.617E+06    -65.5348E+06    -254.608E+06    -52.4972E+06     607.256E+03         29.2373
             391     1.88763E-03     53.8201E-03         2.54889     750.008E-03        -4.46382     778.965E-03        -2.69389     750.008E-03         1.72408     116.233E-03    -57.9763E-03    -58.2644E-03    -58.1073E-03     116.232E-03    -58.1323E-03     715.967E-06    -61.9898E+06    -68.7367E+06    -259.941E+06    -68.7487E+06    -259.929E+06    -61.9898E+06     634.669E+03         29.0832
             392     944.458E-06     53.8205E-03         5.61564         1.22430        -8.00445     261.135E-03        -2.64995         1.22430        -5.41826     116.155E-03    -57.8822E-03    -58.2765E-03    -58.1922E-03     116.153E-03    -57.9645E-03     855.211E-06    -70.0506E+06    -72.5596E+06    -263.868E+06    -71.7457E+06    -263.847E+06    -70.8851E+06     241.126E+03         28.9927
             393     16.0525E-03     53.3192E-03     812.347E-03     779.994E-03        -2.76488     811.144E-03        -2.76368     779.994E-03     33.5330E-03     139.954E-03    -58.1482E-03    -81.8057E-03    -56.9678E-03     115.116E-03    -58.1482E-03     130.082E-03     153.637E+06     125.756E+06    -7.34331E+06    -7.29705E+06     153.590E+06     125.756E+06     755.354E+03         55.1637
             394     15.1078E-03     53.0955E-03     816.952E-03     779.325E-03        -2.77426     816.397E-03        -2.77371     779.325E-03    -4.06598E-03     147.807E-03    -58.0884E-03    -89.7687E-03    -57.4944E-03     115.533E-03    -58.0884E-03     160.974E-03     144.055E+06     102.007E+06    -14.9366E+06    -14.8791E+06     143.998E+06     102.007E+06     1.85449E+06         52.1545
             395     14.1629E-03     52.9553E-03     819.006E-03     778.078E-03        -2.77873     818.723E-03        -2.77845     778.078E-03     27.1037E-03     127.715E-03    -57.9644E-03    -69.8398E-03    -56.2965E-03     114.172E-03    -57.9644E-03     96.3854E-03     133.503E+06     58.0989E+06    -21.8436E+06    -21.8099E+06     133.470E+06     58.0989E+06     1.54965E+06         48.2313
             396     13.2157E-03     52.8831E-03     803.051E-03     776.511E-03        -2.76331     802.961E-03        -2.76322     776.511E-03    -31.7296E-03     118.682E-03    -57.8154E-03    -60.9129E-03    -56.2590E-03     114.028E-03    -57.8154E-03     56.2744E-03     124.052E+06     19.0382E+06    -25.7171E+06    -25.6797E+06     124.014E+06     19.0382E+06     1.24049E+06         44.0437
             397     12.2724E-03     52.8316E-03     791.169E-03     775.408E-03        -2.74809     790.891E-03        -2.74781     775.408E-03     18.9180E-03     117.024E-03    -57.7553E-03    -59.2726E-03    -57.0104E-03     114.762E-03    -57.7553E-03     38.9299E-03     72.9227E+06    -6.28247E+06    -27.5533E+06    -27.4753E+06     72.8447E+06    -6.28247E+06     1.13280E+06         40.2717
             398     11.3277E-03     52.7965E-03     793.201E-03     774.347E-03        -2.74895     792.933E-03        -2.74868     774.347E-03     39.4602E-03     115.932E-03    -57.7105E-03    -58.2479E-03    -57.0531E-03     114.864E-03    -57.8375E-03     26.8607E-03     10.5605E+06    -22.6492E+06    -34.3996E+06    -28.8866E+06    -6.88949E+06    -10.7121E+06     950.041E+03         37.1617
             399     10.3837E-03     52.7724E-03     793.706E-03     772.888E-03        -2.74521     793.370E-03        -2.74488     772.888E-03    -40.5934E-03     115.750E-03    -57.7305E-03    -58.0001E-03    -57.1115E-03     115.079E-03    -57.9479E-03     21.5087E-03    -4.83694E+06    -30.8845E+06    -64.3677E+06    -31.0396E+06    -64.2126E+06    -4.83694E+06     835.800E+03         34.7456
             400     9.43888E-03     52.7508E-03     780.761E-03     769.229E-03        -2.72850     777.162E-03        -2.72757     771.904E-03     21.7842E-03     115.819E-03    -57.7523E-03    -58.0386E-03    -57.3217E-03     115.388E-03    -58.0386E-03     16.9193E-03    -3.53427E+06    -33.7427E+06    -104.517E+06    -33.7646E+06    -104.495E+06    -3.53427E+06     754.562E+03         33.0587
             401     8.49510E-03     52.7363E-03     778.648E-03     769.056E-03        -2.73105     772.962E-03        -2.72804     771.731E-03    -62.6566E-03     115.739E-03    -57.6611E-03    -58.1088E-03    -57.4466E-03     115.524E-03    -58.1088E-03     12.1170E-03    -4.97950E+06     -37.546E+06    -135.738E+06    -37.5539E+06    -135.730E+06    -4.97950E+06     573.662E+03         31.9785
             402     7.55073E-03     52.7244E-03     790.673E-03     771.199E-03        -2.74409     780.319E-03        -2.73374     771.199E-03     107.913E-03     115.794E-03    -57.6683E-03    -58.1678E-03    -57.5289E-03     115.655E-03    -58.1678E-03     9.78063E-03    -9.78295E+06    -41.6417E+06    -161.730E+06    -41.6476E+06    -161.724E+06    -9.78295E+06     445.094E+03         31.2118
             403     6.60624E-03     52.7153E-03     803.451E-03     770.221E-03        -2.75274     776.976E-03        -2.72627     770.221E-03    -124.102E-03     116.002E-03    -57.8255E-03    -58.2134E-03    -57.7411E-03     115.918E-03    -58.2134E-03     7.55093E-03    -16.0366E+06    -45.7763E+06    -186.716E+06    -45.7792E+06    -186.713E+06    -16.0366E+06     258.119E+03         30.5985
             404     5.66264E-03     52.7083E-03     828.457E-03     769.859E-03        -2.77413     769.066E-03        -2.71474     769.859E-03     177.527E-03     116.172E-03    -57.9652E-03    -58.2395E-03    -57.9230E-03     116.130E-03    -58.2395E-03     5.31489E-03    -23.1949E+06    -50.7532E+06    -210.107E+06    -50.7550E+06    -210.105E+06    -23.1949E+06     147.133E+03         30.1195
             405     4.71913E-03     52.7046E-03     891.745E-03     771.047E-03        -2.83406     760.247E-03        -2.70256     771.047E-03    -272.791E-03     116.287E-03    -58.0623E-03    -58.2475E-03    -58.0411E-03     116.266E-03    -58.2475E-03     3.80354E-03    -31.4277E+06    -55.7399E+06    -231.123E+06    -55.7413E+06    -231.122E+06    -31.4277E+06     308.433E+03         29.7476
             406     3.77480E-03     52.7006E-03         1.06661     773.189E-03        -3.01403     764.980E-03        -2.71239     773.189E-03     475.175E-03     116.350E-03    -58.1476E-03    -58.2228E-03    -58.1504E-03     116.341E-03    -58.2106E-03     2.39587E-03    -41.6177E+06    -60.1701E+06    -246.498E+06    -60.1729E+06    -246.495E+06    -41.6177E+06     651.843E+03         29.4575
             407     2.83195E-03     52.6996E-03         1.51970     774.069E-03        -3.47149     775.124E-03        -2.72691     774.069E-03    -921.680E-03     116.233E-03    -58.0655E-03    -58.1828E-03    -58.0749E-03     116.230E-03    -58.1706E-03     1.39546E-03    -52.2444E+06    -64.8913E+06    -254.413E+06    -64.8946E+06    -254.410E+06    -52.2444E+06     696.847E+03         29.2354
             408     1.88735E-03     52.6979E-03         2.57578     779.599E-03        -4.53411     756.865E-03        -2.71520     779.599E-03         1.72269     116.207E-03    -57.9904E-03    -58.2261E-03    -58.0839E-03     116.206E-03    -58.1312E-03     864.858E-06    -61.6896E+06    -69.2081E+06    -259.948E+06    -69.2132E+06    -259.943E+06    -61.6896E+06     839.082E+03         29.0792
             409     943.627E-06     52.6978E-03         5.67835         1.25156        -8.11465     318.478E-03        -2.75479         1.25156        -5.47377     116.146E-03    -57.7625E-03    -58.3869E-03    -58.3376E-03     116.144E-03    -57.8101E-03     775.246E-06    -68.9536E+06    -72.0205E+06    -262.314E+06    -71.9504E+06    -262.299E+06    -69.0383E+06     1.45406E+06         28.9854
             410     16.0506E-03     52.1925E-03     815.454E-03     789.278E-03        -2.79033     814.523E-03        -2.78940     789.278E-03     27.3248E-03     140.164E-03    -58.1758E-03    -81.9867E-03    -57.0812E-03     115.259E-03    -58.1758E-03     131.346E-03     152.424E+06     125.829E+06    -7.74824E+06    -7.67920E+06     152.355E+06     125.829E+06     233.525E+03         55.1386
             411     15.1073E-03     51.9739E-03     818.043E-03     788.997E-03        -2.79812     817.589E-03        -2.79766     788.997E-03    -2.45079E-03     148.140E-03    -58.1160E-03    -90.0640E-03    -57.8772E-03     115.953E-03    -58.1160E-03     161.213E-03     143.141E+06     102.979E+06    -15.2722E+06    -15.1979E+06     143.066E+06     102.979E+06     1.10604E+06         52.1394
             412     14.1602E-03     51.8340E-03     818.123E-03     788.383E-03        -2.79995     817.846E-03        -2.79967     788.383E-03     17.2938E-03     128.189E-03    -57.9654E-03    -70.3036E-03    -56.6298E-03     114.515E-03    -57.9654E-03     96.8974E-03     133.924E+06     59.2290E+06    -20.1390E+06    -20.1060E+06     133.891E+06     59.2290E+06     1.23437E+06         48.2269
             413     13.2172E-03     51.7601E-03     811.887E-03     787.374E-03        -2.79470     811.753E-03        -2.79457     787.374E-03    -41.4345E-03     119.050E-03    -57.7891E-03    -61.2983E-03    -56.6062E-03     114.358E-03    -57.7891E-03     56.7148E-03     124.434E+06     19.8254E+06    -23.8843E+06    -23.8459E+06     124.396E+06     19.8254E+06     964.428E+03         44.0433
             414     12.2727E-03     51.7084E-03     799.492E-03     786.605E-03        -2.77884     799.404E-03        -2.77875     786.605E-03    -9.33888E-03     116.841E-03    -57.7251E-03    -59.1234E-03    -56.8213E-03     114.539E-03    -57.7251E-03     39.1279E-03     73.6960E+06    -5.43813E+06    -26.7946E+06    -26.7211E+06     73.6225E+06    -5.43813E+06     1.54132E+06         40.2710
             415     11.3285E-03     51.6752E-03     799.088E-03     785.992E-03        -2.77754     799.035E-03        -2.77749     785.992E-03    -3.89846E-03     115.654E-03    -57.6411E-03    -58.0452E-03    -56.7751E-03     114.563E-03    -57.8206E-03     27.2008E-03     11.2184E+06    -22.4505E+06    -34.7473E+06    -28.6764E+06    -6.62957E+06    -10.6734E+06     1.64447E+06         37.1600
             416     10.3830E-03     51.6503E-03     803.239E-03     784.930E-03        -2.78011     803.081E-03        -2.77995     784.930E-03    -42.4295E-03     115.719E-03    -57.7454E-03    -57.9570E-03    -57.0568E-03     115.019E-03    -57.9456E-03     21.9073E-03    -4.89130E+06    -31.1440E+06    -64.5886E+06    -31.3908E+06    -64.3418E+06    -4.89130E+06     1.23245E+06         34.7437
             417     9.43924E-03     51.6284E-03     800.721E-03     783.511E-03        -2.77581     800.024E-03        -2.77511     783.511E-03     35.7028E-03     115.895E-03    -57.8292E-03    -58.0423E-03    -57.4112E-03     115.465E-03    -58.0309E-03     16.9620E-03    -3.87820E+06    -34.6625E+06    -104.132E+06    -34.6888E+06    -104.105E+06    -3.87820E+06     1.02603E+06         33.0572
             418     8.49493E-03     51.6139E-03     796.767E-03     780.062E-03        -2.77095     791.592E-03        -2.76804     782.327E-03    -65.4294E-03     115.773E-03    -57.7126E-03    -58.0963E-03    -57.4922E-03     115.553E-03    -58.0963E-03     12.2623E-03    -5.00470E+06    -37.9383E+06    -135.151E+06    -37.9500E+06    -135.139E+06    -5.00470E+06     769.795E+03         31.9767
             419     7.55074E-03     51.6028E-03     793.967E-03     778.210E-03        -2.76648     780.625E-03        -2.75694     782.019E-03     95.9138E-03     115.842E-03    -57.7325E-03    -58.1498E-03    -57.5922E-03     115.701E-03    -58.1498E-03     9.82185E-03    -9.42785E+06    -41.6594E+06    -161.332E+06    -41.6654E+06    -161.326E+06    -9.42785E+06     542.186E+03         31.2094
             420     6.60694E-03     51.5926E-03     811.296E-03     780.718E-03        -2.78498     781.655E-03        -2.75689     782.261E-03    -162.746E-03     115.893E-03    -57.7342E-03    -58.1938E-03    -57.6509E-03     115.810E-03    -58.1938E-03     7.46549E-03    -15.9485E+06    -46.1752E+06    -186.662E+06    -46.1782E+06    -186.659E+06    -15.9485E+06     479.361E+03         30.5953
             421     5.66263E-03     51.5867E-03     854.014E-03     781.594E-03        -2.82369     791.219E-03        -2.76089     781.594E-03     164.215E-03     116.080E-03    -57.8804E-03    -58.2296E-03    -57.8390E-03     116.039E-03    -58.2296E-03     5.31982E-03    -23.7353E+06    -51.0567E+06    -210.054E+06    -51.0593E+06    -210.052E+06    -23.7353E+06     452.509E+03         30.1163
             422     4.71861E-03     51.5818E-03     912.892E-03     780.442E-03        -2.87991     784.474E-03        -2.75150     780.442E-03    -247.427E-03     116.284E-03    -58.0591E-03    -58.2424E-03    -58.0374E-03     116.262E-03    -58.2424E-03     3.79371E-03    -32.0823E+06    -55.7575E+06    -231.392E+06    -55.7601E+06    -231.389E+06    -32.0823E+06     302.313E+03         29.7453
             423     3.77554E-03     51.5789E-03         1.07710     781.033E-03        -3.04886     773.201E-03        -2.74496     781.033E-03     511.741E-03     116.285E-03    -58.0773E-03    -58.2225E-03    -58.0683E-03     116.276E-03    -58.2225E-03     2.43444E-03    -41.6293E+06    -60.3255E+06    -246.556E+06    -60.3304E+06    -246.551E+06    -41.6293E+06     697.135E+03         29.4565
             424     2.83090E-03     51.5770E-03         1.50913     783.558E-03        -3.48436     774.270E-03        -2.74950     783.558E-03    -862.503E-03     116.326E-03    -58.1007E-03    -58.2388E-03    -58.1497E-03     116.323E-03    -58.1862E-03     1.39331E-03    -51.8215E+06    -64.4792E+06    -253.477E+06    -64.4844E+06    -253.472E+06    -51.8215E+06     823.400E+03         29.2353
             425     1.88788E-03     51.5767E-03         2.57800     792.371E-03        -4.56547     763.297E-03        -2.75077     792.371E-03         1.80253     116.268E-03    -58.0494E-03    -58.2270E-03    -58.1587E-03     116.267E-03    -58.1166E-03     779.472E-06    -61.3971E+06    -67.9778E+06    -259.287E+06    -67.9810E+06    -259.284E+06    -61.3971E+06     650.990E+03         29.0787
             426     943.787E-06     51.5750E-03         5.78781         1.21787        -8.20459     381.146E-03        -2.79793         1.21787        -5.56609     116.086E-03    -57.7124E-03    -58.3725E-03    -58.1467E-03     116.085E-03    -57.9378E-03     263.022E-06    -67.5796E+06    -70.7683E+06    -261.842E+06    -69.8940E+06    -261.835E+06    -68.4611E+06     133.770E+03         28.9849
             427     16.0513E-03     51.0665E-03     830.585E-03     799.103E-03        -2.83105     830.153E-03        -2.83062     799.103E-03     7.57414E-03     139.514E-03    -58.1578E-03    -81.3272E-03    -56.6652E-03     114.852E-03    -58.1578E-03     131.123E-03     152.110E+06     124.527E+06    -8.32979E+06    -8.28396E+06     152.064E+06     124.527E+06     448.403E+03         55.1211
             428     15.1054E-03     50.8532E-03     821.721E-03     799.008E-03        -2.82399     821.434E-03        -2.82370     799.008E-03    -6.24051E-03     147.387E-03    -58.0968E-03    -89.3252E-03    -57.7016E-03     115.764E-03    -58.0968E-03     159.452E-03     142.958E+06     100.247E+06    -15.9911E+06    -15.8905E+06     142.857E+06     100.247E+06    -514.861E+03         52.1279
             429     14.1628E-03     50.7089E-03     815.677E-03     799.118E-03        -2.81973     815.501E-03        -2.81955     799.118E-03     18.6920E-03     128.607E-03    -57.9437E-03    -70.7507E-03    -57.1927E-03     115.049E-03    -57.9437E-03     96.5433E-03     133.981E+06     58.3454E+06    -21.1874E+06    -21.1059E+06     133.899E+06     58.3454E+06     80.4168E+03         48.2225
             430     13.2174E-03     50.6389E-03     809.607E-03     799.012E-03        -2.81780     809.532E-03        -2.81772     799.012E-03    -11.0673E-03     118.667E-03    -57.7616E-03    -60.9490E-03    -56.3285E-03     114.046E-03    -57.7616E-03     56.3740E-03     122.930E+06     19.2916E+06    -25.1570E+06    -25.1153E+06     122.888E+06     19.2916E+06     1.49121E+06         44.0419
             431     12.2722E-03     50.5849E-03     814.243E-03     798.546E-03        -2.81893     814.074E-03        -2.81876     798.546E-03     24.5932E-03     116.396E-03    -57.7261E-03    -58.6885E-03    -56.3273E-03     114.035E-03    -57.7261E-03     39.4332E-03     72.9044E+06    -5.63166E+06    -27.8813E+06    -27.8068E+06     72.8299E+06    -5.63166E+06     1.98446E+06         40.2686
             432     11.3273E-03     50.5543E-03     812.540E-03     797.676E-03        -2.81663     812.354E-03        -2.81644     797.676E-03     25.3462E-03     115.856E-03    -57.7837E-03    -58.0987E-03    -56.9575E-03     114.767E-03    -57.8362E-03     27.2043E-03     11.2813E+06    -22.7344E+06    -35.1340E+06    -30.1388E+06    -5.88479E+06    -10.5635E+06     2.02951E+06         37.1579
             433     10.3835E-03     50.5274E-03     811.750E-03     796.621E-03        -2.81627     811.673E-03        -2.81619     796.621E-03    -17.8979E-03     115.915E-03    -57.8045E-03    -58.0791E-03    -57.2423E-03     115.218E-03    -57.9442E-03     21.8844E-03    -4.53984E+06    -31.7372E+06    -64.1799E+06    -31.9884E+06    -63.9288E+06    -4.53984E+06     1.50666E+06         34.7430
             434     9.43905E-03     50.5065E-03     812.711E-03     794.584E-03        -2.81363     811.425E-03        -2.81310     795.338E-03     41.7358E-03     115.806E-03    -57.7480E-03    -58.0341E-03    -57.3395E-03     115.386E-03    -58.0227E-03     16.7306E-03    -3.11375E+06    -34.4648E+06    -103.503E+06    -34.4882E+06    -103.480E+06    -3.11375E+06     1.06059E+06         33.0572
             435     8.49475E-03     50.4918E-03     802.289E-03     791.142E-03        -2.79853     795.922E-03        -2.79566     794.639E-03    -71.0728E-03     115.779E-03    -57.7301E-03    -58.0872E-03    -57.5135E-03     115.563E-03    -58.0872E-03     12.1760E-03    -5.02356E+06    -38.0307E+06    -134.595E+06    -38.0397E+06    -134.586E+06    -5.02356E+06     647.845E+03         31.9768
             436     7.55106E-03     50.4803E-03     806.049E-03     790.563E-03        -2.80042     792.657E-03        -2.79131     794.848E-03     89.6499E-03     115.868E-03    -57.7639E-03    -58.1409E-03    -57.6211E-03     115.725E-03    -58.1409E-03     9.90261E-03    -9.53117E+06    -41.9258E+06    -161.242E+06    -41.9286E+06    -161.239E+06    -9.53117E+06     447.754E+03         31.2097
             437     6.60682E-03     50.4711E-03     828.177E-03     792.993E-03        -2.82325     802.202E-03        -2.79882     794.536E-03    -136.551E-03     115.910E-03    -57.7616E-03    -58.1808E-03    -57.6743E-03     115.822E-03    -58.1808E-03     7.68122E-03    -15.9218E+06    -45.9002E+06    -186.650E+06    -45.9034E+06    -186.647E+06    -15.9218E+06     591.708E+03         30.5946
             438     5.66271E-03     50.4645E-03     864.947E-03     792.921E-03        -2.86064     806.406E-03        -2.80210     792.921E-03     192.669E-03     116.058E-03    -57.8817E-03    -58.2103E-03    -57.8370E-03     116.014E-03    -58.2103E-03     5.48944E-03    -23.2406E+06    -50.1556E+06    -209.625E+06    -50.1582E+06    -209.622E+06    -23.2406E+06     574.482E+03         30.1132
             439     4.71918E-03     50.4591E-03     938.323E-03     789.375E-03        -2.93045     813.989E-03        -2.80612     789.375E-03    -246.474E-03     116.174E-03    -57.9583E-03    -58.2337E-03    -57.9387E-03     116.155E-03    -58.2337E-03     3.57110E-03    -31.1761E+06    -54.9495E+06    -231.162E+06    -54.9532E+06    -231.158E+06    -31.1761E+06     524.127E+03         29.7418
             440     3.77464E-03     50.4570E-03         1.09484     784.930E-03        -3.08505     801.009E-03        -2.79122     784.930E-03     497.430E-03     116.216E-03    -57.9926E-03    -58.2353E-03    -57.9845E-03     116.208E-03    -58.2353E-03     2.34374E-03    -40.9175E+06    -59.8293E+06    -246.677E+06    -59.8343E+06    -246.672E+06    -40.9175E+06     471.286E+03         29.4545
             441     2.83155E-03     50.4547E-03         1.50629     783.512E-03        -3.49735     780.039E-03        -2.77109     783.512E-03    -879.681E-03     116.338E-03    -58.0813E-03    -58.2694E-03    -58.1301E-03     116.334E-03    -58.2168E-03     1.43674E-03    -51.2093E+06    -63.6347E+06    -252.716E+06    -63.6376E+06    -252.713E+06    -51.2093E+06     200.853E+03         29.2352
             442     1.88756E-03     50.4542E-03         2.58053     784.283E-03        -4.57266     783.515E-03        -2.77564     784.283E-03         1.79229     116.325E-03    -58.0506E-03    -58.2829E-03    -58.1596E-03     116.324E-03    -58.1725E-03     921.427E-06    -60.3048E+06    -66.9708E+06    -258.550E+06    -66.9721E+06    -258.549E+06    -60.3048E+06     267.421E+03         29.0819
             443     944.276E-06     50.4537E-03         5.86860         1.12673        -8.19997     442.244E-03        -2.77361         1.12673        -5.64846     116.232E-03    -57.8355E-03    -58.3975E-03    -58.1481E-03     116.231E-03    -58.0839E-03     567.898E-06    -67.4727E+06    -70.8318E+06    -262.381E+06    -69.9594E+06    -262.372E+06    -68.3542E+06     245.299E+03         28.9931
             444     16.0533E-03     49.9472E-03     842.691E-03     810.402E-03        -2.86683     841.832E-03        -2.86597     810.402E-03     4.54877E-03     139.894E-03    -58.1023E-03    -81.7403E-03    -57.1451E-03     115.298E-03    -58.1023E-03     130.096E-03     152.908E+06     126.577E+06    -7.04566E+06    -7.01695E+06     152.880E+06     126.577E+06     627.196E+03         55.1119
             445     15.1077E-03     49.7300E-03     838.428E-03     810.418E-03        -2.86209     837.963E-03        -2.86163     810.418E-03    -24.9882E-03     147.070E-03    -58.0292E-03    -89.0687E-03    -57.4187E-03     115.420E-03    -58.0292E-03     159.096E-03     143.900E+06     101.146E+06    -14.2520E+06    -14.1168E+06     143.765E+06     101.146E+06     638.167E+03         52.1227
             446     14.1615E-03     49.5862E-03     834.382E-03     810.328E-03        -2.85550     834.273E-03        -2.85539     810.328E-03     22.8532E-03     127.634E-03    -57.8952E-03    -69.8413E-03    -56.4709E-03     114.264E-03    -57.8952E-03     95.7323E-03     132.865E+06     55.5524E+06    -22.5109E+06    -22.3774E+06     132.731E+06     55.5524E+06     686.463E+03         48.2192
             447     13.2179E-03     49.5159E-03     820.548E-03     810.037E-03        -2.84809     820.432E-03        -2.84797     810.037E-03    -16.4537E-03     118.095E-03    -57.7505E-03    -60.3924E-03    -55.7249E-03     113.428E-03    -57.7505E-03     56.3835E-03     121.191E+06     16.5831E+06    -27.5809E+06    -27.5370E+06     121.147E+06     16.5831E+06     1.28772E+06         44.0386
             448     12.2719E-03     49.4656E-03     828.244E-03     809.477E-03        -2.85495     827.984E-03        -2.85468     809.477E-03     16.5400E-03     116.552E-03    -57.7355E-03    -58.8374E-03    -56.4564E-03     114.171E-03    -57.7355E-03     39.7367E-03     72.5398E+06    -6.70231E+06    -29.7062E+06    -29.6354E+06     72.4689E+06    -6.70231E+06     1.76999E+06         40.2659
             449     11.3276E-03     49.4295E-03     823.061E-03     807.924E-03        -2.84948     822.222E-03        -2.84928     808.561E-03     27.9604E-03     116.042E-03    -57.8334E-03    -58.2348E-03    -57.1445E-03     114.962E-03    -57.8429E-03     26.9868E-03     13.0210E+06    -22.6060E+06    -34.6851E+06    -30.2547E+06    -4.53055E+06    -9.48492E+06     1.32931E+06         37.1569
             450     10.3837E-03     49.4065E-03     812.448E-03     807.118E-03        -2.83917     811.135E-03        -2.83887     808.135E-03    -40.4940E-03     115.896E-03    -57.7975E-03    -58.0647E-03    -57.2527E-03     115.228E-03    -57.9411E-03     21.4893E-03    -3.91494E+06    -31.7436E+06    -63.5889E+06    -31.8090E+06    -63.5235E+06    -3.91494E+06     995.408E+03         34.7432
             451     9.43920E-03     49.3836E-03     814.309E-03     806.902E-03        -2.83916     812.014E-03        -2.83799     808.036E-03     40.7997E-03     115.727E-03    -57.6768E-03    -58.0222E-03    -57.2431E-03     115.293E-03    -58.0222E-03     16.9593E-03    -2.88883E+06    -34.2126E+06    -103.353E+06    -34.2299E+06    -103.336E+06    -2.88883E+06     838.478E+03         33.0580
             452     8.49536E-03     49.3701E-03     820.982E-03     806.270E-03        -2.84368     816.736E-03        -2.84067     807.501E-03    -44.9209E-03     115.741E-03    -57.6826E-03    -58.0905E-03    -57.4585E-03     115.517E-03    -58.0905E-03     12.4088E-03    -4.37688E+06    -37.0495E+06    -133.778E+06    -37.0544E+06    -133.773E+06    -4.37688E+06     673.533E+03         31.9778
             453     7.55065E-03     49.3578E-03     838.552E-03     805.182E-03        -2.85728     828.705E-03        -2.84791     805.659E-03     107.425E-03     115.902E-03    -57.7932E-03    -58.1454E-03    -57.6466E-03     115.756E-03    -58.1454E-03     9.99272E-03    -9.17262E+06    -41.1578E+06    -161.215E+06    -41.1611E+06    -161.212E+06    -9.17262E+06     555.717E+03         31.2110
             454     6.60668E-03     49.3493E-03     843.755E-03     803.027E-03        -2.86126     820.664E-03        -2.83817     803.027E-03    -108.074E-03     116.036E-03    -57.8897E-03    -58.1792E-03    -57.8059E-03     115.952E-03    -58.1792E-03     7.55376E-03    -14.9222E+06    -45.6503E+06    -186.425E+06    -45.6523E+06    -186.423E+06    -14.9222E+06     513.926E+03         30.5955
             455     5.66308E-03     49.3415E-03     857.911E-03     801.619E-03        -2.87499     803.984E-03        -2.82107     801.619E-03     190.048E-03     116.017E-03    -57.8546E-03    -58.1969E-03    -57.8099E-03     115.973E-03    -58.1969E-03     5.48604E-03    -22.7241E+06    -50.2440E+06    -209.463E+06    -50.2456E+06    -209.461E+06    -22.7241E+06     380.438E+03         30.1117
             456     4.71885E-03     49.3378E-03     927.701E-03     800.869E-03        -2.94543     806.811E-03        -2.82454     800.869E-03    -264.274E-03     116.083E-03    -57.8747E-03    -58.2281E-03    -57.8540E-03     116.062E-03    -58.2281E-03     3.69855E-03    -30.9038E+06    -54.5687E+06    -231.159E+06    -54.5708E+06    -231.157E+06    -30.9038E+06     397.827E+03         29.7386
             457     3.77542E-03     49.3344E-03         1.09445     799.039E-03        -3.11569     809.241E-03        -2.83048     799.039E-03     484.773E-03     116.199E-03    -57.9764E-03    -58.2369E-03    -57.9675E-03     116.190E-03    -58.2369E-03     2.42174E-03    -40.6323E+06    -58.4143E+06    -246.090E+06    -58.4173E+06    -246.087E+06    -40.6323E+06     450.195E+03         29.4523
             458     2.83096E-03     49.3329E-03         1.52987     795.443E-03        -3.54977     809.565E-03        -2.82947     795.443E-03    -922.131E-03     116.216E-03    -57.9749E-03    -58.2567E-03    -57.9713E-03     116.213E-03    -58.2567E-03     1.53398E-03    -50.8999E+06    -62.7317E+06    -252.747E+06    -62.7328E+06    -252.746E+06    -50.8999E+06     92.5584E+03         29.2355
             459     1.88724E-03     49.3319E-03         2.60765     786.162E-03        -4.61341     813.932E-03        -2.81969     786.162E-03         1.76884     116.349E-03    -58.0526E-03    -58.3046E-03    -58.0512E-03     116.347E-03    -58.3046E-03     867.077E-06    -59.2707E+06    -67.4385E+06    -258.264E+06    -67.4404E+06    -258.262E+06    -59.2707E+06    -194.123E+03         29.0864
             460     942.785E-06     49.3320E-03         5.88181         1.07023        -8.16947     487.897E-03        -2.77556         1.07023        -5.60798     116.591E-03    -57.9970E-03    -58.5956E-03    -58.5089E-03     116.591E-03    -58.0829E-03     654.448E-06    -66.5503E+06    -70.4281E+06    -261.182E+06    -70.4360E+06    -261.174E+06    -66.5503E+06    -159.103E+03         29.0019
             461     16.0546E-03     48.8290E-03     843.892E-03     822.105E-03        -2.88730     842.728E-03        -2.88614     822.105E-03     23.9668E-03     140.870E-03    -58.0791E-03    -82.8037E-03    -57.6164E-03     115.683E-03    -58.0791E-03     130.940E-03     151.913E+06     125.374E+06    -8.15154E+06    -8.09175E+06     151.853E+06     125.374E+06     106.477E+03         55.1037
             462     15.1090E-03     48.6049E-03     845.631E-03     822.466E-03        -2.89009     845.049E-03        -2.88951     822.466E-03    -14.7453E-03     148.160E-03    -58.0076E-03    -90.2210E-03    -57.6261E-03     115.565E-03    -58.0076E-03     161.815E-03     143.720E+06     100.400E+06    -15.7945E+06    -15.6806E+06     143.606E+06     100.400E+06     1.71607E+06         52.1169
             463     14.1653E-03     48.4674E-03     841.924E-03     822.674E-03        -2.88951     841.694E-03        -2.88928     822.674E-03     22.1451E-03     127.269E-03    -57.8883E-03    -69.4808E-03    -55.9893E-03     113.778E-03    -57.8883E-03     96.2774E-03     132.735E+06     54.5007E+06    -21.6271E+06    -21.4823E+06     132.590E+06     54.5007E+06     2.17552E+06         48.2148
             464     13.2156E-03     48.3942E-03     840.725E-03     822.368E-03        -2.89149     840.571E-03        -2.89134     822.368E-03    -44.4279E-03     118.294E-03    -57.7558E-03    -60.5741E-03    -55.7855E-03     113.505E-03    -57.7558E-03     56.9008E-03     122.099E+06     16.1240E+06    -26.1836E+06    -26.0892E+06     122.005E+06     16.1240E+06     1.57302E+06         44.0351
             465     12.2722E-03     48.3421E-03     837.607E-03     821.356E-03        -2.88747     836.995E-03        -2.88727     821.768E-03    -6.90537E-03     116.701E-03    -57.7333E-03    -58.9908E-03    -56.6591E-03     114.369E-03    -57.7333E-03     39.5082E-03     73.9530E+06    -6.62960E+06    -29.0424E+06    -29.0165E+06     73.9271E+06    -6.62960E+06     707.009E+03         40.2644
             466     11.3281E-03     48.3077E-03     831.520E-03     820.194E-03        -2.88257     830.360E-03        -2.88245     821.243E-03     18.3335E-03     115.856E-03    -57.7782E-03    -58.1177E-03    -56.9336E-03     114.738E-03    -57.8443E-03     27.4208E-03     13.3432E+06    -22.9210E+06    -35.0689E+06    -29.8071E+06    -5.04072E+06    -9.79887E+06     369.488E+03         37.1569
             467     10.3834E-03     48.2836E-03     827.449E-03     819.924E-03        -2.87808     826.162E-03        -2.87781     820.940E-03    -37.9604E-03     115.793E-03    -57.8137E-03    -57.9623E-03    -57.1293E-03     115.109E-03    -57.9623E-03     21.7159E-03    -3.31444E+06    -30.8510E+06    -63.3509E+06    -30.8959E+06    -63.3060E+06    -3.31444E+06     337.041E+03         34.7443
             468     9.43921E-03     48.2624E-03     829.440E-03     820.190E-03        -2.87774     827.862E-03        -2.87654     820.570E-03     49.0182E-03     115.797E-03    -57.7234E-03    -58.0501E-03    -57.2741E-03     115.347E-03    -58.0501E-03     17.3432E-03    -2.26662E+06    -33.4608E+06    -102.827E+06    -33.4639E+06    -102.824E+06    -2.26662E+06     440.855E+03         33.0604
             469     8.49433E-03     48.2474E-03     843.704E-03     819.209E-03        -2.89127     840.121E-03        -2.88768     819.209E-03    -55.9546E-03     115.836E-03    -57.7513E-03    -58.1159E-03    -57.5196E-03     115.605E-03    -58.1159E-03     12.5656E-03    -3.51179E+06    -37.0276E+06    -133.727E+06    -37.0337E+06    -133.721E+06    -3.51179E+06     732.182E+03         31.9805
             470     7.55087E-03     48.2361E-03     845.877E-03     816.932E-03        -2.89115     836.475E-03        -2.88178     816.960E-03     84.6080E-03     116.022E-03    -57.9082E-03    -58.1547E-03    -57.7629E-03     115.876E-03    -58.1547E-03     9.98613E-03    -8.56920E+06    -40.9252E+06    -160.926E+06    -40.9317E+06    -160.920E+06    -8.56920E+06     836.461E+03         31.2122
             471     6.60717E-03     48.2262E-03     844.140E-03     815.571E-03        -2.88678     819.327E-03        -2.86200     815.600E-03    -141.852E-03     116.020E-03    -57.8708E-03    -58.1820E-03    -57.7832E-03     115.932E-03    -58.1820E-03     7.68876E-03    -14.1930E+06    -45.2979E+06    -186.242E+06    -45.3024E+06    -186.238E+06    -14.1930E+06     750.468E+03         30.5955
             472     5.66290E-03     48.2205E-03     869.380E-03     815.272E-03        -2.91168     817.307E-03        -2.85961     815.272E-03     139.851E-03     115.986E-03    -57.8012E-03    -58.2109E-03    -57.7557E-03     115.940E-03    -58.2109E-03     5.56016E-03    -21.5690E+06    -49.9016E+06    -208.770E+06    -49.9051E+06    -208.767E+06    -21.5690E+06     617.256E+03         30.1115
             473     4.71886E-03     48.2152E-03     935.720E-03     814.614E-03        -2.98115     820.239E-03        -2.86566     814.614E-03    -286.272E-03     116.124E-03    -57.9056E-03    -58.2389E-03    -57.8828E-03     116.101E-03    -58.2389E-03     3.88979E-03    -31.3984E+06    -54.7846E+06    -231.489E+06    -54.7871E+06    -231.486E+06    -31.3984E+06     2.09406E+03         29.7383
             474     3.77476E-03     48.2125E-03         1.11042     813.157E-03        -3.15893     820.626E-03        -2.86914     813.157E-03     516.786E-03     116.209E-03    -57.9770E-03    -58.2488E-03    -57.9683E-03     116.200E-03    -58.2488E-03     2.32802E-03    -40.9307E+06    -59.2066E+06    -246.187E+06    -59.2088E+06    -246.185E+06    -40.9307E+06     36.9964E+03         29.4524
             475     2.83122E-03     48.2108E-03         1.54319     809.451E-03        -3.58557     826.175E-03        -2.86855     809.451E-03    -881.616E-03     116.239E-03    -57.9779E-03    -58.2757E-03    -57.9748E-03     116.236E-03    -58.2757E-03     1.41422E-03    -50.4856E+06    -63.3744E+06    -252.056E+06    -63.3753E+06    -252.055E+06    -50.4856E+06     272.377E+03         29.2372
             476     1.88701E-03     48.2100E-03         2.61179     802.037E-03        -4.63944     820.572E-03        -2.84822     802.037E-03         1.79952     116.457E-03    -58.1276E-03    -58.3388E-03    -58.1878E-03     116.456E-03    -58.2774E-03     721.250E-06    -59.7908E+06    -66.7537E+06    -257.760E+06    -66.7578E+06    -257.756E+06    -59.7908E+06    -592.069E+03         29.0882
             477     944.320E-06     48.2086E-03         5.89598         1.06144        -8.17561     533.296E-03        -2.81293         1.06144        -5.57568     116.465E-03    -57.9830E-03    -58.4830E-03    -58.3009E-03     116.464E-03    -58.1646E-03     469.093E-06    -66.5453E+06    -69.1951E+06    -261.377E+06    -68.6256E+06    -261.362E+06    -67.1296E+06    -1.61034E+06         29.0010
             478     16.0507E-03     47.7050E-03     855.258E-03     833.791E-03        -2.91855     854.402E-03        -2.91769     833.791E-03     6.72312E-03     140.504E-03    -58.1293E-03    -82.4065E-03    -57.1099E-03     115.208E-03    -58.1293E-03     131.551E-03     150.969E+06     123.934E+06    -8.58804E+06    -8.52751E+06     150.908E+06     123.934E+06     625.725E+03         55.0935
             479     15.1067E-03     47.4817E-03     848.994E-03     834.518E-03        -2.92054     848.409E-03        -2.91995     834.518E-03    -12.0127E-03     148.244E-03    -58.0755E-03    -90.2492E-03    -57.6164E-03     115.611E-03    -58.0755E-03     162.015E-03     142.554E+06     99.2896E+06    -16.2811E+06    -16.2065E+06     142.479E+06     99.2896E+06     1.44747E+06         52.1072
             480     14.1595E-03     47.3458E-03     847.060E-03     835.275E-03        -2.92424     846.816E-03        -2.92399     835.275E-03     25.3373E-03     128.128E-03    -57.9504E-03    -70.2815E-03    -56.7072E-03     114.554E-03    -57.9504E-03     96.8071E-03     132.894E+06     57.3596E+06    -22.4273E+06    -22.3149E+06     132.781E+06     57.3596E+06     1.59840E+06         48.2078
             481     13.2187E-03     47.2718E-03     850.798E-03     835.266E-03        -2.92927     850.738E-03        -2.92921     835.266E-03    -28.2260E-03     118.999E-03    -57.7801E-03    -61.2629E-03    -56.4434E-03     114.179E-03    -57.7801E-03     57.3946E-03     124.278E+06     19.5748E+06    -25.5204E+06    -25.4267E+06     124.185E+06     19.5748E+06     1.44012E+06         44.0319
             482     12.2727E-03     47.2201E-03     845.830E-03     834.490E-03        -2.92450     845.285E-03        -2.92437     834.902E-03     13.1453E-03     116.456E-03    -57.7352E-03    -58.7345E-03    -56.3438E-03     114.065E-03    -57.7352E-03     39.9489E-03     74.6857E+06    -6.24635E+06    -26.9001E+06    -26.8732E+06     74.6588E+06    -6.24635E+06     445.512E+03         40.2630
             483     11.3271E-03     47.1861E-03     843.886E-03     834.140E-03        -2.92238     843.352E-03        -2.92226     834.552E-03     25.7140E-03     115.763E-03    -57.8005E-03    -58.0053E-03    -56.7851E-03     114.609E-03    -57.8665E-03     27.8380E-03     12.9048E+06    -22.6486E+06    -34.0710E+06    -28.5018E+06    -5.80202E+06    -9.51093E+06     89.5182E+03         37.1564
             484     10.3828E-03     47.1613E-03     843.490E-03     834.068E-03        -2.91954     843.358E-03        -2.91941     834.068E-03    -26.1847E-03     115.866E-03    -57.8649E-03    -57.9939E-03    -57.1839E-03     115.185E-03    -57.9939E-03     21.6449E-03    -2.51714E+06    -30.6975E+06    -63.1456E+06    -30.7241E+06    -63.1190E+06    -2.51714E+06     244.045E+03         34.7466
             485     9.43844E-03     47.1403E-03     842.446E-03     833.469E-03        -2.91685     841.955E-03        -2.91636     833.469E-03     25.1136E-03     115.985E-03    -57.8952E-03    -58.0708E-03    -57.4615E-03     115.551E-03    -58.0708E-03     17.0881E-03    -2.18255E+06    -34.0539E+06    -102.499E+06    -34.0564E+06    -102.497E+06    -2.18255E+06     391.410E+03         33.0651
             486     8.49499E-03     47.1251E-03     846.007E-03     830.054E-03        -2.91688     840.295E-03        -2.91394     832.835E-03    -86.9194E-03     115.965E-03    -57.8757E-03    -58.1229E-03    -57.6476E-03     115.737E-03    -58.1229E-03     12.4697E-03    -3.87163E+06    -37.7062E+06    -134.085E+06    -37.7099E+06    -134.081E+06    -3.87163E+06     513.454E+03         31.9843
             487     7.55085E-03     47.1135E-03     843.966E-03     829.813E-03        -2.91388     832.130E-03        -2.90485     832.622E-03     83.1659E-03     115.931E-03    -57.8148E-03    -58.1588E-03    -57.6727E-03     115.789E-03    -58.1588E-03     9.88306E-03    -8.84317E+06    -41.2309E+06    -160.699E+06    -41.2359E+06    -160.694E+06    -8.84317E+06     704.405E+03         31.2134
             488     6.60635E-03     47.1045E-03     860.272E-03     832.450E-03        -2.93128     836.868E-03        -2.90790     832.479E-03    -137.711E-03     115.943E-03    -57.7781E-03    -58.1979E-03    -57.6908E-03     115.856E-03    -58.1979E-03     7.66911E-03    -14.7874E+06    -44.8697E+06    -186.114E+06    -44.8744E+06    -186.110E+06    -14.7874E+06     772.244E+03         30.5958
             489     5.66257E-03     47.0977E-03     897.958E-03     831.013E-03        -2.96916     845.958E-03        -2.91716     831.013E-03     160.980E-03     116.112E-03    -57.9021E-03    -58.2360E-03    -57.8576E-03     116.068E-03    -58.2360E-03     5.49125E-03    -20.6295E+06    -49.2062E+06    -208.301E+06    -49.2109E+06    -208.296E+06    -20.6295E+06     836.543E+03         30.1129
             490     4.71885E-03     47.0936E-03     959.917E-03     828.191E-03        -3.03245     844.503E-03        -2.91704     828.191E-03    -274.620E-03     116.185E-03    -57.9482E-03    -58.2598E-03    -57.9265E-03     116.163E-03    -58.2598E-03     3.79258E-03    -29.2007E+06    -54.7242E+06    -230.504E+06    -54.7298E+06    -230.498E+06    -29.2007E+06     492.470E+03         29.7401
             491     3.77521E-03     47.0898E-03         1.11928     825.372E-03        -3.19214     835.174E-03        -2.90803     825.372E-03     504.648E-03     116.221E-03    -57.9816E-03    -58.2559E-03    -57.9732E-03     116.212E-03    -58.2559E-03     2.29868E-03    -40.7149E+06    -60.3630E+06    -246.329E+06    -60.3747E+06    -246.317E+06    -40.7149E+06    -562.299E+03         29.4537
             492     2.83099E-03     47.0894E-03         1.53332     826.473E-03        -3.60471     812.722E-03        -2.88411     826.473E-03    -905.827E-03     116.393E-03    -58.1296E-03    -58.2735E-03    -58.1643E-03     116.389E-03    -58.2355E-03     1.48575E-03    -51.4034E+06    -64.1956E+06    -251.691E+06    -64.2048E+06    -251.682E+06    -51.4034E+06     -740.55E+03         29.2375
             493     1.88779E-03     47.0866E-03         2.58323     836.468E-03        -4.65550     805.787E-03        -2.87805     836.468E-03         1.75686     116.346E-03    -58.0681E-03    -58.2873E-03    -58.1661E-03     116.345E-03    -58.1879E-03     836.770E-06    -61.3404E+06    -67.0137E+06    -257.977E+06    -67.0169E+06    -257.974E+06    -61.3404E+06    -365.050E+03         29.0857
             494     943.445E-06     47.0874E-03         5.88658         1.07512        -8.18909     613.197E-03        -2.91571         1.07512        -5.59609     116.256E-03    -57.8386E-03    -58.4211E-03    -58.1541E-03     116.256E-03    -58.1052E-03     506.816E-06    -68.8386E+06    -70.7505E+06    -263.020E+06    -70.1775E+06    -263.009E+06    -69.4230E+06    -661.124E+03         28.9946
             495     16.0522E-03     46.5786E-03     866.010E-03     846.392E-03        -2.96304     865.372E-03        -2.96241     846.392E-03    -2.52566E-03     139.692E-03    -58.1700E-03    -81.5542E-03    -56.7360E-03     114.874E-03    -58.1700E-03     130.960E-03     150.038E+06     124.165E+06    -7.25925E+06    -7.22565E+06     150.005E+06     124.165E+06     1.15294E+06         55.0848
             496     15.1056E-03     46.3634E-03     865.373E-03     847.194E-03        -2.96530     864.900E-03        -2.96483     847.194E-03    -18.5690E-03     147.403E-03    -58.1186E-03    -89.3653E-03    -57.5592E-03     115.597E-03    -58.1186E-03     159.708E-03     141.097E+06     98.9111E+06    -15.8433E+06    -15.7852E+06     141.039E+06     98.9111E+06     1.54572E+06         52.1000
             497     14.1622E-03     46.2199E-03     865.364E-03     847.717E-03        -2.96808     865.226E-03        -2.96794     847.717E-03     22.5380E-03     128.144E-03    -57.9985E-03    -70.2420E-03    -56.8609E-03     114.763E-03    -57.9985E-03     95.8829E-03     133.679E+06     60.5511E+06    -22.0885E+06    -22.0329E+06     133.623E+06     60.5511E+06     1.10854E+06         48.2027
             498     13.2160E-03     46.1496E-03     855.511E-03     845.875E-03        -2.95722     853.449E-03        -2.95717     847.891E-03    -22.9216E-03     118.795E-03    -57.8229E-03    -61.0237E-03    -56.3629E-03     114.134E-03    -57.8229E-03     56.5858E-03     125.467E+06     22.4397E+06    -25.7032E+06    -25.6443E+06     125.408E+06     22.4397E+06     132.534E+03         44.0281
             499     12.2713E-03     46.0990E-03     852.589E-03     846.009E-03        -2.95403     850.293E-03        -2.95395     848.231E-03     1.88359E-03     116.634E-03    -57.7657E-03    -58.8897E-03    -56.4770E-03     114.222E-03    -57.7657E-03     40.0802E-03     74.9631E+06    -5.66122E+06    -27.3729E+06    -27.3246E+06     74.9149E+06    -5.66122E+06     74.1515E+03         40.2605
             500     11.3271E-03     46.0633E-03     854.913E-03     848.144E-03        -2.95795     854.654E-03        -2.95790     848.349E-03     6.91666E-03     115.869E-03    -57.8049E-03    -58.0984E-03    -56.8922E-03     114.741E-03    -57.8823E-03     27.5523E-03     12.5254E+06    -22.4257E+06    -34.4267E+06    -28.9101E+06    -5.91924E+06    -9.49767E+06     180.883E+03         37.1558
             501     10.3829E-03     46.0394E-03     854.450E-03     848.155E-03        -2.95692     854.321E-03        -2.95679     848.155E-03    -35.4552E-03     115.978E-03    -57.8906E-03    -58.0701E-03    -57.2970E-03     115.310E-03    -57.9955E-03     21.4550E-03    -2.98256E+06    -31.0858E+06    -63.2931E+06    -31.1172E+06    -63.2616E+06    -2.98256E+06     230.328E+03         34.7489
             502     9.43893E-03     46.0175E-03     855.669E-03     847.774E-03        -2.95560     855.258E-03        -2.95519     847.774E-03     19.3011E-03     116.095E-03    -57.9328E-03    -58.1375E-03    -57.5860E-03     115.673E-03    -58.0629E-03     16.8426E-03    -1.97617E+06    -33.5560E+06    -102.517E+06    -33.5590E+06    -102.514E+06    -1.97617E+06     410.496E+03         33.0692
             503     8.49473E-03     46.0027E-03     853.621E-03     844.737E-03        -2.94823     849.042E-03        -2.94643     847.518E-03    -60.4401E-03     115.899E-03    -57.8167E-03    -58.1139E-03    -57.5942E-03     115.676E-03    -58.1139E-03     12.3349E-03    -3.59698E+06    -36.7740E+06    -134.166E+06    -36.7754E+06    -134.165E+06    -3.59698E+06     325.093E+03         31.9875
             504     7.55064E-03     45.9915E-03     860.839E-03     844.597E-03        -2.95733     850.506E-03        -2.94977     847.377E-03     109.335E-03     115.916E-03    -57.7969E-03    -58.1566E-03    -57.6592E-03     115.778E-03    -58.1566E-03     9.70450E-03    -7.99427E+06    -40.4314E+06    -160.379E+06    -40.4330E+06    -160.377E+06    -7.99427E+06     411.577E+03         31.2159
             505     6.60685E-03     45.9823E-03     884.031E-03     846.001E-03        -2.98170     863.871E-03        -2.96154     846.001E-03    -114.216E-03     116.010E-03    -57.8487E-03    -58.1915E-03    -57.7702E-03     115.931E-03    -58.1915E-03     7.27094E-03    -14.4472E+06    -44.9415E+06    -185.984E+06    -44.9432E+06    -185.983E+06    -14.4472E+06     429.171E+03         30.5980
             506     5.66268E-03     45.9756E-03     903.090E-03     843.827E-03        -2.99756     855.426E-03        -2.94990     843.827E-03     178.321E-03     116.044E-03    -57.8480E-03    -58.2251E-03    -57.8082E-03     116.004E-03    -58.2251E-03     5.20649E-03    -21.0189E+06    -49.6064E+06    -208.442E+06    -49.6087E+06    -208.439E+06    -21.0189E+06     527.092E+03         30.1144
             507     4.71899E-03     45.9707E-03     952.805E-03     843.504E-03        -3.05017     837.663E-03        -2.93503     843.504E-03    -292.773E-03     116.128E-03    -57.8842E-03    -58.2650E-03    -57.8644E-03     116.108E-03    -58.2650E-03     3.60483E-03    -27.6827E+06    -53.6586E+06    -229.393E+06    -53.6624E+06    -229.389E+06    -27.6827E+06     580.062E+03         29.7413
             508     3.77456E-03     45.9688E-03         1.10654     846.845E-03        -3.20690     825.242E-03        -2.92561     846.845E-03     484.792E-03     116.305E-03    -58.0627E-03    -58.2566E-03    -58.0579E-03     116.296E-03    -58.2526E-03     2.44744E-03    -39.7409E+06    -58.5692E+06    -245.124E+06    -58.5816E+06    -245.112E+06    -39.7409E+06    -151.211E+03         29.4540
             509     2.83147E-03     45.9655E-03         1.52190     856.489E-03        -3.62830     815.148E-03        -2.92155     856.489E-03    -908.820E-03     116.393E-03    -58.1584E-03    -58.2431E-03    -58.1966E-03     116.389E-03    -58.2011E-03     1.50253E-03    -53.4522E+06    -64.2553E+06    -252.840E+06    -64.2670E+06    -252.828E+06    -53.4522E+06    -672.227E+03         29.2356
             510     1.88756E-03     45.9657E-03         2.56565     870.147E-03        -4.68658     843.211E-03        -2.96414     870.147E-03         1.72173     116.254E-03    -58.0332E-03    -58.2263E-03    -58.0911E-03     116.253E-03    -58.1674E-03     750.415E-06    -61.5994E+06    -67.9028E+06    -258.817E+06    -67.9043E+06    -258.815E+06    -61.5994E+06    -199.397E+03         29.0816
             511     943.694E-06     45.9645E-03         5.84480         1.04761        -8.14293     705.971E-03        -3.00410         1.04761        -5.53734     116.245E-03    -57.8152E-03    -58.4325E-03    -58.3318E-03     116.244E-03    -57.9153E-03     583.205E-06    -68.0593E+06    -70.6216E+06    -263.101E+06    -70.6226E+06    -263.100E+06    -68.0593E+06     350.218E+03         28.9895
             512     16.0508E-03     45.4567E-03     877.025E-03     859.274E-03        -2.99858     876.343E-03        -2.99790     859.274E-03     22.7157E-03     139.712E-03    -58.1642E-03    -81.5780E-03    -56.7962E-03     114.930E-03    -58.1642E-03     131.337E-03     148.510E+06     123.777E+06    -7.56785E+06    -7.53951E+06     148.482E+06     123.777E+06     1.29630E+06         55.0778
             513     15.1071E-03     45.2400E-03     873.178E-03     859.511E-03        -2.99629     872.180E-03        -2.99604     860.261E-03    -27.2696E-03     147.560E-03    -58.1156E-03    -89.5346E-03    -57.7102E-03     115.736E-03    -58.1156E-03     160.006E-03     141.584E+06     99.8493E+06    -15.5046E+06    -15.4339E+06     141.513E+06     99.8493E+06     2.06375E+06         52.0957
             514     14.1613E-03     45.0976E-03     875.994E-03     860.382E-03        -3.00319     875.185E-03        -3.00313     861.132E-03     9.06767E-03     128.094E-03    -57.9851E-03    -70.1996E-03    -56.7202E-03     114.615E-03    -57.9851E-03     95.8914E-03     135.658E+06     60.9442E+06    -21.3323E+06    -21.2398E+06     135.566E+06     60.9442E+06     854.169E+03         48.2003
             515     13.2165E-03     45.0284E-03     869.683E-03     859.489E-03        -2.99278     867.632E-03        -2.99275     861.506E-03    -14.5215E-03     118.269E-03    -57.8184E-03    -60.4931E-03    -56.0209E-03     113.797E-03    -57.8184E-03     55.3055E-03     126.040E+06     22.3257E+06    -25.1501E+06    -25.0814E+06     125.971E+06     22.3257E+06    -765.330E+03         44.0259
             516     12.2720E-03     44.9750E-03     862.897E-03     856.178E-03        -2.98115     856.880E-03        -2.98111     862.152E-03    -3.75820E-03     116.653E-03    -57.7758E-03    -58.8989E-03    -56.5437E-03     114.298E-03    -57.7758E-03     39.6536E-03     74.7808E+06    -5.12086E+06    -27.6132E+06    -27.5571E+06     74.7248E+06    -5.12086E+06    -652.164E+03         40.2584
             517     11.3275E-03     44.9424E-03     868.377E-03     858.786E-03        -2.98900     864.407E-03        -2.98899     862.744E-03     6.02647E-03     116.033E-03    -57.8136E-03    -58.2564E-03    -57.0718E-03     114.917E-03    -57.8816E-03     27.4216E-03     12.3678E+06    -21.3403E+06    -34.5432E+06    -28.5674E+06    -5.99464E+06    -8.95365E+06    -281.321E+03         37.1550
             518     10.3826E-03     44.9161E-03     872.125E-03     862.575E-03        -2.99600     872.062E-03        -2.99594     862.575E-03    -23.1078E-03     115.973E-03    -57.8227E-03    -58.1355E-03    -57.3011E-03     115.304E-03    -57.9879E-03     21.4856E-03    -2.51593E+06    -30.0402E+06    -63.7439E+06    -30.0579E+06    -63.7262E+06    -2.51593E+06    -71.5373E+03         34.7490
             519     9.43902E-03     44.8952E-03     870.220E-03     862.010E-03        -2.99460     869.825E-03        -2.99420     862.010E-03     29.3582E-03     116.009E-03    -57.8523E-03    -58.1337E-03    -57.5033E-03     115.585E-03    -58.0591E-03     16.8302E-03    -880.210E+03    -32.6630E+06    -102.578E+06    -32.6695E+06    -102.571E+06    -880.210E+03     364.184E+03         33.0698
             520     8.49490E-03     44.8807E-03     872.095E-03     861.301E-03        -2.99535     870.474E-03        -2.99372     861.301E-03    -49.9695E-03     115.905E-03    -57.8277E-03    -58.1095E-03    -57.6115E-03     115.689E-03    -58.1095E-03     12.1681E-03    -2.65973E+06    -36.1896E+06    -133.917E+06    -36.1944E+06    -133.912E+06    -2.65973E+06     530.698E+03         31.9893
             521     7.55087E-03     44.8693E-03     877.304E-03     860.240E-03        -2.99855     871.334E-03        -2.99258     860.240E-03     89.5943E-03     115.958E-03    -57.8482E-03    -58.1476E-03    -57.7107E-03     115.820E-03    -58.1476E-03     9.71124E-03    -7.29148E+06    -40.3985E+06    -160.523E+06    -40.4014E+06    -160.520E+06    -7.29148E+06     551.013E+03         31.2187
             522     6.60694E-03     44.8599E-03     880.701E-03     859.432E-03        -2.99934     862.675E-03        -2.98132     859.432E-03    -131.177E-03     116.019E-03    -57.8763E-03    -58.1748E-03    -57.7954E-03     115.938E-03    -58.1748E-03     7.39262E-03    -13.8464E+06    -45.1510E+06    -185.541E+06    -45.1539E+06    -185.538E+06    -13.8464E+06     556.409E+03         30.6003
             523     5.66331E-03     44.8536E-03     892.466E-03     860.156E-03        -3.01285     849.924E-03        -2.97031     860.156E-03     154.839E-03     115.977E-03    -57.8066E-03    -58.2003E-03    -57.7650E-03     115.936E-03    -58.2003E-03     5.30211E-03    -21.6728E+06    -49.6570E+06    -208.315E+06    -49.6588E+06    -208.313E+06    -21.6728E+06     177.099E+03         30.1155
             524     4.71857E-03     44.8491E-03     951.054E-03     862.796E-03        -3.07508     845.776E-03        -2.96980     862.796E-03    -301.159E-03     116.124E-03    -57.9147E-03    -58.2287E-03    -57.8951E-03     116.104E-03    -58.2287E-03     3.56865E-03    -29.7541E+06    -53.7113E+06    -229.193E+06    -53.7127E+06    -229.192E+06    -29.7541E+06    -173.762E+03         29.7415
             525     3.77540E-03     44.8458E-03         1.12186     867.411E-03        -3.25065     844.536E-03        -2.97332     867.411E-03     526.947E-03     116.276E-03    -58.0639E-03    -58.2262E-03    -58.0601E-03     116.268E-03    -58.2221E-03     2.30950E-03    -39.4335E+06    -58.2802E+06    -244.834E+06    -58.2862E+06    -244.828E+06    -39.4335E+06     559.890E+03         29.4529
             526     2.83122E-03     44.8439E-03         1.54048     872.147E-03        -3.67169     861.020E-03        -2.99223     872.147E-03    -848.620E-03     116.275E-03    -58.0881E-03    -58.1970E-03    -58.0890E-03     116.272E-03    -58.1930E-03     1.32680E-03    -51.4548E+06    -63.2299E+06    -252.830E+06    -63.2374E+06    -252.822E+06    -51.4548E+06     765.871E+03         29.2326
             527     1.88743E-03     44.8433E-03         2.56171     870.909E-03        -4.68932     883.264E-03        -3.01087     870.909E-03         1.73719     116.326E-03    -58.0867E-03    -58.2433E-03    -58.2045E-03     116.325E-03    -58.1248E-03     572.703E-06    -61.7700E+06    -67.7395E+06    -259.140E+06    -67.7416E+06    -259.138E+06    -61.7700E+06    -49.8284E+03         29.0774
             528     943.987E-06     44.8423E-03         5.79776         1.00784        -8.06314     727.696E-03        -2.99308         1.00784        -5.45435     116.079E-03    -57.8514E-03    -58.2300E-03    -58.2297E-03     116.078E-03    -57.8514E-03     364.765E-06    -67.9825E+06    -70.2598E+06    -262.754E+06    -69.9768E+06    -262.751E+06    -68.2680E+06    -380.351E+03         28.9843
             529     16.0527E-03     44.3343E-03     883.144E-03     867.002E-03        -3.02064     877.497E-03        -3.01968     871.684E-03     39.4723E-03     139.872E-03    -58.1452E-03    -81.7566E-03    -56.8820E-03     114.998E-03    -58.1452E-03     131.351E-03     147.239E+06     124.018E+06    -7.18569E+06    -7.17423E+06     147.228E+06     124.018E+06     788.629E+03         55.0711
             530     15.1061E-03     44.1174E-03     877.034E-03     870.703E-03        -3.02052     874.126E-03        -3.02028     873.365E-03    -26.6721E-03     147.486E-03    -58.1026E-03    -89.4623E-03    -57.5598E-03     115.583E-03    -58.1026E-03     160.030E-03     141.843E+06     102.369E+06    -12.6481E+06    -12.5810E+06     141.776E+06     102.369E+06     1.05260E+06         52.0909
             531     14.1620E-03     43.9749E-03     880.092E-03     870.646E-03        -3.02329     875.664E-03        -3.02323     875.013E-03     11.1105E-03     127.802E-03    -57.9702E-03    -69.9238E-03    -56.5237E-03     114.401E-03    -57.9702E-03     95.5796E-03     137.379E+06     62.7965E+06    -18.4863E+06    -18.3560E+06     137.249E+06     62.7965E+06     781.419E+03         48.1968
             532     13.2178E-03     43.9059E-03     888.292E-03     873.913E-03        -3.03074     886.576E-03        -3.03073     875.618E-03     4.55210E-03     118.357E-03    -57.8078E-03    -60.5971E-03    -56.0029E-03     113.763E-03    -57.8078E-03     56.1392E-03     126.474E+06     22.5261E+06    -23.2174E+06    -23.1277E+06     126.384E+06     22.5261E+06    -209.516E+03         44.0230
             533     12.2714E-03     43.8548E-03     886.917E-03     871.820E-03        -3.02683     883.135E-03        -3.02680     875.573E-03     16.3276E-03     116.898E-03    -57.7669E-03    -59.1484E-03    -56.7098E-03     114.459E-03    -57.7669E-03     40.2424E-03     74.4552E+06    -4.37328E+06    -25.5569E+06    -25.5126E+06     74.4109E+06    -4.37328E+06    -821.980E+03         40.2564
             534     11.3269E-03     43.8180E-03     883.536E-03     867.576E-03        -3.02132     875.363E-03        -3.02128     875.712E-03     19.6405E-03     116.019E-03    -57.7575E-03    -58.2966E-03    -57.0911E-03     114.925E-03    -57.8695E-03     27.1364E-03     12.7888E+06    -20.4539E+06    -33.4761E+06    -27.2279E+06    -5.87940E+06    -8.03390E+06    -519.385E+03         37.1536
             535     10.3839E-03     43.7951E-03     882.178E-03     870.094E-03        -3.02434     876.168E-03        -3.02425     876.010E-03    -15.4111E-03     115.896E-03    -57.7681E-03    -58.1130E-03    -57.2319E-03     115.224E-03    -57.9772E-03     21.5416E-03    -2.42927E+06    -29.7925E+06    -64.0336E+06    -29.8203E+06    -64.0059E+06    -2.42927E+06     264.327E+03         34.7471
             536     9.43862E-03     43.7721E-03     881.733E-03     874.532E-03        -3.02707     879.773E-03        -3.02664     876.067E-03     27.6562E-03     115.911E-03    -57.7760E-03    -58.1169E-03    -57.4120E-03     115.484E-03    -58.0541E-03     16.8101E-03    -1.34431E+06    -33.1005E+06    -103.401E+06    -33.1205E+06    -103.381E+06    -1.34431E+06     567.446E+03         33.0677
             537     8.49495E-03     43.7585E-03     884.925E-03     874.850E-03        -3.02840     882.093E-03        -3.02645     875.729E-03    -60.3940E-03     115.853E-03    -57.7752E-03    -58.1114E-03    -57.5592E-03     115.637E-03    -58.1114E-03     12.2013E-03    -2.71620E+06    -36.5871E+06    -133.789E+06    -36.5986E+06    -133.777E+06    -2.71620E+06     785.491E+03         31.9882
             538     7.55094E-03     43.7469E-03     883.241E-03     874.253E-03        -3.02714     875.823E-03        -3.02099     875.521E-03     75.7839E-03     115.937E-03    -57.8222E-03    -58.1539E-03    -57.6755E-03     115.791E-03    -58.1539E-03     10.0193E-03    -7.64244E+06    -40.7958E+06    -160.508E+06    -40.8051E+06    -160.498E+06    -7.64244E+06     845.708E+03         31.2190
             539     6.60690E-03     43.7378E-03     881.892E-03     876.137E-03        -3.02749     864.174E-03        -3.01016     876.526E-03    -127.295E-03     116.010E-03    -57.8556E-03    -58.1858E-03    -57.7715E-03     115.926E-03    -58.1858E-03     7.53705E-03    -13.8477E+06     -44.723E+06    -185.291E+06    -44.7258E+06    -185.288E+06    -13.8477E+06     557.273E+03         30.6018
             540     5.66252E-03     43.7315E-03     904.885E-03     878.757E-03        -3.05611     863.865E-03        -3.01509     878.757E-03     157.646E-03     116.145E-03    -57.9743E-03    -58.1987E-03    -57.9323E-03     116.103E-03    -58.1987E-03     5.32451E-03    -21.3014E+06    -49.0241E+06    -207.143E+06    -49.0263E+06    -207.141E+06    -21.3014E+06    -43.4061E+03         30.1176
             541     4.71950E-03     43.7268E-03     977.137E-03     880.254E-03        -3.13164     878.377E-03        -3.03288     880.254E-03    -285.106E-03     116.212E-03    -58.0342E-03    -58.1984E-03    -58.0142E-03     116.192E-03    -58.1984E-03     3.67151E-03    -30.0366E+06    -54.4842E+06    -229.571E+06    -54.4867E+06    -229.569E+06    -30.0366E+06    -138.485E+03         29.7423
             542     3.77514E-03     43.7236E-03         1.15630     878.739E-03        -3.30749     892.667E-03        -3.04386     878.739E-03     535.672E-03     116.167E-03    -58.0039E-03    -58.1803E-03    -57.9955E-03     116.159E-03    -58.1803E-03     2.31987E-03    -39.3453E+06    -59.4693E+06    -246.310E+06    -59.4749E+06    -246.304E+06    -39.3453E+06     462.376E+03         29.4511
             543     2.83147E-03     43.7222E-03         1.56852     872.452E-03        -3.70945     899.814E-03        -3.04074     872.452E-03    -862.820E-03     116.182E-03    -58.0343E-03    -58.1609E-03    -58.0317E-03     116.179E-03    -58.1609E-03     1.29909E-03    -49.2077E+06    -63.3141E+06    -251.870E+06    -63.3228E+06    -251.861E+06    -49.2077E+06     927.143E+03         29.2291
             544     1.88778E-03     43.7206E-03         2.57124     862.026E-03        -4.69228     885.492E-03        -3.00653     862.026E-03         1.73908     116.202E-03    -58.0044E-03    -58.2034E-03    -58.1010E-03     116.201E-03    -58.1058E-03     710.787E-06    -60.9710E+06    -67.8241E+06    -258.043E+06    -67.8328E+06    -258.034E+06    -60.9710E+06     965.242E+03         29.0739
             545     944.209E-06     43.7208E-03         5.80127     971.617E-03        -8.02729     740.684E-03        -2.96670     971.617E-03        -5.41993     116.070E-03    -57.9079E-03    -58.1648E-03    -58.1067E-03     116.069E-03    -57.9656E-03     220.308E-06    -69.5768E+06    -71.4552E+06    -263.115E+06    -70.9496E+06    -263.108E+06    -70.0893E+06    -136.535E+03         28.9815
             546     16.0524E-03     43.2140E-03     886.354E-03     872.721E-03        -3.04085     874.545E-03        -3.04013     883.815E-03     23.9283E-03     139.988E-03    -58.0873E-03    -81.9243E-03    -57.2983E-03     115.363E-03    -58.0873E-03     129.920E-03     147.442E+06     123.243E+06    -7.16833E+06    -7.15201E+06     147.425E+06     123.243E+06     359.389E+03         55.0654
             547     15.1079E-03     42.9942E-03     889.222E-03     883.879E-03        -3.05235     886.922E-03        -3.05196     885.791E-03     3.50706E-03     146.822E-03    -58.0380E-03    -88.8729E-03    -56.9923E-03     114.941E-03    -58.0380E-03     159.492E-03     141.071E+06     99.9093E+06    -14.4257E+06    -14.3985E+06     141.044E+06     99.9093E+06    -891.561E+03         52.0871
             548     14.1622E-03     42.8533E-03     888.554E-03     875.003E-03        -3.04323     875.676E-03        -3.04301     887.662E-03     37.2746E-03     126.976E-03    -57.9508E-03    -69.1308E-03    -55.7703E-03     113.615E-03    -57.9508E-03     95.1505E-03     136.621E+06     62.0593E+06    -18.8660E+06    -18.7554E+06     136.510E+06     62.0593E+06    -1.14980E+06         48.1925
             549     13.2145E-03     42.7849E-03     895.971E-03     878.138E-03        -3.05237     884.960E-03        -3.05234     889.120E-03    -4.86487E-03     118.554E-03    -57.8171E-03    -60.7762E-03    -56.1280E-03     113.906E-03    -57.8171E-03     56.4549E-03     127.642E+06     23.5020E+06    -21.5771E+06    -21.4479E+06     127.513E+06     23.5020E+06    -172.236E+03         44.0188
             550     12.2724E-03     42.7294E-03     908.848E-03     888.921E-03        -3.07522     908.568E-03        -3.07518     889.156E-03     2.42329E-03     117.132E-03    -57.7637E-03    -59.3947E-03    -57.0079E-03     114.746E-03    -57.7637E-03     39.7870E-03     74.7283E+06    -4.00771E+06    -24.6241E+06    -24.5878E+06     74.6920E+06    -4.00771E+06     24.5980E+03         40.2537
             551     11.3286E-03     42.6978E-03     901.414E-03     882.884E-03        -3.06576     895.676E-03        -3.06571     888.573E-03     19.9548E-03     115.845E-03    -57.7467E-03    -58.1324E-03    -56.9428E-03     114.767E-03    -57.8586E-03     27.0539E-03     12.2315E+06    -20.6169E+06    -33.6108E+06    -27.6239E+06    -6.41057E+06    -7.96182E+06     405.293E+03         37.1517
             552     10.3823E-03     42.6714E-03     889.133E-03     877.602E-03        -3.04934     877.357E-03        -3.04909     889.133E-03    -21.3893E-03     115.876E-03    -57.8089E-03    -58.0419E-03    -57.1941E-03     115.188E-03    -57.9690E-03     21.7368E-03    -2.40563E+06    -30.1146E+06    -64.2217E+06    -30.2670E+06    -64.0692E+06    -2.40563E+06     678.251E+03         34.7451
             553     9.43976E-03     42.6508E-03     893.591E-03     884.222E-03        -3.06044     887.113E-03        -3.05980     890.064E-03     20.6943E-03     115.860E-03    -57.7238E-03    -58.1125E-03    -57.3683E-03     115.442E-03    -58.0497E-03     16.6923E-03    -1.18800E+06    -33.0207E+06    -103.496E+06    -33.0478E+06    -103.469E+06    -1.18800E+06     626.723E+03         33.0655
             554     8.49455E-03     42.6363E-03     893.894E-03     889.274E-03        -3.06571     891.011E-03        -3.06392     890.367E-03    -44.7337E-03     115.719E-03    -57.6312E-03    -58.1160E-03    -57.4119E-03     115.499E-03    -58.1160E-03     12.2667E-03    -2.77811E+06    -36.4011E+06    -133.828E+06    -36.4173E+06    -133.812E+06    -2.77811E+06     770.931E+03         31.9864
             555     7.55055E-03     42.6247E-03     891.685E-03     889.470E-03        -3.06236     883.369E-03        -3.05552     890.953E-03     105.376E-03     115.937E-03    -57.8068E-03    -58.1701E-03    -57.6629E-03     115.793E-03    -58.1701E-03     9.91242E-03    -7.44589E+06    -40.2480E+06    -160.185E+06    -40.2565E+06    -160.177E+06    -7.44589E+06     653.925E+03         31.2181
             556     6.60651E-03     42.6157E-03     903.832E-03     891.551E-03        -3.07790     886.307E-03        -3.06076     891.940E-03    -97.1261E-03     116.098E-03    -57.9269E-03    -58.2015E-03    -57.8454E-03     116.016E-03    -58.2015E-03     7.42792E-03    -13.3499E+06    -44.3191E+06    -184.784E+06    -44.3209E+06    -184.782E+06    -13.3499E+06     310.403E+03         30.6024
             557     5.66327E-03     42.6089E-03     928.733E-03     892.837E-03        -3.10613     887.781E-03        -3.06518     892.837E-03     179.479E-03     116.166E-03    -57.9839E-03    -58.2095E-03    -57.9416E-03     116.124E-03    -58.2095E-03     5.36004E-03    -20.7569E+06    -49.0845E+06    -206.832E+06    -49.0867E+06    -206.830E+06    -20.7569E+06     127.990E+03         30.1191
             558     4.71892E-03     42.6045E-03     994.207E-03     893.389E-03        -3.17030     892.543E-03        -3.06864     893.389E-03    -287.855E-03     116.254E-03    -58.0449E-03    -58.2307E-03    -58.0416E-03     116.232E-03    -58.2122E-03     3.83926E-03    -28.7333E+06    -54.1793E+06    -229.565E+06    -54.1823E+06    -229.562E+06    -28.7333E+06     315.865E+03         29.7431
             559     3.77554E-03     42.6020E-03         1.16770     891.183E-03        -3.33990     909.790E-03        -3.08199     891.183E-03     502.508E-03     116.247E-03    -58.0723E-03    -58.1934E-03    -58.0817E-03     116.238E-03    -58.1749E-03     2.40529E-03    -39.2026E+06    -59.3478E+06    -246.743E+06    -59.3529E+06    -246.738E+06    -39.2026E+06     510.784E+03         29.4508
             560     2.83164E-03     42.5995E-03         1.56487     885.741E-03        -3.72849     904.609E-03        -3.06823     885.741E-03    -879.307E-03     116.090E-03    -57.9656E-03    -58.1413E-03    -57.9626E-03     116.087E-03    -58.1413E-03     1.41393E-03    -50.7499E+06    -64.3456E+06    -252.314E+06    -64.3530E+06    -252.307E+06    -50.7499E+06     773.880E+03         29.2285
             561     1.88753E-03     42.5995E-03         2.55741     877.755E-03        -4.70790     897.211E-03        -3.04770     877.755E-03         1.71751     116.029E-03    -57.8569E-03    -58.1802E-03    -57.8555E-03     116.027E-03    -58.1802E-03     903.645E-06    -59.9823E+06    -68.0137E+06    -256.800E+06    -68.0215E+06    -256.792E+06    -59.9823E+06     1.01792E+06         29.0746
             562     943.163E-06     42.5982E-03         5.78637     948.959E-03        -8.00710     796.869E-03        -3.01760     948.959E-03        -5.39415     116.372E-03    -57.9281E-03    -58.4486E-03    -58.2577E-03     116.371E-03    -58.1180E-03     512.615E-06    -68.6529E+06    -71.7623E+06    -261.884E+06    -71.5405E+06    -261.879E+06    -68.8798E+06     548.621E+03         28.9859
             563     16.0556E-03     42.0924E-03     898.651E-03     889.577E-03        -3.08222     890.984E-03        -3.08162     896.650E-03    -17.0345E-03     140.572E-03    -58.0694E-03    -82.5256E-03    -57.4686E-03     115.515E-03    -58.0694E-03     130.344E-03     148.432E+06     123.068E+06    -8.38495E+06    -8.36871E+06     148.415E+06     123.068E+06     247.730E+03         55.0577
             564     15.1094E-03     41.8725E-03     901.724E-03     896.394E-03        -3.09060     898.697E-03        -3.09001     898.831E-03    -21.8870E-03     147.319E-03    -58.0081E-03    -89.4146E-03    -56.9456E-03     114.850E-03    -58.0081E-03     160.934E-03     144.359E+06     100.151E+06    -14.3537E+06    -14.2904E+06     144.296E+06     100.151E+06    -1.57323E+06         52.0812
             565     14.1615E-03     41.7341E-03     904.729E-03     889.965E-03        -3.08496     893.549E-03        -3.08475     900.929E-03     18.2866E-03     127.168E-03    -57.9087E-03    -69.3833E-03    -55.9933E-03     113.778E-03    -57.9087E-03     95.6055E-03     135.511E+06     58.8905E+06    -20.5053E+06    -20.3974E+06     135.403E+06     58.8905E+06    -2.96263E+06         48.1886
             566     13.2183E-03     41.6606E-03     905.655E-03     887.075E-03        -3.08128     889.862E-03        -3.08116     902.747E-03    -38.7336E-03     118.649E-03    -57.7827E-03    -60.9161E-03    -56.1915E-03     113.924E-03    -57.7827E-03     56.7861E-03     125.372E+06     20.5884E+06    -24.6557E+06    -24.5745E+06     125.291E+06     20.5884E+06    -1.09257E+06         44.0164
             567     12.2722E-03     41.6076E-03     912.975E-03     895.182E-03        -3.09874     904.188E-03        -3.09865     903.883E-03    -30.9798E-03     116.622E-03    -57.7496E-03    -58.8979E-03    -56.5776E-03     114.301E-03    -57.7496E-03     39.2197E-03     74.1705E+06    -4.37218E+06    -26.5778E+06    -26.5197E+06     74.1124E+06    -4.37218E+06     809.626E+03         40.2512
             568     11.3267E-03     41.5753E-03     921.690E-03     900.391E-03        -3.11306     918.243E-03        -3.11299     903.768E-03     14.7809E-03     115.768E-03    -57.8566E-03    -57.9438E-03    -56.8519E-03     114.676E-03    -57.8566E-03     27.2323E-03     12.3347E+06    -20.5999E+06    -34.2367E+06    -28.2657E+06    -6.42576E+06    -7.81042E+06     786.553E+03         37.1493
             569     10.3844E-03     41.5497E-03     912.284E-03     896.918E-03        -3.10151     905.380E-03        -3.10115     903.455E-03    -26.9743E-03     115.835E-03    -57.8206E-03    -57.9902E-03    -57.1283E-03     115.127E-03    -57.9754E-03     22.0381E-03    -2.04701E+06    -29.7374E+06    -64.0809E+06    -29.9284E+06    -63.8899E+06    -2.04701E+06     626.430E+03         34.7439
             570     9.43843E-03     41.5283E-03     905.293E-03     894.174E-03        -3.09377     894.769E-03        -3.09318     904.113E-03    -1.35848E-03     115.873E-03    -57.7852E-03    -58.0645E-03    -57.3517E-03     115.440E-03    -58.0645E-03     16.9899E-03    -819.488E+03    -32.5729E+06    -103.055E+06    -32.6112E+06    -103.016E+06    -819.488E+03     581.319E+03         33.0661
             571     8.49506E-03     41.5141E-03     908.298E-03     900.024E-03        -3.10149     901.999E-03        -3.10012     904.946E-03    -46.2537E-03     115.919E-03    -57.8257E-03    -58.1202E-03    -57.6049E-03     115.699E-03    -58.1202E-03     12.2977E-03    -2.79445E+06    -36.2597E+06    -133.459E+06    -36.2789E+06    -133.440E+06    -2.79445E+06     626.104E+03         31.9877
             572     7.55063E-03     41.5023E-03     912.126E-03     904.998E-03        -3.10978     906.079E-03        -3.10394     905.212E-03     100.911E-03     115.911E-03    -57.7861E-03    -58.1613E-03    -57.6471E-03     115.772E-03    -58.1613E-03     9.75139E-03    -7.79721E+06    -40.2379E+06    -159.749E+06    -40.2472E+06    -159.740E+06    -7.79721E+06     576.271E+03         31.2181
             573     6.60699E-03     41.4929E-03     922.476E-03     905.221E-03        -3.12256     906.003E-03        -3.10609     905.221E-03    -113.468E-03     115.999E-03    -57.8232E-03    -58.2044E-03    -57.7411E-03     115.917E-03    -58.2044E-03     7.46149E-03    -13.4693E+06    -44.7902E+06    -184.633E+06    -44.7922E+06    -184.631E+06    -13.4693E+06     244.841E+03         30.6008
             574     5.66252E-03     41.4869E-03     945.788E-03     905.188E-03        -3.14727     905.892E-03        -3.10737     905.188E-03     170.564E-03     116.109E-03    -57.9054E-03    -58.2330E-03    -57.8623E-03     116.066E-03    -58.2330E-03     5.38877E-03    -20.3205E+06    -49.0661E+06    -207.165E+06    -49.0680E+06    -207.163E+06    -20.3205E+06     351.531E+03         30.1180
             575     4.71888E-03     41.4827E-03         1.00165     905.643E-03        -3.20304     901.069E-03        -3.10246     905.643E-03    -295.798E-03     116.229E-03    -57.9914E-03    -58.2628E-03    -57.9878E-03     116.207E-03    -58.2443E-03     3.88256E-03    -29.5242E+06    -53.8994E+06    -229.625E+06    -53.9048E+06    -229.620E+06    -29.5242E+06     699.642E+03         29.7434
             576     3.77519E-03     41.4789E-03         1.15568     906.974E-03        -3.35792     900.274E-03        -3.10251     906.974E-03     491.351E-03     116.318E-03    -58.0924E-03    -58.2459E-03    -58.1084E-03     116.308E-03    -58.2198E-03     2.52354E-03    -40.4773E+06    -59.4631E+06    -246.420E+06    -59.4708E+06    -246.413E+06    -40.4773E+06     881.262E+03         29.4527
             577     2.83142E-03     41.4788E-03         1.53511     909.713E-03        -3.73669     898.454E-03        -3.10003     909.713E-03    -841.419E-03     116.236E-03    -58.0619E-03    -58.1906E-03    -58.0665E-03     116.233E-03    -58.1830E-03     1.37205E-03    -51.0063E+06    -63.5981E+06    -252.035E+06    -63.6021E+06    -252.031E+06    -51.0063E+06     429.229E+03         29.2329
             578     1.88738E-03     41.4767E-03         2.49140     913.160E-03        -4.69751     906.964E-03        -3.11308     913.160E-03         1.67201     116.140E-03    -57.9489E-03    -58.1992E-03    -57.9480E-03     116.139E-03    -58.1992E-03     669.019E-06    -59.6962E+06    -66.7846E+06    -256.754E+06    -66.7858E+06    -256.752E+06    -59.6962E+06    -91.3647E+03         29.0808
             579     943.611E-06     41.4773E-03         5.64894     979.695E-03        -7.92521     849.767E-03        -3.12603     979.695E-03        -5.29948     116.392E-03    -57.8927E-03    -58.5022E-03    -58.3448E-03     116.390E-03    -58.0482E-03     931.758E-06    -66.7009E+06    -69.6554E+06    -260.707E+06    -69.5021E+06    -260.696E+06    -66.8644E+06     757.418E+03         28.9928
             580     16.0512E-03     40.9715E-03     909.864E-03     895.485E-03        -3.11214     894.593E-03        -3.11125     909.864E-03     6.97602E-03     140.162E-03    -58.1353E-03    -82.0569E-03    -57.0664E-03     115.171E-03    -58.1353E-03     130.157E-03     149.397E+06     125.500E+06    -6.22135E+06    -6.16348E+06     149.339E+06     125.500E+06    -797.337E+03         55.0464
             581     15.1053E-03     40.7487E-03     912.957E-03     891.029E-03        -3.10307     890.511E-03        -3.10256     912.957E-03    -24.4153E-03     147.736E-03    -58.0562E-03    -89.7855E-03    -57.4798E-03     115.431E-03    -58.0562E-03     160.843E-03     147.107E+06     101.173E+06    -13.4657E+06    -13.3591E+06     147.001E+06     101.173E+06    -2.16106E+06         52.0717
             582     14.1633E-03     40.6129E-03     921.138E-03     906.262E-03        -3.12732     911.649E-03        -3.12716     915.588E-03     13.3583E-03     127.864E-03    -57.8987E-03    -70.0838E-03    -56.5813E-03     114.361E-03    -57.8987E-03     96.7351E-03     135.192E+06     55.5162E+06    -20.1485E+06    -20.0947E+06     135.138E+06     55.5162E+06    -1.39228E+06         48.1823
             583     13.2166E-03     40.5371E-03     926.404E-03     910.293E-03        -3.13850     919.900E-03        -3.13839     916.688E-03    -26.2910E-03     118.850E-03    -57.7580E-03    -61.1502E-03    -56.1760E-03     113.876E-03    -57.7580E-03     58.2793E-03     123.247E+06     16.6859E+06    -26.0833E+06    -26.0695E+06     123.233E+06     16.6859E+06    -279.623E+03         44.0119
             584     12.2725E-03     40.4875E-03     921.845E-03     901.329E-03        -3.12611     905.420E-03        -3.12604     917.678E-03    -10.4642E-03     116.615E-03    -57.7463E-03    -58.8933E-03    -56.4924E-03     114.214E-03    -57.7463E-03     39.8638E-03     72.8768E+06    -6.11960E+06    -28.3809E+06    -28.2982E+06     72.7940E+06    -6.11960E+06    -183.322E+03         40.2472
             585     11.3283E-03     40.4519E-03     927.607E-03     904.926E-03        -3.13537     913.651E-03        -3.13527     918.778E-03     28.9386E-03     115.733E-03    -57.6729E-03    -58.0882E-03    -56.7849E-03     114.621E-03    -57.8643E-03     27.4379E-03     12.2755E+06    -21.0203E+06    -34.1782E+06    -28.0329E+06    -6.41280E+06    -8.47727E+06     155.902E+03         37.1459
             586     10.3821E-03     40.4283E-03     932.276E-03     914.132E-03        -3.14832     927.183E-03        -3.14805     918.953E-03    -9.34420E-03     115.777E-03    -57.6963E-03    -58.0620E-03    -57.0469E-03     115.060E-03    -57.9943E-03     22.2110E-03    -2.45197E+06    -29.6776E+06    -63.9431E+06    -29.8519E+06    -63.7688E+06    -2.45197E+06     393.481E+03         34.7423
             587     9.43883E-03     40.4061E-03     923.717E-03     908.049E-03        -3.13211     912.206E-03        -3.13178     919.223E-03    -2.16176E-03     116.076E-03    -57.9096E-03    -58.1436E-03    -57.5289E-03     115.632E-03    -58.0807E-03     17.1632E-03    -1.47288E+06    -32.9181E+06    -103.130E+06    -32.9664E+06    -103.082E+06    -1.47288E+06     446.732E+03         33.0671
             588     8.49447E-03     40.3914E-03     924.879E-03     909.933E-03        -3.13226     913.158E-03        -3.13079     920.184E-03    -67.9912E-03     116.036E-03    -57.9357E-03    -58.1271E-03    -57.7189E-03     115.819E-03    -58.1271E-03     12.2033E-03    -2.85098E+06    -36.3602E+06    -133.296E+06    -36.3834E+06    -133.273E+06    -2.85098E+06     496.566E+03         31.9894
             589     7.55117E-03     40.3803E-03     937.709E-03     919.997E-03        -3.15604     931.767E-03        -3.15010     919.997E-03     91.2923E-03     115.938E-03    -57.8108E-03    -58.1604E-03    -57.6675E-03     115.795E-03    -58.1604E-03     9.92858E-03    -8.45110E+06    -40.2796E+06    -159.712E+06    -40.2956E+06    -159.696E+06    -8.45110E+06     640.686E+03         31.2178
             590     6.60640E-03     40.3709E-03     938.674E-03     919.092E-03        -3.16300     923.126E-03        -3.14745     919.092E-03    -103.341E-03     115.913E-03    -57.7302E-03    -58.2074E-03    -57.6447E-03     115.828E-03    -58.2074E-03     7.56776E-03    -14.3303E+06    -44.2683E+06    -184.180E+06    -44.2756E+06    -184.172E+06    -14.3303E+06     668.562E+03         30.5990
             591     5.66281E-03     40.3647E-03     954.150E-03     918.974E-03        -3.18270     917.923E-03        -3.14647     918.974E-03     159.284E-03     116.047E-03    -57.8194E-03    -58.2563E-03    -57.7757E-03     116.004E-03    -58.2563E-03     5.44629E-03    -21.0337E+06    -49.3136E+06    -207.355E+06    -49.3201E+06    -207.348E+06    -21.0337E+06     781.555E+03         30.1172
             592     4.71886E-03     40.3600E-03         1.00764     919.458E-03        -3.23794     916.088E-03        -3.14639     919.458E-03    -286.327E-03     116.207E-03    -57.9494E-03    -58.2845E-03    -57.9260E-03     116.184E-03    -58.2845E-03     3.92384E-03    -30.9857E+06    -54.8424E+06    -230.124E+06    -54.8536E+06    -230.113E+06    -30.9857E+06     1.21774E+06         29.7449
             593     3.77461E-03     40.3573E-03         1.14309     922.027E-03        -3.37549     904.500E-03        -3.13690     922.027E-03     485.174E-03     116.305E-03    -58.0312E-03    -58.2944E-03    -58.0291E-03     116.296E-03    -58.2868E-03     2.52047E-03    -40.9468E+06    -59.2385E+06    -245.064E+06    -59.2457E+06    -245.057E+06    -40.9468E+06     475.233E+03         29.4561
             594     2.83116E-03     40.3550E-03         1.50844     926.449E-03        -3.74067     913.196E-03        -3.14543     926.449E-03    -811.568E-03     116.456E-03    -58.1646E-03    -58.3038E-03    -58.1961E-03     116.453E-03    -58.2690E-03     1.42335E-03    -50.4015E+06    -63.0315E+06    -251.431E+06    -63.0355E+06    -251.427E+06    -50.4015E+06    -659.649E+03         29.2385
             595     1.88780E-03     40.3561E-03         2.44836     932.345E-03        -4.68894     917.627E-03        -3.15821     932.345E-03         1.69261     116.515E-03    -58.1550E-03    -58.3652E-03    -58.3395E-03     116.514E-03    -58.1795E-03     881.379E-06    -59.4834E+06    -66.0218E+06    -257.361E+06    -66.0287E+06    -257.354E+06    -59.4834E+06    -158.066E+03         29.0875
             596     943.891E-06     40.3537E-03         5.54060         1.01909        -7.87331     852.936E-03        -3.18565         1.01909        -5.20740     116.162E-03    -57.8514E-03    -58.3132E-03    -58.2146E-03     116.160E-03    -57.9481E-03     929.852E-06    -66.3128E+06    -68.4647E+06    -260.958E+06    -68.3235E+06    -260.935E+06    -66.4764E+06     283.674E+03         28.9963
             597     16.0518E-03     39.8445E-03     922.065E-03     898.731E-03        -3.12962     897.742E-03        -3.12863     922.065E-03     53.7144E-03     139.356E-03    -58.1882E-03    -81.2382E-03    -56.7001E-03     114.818E-03    -58.1882E-03     130.526E-03     150.351E+06     124.912E+06    -6.86319E+06    -6.78790E+06     150.276E+06     124.912E+06    -2.00961E+06         55.0344
             598     15.1084E-03     39.6300E-03     925.271E-03     897.332E-03        -3.12997     897.049E-03        -3.12968     925.271E-03     6.24470E-03     147.353E-03    -58.1124E-03    -89.3530E-03    -57.4667E-03     115.466E-03    -58.1124E-03     160.192E-03     146.392E+06     99.3549E+06    -14.6691E+06    -14.6194E+06     146.342E+06     99.3549E+06    -1.18223E+06         52.0609
             599     14.1599E-03     39.4870E-03     930.673E-03     910.076E-03        -3.15268     912.543E-03        -3.15250     928.031E-03     29.3454E-03     128.548E-03    -57.9471E-03    -70.7037E-03    -56.7555E-03     114.599E-03    -57.9471E-03     97.7644E-03     134.171E+06     53.6823E+06    -22.2191E+06    -22.2169E+06     134.168E+06     53.6823E+06    -86.0989E+03         48.1732
             600     13.2168E-03     39.4179E-03     936.240E-03     920.658E-03        -3.17265     927.448E-03        -3.17263     929.432E-03     2.73351E-03     119.069E-03    -57.7925E-03    -61.3262E-03    -56.5448E-03     114.288E-03    -57.7925E-03     57.3881E-03     123.743E+06     16.9472E+06    -25.9193E+06    -25.8878E+06     123.712E+06     16.9472E+06    -810.070E+03         44.0046
             601     12.2710E-03     39.3623E-03     935.043E-03     919.584E-03        -3.16850     924.285E-03        -3.16846     930.303E-03     4.42605E-03     116.675E-03    -57.7476E-03    -58.9443E-03    -56.4928E-03     114.251E-03    -57.7754E-03     40.0411E-03     73.0044E+06    -5.71521E+06    -27.1347E+06    -27.0556E+06     72.9253E+06    -5.71521E+06    -915.924E+03         40.2414
             602     11.3269E-03     39.3318E-03     932.243E-03     913.829E-03        -3.15890     914.271E-03        -3.15877     931.669E-03     23.6586E-03     115.978E-03    -57.6743E-03    -58.3381E-03    -57.0027E-03     114.862E-03    -57.8935E-03     27.5309E-03     11.1611E+06    -21.9999E+06    -34.2910E+06    -28.8538E+06    -6.87457E+06    -9.40143E+06    -340.273E+03         37.1412
             603     10.3830E-03     39.3053E-03     937.611E-03     919.361E-03        -3.16669     923.685E-03        -3.16652     933.118E-03     10.7652E-03     116.005E-03    -57.7010E-03    -58.2919E-03    -57.2897E-03     115.304E-03    -58.0020E-03     21.9700E-03    -3.27553E+06    -30.5774E+06    -64.2908E+06    -30.8301E+06    -64.0381E+06    -3.27553E+06     190.360E+03         34.7386
             604     9.43852E-03     39.2832E-03     944.193E-03     924.416E-03        -3.17711     934.355E-03        -3.17662     933.759E-03     35.7224E-03     115.929E-03    -57.7620E-03    -58.1428E-03    -57.3928E-03     115.497E-03    -58.0799E-03     17.0248E-03    -2.36150E+06    -33.2477E+06    -103.463E+06    -33.2977E+06    -103.413E+06    -2.36150E+06     317.355E+03         33.0633
             605     8.49492E-03     39.2694E-03     942.383E-03     927.054E-03        -3.17575     933.691E-03        -3.17393     933.921E-03    -53.0325E-03     115.892E-03    -57.7682E-03    -58.1472E-03    -57.5430E-03     115.667E-03    -58.1472E-03     12.4038E-03    -3.63007E+06    -36.5793E+06    -133.759E+06    -36.6008E+06    -133.738E+06    -3.63007E+06     215.120E+03         31.9861
             606     7.55015E-03     39.2582E-03     945.363E-03     932.063E-03        -3.18441     937.473E-03        -3.17829     933.832E-03     90.2308E-03     116.020E-03    -57.8598E-03    -58.1967E-03    -57.7133E-03     115.874E-03    -58.1967E-03     10.0537E-03    -8.42648E+06    -39.7435E+06    -159.798E+06    -39.7556E+06    -159.786E+06    -8.42648E+06     347.189E+03         31.2173
             607     6.60694E-03     39.2488E-03     954.287E-03     932.865E-03        -3.19890     938.920E-03        -3.18398     933.312E-03    -93.2142E-03     116.056E-03    -57.8487E-03    -58.2337E-03    -57.7594E-03     115.967E-03    -58.2337E-03     7.74056E-03    -14.5900E+06    -43.1414E+06    -183.625E+06    -43.1515E+06    -183.615E+06    -14.5900E+06     712.850E+03         30.6011
             608     5.66230E-03     39.2429E-03     967.369E-03     932.933E-03        -3.21266     933.705E-03        -3.17900     932.933E-03     150.986E-03     116.094E-03    -57.8243E-03    -58.2941E-03    -57.7797E-03     116.049E-03    -58.2941E-03     5.49443E-03    -19.1176E+06    -47.5814E+06    -208.284E+06    -47.5985E+06    -208.267E+06    -19.1176E+06     1.52859E+06         30.1208
             609     4.71813E-03     39.2374E-03         1.00844     933.802E-03        -3.25808     925.066E-03        -3.17471     933.802E-03    -268.707E-03     116.237E-03    -57.9166E-03    -58.3414E-03    -57.8941E-03     116.215E-03    -58.3414E-03     3.84094E-03    -27.2560E+06    -52.8074E+06    -229.306E+06    -52.8238E+06    -229.290E+06    -27.2560E+06     1.54866E+06         29.7492
             610     3.77497E-03     39.2351E-03         1.14777     935.555E-03        -3.40162     928.828E-03        -3.18267     935.555E-03     479.147E-03     116.326E-03    -58.0022E-03    -58.3411E-03    -57.9931E-03     116.317E-03    -58.3411E-03     2.45845E-03    -40.2257E+06    -57.9804E+06    -243.052E+06    -57.9845E+06    -243.048E+06    -40.2257E+06     86.9490E+03         29.4602
             611     2.83054E-03     39.2333E-03         1.50762     935.208E-03        -3.76052     942.472E-03        -3.19537     935.208E-03    -817.281E-03     116.534E-03    -58.1751E-03    -58.3730E-03    -58.1987E-03     116.531E-03    -58.3458E-03     1.52337E-03    -51.3172E+06    -62.4219E+06    -251.868E+06    -62.4259E+06    -251.864E+06    -51.3172E+06    -766.136E+03         29.2422
             612     1.88698E-03     39.2322E-03         2.43752     928.955E-03        -4.68617     949.143E-03        -3.19779     928.955E-03         1.68958     116.718E-03    -58.2653E-03    -58.4586E-03    -58.4516E-03     116.717E-03    -58.2709E-03     873.116E-06    -59.6390E+06    -66.3542E+06    -257.822E+06    -66.3642E+06    -257.812E+06    -59.6390E+06    -385.123E+03         29.0915
             613     944.426E-06     39.2323E-03         5.48072         1.00917        -7.81111     838.625E-03        -3.16901         1.00917        -5.14786     116.331E-03    -58.0134E-03    -58.3198E-03    -58.2455E-03     116.330E-03    -58.0868E-03     586.287E-06    -65.5596E+06    -68.8458E+06    -260.555E+06    -68.0764E+06    -260.536E+06    -66.3477E+06    -311.528E+03         29.0015
             614     16.0494E-03     38.7158E-03     935.324E-03     912.761E-03        -3.16178     913.096E-03        -3.16108     934.289E-03     17.5705E-03     138.735E-03    -58.2071E-03    -80.5831E-03    -55.7320E-03     113.883E-03    -58.2071E-03     131.579E-03     150.871E+06     123.815E+06    -8.66922E+06    -8.59374E+06     150.796E+06     123.815E+06    -1.30068E+06         55.0221
             615     15.1038E-03     38.5107E-03     940.476E-03     928.490E-03        -3.18942     931.769E-03        -3.18916     936.939E-03    -17.7144E-03     147.322E-03    -58.1803E-03    -89.2457E-03    -57.4222E-03     115.498E-03    -58.1803E-03     159.833E-03     144.346E+06     99.4808E+06    -16.9795E+06    -16.9436E+06     144.310E+06     99.4808E+06    -1.26148E+06         52.0495
             616     14.1600E-03     38.3634E-03     941.678E-03     922.471E-03        -3.18341     924.864E-03        -3.18330     939.176E-03     3.52285E-03     129.036E-03    -57.9968E-03    -71.1382E-03    -57.3752E-03     115.273E-03    -57.9968E-03     97.2093E-03     134.882E+06     55.4961E+06    -22.3718E+06    -22.3242E+06     134.834E+06     55.4961E+06    -1.47243E+06         48.1653
             617     13.2164E-03     38.2931E-03     941.434E-03     917.188E-03        -3.17745     917.137E-03        -3.17740     941.434E-03    -9.32918E-03     118.791E-03    -57.8095E-03    -61.0261E-03    -56.5191E-03     114.284E-03    -57.8095E-03     55.6689E-03     123.707E+06     17.8317E+06    -24.5261E+06    -24.4524E+06     123.634E+06     17.8317E+06    -2.14602E+06         43.9986
             618     12.2719E-03     38.2431E-03     944.071E-03     927.190E-03        -3.18934     927.731E-03        -3.18931     943.497E-03    -5.05300E-03     116.564E-03    -57.7696E-03    -58.8054E-03    -56.4256E-03     114.212E-03    -57.7974E-03     39.5983E-03     71.8077E+06    -5.59522E+06    -26.6912E+06    -26.6410E+06     71.7575E+06    -5.59522E+06    -870.479E+03         40.2353
             619     11.3262E-03     38.2074E-03     946.985E-03     934.680E-03        -3.19892     936.677E-03        -3.19882     944.892E-03     9.27333E-03     116.145E-03    -57.8860E-03    -58.2984E-03    -57.1431E-03     115.018E-03    -57.9138E-03     27.5949E-03     11.2209E+06    -22.2940E+06    -34.8555E+06    -28.8937E+06    -7.32890E+06    -9.70600E+06    -190.684E+03         37.1360
             620     10.3833E-03     38.1830E-03     948.047E-03     936.061E-03        -3.20263     937.936E-03        -3.20238     945.920E-03    -7.56800E-03     116.175E-03    -57.8799E-03    -58.2884E-03    -57.4745E-03     115.493E-03    -58.0108E-03     21.7214E-03    -3.37184E+06    -30.6127E+06    -64.4714E+06    -30.8234E+06    -64.2607E+06    -3.37184E+06    -103.080E+03         34.7339
             621     9.43881E-03     38.1616E-03     952.992E-03     942.061E-03        -3.21315     947.852E-03        -3.21239     946.445E-03     38.6601E-03     115.710E-03    -57.6054E-03    -58.0915E-03    -57.1701E-03     115.275E-03    -58.0915E-03     17.0927E-03    -2.54753E+06    -33.1466E+06    -103.519E+06    -33.2060E+06    -103.460E+06    -2.54753E+06     130.062E+03         33.0577
             622     8.49365E-03     38.1466E-03     953.631E-03     944.464E-03        -3.21391     949.545E-03        -3.21173     946.371E-03    -47.0184E-03     115.752E-03    -57.6056E-03    -58.1796E-03    -57.3769E-03     115.523E-03    -58.1796E-03     12.4719E-03    -3.77566E+06    -36.2033E+06    -133.841E+06    -36.2257E+06    -133.819E+06    -3.77566E+06     60.8643E+03         31.9815
             623     7.55040E-03     38.1357E-03     948.146E-03     943.701E-03        -3.21085     938.896E-03        -3.20472     946.825E-03     78.1597E-03     116.018E-03    -57.8097E-03    -58.2483E-03    -57.6656E-03     115.874E-03    -58.2483E-03     9.96446E-03    -7.63690E+06    -40.0320E+06    -159.868E+06    -40.0430E+06    -159.857E+06    -7.63690E+06     58.8127E+03         31.2175
             624     6.60565E-03     38.1267E-03     960.503E-03     945.871E-03        -3.22469     944.272E-03        -3.21027     947.673E-03    -94.6377E-03     116.191E-03    -57.9317E-03    -58.2877E-03    -57.8416E-03     116.101E-03    -58.2877E-03     7.81263E-03    -14.4561E+06    -44.7410E+06    -184.294E+06    -44.7477E+06    -184.287E+06    -14.4561E+06     580.409E+03         30.6057
             625     5.66255E-03     38.1203E-03     987.727E-03     947.351E-03        -3.25020     955.154E-03        -3.21762     947.351E-03     149.220E-03     116.327E-03    -58.0278E-03    -58.3232E-03    -57.9829E-03     116.282E-03    -58.3232E-03     5.49314E-03    -20.1890E+06    -48.9675E+06    -208.609E+06    -48.9798E+06    -208.596E+06    -20.1890E+06     931.015E+03         30.1263
             626     4.71880E-03     38.1159E-03         1.02583     946.754E-03        -3.29374     946.798E-03        -3.21471     946.754E-03    -255.635E-03     116.291E-03    -57.9527E-03    -58.3581E-03    -57.9319E-03     116.270E-03    -58.3581E-03     3.73999E-03    -26.3898E+06    -52.4280E+06    -228.117E+06    -52.4380E+06    -228.107E+06    -26.3898E+06     659.629E+03         29.7535
             627     3.77409E-03     38.1125E-03         1.15571     946.473E-03        -3.42522     948.946E-03        -3.21846     946.473E-03     468.720E-03     116.374E-03    -58.0291E-03    -58.3640E-03    -58.0207E-03     116.366E-03    -58.3640E-03     2.30890E-03    -37.7860E+06    -56.7065E+06    -242.007E+06    -56.7101E+06    -242.003E+06    -37.7860E+06     443.159E+03         29.4632
             628     2.83100E-03     38.1112E-03         1.49212     946.586E-03        -3.76283     944.177E-03        -3.21489     946.586E-03    -817.280E-03     116.515E-03    -58.1610E-03    -58.3700E-03    -58.1579E-03     116.512E-03    -58.3700E-03     1.42731E-03    -51.1088E+06    -61.9008E+06    -251.936E+06    -61.9067E+06    -251.930E+06    -51.1088E+06     543.583E+03         29.2442
             629     1.88746E-03     38.1092E-03         2.36850     945.748E-03        -4.64345     950.784E-03        -3.22573     945.748E-03         1.59536     116.566E-03    -58.1743E-03    -58.4006E-03    -58.1749E-03     116.565E-03    -58.3986E-03     827.017E-06    -61.1862E+06    -66.6428E+06    -257.619E+06    -66.6497E+06    -257.612E+06    -61.1862E+06    -90.4319E+03         29.0951
             630     942.852E-06     38.1105E-03         5.34317         1.02251        -7.68425     866.456E-03        -3.20753         1.02251        -5.08128     116.804E-03    -58.2074E-03    -58.5987E-03    -58.4943E-03     116.803E-03    -58.3113E-03     395.671E-06    -66.1837E+06    -69.6701E+06    -260.422E+06    -68.8959E+06    -260.408E+06    -66.9719E+06    -671.733E+03         29.0113
             631     16.0529E-03     37.6056E-03     947.947E-03     925.418E-03        -3.20046     926.004E-03        -3.20001     946.912E-03    -9.97415E-03     138.952E-03    -58.1700E-03    -80.8125E-03    -55.8126E-03     113.953E-03    -58.1700E-03     130.181E-03     152.086E+06     125.544E+06    -6.23638E+06    -6.13739E+06     151.987E+06     125.544E+06     488.648E+03         55.0105
             632     15.1039E-03     37.3816E-03     953.200E-03     936.332E-03        -3.21518     939.537E-03        -3.21485     949.662E-03    -26.2706E-03     147.359E-03    -58.1487E-03    -89.3042E-03    -57.3903E-03     115.445E-03    -58.1487E-03     159.538E-03     145.266E+06     100.767E+06    -15.4081E+06    -15.2790E+06     145.137E+06     100.767E+06    -1.39582E+06         52.0403
             633     14.1624E-03     37.2423E-03     954.576E-03     937.336E-03        -3.21738     939.712E-03        -3.21726     952.074E-03    -1.60609E-03     128.071E-03    -57.9715E-03    -70.1945E-03    -57.0069E-03     114.884E-03    -57.9715E-03     95.5283E-03     134.809E+06     54.5378E+06    -22.0123E+06    -21.9132E+06     134.710E+06     54.5378E+06    -3.00525E+06         48.1576
             634     13.2160E-03     37.1700E-03     954.596E-03     934.389E-03        -3.21261     934.709E-03        -3.21255     954.211E-03    -23.5190E-03     118.487E-03    -57.7982E-03    -60.7177E-03    -56.1363E-03     113.906E-03    -57.7982E-03     55.8070E-03     121.745E+06     13.6852E+06    -26.2607E+06    -26.1869E+06     121.671E+06     13.6852E+06    -2.26790E+06         43.9907
             635     12.2711E-03     37.1211E-03     956.672E-03     935.700E-03        -3.21481     936.076E-03        -3.21481     956.287E-03    -1.51057E-03     116.946E-03    -57.7908E-03    -59.1632E-03    -56.8717E-03     114.654E-03    -57.7908E-03     39.2691E-03     70.9893E+06    -7.93236E+06    -28.0982E+06    -28.0523E+06     70.9434E+06    -7.93236E+06    -945.586E+03         40.2285
             636     11.3273E-03     37.0850E-03     959.672E-03     940.089E-03        -3.22577     941.559E-03        -3.22572     958.153E-03     18.3693E-03     115.936E-03    -57.6569E-03    -58.3249E-03    -56.9543E-03     114.810E-03    -57.9022E-03     27.5224E-03     11.0151E+06    -22.2015E+06    -35.8953E+06    -28.9150E+06    -7.94135E+06    -10.2254E+06    -265.840E+03         37.1315
             637     10.3822E-03     37.0600E-03     961.519E-03     952.279E-03        -3.23998     954.100E-03        -3.23967     959.392E-03    -27.1964E-03     115.797E-03    -57.7228E-03    -58.0796E-03    -57.1049E-03     115.128E-03    -58.0290E-03     21.4414E-03    -3.75421E+06    -30.7237E+06    -64.9081E+06    -30.8851E+06    -64.7467E+06    -3.75421E+06    -289.095E+03         34.7309
             638     9.43846E-03     37.0402E-03     960.786E-03     954.552E-03        -3.24311     954.550E-03        -3.24250     960.179E-03     8.19174E-03     115.869E-03    -57.7434E-03    -58.1248E-03    -57.3141E-03     115.439E-03    -58.1248E-03     16.9990E-03    -2.26820E+06    -33.6610E+06    -102.948E+06    -33.7124E+06    -102.897E+06    -2.26820E+06    -179.204E+03         33.0565
             639     8.49455E-03     37.0245E-03     962.375E-03     955.716E-03        -3.24889     954.807E-03        -3.24663     961.024E-03    -72.8680E-03     115.729E-03    -57.5653E-03    -58.2045E-03    -57.3296E-03     115.493E-03    -58.2045E-03     12.6871E-03    -4.21441E+06    -37.1332E+06    -133.841E+06    -37.1629E+06    -133.812E+06    -4.21441E+06     50.8594E+03         31.9812
             640     7.54940E-03     37.0133E-03     964.806E-03     960.459E-03        -3.25807     957.513E-03        -3.25213     961.814E-03     56.1419E-03     116.007E-03    -57.7714E-03    -58.2782E-03    -57.6264E-03     115.862E-03    -58.2782E-03     9.92504E-03    -8.20859E+06    -41.6142E+06    -160.425E+06    -41.6272E+06    -160.412E+06    -8.20859E+06     383.148E+03         31.2186
             641     6.60617E-03     37.0039E-03     967.916E-03     961.650E-03        -3.26450     952.004E-03        -3.24994     963.005E-03    -114.815E-03     116.216E-03    -57.9270E-03    -58.3233E-03    -57.8429E-03     116.131E-03    -58.3233E-03     7.58453E-03    -15.0042E+06    -46.3423E+06    -184.977E+06    -46.3522E+06    -184.967E+06    -15.0042E+06     986.094E+03         30.6085
             642     5.66179E-03     36.9972E-03     995.773E-03     963.794E-03        -3.29138     964.991E-03        -3.26060     963.794E-03     118.604E-03     116.363E-03    -58.0559E-03    -58.3384E-03    -58.0102E-03     116.318E-03    -58.3384E-03     5.53512E-03    -24.0986E+06    -50.9333E+06    -207.294E+06    -50.9452E+06    -207.282E+06    -24.0986E+06     103.471E+03         30.1285
             643     4.71827E-03     36.9933E-03         1.04947     962.605E-03        -3.34308     974.243E-03        -3.26786     962.605E-03    -274.359E-03     116.500E-03    -58.1525E-03    -58.3728E-03    -58.1538E-03     116.480E-03    -58.3511E-03     3.69418E-03    -30.5975E+06    -54.9877E+06    -227.559E+06    -54.9941E+06    -227.553E+06    -30.5975E+06    -836.623E+03         29.7551
             644     3.77503E-03     36.9907E-03         1.15741     961.448E-03        -3.44872     961.815E-03        -3.25312     961.448E-03     431.592E-03     116.409E-03    -58.0590E-03    -58.3730E-03    -58.0721E-03     116.401E-03    -58.3513E-03     2.37876E-03    -38.1201E+06    -58.7150E+06    -243.196E+06    -58.7198E+06    -243.191E+06    -38.1201E+06     214.911E+03         29.4649
             645     2.83088E-03     36.9881E-03         1.46448     964.764E-03        -3.75470     944.814E-03        -3.23503     964.764E-03    -808.400E-03     116.394E-03    -58.0397E-03    -58.3700E-03    -58.0363E-03     116.391E-03    -58.3700E-03     1.41975E-03    -49.6924E+06    -63.2924E+06    -251.315E+06    -63.3003E+06    -251.307E+06    -49.6924E+06     1.17684E+06         29.2460
             646     1.88651E-03     36.9882E-03         2.30391     973.117E-03        -4.60836     953.092E-03        -3.25754     973.117E-03         1.54158     116.562E-03    -58.1511E-03    -58.4178E-03    -58.1508E-03     116.561E-03    -58.4170E-03     756.508E-06    -61.1061E+06    -67.5464E+06    -256.346E+06    -67.5519E+06    -256.341E+06    -61.1061E+06     875.429E+03         29.0981
             647     943.562E-06     36.9859E-03         5.12732         1.07755        -7.53130     878.661E-03        -3.28265         1.07755        -4.86858     116.846E-03    -58.2023E-03    -58.6482E-03    -58.5441E-03     116.846E-03    -58.3062E-03     205.527E-06    -68.8104E+06    -71.1201E+06    -260.854E+06    -70.9956E+06    -260.840E+06    -68.9482E+06    -895.390E+03         29.0165
             648     16.0522E-03     36.4859E-03     958.325E-03     941.310E-03        -3.23745     940.364E-03        -3.23651     958.325E-03     27.0463E-03     140.468E-03    -58.1145E-03    -82.3995E-03    -57.4314E-03     115.500E-03    -58.1145E-03     130.494E-03     153.391E+06     125.428E+06    -7.29493E+06    -7.22599E+06     153.322E+06     125.428E+06    -31.1151E+03         54.9977
             649     15.1090E-03     36.2591E-03     961.348E-03     931.022E-03        -3.22596     930.546E-03        -3.22548     961.348E-03    -3.73654E-03     147.536E-03    -58.0431E-03    -89.5899E-03    -57.2666E-03     115.213E-03    -58.0431E-03     160.879E-03     147.594E+06     100.519E+06    -14.2345E+06    -14.1029E+06     147.463E+06     100.519E+06    -202.988E+03         52.0304
             650     14.1605E-03     36.1195E-03     964.591E-03     937.928E-03        -3.23604     937.677E-03        -3.23579     964.591E-03     28.6061E-03     126.863E-03    -57.9283E-03    -69.0381E-03    -55.6781E-03     113.503E-03    -57.9283E-03     95.3134E-03     134.522E+06     53.5589E+06    -21.6023E+06    -21.5284E+06     134.448E+06     53.5589E+06    -1.17858E+06         48.1458
             651     13.2157E-03     36.0492E-03     967.356E-03     949.208E-03        -3.25529     949.563E-03        -3.25526     966.971E-03    -19.1340E-03     118.641E-03    -57.8050E-03    -60.8711E-03    -56.1945E-03     113.965E-03    -57.8050E-03     56.4683E-03     121.410E+06     12.9054E+06    -27.5105E+06    -27.4766E+06     121.376E+06     12.9054E+06    -1.84497E+06         43.9790
             652     12.2718E-03     35.9961E-03     969.157E-03     952.806E-03        -3.26067     953.183E-03        -3.26066     968.773E-03    -6.04653E-03     117.026E-03    -57.7779E-03    -59.2673E-03    -56.9735E-03     114.732E-03    -57.7779E-03     39.1160E-03     69.8669E+06    -9.57695E+06    -30.0881E+06    -29.9881E+06     69.7668E+06    -9.57695E+06    -1.89594E+06         40.2204
             653     11.3278E-03     35.9638E-03     970.712E-03     948.546E-03        -3.25622     948.489E-03        -3.25617     970.712E-03     3.66299E-03     115.731E-03    -57.5786E-03    -58.1921E-03    -56.7775E-03     114.629E-03    -57.8914E-03     27.3677E-03     8.83227E+06    -23.3823E+06    -36.3948E+06    -30.7445E+06    -8.65257E+06    -11.5478E+06    -836.122E+03         37.1263
             654     10.3826E-03     35.9385E-03     972.872E-03     952.569E-03        -3.26428     952.373E-03        -3.26408     972.872E-03    -30.9184E-03     115.577E-03    -57.5435E-03    -58.0344E-03    -56.8353E-03     114.869E-03    -58.0344E-03     21.9994E-03    -5.24578E+06    -31.9248E+06    -65.0132E+06    -32.0932E+06    -64.8447E+06    -5.24578E+06    -381.154E+03         34.7291
             655     9.43800E-03     35.9163E-03     974.775E-03     960.764E-03        -3.27491     960.258E-03        -3.27440     974.775E-03     20.3733E-03     115.930E-03    -57.7800E-03    -58.1458E-03    -57.3535E-03     115.503E-03    -58.1458E-03     16.8838E-03    -3.28905E+06    -34.9258E+06    -103.504E+06    -34.9771E+06    -103.453E+06    -3.28905E+06    -240.182E+03         33.0588
             656     8.49358E-03     35.9037E-03     976.451E-03     965.534E-03        -3.28328     963.368E-03        -3.28108     976.421E-03    -69.4518E-03     115.954E-03    -57.7767E-03    -58.2173E-03    -57.5473E-03     115.724E-03    -58.2173E-03     12.5563E-03    -4.98294E+06    -38.5071E+06    -133.739E+06    -38.5327E+06    -133.713E+06    -4.98294E+06     156.246E+03         31.9853
             657     7.54996E-03     35.8901E-03     981.224E-03     972.507E-03        -3.29855     970.090E-03        -3.29269     977.784E-03     59.9462E-03     116.046E-03    -57.8144E-03    -58.2714E-03    -57.6697E-03     115.901E-03    -58.2714E-03     9.90293E-03    -9.67106E+06    -42.2478E+06    -160.774E+06    -42.2555E+06    -160.766E+06    -9.67106E+06     311.747E+03         31.2205
             658     6.60575E-03     35.8822E-03     985.824E-03     978.864E-03        -3.30985     972.224E-03        -3.29625     978.864E-03    -100.230E-03     116.183E-03    -57.9006E-03    -58.3180E-03    -57.8224E-03     116.105E-03    -58.3180E-03     7.27683E-03    -14.9885E+06    -45.5853E+06    -185.091E+06    -45.5953E+06    -185.081E+06    -14.9885E+06     270.599E+03         30.6076
             659     5.66196E-03     35.8752E-03     996.830E-03     980.415E-03        -3.32202     968.606E-03        -3.29379     980.415E-03     115.658E-03     116.271E-03    -57.9499E-03    -58.3496E-03    -57.9078E-03     116.229E-03    -58.3496E-03     5.32498E-03    -22.6258E+06     -49.484E+06    -205.671E+06    -49.5033E+06    -205.651E+06    -22.6258E+06     229.175E+03         30.1263
             660     4.71828E-03     35.8703E-03         1.04589     982.009E-03        -3.36649     976.584E-03        -3.29718     982.009E-03    -265.474E-03     116.468E-03    -58.0961E-03    -58.3910E-03    -58.0977E-03     116.448E-03    -58.3692E-03     3.64313E-03    -32.0651E+06    -55.0398E+06    -227.912E+06    -55.0530E+06    -227.899E+06    -32.0651E+06    -510.711E+03         29.7540
             661     3.77464E-03     35.8680E-03         1.17290     981.785E-03        -3.48518     988.316E-03        -3.30061     981.785E-03     439.389E-03     116.526E-03    -58.1400E-03    -58.4046E-03    -58.1669E-03     116.517E-03    -58.3687E-03     2.48536E-03    -40.6379E+06    -60.3191E+06    -244.723E+06    -60.3234E+06    -244.718E+06    -40.6379E+06    -332.798E+03         29.4669
             662     2.83061E-03     35.8666E-03         1.46747     980.390E-03        -3.77184     984.048E-03        -3.28842     980.390E-03    -753.671E-03     116.554E-03    -58.1684E-03    -58.3982E-03    -58.2054E-03     116.550E-03    -58.3572E-03     1.54031E-03    -49.5068E+06    -64.4062E+06    -250.687E+06    -64.4091E+06    -250.684E+06    -49.5068E+06     443.587E+03         29.2493
             663     1.88771E-03     35.8646E-03         2.25045     978.373E-03        -4.56076     984.025E-03        -3.29433     978.373E-03         1.49636     116.594E-03    -58.2508E-03    -58.3490E-03    -58.2777E-03     116.594E-03    -58.3212E-03     658.975E-06    -59.8890E+06    -68.0552E+06    -255.552E+06    -68.0581E+06    -255.549E+06    -59.8890E+06     445.634E+03         29.0996
             664     943.595E-06     35.8648E-03         4.93202         1.09341        -7.37707     860.512E-03        -3.30556         1.09341        -4.71924     116.530E-03    -58.1089E-03    -58.4263E-03    -58.4020E-03     116.529E-03    -58.1323E-03     577.123E-06    -68.6242E+06    -71.5667E+06    -260.858E+06    -70.7210E+06    -260.840E+06    -69.4872E+06     527.261E+03         29.0145
             665     16.0524E-03     35.3559E-03     969.101E-03     939.486E-03        -3.25349     938.526E-03        -3.25253     969.101E-03     21.9443E-03     140.550E-03    -58.1132E-03    -82.5042E-03    -57.4960E-03     115.542E-03    -58.1132E-03     131.067E-03     153.100E+06     124.377E+06    -8.91322E+06    -8.87492E+06     153.062E+06     124.377E+06    -706.611E+03         54.9806
             666     15.1087E-03     35.1405E-03     972.545E-03     946.266E-03        -3.26681     945.805E-03        -3.26635     972.545E-03    -15.6550E-03     147.663E-03    -58.0372E-03    -89.7490E-03    -57.2610E-03     115.175E-03    -58.0372E-03     161.483E-03     146.977E+06     99.5464E+06    -15.8639E+06    -15.7906E+06     146.903E+06     99.5464E+06    -415.462E+03         52.0137
             667     14.1621E-03     34.9996E-03     975.818E-03     948.234E-03        -3.27066     948.008E-03        -3.27043     975.818E-03     15.6531E-03     127.460E-03    -57.9153E-03    -69.6611E-03    -55.9786E-03     113.778E-03    -57.9153E-03     96.5980E-03     136.743E+06     55.4842E+06    -19.7029E+06    -19.6505E+06     136.690E+06     55.4842E+06    -124.188E+03         48.1303
             668     13.2162E-03     34.9260E-03     978.709E-03     948.007E-03        -3.27457     947.956E-03        -3.27452     978.709E-03    -19.8305E-03     118.491E-03    -57.7887E-03    -60.7488E-03    -56.0429E-03     113.785E-03    -57.7887E-03     56.6129E-03     121.745E+06     15.4635E+06    -23.6201E+06    -23.6043E+06     121.729E+06     15.4635E+06    -516.851E+03         43.9667
             669     12.2717E-03     34.8738E-03     981.336E-03     955.747E-03        -3.28539     955.742E-03        -3.28539     981.336E-03    -2.73268E-03     116.474E-03    -57.7843E-03    -58.7123E-03    -56.3983E-03     114.160E-03    -57.7843E-03     39.1894E-03     67.7893E+06    -9.00992E+06    -28.0101E+06    -27.9359E+06     67.7151E+06    -9.00992E+06    -1.26450E+06         40.2107
             670     11.3264E-03     34.8423E-03     984.483E-03     969.839E-03        -3.30163     971.057E-03        -3.30159     983.216E-03     2.37385E-03     115.853E-03    -57.8490E-03    -58.0315E-03    -56.8522E-03     114.741E-03    -57.9164E-03     27.4616E-03     8.72340E+06    -23.3773E+06    -35.4535E+06    -30.4014E+06    -8.61412E+06    -11.0918E+06    -1.18199E+06         37.1195
             671     10.3824E-03     34.8162E-03     985.986E-03     967.715E-03        -3.30316     968.871E-03        -3.30305     984.719E-03    -14.8890E-03     115.866E-03    -57.7378E-03    -58.1099E-03    -57.1043E-03     115.165E-03    -58.0419E-03     21.9323E-03    -5.32341E+06    -32.4670E+06    -65.4156E+06    -32.7749E+06    -65.1076E+06    -5.32341E+06    -760.293E+03         34.7266
             672     9.43767E-03     34.7952E-03     986.680E-03     966.373E-03        -3.30108     965.793E-03        -3.30050     986.680E-03     48.2825E-03     115.934E-03    -57.7703E-03    -58.1393E-03    -57.3472E-03     115.510E-03    -58.1393E-03     16.8128E-03    -3.70441E+06    -35.4221E+06    -104.021E+06    -35.4675E+06    -103.976E+06    -3.70441E+06    -328.906E+03         33.0604
             673     8.49430E-03     34.7799E-03     988.825E-03     973.608E-03        -3.30876     971.546E-03        -3.30670     988.825E-03    -49.0477E-03     116.115E-03    -57.9417E-03    -58.2034E-03    -57.7263E-03     115.899E-03    -58.2034E-03     12.1410E-03    -5.02463E+06    -38.3790E+06    -133.981E+06    -38.3992E+06    -133.961E+06    -5.02463E+06    -37.5358E+03         31.9886
             674     7.55010E-03     34.7692E-03     992.875E-03     983.723E-03        -3.32448     980.369E-03        -3.31878     990.531E-03     73.5470E-03     116.056E-03    -57.8513E-03    -58.2438E-03    -57.7138E-03     115.919E-03    -58.2438E-03     9.73272E-03    -9.96845E+06    -41.8085E+06    -160.683E+06    -41.8129E+06    -160.678E+06    -9.96845E+06    -156.837E+03         31.2209
             675     6.60607E-03     34.7586E-03     999.619E-03     991.508E-03        -3.34102     987.917E-03        -3.32932     991.508E-03    -67.1787E-03     116.098E-03    -57.8422E-03    -58.2881E-03    -57.7626E-03     116.018E-03    -58.2881E-03     7.27458E-03    -15.4110E+06    -46.0782E+06    -185.069E+06    -46.0845E+06    -185.063E+06    -15.4110E+06    -241.925E+03         30.6043
             676     5.66235E-03     34.7533E-03         1.00998     992.594E-03        -3.35165     983.347E-03        -3.32503     992.594E-03     150.857E-03     116.150E-03    -57.8409E-03    -58.3300E-03    -57.8013E-03     116.110E-03    -58.3300E-03     5.22080E-03    -22.6761E+06    -50.4875E+06    -205.652E+06    -50.4978E+06    -205.642E+06    -22.6761E+06     338.892E+03         30.1227
             677     4.71802E-03     34.7479E-03         1.03900     995.408E-03        -3.37937     975.339E-03        -3.31571     995.408E-03    -217.668E-03     116.248E-03    -57.8815E-03    -58.3795E-03    -57.8603E-03     116.227E-03    -58.3795E-03     3.70460E-03    -32.5005E+06    -55.2735E+06    -227.659E+06    -55.2824E+06    -227.650E+06    -32.5005E+06     394.169E+03         29.7520
             678     3.77406E-03     34.7458E-03         1.16866     996.941E-03        -3.50539         1.00092        -3.33765     996.941E-03     443.846E-03     116.616E-03    -58.2024E-03    -58.4287E-03    -58.2290E-03     116.608E-03    -58.3940E-03     2.34166E-03    -42.2697E+06    -60.4674E+06    -244.791E+06    -60.4759E+06    -244.782E+06    -42.2697E+06    -424.985E+03         29.4673
             679     2.83121E-03     34.7433E-03         1.46197     992.009E-03        -3.79272         1.01872        -3.34947     992.009E-03    -717.937E-03     116.714E-03    -58.3133E-03    -58.4131E-03    -58.3709E-03     116.710E-03    -58.3515E-03     1.64408E-03    -51.4149E+06    -64.2797E+06    -250.496E+06    -64.2888E+06    -250.487E+06    -51.4149E+06    -904.700E+03         29.2508
             680     1.88715E-03     34.7428E-03         2.18104     981.015E-03        -4.51074         1.00722        -3.33692     981.015E-03         1.42793     116.572E-03    -58.2301E-03    -58.3501E-03    -58.2871E-03     116.571E-03    -58.2917E-03     912.706E-06    -59.8584E+06    -66.8587E+06    -255.938E+06    -66.8636E+06    -255.933E+06    -59.8584E+06    -230.606E+03         29.0998
             681     943.769E-06     34.7421E-03         4.73448         1.10475        -7.20167     844.130E-03        -3.31132         1.10475        -4.59478     116.463E-03    -58.0218E-03    -58.4464E-03    -58.4219E-03     116.461E-03    -58.0451E-03     784.613E-06    -66.6267E+06    -70.1689E+06    -260.545E+06    -69.4603E+06    -260.529E+06    -67.3518E+06     1.46516E+06         29.0129
             682     16.0533E-03     34.2374E-03     980.511E-03     934.612E-03        -3.26773     934.212E-03        -3.26733     980.511E-03    -20.6331E-03     139.850E-03    -58.1209E-03    -81.7982E-03    -56.7947E-03     114.847E-03    -58.1209E-03     130.313E-03     152.972E+06     124.232E+06    -7.87683E+06    -7.83042E+06     152.926E+06     124.232E+06    -376.848E+03         54.9618
             683     15.1044E-03     34.0160E-03     984.517E-03     955.434E-03        -3.29554     955.112E-03        -3.29521     984.517E-03    -27.6202E-03     147.523E-03    -58.0549E-03    -89.5716E-03    -57.2760E-03     115.227E-03    -58.0549E-03     160.672E-03     146.995E+06     99.9165E+06    -14.7433E+06    -14.6806E+06     146.933E+06     99.9165E+06    -977.944E+03         51.9947
             684     14.1617E-03     33.8777E-03     987.666E-03     967.816E-03        -3.30954     967.705E-03        -3.30943     987.666E-03    -1.30965E-03     128.008E-03    -57.9019E-03    -70.1891E-03    -56.7179E-03     114.537E-03    -57.9019E-03     96.4171E-03     136.393E+06     54.8596E+06    -20.8626E+06    -20.8209E+06     136.352E+06     54.8596E+06    -758.667E+03         48.1142
             685     13.2176E-03     33.8032E-03     990.055E-03     967.637E-03        -3.30941     967.573E-03        -3.30935     990.055E-03    -16.9601E-03     118.228E-03    -57.7666E-03    -60.5032E-03    -55.7584E-03     113.483E-03    -57.7666E-03     56.7813E-03     121.088E+06     14.3785E+06    -24.8501E+06    -24.8169E+06     121.055E+06     14.3785E+06     419.115E+03         43.9544
             686     12.2707E-03     33.7537E-03     992.243E-03     969.613E-03        -3.31312     969.605E-03        -3.31311     992.243E-03     4.71416E-03     116.251E-03    -57.7866E-03    -58.4826E-03    -56.1635E-03     113.932E-03    -57.7866E-03     39.1063E-03     69.3586E+06    -7.88603E+06    -27.4273E+06    -27.3856E+06     69.3169E+06    -7.88603E+06     202.555E+03         40.2011
             687     11.3265E-03     33.7181E-03     995.273E-03     978.826E-03        -3.32762     980.052E-03        -3.32758     994.007E-03     17.7750E-03     115.928E-03    -57.8256E-03    -58.1242E-03    -56.9601E-03     114.860E-03    -57.9218E-03     26.8763E-03     9.88808E+06    -22.7872E+06    -36.2242E+06    -30.1767E+06    -8.41720E+06    -10.5294E+06    -945.732E+03         37.1130
             688     10.3826E-03     33.6947E-03     996.816E-03     978.380E-03        -3.33194     979.509E-03        -3.33181     995.549E-03    -4.39960E-03     116.021E-03    -57.8405E-03    -58.1584E-03    -57.3001E-03     115.357E-03    -58.0346E-03     21.4020E-03    -5.26027E+06    -32.4425E+06    -65.9236E+06    -32.7112E+06    -65.6549E+06    -5.26027E+06    -975.631E+03         34.7236
             689     9.43855E-03     33.6726E-03     997.464E-03     978.397E-03        -3.32919     977.922E-03        -3.32871     997.464E-03     31.3937E-03     115.982E-03    -57.7810E-03    -58.1723E-03    -57.4122E-03     115.558E-03    -58.1165E-03     16.9037E-03    -3.70639E+06    -35.0148E+06    -104.120E+06    -35.0580E+06    -104.077E+06    -3.70639E+06    -653.019E+03         33.0589
             690     8.49398E-03     33.6575E-03     999.368E-03     987.507E-03        -3.33749     985.556E-03        -3.33554     999.368E-03    -63.4749E-03     115.933E-03    -57.7777E-03    -58.1795E-03    -57.5552E-03     115.710E-03    -58.1795E-03     12.3142E-03    -5.12842E+06    -38.0704E+06    -134.720E+06    -38.0879E+06    -134.702E+06    -5.12842E+06    -519.914E+03         31.9860
             691     7.55041E-03     33.6465E-03         1.00136     996.794E-03        -3.35240     992.221E-03        -3.34725         1.00078     59.5209E-03     116.065E-03    -57.8828E-03    -58.2269E-03    -57.7422E-03     115.924E-03    -58.2269E-03     9.84567E-03    -9.93067E+06    -41.7307E+06    -160.455E+06    -41.7418E+06    -160.444E+06    -9.93067E+06    -170.961E+03         31.2176
             692     6.60632E-03     33.6371E-03         1.00497         1.00098        -3.36326     993.120E-03        -3.35247         1.00204    -74.3917E-03     116.065E-03    -57.8304E-03    -58.2699E-03    -57.7457E-03     115.980E-03    -58.2699E-03     7.53254E-03    -15.8830E+06    -45.6392E+06    -185.475E+06    -45.6483E+06    -185.466E+06    -15.8830E+06    -92.8060E+03         30.6018
             693     5.66202E-03     33.6307E-03         1.02365         1.00270        -3.38272     998.724E-03        -3.35819         1.00311     139.207E-03     116.122E-03    -57.8300E-03    -58.3165E-03    -57.7905E-03     116.082E-03    -58.3165E-03     5.14840E-03    -22.2579E+06    -49.9271E+06    -206.647E+06    -49.9356E+06    -206.639E+06    -22.2579E+06     166.617E+03         30.1221
             694     4.71828E-03     33.6265E-03         1.05569         1.00432        -3.41912     996.314E-03        -3.35975         1.00432    -220.323E-03     116.281E-03    -57.9369E-03    -58.3622E-03    -57.9175E-03     116.262E-03    -58.3622E-03     3.60390E-03    -30.7740E+06    -54.3918E+06    -226.676E+06    -54.3965E+06    -226.672E+06    -30.7740E+06     672.021E+03         29.7519
             695     3.77454E-03     33.6224E-03         1.15317         1.00609        -3.51780     998.640E-03        -3.36327         1.00609     407.555E-03     116.451E-03    -58.0756E-03    -58.3951E-03    -58.0874E-03     116.442E-03    -58.3746E-03     2.37349E-03    -42.0295E+06    -59.1131E+06    -243.345E+06    -59.1205E+06    -243.338E+06    -42.0295E+06    -305.483E+03         29.4655
             696     2.83053E-03     33.6212E-03         1.42285         1.00533        -3.78068         1.01556        -3.37338         1.00533    -696.463E-03     116.586E-03    -58.2039E-03    -58.3976E-03    -58.2211E-03     116.583E-03    -58.3770E-03     1.47766E-03    -52.8721E+06    -63.4076E+06    -251.143E+06    -63.4180E+06    -251.132E+06    -52.8721E+06    -1.29514E+06         29.2483
             697     1.88724E-03     33.6199E-03         2.13057     993.224E-03        -4.48007         1.03490        -3.38440     993.224E-03         1.39630     116.673E-03    -58.2851E-03    -58.3968E-03    -58.3151E-03     116.672E-03    -58.3653E-03     974.715E-06    -60.4293E+06    -66.7330E+06    -257.169E+06    -66.7393E+06    -257.163E+06    -60.4293E+06    -636.351E+03         29.0981
             698     943.644E-06     33.6196E-03         4.52598         1.11831        -6.99723     847.183E-03        -3.31843         1.11831        -4.34056     116.635E-03    -58.1019E-03    -58.5372E-03    -58.5292E-03     116.634E-03    -58.1092E-03     644.436E-06    -65.6297E+06    -69.1819E+06    -259.607E+06    -69.1904E+06    -259.598E+06    -65.6297E+06     25.4185E+03         29.0119
             699     16.0519E-03     33.1148E-03     990.462E-03     944.906E-03        -3.29494     944.318E-03        -3.29435     990.462E-03     20.9105E-03     140.036E-03    -58.1506E-03    -81.9501E-03    -57.1518E-03     115.238E-03    -58.1506E-03     131.021E-03     153.974E+06     125.078E+06    -7.70428E+06    -7.66130E+06     153.931E+06     125.078E+06    -844.744E+03         54.9423
             700     15.1088E-03     32.8961E-03     994.497E-03     945.673E-03        -3.29803     945.425E-03        -3.29778     994.497E-03     4.12774E-03     147.915E-03    -58.0550E-03    -89.9539E-03    -57.8588E-03     115.820E-03    -58.0550E-03     160.876E-03     147.132E+06     99.2089E+06    -15.1915E+06    -15.1575E+06     147.098E+06     99.2089E+06    -664.754E+03         51.9780
             701     14.1623E-03     32.7521E-03     998.204E-03     964.242E-03        -3.32032     964.100E-03        -3.32018     998.204E-03     29.3606E-03     127.784E-03    -57.9089E-03    -69.9465E-03    -56.4148E-03     114.253E-03    -57.9089E-03     95.9511E-03     134.870E+06     54.1249E+06    -22.7878E+06    -22.7369E+06     134.819E+06     54.1249E+06     572.076E+03         48.1000
             702     13.2161E-03     32.6847E-03         1.00070     981.674E-03        -3.34301     981.641E-03        -3.34297         1.00070    -4.94361E-03     118.217E-03    -57.7771E-03    -60.4767E-03    -55.8332E-03     113.573E-03    -57.7771E-03     56.4190E-03     122.264E+06     14.0752E+06    -27.6077E+06    -27.5245E+06     122.181E+06     14.0752E+06     491.093E+03         43.9423
             703     12.2719E-03     32.6293E-03         1.00246     986.869E-03        -3.35168     986.844E-03        -3.35165         1.00246    -10.6536E-03     116.587E-03    -57.7681E-03    -58.8387E-03    -56.4083E-03     114.156E-03    -57.7681E-03     39.9683E-03     70.4015E+06    -9.90953E+06    -29.7101E+06    -29.6513E+06     70.3427E+06    -9.90953E+06    -552.270E+03         40.1921
             704     11.3276E-03     32.5974E-03         1.00469     974.241E-03        -3.34202     974.209E-03        -3.34199         1.00469    -9.27752E-03     115.889E-03    -57.7899E-03    -58.1261E-03    -56.9307E-03     114.804E-03    -57.9007E-03     27.1302E-03      9.6963E+06    -23.1260E+06    -36.1206E+06    -30.0480E+06    -8.64360E+06    -10.8587E+06    -532.324E+03         37.1068
             705     10.3823E-03     32.5714E-03         1.00781     973.966E-03        -3.34777     973.753E-03        -3.34755         1.00781    -41.6454E-03     115.941E-03    -57.8436E-03    -58.0751E-03    -57.2062E-03     115.248E-03    -58.0192E-03     21.8460E-03    -5.33235E+06    -32.0874E+06    -65.7524E+06    -32.1519E+06    -65.6880E+06    -5.33235E+06    -558.886E+03         34.7201
             706     9.43867E-03     32.5504E-03         1.01104     996.583E-03        -3.36944     996.933E-03        -3.36903         1.01028     2.12253E-03     116.048E-03    -57.8624E-03    -58.1676E-03    -57.4946E-03     115.614E-03    -58.1008E-03     17.0834E-03    -4.27565E+06    -35.3832E+06    -104.620E+06    -35.4222E+06    -104.581E+06    -4.27565E+06    -752.512E+03         33.0562
             707     8.49443E-03     32.5356E-03         1.01214         1.00844        -3.37699         1.00700        -3.37480         1.01138    -88.2553E-03     115.879E-03    -57.7448E-03    -58.1722E-03    -57.5333E-03     115.657E-03    -58.1612E-03     12.3147E-03    -5.51782E+06    -38.7038E+06    -134.910E+06    -38.7194E+06    -134.894E+06    -5.51782E+06    -714.431E+03         31.9816
             708     7.54987E-03     32.5235E-03         1.01239         1.00759        -3.37563         1.00239        -3.37042         1.01239     36.4715E-03     115.929E-03    -57.7564E-03    -58.2179E-03    -57.6204E-03     115.793E-03    -58.2179E-03     9.65362E-03    -10.0253E+06    -41.9756E+06    -160.921E+06    -41.9906E+06    -160.906E+06    -10.0253E+06    -630.497E+03         31.2136
             709     6.60622E-03     32.5148E-03         1.01431         1.00880        -3.38195     997.827E-03        -3.37097         1.01431    -92.7707E-03     116.055E-03    -57.8172E-03    -58.2702E-03    -57.7354E-03     115.973E-03    -58.2702E-03     7.44820E-03    -15.8918E+06    -45.7625E+06    -185.805E+06    -45.7754E+06    -185.792E+06    -15.8918E+06    -500.112E+03         30.6007
             710     5.66233E-03     32.5082E-03         1.03304         1.01362        -3.41079         1.00794        -3.38834         1.01626     101.364E-03     116.209E-03    -57.9248E-03    -58.3104E-03    -57.8823E-03     116.166E-03    -58.3104E-03     5.34287E-03    -22.0147E+06    -50.0146E+06    -207.257E+06    -50.0229E+06    -207.249E+06    -22.0147E+06    -180.207E+03         30.1230
             711     4.71864E-03     32.5039E-03         1.07097         1.01700        -3.45569         1.01710        -3.40182         1.01700    -231.065E-03     116.369E-03    -58.0538E-03    -58.3369E-03    -58.0329E-03     116.348E-03    -58.3369E-03     3.74138E-03    -29.4416E+06    -54.0732E+06    -226.169E+06    -54.0782E+06    -226.164E+06    -29.4416E+06     385.206E+03         29.7527
             712     3.77460E-03     32.5005E-03         1.15615         1.01721        -3.54107         1.01586        -3.40079         1.01721     372.843E-03     116.341E-03    -58.0285E-03    -58.3375E-03    -58.0196E-03     116.332E-03    -58.3375E-03     2.39413E-03    -40.3884E+06    -58.5154E+06    -241.794E+06    -58.5170E+06    -241.793E+06    -40.3884E+06     126.504E+03         29.4636
             713     2.83082E-03     32.4983E-03         1.38575         1.01913        -3.76697         1.00877        -3.38999         1.01913    -683.462E-03     116.422E-03    -58.0769E-03    -58.3639E-03    -58.0743E-03     116.419E-03    -58.3639E-03     1.26696E-03    -52.0313E+06    -63.6193E+06    -251.792E+06    -63.6213E+06    -251.790E+06    -52.0313E+06    -252.005E+03         29.2442
             714     1.88688E-03     32.4976E-03         2.04090         1.01717        -4.41919         1.03200        -3.41029         1.01717         1.30957     116.612E-03    -58.2350E-03    -58.3851E-03    -58.2340E-03     116.611E-03    -58.3851E-03     855.971E-06    -61.8643E+06    -68.3984E+06    -257.907E+06    -68.4005E+06    -257.905E+06    -61.8643E+06    -324.480E+03         29.0935
             715     943.439E-06     32.4966E-03         4.25768         1.16824        -6.78138     858.650E-03        -3.38234         1.16824        -4.08467     116.705E-03    -58.1570E-03    -58.5502E-03    -58.5093E-03     116.704E-03    -58.1971E-03     398.167E-06    -69.7253E+06    -72.0777E+06     -260.26E+06    -72.1014E+06    -260.234E+06    -69.7275E+06    -1.60389E+06         29.0066
             716     16.0492E-03     31.9859E-03     998.452E-03     954.933E-03        -3.32351     954.160E-03        -3.32274     998.452E-03     37.2834E-03     139.693E-03    -58.1777E-03    -81.6099E-03    -56.8518E-03     114.935E-03    -58.1777E-03     131.708E-03     153.917E+06     125.077E+06    -7.87624E+06    -7.83725E+06     153.878E+06     125.077E+06    -914.264E+03         54.9227
             717     15.1060E-03     31.7738E-03         1.00240     955.298E-03        -3.33140     955.044E-03        -3.33114         1.00240    -11.0542E-03     147.906E-03    -58.0982E-03    -89.9374E-03    -58.0177E-03     115.986E-03    -58.0982E-03     160.664E-03     145.235E+06     99.0591E+06    -16.7387E+06    -16.6672E+06     145.164E+06     99.0591E+06     359.979E+03         51.9609
             718     14.1612E-03     31.6303E-03         1.00638     961.888E-03        -3.34366     961.796E-03        -3.34357         1.00638     23.5383E-03     128.223E-03    -57.9524E-03    -70.3747E-03    -56.6568E-03     114.505E-03    -57.9524E-03     96.6659E-03     135.017E+06     56.5977E+06    -22.2569E+06    -22.1541E+06     134.914E+06     56.5977E+06     1.24133E+06         48.0862
             719     13.2171E-03     31.5622E-03         1.00983     971.475E-03        -3.35875     971.449E-03        -3.35872         1.00983    -10.5757E-03     118.437E-03    -57.7981E-03    -60.6782E-03    -56.0770E-03     113.836E-03    -57.7981E-03     56.2252E-03     123.673E+06     16.8354E+06    -25.5270E+06    -25.4421E+06     123.588E+06     16.8354E+06    -142.766E+03         43.9311
             720     12.2711E-03     31.5079E-03         1.01283     981.379E-03        -3.36945     981.259E-03        -3.36933         1.01283     802.444E-06     116.628E-03    -57.7766E-03    -58.8630E-03    -56.3937E-03     114.159E-03    -57.7766E-03     40.4927E-03     70.3762E+06    -9.06662E+06    -27.9407E+06    -27.9055E+06     70.3410E+06    -9.06662E+06    -641.170E+03         40.1827
             721     11.3264E-03     31.4744E-03         1.01577     982.487E-03        -3.37167     982.347E-03        -3.37153         1.01577     17.7072E-03     116.016E-03    -57.8948E-03    -58.1562E-03    -57.0153E-03     114.890E-03    -57.9094E-03     27.5092E-03     8.95577E+06    -24.1043E+06    -35.7853E+06    -30.2613E+06    -9.56155E+06    -11.1110E+06    -444.287E+03         37.0996
             722     10.3830E-03     31.4499E-03         1.01865     990.930E-03        -3.38024     990.798E-03        -3.38011         1.01865    -14.6635E-03     116.031E-03    -57.8903E-03    -58.1244E-03    -57.3154E-03     115.351E-03    -58.0192E-03     21.6633E-03    -4.78436E+06    -32.4480E+06    -65.3668E+06    -32.4783E+06    -65.3365E+06    -4.78436E+06    -296.121E+03         34.7156
             723     9.43798E-03     31.4275E-03         1.02167         1.00356        -3.39242         1.00376        -3.39185         1.02092     44.8510E-03     116.026E-03    -57.9080E-03    -58.1030E-03    -57.4861E-03     115.593E-03    -58.0921E-03     16.9773E-03    -3.84904E+06    -35.1560E+06    -104.376E+06    -35.1695E+06    -104.363E+06    -3.84904E+06    -482.113E+03         33.0541
             724     8.49465E-03     31.4129E-03         1.02355         1.00781        -3.39660         1.00652        -3.39455         1.02279    -51.6668E-03     115.950E-03    -57.8287E-03    -58.1580E-03    -57.6257E-03     115.736E-03    -58.1470E-03     12.0977E-03    -5.23343E+06    -38.7494E+06    -134.909E+06    -38.7633E+06    -134.895E+06    -5.23343E+06    -821.162E+03         31.9802
             725     7.55083E-03     31.4019E-03         1.02489         1.01536        -3.40378         1.01125        -3.39942         1.02464     41.7380E-03     115.859E-03    -57.6942E-03    -58.1995E-03    -57.5555E-03     115.721E-03    -58.1995E-03     9.75972E-03    -10.3367E+06    -42.9531E+06    -161.317E+06    -42.9653E+06    -161.305E+06    -10.3367E+06    -797.167E+03         31.2115
             726     6.60609E-03     31.3923E-03         1.03150         1.02173        -3.41999         1.01776        -3.41069         1.02617    -81.4851E-03     116.025E-03    -57.7972E-03    -58.2544E-03    -57.7162E-03     115.944E-03    -58.2544E-03     7.31728E-03    -16.4036E+06    -47.0239E+06    -185.994E+06    -47.0375E+06    -185.980E+06    -16.4036E+06    -806.579E+03         30.5987
             727     5.66226E-03     31.3860E-03         1.04369         1.02510        -3.43850         1.02118        -3.41822         1.02734     112.509E-03     116.137E-03    -57.8727E-03    -58.2925E-03    -57.8325E-03     116.097E-03    -58.2925E-03     5.24876E-03    -23.2061E+06    -51.2234E+06    -207.253E+06    -51.2315E+06    -207.245E+06    -23.2061E+06    -654.859E+03         30.1210
             728     4.71828E-03     31.3810E-03         1.06676         1.02886        -3.47146         1.01908        -3.42378         1.02886    -202.015E-03     116.317E-03    -58.0203E-03    -58.3196E-03    -57.9976E-03     116.294E-03    -58.3196E-03     3.87689E-03    -31.5203E+06    -55.7312E+06    -226.785E+06    -55.7338E+06    -226.783E+06    -31.5203E+06    -283.307E+03         29.7504
             729     3.77497E-03     31.3782E-03         1.14941         1.03058        -3.55982         1.02492        -3.43532         1.03058     365.946E-03     116.430E-03    -58.1417E-03    -58.3090E-03    -58.1327E-03     116.421E-03    -58.3090E-03     2.42595E-03    -41.2035E+06    -60.4867E+06    -241.858E+06    -60.4904E+06    -241.855E+06    -41.2035E+06     326.412E+03         29.4614
             730     2.83105E-03     31.3766E-03         1.35151         1.03535        -3.76074         1.01108        -3.42030         1.03535    -642.020E-03     116.420E-03    -58.1364E-03    -58.3013E-03    -58.1334E-03     116.417E-03    -58.3013E-03     1.37519E-03    -51.4255E+06    -65.9423E+06    -251.683E+06    -65.9455E+06    -251.680E+06    -51.4255E+06     650.004E+03         29.2408
             731     1.88739E-03     31.3752E-03         1.91558         1.04883        -4.33893         1.01119        -3.43455         1.04883         1.19779     116.414E-03    -58.1291E-03    -58.2941E-03    -58.1282E-03     116.413E-03    -58.2941E-03     699.326E-06    -62.8040E+06    -70.4125E+06    -257.781E+06    -70.4183E+06    -257.775E+06    -62.8040E+06     756.833E+03         29.0877
             732     943.540E-06     31.3741E-03         3.93366         1.25844        -6.56754     858.123E-03        -3.49201         1.25844        -3.85497     116.515E-03    -58.1256E-03    -58.3936E-03    -58.3046E-03     116.513E-03    -58.2130E-03     560.026E-06    -72.1394E+06    -74.8568E+06    -261.165E+06    -73.4792E+06    -261.123E+06    -73.5587E+06     310.997E+03         28.9986
             733     16.0530E-03     30.8678E-03         1.00689     953.961E-03        -3.33304     953.407E-03        -3.33248         1.00689    -2.87836E-03     139.320E-03    -58.1243E-03    -81.2548E-03    -56.4013E-03     114.467E-03    -58.1243E-03     130.589E-03     152.974E+06     124.166E+06    -7.75248E+06    -7.69989E+06     152.922E+06     124.166E+06     505.826E+03         54.9060
             734     15.1052E-03     30.6483E-03         1.01106     971.827E-03        -3.35801     971.519E-03        -3.35770         1.01106    -39.8140E-03     146.826E-03    -58.0842E-03    -88.8262E-03    -57.1146E-03     115.115E-03    -58.0842E-03     158.913E-03     144.072E+06     99.8570E+06    -16.3854E+06    -16.2368E+06     143.923E+06     99.8570E+06    -109.803E+03         51.9459
             735     14.1610E-03     30.5096E-03         1.01480     975.732E-03        -3.36334     975.698E-03        -3.36331         1.01480    -123.139E-06     127.756E-03    -57.9571E-03    -69.8882E-03    -56.7348E-03     114.603E-03    -57.9571E-03     94.8471E-03     135.796E+06     58.2386E+06    -21.1574E+06    -21.0343E+06     135.673E+06     58.2386E+06    -753.675E+03         48.0735
             736     13.2158E-03     30.4373E-03         1.01826     976.724E-03        -3.36554     976.680E-03        -3.36550         1.01826    -25.4755E-03     118.337E-03    -57.8028E-03    -60.5646E-03    -56.0590E-03     113.832E-03    -57.8028E-03     55.5229E-03     124.223E+06     18.5407E+06    -24.6867E+06    -24.6557E+06     124.192E+06     18.5407E+06    -286.350E+03         43.9201
             737     12.2718E-03     30.3883E-03         1.02166     982.279E-03        -3.37664     982.143E-03        -3.37650         1.02166     13.6521E-03     116.658E-03    -57.7811E-03    -58.8837E-03    -56.4832E-03     114.257E-03    -57.7811E-03     40.1107E-03     71.1360E+06    -7.45771E+06    -27.9521E+06    -27.9138E+06     71.0977E+06    -7.45771E+06     563.851E+03         40.1730
             738     11.3267E-03     30.3501E-03         1.02438         1.00180        -3.40268         1.00163        -3.40251         1.02438     27.1912E-03     116.007E-03    -57.8024E-03    -58.2511E-03    -57.0194E-03     114.880E-03    -57.9079E-03     27.3999E-03     9.38353E+06    -24.3036E+06    -36.5981E+06    -30.5318E+06    -9.62435E+06    -11.3620E+06    -38.2090E+03         37.0924
             739     10.3828E-03     30.3279E-03         1.02595         1.01589        -3.42050         1.01581        -3.42042         1.02595    -8.92947E-03     116.066E-03    -57.8602E-03    -58.2042E-03    -57.3912E-03     115.408E-03    -58.0152E-03     21.3514E-03    -4.85337E+06    -32.6118E+06    -65.4482E+06    -32.6547E+06    -65.4053E+06    -4.85337E+06    -416.004E+03         34.7111
             740     9.43921E-03     30.3050E-03         1.02740         1.01049        -3.41541         1.00994        -3.41487         1.02740     60.3360E-03     115.933E-03    -57.7575E-03    -58.1697E-03    -57.3998E-03     115.492E-03    -58.0858E-03     17.1462E-03    -3.76638E+06    -34.8905E+06    -103.916E+06    -34.9003E+06    -103.906E+06    -3.76638E+06    -425.623E+03         33.0518
             741     8.49450E-03     30.2908E-03         1.02978         1.00529        -3.41083         1.00398        -3.40952         1.02978    -15.0479E-03     115.845E-03    -57.7344E-03    -58.1483E-03    -57.5166E-03     115.627E-03    -58.1483E-03     12.1854E-03    -5.04336E+06    -38.1923E+06    -135.020E+06    -38.2032E+06    -135.009E+06    -5.04336E+06    -643.659E+03         31.9792
             742     7.55008E-03     30.2801E-03         1.03300         1.01942        -3.42833         1.01687        -3.42500         1.03222     68.0234E-03     116.021E-03    -57.8636E-03    -58.1926E-03    -57.7238E-03     115.882E-03    -58.1926E-03     9.80639E-03    -9.81968E+06    -42.3164E+06    -161.005E+06    -42.3266E+06    -160.994E+06    -9.81968E+06    -623.923E+03         31.2110
             743     6.60671E-03     30.2699E-03         1.04030         1.03320        -3.44769         1.03330        -3.44069         1.03320    -49.0652E-03     116.024E-03    -57.8287E-03    -58.2286E-03    -57.7447E-03     115.940E-03    -58.2286E-03     7.47336E-03    -16.5452E+06    -46.9802E+06    -185.845E+06    -46.9933E+06    -185.832E+06    -16.5452E+06    -546.468E+03         30.5972
             744     5.66270E-03     30.2641E-03         1.04337         1.03103        -3.45247         1.02391        -3.43605         1.03407     126.260E-03     116.112E-03    -57.8863E-03    -58.2590E-03    -57.8461E-03     116.072E-03    -58.2590E-03     5.19085E-03    -24.0495E+06    -51.7223E+06    -207.563E+06    -51.7355E+06    -207.550E+06    -24.0495E+06     -686.34E+03         30.1178
             745     4.71860E-03     30.2589E-03         1.05924         1.03440        -3.47856         1.01247        -3.43481         1.03744    -209.578E-03     116.188E-03    -57.9227E-03    -58.2872E-03    -57.9025E-03     116.168E-03    -58.2872E-03     3.69423E-03    -33.0225E+06    -56.5028E+06    -227.872E+06    -56.5090E+06    -227.866E+06    -33.0225E+06    -472.180E+03         29.7460
             746     3.77449E-03     30.2557E-03         1.14207         1.04179        -3.56783         1.02720        -3.45297         1.04179     344.863E-03     116.360E-03    -58.0775E-03    -58.2982E-03    -58.0812E-03     116.351E-03    -58.2857E-03     2.39295E-03    -43.2055E+06    -61.7475E+06    -242.763E+06    -61.7521E+06    -242.758E+06    -43.2055E+06     488.819E+03         29.4576
             747     2.83122E-03     30.2543E-03         1.32544         1.04630        -3.75010         1.03026        -3.45491         1.04630    -558.376E-03     116.493E-03    -58.2385E-03    -58.2669E-03    -58.2480E-03     116.490E-03    -58.2544E-03     1.41474E-03    -52.7132E+06    -66.3822E+06    -251.094E+06    -66.3867E+06    -251.089E+06    -52.7132E+06     872.277E+03         29.2379
             748     1.88761E-03     30.2525E-03         1.83995         1.05218        -4.27330         1.03934        -3.47269         1.05218         1.15914     116.354E-03    -58.1392E-03    -58.2233E-03    -58.1624E-03     116.353E-03    -58.1991E-03     781.505E-06    -62.4313E+06    -70.4922E+06    -257.395E+06    -70.4987E+06    -257.389E+06    -62.4313E+06     732.082E+03         29.0838
             749     943.692E-06     30.2528E-03         3.68738         1.25243        -6.31903     858.267E-03        -3.48992         1.25243        -3.61595     116.282E-03    -58.0633E-03    -58.2248E-03    -58.1686E-03     116.281E-03    -58.1179E-03     813.285E-06    -68.1716E+06    -73.4267E+06    -260.111E+06    -72.0312E+06    -260.089E+06    -69.5886E+06     1.47712E+06         28.9928
             750     16.0545E-03     29.7491E-03         1.01447     954.681E-03        -3.35808     954.323E-03        -3.35772         1.01447     11.7917E-03     140.442E-03    -58.0829E-03    -82.3809E-03    -57.3542E-03     115.416E-03    -58.0829E-03     131.048E-03     153.456E+06     125.328E+06    -6.86968E+06    -6.83456E+06     153.421E+06     125.328E+06     1.07539E+06         54.8880
             751     15.1081E-03     29.5277E-03         1.01869     967.876E-03        -3.37352     967.664E-03        -3.37330         1.01869    -7.55358E-03     147.194E-03    -58.0140E-03    -89.2262E-03    -57.1258E-03     115.093E-03    -58.0140E-03     160.060E-03     145.950E+06     100.456E+06    -14.1281E+06    -14.0182E+06     145.840E+06     100.456E+06     37.1722E+03         51.9323
             752     14.1627E-03     29.3852E-03         1.02248     979.849E-03        -3.38818     979.683E-03        -3.38802         1.02248     34.0667E-03     126.742E-03    -57.9082E-03    -68.9000E-03    -55.7192E-03     113.561E-03    -57.9082E-03     94.5466E-03     134.617E+06     54.9099E+06    -21.6034E+06    -21.5073E+06     134.521E+06     54.9099E+06    -968.366E+03         48.0608
             753     13.2172E-03     29.3183E-03         1.02578     986.561E-03        -3.39171     986.444E-03        -3.39159         1.02578    -1.35300E-03     118.269E-03    -57.7966E-03    -60.5092E-03    -55.8395E-03     113.600E-03    -57.7966E-03     56.4781E-03     123.322E+06     16.1410E+06    -26.3500E+06    -26.3195E+06     123.291E+06     16.1410E+06     86.1382E+03         43.9070
             754     12.2714E-03     29.2635E-03         1.02882     994.558E-03        -3.40250     994.518E-03        -3.40246         1.02882     229.631E-06     117.035E-03    -57.7806E-03    -59.2817E-03    -56.8309E-03     114.585E-03    -57.7806E-03     40.4137E-03     72.3031E+06    -7.35900E+06    -28.2834E+06    -28.2392E+06     72.2590E+06    -7.35900E+06     781.074E+03         40.1619
             755     11.3278E-03     29.2303E-03         1.03152         1.00391        -3.42209         1.00386        -3.42204         1.03152    -458.843E-06     115.935E-03    -57.7637E-03    -58.2274E-03    -56.9667E-03     114.803E-03    -57.8916E-03     27.6595E-03     10.1756E+06    -23.1520E+06    -36.2502E+06    -29.5940E+06    -8.79769E+06    -10.8349E+06     173.437E+03         37.0843
             756     10.3825E-03     29.2037E-03         1.03387         1.01179        -3.43236         1.01167        -3.43225         1.03387    -37.6135E-03     115.910E-03    -57.8222E-03    -58.0930E-03    -57.2214E-03     115.225E-03    -58.0092E-03     21.6838E-03    -4.41201E+06    -31.2909E+06    -65.4410E+06    -31.3619E+06    -65.3700E+06    -4.41201E+06    -431.810E+03         34.7066
             757     9.43853E-03     29.1836E-03         1.03572         1.02296        -3.44058         1.02264        -3.44026         1.03572     18.8807E-03     115.932E-03    -57.7626E-03    -58.1730E-03    -57.4225E-03     115.508E-03    -58.0892E-03     16.8558E-03    -3.56723E+06    -34.3454E+06    -103.852E+06    -34.3658E+06    -103.832E+06    -3.56723E+06    -552.588E+03         33.0503
             758     8.49414E-03     29.1687E-03         1.04233         1.02682        -3.44961         1.03083        -3.44814         1.03685    -58.2080E-03     115.833E-03    -57.7285E-03    -58.1500E-03    -57.5046E-03     115.609E-03    -58.1500E-03     12.3661E-03    -5.30523E+06    -38.1627E+06    -134.997E+06    -38.1711E+06    -134.988E+06    -5.30523E+06    -420.469E+03         31.9784
             759     7.55103E-03     29.1565E-03         1.04385         1.02604        -3.45049         1.02886        -3.44730         1.03784     29.9410E-03     116.039E-03    -57.8879E-03    -58.1928E-03    -57.7502E-03     115.901E-03    -58.1928E-03     9.68740E-03    -9.92726E+06    -42.1755E+06    -161.318E+06    -42.1833E+06    -161.310E+06    -9.92726E+06    -409.546E+03         31.2112
             760     6.60638E-03     29.1488E-03         1.04176         1.02390        -3.44690         1.01870        -3.43994         1.03999    -78.5053E-03     116.065E-03    -57.8824E-03    -58.2196E-03    -57.7999E-03     115.982E-03    -58.2196E-03     7.52739E-03    -16.5009E+06    -46.5663E+06    -185.872E+06    -46.5744E+06    -185.864E+06    -16.5009E+06    -145.737E+03         30.5975
             761     5.66243E-03     29.1408E-03         1.05457         1.02970        -3.46835         1.02710        -3.45406         1.04289     78.9153E-03     116.192E-03    -57.9803E-03    -58.2392E-03    -57.9358E-03     116.147E-03    -58.2392E-03     5.42951E-03    -23.7414E+06    -51.5753E+06    -208.110E+06    -51.5836E+06    -208.102E+06    -23.7414E+06    -167.780E+03         30.1161
             762     4.71916E-03     29.1372E-03         1.06993         1.04276        -3.50099         1.03042        -3.46451         1.04579    -204.739E-03     116.267E-03    -58.0174E-03    -58.2662E-03    -58.0189E-03     116.248E-03    -58.2457E-03     3.57905E-03    -32.4107E+06    -56.8234E+06    -228.276E+06    -56.8305E+06    -228.269E+06    -32.4107E+06     132.637E+03         29.7430
             763     3.77495E-03     29.1336E-03         1.13601         1.04882        -3.57085         1.03708        -3.47192         1.04882     324.979E-03     116.189E-03    -57.9525E-03    -58.2569E-03    -57.9771E-03     116.181E-03    -58.2239E-03     2.32949E-03    -44.4452E+06    -61.6239E+06    -242.791E+06    -61.6263E+06    -242.789E+06    -44.4452E+06     601.616E+03         29.4541
             764     2.83116E-03     29.1312E-03         1.31342         1.04896        -3.74232         1.05696        -3.48587         1.04896    -527.365E-03     116.296E-03    -58.0854E-03    -58.2270E-03    -58.0954E-03     116.293E-03    -58.2145E-03     1.24853E-03    -54.2198E+06    -64.9677E+06    -250.776E+06    -64.9726E+06    -250.771E+06    -54.2198E+06     1.17254E+03         29.2346
             765     1.88742E-03     29.1312E-03         1.78420         1.03750        -4.19612         1.07803        -3.48994         1.03750         1.07616     116.413E-03    -58.1485E-03    -58.2738E-03    -58.2597E-03     116.413E-03    -58.1616E-03     784.473E-06    -60.2820E+06    -67.4508E+06    -256.742E+06    -67.4555E+06    -256.737E+06    -60.2820E+06    -447.015E+03         29.0809
             766     944.029E-06     29.1295E-03         3.44868         1.22173        -6.03152     832.815E-03        -3.41566         1.22173        -3.40037     116.150E-03    -57.9342E-03    -58.2208E-03    -58.2203E-03     116.149E-03    -57.9342E-03     474.654E-06    -65.8452E+06    -71.1592E+06    -259.863E+06    -69.9057E+06    -259.857E+06    -67.1048E+06    -405.065E+03         28.9891
             767     16.0507E-03     28.6243E-03         1.02032     971.170E-03        -3.39125     970.887E-03        -3.39096         1.02032     23.6550E-03     140.728E-03    -58.1337E-03    -82.6341E-03    -57.3596E-03     115.453E-03    -58.1337E-03     132.474E-03     153.786E+06     125.111E+06    -7.82096E+06    -7.79114E+06     153.756E+06     125.111E+06     95.2853E+03         54.8633
             768     15.1095E-03     28.4044E-03         1.02422     970.722E-03        -3.39096     970.599E-03        -3.39084         1.02422    -13.8580E-03     148.066E-03    -58.0616E-03    -90.0963E-03    -57.5249E-03     115.494E-03    -58.0616E-03     161.993E-03     146.926E+06     99.9328E+06    -14.4277E+06    -14.3871E+06     146.886E+06     99.9328E+06     1.07396E+06         51.9096
             769     14.1617E-03     28.2676E-03         1.02826     977.579E-03        -3.40096     977.406E-03        -3.40078         1.02826     36.0807E-03     127.533E-03    -57.9432E-03    -69.6962E-03    -55.9422E-03     113.779E-03    -57.9432E-03     96.9185E-03     134.610E+06      54.418E+06    -22.0095E+06    -21.9507E+06     134.551E+06      54.418E+06     943.216E+03         48.0408
             770     13.2147E-03     28.1945E-03         1.03206     985.168E-03        -3.41176     984.907E-03        -3.41150         1.03206    -160.282E-06     118.877E-03    -57.8107E-03    -61.1164E-03    -56.2977E-03     114.058E-03    -57.8107E-03     57.4270E-03     122.634E+06     15.0070E+06    -26.7023E+06    -26.6354E+06     122.567E+06     15.0070E+06     34.4639E+03         43.8902
             771     12.2720E-03     28.1411E-03         1.03530         1.00242        -3.43069         1.00226        -3.43053         1.03530    -23.4526E-03     116.909E-03    -57.7827E-03    -59.1634E-03    -56.7622E-03     114.508E-03    -57.7827E-03     39.9646E-03     71.7692E+06    -8.03801E+06    -28.2612E+06    -28.2217E+06     71.7297E+06    -8.03801E+06    -266.193E+03         40.1481
             772     11.3268E-03     28.1078E-03         1.03820         1.00422        -3.43511         1.00421        -3.43511         1.03820     10.0889E-03     115.960E-03    -57.8709E-03    -58.1347E-03    -56.9711E-03     114.818E-03    -57.8933E-03     27.8632E-03     10.3758E+06    -21.8404E+06    -35.5218E+06    -28.7851E+06    -8.06326E+06    -10.1380E+06    -141.260E+03         37.0733
             773     10.3831E-03     28.0822E-03         1.04174     998.407E-03        -3.43305     998.320E-03        -3.43296         1.04174    -22.2984E-03     116.008E-03    -57.9192E-03    -58.0899E-03    -57.3041E-03     115.309E-03    -58.0058E-03     21.8800E-03    -4.07822E+06    -30.5147E+06    -64.9546E+06    -30.5737E+06    -64.8956E+06    -4.07822E+06    -132.072E+03         34.6998
             774     9.43857E-03     28.0606E-03         1.04507         1.02088        -3.45706         1.02053        -3.45672         1.04507     18.6588E-03     115.946E-03    -57.8665E-03    -58.0824E-03    -57.4618E-03     115.541E-03    -58.0824E-03     16.4895E-03    -3.24193E+06    -34.1853E+06    -104.029E+06    -34.2084E+06    -104.006E+06    -3.24193E+06    -193.685E+03         33.0480
             775     8.49508E-03     28.0464E-03         1.05222         1.04279        -3.48206         1.04700        -3.48043         1.04638    -64.9820E-03     115.868E-03    -57.7666E-03    -58.1398E-03    -57.5443E-03     115.646E-03    -58.1398E-03     12.3561E-03    -5.27031E+06    -37.9802E+06    -135.159E+06    -37.9862E+06    -135.153E+06    -5.27031E+06    -118.188E+03         31.9784
             776     7.54985E-03     28.0344E-03         1.05270         1.03804        -3.47733         1.04030        -3.47374         1.04685     29.7627E-03     115.987E-03    -57.8398E-03    -58.1853E-03    -57.7017E-03     115.849E-03    -58.1853E-03     9.67509E-03    -9.87885E+06    -42.3093E+06    -161.833E+06    -42.3168E+06    -161.826E+06    -9.87885E+06    -175.126E+03         31.2116
             777     6.60679E-03     28.0258E-03         1.04997         1.03019        -3.46833         1.02380        -3.46112         1.04915    -70.9635E-03     116.124E-03    -57.9493E-03    -58.2090E-03    -57.8728E-03     116.048E-03    -58.2090E-03     7.23426E-03    -15.8636E+06    -46.4893E+06    -185.688E+06    -46.4954E+06    -185.682E+06    -15.8636E+06    -63.3445E+03         30.5973
             778     5.66282E-03     28.0190E-03         1.06794         1.04144        -3.49552         1.04458        -3.48232         1.05160     63.4674E-03     116.159E-03    -57.9576E-03    -58.2222E-03    -57.9152E-03     116.116E-03    -58.2222E-03     5.34403E-03    -23.0177E+06    -51.1500E+06    -208.241E+06    -51.1536E+06    -208.238E+06    -23.0177E+06     241.778E+03         30.1142
             779     4.71870E-03     28.0141E-03         1.08107         1.05225        -3.52182         1.05184        -3.49259         1.05225    -163.061E-03     116.313E-03    -58.0875E-03    -58.2396E-03    -58.0909E-03     116.293E-03    -58.2165E-03     3.61776E-03    -31.8550E+06    -56.1569E+06    -228.651E+06    -56.1593E+06    -228.649E+06    -31.8550E+06     217.240E+03         29.7405
             780     3.77574E-03     28.0118E-03         1.12103         1.05360        -3.56680         1.04321        -3.48898         1.05360     287.562E-03     116.206E-03    -58.0258E-03    -58.1998E-03    -58.0406E-03     116.198E-03    -58.1767E-03     2.35404E-03    -42.0745E+06    -59.6838E+06    -242.271E+06    -59.6854E+06    -242.269E+06    -42.0745E+06        -601.844         29.4512
             781     2.83121E-03     28.0097E-03         1.27205         1.05523        -3.71400         1.05328        -3.49523         1.05523    -531.035E-03     116.118E-03    -57.9706E-03    -58.1657E-03    -57.9672E-03     116.115E-03    -58.1657E-03     1.44780E-03    -52.4507E+06     -63.258E+06    -249.941E+06    -63.2620E+06    -249.937E+06    -52.4507E+06    -305.383E+03         29.2304
             782     1.88758E-03     28.0079E-03         1.68390         1.05148        -4.11889         1.06787        -3.50286         1.05148     977.828E-03     116.289E-03    -58.0748E-03    -58.2251E-03    -58.1616E-03     116.288E-03    -58.1372E-03     753.534E-06    -60.9469E+06    -67.1595E+06    -257.428E+06    -67.1665E+06    -257.421E+06    -60.9469E+06    -744.530E+03         29.0764
             783     944.018E-06     28.0081E-03         3.15259         1.27719        -5.81641     817.546E-03        -3.48137         1.27719        -3.16944     116.145E-03    -57.9348E-03    -58.2169E-03    -58.1985E-03     116.145E-03    -57.9529E-03     204.259E-06    -66.5222E+06    -71.2491E+06    -260.662E+06    -69.9967E+06    -260.655E+06    -67.7818E+06    -936.224E+03         28.9853
             784     16.0517E-03     27.4992E-03         1.02636     980.724E-03        -3.40046     980.352E-03        -3.40009         1.02636     11.3981E-03     139.537E-03    -58.1865E-03    -81.4049E-03    -56.2546E-03     114.387E-03    -58.1865E-03     131.867E-03     152.549E+06     124.390E+06    -8.41284E+06    -8.38037E+06     152.517E+06     124.390E+06     114.868E+03         54.8348
             785     15.1025E-03     27.2826E-03         1.03005     986.240E-03        -3.40747     986.077E-03        -3.40731         1.03005    -34.6055E-03     147.132E-03    -58.1632E-03    -89.0732E-03    -57.0806E-03     115.139E-03    -58.1632E-03     159.800E-03     145.349E+06     100.001E+06    -15.9385E+06    -15.9166E+06     145.327E+06     100.001E+06     354.341E+03         51.8812
             786     14.1590E-03     27.1441E-03         1.03406     979.740E-03        -3.40938     979.670E-03        -3.40931         1.03406     18.3607E-03     128.389E-03    -58.0173E-03    -70.5021E-03    -57.0639E-03     114.951E-03    -58.0173E-03     96.2068E-03     136.659E+06     58.2736E+06    -21.3185E+06    -21.2914E+06     136.632E+06     58.2736E+06     680.246E+03         48.0163
             787     13.2181E-03     27.0713E-03         1.03804     990.729E-03        -3.42904     990.437E-03        -3.42875         1.03804    -27.7380E-03     119.197E-03    -57.8173E-03    -61.4413E-03    -56.7198E-03     114.475E-03    -57.8173E-03     57.0661E-03     123.589E+06     15.7987E+06    -24.9763E+06    -24.9159E+06     123.528E+06     15.7987E+06     559.972E+03         43.8704
             788     12.2716E-03     27.0199E-03         1.04136         1.00687        -3.44938         1.00660        -3.44911         1.04136    -35.4852E-03     116.933E-03    -57.7673E-03    -59.1943E-03    -56.7967E-03     114.535E-03    -57.7673E-03     39.8889E-03     71.1327E+06    -8.99883E+06    -27.0005E+06    -26.9353E+06     71.0675E+06    -8.99883E+06    -433.431E+03         40.1310
             789     11.3270E-03     26.9853E-03         1.04426         1.01142        -3.45370         1.01139        -3.45367         1.04426     21.1154E-03     116.054E-03    -57.7641E-03    -58.3303E-03    -57.1263E-03     114.962E-03    -57.8761E-03     27.1870E-03     9.88430E+06    -21.9055E+06    -35.0782E+06    -28.5978E+06    -8.33246E+06    -10.1691E+06       -236.E+03         37.0594
             790     10.3826E-03     26.9593E-03         1.04734         1.01269        -3.46057         1.01257        -3.46044         1.04734    -20.6347E-03     115.827E-03    -57.7535E-03    -58.0675E-03    -57.1681E-03     115.158E-03    -57.9833E-03     21.4495E-03    -4.89251E+06    -31.1533E+06    -65.6312E+06    -31.2452E+06    -65.5393E+06    -4.89251E+06     368.251E+03         34.6898
             791     9.43893E-03     26.9389E-03         1.05051         1.02091        -3.47491         1.02044        -3.47444         1.05051     25.9165E-03     115.904E-03    -57.8316E-03    -58.0704E-03    -57.4138E-03     115.486E-03    -58.0704E-03     16.7291E-03    -3.00552E+06    -34.3713E+06    -103.867E+06    -34.3916E+06    -103.847E+06    -3.00552E+06     465.980E+03         33.0429
             792     8.49409E-03     26.9238E-03         1.05359         1.03302        -3.48572         1.03213        -3.48447         1.05323    -33.3355E-03     116.003E-03    -57.9112E-03    -58.1305E-03    -57.6963E-03     115.783E-03    -58.1248E-03     12.3068E-03    -4.89858E+06    -38.3365E+06    -134.693E+06    -38.3496E+06    -134.680E+06    -4.89858E+06     511.596E+03         31.9777
             793     7.55133E-03     26.9126E-03         1.06120         1.04368        -3.50021         1.04644        -3.49676         1.05499     63.2510E-03     116.075E-03    -57.9572E-03    -58.1585E-03    -57.8296E-03     115.942E-03    -58.1528E-03     9.51524E-03    -9.82360E+06    -42.5234E+06    -161.532E+06    -42.5289E+06    -161.527E+06    -9.82360E+06     144.109E+03         31.2109
             794     6.60660E-03     26.9031E-03         1.07068         1.05226        -3.51622         1.06115        -3.50956         1.05513    -40.7654E-03     116.040E-03    -57.9048E-03    -58.1686E-03    -57.8347E-03     115.970E-03    -58.1686E-03     6.88092E-03    -15.7067E+06    -47.0495E+06    -186.036E+06    -47.0567E+06    -186.029E+06    -15.7067E+06    -83.7931E+03         30.5947
             795     5.66298E-03     26.8971E-03         1.06954         1.05134        -3.51398         1.05421        -3.50207         1.05477     72.8744E-03     116.018E-03    -57.8616E-03    -58.1796E-03    -57.8223E-03     115.978E-03    -58.1796E-03     5.19592E-03    -23.5836E+06    -51.4369E+06    -208.114E+06    -51.4405E+06    -208.111E+06    -23.5836E+06     75.3686E+03         30.1104
             796     4.71926E-03     26.8918E-03         1.06928         1.05159        -3.51572         1.03827        -3.48977         1.05666    -139.552E-03     116.099E-03    -57.9238E-03    -58.1936E-03    -57.9054E-03     116.078E-03    -58.1909E-03     3.70319E-03    -32.4634E+06    -55.4072E+06    -228.070E+06    -55.4143E+06    -228.063E+06    -32.4634E+06    -632.121E+03         29.7357
             797     3.77494E-03     26.8892E-03         1.11624         1.05792        -3.57041         1.05114        -3.50695         1.05956     245.378E-03     116.222E-03    -58.0311E-03    -58.2110E-03    -58.0586E-03     116.215E-03    -58.1757E-03     2.28444E-03    -41.5135E+06    -59.6466E+06    -242.942E+06    -59.6549E+06    -242.933E+06    -41.5135E+06    -547.888E+03         29.4466
             798     2.83172E-03     26.8880E-03         1.22726         1.06346        -3.68839         1.04644        -3.50757         1.06346    -485.256E-03     116.191E-03    -58.0339E-03    -58.1740E-03    -58.0627E-03     116.187E-03    -58.1413E-03     1.62956E-03    -51.7147E+06    -63.8592E+06    -249.634E+06    -63.8613E+06    -249.631E+06    -51.7147E+06     435.668E+03         29.2256
             799     1.88762E-03     26.8859E-03         1.58678         1.06923        -4.05930         1.05754        -3.53006         1.06923     933.010E-03     116.083E-03    -57.9624E-03    -58.1307E-03    -57.9609E-03     116.082E-03    -58.1307E-03     814.406E-06    -62.1639E+06    -67.8498E+06    -257.078E+06    -67.8552E+06    -257.073E+06    -62.1639E+06     209.630E+03         29.0709
             800     943.531E-06     26.8862E-03         2.88204         1.30448        -5.59213     839.753E-03        -3.54985         1.30448        -2.87429     116.237E-03    -57.9394E-03    -58.3021E-03    -58.2061E-03     116.237E-03    -58.0353E-03     207.845E-06    -68.4285E+06    -72.3676E+06    -261.399E+06    -71.1069E+06    -261.383E+06    -69.7049E+06    -813.909E+03         28.9818
             801     16.0518E-03     26.3787E-03         1.03225     979.304E-03        -3.41122     979.052E-03        -3.41097         1.03225    -2.04606E-03     139.244E-03    -58.1668E-03    -81.1312E-03    -56.3137E-03     114.426E-03    -58.1668E-03     130.462E-03     151.992E+06     124.535E+06    -7.03888E+06    -7.02439E+06     151.978E+06     124.535E+06     286.653E+03         54.8046
             802     15.1070E-03     26.1634E-03         1.03595     992.499E-03        -3.43540     992.344E-03        -3.43524         1.03595    -17.1545E-03     146.921E-03    -58.1147E-03    -88.8686E-03    -57.1139E-03     115.167E-03    -58.1147E-03     159.095E-03     145.751E+06     99.8684E+06    -14.7609E+06    -14.7479E+06     145.738E+06     99.8684E+06    -82.3469E+03         51.8548
             803     14.1618E-03     26.0179E-03         1.03939     996.680E-03        -3.45028     996.632E-03        -3.45024         1.03939     28.1636E-03     127.822E-03    -57.9616E-03    -69.9380E-03    -56.7669E-03     114.651E-03    -57.9616E-03     94.8080E-03     136.464E+06     57.1245E+06    -20.8045E+06    -20.7916E+06     136.451E+06     57.1245E+06     194.975E+03         47.9929
             804     13.2147E-03     25.9505E-03         1.04241         1.00647        -3.45914         1.00635        -3.45903         1.04241    -4.55844E-03     118.671E-03    -57.8014E-03    -60.9156E-03    -56.3228E-03     114.078E-03    -57.8014E-03     56.3082E-03     124.384E+06     15.1521E+06    -25.0208E+06    -24.9817E+06     124.345E+06     15.1521E+06     293.372E+03         43.8473
             805     12.2713E-03     25.8958E-03         1.04556         1.00066        -3.45398         1.00053        -3.45385         1.04556    -729.093E-06     117.384E-03    -57.7526E-03    -59.6469E-03    -57.2083E-03     114.946E-03    -57.7526E-03     40.1676E-03     72.0579E+06    -9.36230E+06    -27.4228E+06    -27.3178E+06     71.9529E+06    -9.36230E+06     370.481E+03         40.1093
             806     11.3286E-03     25.8628E-03         1.04895         1.01133        -3.46970         1.01129        -3.46966         1.04895     23.5178E-03     116.121E-03    -57.6717E-03    -58.4874E-03    -57.2788E-03     115.082E-03    -57.8415E-03     26.5406E-03     9.88814E+06    -22.4831E+06    -36.0836E+06    -29.1643E+06    -8.92388E+06    -10.5903E+06     476.232E+03         37.0414
             807     10.3835E-03     25.8387E-03         1.05143         1.03326        -3.49284         1.03316        -3.49273         1.05143    -18.8112E-03     115.581E-03    -57.6312E-03    -57.9487E-03    -56.9667E-03     114.916E-03    -57.9487E-03     21.3887E-03    -5.12539E+06    -31.4331E+06    -66.2224E+06    -31.5346E+06    -66.1209E+06    -5.12539E+06     677.966E+03         34.6760
             808     9.43821E-03     25.8160E-03         1.05377         1.02527        -3.48721         1.02487        -3.48681         1.05377     26.6224E-03     115.905E-03    -57.8672E-03    -58.0451E-03    -57.4532E-03     115.489E-03    -58.0426E-03     16.5201E-03    -3.26178E+06    -34.8437E+06    -104.290E+06    -34.8807E+06    -104.253E+06    -3.26178E+06     789.640E+03         33.0340
             809     8.49529E-03     25.8024E-03         1.05740         1.02041        -3.48560         1.01906        -3.48425         1.05740    -44.2750E-03     115.995E-03    -57.9484E-03    -58.0995E-03    -57.7576E-03     115.796E-03    -58.0913E-03     11.7149E-03    -4.12338E+06    -38.3640E+06    -133.923E+06    -38.3855E+06    -133.902E+06    -4.12338E+06     898.547E+03         31.9718
             810     7.55063E-03     25.7896E-03         1.06623         1.04442        -3.51556         1.04741        -3.51270         1.06039     31.3493E-03     115.950E-03    -57.8807E-03    -58.1159E-03    -57.7535E-03     115.817E-03    -58.1102E-03     9.52002E-03    -9.91302E+06    -42.5394E+06    -160.756E+06    -42.5529E+06    -160.743E+06    -9.91302E+06     545.832E+03         31.2044
             811     6.60774E-03     25.7815E-03         1.07553         1.05817        -3.53721         1.06703        -3.53135         1.06080    -64.9056E-03     115.974E-03    -57.8786E-03    -58.1284E-03    -57.8053E-03     115.900E-03    -58.1284E-03     7.02574E-03    -16.3888E+06    -47.0260E+06    -186.404E+06    -47.0318E+06    -186.399E+06    -16.3888E+06    -20.4852E+03         30.5887
             812     5.66320E-03     25.7748E-03         1.07362         1.05490        -3.53235         1.05775        -3.52222         1.06065     41.1753E-03     115.969E-03    -57.8616E-03    -58.1349E-03    -57.8225E-03     115.930E-03    -58.1349E-03     5.15592E-03    -23.7248E+06    -51.2668E+06    -207.163E+06    -51.2740E+06    -207.155E+06    -23.7248E+06    -315.517E+03         30.1058
             813     4.71907E-03     25.7704E-03         1.07444         1.05741        -3.53527         1.04703        -3.51293         1.06248    -152.064E-03     115.976E-03    -57.8557E-03    -58.1393E-03    -57.8370E-03     115.957E-03    -58.1393E-03     3.42607E-03    -33.8335E+06    -56.2382E+06    -227.808E+06    -56.2500E+06    -227.796E+06    -33.8335E+06    -605.370E+03         29.7294
             814     3.77527E-03     25.7667E-03         1.11643         1.06289        -3.58244         1.06064        -3.52830         1.06453     208.971E-03     116.050E-03    -57.9050E-03    -58.1654E-03    -57.9316E-03     116.044E-03    -58.1327E-03     2.00650E-03    -44.4692E+06    -61.3932E+06    -243.991E+06    -61.4058E+06    -243.979E+06    -44.4692E+06    -475.569E+03         29.4387
             815     2.83134E-03     25.7657E-03         1.20611         1.06584        -3.67219         1.06092        -3.52700         1.06584    -414.729E-03     116.116E-03    -57.9835E-03    -58.1509E-03    -58.0134E-03     116.113E-03    -58.1182E-03     1.29630E-03    -53.7074E+06    -65.0330E+06    -250.369E+06    -65.0383E+06    -250.364E+06    -53.7074E+06     20.2226E+03         29.2186
             816     1.88766E-03     25.7647E-03         1.50177         1.06420        -3.96603         1.07402        -3.53828         1.06420     832.988E-03     116.068E-03    -57.9565E-03    -58.1195E-03    -57.9555E-03     116.067E-03    -58.1195E-03     732.607E-06    -61.5974E+06    -67.5537E+06    -256.412E+06    -67.5560E+06    -256.410E+06    -61.5974E+06     503.448E+03         29.0650
             817     943.692E-06     25.7639E-03         2.58209         1.29516        -5.27789     828.271E-03        -3.52407         1.29516        -2.60305     116.209E-03    -57.9420E-03    -58.2701E-03    -58.1435E-03     116.209E-03    -58.0682E-03     481.589E-06    -67.9039E+06    -71.4502E+06    -260.710E+06    -70.1992E+06    -260.684E+06    -69.1803E+06     344.758E+03         28.9780
             818     16.0526E-03     25.2598E-03         1.03613     971.761E-03        -3.41210     971.671E-03        -3.41201         1.03613     10.7770E-03     139.952E-03    -58.1185E-03    -81.8788E-03    -56.8782E-03     114.952E-03    -58.1185E-03     129.440E-03     152.797E+06     123.482E+06    -8.79724E+06    -8.77872E+06     152.779E+06     123.482E+06    -2.64077E+03         54.7688
             819     15.1062E-03     25.0381E-03         1.04027     982.827E-03        -3.43344     982.712E-03        -3.43333         1.04027    -20.2049E-03     147.799E-03    -58.0479E-03    -89.8180E-03    -57.2218E-03     115.203E-03    -58.0479E-03     161.481E-03     146.404E+06     98.4565E+06    -15.2791E+06    -15.2555E+06     146.381E+06     98.4565E+06    -35.8504E+03         51.8230
             820     14.1618E-03     24.8975E-03         1.04360         1.01127        -3.46794         1.01116        -3.46783         1.04360     5.68036E-03     127.604E-03    -57.9073E-03    -69.7742E-03    -56.4558E-03     114.286E-03    -57.9073E-03     95.3901E-03     135.259E+06     55.1101E+06    -21.2857E+06    -21.2627E+06     135.236E+06     55.1101E+06     226.083E+03         47.9641
             821     13.2173E-03     24.8283E-03         1.04595         1.01941        -3.47335         1.01923        -3.47317         1.04595    -7.62849E-03     118.785E-03    -57.7520E-03    -61.0544E-03    -56.4465E-03     114.177E-03    -57.7520E-03     56.2258E-03     124.300E+06     14.5123E+06    -25.2971E+06    -25.2500E+06     124.253E+06     14.5123E+06     139.611E+03         43.8198
             822     12.2723E-03     24.7716E-03         1.04855         1.01105        -3.46861         1.01088        -3.46845         1.04855    -12.3194E-03     116.934E-03    -57.5368E-03    -59.3895E-03    -56.8894E-03     114.607E-03    -57.7097E-03     39.3177E-03     71.6230E+06    -9.54611E+06    -27.7125E+06    -27.6291E+06     71.5396E+06    -9.54611E+06     833.783E+03         40.0825
             823     11.3275E-03     24.7395E-03         1.05154         1.01665        -3.48202         1.01664        -3.48200         1.05154     7.68869E-03     115.870E-03    -57.5968E-03    -58.3083E-03    -57.0500E-03     114.843E-03    -57.8274E-03     26.3091E-03     9.94241E+06    -22.5664E+06    -35.6419E+06    -29.3385E+06    -8.87628E+06    -10.0512E+06     1.21164E+06         37.0169
             824     10.3834E-03     24.7170E-03         1.05430         1.02665        -3.49700         1.02661        -3.49696         1.05430    -19.6853E-03     116.023E-03    -57.8262E-03    -58.1978E-03    -57.4500E-03     115.367E-03    -57.9189E-03     21.2985E-03    -4.91040E+06    -31.7648E+06    -65.6176E+06    -32.0536E+06    -65.3287E+06    -4.91040E+06     1.06048E+06         34.6566
             825     9.44007E-03     24.6930E-03         1.05703         1.02907        -3.50494         1.02868        -3.50455         1.05703     39.4711E-03     115.892E-03    -57.8246E-03    -58.0775E-03    -57.5021E-03     115.472E-03    -57.9806E-03     16.5966E-03    -3.72692E+06    -34.6918E+06    -104.152E+06    -34.7323E+06    -104.112E+06    -3.72692E+06     928.219E+03         33.0190
             826     8.49553E-03     24.6792E-03         1.05999         1.03418        -3.51111         1.03286        -3.50978         1.05999    -36.2165E-03     115.711E-03    -57.7320E-03    -58.0314E-03    -57.5421E-03     115.518E-03    -58.0289E-03     11.4645E-03    -4.42051E+06    -37.8994E+06    -134.218E+06    -37.9259E+06    -134.191E+06    -4.42051E+06     822.069E+03         31.9575
             827     7.55174E-03     24.6678E-03         1.06280         1.04474        -3.52302         1.04198        -3.52026         1.06280     33.5268E-03     115.678E-03    -57.6592E-03    -58.0632E-03    -57.5330E-03     115.552E-03    -58.0632E-03     9.29993E-03    -9.63073E+06    -41.7292E+06    -159.957E+06    -41.7525E+06    -159.934E+06    -9.63073E+06     743.311E+03         31.1906
             828     6.60665E-03     24.6584E-03         1.06547         1.05079        -3.53137         1.04636        -3.52694         1.06547    -22.2992E-03     115.945E-03    -57.8377E-03    -58.1400E-03    -57.8152E-03     115.871E-03    -58.0892E-03     6.98084E-03    -16.2909E+06    -45.9403E+06    -185.289E+06    -45.9627E+06    -185.266E+06    -16.2909E+06     1.99453E+03         30.5775
             829     5.66360E-03     24.6537E-03         1.07592         1.06017        -3.55002         1.06079        -3.54212         1.06740     71.7004E-03     116.091E-03    -57.9871E-03    -58.1317E-03    -58.0083E-03     116.057E-03    -58.0771E-03     4.71504E-03    -23.4501E+06    -50.6298E+06    -207.175E+06    -50.6475E+06    -207.157E+06    -23.4501E+06    -391.364E+03         30.0968
             830     4.71982E-03     24.6478E-03         1.09207         1.06723        -3.56928         1.07452        -3.55173         1.06723    -113.347E-03     115.908E-03    -57.8658E-03    -58.0609E-03    -57.8551E-03     115.893E-03    -58.0571E-03     3.05073E-03    -32.3177E+06    -55.2838E+06    -227.878E+06    -55.2923E+06    -227.869E+06    -32.3177E+06     110.403E+03         29.7190
             831     3.77589E-03     24.6456E-03         1.11644         1.06545        -3.58780         1.07388        -3.54524         1.06545     198.034E-03     115.832E-03    -57.8139E-03    -58.0388E-03    -57.8085E-03     115.827E-03    -58.0388E-03     1.89319E-03    -43.4543E+06    -59.9139E+06    -244.120E+06    -59.9192E+06    -244.114E+06    -43.4543E+06    -262.531E+03         29.4261
             832     2.83166E-03     24.6431E-03         1.18112         1.06392        -3.64872         1.06676        -3.53435         1.06392    -360.303E-03     115.875E-03    -57.8512E-03    -58.0400E-03    -57.8493E-03     115.873E-03    -58.0400E-03     1.02999E-03    -53.3232E+06    -63.9369E+06    -250.834E+06    -63.9439E+06    -250.827E+06    -53.3232E+06    -747.564E+03         29.2067
             833     1.88770E-03     24.6426E-03         1.41782         1.05878        -3.88040         1.07745        -3.54003         1.05878     732.940E-03     115.964E-03    -57.9207E-03    -58.0525E-03    -57.9202E-03     115.964E-03    -58.0525E-03     567.546E-06    -60.6097E+06    -67.6601E+06    -256.644E+06    -67.6677E+06    -256.636E+06    -60.6097E+06     127.231E+03         29.0551
             834     943.863E-06     24.6420E-03         2.27745         1.29821        -4.98070     809.932E-03        -3.51318         1.29821        -2.31717     116.050E-03    -57.8669E-03    -58.1875E-03    -58.1275E-03     116.050E-03    -57.9263E-03     635.056E-06    -66.3795E+06    -70.2085E+06    -259.704E+06    -69.7712E+06    -259.680E+06    -66.8402E+06     671.062E+03         28.9681
             835     16.0537E-03     24.1431E-03         1.03881     974.324E-03        -3.43642     974.283E-03        -3.43638         1.03881     8.09257E-03     140.693E-03    -58.1457E-03    -82.5721E-03    -57.1089E-03     115.230E-03    -58.1457E-03     130.826E-03     153.455E+06     124.575E+06    -8.04140E+06    -7.96898E+06     153.382E+06     124.575E+06     591.542E+03         54.7218
             836     15.1074E-03     23.9134E-03         1.04286     985.170E-03        -3.44156     985.080E-03        -3.44147         1.04286    -28.9823E-03     148.558E-03    -58.0838E-03    -90.5789E-03    -57.6681E-03     115.647E-03    -58.0838E-03     162.596E-03     146.610E+06     100.147E+06    -15.0787E+06    -14.9828E+06     146.514E+06     100.147E+06     250.906E+03         51.7798
             837     14.1612E-03     23.7786E-03         1.04666     994.758E-03        -3.45275     994.538E-03        -3.45253         1.04666     5.64926E-03     127.959E-03    -57.9041E-03    -70.1679E-03    -56.8740E-03     114.665E-03    -57.9041E-03     95.9016E-03     134.213E+06     53.6205E+06    -22.0477E+06    -21.9875E+06     134.153E+06     53.6205E+06    -214.397E+03         47.9253
             838     13.2170E-03     23.7016E-03         1.05000         1.01046        -3.47542         1.01011        -3.47507         1.05000    -10.8423E-03     119.268E-03    -57.6952E-03    -61.5958E-03    -56.8506E-03     114.523E-03    -57.6952E-03     57.0105E-03     123.469E+06     11.9254E+06    -26.0975E+06    -26.0469E+06     123.418E+06     11.9254E+06     767.364E+03         43.7833
             839     12.2739E-03     23.6525E-03         1.05258         1.03556        -3.50217         1.03566        -3.50194         1.05225    -34.1103E-03     116.529E-03    -57.4882E-03    -59.0344E-03    -56.5792E-03     114.247E-03    -57.6611E-03     39.0360E-03     71.2772E+06    -10.3243E+06    -27.8888E+06    -27.7924E+06     71.1808E+06    -10.3243E+06     1.28238E+06         40.0470
             840     11.3275E-03     23.6171E-03         1.05427         1.03131        -3.49959         1.03161        -3.49956         1.05394    -1.38838E-03     115.846E-03    -57.6136E-03    -58.2717E-03    -57.0409E-03     114.788E-03    -57.7864E-03     26.6133E-03     8.67587E+06    -23.5571E+06    -35.5853E+06    -29.8713E+06    -9.09151E+06    -11.5037E+06     1.34618E+06         36.9844
             841     10.3846E-03     23.5925E-03         1.05659         1.02034        -3.49337         1.02026        -3.49329         1.05659    -34.2583E-03     116.171E-03    -57.8658E-03    -58.3043E-03    -57.6850E-03     115.551E-03    -57.8658E-03     20.7034E-03    -5.17493E+06    -31.4939E+06    -64.7634E+06    -31.8083E+06    -64.4490E+06    -5.17493E+06     1.23505E+06         34.6307
             842     9.44018E-03     23.5720E-03         1.05954         1.03957        -3.52080         1.03950        -3.52046         1.05927     26.5648E-03     115.777E-03    -57.6815E-03    -58.0890E-03    -57.4550E-03     115.372E-03    -57.9105E-03     16.4939E-03    -4.33031E+06    -34.2630E+06    -103.834E+06    -34.3234E+06    -103.774E+06    -4.33031E+06     1.15660E+06         32.9982
             843     8.49600E-03     23.5568E-03         1.06095         1.05404        -3.54062         1.05333        -3.53964         1.06068    -30.1530E-03     115.596E-03    -57.6683E-03    -57.9649E-03    -57.4750E-03     115.396E-03    -57.9580E-03     11.6065E-03    -5.22625E+06    -37.6945E+06    -134.373E+06    -37.7178E+06    -134.350E+06    -5.22625E+06     776.772E+03         31.9372
             844     7.55171E-03     23.5469E-03         1.06226         1.04586        -3.53212         1.04355        -3.52982         1.06226     38.0342E-03     115.787E-03    -57.7667E-03    -58.0645E-03    -57.7406E-03     115.675E-03    -57.9786E-03     8.75365E-03    -9.38991E+06    -41.5828E+06    -159.114E+06    -41.6020E+06    -159.094E+06    -9.38991E+06     806.734E+03         31.1707
             845     6.60814E-03     23.5367E-03         1.06591         1.04770        -3.53279         1.04541        -3.52939         1.06480    -7.84093E-03     115.782E-03    -57.7049E-03    -58.1108E-03    -57.7718E-03     115.720E-03    -57.9811E-03     6.42837E-03    -16.1667E+06    -46.0818E+06    -184.047E+06    -46.1048E+06    -184.024E+06    -16.1667E+06     250.114E+03         30.5570
             846     5.66412E-03     23.5300E-03         1.07245         1.05877        -3.54787         1.05795        -3.54152         1.06692     77.1640E-03     115.780E-03    -57.7772E-03    -58.0298E-03    -57.8059E-03     115.754E-03    -57.9752E-03     4.14780E-03    -23.6355E+06    -50.8683E+06    -207.552E+06    -50.8890E+06    -207.531E+06    -23.6355E+06    -340.007E+03         30.0752
             847     4.72035E-03     23.5269E-03         1.08139         1.06107        -3.55827         1.05984        -3.54416         1.06852    -93.0727E-03     115.744E-03    -57.8013E-03    -57.9669E-03    -57.7922E-03     115.731E-03    -57.9631E-03     2.97467E-03    -32.2092E+06    -55.2419E+06    -228.131E+06    -55.2519E+06    -228.121E+06    -32.2092E+06     82.3737E+03         29.6987
             848     3.77592E-03     23.5233E-03         1.11183         1.06419        -3.58647         1.07631        -3.55516         1.06840     150.886E-03     115.716E-03    -57.8013E-03    -57.9368E-03    -57.7952E-03     115.709E-03    -57.9368E-03     1.90036E-03    -41.7400E+06    -59.0813E+06    -243.421E+06    -59.0838E+06    -243.418E+06    -41.7400E+06     21.0276E+03         29.4071
             849     2.83226E-03     23.5222E-03         1.16324         1.06587        -3.63867         1.07520        -3.55063         1.06587    -342.986E-03     115.705E-03    -57.7897E-03    -57.9303E-03    -57.8083E-03     115.704E-03    -57.9104E-03     931.436E-06    -51.7958E+06    -64.0421E+06    -251.067E+06    -64.0523E+06    -251.057E+06    -51.7958E+06    -4.32062E+03         29.1880
             850     1.88792E-03     23.5206E-03         1.35328         1.05824        -3.82996         1.08257        -3.55925         1.05824     651.232E-03     115.729E-03    -57.7652E-03    -57.9719E-03    -57.8865E-03     115.728E-03    -57.8501E-03     356.287E-06    -60.8713E+06    -68.5028E+06    -256.887E+06    -68.5359E+06    -256.854E+06    -60.8713E+06    -345.791E+03         29.0356
             851     943.955E-06     23.5201E-03         2.01040         1.29470        -4.73302     809.445E-03        -3.53207         1.29470        -2.00821     115.542E-03    -57.5769E-03    -57.9706E-03    -57.9592E-03     115.542E-03    -57.5878E-03     262.027E-06    -68.6296E+06    -71.6279E+06    -260.151E+06    -71.0650E+06    -260.119E+06    -69.2245E+06    -762.741E+03         28.9452
             852     16.0478E-03     23.0127E-03         1.04219     997.182E-03        -3.47711     997.103E-03        -3.47703         1.04219    -18.5927E-03     140.171E-03    -58.1779E-03    -82.0029E-03    -57.2210E-03     115.389E-03    -58.1779E-03     130.354E-03     153.474E+06     125.285E+06    -6.18388E+06    -6.10855E+06     153.399E+06     125.285E+06     693.435E+03         54.6639
             853     15.1060E-03     22.7945E-03         1.04514         1.00792        -3.48197         1.00782        -3.48187         1.04514    -24.6457E-03     148.239E-03    -58.0724E-03    -90.2560E-03    -58.3499E-03     116.333E-03    -58.0724E-03     160.453E-03     147.104E+06     100.567E+06    -15.0117E+06    -14.8920E+06     146.985E+06     100.567E+06     835.801E+03         51.7270
             854     14.1616E-03     22.6526E-03         1.04854     991.639E-03        -3.46357     991.496E-03        -3.46342         1.04854     12.7697E-03     127.946E-03    -57.8570E-03    -70.1821E-03    -56.9619E-03     114.726E-03    -57.8570E-03     95.5538E-03     134.341E+06     53.0528E+06    -21.9149E+06    -21.8374E+06     134.264E+06     53.0528E+06     653.644E+03         47.8771
             855     13.2183E-03     22.5804E-03         1.05229         1.00384        -3.47853         1.00357        -3.47826         1.05229    -21.7787E-03     118.743E-03    -57.6674E-03    -61.1029E-03    -56.4507E-03     114.091E-03    -57.6674E-03     56.3714E-03     122.216E+06     10.9873E+06    -26.6298E+06    -26.5801E+06     122.166E+06     10.9873E+06     1.14070E+06         43.7346
             856     12.2718E-03     22.5301E-03         1.05548         1.02705        -3.50529         1.02719        -3.50511         1.05516    -26.1348E-03     116.886E-03    -57.6364E-03    -59.2617E-03    -56.9836E-03     114.608E-03    -57.6364E-03     39.0157E-03     70.9078E+06    -10.8594E+06    -29.3067E+06    -29.1911E+06     70.7921E+06    -10.8594E+06     1.09914E+06         39.9980
             857     11.3296E-03     22.4954E-03         1.05893         1.03586        -3.51687         1.03765        -3.51685         1.05712     4.08018E-03     116.241E-03    -57.7201E-03    -58.5626E-03    -57.5011E-03     115.179E-03    -57.7201E-03     26.7976E-03     8.68269E+06    -23.5944E+06    -36.3044E+06    -30.2032E+06    -8.67043E+06    -12.3424E+06     1.09370E+06         36.9397
             858     10.3844E-03     22.4700E-03         1.06029         1.03972        -3.52108         1.04110        -3.52097         1.05880    -37.7295E-03     115.912E-03    -57.7821E-03    -58.1306E-03    -57.5359E-03     115.317E-03    -57.7821E-03     20.1893E-03    -5.87641E+06    -31.5437E+06    -65.0893E+06    -31.8452E+06    -64.7878E+06    -5.87641E+06     1.14573E+06         34.5953
             859     9.44105E-03     22.4502E-03         1.06109         1.03719        -3.52201         1.03726        -3.52181         1.06082    -4.54745E-03     115.758E-03    -57.7102E-03    -58.0332E-03    -57.5748E-03     115.407E-03    -57.8181E-03     15.3377E-03    -4.29703E+06    -34.4059E+06    -102.956E+06    -34.4875E+06    -102.874E+06    -4.29703E+06     1.29813E+06         32.9708
             860     8.49653E-03     22.4350E-03         1.06347         1.04293        -3.53145         1.04218        -3.53044         1.06320    -65.8426E-03     115.605E-03    -57.7158E-03    -57.9144E-03    -57.6096E-03     115.427E-03    -57.8428E-03     10.9416E-03    -5.75935E+06    -38.1809E+06    -133.988E+06    -38.2227E+06    -133.947E+06    -5.75935E+06     1.04993E+06         31.9088
             861     7.55309E-03     22.4240E-03         1.06543         1.05090        -3.54260         1.04931        -3.54101         1.06543    -14.1464E-03     115.717E-03    -57.8212E-03    -57.9376E-03    -57.8192E-03     115.617E-03    -57.8403E-03     8.24220E-03    -9.84876E+06    -42.1978E+06    -159.239E+06    -42.2212E+06    -159.216E+06    -9.84876E+06     921.675E+03         31.1378
             862     6.60950E-03     22.4151E-03         1.06848         1.05735        -3.55074         1.05519        -3.54747         1.06737    -77.7832E-03     115.527E-03    -57.6442E-03    -57.9142E-03    -57.6793E-03     115.471E-03    -57.8239E-03     6.07643E-03    -16.2033E+06    -46.4206E+06    -183.072E+06    -46.4389E+06    -183.054E+06    -16.2033E+06     870.852E+03         30.5214
             863     5.66481E-03     22.4085E-03         1.07039         1.06325        -3.55800         1.05905        -3.55253         1.06912     7.67867E-03     115.304E-03    -57.5010E-03    -57.8289E-03    -57.4777E-03     115.281E-03    -57.8289E-03     3.86387E-03    -23.4612E+06    -51.5271E+06    -207.028E+06    -51.5361E+06    -207.019E+06    -23.4612E+06    -47.4293E+03         30.0392
             864     4.72026E-03     22.4051E-03         1.07542         1.06397        -3.56114         1.05718        -3.55035         1.07141    -104.008E-03     115.484E-03    -57.6777E-03    -57.8278E-03    -57.6698E-03     115.475E-03    -57.8264E-03     2.44931E-03    -32.6645E+06    -56.6657E+06    -228.260E+06    -56.6777E+06    -228.248E+06    -32.6645E+06    -515.769E+03         29.6658
             865     3.77686E-03     22.4021E-03         1.09967         1.06892        -3.58451         1.07090        -3.55996         1.07312     128.296E-03     115.523E-03    -57.7536E-03    -57.7889E-03    -57.7563E-03     115.520E-03    -57.7823E-03     1.40113E-03    -42.6935E+06    -61.2699E+06    -243.489E+06    -61.2808E+06    -243.478E+06    -42.6935E+06     66.0863E+03         29.3764
             866     2.83233E-03     22.4004E-03         1.14663         1.07233        -3.63845         1.07877        -3.57059         1.07233    -299.250E-03     115.488E-03    -57.6874E-03    -57.8145E-03    -57.7855E-03     115.487E-03    -57.7157E-03     664.269E-06    -52.0108E+06    -65.4163E+06    -250.631E+06    -65.4318E+06    -250.616E+06    -52.0108E+06     344.301E+03         29.1564
             867     1.88877E-03     22.3994E-03         1.29624         1.06497        -3.78781         1.09014        -3.58171         1.06497     549.821E-03     115.313E-03    -57.5237E-03    -57.7966E-03    -57.7188E-03     115.312E-03    -57.6011E-03     222.100E-06    -62.6153E+06    -69.5403E+06    -257.107E+06    -69.5741E+06    -257.073E+06    -62.6153E+06    -458.539E+03         29.0013
             868     945.011E-06     22.3991E-03         1.75511         1.30415        -4.48545     813.162E-03        -3.54350         1.30415        -1.71802     115.004E-03    -57.3114E-03    -57.6946E-03    -57.6165E-03     115.003E-03    -57.3888E-03     281.659E-06    -70.7458E+06    -72.6556E+06    -261.158E+06    -72.5462E+06    -261.133E+06    -70.8800E+06    -148.643E+03         28.9088
             869     16.0548E-03     21.8910E-03         1.04504         1.00722        -3.48293         1.00711        -3.48282         1.04504    -9.16061E-03     140.263E-03    -58.1022E-03    -82.1716E-03    -57.6371E-03     115.728E-03    -58.1022E-03     128.477E-03     153.131E+06     124.471E+06    -7.03025E+06    -6.97041E+06     153.071E+06     124.471E+06     463.330E+03         54.5965
             870     15.1080E-03     21.6708E-03         1.04777         1.00634        -3.48787         1.00625        -3.48778         1.04777    -12.1900E-03     147.612E-03    -57.9842E-03    -89.7060E-03    -57.8519E-03     115.758E-03    -57.9842E-03     159.709E-03     147.137E+06     99.1588E+06    -16.0892E+06    -16.0106E+06     147.058E+06     99.1588E+06     1.39077E+06         51.6650
             871     14.1641E-03     21.5297E-03         1.05063         1.01348        -3.50163         1.01345        -3.50160         1.05063     2.12911E-03     127.472E-03    -57.8025E-03    -69.7597E-03    -56.7177E-03     114.430E-03    -57.8025E-03     94.7093E-03     134.985E+06     54.7577E+06    -22.0898E+06    -22.0229E+06     134.918E+06     54.7577E+06     1.73813E+06         47.8185
             872     13.2169E-03     21.4598E-03         1.05336         1.01665        -3.50539         1.01650        -3.50524         1.05336    -44.9547E-03     118.467E-03    -57.6279E-03    -60.8748E-03    -56.2898E-03     113.882E-03    -57.6279E-03     55.9444E-03     122.196E+06     13.2097E+06    -26.0980E+06    -26.0248E+06     122.123E+06     13.2097E+06     1.15528E+06         43.6738
             873     12.2739E-03     21.4059E-03         1.05635         1.01444        -3.50325         1.01429        -3.50310         1.05635    -24.7342E-03     117.153E-03    -57.5692E-03    -59.5930E-03    -57.3821E-03     114.942E-03    -57.5692E-03     38.2354E-03     70.5449E+06    -9.97816E+06    -28.1331E+06    -28.0340E+06     70.4457E+06    -9.97816E+06     609.001E+03         39.9341
             874     11.3293E-03     21.3724E-03         1.06048         1.03334        -3.52160         1.03482        -3.52159         1.05899     7.38884E-03     116.181E-03    -57.6243E-03    -58.5924E-03    -57.6391E-03     115.227E-03    -57.6243E-03     25.4705E-03     9.14939E+06    -22.1733E+06    -35.8353E+06    -29.3678E+06    -8.32787E+06    -11.1636E+06     1.06260E+06         36.8770
             875     10.3866E-03     21.3479E-03         1.06213         1.04541        -3.53453         1.04682        -3.53446         1.06065    -24.5682E-03     115.850E-03    -57.6676E-03    -58.1824E-03    -57.6190E-03     115.287E-03    -57.6676E-03     19.6577E-03    -6.15940E+06    -31.6069E+06    -65.4056E+06    -31.9018E+06    -65.1107E+06    -6.15940E+06     1.38935E+06         34.5400
             876     9.44204E-03     21.3272E-03         1.06274         1.03423        -3.52393         1.03410        -3.52381         1.06274    -2.68789E-03     115.827E-03    -57.6723E-03    -58.1496E-03    -57.8298E-03     115.507E-03    -57.6723E-03     14.6029E-03    -4.40223E+06    -34.9521E+06    -102.457E+06    -35.0431E+06    -102.365E+06    -4.40223E+06     1.56577E+06         32.9240
             877     8.49905E-03     21.3133E-03         1.06622         1.03043        -3.52306         1.02970        -3.52233         1.06622    -55.6735E-03     115.540E-03    -57.6356E-03    -57.9404E-03    -57.7694E-03     115.388E-03    -57.6547E-03     10.1534E-03    -6.13137E+06    -38.2567E+06    -133.135E+06    -38.3127E+06    -133.079E+06    -6.13137E+06     1.55050E+06         31.8600
             878     7.55425E-03     21.3018E-03         1.06994         1.04434        -3.54614         1.04307        -3.54487         1.06994    -2.06033E-03     115.220E-03    -57.5504E-03    -57.7066E-03    -57.5329E-03     115.135E-03    -57.6387E-03     7.58368E-03    -10.6488E+06    -42.0028E+06    -159.428E+06    -42.0406E+06    -159.390E+06    -10.6488E+06     1.15509E+06         31.0816
             879     6.60990E-03     21.2931E-03         1.07290         1.05774        -3.56594         1.05528        -3.56348         1.07290    -54.9253E-03     115.124E-03    -57.5065E-03    -57.6458E-03    -57.4801E-03     115.082E-03    -57.6303E-03     5.13916E-03    -16.3517E+06    -46.4578E+06    -183.094E+06    -46.4907E+06    -183.061E+06    -16.3517E+06     1.24523E+06         30.4643
             880     5.66610E-03     21.2882E-03         1.07607         1.06890        -3.58378         1.06622        -3.57993         1.07490     7.25938E-03     115.122E-03    -57.4827E-03    -57.6674E-03    -57.5212E-03     115.106E-03    -57.6125E-03     3.25402E-03    -23.3175E+06    -51.9588E+06    -205.829E+06    -51.9769E+06    -205.811E+06    -23.3175E+06     890.275E+03         29.9856
             881     4.72207E-03     21.2831E-03         1.08883         1.07494        -3.60144         1.08191        -3.59452         1.07494    -80.4520E-03     115.092E-03    -57.4810E-03    -57.6316E-03    -57.5271E-03     115.086E-03    -57.5793E-03     1.74250E-03    -32.1020E+06    -57.9829E+06    -227.944E+06    -57.9895E+06    -227.937E+06    -32.1020E+06    -63.2494E+03         29.6139
             882     3.77734E-03     21.2809E-03         1.10355         1.07259        -3.61006         1.08580        -3.59230         1.07259     123.650E-03     115.019E-03    -57.4854E-03    -57.5518E-03    -57.5278E-03     115.018E-03    -57.5085E-03     685.483E-06    -43.6604E+06    -63.3187E+06    -243.504E+06    -63.3359E+06    -243.487E+06    -43.6604E+06    -385.820E+03         29.3235
             883     2.83355E-03     21.2792E-03         1.11136         1.07115        -3.61631         1.06208        -3.56858         1.07271    -229.103E-03     114.872E-03    -57.3367E-03    -57.5513E-03    -57.4518E-03     114.871E-03    -57.4357E-03     278.330E-06    -54.9225E+06    -67.1182E+06    -250.702E+06    -67.1344E+06    -250.686E+06    -54.9225E+06    -464.144E+03         29.1024
             884     1.88910E-03     21.2783E-03         1.21657         1.07518        -3.72495         1.06771        -3.57765         1.07673     479.829E-03     114.642E-03    -57.1620E-03    -57.4914E-03    -57.2356E-03     114.642E-03    -57.4177E-03    -9.01844E-06    -63.5696E+06    -69.6741E+06    -257.026E+06    -69.6836E+06    -257.016E+06    -63.5696E+06    -105.757E+03         28.9487
             885     943.516E-06     21.2794E-03         1.54488         1.31903        -4.29791     838.744E-03        -3.59177         1.31903        -1.46334     114.795E-03    -57.1056E-03    -57.6928E-03    -57.5353E-03     114.794E-03    -57.2623E-03     558.381E-06    -70.8944E+06    -73.3270E+06    -260.724E+06    -73.3370E+06    -260.714E+06    -70.8944E+06     799.539E+03         28.8603
             886     16.0545E-03     20.7756E-03         1.04583     999.037E-03        -3.48043     998.895E-03        -3.48029         1.04583     34.9313E-03     141.448E-03    -58.0656E-03    -83.3908E-03    -58.3184E-03     116.376E-03    -58.0656E-03     129.799E-03     151.460E+06     123.339E+06    -8.44677E+06    -8.39565E+06     151.409E+06     123.339E+06     207.380E+03         54.5097
             887     15.1083E-03     20.5450E-03         1.04887     994.911E-03        -3.47904     994.809E-03        -3.47894         1.04887     3.42397E-03     148.374E-03    -57.9482E-03    -90.5208E-03    -57.9382E-03     115.792E-03    -57.9482E-03     161.824E-03     146.940E+06     99.5805E+06    -15.7176E+06    -15.6048E+06     146.827E+06     99.5805E+06     2.07244E+06         51.5857
             888     14.1634E-03     20.4094E-03         1.05174         1.01541        -3.50686         1.01528        -3.50673         1.05174     9.43216E-03     127.596E-03    -57.7544E-03    -69.9570E-03    -56.9142E-03     114.554E-03    -57.7544E-03     94.6974E-03     136.152E+06     54.8342E+06    -21.0080E+06    -20.8953E+06     136.040E+06     54.8342E+06     1.97054E+06         47.7447
             889     13.2198E-03     20.3364E-03         1.05413         1.02098        -3.51726         1.02078        -3.51705         1.05413    -16.8151E-03     119.218E-03    -57.5225E-03    -61.7334E-03    -57.1888E-03     114.674E-03    -57.5225E-03     55.8760E-03     123.154E+06     12.9006E+06    -24.4382E+06    -24.3527E+06     123.069E+06     12.9006E+06     890.962E+03         43.5971
             890     12.2753E-03     20.2821E-03         1.05673         1.02034        -3.51729         1.02021        -3.51717         1.05673    -31.1275E-03     117.039E-03    -57.4144E-03    -59.6334E-03    -57.5310E-03     114.937E-03    -57.4144E-03     37.2520E-03     70.4939E+06    -10.1906E+06    -26.3645E+06    -26.2783E+06     70.4077E+06    -10.1906E+06     1.16452E+06         39.8509
             891     11.3323E-03     20.2503E-03         1.05945         1.02813        -3.52370         1.02810        -3.52366         1.05945    -11.0668E-03     115.905E-03    -57.4513E-03    -58.4956E-03    -57.6323E-03     115.042E-03    -57.4513E-03     24.1484E-03     8.49804E+06    -22.4735E+06    -35.2501E+06    -28.7655E+06    -8.95121E+06    -11.5089E+06     1.76656E+06         36.7900
             892     10.3871E-03     20.2258E-03         1.06210         1.03293        -3.52907         1.03288        -3.52902         1.06210    -26.6022E-03     115.808E-03    -57.4726E-03    -58.3430E-03    -57.8480E-03     115.313E-03    -57.4726E-03     18.4205E-03    -6.07848E+06    -30.5071E+06    -64.9438E+06    -30.9391E+06    -64.5118E+06    -6.07848E+06     1.78991E+06         34.4536
             893     9.44443E-03     20.2051E-03         1.06603         1.04597        -3.54359         1.04763        -3.54351         1.06428     4.98487E-03     115.700E-03    -57.4431E-03    -58.2680E-03    -57.9952E-03     115.428E-03    -57.4431E-03     13.2818E-03    -4.58318E+06    -33.8458E+06    -102.716E+06    -33.9393E+06    -102.622E+06    -4.58318E+06     1.83294E+06         32.8405
             894     8.50014E-03     20.1907E-03         1.06773         1.04897        -3.55082         1.05030        -3.55041         1.06599    -37.3671E-03     115.287E-03    -57.3866E-03    -57.9462E-03    -57.8355E-03     115.177E-03    -57.3866E-03     8.53286E-03    -6.01540E+06    -37.4730E+06    -132.707E+06    -37.5355E+06    -132.645E+06    -6.01540E+06     1.98824E+06         31.7759
             895     7.55691E-03     20.1809E-03         1.06833         1.04544        -3.54986         1.04442        -3.54883         1.06833     21.0564E-03     114.816E-03    -57.2606E-03    -57.5872E-03    -57.4624E-03     114.761E-03    -57.3297E-03     6.01164E-03    -11.0851E+06    -41.9590E+06    -158.839E+06    -42.0161E+06    -158.782E+06    -11.0851E+06     1.84329E+06         30.9934
             896     6.61227E-03     20.1722E-03         1.07119         1.05284        -3.55892         1.05138        -3.55745         1.07119    -7.25203E-03     114.565E-03    -57.2237E-03    -57.3672E-03    -57.2742E-03     114.543E-03    -57.2943E-03     3.65924E-03    -17.1716E+06    -46.8430E+06    -183.374E+06    -46.8941E+06    -183.323E+06    -17.1716E+06     1.73562E+06         30.3753
             897     5.66772E-03     20.1667E-03         1.07460         1.06276        -3.57254         1.06147        -3.57024         1.07358     32.8105E-03     114.548E-03    -57.2522E-03    -57.3220E-03    -57.3130E-03     114.540E-03    -57.2537E-03     2.03992E-03    -23.9812E+06    -51.3844E+06    -204.521E+06    -51.4192E+06    -204.486E+06    -23.9812E+06     1.73717E+06         29.8987
             898     4.72348E-03     20.1629E-03         1.08556         1.05987        -3.58126         1.06460        -3.57611         1.07568    -64.6579E-03     114.489E-03    -57.1782E-03    -57.3283E-03    -57.3022E-03     114.486E-03    -57.2013E-03     839.759E-06    -31.6794E+06    -56.5381E+06    -226.675E+06    -56.5589E+06    -226.654E+06    -31.6794E+06     767.504E+03         29.5279
             899     3.77934E-03     20.1612E-03         1.09972         1.06529        -3.60143         1.07841        -3.59140         1.07656     61.5508E-03     114.261E-03    -57.0601E-03    -57.2169E-03    -57.1593E-03     114.261E-03    -57.1175E-03     10.0995E-06    -42.5855E+06    -61.8900E+06    -243.200E+06    -61.9028E+06    -243.187E+06    -42.5855E+06    -365.392E+03         29.2383
             900     2.83440E-03     20.1587E-03         1.10810         1.07463        -3.61377         1.07717        -3.58440         1.07618    -215.859E-03     113.960E-03    -56.8777E-03    -57.1003E-03    -56.9132E-03     113.959E-03    -57.0636E-03    -499.197E-06    -55.6653E+06    -66.9064E+06    -251.401E+06    -66.9185E+06    -251.389E+06    -55.6653E+06    -454.479E+03         29.0203
             901     1.88900E-03     20.1599E-03         1.17970         1.07350        -3.68956         1.07894        -3.59035         1.07505     396.947E-03     113.991E-03    -56.8225E-03    -57.1813E-03    -56.9495E-03     113.991E-03    -57.0534E-03    -561.286E-06    -64.5218E+06    -71.3864E+06    -257.629E+06    -71.4004E+06    -257.615E+06    -64.5218E+06     300.814E+03         28.8717
             902     945.153E-06     20.1573E-03         1.37946         1.25803        -4.08638     867.147E-03        -3.59683         1.28079        -1.17987     114.031E-03    -56.7626E-03    -57.2743E-03    -57.1942E-03     114.030E-03    -56.8419E-03    -191.816E-06    -70.8053E+06    -75.0458E+06    -259.850E+06    -74.5108E+06    -259.820E+06    -71.3706E+06     182.081E+03         28.7866
             903     16.0500E-03     19.6433E-03         1.04583     991.698E-03        -3.47498     991.526E-03        -3.47480         1.04583     18.8128E-03     140.784E-03    -58.1092E-03    -82.6877E-03    -58.4701E-03     116.566E-03    -58.1092E-03     129.490E-03     150.242E+06     123.147E+06    -8.47623E+06    -8.46210E+06     150.228E+06     123.147E+06     129.509E+03         54.3961
             904     15.1101E-03     19.4262E-03         1.04857         1.01305        -3.49833         1.01290        -3.49817         1.04857    -9.01310E-03     148.327E-03    -57.9499E-03    -90.4837E-03    -59.0286E-03     116.872E-03    -57.9499E-03     159.827E-03     145.139E+06     100.437E+06    -14.4147E+06    -14.3011E+06     145.026E+06     100.437E+06     305.708E+03         51.4809
             905     14.1635E-03     19.2854E-03         1.05087         1.01337        -3.50094         1.01316        -3.50073         1.05087     2.94797E-03     128.614E-03    -57.6647E-03    -71.0767E-03    -58.0257E-03     115.563E-03    -57.6647E-03     94.6707E-03     137.062E+06     54.5837E+06    -18.8568E+06    -18.6988E+06     136.904E+06     54.5837E+06     1.25420E+06         47.6486
             906     13.2213E-03     19.2119E-03         1.05342         1.01423        -3.50708         1.01402        -3.50688         1.05342     4.52360E-03     119.577E-03    -57.3477E-03    -62.2640E-03    -58.0221E-03     115.335E-03    -57.3477E-03     54.2001E-03     123.471E+06     11.7118E+06    -22.2825E+06    -22.1932E+06     123.382E+06     11.7118E+06     2.09167E+06         43.4977
             907     12.2784E-03     19.1613E-03         1.05626         1.01730        -3.51430         1.01720        -3.51421         1.05626    -26.3589E-03     116.991E-03    -57.1917E-03    -59.8124E-03    -57.8445E-03     115.023E-03    -57.1917E-03     35.9745E-03     69.8764E+06    -10.8601E+06    -25.9425E+06    -25.7849E+06     69.7187E+06    -10.8601E+06     2.70751E+06         39.7424
             908     11.3337E-03     19.1268E-03         1.05948         1.01749        -3.52078         1.01746        -3.52074         1.05948    -8.03744E-03     116.049E-03    -57.1776E-03    -58.9239E-03    -58.1723E-03     115.297E-03    -57.1776E-03     22.4052E-03     8.80821E+06    -22.5858E+06    -34.6000E+06    -28.2227E+06    -8.46014E+06    -11.6948E+06     2.31018E+06         36.6740
             909     10.3919E-03     19.1039E-03         1.06249         1.03435        -3.53766         1.03428        -3.53759         1.06249    -29.3626E-03     115.843E-03    -57.1199E-03    -58.7332E-03    -58.3576E-03     115.467E-03    -57.1199E-03     16.0018E-03    -6.22088E+06    -29.7069E+06    -64.3997E+06    -30.2125E+06    -63.8941E+06    -6.22088E+06     2.27698E+06         34.3304
             910     9.44758E-03     19.0818E-03         1.06592         1.05422        -3.55647         1.05582        -3.55632         1.06418     5.14540E-03     115.285E-03    -57.0277E-03    -58.2621E-03    -58.0860E-03     115.109E-03    -57.0277E-03     10.2756E-03    -5.03056E+06    -32.6624E+06    -103.047E+06    -32.8303E+06    -102.880E+06    -5.03056E+06     2.34213E+06         32.7109
             911     8.50457E-03     19.0707E-03         1.06661         1.05857        -3.56173         1.05975        -3.56117         1.06487    -39.5986E-03     114.606E-03    -56.9308E-03    -57.7107E-03    -57.6599E-03     114.555E-03    -56.9308E-03     5.65480E-03    -6.07722E+06    -36.7981E+06    -132.514E+06    -36.9196E+06    -132.393E+06    -6.07722E+06     2.71225E+06         31.6419
             912     7.55990E-03     19.0594E-03         1.07053         1.05726        -3.56434         1.06160        -3.56354         1.06539    -13.5313E-03     114.220E-03    -56.8234E-03    -57.4252E-03    -57.4014E-03     114.196E-03    -56.8234E-03     3.50524E-03    -11.5247E+06    -41.4976E+06    -157.929E+06    -41.6145E+06    -157.812E+06    -11.5247E+06     2.92050E+06         30.8575
             913     6.61588E-03     19.0525E-03         1.07261         1.05760        -3.56370         1.06346        -3.56272         1.06577    -24.9231E-03     113.815E-03    -56.7297E-03    -57.1085E-03    -57.0996E-03     113.808E-03    -56.7312E-03     1.54082E-03    -18.0227E+06    -46.2247E+06    -182.696E+06    -46.2972E+06    -182.623E+06    -18.0227E+06     2.49374E+06         30.2382
             914     5.67112E-03     19.0461E-03         1.06868         1.05436        -3.55383         1.05405        -3.55183         1.06699     34.7993E-03     113.450E-03    -56.6531E-03    -56.8211E-03    -56.8164E-03     113.447E-03    -56.6546E-03     15.5440E-06    -25.2611E+06    -50.5611E+06    -203.494E+06    -50.6190E+06    -203.436E+06    -25.2611E+06     1.72187E+06         29.7600
             915     4.72605E-03     19.0433E-03         1.07101         1.04501        -3.55141         1.04132        -3.54773         1.07101    -33.7942E-03     113.259E-03    -56.5649E-03    -56.7123E-03    -56.6717E-03     113.255E-03    -56.6022E-03    -946.867E-06    -32.5126E+06    -54.5305E+06    -225.295E+06    -54.5625E+06    -225.263E+06    -32.5126E+06     803.747E+03         29.3898
             916     3.78104E-03     19.0400E-03         1.07986         1.05728        -3.57754         1.05206        -3.56955         1.07709     84.2248E-03     113.069E-03    -56.4730E-03    -56.6118E-03    -56.5311E-03     113.065E-03    -56.5491E-03    -1.37540E-03    -41.1988E+06    -59.7592E+06    -243.303E+06    -59.7733E+06    -243.289E+06    -41.1988E+06     719.806E+03         29.1063
             917     2.83584E-03     19.0407E-03         1.10926         1.07573        -3.62558         1.08504        -3.60488         1.07925    -146.450E-03     112.968E-03    -56.3910E-03    -56.5946E-03    -56.4988E-03     112.963E-03    -56.4824E-03    -1.53259E-03    -52.1107E+06    -65.5981E+06    -251.161E+06    -65.6174E+06    -251.142E+06    -52.1107E+06     884.150E+03         28.8963
             918     1.89092E-03     19.0393E-03         1.18337         1.06539        -3.69594         1.11692        -3.62949         1.06539     328.286E-03     112.890E-03    -56.3037E-03    -56.5973E-03    -56.5412E-03     112.887E-03    -56.3571E-03    -1.18524E-03    -62.8060E+06    -70.6600E+06    -257.229E+06    -70.6931E+06    -257.196E+06    -62.8060E+06     657.531E+03         28.7519
             919     945.615E-06     19.0393E-03         1.31733         1.12704        -3.89993     878.349E-03        -3.56050         1.22658    -933.075E-03     112.495E-03    -56.0536E-03    -56.4467E-03    -56.4439E-03     112.493E-03    -56.0544E-03    -737.224E-06    -70.3041E+06    -73.3544E+06    -259.795E+06    -72.8214E+06    -259.763E+06    -70.8694E+06    -277.605E+03         28.6671
             920     16.0536E-03     18.5148E-03         1.04584     991.572E-03        -3.48241     991.489E-03        -3.48233         1.04584    -25.8223E-03     140.382E-03    -58.0833E-03    -82.3354E-03    -58.5431E-03     116.590E-03    -58.0833E-03     129.042E-03     150.243E+06     122.914E+06    -7.33985E+06    -7.25175E+06     150.155E+06     122.914E+06    -483.752E+03         54.2546
             921     15.1079E-03     18.3052E-03         1.04845         1.01486        -3.51249         1.01479        -3.51241         1.04845    -21.1134E-03     148.336E-03    -57.8776E-03    -90.5506E-03    -59.9439E-03     117.730E-03    -57.8776E-03     157.903E-03     143.700E+06     100.211E+06    -13.1385E+06    -12.9998E+06     143.561E+06     100.211E+06    -1.43809E+06         51.3454
             922     14.1680E-03     18.1586E-03         1.05055         1.02012        -3.51382         1.02000        -3.51370         1.05055    -17.6183E-03     129.623E-03    -57.5052E-03    -72.2273E-03    -59.4860E-03     116.882E-03    -57.5052E-03     94.0163E-03     135.180E+06     55.1245E+06    -19.2495E+06    -19.1426E+06     135.073E+06     55.1245E+06     1.22078E+06         47.5208
             923     13.2252E-03     18.0904E-03         1.05270         1.02227        -3.51037         1.02213        -3.51023         1.05270    -25.6851E-03     119.849E-03    -57.0974E-03    -62.7855E-03    -58.8912E-03     115.954E-03    -57.0974E-03     51.9836E-03     123.258E+06     11.9729E+06    -24.0544E+06    -23.9180E+06     123.122E+06     11.9729E+06     3.47205E+06         43.3690
             924     12.2813E-03     18.0369E-03         1.05500         1.02315        -3.51217         1.02306        -3.51208         1.05500    -26.3529E-03     117.535E-03    -56.8357E-03    -60.7145E-03    -59.0467E-03     115.867E-03    -56.8357E-03     32.8135E-03     71.1351E+06    -10.7905E+06    -26.2376E+06    -26.0193E+06     70.9168E+06    -10.7905E+06     3.27132E+06         39.6078
             925     11.3401E-03     18.0056E-03         1.05767         1.02163        -3.52097         1.02162        -3.52096         1.05767     2.26035E-03     116.210E-03    -56.6993E-03    -59.5744E-03    -59.0327E-03     115.669E-03    -56.6993E-03     18.9707E-03     9.56286E+06    -20.9987E+06    -33.9542E+06    -26.7057E+06    -7.25128E+06    -11.4331E+06     2.68068E+06         36.5322
             926     10.3964E-03     17.9799E-03         1.06027         1.03438        -3.53833         1.03431        -3.53827         1.06027    -22.4140E-03     115.717E-03    -56.5278E-03    -59.2027E-03    -58.9653E-03     115.480E-03    -56.5278E-03     12.3485E-03    -6.36315E+06    -28.2489E+06    -64.4849E+06    -29.0821E+06    -63.6517E+06    -6.36315E+06     3.04328E+06         34.1728
             927     9.45498E-03     17.9616E-03         1.06223         1.04557        -3.55046         1.04539        -3.55028         1.06223     4.79521E-03     114.716E-03    -56.3298E-03    -58.3745E-03    -58.2940E-03     114.635E-03    -56.3298E-03     6.06972E-03    -5.98680E+06    -32.2017E+06    -103.355E+06    -32.4556E+06    -103.102E+06    -5.98680E+06     3.24684E+06         32.5315
             928     8.51000E-03     17.9498E-03         1.06387         1.04935        -3.56066         1.04878        -3.56009         1.06387    -35.5590E-03     113.657E-03    -56.1545E-03    -57.5251E-03    -57.5105E-03     113.643E-03    -56.1545E-03     1.62497E-03    -6.84931E+06    -35.6158E+06    -132.606E+06    -35.8234E+06    -132.398E+06    -6.84931E+06     3.53470E+06         31.4472
             929     7.56623E-03     17.9398E-03         1.07015         1.05560        -3.57518         1.06020        -3.57463         1.06500    -36.0167E-03     113.047E-03    -55.9842E-03    -57.0932E-03    -57.0814E-03     113.035E-03    -55.9842E-03    -495.543E-06    -11.3450E+06    -39.7124E+06    -157.155E+06    -39.8981E+06    -156.970E+06    -11.3450E+06     3.77702E+06         30.6566
             930     6.62125E-03     17.9329E-03         1.07533         1.06165        -3.58439         1.07133        -3.58358         1.06484    -53.0205E-03     112.455E-03    -55.8253E-03    -56.6517E-03    -56.6362E-03     112.439E-03    -55.8253E-03    -2.20047E-03    -18.2997E+06    -44.3235E+06    -180.865E+06    -44.4678E+06    -180.721E+06    -18.2997E+06     3.60431E+06         30.0339
             931     5.67635E-03     17.9279E-03         1.07620         1.05875        -3.58429         1.06952        -3.58279         1.06392    -475.302E-06     111.803E-03    -55.6990E-03    -56.1297E-03    -56.1094E-03     111.783E-03    -55.6990E-03    -3.06596E-03    -26.1866E+06    -49.2818E+06    -201.541E+06    -49.3607E+06    -201.463E+06    -26.1866E+06     2.39315E+06         29.5530
             932     4.73069E-03     17.9249E-03         1.07620         1.05325        -3.58356         1.06352        -3.58108         1.06344    -44.0031E-03     111.343E-03    -55.5875E-03    -55.7813E-03    -55.7213E-03     111.320E-03    -55.6248E-03    -3.57280E-03    -34.2228E+06    -54.7041E+06    -225.172E+06    -54.7497E+06    -225.126E+06    -34.2228E+06     1.49556E+06         29.1835
             933     3.78440E-03     17.9238E-03         1.07768         1.05498        -3.58301         1.06278        -3.57665         1.06352     79.8773E-03     111.168E-03    -55.5383E-03    -55.6470E-03    -55.5813E-03     111.144E-03    -55.5801E-03    -3.72978E-03    -41.3147E+06    -59.6067E+06    -243.479E+06    -59.6358E+06    -243.450E+06    -41.3147E+06     1.74453E+06         28.9053
             934     2.83838E-03     17.9228E-03         1.08338         1.05168        -3.57844         1.05442        -3.56323         1.06544    -106.365E-03     111.078E-03    -55.4504E-03    -55.6400E-03    -55.5715E-03     111.061E-03    -55.5024E-03    -3.05082E-03    -50.7558E+06    -64.3678E+06    -249.450E+06    -64.4036E+06    -249.414E+06    -50.7558E+06     1.60450E+06         28.7018
             935     1.89279E-03     17.9219E-03         1.12458         1.05621        -3.62703         1.06972        -3.58240         1.06645     255.746E-03     110.841E-03    -55.3291E-03    -55.5188E-03    -55.4339E-03     110.833E-03    -55.4065E-03    -2.02059E-03    -61.5738E+06    -68.0948E+06    -255.648E+06    -68.1191E+06    -255.623E+06    -61.5738E+06     388.778E+03         28.5625
             936     946.252E-06     17.9231E-03         1.26645         1.08109        -3.79939     913.198E-03        -3.58297         1.21792    -718.792E-03     110.697E-03    -55.1305E-03    -55.5697E-03    -55.5371E-03     110.694E-03    -55.1605E-03    -1.01515E-03    -69.6617E+06    -71.3457E+06    -259.751E+06    -71.3569E+06    -259.740E+06    -69.6617E+06     35.7428E+03         28.4835
             937     16.0536E-03     17.3981E-03         1.04712         1.00588        -3.50442         1.00772        -3.50434         1.04519    -17.6838E-03     141.606E-03    -58.0257E-03    -83.6327E-03    -59.3079E-03     117.281E-03    -58.0257E-03     130.320E-03     151.725E+06     123.287E+06    -7.01639E+06    -6.87664E+06     151.585E+06     123.287E+06    -629.260E+03         54.0775
             938     15.1116E-03     17.1743E-03         1.04782     992.227E-03        -3.48927     992.174E-03        -3.48922         1.04782    -21.2904E-03     149.879E-03    -57.7611E-03    -92.2040E-03    -61.3698E-03     119.045E-03    -57.7611E-03     159.102E-03     143.560E+06     97.8986E+06    -15.6095E+06    -15.4303E+06     143.381E+06     97.8986E+06    -572.819E+03         51.1713
             939     14.1699E-03     17.0359E-03         1.05084         1.00783        -3.50709         1.00781        -3.50706         1.05084    -14.1357E-03     130.719E-03    -57.2820E-03    -73.5536E-03    -61.5054E-03     118.671E-03    -57.2820E-03     92.1002E-03     131.099E+06     54.1994E+06    -22.7704E+06    -22.6669E+06     130.996E+06     54.1994E+06     1.02702E+06         47.3538
             940     13.2283E-03     16.9634E-03         1.05305         1.03093        -3.52691         1.03082        -3.52680         1.05305    -39.5987E-03     121.156E-03    -56.6996E-03    -64.5041E-03    -61.0449E-03     117.697E-03    -56.6996E-03     48.8925E-03     122.995E+06     12.8555E+06    -24.8717E+06    -24.7341E+06     122.858E+06     12.8555E+06     2.33002E+06         43.2086
             941     12.2904E-03     16.9128E-03         1.05447         1.03882        -3.53357         1.03871        -3.53345         1.05447    -42.1317E-03     118.293E-03    -56.2352E-03    -62.0841E-03    -60.8403E-03     117.049E-03    -56.2352E-03     28.3332E-03     73.1620E+06    -11.7418E+06    -25.3881E+06    -25.0697E+06     72.8436E+06    -11.7418E+06     2.69273E+06         39.4503
             942     11.3476E-03     16.8820E-03         1.05591         1.03589        -3.53572         1.03572        -3.53555         1.05591    -40.2475E-03     116.558E-03    -55.9133E-03    -60.7109E-03    -60.3770E-03     116.224E-03    -55.9133E-03     14.3260E-03     9.05382E+06    -21.2320E+06    -33.8147E+06    -26.1715E+06    -6.73222E+06    -13.0893E+06     3.34327E+06         36.3733
             943     10.4072E-03     16.8574E-03         1.05791         1.03215        -3.53943         1.03187        -3.53915         1.05791    -60.3207E-03     115.227E-03    -55.5856E-03    -59.6519E-03    -59.5606E-03     115.136E-03    -55.5856E-03     6.50270E-03    -8.00906E+06    -27.0191E+06    -64.7086E+06    -27.9678E+06      -63.76E+06    -8.00906E+06     3.80577E+06         34.0008
             944     9.46336E-03     16.8409E-03         1.06032         1.03542        -3.55180         1.03526        -3.55164         1.06032    -29.5653E-03     113.829E-03    -55.2523E-03    -58.5635E-03    -58.5309E-03     113.796E-03    -55.2523E-03     123.040E-06    -6.88923E+06    -30.7386E+06    -102.663E+06    -31.1150E+06    -102.287E+06    -6.88923E+06     4.21198E+06         32.3256
             945     8.52108E-03     16.8304E-03         1.06243         1.04708        -3.56983         1.04673        -3.56948         1.06243    -48.7912E-03     112.548E-03    -54.9384E-03    -57.6285E-03    -57.5870E-03     112.506E-03    -54.9384E-03    -4.10407E-03    -8.59685E+06    -34.9160E+06    -132.157E+06    -35.2204E+06    -131.852E+06    -8.59685E+06     4.59532E+06         31.2005
             946     7.57581E-03     16.8221E-03         1.06434         1.04795        -3.57034         1.04755        -3.56994         1.06434    -32.1232E-03     111.249E-03    -54.6445E-03    -56.6254E-03    -56.5571E-03     111.180E-03    -54.6445E-03    -5.96160E-03    -13.2417E+06    -39.1505E+06    -156.938E+06    -39.4319E+06    -156.657E+06    -13.2417E+06     4.86963E+06         30.3854
             947     6.63076E-03     16.8155E-03         1.06988         1.05137        -3.57410         1.05436        -3.57344         1.06622    -50.6676E-03     110.151E-03    -54.4010E-03    -55.7616E-03    -55.6673E-03     110.057E-03    -54.4010E-03    -7.32641E-03    -19.8630E+06    -43.5304E+06    -179.097E+06    -43.7670E+06    -178.860E+06    -19.8630E+06     4.92321E+06         29.7511
             948     5.68422E-03     16.8124E-03         1.08218         1.06241        -3.59854         1.07767        -3.59773         1.06611    -32.0265E-03     109.243E-03    -54.2230E-03    -55.0344E-03    -54.9352E-03     109.144E-03    -54.2230E-03    -7.59381E-03    -27.4972E+06    -48.6726E+06    -199.426E+06    -48.8495E+06    -199.249E+06    -27.4972E+06     4.53455E+06         29.2642
             949     4.73733E-03     16.8099E-03         1.08626         1.06300        -3.60686         1.08457        -3.60518         1.06300    -75.8051E-03     108.638E-03    -54.1048E-03    -54.5531E-03    -54.4624E-03     108.548E-03    -54.1048E-03    -7.31072E-03    -35.0158E+06    -54.8728E+06    -224.155E+06    -55.0127E+06    -224.015E+06    -35.0158E+06     4.06271E+06         28.8937
             950     3.79047E-03     16.8086E-03         1.07813         1.05845        -3.58760         1.07413        -3.58410         1.05896     13.0889E-03     108.234E-03    -53.9965E-03    -54.2503E-03    -54.1786E-03     108.162E-03    -53.9965E-03    -6.59816E-03    -45.6876E+06    -61.4391E+06    -241.972E+06    -61.5432E+06    -241.868E+06    -45.6876E+06     2.81596E+06         28.6164
             951     2.84309E-03     16.8076E-03         1.06841         1.04369        -3.55539         1.04200        -3.54537         1.06007    -138.617E-03     107.809E-03    -53.8093E-03    -54.0043E-03    -53.8436E-03     107.760E-03    -53.9215E-03    -5.38686E-03    -55.1228E+06    -65.5969E+06    -247.821E+06    -65.6229E+06    -247.795E+06    -55.1228E+06     1.04086E+06         28.4156
             952     1.89462E-03     16.8082E-03         1.07431         1.05769        -3.57920         1.03158        -3.55237         1.07359     140.925E-03     107.706E-03    -53.7845E-03    -53.9271E-03    -53.7604E-03     107.681E-03    -53.9258E-03    -3.70582E-03    -62.4137E+06    -69.4419E+06    -255.217E+06    -69.4518E+06    -255.207E+06    -62.4137E+06     781.159E+03         28.2819
             953     947.330E-06     16.8073E-03         1.21773         1.07083        -3.73657     951.136E-03        -3.61616         1.21701    -558.766E-03     107.839E-03    -53.7970E-03    -54.0460E-03    -54.0084E-03     107.830E-03    -53.8261E-03    -2.08059E-03    -70.8025E+06    -73.9509E+06    -258.923E+06    -73.5427E+06    -258.919E+06    -71.2148E+06     423.268E+03         28.2072
             954     16.0530E-03     16.2721E-03         1.04685         1.01374        -3.50243         1.01558        -3.50234         1.04492    -7.18156E-03     142.661E-03    -57.9415E-03    -84.7623E-03    -60.9085E-03     118.807E-03    -57.9415E-03     128.596E-03     151.501E+06     123.704E+06    -6.92233E+06    -6.86208E+06     151.440E+06     123.704E+06     181.439E+03         53.8616
             955     15.1118E-03     16.0476E-03         1.04716         1.00537        -3.49187         1.00524        -3.49174         1.04716    -40.6004E-03     151.150E-03    -57.5656E-03    -93.6755E-03    -63.3928E-03     120.867E-03    -57.5656E-03     158.503E-03     142.319E+06     97.5068E+06    -16.5307E+06    -16.3837E+06     142.172E+06     97.5068E+06     1.36102E+06         50.9579
             956     14.1741E-03     15.9073E-03         1.05000         1.00268        -3.49863         1.00259        -3.49854         1.05000    -29.1525E-03     132.403E-03    -56.8935E-03    -75.6317E-03    -64.5227E-03     121.294E-03    -56.8935E-03     88.6676E-03     131.102E+06     53.5704E+06    -23.4050E+06    -23.2063E+06     130.904E+06     53.5704E+06     195.147E+03         47.1494
             957     13.2395E-03     15.8344E-03         1.05258         1.02130        -3.52342         1.02118        -3.52329         1.05258    -40.6398E-03     122.735E-03    -56.0535E-03    -66.7492E-03    -64.0225E-03     120.008E-03    -56.0535E-03     43.4801E-03     121.734E+06     11.2004E+06    -25.7170E+06    -25.5864E+06     121.603E+06     11.2004E+06     32.6303E+03         43.0199
             958     12.2984E-03     15.7887E-03         1.05421         1.03942        -3.54418         1.03929        -3.54405         1.05421    -38.2572E-03     119.205E-03    -55.3299E-03    -63.8832E-03    -63.0774E-03     118.399E-03    -55.3299E-03     22.2533E-03     73.0051E+06    -13.5852E+06    -26.5409E+06    -26.2843E+06     72.7486E+06    -13.5852E+06     1.77675E+06         39.2752
             959     11.3615E-03     15.7559E-03         1.05536         1.04096        -3.55046         1.04079        -3.55030         1.05536    -36.2702E-03     116.955E-03    -54.7611E-03    -62.2222E-03    -62.0705E-03     116.804E-03    -54.7611E-03     7.64735E-03     8.22905E+06    -22.5716E+06    -34.8183E+06    -26.9823E+06    -6.19889E+06    -15.9796E+06     3.59190E+06         36.2050
             960     10.4206E-03     15.7372E-03         1.05705         1.03289        -3.54733         1.03263        -3.54707         1.05705    -58.7505E-03     114.725E-03    -54.2094E-03    -60.5057E-03    -60.4739E-03     114.693E-03    -54.2094E-03    -790.612E-06    -11.0667E+06    -27.2297E+06    -64.9615E+06    -28.4398E+06    -63.7514E+06    -11.0667E+06     4.53421E+06         33.8363
             961     9.47922E-03     15.7205E-03         1.05929         1.03648        -3.55335         1.03625        -3.55313         1.05929    -54.9296E-03     112.682E-03    -53.6756E-03    -58.9720E-03    -58.8585E-03     112.568E-03    -53.6756E-03    -7.06032E-03    -9.31512E+06    -30.5752E+06    -102.277E+06    -31.1093E+06    -101.743E+06    -9.31512E+06     5.36507E+06         32.1325
             962     8.53486E-03     15.7124E-03         1.06100         1.05092        -3.56896         1.05064        -3.56869         1.06100    -62.7365E-03     110.834E-03    -53.1760E-03    -57.6572E-03    -57.4413E-03     110.618E-03    -53.1760E-03    -11.3107E-03    -10.1583E+06    -34.1683E+06    -131.222E+06    -34.6441E+06    -130.746E+06    -10.1583E+06     6.05136E+06         30.9342
             963     7.59097E-03     15.7056E-03         1.06409         1.05177        -3.57179         1.05350        -3.57153         1.06210    -12.0022E-03     108.856E-03    -52.7127E-03    -56.1409E-03    -55.8631E-03     108.578E-03    -52.7127E-03    -12.8647E-03    -14.5206E+06    -38.2629E+06    -156.110E+06    -38.6764E+06    -155.696E+06    -14.5206E+06     6.31408E+06         30.0592
             964     6.64384E-03     15.7022E-03         1.06558         1.04845        -3.56601         1.05006        -3.56564         1.06359    -22.5694E-03     107.000E-03    -52.3417E-03    -54.6462E-03    -54.3380E-03     106.692E-03    -52.3417E-03    -13.6182E-03    -20.8996E+06    -43.0876E+06    -178.254E+06    -43.4711E+06    -177.870E+06    -20.8996E+06     6.63383E+06         29.3951
             965     5.69645E-03     15.6991E-03         1.07088         1.05007        -3.57189         1.05515        -3.57148         1.06539    -17.0565E-03     105.661E-03    -52.0660E-03    -53.5869E-03    -53.2981E-03     105.372E-03    -52.0660E-03    -13.1629E-03    -28.5984E+06    -48.1204E+06    -198.152E+06    -48.4966E+06    -197.775E+06    -28.5984E+06     7.04934E+06         28.8895
             966     4.74801E-03     15.6984E-03         1.07710         1.05348        -3.58223         1.06300        -3.58126         1.06660    -48.0343E-03     104.688E-03    -51.8692E-03    -52.8190E-03    -52.5760E-03     104.445E-03    -51.8692E-03    -12.0312E-03    -35.8207E+06    -52.9730E+06    -221.488E+06    -53.2773E+06    -221.183E+06    -35.8207E+06     6.40181E+06         28.5102
             967     3.79876E-03     15.6969E-03         1.07293         1.05703        -3.59020         1.06029        -3.58845         1.06792     11.0530E-03     103.923E-03    -51.7199E-03    -52.2065E-03    -52.0254E-03     103.742E-03    -51.7199E-03    -10.3098E-03    -44.3790E+06    -57.9376E+06    -237.945E+06    -58.1094E+06    -237.774E+06    -44.3790E+06     4.49704E+06         28.2289
             968     2.84918E-03     15.6975E-03         1.07444         1.05959        -3.59828         1.05756        -3.59295         1.07114    -101.442E-03     103.423E-03    -51.5371E-03    -51.8862E-03    -51.7035E-03     103.305E-03    -51.6018E-03    -8.29054E-03    -54.2011E+06    -63.9494E+06    -246.203E+06    -64.0315E+06    -246.121E+06    -54.2011E+06     2.70946E+06         28.0278
             969     1.89988E-03     15.6969E-03         1.09285         1.06744        -3.61258         1.07434        -3.59974         1.07311     84.0954E-03     103.120E-03    -51.4525E-03    -51.6709E-03    -51.5294E-03     103.062E-03    -51.5361E-03    -5.69504E-03    -62.8532E+06    -69.7386E+06    -254.604E+06    -69.7705E+06    -254.572E+06    -62.8532E+06     2.19897E+06         27.8937
             970     949.958E-06     15.6975E-03         1.18221         1.02991        -3.65825     979.884E-03        -3.59178         1.16576    -444.778E-03     102.996E-03    -51.4513E-03    -51.5482E-03    -51.4495E-03     102.977E-03    -51.5314E-03    -3.21439E-03    -70.5481E+06    -74.0340E+06    -256.640E+06    -72.8674E+06    -256.620E+06    -71.7353E+06     1.23506E+06         27.8150
             971     16.0596E-03     15.1477E-03         1.04488     995.981E-03        -3.48708     995.885E-03        -3.48699         1.04488    -13.9123E-03     145.239E-03    -57.7802E-03    -87.4817E-03    -64.5089E-03     122.266E-03    -57.7802E-03     127.878E-03     150.806E+06     123.469E+06    -7.37417E+06    -7.34230E+06     150.774E+06     123.469E+06     944.402E+03         53.6084
             972     15.1189E-03     14.9208E-03         1.04721         1.01765        -3.51814         1.01749        -3.51799         1.04721    -37.4840E-03     153.296E-03    -57.1622E-03    -96.2213E-03    -67.2875E-03     124.363E-03    -57.1622E-03     156.852E-03     143.441E+06     99.8952E+06    -14.1462E+06    -14.0011E+06     143.296E+06     99.8952E+06     1.00277E+06         50.7116
             973     14.1843E-03     14.7721E-03         1.04907         1.02050        -3.51996         1.02035        -3.51981         1.04907    -48.1210E-03     133.598E-03    -56.2101E-03    -77.4943E-03    -67.5604E-03     123.664E-03    -56.2101E-03     83.3609E-03     132.187E+06     53.9055E+06    -21.5608E+06    -21.3417E+06     131.968E+06     53.9055E+06     208.902E+03         46.9171
             974     13.2487E-03     14.7066E-03         1.05107         1.02014        -3.51852         1.01989        -3.51827         1.05107    -59.3130E-03     123.780E-03    -55.0935E-03    -68.7343E-03    -66.7892E-03     121.835E-03    -55.0935E-03     36.7022E-03     119.800E+06     8.05690E+06    -26.2702E+06    -26.1024E+06     119.632E+06     8.05690E+06    -299.902E+03         42.8107
             975     12.3169E-03     14.6593E-03         1.05292         1.03162        -3.53386         1.03137        -3.53360         1.05292    -53.5696E-03     120.211E-03    -54.0870E-03    -66.0894E-03    -65.6225E-03     119.744E-03    -54.0870E-03     15.6334E-03     71.9392E+06     -16.269E+06    -27.7752E+06    -27.4594E+06     71.6234E+06     -16.269E+06     1.48780E+06         39.0884
             976     11.3787E-03     14.6335E-03         1.05424         1.04118        -3.54900         1.04107        -3.54888         1.05424    -30.5364E-03     117.071E-03    -53.2387E-03    -63.8438E-03    -63.7974E-03     117.025E-03    -53.2387E-03     706.062E-06     6.98224E+06    -24.7043E+06    -35.6211E+06    -28.6260E+06    -5.96421E+06    -18.7530E+06     3.78328E+06         36.0323
             977     10.4401E-03     14.6146E-03         1.05671         1.04088        -3.55467         1.04210        -3.55453         1.05535    -44.2762E-03     114.446E-03    -52.4072E-03    -62.0269E-03    -61.8948E-03     114.314E-03    -52.4072E-03    -8.08397E-03    -14.3525E+06    -28.9191E+06    -65.1921E+06    -30.2888E+06    -63.8225E+06    -14.3525E+06     5.00991E+06         33.6744
             978     9.49884E-03     14.6035E-03         1.05877         1.04588        -3.55900         1.04816        -3.55883         1.05632    -32.7535E-03     111.605E-03    -51.5844E-03    -59.9489E-03    -59.5847E-03     111.241E-03    -51.5844E-03    -14.8984E-03    -12.1803E+06    -31.4344E+06    -102.191E+06    -32.1505E+06    -101.475E+06    -12.1803E+06     6.18135E+06         31.9498
             979     8.55597E-03     14.5963E-03         1.05820         1.04878        -3.56280         1.04967        -3.56260         1.05711    -36.4954E-03     108.580E-03    -50.8321E-03    -57.7082E-03    -57.1324E-03     108.004E-03    -50.8321E-03    -19.0839E-03    -11.5415E+06    -34.2743E+06    -130.885E+06    -34.9109E+06    -130.249E+06    -11.5415E+06     7.12004E+06         30.6702
             980     7.60980E-03     14.5938E-03         1.06315         1.05169        -3.57654         1.05715        -3.57638         1.05754    -146.809E-06     105.809E-03    -50.1558E-03    -55.6244E-03    -54.9315E-03     105.116E-03    -50.1558E-03    -20.6739E-03    -14.8338E+06    -37.8868E+06    -154.812E+06    -38.4987E+06    -154.200E+06    -14.8338E+06     7.89424E+06         29.7071
             981     6.66281E-03     14.5923E-03         1.06599         1.05372        -3.58610         1.06232        -3.58590         1.05719    -7.15166E-03     103.180E-03    -49.5930E-03    -53.5559E-03    -52.8433E-03     102.467E-03    -49.5930E-03    -20.7033E-03    -21.5782E+06    -42.0652E+06    -177.742E+06    -42.6629E+06    -177.144E+06    -21.5782E+06     8.58493E+06         28.9882
             982     5.71287E-03     14.5918E-03         1.06110         1.04180        -3.57487         1.04471        -3.57459         1.05792     5.55811E-03     100.985E-03    -49.1577E-03    -51.8037E-03    -51.1685E-03     100.350E-03    -49.1577E-03    -19.3009E-03    -28.9959E+06    -46.7187E+06    -196.542E+06    -47.3130E+06    -195.948E+06    -28.9959E+06     9.03721E+06         28.4448
             983     4.76239E-03     14.5909E-03         1.06214         1.03118        -3.56359         1.03089        -3.56330         1.06214     5.99990E-03     99.3821E-03    -48.8475E-03    -50.5129E-03    -49.9961E-03     98.8654E-03    -48.8475E-03    -17.2417E-03    -35.8106E+06    -51.7477E+06    -217.586E+06    -52.1889E+06    -217.145E+06    -35.8106E+06     7.94331E+06         28.0395
             984     3.81064E-03     14.5924E-03         1.06850         1.04334        -3.58050         1.04257        -3.57974         1.06850     41.3996E-03     98.2164E-03    -48.6206E-03    -49.5802E-03    -49.2071E-03     97.8433E-03    -48.6206E-03    -14.5290E-03    -44.0363E+06    -56.8527E+06    -234.835E+06    -57.1415E+06    -234.546E+06    -44.0363E+06     6.67860E+06         27.7427
             985     2.85834E-03     14.5918E-03         1.07925         1.06522        -3.61193         1.07012        -3.60965         1.07207    -50.1137E-03     97.4458E-03    -48.4267E-03    -49.0078E-03    -48.7756E-03     97.2135E-03    -48.4267E-03    -11.3982E-03    -53.6951E+06    -61.7295E+06    -242.726E+06    -61.9176E+06    -242.538E+06    -53.6951E+06     5.48067E+06         27.5315
             986     1.90590E-03     14.5935E-03         1.09586         1.06662        -3.62190         1.08972        -3.61576         1.06662     80.4043E-03     96.8679E-03    -48.2659E-03    -48.5981E-03    -48.4649E-03     96.7535E-03    -48.2848E-03    -7.72191E-03    -60.8965E+06    -65.6677E+06    -251.176E+06    -65.7616E+06    -251.082E+06    -60.8965E+06     3.60730E+06         27.3908
             987     952.808E-06     14.5927E-03         1.12636         1.03213        -3.60294         1.01742        -3.56618         1.10431    -328.238E-03     96.4502E-03    -48.1260E-03    -48.3254E-03    -48.2116E-03     96.4164E-03    -48.2061E-03    -4.06207E-03    -65.8478E+06    -69.1582E+06    -253.878E+06    -68.4060E+06    -253.855E+06    -66.6227E+06     1.44747E+06         27.3063
             988     16.0561E-03     14.0141E-03         1.04347     998.953E-03        -3.48914     998.868E-03        -3.48906         1.04347    -22.4502E-03     149.032E-03    -57.5610E-03    -91.4759E-03    -69.4635E-03     127.019E-03    -57.5610E-03     128.172E-03     151.448E+06     124.072E+06    -6.09455E+06    -6.05094E+06     151.404E+06     124.072E+06     644.414E+03         53.3191
             989     15.1297E-03     13.7849E-03         1.04562         1.00354        -3.50125         1.00347        -3.50118         1.04562    -20.0723E-03     156.838E-03    -56.5984E-03    -100.415E-03    -72.8528E-03     129.276E-03    -56.5984E-03     156.250E-03     145.010E+06      99.511E+06    -14.9732E+06    -14.8303E+06     144.868E+06      99.511E+06     428.955E+03         50.4340
             990     14.1991E-03     13.6410E-03         1.04739         1.02058        -3.52252         1.02051        -3.52244         1.04739    -21.9192E-03     135.437E-03    -55.3134E-03    -80.3256E-03    -71.1604E-03     126.272E-03    -55.3134E-03     80.3630E-03     132.197E+06     55.2354E+06    -20.2418E+06    -20.0646E+06     132.020E+06     55.2354E+06     487.969E+03         46.6610
             991     13.2684E-03     13.5736E-03         1.04879         1.02822        -3.52870         1.02802        -3.52849         1.04879    -40.5323E-03     124.654E-03    -53.9077E-03    -70.7935E-03    -69.2948E-03     123.156E-03    -53.9077E-03     32.5783E-03     119.153E+06     8.41718E+06    -23.9825E+06    -23.7311E+06     118.901E+06     8.41718E+06     1.41176E+06         42.5858
             992     12.3332E-03     13.5304E-03         1.05043         1.02379        -3.52504         1.02357        -3.52483         1.05043    -52.8867E-03     121.074E-03    -52.6093E-03    -68.4446E-03    -68.1147E-03     120.744E-03    -52.6093E-03     10.5801E-03     70.0625E+06    -19.0300E+06    -28.1372E+06    -27.7137E+06      69.639E+06    -19.0300E+06     2.95878E+06         38.8932
             993     11.3996E-03     13.5083E-03         1.05265         1.03553        -3.54267         1.03602        -3.54255         1.05203    -40.8542E-03     117.711E-03    -51.4435E-03    -66.3030E-03    -66.2204E-03     117.628E-03    -51.4435E-03    -5.40998E-03     5.66583E+06    -25.0317E+06    -35.9058E+06    -29.8172E+06    -5.38198E+06    -20.0725E+06     4.43096E+06         35.8575
             994     10.4624E-03     13.4933E-03         1.06220         1.05077        -3.57280         1.06054        -3.57264         1.05228    -50.3948E-03     114.299E-03    -50.2626E-03    -64.0158E-03    -63.6551E-03     113.938E-03    -50.2626E-03    -14.8082E-03    -15.9148E+06    -28.7804E+06    -65.2326E+06    -31.0490E+06    -62.9641E+06    -15.9148E+06     5.13993E+06         33.5071
             995     9.52355E-03     13.4864E-03         1.06180         1.05079        -3.57327         1.06108        -3.57317         1.05141    -21.8321E-03     110.478E-03    -49.0939E-03    -61.2883E-03    -60.5357E-03     109.725E-03    -49.0939E-03    -22.2427E-03    -14.8919E+06    -32.1281E+06    -103.049E+06    -33.0277E+06    -102.149E+06    -14.8919E+06     6.64578E+06         31.7632
             996     8.58019E-03     13.4849E-03         1.05252         1.04104        -3.55279         1.04190        -3.55257         1.05144    -36.0697E-03     106.323E-03    -48.0163E-03    -58.2589E-03    -57.1814E-03     105.246E-03    -48.0163E-03    -26.2247E-03    -14.2205E+06    -35.1008E+06    -130.789E+06    -35.9736E+06    -129.916E+06    -14.2205E+06     8.23954E+06         30.4208
             997     7.63454E-03     13.4847E-03         1.05610         1.04068        -3.55539         1.04406        -3.55515         1.05248    -44.6783E-03     102.354E-03    -47.0525E-03    -55.2722E-03    -54.0058E-03     101.087E-03    -47.0525E-03    -27.8869E-03    -16.4605E+06    -39.0001E+06    -154.285E+06    -39.8343E+06    -153.451E+06    -16.4605E+06     9.18589E+06         29.3688
             998     6.68516E-03     13.4881E-03         1.06079         1.05055        -3.57286         1.05861        -3.57270         1.05256    -36.0056E-03     98.7753E-03    -46.2376E-03    -52.5053E-03    -51.2259E-03     97.4959E-03    -46.2376E-03    -27.4565E-03    -21.6794E+06    -42.7957E+06    -176.497E+06    -43.6314E+06    -175.662E+06    -21.6794E+06     10.0215E+06         28.5734
             999     5.73434E-03     13.4898E-03         1.05687         1.04620        -3.56840         1.05063        -3.56822         1.05227    -18.9160E-03     95.5114E-03    -45.5792E-03    -49.9003E-03    -48.7633E-03     94.3744E-03    -45.5792E-03    -25.3442E-03    -29.1739E+06    -46.5423E+06    -193.897E+06    -47.2693E+06    -193.170E+06    -29.1739E+06     10.0294E+06         27.9695
            1000     4.78031E-03     13.4921E-03         1.05891         1.03445        -3.56095         1.03936        -3.56080         1.05385    -15.6261E-03     92.9643E-03    -45.1007E-03    -47.8312E-03    -46.9272E-03     92.0603E-03    -45.1007E-03    -22.2401E-03    -36.0712E+06    -50.8835E+06    -214.218E+06    -51.5029E+06    -213.598E+06    -36.0712E+06     9.78876E+06         27.5136
            1001     3.82565E-03     13.4939E-03         1.06171         1.04118        -3.57188         1.04592        -3.57157         1.05665     24.0409E-03     91.2168E-03    -44.7496E-03    -46.4388E-03    -45.7957E-03     90.5736E-03    -44.7496E-03    -18.4764E-03    -44.0416E+06    -55.6002E+06    -231.287E+06    -56.0605E+06    -230.827E+06    -44.0416E+06     8.79757E+06         27.1798
            1002     2.86999E-03     13.4958E-03         1.06327         1.04838        -3.58409         1.05114        -3.58296         1.05939    -38.2769E-03     89.8757E-03    -44.4740E-03    -45.3792E-03    -44.9891E-03     89.4856E-03    -44.4740E-03    -14.2289E-03    -52.8300E+06    -59.7659E+06    -238.329E+06    -60.0527E+06    -238.042E+06    -52.8300E+06     6.83635E+06         26.9442
            1003     1.91345E-03     13.4961E-03         1.07456         1.05133        -3.60280         1.06250        -3.59961         1.06020     56.8192E-03     89.0632E-03    -44.2825E-03    -44.7704E-03    -44.5775E-03     88.8703E-03    -44.2825E-03    -9.78988E-03    -56.8438E+06    -62.6316E+06    -245.703E+06    -62.7491E+06    -245.585E+06    -56.8438E+06     4.21575E+06         26.7896
            1004     957.163E-06     13.4978E-03         1.09055         1.04403        -3.61106         1.03920        -3.59576         1.08008    -177.939E-03     88.4086E-03    -43.9555E-03    -44.4542E-03    -44.3902E-03     88.3447E-03    -43.9555E-03    -5.35647E-03    -61.7228E+06    -66.0689E+06    -249.969E+06    -65.3130E+06    -249.943E+06    -62.5049E+06     1.10486E+06         26.6988
            1005     16.0672E-03     12.8754E-03         1.04441         1.01998        -3.51363         1.02244        -3.51357         1.04189    -28.8881E-03     152.731E-03    -57.2208E-03    -95.6153E-03    -74.5879E-03     131.704E-03    -57.2208E-03     126.211E-03     150.483E+06     123.512E+06    -7.10343E+06    -7.05973E+06     150.439E+06     123.512E+06     254.544E+03         53.0002
            1006     15.1367E-03     12.6463E-03         1.04559         1.01408        -3.50668         1.01637        -3.50646         1.04307    -50.5598E-03     158.475E-03    -55.9604E-03    -102.837E-03    -76.4120E-03     132.050E-03    -55.9604E-03     154.521E-03     144.395E+06     97.7151E+06    -15.1583E+06    -15.0364E+06     144.273E+06     97.7151E+06     755.252E+03         50.1293
            1007     14.2121E-03     12.5023E-03         1.04471         1.01223        -3.51165         1.01196        -3.51138         1.04471    -47.8197E-03     137.393E-03    -54.3876E-03    -83.3434E-03    -74.7399E-03     128.790E-03    -54.3876E-03     78.8576E-03     132.203E+06     53.2506E+06    -20.6920E+06    -20.5027E+06     132.014E+06     53.2506E+06     1.23964E+06         46.3814
            1008     13.2826E-03     12.4433E-03         1.04634         1.02582        -3.52992         1.02542        -3.52952         1.04634    -63.5124E-03     126.590E-03    -52.6843E-03    -74.0507E-03    -72.6988E-03     125.238E-03    -52.6843E-03     30.7666E-03     117.767E+06     8.40447E+06    -25.9493E+06    -25.7007E+06     117.519E+06     8.40447E+06     2.63097E+06         42.3459
            1009     12.3540E-03     12.3991E-03         1.05226         1.03030        -3.54547         1.03473        -3.54512         1.04748    -63.1710E-03     122.351E-03    -51.0598E-03    -71.3494E-03    -71.0931E-03     122.094E-03    -51.0598E-03     6.84897E-03     70.2743E+06    -17.5429E+06    -29.0477E+06    -28.5109E+06     69.7375E+06    -17.5429E+06     4.37337E+06         38.6925
            1010     11.4219E-03     12.3842E-03         1.05351         1.03778        -3.55449         1.04295        -3.55427         1.04811    -50.4209E-03     118.531E-03    -49.5333E-03    -69.0414E-03    -68.8679E-03     118.357E-03    -49.5333E-03    -10.1619E-03     8.00698E+06    -23.9712E+06    -34.9250E+06    -29.2754E+06    -3.18339E+06    -18.4304E+06     4.77909E+06         35.6850
            1011     10.4880E-03     12.3718E-03         1.05684         1.03976        -3.56140         1.04807        -3.56116         1.04828    -56.5806E-03     114.200E-03    -47.9813E-03    -66.1859E-03    -65.5896E-03     113.604E-03    -47.9813E-03    -19.9004E-03    -14.2724E+06    -27.9784E+06    -64.5667E+06    -30.4301E+06    -62.1150E+06    -14.2724E+06     5.43705E+06         33.3479
            1012     9.54891E-03     12.3723E-03         1.05644         1.03603        -3.56119         1.04388        -3.56110         1.04850    -40.9622E-03     109.405E-03    -46.4410E-03    -62.8658E-03    -61.7100E-03     108.249E-03    -46.4410E-03    -27.7954E-03    -14.7430E+06    -31.8346E+06    -104.318E+06    -32.9335E+06    -103.219E+06    -14.7430E+06     7.33295E+06         31.5960
            1013     8.60746E-03     12.3746E-03         1.05222         1.03992        -3.56438         1.04277        -3.56408         1.04907    -69.6880E-03     104.251E-03    -45.0002E-03    -59.2173E-03    -57.6006E-03     102.635E-03    -45.0002E-03    -32.1487E-03    -13.5825E+06    -34.5917E+06    -130.742E+06    -35.6508E+06    -129.683E+06    -13.5825E+06     9.06406E+06         30.2185
            1014     7.66087E-03     12.3822E-03         1.05295         1.04088        -3.56386         1.04370        -3.56352         1.04980    -75.0595E-03     98.9528E-03    -43.6959E-03    -55.2440E-03    -53.3922E-03     97.1010E-03    -43.6959E-03    -33.4725E-03    -13.2345E+06    -37.8543E+06    -153.195E+06    -38.8526E+06    -152.197E+06    -13.2345E+06     9.76634E+06         29.1005
            1015     6.71125E-03     12.3882E-03         1.05216         1.04166        -3.55743         1.04294        -3.55730         1.05075    -44.4812E-03     94.0927E-03    -42.5691E-03    -51.5037E-03    -49.6455E-03     92.2346E-03    -42.5691E-03    -32.5740E-03    -18.2049E+06    -40.9869E+06    -175.250E+06    -41.8333E+06    -174.404E+06    -18.2049E+06     10.0388E+06         28.2228
            1016     5.75743E-03     12.3957E-03         1.06142         1.04420        -3.57008         1.05453        -3.57002         1.05103    -26.9109E-03     89.7863E-03    -41.6272E-03    -48.1295E-03    -46.4636E-03     88.1204E-03    -41.6272E-03    -29.9956E-03    -26.0345E+06    -44.1355E+06    -191.679E+06    -44.9019E+06    -190.913E+06    -26.0345E+06     10.3274E+06         27.5424
            1017     4.80153E-03     12.4008E-03         1.07507         1.04669        -3.59530         1.07344        -3.59524         1.04825    -29.0147E-03     86.1377E-03    -40.9020E-03    -45.2065E-03    -43.8746E-03     84.8058E-03    -40.9020E-03    -26.1461E-03    -32.5747E+06    -46.8735E+06    -210.701E+06    -47.5412E+06    -210.034E+06    -32.5747E+06     10.2195E+06         27.0196
            1018     3.84289E-03     12.4045E-03         1.06625         1.04229        -3.59365         1.06534        -3.59344         1.04299     19.0713E-03     83.3256E-03    -40.3926E-03    -42.9101E-03    -41.9555E-03     82.3709E-03    -40.3926E-03    -21.6472E-03    -37.4210E+06    -49.7997E+06    -227.229E+06    -50.3415E+06    -226.687E+06    -37.4210E+06     9.70975E+06         26.6310
            1019     2.88307E-03     12.4076E-03         1.05413         1.02990        -3.57155         1.04413        -3.57111         1.03947    -11.2365E-03     81.3755E-03    -40.0129E-03    -41.3398E-03    -40.7637E-03     80.7994E-03    -40.0129E-03    -16.4728E-03    -44.6849E+06    -53.1454E+06    -232.420E+06    -53.5286E+06    -232.037E+06    -44.6849E+06     8.00282E+06         26.3562
            1020     1.92262E-03     12.4099E-03         1.05260         1.02889        -3.56956         1.04168        -3.56751         1.03776     77.2202E-03     80.1382E-03    -39.7353E-03    -40.3870E-03    -40.1135E-03     79.8646E-03    -39.7353E-03    -11.1260E-03    -53.4015E+06    -58.6008E+06    -240.008E+06    -57.9427E+06    -239.836E+06    -54.2314E+06     5.05385E+06         26.1753
            1021     961.526E-06     12.4105E-03         1.04953         1.02904        -3.56132         1.02974        -3.55642         1.04394    -40.2161E-03     79.3227E-03    -39.3313E-03    -39.9892E-03    -39.8964E-03     79.2299E-03    -39.3313E-03    -6.21284E-03    -58.4636E+06    -63.0979E+06    -244.757E+06    -61.5352E+06    -244.707E+06    -60.0755E+06     2.21012E+06         26.0700
            1022     16.0733E-03     11.7387E-03         1.04305         1.00758        -3.50465         1.01004        -3.50459         1.04053    -27.2395E-03     157.767E-03    -56.8616E-03    -101.081E-03    -80.3722E-03     137.058E-03    -56.8616E-03     125.919E-03     150.429E+06     123.834E+06    -7.74486E+06    -7.70201E+06     150.386E+06     123.834E+06     1.14155E+06         52.6494
            1023     15.1501E-03     11.5020E-03         1.04448         1.01733        -3.51944         1.01952        -3.51912         1.04197    -64.8710E-03     160.574E-03    -55.3141E-03    -105.608E-03    -79.6587E-03     134.625E-03    -55.3141E-03     154.437E-03     143.469E+06     96.7806E+06    -15.1976E+06    -15.0567E+06     143.328E+06     96.7806E+06     1.51549E+06         49.8014
            1024     14.2226E-03     11.3663E-03         1.04340         1.01954        -3.52206         1.01910        -3.52162         1.04340    -87.2432E-03     138.613E-03    -53.5021E-03    -85.4642E-03    -77.5282E-03     130.677E-03    -53.5021E-03     76.1784E-03     130.297E+06     50.4623E+06    -22.7180E+06    -22.5214E+06     130.100E+06     50.4623E+06     2.18244E+06         46.0864
            1025     13.2994E-03     11.3024E-03         1.04467         1.03101        -3.53630         1.03046        -3.53576         1.04467    -96.1875E-03     128.416E-03    -51.5381E-03    -77.1216E-03    -75.9719E-03     127.267E-03    -51.5381E-03     28.1238E-03     117.414E+06     10.1191E+06    -27.5709E+06    -27.3460E+06     117.189E+06     10.1191E+06     3.23002E+06         42.0947
            1026     12.3727E-03     11.2702E-03         1.05287         1.04047        -3.55803         1.04787        -3.55755         1.04501    -84.6698E-03     123.561E-03    -49.6010E-03    -74.0936E-03    -73.9208E-03     123.388E-03    -49.6010E-03     4.83601E-03     72.2587E+06    -13.5833E+06    -29.9130E+06    -29.3512E+06     71.6969E+06    -13.5833E+06     3.81021E+06         38.4879
            1027     11.4433E-03     11.2539E-03         1.05249         1.04303        -3.56229         1.05055        -3.56194         1.04463    -75.0408E-03     119.136E-03    -47.7407E-03    -71.4291E-03    -71.1802E-03     118.887E-03    -47.7407E-03    -12.1148E-03     11.1175E+06    -22.6583E+06    -35.7295E+06    -30.0535E+06    -1.55147E+06    -15.6653E+06     4.62715E+06         35.5216
            1028     10.5104E-03     11.2536E-03         1.04504         1.03054        -3.54801         1.03019        -3.54767         1.04504    -73.7945E-03     114.166E-03    -45.8532E-03    -68.2812E-03    -67.5185E-03     113.403E-03    -45.8532E-03    -22.9347E-03    -10.7543E+06    -28.5828E+06    -65.2304E+06    -31.8058E+06    -62.0074E+06    -10.7543E+06     6.06043E+06         33.2151
            1029     9.57459E-03     11.2573E-03         1.04659         1.02896        -3.55421         1.02886        -3.55410         1.04659    -42.0333E-03     108.292E-03    -43.9634E-03    -64.2397E-03    -62.8518E-03     106.904E-03    -43.9634E-03    -30.5525E-03    -11.5452E+06    -33.0602E+06    -105.430E+06    -34.2821E+06    -104.208E+06    -11.5452E+06     7.91674E+06         31.4789
            1030     8.63302E-03     11.2703E-03         1.05375         1.04270        -3.57762         1.04886        -3.57745         1.04742    -52.6819E-03     102.149E-03    -42.1620E-03    -59.9641E-03    -58.0833E-03     100.268E-03    -42.1620E-03    -34.6475E-03    -12.1492E+06    -34.9768E+06    -129.192E+06    -36.0777E+06    -128.091E+06    -12.1492E+06     8.34583E+06         30.0977
            1031     7.68710E-03     11.2825E-03         1.05687         1.04509        -3.57879         1.05489        -3.57862         1.04690    -38.2264E-03     95.9246E-03    -40.5138E-03    -55.4041E-03    -53.2397E-03     93.7603E-03    -40.5138E-03    -35.8961E-03    -9.83460E+06    -35.3906E+06    -151.005E+06    -36.1166E+06    -150.279E+06    -9.83460E+06       7.701E+06         28.9503
            1032     6.73588E-03     11.2965E-03         1.05036         1.03964        -3.56690         1.04324        -3.56687         1.04673    -8.96665E-03     89.8593E-03    -39.0540E-03    -50.7928E-03    -48.5807E-03     87.6473E-03    -39.0540E-03    -34.9850E-03    -13.1831E+06    -36.9008E+06    -175.093E+06    -37.5635E+06    -174.430E+06    -13.1831E+06     9.27944E+06         28.0185
            1033     5.78092E-03     11.3077E-03         1.05905         1.04118        -3.57811         1.05370        -3.57804         1.04646    -23.1763E-03     84.3465E-03    -37.7888E-03    -46.5369E-03    -44.5345E-03     82.3442E-03    -37.7888E-03    -32.1006E-03    -20.5965E+06    -40.3797E+06    -189.732E+06    -41.1822E+06    -188.930E+06    -20.5965E+06     10.6522E+06         27.2768
            1034     4.82241E-03     11.3177E-03         1.06926         1.03889        -3.58644         1.06414        -3.58633         1.04390    -36.6262E-03     79.5815E-03    -36.7771E-03    -42.7852E-03    -41.1626E-03     77.9589E-03    -36.7771E-03    -27.9274E-03    -27.0910E+06    -44.9281E+06    -207.770E+06    -45.6623E+06    -207.036E+06    -27.0910E+06     10.7395E+06         26.6978
            1035     3.86096E-03     11.3249E-03         1.06297         1.03461        -3.58297         1.05767        -3.58268         1.03962    -32.3960E-03     75.6361E-03    -35.9940E-03    -39.6284E-03    -38.4689E-03     74.4765E-03    -35.9940E-03    -22.8935E-03    -36.3752E+06    -48.9802E+06    -222.375E+06    -49.5343E+06    -221.820E+06    -36.3752E+06     9.69887E+06         26.2585
            1036     2.89694E-03     11.3304E-03         1.06374         1.03221        -3.58898         1.06284        -3.58809         1.03221    -84.8503E-03     72.7685E-03    -35.4270E-03    -37.3270E-03    -36.6168E-03     72.0582E-03    -35.4270E-03    -17.4121E-03    -44.4211E+06    -51.5301E+06    -226.962E+06    -51.8981E+06    -226.594E+06    -44.4211E+06     7.93683E+06         25.9405
            1037     1.93179E-03     11.3321E-03         1.04414         1.02099        -3.55859         1.04079        -3.55672         1.02248     20.3459E-03     70.9549E-03    -35.0920E-03    -35.8508E-03    -35.5017E-03     70.6058E-03    -35.0920E-03    -11.8793E-03    -49.7417E+06    -53.8227E+06    -234.258E+06    -53.2164E+06    -234.035E+06    -50.5716E+06     5.95337E+06         25.7268
            1038     965.837E-06     11.3353E-03         1.04207     998.282E-03        -3.53005     994.367E-03        -3.52541         1.04135    -81.0760E-03     70.0778E-03    -34.8385E-03    -35.2337E-03    -35.0795E-03     69.9602E-03    -34.8750E-03    -6.42815E-03    -52.3863E+06    -55.8731E+06    -238.521E+06    -54.0257E+06    -238.443E+06    -54.3123E+06     3.22082E+06         25.6019
            1039     16.0762E-03     10.5868E-03         1.03839     994.407E-03        -3.47728     994.177E-03        -3.47705         1.03839    -47.1981E-03     162.037E-03    -56.6659E-03    -105.565E-03    -85.7353E-03     142.208E-03    -56.6659E-03     124.912E-03     149.252E+06     123.377E+06    -7.00896E+06    -6.95426E+06     149.197E+06     123.377E+06     1.30286E+06         52.2565
            1040     15.1562E-03     10.3590E-03         1.04054     999.684E-03        -3.49333     999.425E-03        -3.49307         1.04054    -56.2210E-03     164.015E-03    -54.8210E-03    -109.483E-03    -84.4368E-03     138.969E-03    -54.8210E-03     154.386E-03     142.610E+06     98.4665E+06    -15.2342E+06    -15.1081E+06     142.483E+06     98.4665E+06     2.48378E+06         49.4365
            1041     14.2376E-03     10.2226E-03         1.04427         1.02211        -3.52686         1.02386        -3.52642         1.04208    -88.8538E-03     140.429E-03    -52.7577E-03    -87.9620E-03    -80.2414E-03     132.708E-03    -52.7577E-03     76.2566E-03     130.315E+06     54.7115E+06    -22.3654E+06    -22.0781E+06     130.028E+06     54.7115E+06     3.95957E+06         45.7633
            1042     13.3126E-03     10.1658E-03         1.04826         1.04070        -3.55216         1.04610        -3.55169         1.04238    -92.8428E-03     129.014E-03    -50.5900E-03    -78.7111E-03    -77.5204E-03     127.823E-03    -50.5900E-03     29.1479E-03     118.949E+06     14.0406E+06    -26.6753E+06    -26.3076E+06     118.581E+06     14.0406E+06     3.58899E+06         41.8231
            1043     12.3879E-03     10.1349E-03         1.04882         1.03882        -3.55585         1.04519        -3.55545         1.04205    -83.8060E-03     124.189E-03    -48.4667E-03    -75.9017E-03    -75.6951E-03     123.982E-03    -48.4667E-03     5.96178E-03     71.8489E+06    -10.3525E+06    -28.7761E+06    -28.0176E+06     71.0904E+06    -10.3525E+06     3.48675E+06         38.2753
            1044     11.4604E-03     10.1282E-03         1.04666         1.03863        -3.55873         1.04323        -3.55851         1.04184    -56.3680E-03     119.411E-03    -46.3766E-03    -73.0664E-03    -72.8689E-03     119.214E-03    -46.3766E-03    -10.6726E-03     10.6635E+06    -21.3495E+06    -34.9334E+06    -30.3924E+06    -2.34509E+06    -12.8820E+06     5.54238E+06         35.3702
            1045     10.5301E-03     10.1312E-03         1.04989         1.03574        -3.56542         1.04375        -3.56527         1.04172    -46.2389E-03     113.767E-03    -44.2406E-03    -69.4993E-03    -68.8000E-03     113.068E-03    -44.2406E-03    -21.5628E-03    -7.68306E+06    -29.7618E+06    -65.6556E+06    -33.4124E+06    -62.0050E+06    -7.68306E+06     7.10021E+06         33.1197
            1046     9.59366E-03     10.1477E-03         1.05331         1.03565        -3.57286         1.04745        -3.57278         1.04143    -24.4463E-03     107.161E-03    -42.0869E-03    -64.9877E-03    -63.7175E-03     105.891E-03    -42.0869E-03    -29.2279E-03    -8.85839E+06    -33.9219E+06    -104.334E+06    -35.3019E+06    -102.954E+06    -8.85839E+06     6.73729E+06         31.4297
            1047     8.65239E-03     10.1654E-03         1.04973         1.03593        -3.56901         1.04451        -3.56895         1.04110    -10.6797E-03     100.266E-03    -40.0095E-03    -60.2369E-03    -58.5264E-03     98.5556E-03    -40.0095E-03    -32.8091E-03    -10.2464E+06    -33.7027E+06    -125.197E+06    -34.3635E+06    -124.536E+06    -10.2464E+06     4.51142E+06         30.0806
            1048     7.70675E-03     10.1870E-03         1.04783         1.03513        -3.56360         1.04188        -3.56353         1.04101    -11.7426E-03     93.5774E-03    -38.0842E-03    -55.4891E-03    -53.4644E-03     91.5527E-03    -38.0842E-03    -34.4401E-03    -7.54654E+06    -34.3229E+06    -151.170E+06    -34.5933E+06    -150.900E+06    -7.54654E+06     4.84455E+06         28.9471
            1049     6.75612E-03     10.2073E-03         1.05134         1.03845        -3.57390         1.04927        -3.57385         1.04046    -16.1008E-03     86.6512E-03    -36.3216E-03    -50.3162E-03    -48.2328E-03     84.5678E-03    -36.3216E-03    -33.4871E-03    -8.30204E+06    -36.1468E+06    -175.882E+06    -36.6362E+06    -175.392E+06    -8.30204E+06     7.81727E+06         28.0104
            1050     5.80021E-03     10.2262E-03         1.05035         1.03418        -3.56966         1.04494        -3.56955         1.03948    -36.6985E-03     80.0171E-03    -34.7447E-03    -45.2539E-03    -43.3581E-03     78.1212E-03    -34.7447E-03    -30.5549E-03    -14.5212E+06    -37.8187E+06    -188.339E+06    -38.5224E+06    -187.635E+06    -14.5212E+06     10.1267E+06         27.2506
            1051     4.83959E-03     10.2405E-03         1.04351         1.02859        -3.55032         1.03201        -3.55012         1.03990    -17.4579E-03     74.3233E-03    -33.4443E-03    -40.8608E-03    -39.3043E-03     72.7668E-03    -33.4443E-03    -26.5539E-03    -19.6709E+06    -39.8786E+06    -204.477E+06    -40.5713E+06    -203.784E+06    -19.6709E+06     10.4472E+06         26.6475
            1052     3.87571E-03     10.2533E-03         1.05072         1.03423        -3.56006         1.04438        -3.55975         1.04025    -23.2264E-03     69.6008E-03    -32.3711E-03    -37.2166E-03    -36.0857E-03     68.4700E-03    -32.3711E-03    -21.7835E-03    -28.0334E+06    -43.0281E+06    -217.035E+06    -43.5119E+06    -216.551E+06    -28.0334E+06     9.11379E+06         26.1823
            1053     2.90931E-03     10.2608E-03         1.05991         1.02897        -3.57260         1.05017        -3.57163         1.03774    -49.2916E-03     65.7251E-03    -31.5199E-03    -34.1963E-03    -33.4926E-03     65.0215E-03    -31.5199E-03    -16.5700E-03    -38.3491E+06    -46.5751E+06    -222.414E+06    -46.8849E+06    -222.105E+06    -38.3491E+06     7.25836E+06         25.8386
            1054     1.94043E-03     10.2663E-03         1.04885         1.02083        -3.56609         1.03137        -3.56493         1.03715     36.7029E-03     63.0676E-03    -30.9797E-03    -32.0804E-03    -31.7221E-03     62.7093E-03    -30.9797E-03    -11.4178E-03    -41.6084E+06    -48.1123E+06    -228.135E+06    -48.2776E+06    -227.970E+06    -41.6084E+06     5.22632E+06         25.6035
            1055     970.416E-06     10.2684E-03         1.07025         1.01069        -3.59575         1.01864        -3.59197         1.05851    -117.067E-03     61.6373E-03    -30.6075E-03    -31.0250E-03    -30.8657E-03     61.5144E-03    -30.6440E-03    -6.20235E-03    -46.6001E+06    -51.4303E+06    -233.091E+06    -50.4641E+06    -232.961E+06    -47.6962E+06     4.06849E+06         25.4651
            1056     16.0751E-03     9.43097E-03         1.03698         1.00912        -3.47704         1.00853        -3.47646         1.03698    -90.8986E-03     165.518E-03    -56.6376E-03    -109.125E-03    -89.9975E-03     146.391E-03    -56.6376E-03     123.183E-03     147.753E+06     122.032E+06    -7.83846E+06    -7.78125E+06     147.696E+06     122.032E+06     1.20739E+06         51.8161
            1057     15.1625E-03     9.20749E-03         1.04168         1.01490        -3.49831         1.01766        -3.49764         1.03824    -94.4376E-03     166.078E-03    -54.5954E-03    -111.743E-03    -87.3240E-03     141.658E-03    -54.5954E-03     154.075E-03     141.708E+06     100.078E+06    -15.5179E+06    -15.2334E+06     141.423E+06     100.078E+06     3.69756E+06         49.0144
            1058     14.2427E-03     9.07900E-03         1.04459         1.02265        -3.52590         1.02746        -3.52508         1.03896    -115.884E-03     141.814E-03    -52.4064E-03    -89.6338E-03    -81.7372E-03     133.918E-03    -52.4064E-03     79.1461E-03     131.689E+06     59.3743E+06    -22.2319E+06    -21.7602E+06     131.218E+06     59.3743E+06     4.60041E+06         45.3785
            1059     13.3205E-03     9.02876E-03         1.04635         1.03397        -3.54732         1.04066        -3.54674         1.03907    -102.888E-03     129.971E-03    -50.1272E-03    -80.1498E-03    -78.5256E-03     128.347E-03    -50.1272E-03     34.6695E-03     119.066E+06     16.6530E+06    -26.3679E+06    -25.8197E+06     118.517E+06     16.6530E+06     3.90467E+06         41.5082
            1060     12.3952E-03     8.99974E-03         1.04974         1.03687        -3.55874         1.04751        -3.55824         1.03860    -92.3173E-03     124.218E-03    -47.9275E-03    -76.4956E-03    -76.1820E-03     123.905E-03    -47.9275E-03     10.3096E-03     70.5821E+06    -7.59597E+06    -29.4920E+06    -28.5762E+06     69.6663E+06    -7.59597E+06     4.42109E+06         38.0476
            1061     11.4688E-03     9.00128E-03         1.04930         1.03615        -3.56651         1.04735        -3.56629         1.03788    -57.4443E-03     118.535E-03    -45.7920E-03    -72.7796E-03    -72.7098E-03     118.465E-03    -45.7920E-03    -5.28606E-03     11.8545E+06    -18.3259E+06    -36.7704E+06    -30.4716E+06    -4.16543E+06    -8.60473E+06     6.30741E+06         35.2311
            1062     10.5366E-03     9.01119E-03         1.05282         1.03684        -3.57625         1.05264        -3.57607         1.03684    -49.9089E-03     112.839E-03    -43.6100E-03    -69.2043E-03    -68.8112E-03     112.446E-03    -43.6100E-03    -15.0689E-03    -2.00725E+06    -29.1052E+06    -64.8179E+06    -32.8805E+06    -61.0426E+06    -2.00725E+06     7.30976E+06         33.0683
            1063     9.60247E-03     9.03644E-03         1.05580         1.03523        -3.58278         1.05550        -3.58248         1.03523    -52.1429E-03     106.316E-03    -41.3777E-03    -64.8718E-03    -64.0818E-03     105.526E-03    -41.3777E-03    -22.6080E-03    -315.396E+03    -32.6309E+06    -96.5912E+06    -33.4319E+06    -95.7902E+06    -315.396E+03     2.98995E+06         31.4620
            1064     8.66210E-03     9.06290E-03         1.05218         1.02967        -3.58083         1.04808        -3.58063         1.03356    -21.5150E-03     99.0432E-03    -39.1788E-03    -59.8484E-03    -58.7687E-03     97.9635E-03    -39.1788E-03    -25.3796E-03    -3.61617E+06    -32.9208E+06    -123.147E+06    -33.0880E+06    -122.980E+06    -3.61617E+06    -323.559E+03         30.1873
            1065     7.71636E-03     9.09199E-03         1.04236         1.02685        -3.57071         1.03643        -3.57066         1.03273     3.67100E-03     92.0270E-03    -37.1216E-03    -54.8918E-03    -53.5908E-03     90.7261E-03    -37.1216E-03    -26.8739E-03    -1.37629E+06    -32.8375E+06    -154.427E+06    -33.0512E+06    -154.213E+06    -1.37629E+06     2.06427E+06         29.1133
            1066     6.76567E-03     9.12168E-03         1.04210         1.03023        -3.56718         1.04000        -3.56708         1.03223     1.08087E-03     85.1125E-03    -35.1816E-03    -49.9063E-03    -48.5686E-03     83.7748E-03    -35.1816E-03    -26.1884E-03    -65.7526E+03    -33.7834E+06    -176.809E+06    -34.0214E+06    -176.571E+06    -65.7526E+03     4.59743E+06         28.2184
            1067     5.80975E-03     9.14754E-03         1.05484         1.02512        -3.56490         1.04939        -3.56474         1.03040     15.8609E-03     78.2315E-03    -33.3648E-03    -44.8401E-03    -43.6067E-03     76.9982E-03    -33.3648E-03    -24.0466E-03    -4.28119E+06    -34.0238E+06    -187.820E+06    -34.3625E+06    -187.481E+06    -4.28119E+06     5.99116E+06         27.4835
            1068     4.84933E-03     9.16884E-03         1.05013         1.02128        -3.56031         1.04357        -3.56005         1.02758     53.8914E-03     71.9908E-03    -31.7715E-03    -40.1892E-03    -39.1466E-03     70.9483E-03    -31.7715E-03    -21.1610E-03    -9.00649E+06    -34.3348E+06    -201.763E+06    -34.6696E+06    -201.429E+06    -9.00649E+06     7.21774E+06         26.8922
            1069     3.88486E-03     9.18529E-03         1.03738         1.02344        -3.55523         1.03559        -3.55506         1.02505     44.6212E-03     66.5428E-03    -30.4173E-03    -36.1093E-03    -35.3180E-03     65.7514E-03    -30.4173E-03    -17.6627E-03    -13.1176E+06    -36.0139E+06    -213.060E+06    -36.2889E+06    -212.785E+06    -13.1176E+06     6.62635E+06         26.4300
            1070     2.91684E-03     9.19836E-03         1.03180         1.00668        -3.52939         1.01174        -3.52915         1.02650     47.6413E-03     61.9006E-03    -29.2690E-03    -32.6289E-03    -32.1213E-03     61.3929E-03    -29.2690E-03    -13.5741E-03    -22.0336E+06    -37.7101E+06    -217.554E+06    -37.8942E+06    -217.370E+06    -22.0336E+06     5.38790E+06         26.0847
            1071     1.94624E-03     9.20562E-03         1.03678         1.00672        -3.54561         1.00609        -3.54498         1.03678     60.6143E-03     58.3746E-03    -28.3900E-03    -29.9786E-03    -29.7216E-03     58.1176E-03    -28.3900E-03    -9.21620E-03    -32.9861E+06    -41.0025E+06    -224.146E+06    -41.1085E+06    -224.040E+06    -32.9861E+06     4.17860E+06         25.8464
            1072     973.756E-06     9.21053E-03         1.05871         1.03198        -3.58908         1.04206        -3.58743         1.04698    -82.4710E-03     56.0955E-03    -27.7144E-03    -28.3795E-03    -28.2941E-03     56.0101E-03    -27.7144E-03    -4.91382E-03    -39.6479E+06    -44.2590E+06    -226.716E+06    -44.3632E+06    -226.612E+06    -39.6479E+06     3.43488E+06         25.7050
            1073     16.0764E-03     8.27611E-03         1.03623         1.00455        -3.46814         1.00357        -3.46716         1.03623    -125.677E-03     169.842E-03    -56.9341E-03    -113.144E-03    -93.2238E-03     149.922E-03    -56.9341E-03     125.044E-03     146.248E+06     121.559E+06    -9.36363E+06    -9.25034E+06     146.134E+06     121.559E+06     2.01885E+06         51.3177
            1074     15.1586E-03     8.04906E-03         1.04835         1.03191        -3.52066         1.04170        -3.51905         1.03694    -156.288E-03     167.565E-03    -54.8445E-03    -112.980E-03    -87.6374E-03     142.222E-03    -54.8445E-03     157.160E-03     139.805E+06     101.081E+06    -17.1990E+06    -16.8083E+06     139.414E+06     101.081E+06     3.32052E+06         48.5227
            1075     14.2398E-03     7.93997E-03         1.05690         1.03116        -3.54757         1.05012        -3.54590         1.03627    -162.852E-03     142.796E-03    -52.6846E-03    -90.3005E-03    -81.8536E-03     134.349E-03    -52.6846E-03     84.0529E-03     130.593E+06     60.9615E+06    -23.1660E+06    -22.4852E+06     129.913E+06     60.9615E+06     4.45297E+06         44.9187
            1076     13.3163E-03     7.88455E-03         1.05048         1.03030        -3.55388         1.04467        -3.55318         1.03540    -112.566E-03     131.055E-03    -50.4544E-03    -80.7880E-03    -78.3665E-03     128.633E-03    -50.4544E-03     42.4890E-03     118.859E+06     20.3276E+06    -28.8997E+06    -28.2203E+06     118.179E+06     20.3276E+06     5.68496E+06         41.1394
            1077     12.3940E-03     7.86916E-03         1.05271         1.03435        -3.56304         1.05225        -3.56258         1.03435    -83.1444E-03     123.080E-03    -48.3576E-03    -74.8644E-03    -74.2885E-03     122.504E-03    -48.3576E-03     18.7234E-03     70.7986E+06    -3.11586E+06    -33.8959E+06    -32.5611E+06     69.4637E+06    -3.11586E+06     6.46516E+06         37.7980
            1078     11.4629E-03     7.87529E-03         1.05629         1.03276        -3.57289         1.05612        -3.57272         1.03276    -52.7400E-03     116.645E-03    -46.4151E-03    -70.2771E-03    -70.1084E-03     116.476E-03    -46.4151E-03     6.38704E-03     13.3592E+06    -17.2527E+06    -42.0913E+06    -35.9915E+06    -4.47694E+06    -5.51639E+06     5.94335E+06         35.1023
            1079     10.5313E-03     7.89406E-03         1.04957         1.03111        -3.57323         1.04937        -3.57303         1.03111    -42.1943E-03     111.008E-03    -44.4869E-03    -66.5128E-03    -66.3547E-03     110.850E-03    -44.4869E-03    -1.55610E-03     3.14463E+06    -29.4196E+06    -62.4793E+06    -35.5165E+06    -56.3824E+06     3.14463E+06     2.43370E+06         33.0668
            1080     9.59387E-03     7.92518E-03         1.04584         1.02970        -3.57361         1.04555        -3.57332         1.02970    -47.3310E-03     105.117E-03    -42.5216E-03    -62.5923E-03    -62.3389E-03     104.864E-03    -42.5216E-03    -6.62621E-03     8.39577E+06    -33.0348E+06    -89.6569E+06    -33.3631E+06    -89.3285E+06     8.39577E+06    -2.01458E+06         31.5916
            1081     8.65373E-03     7.96194E-03         1.05191         1.02782        -3.58313         1.05169        -3.58292         1.02782    -28.3610E-03     98.9461E-03    -40.5297E-03    -58.4379E-03    -58.1175E-03     98.6256E-03    -40.5297E-03    -8.16144E-03     5.58903E+06    -33.1959E+06    -124.212E+06    -33.6061E+06    -123.801E+06     5.58903E+06    -3.89612E+06         30.4422
            1082     7.70777E-03     7.99831E-03         1.05154         1.02509        -3.58721         1.05136        -3.58704         1.02509    -9.84559E-03     92.8073E-03    -38.5658E-03    -54.2418E-03    -53.8575E-03     92.4229E-03    -38.5658E-03    -9.25264E-03     4.42551E+06    -33.8589E+06    -158.368E+06    -34.1774E+06    -158.049E+06     4.42551E+06    -3.00159E+06         29.4778
            1083     6.75794E-03     8.03460E-03         1.04462         1.02213        -3.57795         1.04442        -3.57775         1.02213    -2.60075E-03     87.0070E-03    -36.6353E-03    -50.3622E-03    -49.9567E-03     86.6015E-03    -36.6353E-03    -10.1921E-03     8.58938E+06    -32.9348E+06    -177.424E+06    -33.1788E+06    -177.180E+06     8.58938E+06    -1.67111E+06         28.6688
            1084     5.80437E-03     8.06852E-03         1.04681         1.01852        -3.56681         1.04667        -3.56667         1.01852     25.3334E-03     80.8892E-03    -34.6994E-03    -46.1803E-03    -45.7942E-03     80.5031E-03    -34.6994E-03    -10.3436E-03     7.64678E+06    -33.0151E+06    -189.423E+06    -33.0848E+06    -189.353E+06     7.64678E+06    -197.592E+03         27.9942
            1085     4.84618E-03     8.09696E-03         1.03816         1.01227        -3.55005         1.03587        -3.54978         1.01429     12.4170E-03     74.5485E-03    -32.8565E-03    -41.6780E-03    -41.3354E-03     74.2059E-03    -32.8565E-03    -9.87301E-03     1.12351E+06    -33.9743E+06    -201.589E+06    -34.0794E+06    -201.484E+06     1.12351E+06     1.48887E+06         27.4426
            1086     3.88340E-03     8.12005E-03         1.01976         1.00159        -3.52311         1.00817        -3.52267         1.01274    -28.9037E-03     68.5530E-03    -31.2002E-03    -37.3482E-03    -37.0739E-03     68.2787E-03    -31.2002E-03    -8.80481E-03    -7.15356E+06    -34.5754E+06    -210.605E+06    -34.6411E+06    -210.540E+06    -7.15356E+06     1.72576E+06         27.0073
            1087     2.91675E-03     8.13724E-03         1.01686     995.215E-03        -3.51085     994.912E-03        -3.51055         1.01686    -14.8411E-03     63.3430E-03    -29.7696E-03    -33.5739E-03    -33.3841E-03     63.1533E-03    -29.7696E-03    -7.23032E-03    -15.9948E+06    -36.6478E+06    -215.457E+06    -36.6872E+06    -215.417E+06    -15.9948E+06     1.14242E+06         26.6796
            1088     1.94665E-03     8.14939E-03         1.02503         1.00751        -3.52623         1.00735        -3.52583         1.02479    -40.4882E-03     59.1643E-03    -28.6094E-03    -30.5510E-03    -30.4511E-03     59.0645E-03    -28.6094E-03    -5.15015E-03    -26.6511E+06    -37.6965E+06    -221.967E+06    -37.7553E+06    -221.909E+06    -26.6511E+06     793.721E+03         26.4516
            1089     974.083E-06     8.15611E-03         1.04585         1.01315        -3.53837         1.01269        -3.53768         1.04562    -61.0887E-03     56.1923E-03    -27.7253E-03    -28.4672E-03    -28.4333E-03     56.1583E-03    -27.7253E-03    -2.92310E-03    -32.6395E+06    -36.8814E+06    -222.051E+06    -35.7760E+06    -222.010E+06    -33.7862E+06     475.691E+03         26.3161
            1090     16.0603E-03     7.11245E-03         1.03357     994.500E-03        -3.45547     992.524E-03        -3.45350         1.03357    -174.952E-03     173.167E-03    -57.8518E-03    -115.488E-03    -94.5348E-03     152.214E-03    -57.8518E-03     128.041E-03     145.449E+06     122.985E+06    -9.69726E+06    -9.40229E+06     145.154E+06     122.985E+06     3.36583E+06         50.7469
            1091     15.1459E-03     6.89507E-03         1.04600         1.02856        -3.52502         1.03904        -3.52349         1.03399    -156.706E-03     169.711E-03    -55.8330E-03    -114.123E-03    -86.9990E-03     142.587E-03    -55.8330E-03     163.386E-03     137.489E+06     103.544E+06    -17.2911E+06    -16.8260E+06     137.024E+06     103.544E+06     2.98805E+06         47.9554
            1092     14.2243E-03     6.79399E-03         1.06015         1.03244        -3.56523         1.05884        -3.56392         1.03244    -126.011E-03     143.886E-03    -53.8185E-03    -90.2470E-03    -80.3148E-03     133.954E-03    -53.8185E-03     92.2186E-03     128.857E+06     61.8318E+06    -25.0316E+06    -24.3323E+06     128.157E+06     61.8318E+06     5.40040E+06         44.3881
            1093     13.3027E-03     6.74303E-03         1.06468         1.03015        -3.57887         1.06414        -3.57834         1.03015    -86.3174E-03     129.810E-03    -51.9009E-03    -77.9856E-03    -74.1453E-03     125.969E-03    -51.9009E-03     53.9288E-03     116.656E+06     23.7873E+06    -32.0728E+06    -30.7659E+06     115.350E+06     23.7873E+06     8.95211E+06         40.7155
            1094     12.3708E-03     6.74055E-03         1.06745         1.02743        -3.58419         1.06710        -3.58384         1.02743    -57.9354E-03     120.361E-03    -50.2997E-03    -70.1283E-03    -68.3669E-03     118.600E-03    -50.2997E-03     34.4788E-03     72.1670E+06     4.54429E+06    -39.5096E+06    -37.5503E+06     70.2078E+06     4.54429E+06     9.76837E+06         37.5197
            1095     11.4385E-03     6.75197E-03         1.06130         1.02454        -3.58184         1.06124        -3.58178         1.02454    -2.11878E-03     114.092E-03    -48.9518E-03    -65.1873E-03    -63.7929E-03     112.698E-03    -48.9518E-03     27.9214E-03     20.0683E+06    -14.7921E+06    -41.6925E+06    -40.2982E+06     1.76417E+06     2.11771E+06     2.83748E+06         34.9786
            1096     10.4998E-03     6.77919E-03         1.05006         1.02203        -3.57720         1.05000        -3.57715         1.02203     12.5905E-03     109.249E-03    -47.7141E-03    -61.5618E-03    -60.3134E-03     108.000E-03    -47.7141E-03     23.8664E-03     9.01633E+06    -31.3193E+06    -58.3229E+06    -39.0028E+06    -50.6394E+06     9.01633E+06    -5.61419E+06         33.1143
            1097     9.55911E-03     6.81580E-03         1.04021         1.02018        -3.57088         1.04018        -3.57085         1.02018     13.3591E-03     105.481E-03    -46.4677E-03    -59.0505E-03    -57.8704E-03     104.301E-03    -46.4677E-03     21.6676E-03     14.8915E+06    -34.0434E+06    -91.8501E+06    -36.8806E+06    -89.0129E+06     14.8915E+06    -9.05440E+06         31.8358
            1098     8.61568E-03     6.85841E-03         1.03328         1.01700        -3.56037         1.03122        -3.56028         1.01898     25.5327E-03     102.650E-03    -45.1093E-03    -57.5702E-03    -56.4012E-03     101.481E-03    -45.1093E-03     21.0199E-03     16.5235E+06    -34.1927E+06    -127.233E+06    -35.4027E+06    -126.023E+06     16.5235E+06    -9.19346E+06         30.8937
            1099     7.67149E-03     6.90121E-03         1.03581         1.01576        -3.56347         1.03361        -3.56324         1.01774     4.16407E-03     99.4551E-03    -43.5544E-03    -55.9124E-03    -54.9327E-03     98.4754E-03    -43.5544E-03     18.8851E-03     14.2209E+06    -33.8540E+06    -160.329E+06    -34.9076E+06    -159.275E+06     14.2209E+06    -10.1432E+06         30.1058
            1100     6.72481E-03     6.94311E-03         1.03800         1.01543        -3.56791         1.03784        -3.56775         1.01543    -23.8270E-03     95.4150E-03    -41.8447E-03    -53.5785E-03    -52.7827E-03     94.6192E-03    -41.8447E-03     15.9351E-03     15.4984E+06    -33.7109E+06    -181.357E+06    -34.5409E+06    -180.527E+06     15.4984E+06    -9.98959E+06         29.4184
            1101     5.77571E-03     6.98252E-03         1.02616         1.00476        -3.55321         1.01726        -3.55315         1.01360    -25.2389E-03     90.6565E-03    -39.9821E-03    -50.6850E-03    -50.1120E-03     90.0834E-03    -39.9821E-03     12.4168E-03     14.9053E+06    -34.4002E+06    -193.353E+06    -34.9535E+06    -192.799E+06     14.9053E+06    -7.83791E+06         28.8225
            1102     4.82297E-03     7.01759E-03         1.01636     995.117E-03        -3.53097     996.252E-03        -3.53078         1.01504    -24.9504E-03     84.9644E-03    -38.0354E-03    -46.9336E-03    -46.5584E-03     84.5892E-03    -38.0354E-03     8.96077E-03     4.95039E+06    -35.2429E+06    -204.110E+06    -35.5393E+06    -203.814E+06     4.95039E+06    -5.95289E+06         28.3297
            1103     3.86579E-03     7.04735E-03         1.02264     999.072E-03        -3.53018         1.00247        -3.52963         1.01870    -63.8800E-03     78.9036E-03    -36.1534E-03    -42.7538E-03    -42.5326E-03     78.6824E-03    -36.1534E-03     5.92307E-03    -8.38002E+06    -36.4506E+06    -211.338E+06    -36.6193E+06    -211.169E+06    -8.38002E+06    -4.33253E+06         27.9405
            1104     2.90415E-03     7.07070E-03         1.04083         1.00819        -3.55589         1.02960        -3.55526         1.01879    -24.8296E-03     73.1946E-03    -34.4608E-03    -38.7348E-03    -38.6233E-03     73.0830E-03    -34.4608E-03     3.33081E-03    -18.7558E+06    -37.3577E+06    -216.019E+06    -37.5462E+06    -215.830E+06    -18.7558E+06    -4.65412E+06         27.6452
            1105     1.93894E-03     7.08754E-03         1.03503         1.01000        -3.54874         1.03246        -3.54822         1.01206     6.00837E-03     68.3392E-03    -33.0934E-03    -35.2451E-03    -35.2002E-03     68.2943E-03    -33.0934E-03     1.50373E-03    -25.3094E+06    -38.7000E+06    -222.568E+06    -38.8754E+06    -222.393E+06    -25.3094E+06    -4.84968E+06         27.4390
            1106     970.604E-06     7.09813E-03         1.03647     978.875E-03        -3.53075     983.022E-03        -3.53002         1.03159    -42.5580E-03     64.8672E-03    -32.0698E-03    -32.7974E-03    -32.7815E-03     64.8513E-03    -32.0698E-03     518.108E-06    -33.4293E+06    -42.1623E+06    -224.824E+06    -41.0805E+06    -224.759E+06    -34.5760E+06    -2.61757E+06         27.3172
            1107     16.0374E-03     5.94367E-03         1.03908         1.00997        -3.49337         1.01716        -3.48973         1.02824    -243.093E-03     175.951E-03    -59.5479E-03    -116.597E-03    -94.6366E-03     153.991E-03    -59.5479E-03     130.885E-03     146.617E+06     125.238E+06    -7.78183E+06    -7.26470E+06     146.100E+06     125.238E+06     6.03367E+06         50.0973
            1108     15.1154E-03     5.74223E-03         1.05146         1.02566        -3.54763         1.04850        -3.54603         1.02702    -166.901E-03     170.939E-03    -57.7269E-03    -113.433E-03    -84.2680E-03     141.773E-03    -57.7269E-03     169.715E-03     138.047E+06     105.525E+06    -18.9771E+06    -18.3245E+06     137.395E+06     105.525E+06     4.79831E+06         47.2989
            1109     14.1957E-03     5.64161E-03         1.05668         1.02452        -3.57144         1.05585        -3.57061         1.02452    -101.240E-03     142.226E-03    -56.1528E-03    -86.1723E-03    -73.7337E-03     129.788E-03    -56.1528E-03     102.344E-03     123.307E+06     62.1246E+06    -28.0694E+06    -26.9774E+06     122.215E+06     62.1246E+06     7.15112E+06         43.7691
            1110     13.2622E-03     5.61461E-03         1.06675         1.02156        -3.59170         1.06648        -3.59142         1.02156    -59.5094E-03     126.059E-03    -54.9711E-03    -71.1680E-03    -64.3202E-03     119.211E-03    -54.9711E-03     70.6997E-03     112.320E+06     25.4646E+06    -37.2808E+06    -35.4883E+06     110.527E+06     25.4646E+06     12.4738E+06         40.2337
            1111     12.3253E-03     5.61263E-03         1.07168         1.01791        -3.60235         1.07149        -3.60217         1.01791    -36.8040E-03     116.956E-03    -54.0737E-03    -62.9558E-03    -57.3858E-03     111.664E-03    -54.3520E-03     58.3116E-03     78.3080E+06     14.9933E+06    -41.4723E+06    -40.3392E+06     77.1749E+06     14.9933E+06     9.18648E+06         37.2232
            1112     11.3801E-03     5.63836E-03         1.06300         1.01399        -3.59232         1.06297        -3.59229         1.01399     11.8277E-03     113.002E-03    -53.4331E-03    -59.6312E-03    -53.4774E-03     107.530E-03    -54.1149E-03     57.5117E-03     29.8043E+06    -1.78201E+06    -43.5974E+06    -40.8649E+06     11.5825E+06     13.7073E+06    -3.37580E+06         34.8651
            1113     10.4338E-03     5.66369E-03         1.04676         1.01058        -3.57179         1.04673        -3.57176         1.01058     15.6688E-03     111.362E-03    -53.0301E-03    -58.3849E-03    -52.0658E-03     106.048E-03    -54.0345E-03     56.3519E-03     17.7819E+06    -25.6320E+06    -61.8083E+06    -40.0365E+06    -47.4038E+06     17.7819E+06    -13.0770E+06         33.2006
            1114     9.48748E-03     5.70893E-03         1.02725         1.00836        -3.55537         1.02723        -3.55536         1.00836     9.58960E-03     111.786E-03    -53.2834E-03    -58.5270E-03    -52.7142E-03     106.574E-03    -53.8843E-03     56.1660E-03     22.7272E+06    -33.3434E+06    -97.7056E+06    -39.8132E+06    -91.2358E+06     22.7272E+06    -17.6892E+06         32.1748
            1115     8.54212E-03     5.74762E-03         1.01956         1.00528        -3.54646         1.01751        -3.54638         1.00725     27.1090E-03     113.173E-03    -53.4950E-03    -59.6702E-03    -54.7870E-03     108.290E-03    -53.4950E-03     55.3227E-03     24.9972E+06    -33.0608E+06    -134.419E+06    -37.6780E+06    -129.802E+06     24.9972E+06    -19.3874E+06         31.5246
            1116     7.60063E-03     5.79426E-03         1.01581         1.00283        -3.53510         1.01171        -3.53502         1.00684     31.5721E-03     113.460E-03    -52.7431E-03    -60.7050E-03    -56.5066E-03     109.261E-03    -52.7431E-03     51.6755E-03     24.4014E+06    -31.3626E+06    -165.693E+06    -34.3475E+06    -162.708E+06     24.4014E+06    -19.1559E+06         30.9984
            1117     6.65906E-03     5.83848E-03         1.01001         1.00127        -3.52344         1.00358        -3.52306         1.00731     44.3534E-03     112.261E-03    -51.5988E-03    -60.6576E-03    -57.1536E-03     108.757E-03    -51.5988E-03     47.1085E-03     17.4750E+06    -31.3870E+06    -188.359E+06    -33.6107E+06    -186.135E+06     17.4750E+06    -17.9628E+06         30.5003
            1118     5.71665E-03     5.88207E-03         1.01267     996.002E-03        -3.51822     999.192E-03        -3.51759         1.00885     54.8178E-03     109.380E-03    -50.1227E-03    -59.2555E-03    -56.6376E-03     106.762E-03    -50.1227E-03     40.2523E-03     9.95958E+06    -33.4858E+06    -200.071E+06    -34.9762E+06    -198.581E+06     9.95958E+06    -15.3964E+06         30.0258
            1119     4.77288E-03     5.92253E-03         1.01915     993.290E-03        -3.52819         1.00059        -3.52754         1.01120     74.3589E-03     105.225E-03    -48.4079E-03    -56.8163E-03    -54.9929E-03     103.402E-03    -48.4079E-03     32.8387E-03     207.521E+03    -36.6452E+06    -209.606E+06    -37.6883E+06    -208.563E+06     207.521E+03    -12.9546E+06         29.6103
            1120     3.82605E-03     5.95926E-03         1.02470         1.00349        -3.54629         1.01509        -3.54574         1.01256     25.4601E-03     99.9281E-03    -46.5771E-03    -53.3523E-03    -52.2062E-03     98.7820E-03    -46.5771E-03     25.2039E-03    -11.6840E+06    -38.6595E+06    -215.204E+06    -39.4165E+06    -214.447E+06    -11.6840E+06    -10.9570E+06         29.2767
            1121     2.87520E-03     5.98806E-03         1.03513         1.00852        -3.55589         1.03469        -3.55545         1.00852     20.5793E-03     94.0818E-03    -44.8212E-03    -49.2605E-03    -48.6321E-03     93.4534E-03    -44.8212E-03     17.7892E-03    -24.5072E+06    -40.1333E+06    -219.659E+06    -40.6015E+06    -219.191E+06    -24.5072E+06    -8.82013E+06         29.0275
            1122     1.91984E-03     6.01128E-03         1.03560     994.364E-03        -3.54479         1.03519        -3.54438     994.364E-03     34.6593E-03     88.9614E-03    -43.3954E-03    -45.5634E-03    -45.2831E-03     88.6811E-03    -43.3954E-03     11.2441E-03    -35.7864E+06    -45.1561E+06    -227.982E+06    -44.9075E+06    -227.724E+06    -36.2930E+06    -6.66753E+06         28.8570
            1123     960.644E-06     6.02551E-03         1.01905     951.168E-03        -3.47901     988.426E-03        -3.47757     980.349E-03     13.1467E-03     85.4626E-03    -42.3554E-03    -43.1058E-03    -43.0181E-03     85.3750E-03    -42.3554E-03     5.84548E-03    -44.9957E+06    -51.7932E+06    -232.275E+06    -50.8822E+06    -232.140E+06    -46.0417E+06    -4.83045E+06         28.7554
            1124     15.9941E-03     4.78092E-03         1.04254         1.01915        -3.54234         1.03386        -3.53623         1.02171    -320.322E-03     178.867E-03    -62.3344E-03    -116.652E-03    -90.5669E-03     152.782E-03    -62.3344E-03     146.447E-03     146.831E+06     124.903E+06    -8.45476E+06    -7.89592E+06     146.272E+06     124.903E+06     8.26736E+06         49.3605
            1125     15.0765E-03     4.57674E-03         1.06635         1.01937        -3.58557         1.06354        -3.58276         1.01937    -227.388E-03     174.331E-03    -60.9747E-03    -113.442E-03    -79.0835E-03     139.973E-03    -60.9747E-03     184.057E-03     135.371E+06     105.888E+06    -19.3983E+06    -17.6448E+06     133.618E+06     105.888E+06     10.5283E+06         46.5517
            1126     14.1405E-03     4.51266E-03         1.08077         1.01537        -3.61853         1.07936        -3.61712         1.01537    -144.451E-03     139.739E-03    -60.1573E-03    -79.5810E-03    -63.0305E-03     123.208E-03    -60.1776E-03     115.048E-03     121.669E+06     69.5034E+06    -33.4611E+06    -31.2314E+06     119.439E+06     69.5034E+06     12.5077E+06         43.0816
            1127     13.1967E-03     4.48322E-03         1.07780         1.01067        -3.61995         1.07763        -3.61978         1.01067    -50.2660E-03     122.045E-03    -57.0614E-03    -65.0390E-03    -49.9032E-03     109.956E-03    -60.1086E-03     89.8693E-03     111.999E+06     31.8812E+06    -38.2962E+06    -37.3228E+06     111.026E+06     31.8812E+06     9.86186E+06         39.7422
            1128     12.2430E-03     4.50500E-03         1.05129         1.00659        -3.59489         1.05117        -3.59477         1.00659     3.09560E-03     116.841E-03    -55.1111E-03    -61.8104E-03    -44.5515E-03     105.277E-03    -60.8053E-03     84.9734E-03     86.2353E+06     19.7343E+06    -36.4698E+06    -36.0382E+06     85.8037E+06     19.7343E+06     3.40017E+06         36.9666
            1129     11.2872E-03     4.52036E-03         1.04039         1.00350        -3.58117         1.04027        -3.58105         1.00350     29.8093E-03     117.279E-03    -55.4071E-03    -61.9241E-03    -44.3302E-03     106.202E-03    -61.9241E-03     83.9611E-03     40.1576E+06     7.30911E+06    -43.2939E+06    -36.4965E+06     20.7212E+06     19.9481E+06    -9.51471E+06         34.8077
            1130     10.3346E-03     4.55684E-03         1.03491         1.00062        -3.56760         1.03487        -3.56755         1.00062     20.2490E-03     119.102E-03    -56.0113E-03    -63.1038E-03    -45.8342E-03     108.925E-03    -63.1038E-03     81.6267E-03     16.8947E+06    -16.6376E+06    -66.6837E+06    -36.4747E+06    -46.8465E+06     16.8947E+06    -20.8726E+06         33.3277
            1131     9.38320E-03     4.58958E-03         1.02112     998.161E-03        -3.54833         1.02110        -3.54830     998.161E-03     12.7858E-03     123.613E-03    -58.8151E-03    -64.7926E-03    -49.6186E-03     113.835E-03    -64.2110E-03     82.0668E-03     21.7010E+06    -24.7884E+06    -103.725E+06    -35.4933E+06    -93.0198E+06     21.7010E+06    -25.8497E+06         32.5228
            1132     8.44037E-03     4.62905E-03         1.01581     996.240E-03        -3.53898         1.01569        -3.53886     996.240E-03     32.1413E-03     128.225E-03    -61.6792E-03    -66.5544E-03    -54.3238E-03     119.361E-03    -65.0458E-03     80.2335E-03     22.4739E+06    -27.1306E+06    -144.244E+06    -35.6390E+06    -135.735E+06     22.4739E+06    -29.6453E+06         32.1713
            1133     7.49879E-03     4.67016E-03         1.00703     992.861E-03        -3.52830         1.00488        -3.52819     994.900E-03     30.9105E-03     131.944E-03    -63.8545E-03    -68.1310E-03    -58.7948E-03     124.218E-03    -65.4651E-03     76.5737E-03     19.7727E+06    -28.4932E+06    -177.772E+06    -34.9980E+06    -171.267E+06     19.7727E+06    -29.7181E+06         31.9744
            1134     6.56317E-03     4.71386E-03         1.00330     988.497E-03        -3.51852     996.856E-03        -3.51812     994.542E-03     56.0620E-03     134.337E-03    -64.9746E-03    -69.3978E-03    -62.5718E-03     127.908E-03    -65.3718E-03     70.9545E-03     11.3975E+06    -29.9763E+06    -199.464E+06    -34.0524E+06    -195.387E+06     11.3975E+06    -25.5154E+06         31.7802
            1135     5.62991E-03     4.75881E-03         1.00682     990.283E-03        -3.52335         1.00217        -3.52271     994.288E-03     74.4403E-03     134.545E-03    -64.7967E-03    -69.7558E-03    -64.7202E-03     129.509E-03    -64.7967E-03     63.1332E-03    -593.123E+03    -32.5622E+06    -209.635E+06    -34.9318E+06    -207.265E+06    -593.123E+03    -20.1052E+06         31.5540
            1136     4.69652E-03     4.80156E-03         1.01483     992.157E-03        -3.53805         1.01417        -3.53739     992.157E-03     80.1380E-03     133.119E-03    -63.8769E-03    -69.2471E-03    -65.5196E-03     129.392E-03    -63.8769E-03     54.1295E-03    -10.8564E+06    -36.4623E+06    -216.216E+06    -38.0487E+06    -214.629E+06    -10.8564E+06    -16.7621E+06         31.3103
            1137     3.76300E-03     4.84175E-03         1.00855     988.049E-03        -3.52560         1.00782        -3.52515     988.337E-03     42.9730E-03     130.167E-03    -62.6921E-03    -67.4725E-03    -64.9741E-03     127.669E-03    -62.6921E-03     43.7899E-03    -24.0433E+06    -41.0633E+06    -222.417E+06    -42.1896E+06    -221.291E+06    -24.0433E+06    -14.1411E+06         31.0901
            1138     2.82648E-03     4.87766E-03     993.159E-03     972.946E-03        -3.48932     976.945E-03        -3.48874     988.584E-03     48.8954E-03     126.184E-03    -61.4541E-03    -64.7286E-03    -63.2551E-03     124.711E-03    -61.4541E-03     32.9754E-03    -36.2465E+06    -46.2569E+06    -228.294E+06    -46.7863E+06    -227.765E+06    -36.2465E+06    -9.19823E+06         30.9208
            1139     1.88638E-03     4.90497E-03         1.01380     960.330E-03        -3.49268     977.598E-03        -3.49145     995.298E-03    -8.90303E-03     122.450E-03    -60.4045E-03    -62.0457E-03    -61.3407E-03     121.746E-03    -60.4045E-03     22.0861E-03    -45.7889E+06    -50.4487E+06    -235.560E+06    -50.0820E+06    -235.421E+06    -46.2955E+06    -4.72395E+06         30.7998
            1140     944.330E-06     4.92343E-03         1.05041     950.107E-03        -3.51312     982.291E-03        -3.51125         1.01636     21.1583E-03     119.848E-03    -59.5941E-03    -60.2534E-03    -59.8999E-03     119.615E-03    -59.7142E-03     12.1539E-03    -52.5838E+06    -54.9776E+06    -240.150E+06     -53.086E+06    -240.058E+06    -54.5679E+06    -2.78581E+06         30.7215
            1141     15.9205E-03     3.59295E-03         1.06776         1.01393        -3.59665         1.05972        -3.58875         1.01409    -361.895E-03     181.151E-03    -66.5944E-03    -114.560E-03    -82.7760E-03     149.367E-03    -66.5944E-03     173.855E-03     142.976E+06     124.224E+06    -6.63646E+06    -5.21778E+06     141.557E+06     124.224E+06     12.1913E+06         48.5328
            1142     14.9895E-03     3.42459E-03         1.09333         1.00935        -3.64897         1.09104        -3.64668         1.00935    -182.922E-03     174.662E-03    -65.8152E-03    -108.801E-03    -74.5098E-03     140.372E-03    -65.8152E-03     182.616E-03     132.205E+06     102.367E+06    -24.9134E+06    -22.3874E+06     129.679E+06     102.367E+06     15.9171E+06         45.7187
            1143     14.0584E-03     3.37101E-03         1.08721         1.00344        -3.65781         1.08631        -3.65691         1.00344    -53.6216E-03     134.567E-03    -61.0543E-03    -73.4944E-03    -50.4713E-03     116.373E-03    -65.8842E-03     115.597E-03     127.487E+06     78.6494E+06    -30.1121E+06    -28.3678E+06     125.742E+06     78.6494E+06     12.7010E+06         42.4410
            1144     13.1000E-03     3.38276E-03         1.06981     997.948E-03        -3.63187         1.06958        -3.63165     997.948E-03     22.4122E-03     121.972E-03    -54.9238E-03    -67.0569E-03    -38.1422E-03     105.191E-03    -67.0569E-03     103.456E-03     117.892E+06     39.3922E+06    -29.6584E+06    -29.1592E+06     117.393E+06     39.3922E+06     4.06290E+06         39.3931
            1145     12.1327E-03     3.38708E-03         1.03803     993.685E-03        -3.59431         1.03772        -3.59400     993.685E-03     61.6072E-03     122.280E-03    -53.4022E-03    -68.8899E-03    -38.3107E-03     107.188E-03    -68.8899E-03     98.2559E-03     91.4072E+06     8.05016E+06    -31.0665E+06    -28.0248E+06     90.8025E+06     5.61312E+06    -4.18136E+06         36.8743
            1146     11.1769E-03     3.40759E-03         1.01029     989.473E-03        -3.56006         1.00795        -3.55970     991.449E-03     78.1380E-03     124.731E-03    -53.6697E-03    -71.0506E-03    -41.0714E-03     112.133E-03    -71.0506E-03     91.1340E-03     41.2218E+06    -3.40482E+06    -37.5863E+06    -27.4335E+06     26.5054E+06     1.15895E+06    -14.1471E+06         34.9126
            1147     10.2205E-03     3.43607E-03         1.01391     988.038E-03        -3.55463         1.01174        -3.55443     990.015E-03     57.2026E-03     129.303E-03    -56.0065E-03    -73.2942E-03    -44.8572E-03     118.154E-03    -73.2942E-03     87.9270E-03     5.86832E+06    -15.9973E+06    -67.1834E+06    -29.1815E+06    -44.9951E+06    -3.13578E+06    -25.7453E+06         33.5646
            1148     9.27206E-03     3.46306E-03         1.01894     987.702E-03        -3.55150         1.01881        -3.55137     987.702E-03     44.9949E-03     135.627E-03    -60.0398E-03    -75.5617E-03    -49.7132E-03     125.301E-03    -75.5617E-03     87.1911E-03     4.58548E+06    -20.7480E+06    -111.891E+06    -29.2975E+06    -98.3138E+06    -442.657E+03    -32.2152E+06         32.8670
            1149     8.32490E-03     3.49464E-03         1.00234     984.531E-03        -3.52471         1.00113        -3.52450     985.521E-03     58.1777E-03     142.528E-03    -64.7690E-03    -77.7122E-03    -55.5239E-03     133.283E-03    -77.7122E-03     85.2526E-03     5.26698E+06    -19.8923E+06    -151.219E+06    -29.9074E+06    -141.204E+06     5.26698E+06    -34.4931E+06         32.7131
            1150     7.38789E-03     3.52835E-03     989.699E-03     975.406E-03        -3.50314     979.600E-03        -3.50292     985.288E-03     27.9638E-03     149.651E-03    -70.1076E-03    -79.5201E-03    -62.0356E-03     141.579E-03    -79.5201E-03     82.2696E-03    -2.24431E+06    -25.0189E+06    -190.937E+06    -33.1243E+06    -182.831E+06    -2.24431E+06    -35.2301E+06         32.8308
            1151     6.45525E-03     3.56464E-03     994.819E-03     974.763E-03        -3.51149     983.452E-03        -3.51143     986.060E-03    -1.10968E-03     155.525E-03    -74.3036E-03    -81.2023E-03    -67.8108E-03     148.757E-03    -80.9274E-03     77.4009E-03    -8.29015E+06    -30.9287E+06    -215.642E+06    -36.0925E+06    -210.478E+06    -8.29015E+06    -30.1077E+06         33.0032
            1152     5.52811E-03     3.60570E-03         1.00496     982.490E-03        -3.52737         1.00231        -3.52713     984.895E-03    -28.1363E-03     160.159E-03    -77.3602E-03    -82.8177E-03    -72.7449E-03     154.622E-03    -81.8954E-03     71.4835E-03    -17.8044E+06    -35.5260E+06    -221.711E+06    -38.3745E+06    -218.862E+06    -17.8044E+06    -22.5698E+06         33.1531
            1153     4.60497E-03     3.64736E-03         1.00598     980.986E-03        -3.52971         1.00567        -3.52940     980.986E-03    -11.1846E-03     163.221E-03    -79.3228E-03    -83.9195E-03    -76.4885E-03     158.954E-03    -82.4869E-03     63.5687E-03    -29.2250E+06    -39.4577E+06    -225.650E+06    -40.8759E+06    -224.232E+06    -29.2250E+06    -15.5930E+06         33.2591
            1154     3.68307E-03     3.68807E-03     992.625E-03     976.256E-03        -3.50776     992.144E-03        -3.50757     976.544E-03    -1.00048E-03     164.869E-03    -80.6549E-03    -84.2119E-03    -79.1200E-03     161.884E-03    -82.7617E-03     53.5108E-03    -40.7712E+06    -45.8080E+06    -231.558E+06    -46.4782E+06    -230.888E+06    -40.7712E+06    -10.4018E+06         33.3259
            1155     2.76257E-03     3.72571E-03     988.679E-03     959.461E-03        -3.47286     972.188E-03        -3.47201     975.099E-03     52.1543E-03     165.665E-03    -81.7547E-03    -83.9040E-03    -81.0348E-03     163.832E-03    -82.7915E-03     41.9305E-03    -48.0234E+06    -51.1755E+06    -237.495E+06    -51.4798E+06    -237.169E+06    -48.0446E+06    -7.14262E+06         33.3663
            1156     1.84266E-03     3.75520E-03     995.679E-03     937.713E-03        -3.45798     946.146E-03        -3.45652     985.791E-03     7.57663E-03     165.525E-03    -82.2727E-03    -83.2515E-03    -81.9624E-03     164.628E-03    -82.6652E-03     28.8815E-03    -50.3353E+06    -54.0507E+06    -242.208E+06    -54.1204E+06    -242.117E+06    -50.3565E+06    -3.66609E+06         33.3842
            1157     921.122E-06     3.77512E-03         1.05117     943.573E-03        -3.53817     941.628E-03        -3.53623         1.05117     23.9443E-03     165.056E-03    -82.3220E-03    -82.7304E-03    -82.2000E-03     164.755E-03    -82.5515E-03     16.1492E-03    -53.8667E+06    -58.0701E+06    -246.128E+06    -56.3911E+06    -246.114E+06    -55.5596E+06    -185.392E+03         33.3870
            1158     15.8199E-03     2.39881E-03         1.11760         1.00099        -3.71378         1.10922        -3.70540         1.00099    -339.654E-03     184.738E-03    -71.4980E-03    -113.287E-03    -80.8988E-03     152.350E-03    -71.4980E-03     182.100E-03     142.177E+06     121.157E+06    -15.3966E+06    -13.4381E+06     140.218E+06     121.157E+06     14.0893E+06         47.8157
            1159     14.9161E-03     2.25342E-03         1.11183     992.746E-03        -3.73069         1.11107        -3.72994     992.746E-03    -57.5336E-03     159.566E-03    -63.4157E-03    -96.1493E-03    -66.5853E-03     137.912E-03    -71.3259E-03     137.043E-03     136.300E+06     108.490E+06    -18.6555E+06    -16.5908E+06     134.235E+06     108.490E+06     15.7190E+06         45.0536
            1160     13.9593E-03     2.26938E-03         1.05434     986.215E-03        -3.65706         1.05406        -3.65678     986.215E-03     58.3891E-03     126.346E-03    -53.3896E-03    -72.9228E-03    -39.5850E-03     111.950E-03    -72.3311E-03     97.0816E-03     132.646E+06     83.3619E+06    -16.5823E+06    -16.0535E+06     132.117E+06     83.3619E+06     5.65766E+06         42.1008
            1161     12.9865E-03     2.26260E-03         1.02250     980.493E-03        -3.60472         1.01998        -3.60417     982.467E-03     96.3664E-03     125.853E-03    -51.4396E-03    -74.4120E-03    -37.1715E-03     111.585E-03    -74.4120E-03     94.9463E-03     125.229E+06     35.9011E+06    -18.4990E+06    -18.0954E+06     124.825E+06     35.9011E+06     219.904E+03         39.4077
            1162     12.0340E-03     2.26731E-03         1.00468     975.634E-03        -3.57297     999.257E-03        -3.57230     980.387E-03     107.107E-03     127.803E-03    -50.9959E-03    -76.7977E-03    -39.8182E-03     116.626E-03    -76.7977E-03     84.9595E-03     94.2320E+06    -8.11304E+06    -34.3010E+06    -21.1982E+06     93.7279E+06    -20.7117E+06    -6.08146E+06         37.1279
            1163     11.0727E-03     2.28233E-03     993.651E-03     974.623E-03        -3.54395     988.473E-03        -3.54353     979.378E-03     74.1080E-03     131.222E-03    -51.6801E-03    -79.5249E-03    -42.8935E-03     122.435E-03    -79.5249E-03     76.9029E-03     39.7323E+06    -22.3234E+06    -50.2452E+06    -22.0758E+06     31.2740E+06    -42.0345E+06    -15.0799E+06         35.3318
            1164     10.1212E-03     2.30093E-03     993.212E-03     976.568E-03        -3.52549     991.042E-03        -3.52533     978.583E-03     39.8072E-03     137.544E-03    -55.0671E-03    -82.5382E-03    -47.4693E-03     129.946E-03    -82.5382E-03     73.6380E-03    -1.93568E+06    -38.5681E+06    -71.4772E+06    -23.1989E+06    -43.1016E+06    -45.6805E+06    -25.2779E+06         34.0686
            1165     9.17077E-03     2.32193E-03     995.452E-03     977.221E-03        -3.51842     995.248E-03        -3.51825     977.259E-03     49.2647E-03     145.005E-03    -59.4118E-03    -85.6698E-03    -52.5518E-03     138.145E-03    -85.6698E-03     72.2377E-03    -10.7445E+06    -52.1489E+06    -115.475E+06    -25.3873E+06    -103.522E+06    -49.4592E+06    -32.2529E+06         33.3841
            1166     8.22769E-03     2.34242E-03     989.581E-03     974.805E-03        -3.50546     988.119E-03        -3.50499     975.794E-03     83.1929E-03     153.413E-03    -64.4664E-03    -88.9361E-03    -58.3936E-03     147.340E-03    -88.9361E-03     70.2852E-03    -14.0199E+06    -42.7301E+06    -158.599E+06    -27.2886E+06    -149.766E+06    -38.2942E+06    -33.1335E+06         33.2633
            1167     7.28864E-03     2.36414E-03     979.861E-03     962.870E-03        -3.48467     966.442E-03        -3.48424     975.860E-03     45.2868E-03     162.424E-03    -70.2143E-03    -92.1572E-03    -64.9747E-03     157.184E-03    -92.1572E-03     67.5483E-03    -22.9636E+06    -38.9325E+06    -201.315E+06    -32.1424E+06    -195.654E+06    -35.4151E+06    -30.1643E+06         33.5551
            1168     6.35806E-03     2.39263E-03     978.503E-03     963.288E-03        -3.48403     963.764E-03        -3.48370     977.694E-03     24.6291E-03     171.757E-03    -76.5104E-03    -95.2018E-03    -72.0633E-03     167.310E-03    -95.2018E-03     64.3466E-03    -31.2873E+06    -43.6920E+06    -229.388E+06    -39.2518E+06    -225.599E+06    -39.5166E+06    -25.9180E+06         34.0416
            1169     5.43339E-03     2.42218E-03     989.399E-03     971.679E-03        -3.49340     981.907E-03        -3.49291     978.680E-03     11.6251E-03     180.902E-03    -82.8979E-03    -98.0147E-03    -79.1832E-03     177.188E-03    -98.0147E-03     60.6324E-03    -39.9263E+06    -47.2093E+06    -235.270E+06    -45.5381E+06    -233.197E+06    -43.6696E+06    -19.1626E+06         34.5823
            1170     4.51607E-03     2.45665E-03     988.569E-03     973.443E-03        -3.49581     983.419E-03        -3.49525     978.039E-03     24.4957E-03     189.562E-03    -89.0230E-03    -100.563E-03    -86.0948E-03     186.634E-03    -100.563E-03     55.3467E-03    -46.3125E+06    -49.5719E+06    -237.882E+06    -49.9605E+06    -236.974E+06    -46.8322E+06    -12.2908E+06         35.1235
            1171     3.60463E-03     2.49188E-03     981.554E-03     975.672E-03        -3.49379     979.558E-03        -3.49336     977.241E-03     32.3670E-03     197.540E-03    -94.7911E-03    -102.756E-03    -92.6723E-03     195.421E-03    -102.756E-03     48.2180E-03    -49.9331E+06    -52.1680E+06    -239.931E+06    -52.3981E+06    -239.682E+06    -49.9522E+06    -6.51518E+06         35.6239
            1172     2.69861E-03     2.52198E-03     996.327E-03     971.840E-03        -3.49630     994.173E-03        -3.49572     973.410E-03     52.0612E-03     204.280E-03    -99.7663E-03    -104.505E-03    -98.4334E-03     202.947E-03    -104.505E-03     38.8182E-03    -53.5755E+06    -55.0533E+06    -243.311E+06    -55.1140E+06    -243.210E+06    -53.6158E+06    -3.66461E+06         36.0355
            1173     1.79681E-03     2.54904E-03         1.01126     947.941E-03        -3.49036     996.557E-03        -3.48877     961.051E-03    -21.1338E-03     209.352E-03    -103.570E-03    -105.771E-03    -102.900E-03     208.682E-03    -105.771E-03     27.6691E-03    -55.2538E+06    -58.5603E+06    -247.404E+06    -58.5909E+06    -247.353E+06    -55.2751E+06    -2.14068E+06         36.3271
            1174     898.315E-06     2.56639E-03         1.00371     903.780E-03        -3.44221     932.573E-03        -3.44003     972.735E-03    -31.1597E-03     212.457E-03    -105.829E-03    -106.617E-03    -105.827E-03     212.223E-03    -106.385E-03     15.9196E-03    -57.8108E+06    -62.0752E+06    -249.189E+06    -61.3318E+06    -249.178E+06    -58.5656E+06    -868.992E+03         36.5004
            1175     15.7696E-03     1.14234E-03         1.13405     982.751E-03        -3.88696         1.12753        -3.88043     982.751E-03    -238.202E-03     196.021E-03    -72.2962E-03    -123.823E-03    -94.8262E-03     171.042E-03    -76.3137E-03     164.433E-03     144.648E+06     127.628E+06    -8.12320E+06    -6.06069E+06     142.586E+06     127.628E+06     8.91853E+06         47.6012
            1176     14.8419E-03     1.14580E-03         1.04607     975.473E-03        -3.73075         1.04583        -3.73051     975.473E-03     25.2940E-03     143.279E-03    -59.5510E-03    -83.9244E-03    -57.9253E-03     134.054E-03    -76.3258E-03     84.1893E-03     143.017E+06     119.853E+06    -555.680E+03     597.248E+03     141.864E+06     119.853E+06     6.10236E+06         45.0902
            1177     13.8664E-03     1.14409E-03         1.00181     969.048E-03        -3.62723     998.459E-03        -3.62703     972.200E-03     22.3639E-03     128.962E-03    -51.2048E-03    -77.8073E-03    -43.8833E-03     121.640E-03    -77.8073E-03     66.1999E-03     139.339E+06     84.9372E+06    -4.32038E+06    -3.95526E+06     138.974E+06     84.9372E+06     4.23673E+06         42.4505
            1178     12.9193E-03     1.13307E-03     982.105E-03     964.496E-03        -3.56877     974.993E-03        -3.56830     971.138E-03     26.7439E-03     128.568E-03    -48.6700E-03    -79.9681E-03    -42.8676E-03     122.765E-03    -79.9681E-03     56.5828E-03     129.098E+06     29.9200E+06    -7.72228E+06    -7.55150E+06     128.927E+06     29.9200E+06     1.24145E+06         40.0259
            1179     11.9541E-03     1.13693E-03     971.848E-03     964.981E-03        -3.54060     965.066E-03        -3.54009     971.250E-03     49.1228E-03     129.167E-03    -46.7373E-03    -82.4983E-03    -42.5637E-03     124.994E-03    -82.4983E-03     48.0296E-03     97.7115E+06    -7.59714E+06    -38.6484E+06    -10.7623E+06     97.4745E+06    -35.2462E+06    -3.08830E+06         37.9234
            1180     11.0025E-03     1.14303E-03     978.389E-03     968.587E-03        -3.53472     975.406E-03        -3.53452     971.365E-03     39.9128E-03     134.665E-03    -49.1027E-03    -85.5473E-03    -45.7024E-03     131.264E-03    -85.5473E-03     44.4093E-03     41.9401E+06    -17.7883E+06    -77.3063E+06    -12.1956E+06     36.3474E+06    -77.3063E+06    -9.82902E+06         36.2365
            1181     10.0485E-03     1.15550E-03     977.450E-03     969.172E-03        -3.51652     975.577E-03        -3.51650     971.024E-03     11.2703E-03     142.507E-03    -53.5343E-03    -89.0345E-03    -50.6791E-03     139.652E-03    -89.0345E-03     42.4801E-03    -2.98462E+06    -52.1235E+06    -91.0497E+06    -14.8665E+06    -41.7675E+06    -89.5238E+06    -17.0892E+06         35.0259
            1182     9.10199E-03     1.16540E-03     974.584E-03     964.983E-03        -3.49685     968.504E-03        -3.49677     970.986E-03     9.00292E-03     151.298E-03    -58.7404E-03    -92.7143E-03    -56.1732E-03     148.731E-03    -92.7143E-03     41.6391E-03    -14.1311E+06    -87.9818E+06    -118.166E+06    -20.2913E+06    -106.475E+06    -93.5132E+06    -21.0236E+06         34.3269
            1183     8.15978E-03     1.17546E-03     985.994E-03     966.389E-03        -3.50083     981.455E-03        -3.50044     970.540E-03     39.7026E-03     160.282E-03    -63.7661E-03    -96.6349E-03    -61.5367E-03     158.052E-03    -96.6349E-03     40.0933E-03    -24.1184E+06    -86.7918E+06    -164.065E+06    -28.2332E+06    -159.950E+06    -86.7918E+06    -21.1464E+06         34.1459
            1184     7.22273E-03     1.18766E-03     988.985E-03     965.809E-03        -3.50210     985.447E-03        -3.50167     968.918E-03     12.8969E-03     170.105E-03    -69.3002E-03    -100.846E-03    -67.4199E-03     168.225E-03    -100.846E-03     37.9276E-03    -33.3455E+06    -70.3059E+06    -209.908E+06    -35.7065E+06    -207.547E+06    -70.3059E+06    -17.9529E+06         34.4336
            1185     6.29069E-03     1.20024E-03     976.676E-03     963.618E-03        -3.48552     972.170E-03        -3.48505     967.655E-03    -463.771E-06     181.542E-03    -76.3513E-03    -105.165E-03    -74.7854E-03     179.976E-03    -105.165E-03     35.8174E-03    -42.1219E+06    -62.6711E+06    -238.064E+06    -43.3645E+06    -236.821E+06    -62.6711E+06    -13.7561E+06         35.0529
            1186     5.36838E-03     1.21802E-03     969.188E-03     958.204E-03        -3.46699     958.586E-03        -3.46656     968.379E-03     8.43009E-03     194.107E-03    -84.5906E-03    -109.466E-03    -83.2855E-03     192.802E-03    -109.466E-03     33.9711E-03    -49.5008E+06    -60.9167E+06    -244.196E+06    -50.2188E+06    -243.478E+06    -60.9167E+06    -10.2813E+06         35.8497
            1187     4.45269E-03     1.23745E-03     971.202E-03     956.555E-03        -3.46058     956.376E-03        -3.46015     970.948E-03     37.2324E-03     207.417E-03    -93.7351E-03    -113.644E-03    -92.6849E-03     206.367E-03    -113.644E-03     31.7063E-03    -53.3580E+06    -59.8739E+06    -246.639E+06    -55.1671E+06    -246.240E+06    -58.4634E+06     -7.8809E+06         36.7280
            1188     3.54767E-03     1.25619E-03     973.786E-03     966.650E-03        -3.47151     966.515E-03        -3.47112     973.532E-03     39.2734E-03     220.652E-03    -103.136E-03    -117.496E-03    -102.351E-03     219.867E-03    -117.496E-03     28.3426E-03    -55.2978E+06    -58.8646E+06    -247.348E+06    -57.3830E+06    -247.150E+06    -56.9770E+06    -4.80243E+06         37.6053
            1189     2.65123E-03     1.27453E-03     984.522E-03     971.235E-03        -3.49447     982.416E-03        -3.49410     972.971E-03     45.2831E-03     232.573E-03    -111.749E-03    -120.817E-03    -111.245E-03     232.069E-03    -120.817E-03     23.3492E-03    -57.3693E+06    -58.9272E+06    -248.133E+06    -58.9336E+06    -248.107E+06    -57.3883E+06    -1.06494E+06         38.3763
            1190     1.76197E-03     1.28976E-03         1.00554     955.148E-03        -3.50548     996.268E-03        -3.50407     963.006E-03    -34.0364E-03     242.401E-03    -118.975E-03    -123.414E-03    -118.712E-03     242.138E-03    -123.414E-03     16.8803E-03    -58.1892E+06    -61.0176E+06    -249.560E+06    -61.0227E+06    -249.555E+06    -58.1892E+06    -565.265E+03         38.9450
            1191     878.836E-06     1.30109E-03         1.01050     901.310E-03        -3.46381     928.931E-03        -3.46045     979.520E-03     160.072E-06     248.988E-03    -123.701E-03    -125.275E-03    -124.005E-03     248.890E-03    -124.873E-03     9.64345E-03    -60.3677E+06    -63.5875E+06    -251.418E+06    -63.1917E+06    -251.411E+06    -60.7706E+06    -349.390E+03         39.2829
            1192     943.384E-06     62.7986E-03         3.82092         1.72475        -6.59179    -234.493E-03        -2.53637         1.72475        -4.16935     116.471E-03    -58.1094E-03    -58.3623E-03    -58.2662E-03     116.470E-03    -58.2048E-03     469.133E-06    -69.0326E+06    -73.0648E+06    -267.766E+06    -71.8393E+06    -267.756E+06    -70.2675E+06     491.567E+03         29.0029
            1193     1.88722E-03     62.7992E-03         1.90048     733.275E-03        -3.67994     685.759E-03        -2.46522     733.275E-03         1.25795     116.560E-03    -58.1328E-03    -58.4321E-03    -58.2707E-03     116.559E-03    -58.2931E-03     722.498E-06    -62.3941E+06    -69.2798E+06    -263.298E+06    -69.2862E+06    -263.292E+06    -62.3941E+06     995.582E+03         29.0904
            1194     2.83124E-03     62.8005E-03         1.17371     715.549E-03        -2.94299     680.593E-03        -2.44987     715.549E-03    -664.714E-03     116.427E-03    -58.1173E-03    -58.3170E-03    -58.1134E-03     116.423E-03    -58.3170E-03     1.54259E-03    -52.9487E+06    -65.7476E+06    -256.356E+06    -65.7515E+06    -256.352E+06    -52.9487E+06     540.142E+03         29.2390
            1195     3.77459E-03     62.8022E-03     897.111E-03     708.152E-03        -2.65687     695.711E-03        -2.45547     708.152E-03     352.610E-03     116.365E-03    -58.0580E-03    -58.3228E-03    -58.0485E-03     116.356E-03    -58.3228E-03     2.53292E-03    -40.8148E+06    -60.9855E+06    -249.064E+06    -60.9880E+06    -249.061E+06    -40.8148E+06     298.004E+03         29.4568
            1196     4.71862E-03     62.8049E-03     796.704E-03     707.039E-03        -2.55255     711.633E-03        -2.46748     707.039E-03    -221.506E-03     116.299E-03    -58.0056E-03    -58.3174E-03    -57.9835E-03     116.277E-03    -58.3174E-03     3.83919E-03    -30.4032E+06    -55.4441E+06    -232.067E+06    -55.4508E+06    -232.060E+06    -30.4032E+06     471.645E+03         29.7460
            1197     5.66228E-03     62.8102E-03     746.163E-03     707.534E-03        -2.50432     708.367E-03        -2.46652     707.534E-03     126.350E-03     116.140E-03    -57.8866E-03    -58.2819E-03    -57.8434E-03     116.097E-03    -58.2819E-03     5.42925E-03    -22.5374E+06    -50.1325E+06    -209.018E+06    -50.1409E+06    -209.009E+06    -22.5374E+06     300.268E+03         30.1190
            1198     6.60651E-03     62.8153E-03     728.879E-03     704.243E-03        -2.48519     709.292E-03        -2.46903     707.668E-03    -121.065E-03     116.056E-03    -57.8416E-03    -58.2425E-03    -57.7603E-03     115.975E-03    -58.2425E-03     7.41980E-03    -15.7872E+06    -45.7366E+06    -186.539E+06    -45.7417E+06    -186.534E+06    -15.7872E+06     21.9696E+03         30.6002
            1199     7.55044E-03     62.8252E-03     722.002E-03     704.588E-03        -2.48066     712.493E-03        -2.47458     708.013E-03     42.1187E-03     116.034E-03    -57.8580E-03    -58.2057E-03    -57.7229E-03     115.899E-03    -58.2057E-03     9.63967E-03    -9.43392E+06    -41.5304E+06    -162.282E+06    -41.5354E+06    -162.277E+06    -9.43392E+06    -344.536E+03         31.2139
            1200     8.49402E-03     62.8361E-03     723.502E-03     708.900E-03        -2.48841     720.591E-03        -2.48549     708.900E-03    -45.0343E-03     115.864E-03    -57.7161E-03    -58.1594E-03    -57.4916E-03     115.639E-03    -58.1594E-03     12.3567E-03    -4.07918E+06    -37.0395E+06    -136.056E+06    -37.0499E+06    -136.046E+06    -4.07918E+06    -422.156E+03         31.9795
            1201     9.43861E-03     62.8514E-03     719.976E-03     709.019E-03        -2.48407     718.247E-03        -2.48324     709.923E-03     60.7666E-03     115.810E-03    -57.6872E-03    -58.0878E-03    -57.2483E-03     115.371E-03    -58.0878E-03     17.1544E-03    -2.10625E+06    -33.2485E+06    -105.449E+06    -33.2629E+06    -105.434E+06    -2.10625E+06    -188.406E+03         33.0606
            1202     10.3830E-03     62.8730E-03     717.318E-03     705.685E-03        -2.47742     712.586E-03        -2.47739     710.383E-03    -14.6653E-03     115.853E-03    -57.8374E-03    -57.9980E-03    -57.1466E-03     115.162E-03    -57.9980E-03     21.8060E-03    -3.03224E+06    -30.3982E+06    -66.7860E+06    -30.4319E+06    -66.7522E+06    -3.03224E+06    -193.951E+03         34.7508
            1203     11.3271E-03     62.8975E-03     719.974E-03     703.058E-03        -2.47730     712.515E-03        -2.47725     710.466E-03     12.8671E-03     116.031E-03    -57.8497E-03    -58.2182E-03    -57.0584E-03     114.904E-03    -57.8821E-03     27.6173E-03     9.64817E+06    -22.0178E+06    -35.8832E+06    -28.4867E+06    -10.2165E+06    -9.54952E+06     201.479E+03         37.1712
            1204     12.2719E-03     62.9317E-03     719.321E-03     706.927E-03        -2.47933     715.571E-03        -2.47920     710.541E-03    -1.97869E-03     116.960E-03    -57.7820E-03    -59.2026E-03    -56.8829E-03     114.641E-03    -57.7820E-03     39.4616E-03     69.3345E+06    -6.53951E+06    -27.0592E+06    -27.0089E+06     69.2843E+06    -6.53951E+06     190.060E+03         40.2862
            1205     13.2160E-03     62.9826E-03     728.243E-03     711.021E-03        -2.48988     728.051E-03        -2.48969     711.021E-03    -42.4339E-03     118.955E-03    -57.8338E-03    -61.1629E-03    -56.4346E-03     114.226E-03    -57.8338E-03     56.8163E-03     123.418E+06     18.8468E+06    -24.2384E+06    -24.1742E+06     123.354E+06     18.8468E+06    -61.2518E+03         44.0636
            1206     14.1612E-03     63.0564E-03     735.432E-03     711.947E-03        -2.49718     735.198E-03        -2.49694     711.947E-03     5.70523E-03     127.663E-03    -57.9579E-03    -69.8148E-03    -56.0033E-03     113.852E-03    -57.9579E-03     97.1238E-03     136.492E+06     57.8962E+06    -20.3776E+06    -20.2974E+06     136.412E+06     57.8962E+06     1.09543E+06         48.2924
            1207     15.1080E-03     63.1975E-03     729.743E-03     712.572E-03        -2.48844     729.513E-03        -2.48821     712.572E-03     5.40509E-03     147.314E-03    -58.0465E-03    -89.3778E-03    -56.9290E-03     114.865E-03    -58.0465E-03     161.164E-03     147.403E+06     101.075E+06    -15.0272E+06    -14.9625E+06     147.338E+06     101.075E+06     1.49668E+06         52.3114
            1208     16.0522E-03     63.4159E-03     728.122E-03     712.824E-03        -2.48614     727.641E-03        -2.48566     712.824E-03     23.3348E-03     140.196E-03    -58.1132E-03    -82.1242E-03    -57.1422E-03     115.214E-03    -58.1132E-03     130.976E-03     154.888E+06     126.314E+06    -6.83942E+06    -6.81136E+06     154.860E+06     126.314E+06     411.842E+03         55.4076
            1209     943.354E-06     63.9206E-03         3.54034         1.72177        -6.28796    -330.970E-03        -2.41665         1.72177        -3.93110     116.815E-03    -58.1727E-03    -58.6401E-03    -58.4940E-03     116.814E-03    -58.3175E-03     885.725E-06    -70.8992E+06    -73.4385E+06    -268.390E+06    -72.7910E+06    -268.386E+06    -71.5516E+06     92.9953E+03         29.0088
            1210     1.88710E-03     63.9219E-03         1.80687     694.770E-03        -3.53108     691.295E-03        -2.41550     694.770E-03         1.19979     116.442E-03    -58.0615E-03    -58.3848E-03    -58.0605E-03     116.441E-03    -58.3848E-03     752.932E-06    -64.4819E+06    -69.7935E+06    -264.213E+06    -69.7978E+06    -264.209E+06    -64.4819E+06     42.6517E+03         29.0899
            1211     2.83071E-03     63.9224E-03         1.13837     695.640E-03        -2.86999     706.230E-03        -2.43785     695.640E-03    -642.058E-03     116.309E-03    -57.9963E-03    -58.3202E-03    -57.9929E-03     116.305E-03    -58.3202E-03     1.41998E-03    -52.8162E+06    -65.1880E+06    -256.181E+06    -65.1920E+06    -256.177E+06    -52.8162E+06     402.611E+03         29.2336
            1212     3.77523E-03     63.9244E-03     880.392E-03     698.535E-03        -2.61571     707.756E-03        -2.44308     698.535E-03     301.653E-03     116.306E-03    -58.0175E-03    -58.3041E-03    -58.0085E-03     116.297E-03    -58.3041E-03     2.45143E-03    -39.9400E+06    -60.5060E+06    -249.073E+06    -60.5109E+06    -249.069E+06    -39.9400E+06     72.5562E+03         29.4497
            1213     4.71845E-03     63.9276E-03     779.462E-03     699.889E-03        -2.51392     702.173E-03        -2.43663     699.889E-03    -209.252E-03     116.201E-03    -57.9280E-03    -58.2972E-03    -57.9066E-03     116.180E-03    -58.2972E-03     3.77354E-03    -29.0526E+06    -54.9017E+06    -232.199E+06    -54.9068E+06    -232.194E+06    -29.0526E+06    -37.0573E+03         29.7405
            1214     5.66284E-03     63.9316E-03     735.749E-03     700.212E-03        -2.47221     701.671E-03        -2.43813     700.212E-03     122.843E-03     116.127E-03    -57.8951E-03    -58.2621E-03    -57.8521E-03     116.085E-03    -58.2621E-03     5.39849E-03    -21.1822E+06    -50.1649E+06    -208.815E+06    -50.1690E+06    -208.811E+06    -21.1822E+06     240.317E+03         30.1170
            1215     6.60650E-03     63.9385E-03     735.213E-03     701.645E-03        -2.47669     720.331E-03        -2.46181     701.645E-03    -98.8400E-03     116.164E-03    -57.9618E-03    -58.2364E-03    -57.8808E-03     116.083E-03    -58.2364E-03     7.41727E-03    -14.4775E+06    -45.8025E+06    -186.106E+06    -45.8057E+06    -186.103E+06    -14.4775E+06     20.2359E+03         30.6012
            1216     7.55013E-03     63.9472E-03     725.587E-03     703.838E-03        -2.46876     719.550E-03        -2.46281     703.931E-03     56.6935E-03     116.066E-03    -57.8898E-03    -58.2101E-03    -57.7499E-03     115.926E-03    -58.2101E-03     9.78782E-03    -8.39938E+06    -41.3441E+06    -161.547E+06    -41.3480E+06    -161.543E+06    -8.39938E+06    -489.310E+03         31.2165
            1217     8.49456E-03     63.9587E-03     713.195E-03     702.208E-03        -2.45448     708.066E-03        -2.45218     705.035E-03    -54.7766E-03     115.878E-03    -57.7296E-03    -58.1664E-03    -57.5058E-03     115.654E-03    -58.1664E-03     12.3729E-03    -3.56233E+06    -37.3520E+06    -136.148E+06    -37.3600E+06    -136.140E+06    -3.56233E+06    -650.518E+03         31.9821
            1218     9.43856E-03     63.9731E-03     718.693E-03     702.884E-03        -2.45939     715.363E-03        -2.45880     705.618E-03     33.0622E-03     115.773E-03    -57.6553E-03    -58.0953E-03    -57.2137E-03     115.331E-03    -58.0953E-03     17.1449E-03    -1.87969E+06    -33.5943E+06    -105.869E+06    -33.6133E+06    -105.850E+06    -1.87969E+06    -579.976E+03         33.0618
            1219     10.3832E-03     63.9951E-03     715.664E-03     701.605E-03        -2.45540     710.958E-03        -2.45531     706.220E-03    -19.2083E-03     115.707E-03    -57.6997E-03    -57.9959E-03    -57.0134E-03     115.020E-03    -57.9959E-03     21.7367E-03    -2.90768E+06    -30.6516E+06    -67.2032E+06    -30.6991E+06    -67.1557E+06    -2.90768E+06    -266.641E+03         34.7517
            1220     11.3280E-03     64.0198E-03     705.778E-03     692.814E-03        -2.43671     692.684E-03        -2.43658     705.778E-03     25.9792E-03     116.010E-03    -57.7641E-03    -58.2775E-03    -57.0346E-03     114.875E-03    -57.8722E-03     27.6388E-03     9.61227E+06    -22.3328E+06    -36.6814E+06    -28.9834E+06    -10.9783E+06    -9.44016E+06     7.22264E+03         37.1729
            1221     12.2719E-03     64.0545E-03     710.190E-03     696.614E-03        -2.44569     701.616E-03        -2.44546     704.964E-03     5.68321E-03     117.113E-03    -57.7722E-03    -59.3447E-03    -57.0037E-03     114.772E-03    -57.7722E-03     39.7222E-03     70.1057E+06    -5.87584E+06    -27.2279E+06    -27.1610E+06     70.0388E+06    -5.87584E+06    -3.63769E+03         40.2877
            1222     13.2161E-03     64.1059E-03     724.711E-03     705.311E-03        -2.46755     724.525E-03        -2.46736     705.311E-03    -35.9352E-03     118.902E-03    -57.8237E-03    -61.1125E-03    -56.3796E-03     114.170E-03    -57.8237E-03     56.8125E-03     122.587E+06     16.8948E+06    -25.8430E+06    -25.7942E+06     122.539E+06     16.8948E+06     725.531E+03         44.0643
            1223     14.1608E-03     64.1779E-03     729.113E-03     706.356E-03        -2.46960     728.895E-03        -2.46938     706.356E-03     14.0600E-03     127.087E-03    -57.9336E-03    -69.2559E-03    -55.6294E-03     113.461E-03    -57.9336E-03     96.3013E-03     134.347E+06     53.9874E+06    -21.7969E+06    -21.7545E+06     134.304E+06     53.9874E+06     1.41884E+06         48.2941
            1224     15.1075E-03     64.3169E-03     727.377E-03     706.977E-03        -2.46465     727.073E-03        -2.46435     706.977E-03    -1.90072E-03     147.191E-03    -57.9987E-03    -89.3098E-03    -56.4037E-03     114.284E-03    -57.9987E-03     161.829E-03     148.045E+06     100.417E+06    -14.5671E+06    -14.5253E+06     148.004E+06     100.417E+06     1.27479E+06         52.3175
            1225     16.0556E-03     64.5398E-03     724.389E-03     702.996E-03        -2.45865     720.060E-03        -2.45840     707.069E-03    -11.5704E-03     140.733E-03    -58.0607E-03    -82.7224E-03    -57.4172E-03     115.427E-03    -58.0607E-03     130.871E-03     156.229E+06     126.994E+06    -7.48927E+06    -7.46274E+06     156.203E+06     126.994E+06     676.310E+03         55.4175
            1226     943.368E-06     65.0442E-03         3.25391         1.78027        -6.04245    -405.343E-03        -2.38320         1.78027        -3.61208     116.682E-03    -58.0560E-03    -58.6254E-03    -58.5441E-03     116.681E-03    -58.1364E-03     622.085E-06    -71.5380E+06    -73.5887E+06    -267.373E+06    -72.9488E+06    -267.361E+06    -72.1905E+06    -1.32243E+06         29.0085
            1227     1.88698E-03     65.0435E-03         1.71846     686.583E-03        -3.42252     680.661E-03        -2.38473     686.583E-03         1.21632     116.453E-03    -58.1137E-03    -58.3433E-03    -58.1126E-03     116.452E-03    -58.3433E-03     722.042E-06    -64.8268E+06    -70.0434E+06    -264.143E+06    -70.0556E+06    -264.131E+06    -64.8268E+06    -1.30096E+06         29.0889
            1228     2.83129E-03     65.0448E-03         1.08574     688.005E-03        -2.79463     705.394E-03        -2.41429     688.005E-03    -574.018E-03     116.354E-03    -58.0437E-03    -58.3173E-03    -58.0399E-03     116.350E-03    -58.3173E-03     1.57593E-03    -52.9422E+06    -65.1440E+06    -256.721E+06    -65.1519E+06    -256.713E+06    -52.9422E+06    -532.566E+03         29.2313
            1229     3.77432E-03     65.0467E-03     858.025E-03     692.936E-03        -2.57087     709.169E-03        -2.42201     692.936E-03     322.715E-03     116.240E-03    -57.9523E-03    -58.3024E-03    -57.9433E-03     116.231E-03    -58.3024E-03     2.45468E-03    -39.5232E+06    -59.4162E+06    -248.957E+06    -59.4238E+06    -248.950E+06    -39.5232E+06    -456.708E+03         29.4467
            1230     4.71909E-03     65.0495E-03     776.579E-03     696.538E-03        -2.49233     712.206E-03        -2.42796     696.538E-03    -144.391E-03     116.198E-03    -57.9269E-03    -58.2937E-03    -57.9066E-03     116.177E-03    -58.2937E-03     3.69285E-03    -28.2957E+06    -54.2857E+06    -232.869E+06    -54.2890E+06    -232.866E+06    -28.2957E+06     54.5171E+03         29.7387
            1231     5.66255E-03     65.0541E-03     744.030E-03     699.276E-03        -2.46550     713.154E-03        -2.43462     699.276E-03     141.732E-03     116.179E-03    -57.9457E-03    -58.2626E-03    -57.9035E-03     116.137E-03    -58.2626E-03     5.34412E-03    -19.8999E+06    -49.3237E+06    -208.990E+06    -49.3267E+06    -208.987E+06    -19.8999E+06     523.983E+03         30.1161
            1232     6.60643E-03     65.0609E-03     728.205E-03     697.059E-03        -2.44731     711.054E-03        -2.43425     701.156E-03    -68.3602E-03     116.081E-03    -57.8806E-03    -58.2346E-03    -57.7991E-03     116.000E-03    -58.2346E-03     7.43438E-03    -13.3167E+06    -44.9990E+06    -185.352E+06    -45.0011E+06    -185.350E+06    -13.3167E+06     53.6274E+03         30.6007
            1233     7.55074E-03     65.0694E-03     711.560E-03     693.140E-03        -2.42668     697.513E-03        -2.42110     701.604E-03     79.4105E-03     116.016E-03    -57.8554E-03    -58.2003E-03    -57.7164E-03     115.877E-03    -58.2003E-03     9.76105E-03    -7.70316E+06    -41.0166E+06    -161.371E+06    -41.0198E+06    -161.367E+06    -7.70316E+06    -398.759E+03         31.2170
            1234     8.49428E-03     65.0812E-03     700.833E-03     693.609E-03        -2.41704     692.160E-03        -2.41559     700.833E-03    -48.7326E-03     115.935E-03    -57.8033E-03    -58.1586E-03    -57.5841E-03     115.716E-03    -58.1586E-03     12.2560E-03    -2.95620E+06    -37.2617E+06    -136.014E+06    -37.2676E+06    -136.008E+06    -2.95620E+06    -555.277E+03         31.9844
            1235     9.43875E-03     65.0950E-03     707.494E-03     694.136E-03        -2.42209     700.972E-03        -2.42175     700.319E-03     19.9699E-03     115.905E-03    -57.7859E-03    -58.0991E-03    -57.3596E-03     115.479E-03    -58.0991E-03     16.8682E-03    -1.33025E+06    -34.0225E+06    -105.789E+06    -34.0419E+06    -105.770E+06    -1.33025E+06    -433.229E+03         33.0652
            1236     10.3829E-03     65.1174E-03     713.979E-03     696.515E-03        -2.43034     709.740E-03        -2.43025     700.660E-03    -14.9194E-03     115.843E-03    -57.8038E-03    -58.0184E-03    -57.1428E-03     115.176E-03    -58.0117E-03     21.4491E-03    -2.78952E+06    -31.5102E+06    -67.6072E+06    -31.5586E+06    -67.5588E+06    -2.78952E+06    -174.394E+03         34.7539
            1237     11.3274E-03     65.1416E-03     716.144E-03     695.779E-03        -2.43232     710.426E-03        -2.43216     701.335E-03     34.0156E-03     115.846E-03    -57.7728E-03    -58.1048E-03    -56.8718E-03     114.731E-03    -57.8909E-03     27.3640E-03     9.52820E+06    -22.1133E+06    -37.2481E+06    -29.7403E+06    -11.2824E+06    -8.81054E+06     48.0595E+03         37.1737
            1238     12.2718E-03     65.1778E-03     712.923E-03     697.124E-03        -2.43270     707.951E-03        -2.43247     701.860E-03     11.7800E-03     116.740E-03    -57.7329E-03    -59.0099E-03    -56.5716E-03     114.337E-03    -57.7677E-03     40.0368E-03     68.5140E+06    -5.78740E+06    -28.3697E+06    -28.3149E+06     68.4593E+06    -5.78740E+06     553.490E+03         40.2888
            1239     13.2165E-03     65.2282E-03     708.362E-03     697.455E-03        -2.42855     703.664E-03        -2.42846     702.060E-03    -10.4914E-03     118.384E-03    -57.7892E-03    -60.6292E-03    -55.9237E-03     113.679E-03    -57.7892E-03     56.6426E-03     121.847E+06     17.0584E+06    -26.1231E+06    -26.0967E+06     121.821E+06     17.0584E+06     1.05192E+06         44.0662
            1240     14.1623E-03     65.2995E-03     708.842E-03     695.328E-03        -2.42245     702.119E-03        -2.42229     701.886E-03     39.5568E-03     127.385E-03    -57.9068E-03    -69.5977E-03    -56.1810E-03     113.968E-03    -57.9068E-03     95.7880E-03     135.001E+06     54.2834E+06    -21.5088E+06    -21.4665E+06     134.959E+06     54.2834E+06     810.265E+03         48.2959
            1241     15.1088E-03     65.4368E-03     711.969E-03     693.462E-03        -2.42068     703.765E-03        -2.42035     701.344E-03     1.22715E-03     147.361E-03    -58.0252E-03    -89.4944E-03    -57.3107E-03     115.178E-03    -58.0252E-03     160.440E-03     148.003E+06     100.308E+06    -14.3537E+06    -14.3090E+06     147.958E+06     100.308E+06     724.120E+03         52.3193
            1242     16.0525E-03     65.6623E-03     707.953E-03     687.040E-03        -2.41155     694.146E-03        -2.41108     700.382E-03     3.60304E-03     139.994E-03    -58.1027E-03    -81.9750E-03    -57.0098E-03     115.029E-03    -58.1027E-03     130.636E-03     156.758E+06     126.948E+06    -7.59142E+06    -7.57221E+06     156.739E+06     126.948E+06     998.000E+03         55.4218
            1243     943.827E-06     66.1665E-03         2.93530         1.87863        -5.81072    -453.867E-03        -2.42155         1.87863        -3.40411     116.321E-03    -58.0221E-03    -58.3002E-03    -58.2271E-03     116.320E-03    -58.0945E-03     425.037E-06    -68.6997E+06    -71.5991E+06    -265.094E+06    -71.6146E+06    -265.079E+06    -68.6997E+06    -1.48654E+06         29.0007
            1244     1.88753E-03     66.1660E-03         1.60478     705.668E-03        -3.31477     678.916E-03        -2.38891     705.668E-03         1.12141     116.481E-03    -58.1717E-03    -58.3138E-03    -58.2561E-03     116.480E-03    -58.2282E-03     853.409E-06    -62.4242E+06    -69.0117E+06    -263.031E+06    -69.0266E+06    -263.016E+06    -62.4242E+06    -1.45209E+06         29.0855
            1245     2.83066E-03     66.1670E-03         1.03446     698.180E-03        -2.73841     693.352E-03        -2.39730     698.180E-03    -529.565E-03     116.392E-03    -58.0664E-03    -58.3379E-03    -58.1276E-03     116.388E-03    -58.2730E-03     1.54040E-03    -53.2295E+06    -65.9419E+06    -256.891E+06    -65.9562E+06    -256.877E+06    -53.2295E+06    -1.62787E+06         29.2313
            1246     3.77536E-03     66.1687E-03     832.009E-03     697.691E-03        -2.53261     700.089E-03        -2.40068     697.691E-03     320.315E-03     116.280E-03    -58.0041E-03    -58.2909E-03    -57.9951E-03     116.271E-03    -58.2909E-03     2.45593E-03    -40.4478E+06    -61.0991E+06    -249.675E+06    -61.1063E+06    -249.668E+06    -40.4478E+06    -767.889E+03         29.4482
            1247     4.71848E-03     66.1715E-03     765.287E-03     699.283E-03        -2.46814     712.073E-03        -2.41492     699.283E-03    -139.374E-03     116.287E-03    -58.0079E-03    -58.2979E-03    -57.9871E-03     116.266E-03    -58.2979E-03     3.72534E-03    -29.5654E+06    -55.9261E+06    -233.628E+06    -55.9265E+06    -233.628E+06    -29.5654E+06     168.142E+03         29.7400
            1248     5.66253E-03     66.1769E-03     734.550E-03     701.217E-03        -2.43801     709.008E-03        -2.41247     701.217E-03     117.461E-03     116.092E-03    -57.8540E-03    -58.2660E-03    -57.8122E-03     116.050E-03    -58.2660E-03     5.32815E-03    -20.9373E+06    -50.4224E+06    -209.280E+06    -50.4244E+06    -209.278E+06    -20.9373E+06     236.111E+03         30.1151
            1249     6.60673E-03     66.1824E-03     710.558E-03     691.463E-03        -2.40526     689.827E-03        -2.39412     701.054E-03    -70.4911E-03     115.990E-03    -57.7892E-03    -58.2288E-03    -57.7061E-03     115.907E-03    -58.2288E-03     7.47517E-03    -13.3081E+06    -45.1061E+06    -185.127E+06    -45.1099E+06    -185.123E+06    -13.3081E+06     184.393E+03         30.5980
            1250     7.55029E-03     66.1924E-03     701.866E-03     685.373E-03        -2.39430     683.388E-03        -2.38968     699.238E-03     66.3522E-03     115.991E-03    -57.8373E-03    -58.1873E-03    -57.6974E-03     115.851E-03    -58.1873E-03     9.80424E-03    -7.50880E+06    -41.0596E+06    -160.840E+06    -41.0622E+06    -160.838E+06    -7.50880E+06    -43.3851E+03         31.2151
            1251     8.49482E-03     66.2027E-03     701.634E-03     693.698E-03        -2.40060     695.722E-03        -2.39909     698.095E-03    -28.0779E-03     116.005E-03    -57.8881E-03    -58.1452E-03    -57.6678E-03     115.785E-03    -58.1452E-03     12.2799E-03    -3.17347E+06    -37.7604E+06    -135.854E+06    -37.7684E+06    -135.846E+06    -3.17347E+06    -84.6078E+03         31.9850
            1252     9.43837E-03     66.2181E-03     698.498E-03     689.853E-03        -2.39088     690.295E-03        -2.39041     697.587E-03     59.1840E-03     116.071E-03    -57.9426E-03    -58.0993E-03    -57.5220E-03     115.649E-03    -58.0973E-03     16.8480E-03    -1.57984E+06    -34.8134E+06    -106.171E+06    -34.8259E+06    -106.159E+06    -1.57984E+06     222.610E+03         33.0678
            1253     10.3825E-03     66.2387E-03     703.222E-03     688.172E-03        -2.39461     694.298E-03        -2.39459     697.077E-03     9.75708E-03     115.998E-03    -57.9234E-03    -58.0330E-03    -57.2431E-03     115.309E-03    -58.0242E-03     21.7699E-03    -2.79683E+06    -32.0198E+06    -67.8749E+06    -32.1393E+06    -67.7554E+06    -2.79683E+06     530.016E+03         34.7559
            1254     11.3266E-03     66.2652E-03     717.804E-03     696.379E-03        -2.41746     716.324E-03        -2.41728     697.675E-03     36.8057E-03     115.790E-03    -57.8145E-03    -57.9938E-03    -56.7853E-03     114.671E-03    -57.9041E-03     27.5058E-03     8.89198E+06    -22.7310E+06    -37.5567E+06    -30.3341E+06    -11.7404E+06    -9.32119E+06     942.465E+03         37.1743
            1255     12.2722E-03     66.2975E-03     712.952E-03     696.317E-03        -2.41289     710.162E-03        -2.41255     698.766E-03     1.90918E-03     116.291E-03    -57.7239E-03    -58.5748E-03    -56.1268E-03     113.878E-03    -57.7586E-03     39.9100E-03     67.2011E+06    -7.24802E+06    -29.0099E+06    -28.9791E+06     67.1702E+06    -7.24802E+06     862.506E+03         40.2899
            1256     13.2175E-03     66.3524E-03     698.888E-03     690.308E-03        -2.39513     690.287E-03        -2.39491     698.687E-03    -37.2468E-03     118.114E-03    -57.7781E-03    -60.3791E-03    -55.8571E-03     113.592E-03    -57.7781E-03     55.6694E-03     121.624E+06     19.1014E+06    -26.3636E+06    -26.3225E+06     121.583E+06     19.1014E+06     43.8849E+03         44.0679
            1257     14.1635E-03     66.4179E-03     697.756E-03     689.714E-03        -2.38988     689.479E-03        -2.38965     697.756E-03     26.7439E-03     128.264E-03    -57.9236E-03    -70.4616E-03    -57.2261E-03     115.029E-03    -57.9236E-03     95.2923E-03     136.574E+06     57.3766E+06    -21.7131E+06    -21.6486E+06     136.510E+06     57.3766E+06     52.5629E+03         48.2965
            1258     15.1045E-03     66.5656E-03     696.595E-03     686.505E-03        -2.38157     686.277E-03        -2.38134     696.595E-03     14.5459E-03     147.482E-03    -58.0862E-03    -89.5342E-03    -58.0573E-03     116.005E-03    -58.0862E-03     159.093E-03     148.211E+06     99.0846E+06    -15.6983E+06    -15.6476E+06     148.161E+06     99.0846E+06     490.851E+03         52.3189
            1259     16.0513E-03     66.7772E-03     698.127E-03     684.098E-03        -2.37946     686.026E-03        -2.37868     695.415E-03     48.5185E-03     139.131E-03    -58.1790E-03    -81.0258E-03    -56.2875E-03     114.393E-03    -58.1790E-03     131.144E-03     156.284E+06     125.961E+06    -7.58208E+06    -7.55428E+06     156.256E+06     125.961E+06     895.539E+03         55.4241
            1260     943.978E-06     67.2871E-03         2.62532         1.90397        -5.52016    -512.869E-03        -2.38197         1.90397        -3.21725     116.086E-03    -57.8380E-03    -58.2503E-03    -58.1976E-03     116.085E-03    -57.8899E-03     406.905E-06    -67.0880E+06    -70.5188E+06    -264.216E+06    -70.2033E+06    -264.205E+06    -67.4147E+06     190.880E+03         28.9918
            1261     1.88769E-03     67.2891E-03         1.50733     698.767E-03        -3.19887     710.254E-03        -2.40179     698.767E-03     979.013E-03     116.374E-03    -58.1046E-03    -58.2774E-03    -58.2408E-03     116.373E-03    -58.1399E-03     925.667E-06    -59.7162E+06    -68.6165E+06    -262.152E+06    -68.6234E+06    -262.145E+06    -59.7162E+06    -492.237E+03         29.0822
            1262     2.83139E-03     67.2889E-03     996.075E-03     701.632E-03        -2.69315     701.664E-03        -2.39874     701.632E-03    -527.233E-03     116.456E-03    -58.1000E-03    -58.3710E-03    -58.2352E-03     116.453E-03    -58.2326E-03     1.36445E-03    -50.1415E+06    -64.3918E+06    -256.102E+06    -64.4007E+06    -256.093E+06    -50.1415E+06    -982.097E+03         29.2332
            1263     3.77461E-03     67.2908E-03     804.137E-03     700.394E-03        -2.49320     690.493E-03        -2.37956     700.394E-03     250.331E-03     116.404E-03    -58.0664E-03    -58.3549E-03    -58.1301E-03     116.394E-03    -58.2814E-03     2.52336E-03    -40.2624E+06    -60.5541E+06    -250.587E+06    -60.5572E+06    -250.583E+06    -40.2624E+06    -305.189E+03         29.4511
            1264     4.71860E-03     67.2945E-03     747.596E-03     699.138E-03        -2.43158     699.055E-03        -2.38304     699.138E-03    -161.138E-03     116.243E-03    -57.9660E-03    -58.2965E-03    -57.9445E-03     116.221E-03    -58.2965E-03     3.80579E-03    -29.7022E+06    -55.5873E+06    -233.825E+06    -55.5876E+06    -233.825E+06    -29.7022E+06    -114.137E+03         29.7407
            1265     5.66264E-03     67.2982E-03     710.444E-03     696.481E-03        -2.39129     687.072E-03        -2.36962     698.180E-03     95.3015E-03     116.050E-03    -57.8200E-03    -58.2596E-03    -57.7764E-03     116.006E-03    -58.2596E-03     5.41957E-03    -21.1213E+06    -50.3692E+06    -209.470E+06    -50.3710E+06    -209.468E+06    -21.1213E+06     13.2694E+03         30.1137
            1266     6.60644E-03     67.3055E-03     703.942E-03     689.355E-03        -2.37943     687.205E-03        -2.36989     696.549E-03    -81.7969E-03     115.975E-03    -57.7842E-03    -58.2181E-03    -57.7001E-03     115.891E-03    -58.2181E-03     7.55136E-03    -14.1675E+06    -45.8908E+06    -185.571E+06    -45.8939E+06    -185.568E+06    -14.1675E+06     335.092E+03         30.5958
            1267     7.55107E-03     67.3137E-03     704.475E-03     687.707E-03        -2.38187     692.918E-03        -2.37828     695.670E-03     45.0336E-03     115.971E-03    -57.8241E-03    -58.1789E-03    -57.6819E-03     115.829E-03    -58.1789E-03     9.87078E-03    -8.15360E+06    -41.9552E+06    -160.432E+06    -41.9623E+06    -160.425E+06    -8.15360E+06     487.956E+03         31.2132
            1268     8.49441E-03     67.3263E-03     698.879E-03     691.000E-03        -2.38006     693.247E-03        -2.37877     695.339E-03    -47.4084E-03     115.937E-03    -57.8349E-03    -58.1317E-03    -57.6104E-03     115.713E-03    -58.1317E-03     12.4033E-03    -3.88922E+06    -38.5438E+06    -136.012E+06    -38.5538E+06    -136.002E+06    -3.88922E+06     474.693E+03         31.9830
            1269     9.43874E-03     67.3396E-03     703.123E-03     689.084E-03        -2.37874     696.686E-03        -2.37846     695.239E-03     37.5451E-03     116.047E-03    -57.9261E-03    -58.0794E-03    -57.4871E-03     115.604E-03    -58.0752E-03     17.2026E-03    -2.33499E+06    -35.0100E+06    -106.677E+06    -35.0287E+06    -106.658E+06    -2.33499E+06     596.242E+03         33.0664
            1270     10.3826E-03     67.3622E-03     702.142E-03     686.437E-03        -2.37391     693.312E-03        -2.37381     695.169E-03    -9.83046E-03     115.994E-03    -57.9343E-03    -58.0060E-03    -57.2345E-03     115.290E-03    -58.0018E-03     22.0331E-03    -3.33385E+06    -31.9531E+06    -68.4616E+06    -32.0673E+06    -68.3474E+06    -3.33385E+06     837.322E+03         34.7561
            1271     11.3277E-03     67.3860E-03     700.159E-03     685.475E-03        -2.37076     690.506E-03        -2.37047     694.839E-03     20.1840E-03     115.819E-03    -57.8178E-03    -58.0072E-03    -56.8091E-03     114.688E-03    -57.8853E-03     27.6177E-03     8.83334E+06    -22.8787E+06    -37.4472E+06    -29.6340E+06    -12.0942E+06    -9.76436E+06     966.251E+03         37.1759
            1272     12.2713E-03     67.4210E-03     699.678E-03     684.975E-03        -2.37048     689.997E-03        -2.37018     694.358E-03     16.6563E-03     116.328E-03    -57.7541E-03    -58.5808E-03    -56.1905E-03     113.937E-03    -57.7541E-03     39.8154E-03     67.8789E+06    -6.68506E+06    -27.3821E+06    -27.3590E+06     67.8559E+06    -6.68506E+06     873.354E+03         40.2917
            1273     13.2174E-03     67.4711E-03     693.556E-03     682.829E-03        -2.36493     682.664E-03        -2.36476     693.556E-03    -39.6138E-03     118.914E-03    -57.7970E-03    -61.1781E-03    -56.4760E-03     114.212E-03    -57.7970E-03     56.8193E-03     122.756E+06     21.1573E+06    -25.7110E+06    -25.6567E+06     122.701E+06     21.1573E+06     475.707E+03         44.0686
            1274     14.1598E-03     67.5456E-03     694.301E-03     686.157E-03        -2.36483     687.637E-03        -2.36459     692.578E-03     11.5168E-03     128.632E-03    -57.9636E-03    -70.7942E-03    -57.3178E-03     115.155E-03    -57.9636E-03     96.4745E-03     136.405E+06     58.8449E+06    -22.6323E+06    -22.5554E+06     136.328E+06     58.8449E+06     424.874E+03         48.2966
            1275     15.1063E-03     67.6859E-03     694.762E-03     689.517E-03        -2.36621     692.252E-03        -2.36591     691.724E-03     4.42341E-03     147.714E-03    -58.1127E-03    -89.7447E-03    -57.8277E-03     115.797E-03    -58.1127E-03     160.216E-03     147.483E+06     98.5654E+06    -16.6571E+06    -16.6014E+06     147.427E+06     98.5654E+06     701.763E+03         52.3215
            1276     16.0499E-03     67.9021E-03     695.276E-03     688.967E-03        -2.36469     692.646E-03        -2.36411     691.015E-03     15.2163E-03     139.430E-03    -58.1885E-03    -81.3143E-03    -56.3599E-03     114.476E-03    -58.1885E-03     131.354E-03     156.363E+06     125.297E+06    -8.22138E+06    -8.17670E+06     156.319E+06     125.297E+06     211.052E+03         55.4297
            1277     943.970E-06     68.4103E-03         2.47006         1.77691        -5.23356    -582.896E-03        -2.35084         1.94714        -2.95967     116.201E-03    -57.7796E-03    -58.4224E-03    -58.3740E-03     116.200E-03    -57.8274E-03     455.561E-06    -67.6037E+06    -70.3552E+06    -264.611E+06    -70.0448E+06    -264.595E+06    -67.9303E+06     505.618E+03         28.9891
            1278     1.88750E-03     68.4106E-03         1.39375     685.358E-03        -3.06116     694.805E-03        -2.36221     685.358E-03     904.292E-03     116.248E-03    -58.0470E-03    -58.2087E-03    -58.0979E-03     116.247E-03    -58.1568E-03     720.698E-06    -58.4330E+06    -66.7083E+06    -260.631E+06    -66.7133E+06    -260.626E+06    -58.4330E+06     447.081E+03         29.0795
            1279     2.83143E-03     68.4118E-03     957.833E-03     690.500E-03        -2.63000     707.237E-03        -2.37941     690.500E-03    -482.155E-03     116.367E-03    -58.0933E-03    -58.2854E-03    -58.1636E-03     116.364E-03    -58.2119E-03     1.40439E-03    -48.9175E+06    -63.2267E+06    -256.505E+06    -63.2290E+06    -256.503E+06    -48.9175E+06     161.581E+03         29.2320
            1280     3.77494E-03     68.4134E-03     795.994E-03     693.932E-03        -2.46447     699.189E-03        -2.36767     693.932E-03     212.370E-03     116.336E-03    -58.0324E-03    -58.3241E-03    -58.0956E-03     116.326E-03    -58.2506E-03     2.58750E-03    -39.2372E+06    -58.6184E+06    -250.807E+06    -58.6201E+06    -250.805E+06    -39.2372E+06      366.27E+03         29.4502
            1281     4.71892E-03     68.4160E-03     735.749E-03     694.237E-03        -2.39994     690.902E-03        -2.35510     694.237E-03    -143.371E-03     116.180E-03    -57.9460E-03    -58.2573E-03    -57.9215E-03     116.156E-03    -58.2573E-03     4.04229E-03    -29.9943E+06    -54.3988E+06    -234.189E+06    -54.4013E+06    -234.187E+06    -29.9943E+06     226.912E+03         29.7392
            1282     5.66266E-03     68.4211E-03     701.433E-03     691.113E-03        -2.36154     679.972E-03        -2.34178     692.813E-03     111.689E-03     116.094E-03    -57.8992E-03    -58.2257E-03    -57.8540E-03     116.049E-03    -58.2257E-03     5.54634E-03    -22.0095E+06    -50.4156E+06    -209.835E+06    -50.4192E+06    -209.832E+06    -22.0095E+06     452.579E+03         30.1132
            1283     6.60697E-03     68.4268E-03     699.760E-03     686.357E-03        -2.35599     687.471E-03        -2.34878     691.434E-03    -81.3115E-03     116.041E-03    -57.8731E-03    -58.2004E-03    -57.7855E-03     115.953E-03    -58.2004E-03     7.66650E-03    -14.6376E+06    -46.1570E+06    -185.695E+06    -46.1618E+06    -185.690E+06    -14.6376E+06     608.279E+03         30.5966
            1284     7.55025E-03     68.4368E-03     697.002E-03     682.541E-03        -2.35289     686.277E-03        -2.35045     690.825E-03     35.1060E-03     115.955E-03    -57.8234E-03    -58.1755E-03    -57.6806E-03     115.813E-03    -58.1755E-03     9.91158E-03    -8.29823E+06    -41.8468E+06    -161.110E+06    -41.8553E+06    -161.101E+06    -8.29823E+06     736.108E+03         31.2140
            1285     8.49507E-03     68.4476E-03     690.130E-03     683.286E-03        -2.34882     682.598E-03        -2.34807     690.063E-03    -64.7893E-03     115.784E-03    -57.6907E-03    -58.1255E-03    -57.4676E-03     115.561E-03    -58.1255E-03     12.3313E-03    -3.38039E+06    -37.5505E+06    -135.893E+06    -37.5611E+06    -135.883E+06    -3.38039E+06     645.220E+03         31.9823
            1286     9.43909E-03     68.4626E-03     701.294E-03     688.159E-03        -2.36104     699.413E-03        -2.36103     690.029E-03     3.90654E-03     115.869E-03    -57.7722E-03    -58.0557E-03    -57.3299E-03     115.424E-03    -58.0535E-03     17.2278E-03    -2.21518E+06    -34.1113E+06    -106.829E+06    -34.1312E+06    -106.809E+06    -2.21518E+06     620.427E+03         33.0645
            1287     10.3835E-03     68.4839E-03     703.835E-03     687.676E-03        -2.35862     700.579E-03        -2.35852     690.827E-03    -20.5356E-03     115.908E-03    -57.8933E-03    -57.9708E-03    -57.1943E-03     115.207E-03    -57.9687E-03     21.9814E-03    -3.43337E+06    -31.1999E+06    -68.6689E+06    -31.2660E+06    -68.6028E+06    -3.43337E+06     662.205E+03         34.7564
            1288     11.3271E-03     68.5088E-03     692.570E-03     680.041E-03        -2.33912     681.654E-03        -2.33892     690.760E-03    -538.399E-06     115.787E-03    -57.8246E-03    -57.9758E-03    -56.8315E-03     114.670E-03    -57.8518E-03     27.4596E-03     9.26517E+06    -22.5388E+06    -37.0557E+06    -28.9528E+06    -11.6767E+06    -9.69977E+06     554.120E+03         37.1786
            1289     12.2732E-03     68.5418E-03     689.785E-03     678.461E-03        -2.33606     678.354E-03        -2.33595     689.785E-03     15.4162E-03     116.678E-03    -57.7416E-03    -58.9586E-03    -56.5988E-03     114.318E-03    -57.7416E-03     39.6529E-03     67.8781E+06    -7.27049E+06    -27.8351E+06    -27.8043E+06     67.8473E+06    -7.27049E+06     789.038E+03         40.2945
            1290     13.2171E-03     68.5944E-03     688.646E-03     675.031E-03        -2.33219     674.996E-03        -2.33216     688.646E-03    -17.8897E-03     119.136E-03    -57.7912E-03    -61.4110E-03    -56.4573E-03     114.182E-03    -57.7912E-03     58.1490E-03     122.417E+06     19.7340E+06    -25.7782E+06    -25.7370E+06     122.376E+06     19.7340E+06     1.95260E+06         44.0711
            1291     14.1619E-03     68.6702E-03     689.024E-03     671.027E-03        -2.32630     672.620E-03        -2.32617     687.301E-03     12.4718E-03     127.864E-03    -57.9309E-03    -70.0630E-03    -56.3373E-03     114.139E-03    -57.9309E-03     97.3855E-03     136.169E+06     57.8735E+06    -22.1974E+06    -22.1493E+06     136.121E+06     57.8735E+06     1.42985E+06         48.3016
            1292     15.1067E-03     68.8052E-03     688.864E-03     676.382E-03        -2.32888     679.058E-03        -2.32851     685.827E-03    -15.5492E-03     148.267E-03    -58.0490E-03    -90.3684E-03    -57.6102E-03     115.508E-03    -58.0490E-03     162.366E-03     147.684E+06     99.6095E+06    -15.9250E+06    -15.8600E+06     147.619E+06     99.6095E+06    -126.328E+03         52.3303
            1293     16.0523E-03     69.0294E-03     685.806E-03     671.676E-03        -2.32065     672.883E-03        -2.32030     684.258E-03    -18.4199E-03     140.376E-03    -58.1256E-03    -82.3151E-03    -57.1370E-03     115.198E-03    -58.1256E-03     130.652E-03     156.701E+06     125.973E+06    -8.11868E+06    -8.05195E+06     156.635E+06     125.973E+06    -242.629E+03         55.4398
            1294     943.320E-06     69.5321E-03         2.47032         1.56610        -4.99979    -625.959E-03        -2.37629         2.03888        -2.69423     116.358E-03    -57.9981E-03    -58.3586E-03    -58.2527E-03     116.357E-03    -58.1032E-03     630.375E-06    -67.4355E+06    -69.2452E+06    -264.578E+06    -69.0013E+06    -264.562E+06    -67.6948E+06    -311.226E+03         28.9877
            1295     1.88756E-03     69.5325E-03         1.28454     698.979E-03        -2.94338     668.071E-03        -2.32692     698.979E-03     879.982E-03     116.233E-03    -58.0429E-03    -58.1961E-03    -58.0416E-03     116.232E-03    -58.1961E-03     795.398E-06    -60.1524E+06    -66.1966E+06    -261.400E+06    -66.2159E+06    -261.381E+06    -60.1524E+06     818.845E+03         29.0750
            1296     2.83117E-03     69.5339E-03     904.625E-03     690.749E-03        -2.55671     687.629E-03        -2.33972     690.749E-03    -382.882E-03     116.148E-03    -57.9703E-03    -58.1906E-03    -57.9670E-03     116.145E-03    -58.1906E-03     1.50810E-03    -50.6273E+06    -63.1661E+06    -256.887E+06    -63.1809E+06    -256.872E+06    -50.6273E+06     913.132E+03         29.2273
            1297     3.77545E-03     69.5354E-03     773.276E-03     689.601E-03        -2.42181     684.535E-03        -2.33307     689.601E-03     235.972E-03     116.133E-03    -57.9616E-03    -58.1953E-03    -57.9524E-03     116.124E-03    -58.1953E-03     2.44210E-03    -40.0262E+06    -59.2344E+06    -251.274E+06    -59.2414E+06    -251.267E+06    -40.0262E+06     662.034E+03         29.4475
            1298     4.71913E-03     69.5382E-03     725.858E-03     688.836E-03        -2.36920     687.620E-03        -2.33096     688.836E-03    -115.828E-03     116.175E-03    -57.9965E-03    -58.2050E-03    -57.9723E-03     116.151E-03    -58.2050E-03     3.99456E-03    -29.7908E+06    -54.3973E+06    -234.256E+06    -54.4048E+06    -234.249E+06    -29.7908E+06     997.756E+03         29.7383
            1299     5.66323E-03     69.5430E-03     708.016E-03     688.836E-03        -2.35047     690.495E-03        -2.33295     688.836E-03     109.227E-03     116.146E-03    -57.9871E-03    -58.1894E-03    -57.9426E-03     116.102E-03    -58.1894E-03     5.52222E-03    -22.0090E+06    -49.8948E+06    -209.725E+06    -49.8973E+06    -209.723E+06    -22.0090E+06     537.758E+03         30.1140
            1300     6.60662E-03     69.5493E-03     694.323E-03     678.991E-03        -2.32904     678.406E-03        -2.32239     688.253E-03    -63.6567E-03     116.045E-03    -57.9028E-03    -58.1782E-03    -57.8148E-03     115.957E-03    -58.1782E-03     7.66642E-03    -14.7473E+06    -45.3639E+06    -186.282E+06    -45.3681E+06    -186.278E+06    -14.7473E+06     598.876E+03         30.5986
            1301     7.55112E-03     69.5591E-03     686.644E-03     674.936E-03        -2.31761     672.514E-03        -2.31519     686.644E-03     50.9234E-03     115.901E-03    -57.7899E-03    -58.1543E-03    -57.6439E-03     115.755E-03    -58.1543E-03     10.0270E-03    -8.26853E+06    -41.0078E+06    -161.474E+06    -41.0164E+06    -161.465E+06    -8.26853E+06     848.781E+03         31.2170
            1302     8.49464E-03     69.5698E-03     685.619E-03     682.777E-03        -2.32708     682.265E-03        -2.32650     685.551E-03    -42.4418E-03     115.812E-03    -57.7296E-03    -58.1095E-03    -57.5081E-03     115.591E-03    -58.1095E-03     12.3048E-03    -3.52936E+06    -37.2268E+06    -135.946E+06    -37.2368E+06    -135.936E+06    -3.52936E+06     785.654E+03         31.9860
            1303     9.43921E-03     69.5845E-03     689.523E-03     679.154E-03        -2.32478     683.360E-03        -2.32469     685.232E-03     21.0414E-03     115.792E-03    -57.7203E-03    -58.0475E-03    -57.2863E-03     115.358E-03    -58.0475E-03     17.0162E-03    -1.88098E+06    -33.8437E+06    -106.538E+06    -33.8702E+06    -106.512E+06    -1.88098E+06     873.538E+03         33.0680
            1304     10.3835E-03     69.6062E-03     691.084E-03     679.031E-03        -2.32054     685.034E-03        -2.32050     685.050E-03    -1.90739E-03     115.774E-03    -57.7981E-03    -57.9569E-03    -57.1146E-03     115.091E-03    -57.9569E-03     21.6880E-03    -3.45374E+06    -31.3334E+06    -68.5942E+06    -31.4052E+06    -68.5224E+06    -3.45374E+06     773.889E+03         34.7596
            1305     11.3287E-03     69.6308E-03     688.197E-03     682.004E-03        -2.31803     685.239E-03        -2.31799     684.922E-03     580.257E-06     115.867E-03    -57.8127E-03    -58.0835E-03    -56.9910E-03     114.803E-03    -57.8411E-03     26.8531E-03     8.87362E+06    -22.6871E+06    -37.4706E+06    -29.5992E+06    -11.7984E+06    -9.88644E+06     585.394E+03         37.1819
            1306     12.2717E-03     69.6641E-03     685.992E-03     677.638E-03        -2.31241     679.048E-03        -2.31235     684.527E-03    -2.90196E-03     116.914E-03    -57.7431E-03    -59.2060E-03    -56.8170E-03     114.525E-03    -57.7431E-03     39.7432E-03     66.8967E+06    -7.72461E+06    -28.6987E+06    -28.6628E+06     66.8607E+06    -7.72461E+06     1.27809E+06         40.2975
            1307     13.2163E-03     69.7178E-03     683.681E-03     673.459E-03        -2.30606     673.418E-03        -2.30602     683.681E-03    -19.6448E-03     118.300E-03    -57.7643E-03    -60.5976E-03    -55.7391E-03     113.442E-03    -57.7643E-03     57.4762E-03     120.725E+06     17.6832E+06    -26.0958E+06    -26.0709E+06     120.700E+06     17.6832E+06     1.87745E+06         44.0758
            1308     14.1633E-03     69.7891E-03     682.147E-03     659.662E-03        -2.29084     659.587E-03        -2.29076     682.147E-03     13.5033E-03     127.132E-03    -57.8616E-03    -69.3963E-03    -55.6701E-03     113.406E-03    -57.8616E-03     96.7963E-03     137.184E+06     57.6788E+06    -20.3502E+06    -20.3248E+06     137.159E+06     57.6788E+06     946.434E+03         48.3099
            1309     15.1102E-03     69.9298E-03     679.683E-03     649.420E-03        -2.27759     649.099E-03        -2.27726     679.683E-03    -18.5507E-03     148.087E-03    -57.9740E-03    -90.2582E-03    -57.5944E-03     115.424E-03    -57.9740E-03     162.160E-03     149.128E+06     101.127E+06    -14.4014E+06    -14.3257E+06     149.052E+06     101.127E+06     188.327E+03         52.3406
            1310     16.0539E-03     70.1521E-03     676.896E-03     646.494E-03        -2.26937     645.669E-03        -2.26854     676.896E-03     14.4563E-03     140.248E-03    -58.0687E-03    -82.2274E-03    -57.5369E-03     115.557E-03    -58.0687E-03     128.718E-03     156.712E+06     126.083E+06    -8.35943E+06    -8.28341E+06     156.636E+06     126.083E+06     112.272E+03         55.4502
            1311     944.070E-06     70.6545E-03         2.44936         1.38224        -4.77008    -640.295E-03        -2.36764         2.06946        -2.49921     116.273E-03    -57.9520E-03    -58.3205E-03    -58.2622E-03     116.272E-03    -58.0093E-03     798.501E-06    -66.6641E+06    -69.9501E+06    -265.490E+06    -69.7069E+06    -265.474E+06    -66.9234E+06     922.197E+03         28.9813
            1312     1.88734E-03     70.6546E-03         1.21618     709.815E-03        -2.86640     689.253E-03        -2.33947     709.815E-03     784.927E-03     116.193E-03    -58.0206E-03    -58.1785E-03    -58.0343E-03     116.192E-03    -58.1637E-03     835.554E-06    -61.3582E+06    -67.5820E+06    -263.090E+06    -67.6052E+06    -263.067E+06    -61.3582E+06     467.561E+03         29.0709
            1313     2.83155E-03     70.6557E-03     855.336E-03     698.971E-03        -2.50000     664.737E-03        -2.30940     698.971E-03    -361.768E-03     116.090E-03    -57.9477E-03    -58.1553E-03    -57.9441E-03     116.086E-03    -58.1553E-03     1.53505E-03    -51.8989E+06    -63.7108E+06    -257.265E+06    -63.7490E+06    -257.227E+06    -51.8989E+06     1.28476E+06         29.2251
            1314     3.77533E-03     70.6571E-03     737.300E-03     689.529E-03        -2.36871     659.655E-03        -2.29107     689.529E-03     216.918E-03     116.171E-03    -58.0205E-03    -58.1704E-03    -58.0120E-03     116.162E-03    -58.1704E-03     2.38389E-03    -40.8149E+06    -59.9816E+06    -251.125E+06    -60.0104E+06    -251.096E+06    -40.8149E+06     1.09934E+06         29.4480
            1315     4.71934E-03     70.6606E-03     714.806E-03     685.420E-03        -2.33773     681.737E-03        -2.30466     685.420E-03    -104.849E-03     116.154E-03    -57.9852E-03    -58.1895E-03    -57.9641E-03     116.133E-03    -58.1895E-03     3.71998E-03    -31.0434E+06    -55.1284E+06    -234.090E+06    -55.1363E+06    -234.082E+06    -31.0434E+06     596.262E+03         29.7391
            1316     5.66289E-03     70.6653E-03     705.638E-03     685.431E-03        -2.32811     690.142E-03        -2.31261     685.431E-03     97.3105E-03     116.070E-03    -57.9220E-03    -58.1730E-03    -57.8771E-03     116.025E-03    -58.1730E-03     5.51480E-03    -22.6023E+06    -50.0865E+06    -209.549E+06    -50.0901E+06    -209.545E+06    -22.6023E+06     697.606E+03         30.1141
            1317     6.60709E-03     70.6719E-03     700.765E-03     680.058E-03        -2.31775     687.792E-03        -2.31066     685.941E-03    -33.7527E-03     115.989E-03    -57.8629E-03    -58.1574E-03    -57.7799E-03     115.906E-03    -58.1574E-03     7.51237E-03    -15.3931E+06    -45.8093E+06    -186.743E+06    -45.8132E+06    -186.739E+06    -15.3931E+06     694.411E+03         30.5997
            1318     7.55086E-03     70.6805E-03     691.739E-03     675.390E-03        -2.30516     678.171E-03        -2.30181     685.607E-03     68.5890E-03     115.900E-03    -57.8060E-03    -58.1302E-03    -57.6632E-03     115.758E-03    -58.1302E-03     9.87541E-03    -9.25259E+06    -41.6572E+06    -162.154E+06    -41.6652E+06    -162.146E+06    -9.25259E+06     903.771E+03         31.2201
            1319     8.49543E-03     70.6927E-03     684.385E-03     671.532E-03        -2.29491     670.672E-03        -2.29405     684.385E-03    -21.1639E-03     115.918E-03    -57.8488E-03    -58.0967E-03    -57.6347E-03     115.704E-03    -58.0967E-03     12.1450E-03    -3.85081E+06    -37.9478E+06    -135.864E+06    -37.9638E+06    -135.848E+06    -3.85081E+06     1.07850E+06         31.9920
            1320     9.43899E-03     70.7062E-03     682.508E-03     660.882E-03        -2.27954     660.602E-03        -2.27926     682.508E-03     48.2102E-03     115.879E-03    -57.8173E-03    -58.0512E-03    -57.4052E-03     115.467E-03    -58.0512E-03     16.5422E-03    -2.10990E+06    -34.7444E+06    -106.709E+06    -34.7757E+06    -106.678E+06    -2.10990E+06     969.098E+03         33.0755
            1321     10.3837E-03     70.7284E-03     680.622E-03     664.465E-03        -2.27754     664.445E-03        -2.27752     680.622E-03     5.86190E-03     115.776E-03    -57.8015E-03    -57.9705E-03    -57.1297E-03     115.104E-03    -57.9705E-03     21.4864E-03    -3.27287E+06    -31.5439E+06    -68.8518E+06    -31.6627E+06     -68.733E+06    -3.27287E+06     940.350E+03         34.7651
            1322     11.3270E-03     70.7531E-03     681.117E-03     674.972E-03        -2.28688     676.249E-03        -2.28670     679.652E-03     23.3180E-03     115.932E-03    -57.8177E-03    -58.1502E-03    -57.0445E-03     114.866E-03    -57.8576E-03     26.8788E-03     8.93383E+06    -22.6748E+06    -37.8412E+06    -29.8395E+06    -11.9671E+06    -9.77554E+06     900.902E+03         37.1853
            1323     12.2725E-03     70.7866E-03     680.531E-03     670.289E-03        -2.28361     671.538E-03        -2.28340     679.066E-03     14.5986E-03     116.854E-03    -57.7547E-03    -59.1274E-03    -56.7275E-03     114.454E-03    -57.7547E-03     39.8103E-03     66.4673E+06    -6.88151E+06    -27.4310E+06    -27.4055E+06     66.4418E+06    -6.88151E+06     1.08822E+06         40.3008
            1324     13.2175E-03     70.8398E-03     678.015E-03     664.012E-03        -2.27601     663.976E-03        -2.27597     678.015E-03    -16.5714E-03     117.935E-03    -57.7602E-03    -60.2256E-03    -55.7059E-03     113.416E-03    -57.7602E-03     55.5756E-03     121.133E+06     18.3769E+06    -24.2622E+06    -24.2420E+06     121.113E+06     18.3769E+06     647.126E+03         44.0799
            1325     14.1635E-03     70.9082E-03     676.333E-03     654.934E-03        -2.26494     654.801E-03        -2.26481     676.333E-03     23.3750E-03     127.357E-03    -57.8651E-03    -69.6075E-03    -55.9976E-03     113.747E-03    -57.8651E-03     95.7936E-03     136.813E+06     56.9000E+06    -20.5924E+06    -20.5323E+06     136.753E+06     56.9000E+06     714.277E+03         48.3146
            1326     15.1074E-03     71.0544E-03     673.713E-03     638.368E-03        -2.24624     638.003E-03        -2.24587     673.713E-03    -9.28025E-03     147.406E-03    -57.9887E-03    -89.5506E-03    -57.1953E-03     115.051E-03    -57.9887E-03     161.088E-03     148.488E+06     100.295E+06    -14.9632E+06    -14.8780E+06     148.403E+06     100.295E+06     1.46284E+06         52.3466
            1327     16.0532E-03     71.2725E-03     670.821E-03     640.221E-03        -2.24040     639.267E-03        -2.23945     670.821E-03     26.5447E-03     139.704E-03    -58.0688E-03    -81.6794E-03    -57.1667E-03     115.191E-03    -58.0688E-03     128.865E-03     157.798E+06     126.134E+06    -8.07809E+06    -8.02900E+06     157.749E+06     126.134E+06     489.918E+03         55.4583
            1328     943.639E-06     71.7764E-03         2.40743         1.20796        -4.53006    -694.754E-03        -2.29007         2.07016        -2.33441     116.058E-03    -57.8430E-03    -58.2167E-03    -58.2019E-03     116.058E-03    -57.8570E-03     671.457E-06    -66.8534E+06    -71.4155E+06    -267.679E+06    -70.4777E+06    -267.663E+06    -67.8072E+06     1.73610E+06         28.9779
            1329     1.88778E-03     71.7768E-03         1.14383     686.809E-03        -2.75020     681.162E-03        -2.28753     686.809E-03     691.424E-03     116.187E-03    -58.0228E-03    -58.1701E-03    -58.0909E-03     116.186E-03    -58.1012E-03     704.838E-06    -59.7651E+06    -67.9093E+06    -263.596E+06    -67.9366E+06    -263.569E+06    -59.7651E+06     1.34913E+06         29.0721
            1330     2.83159E-03     71.7772E-03     836.342E-03     683.498E-03        -2.44362     672.294E-03        -2.27957     683.498E-03    -381.735E-03     116.258E-03    -58.0603E-03    -58.2084E-03    -58.1111E-03     116.254E-03    -58.1544E-03     1.38908E-03    -51.2666E+06    -64.5939E+06    -258.275E+06    -64.6386E+06    -258.230E+06    -51.2666E+06     1.30450E+06         29.2289
            1331     3.77535E-03     71.7800E-03     741.604E-03     681.115E-03        -2.34386     677.268E-03        -2.27953     681.115E-03     138.469E-03     116.264E-03    -58.0846E-03    -58.1938E-03    -58.0764E-03     116.256E-03    -58.1938E-03     2.34486E-03    -40.8424E+06    -59.2301E+06    -250.303E+06    -59.2617E+06    -250.271E+06    -40.8424E+06     1.04730E+06         29.4516
            1332     4.71876E-03     71.7823E-03     715.737E-03     680.850E-03        -2.31656     683.285E-03        -2.28411     680.850E-03    -115.117E-03     116.150E-03    -57.9582E-03    -58.2095E-03    -57.9380E-03     116.130E-03    -58.2095E-03     3.64144E-03    -31.3972E+06    -54.7508E+06    -233.836E+06    -54.7601E+06    -233.826E+06    -31.3972E+06     569.371E+03         29.7413
            1333     5.66327E-03     71.7873E-03     696.584E-03     681.049E-03        -2.29548     680.833E-03        -2.27973     681.049E-03     73.7488E-03     115.984E-03    -57.8229E-03    -58.1849E-03    -57.7789E-03     115.940E-03    -58.1849E-03     5.44883E-03    -22.8193E+06    -50.2897E+06    -210.379E+06    -50.2946E+06    -210.374E+06    -22.8193E+06     776.085E+03         30.1148
            1334     6.60699E-03     71.7940E-03     698.153E-03     681.636E-03        -2.29956     690.648E-03        -2.29206     681.636E-03    -61.9490E-03     115.999E-03    -57.8665E-03    -58.1609E-03    -57.7877E-03     115.920E-03    -58.1609E-03     7.34245E-03    -15.2406E+06    -45.9322E+06    -186.859E+06    -45.9385E+06    -186.853E+06    -15.2406E+06     940.987E+03         30.6006
            1335     7.55109E-03     71.8030E-03     690.692E-03     677.277E-03        -2.28939     682.241E-03        -2.28588     682.222E-03     30.4862E-03     116.035E-03    -57.9276E-03    -58.1421E-03    -57.7904E-03     115.898E-03    -58.1421E-03     9.66811E-03    -8.99405E+06    -42.1518E+06    -162.633E+06    -42.1680E+06    -162.617E+06    -8.99405E+06     1.19404E+06         31.2216
            1336     8.49457E-03     71.8147E-03     681.078E-03     663.238E-03        -2.26512     661.787E-03        -2.26366     681.078E-03    -55.7501E-03     115.954E-03    -57.8667E-03    -58.1123E-03    -57.6571E-03     115.745E-03    -58.1123E-03     12.0213E-03    -3.74632E+06    -38.2581E+06    -136.012E+06    -38.2823E+06    -135.988E+06    -3.74632E+06     1.37214E+06         31.9951
            1337     9.43883E-03     71.8292E-03     678.880E-03     658.127E-03        -2.25581     657.921E-03        -2.25560     678.880E-03     32.6180E-03     116.052E-03    -57.8885E-03    -58.1428E-03    -57.5603E-03     115.652E-03    -58.0709E-03     16.3323E-03    -1.66767E+06    -34.6728E+06    -106.462E+06    -34.7086E+06    -106.426E+06    -1.66767E+06     1.08552E+06         33.0803
            1338     10.3827E-03     71.8498E-03     676.985E-03     660.124E-03        -2.25398     660.096E-03        -2.25396     676.985E-03    -3.22452E-03     115.941E-03    -57.8512E-03    -58.0753E-03    -57.2712E-03     115.290E-03    -58.0034E-03     21.1764E-03    -3.09645E+06    -31.9621E+06    -69.0565E+06    -32.0817E+06    -68.9370E+06    -3.09645E+06     1.05001E+06         34.7687
            1339     11.3283E-03     71.8758E-03     675.374E-03     657.731E-03        -2.24907     657.525E-03        -2.24887     675.374E-03     20.0231E-03     115.919E-03    -57.7887E-03    -58.1601E-03    -57.0010E-03     114.865E-03    -57.8940E-03     26.6919E-03     9.16296E+06    -22.8789E+06    -38.1881E+06    -30.1724E+06    -12.1514E+06    -9.58027E+06     1.13689E+06         37.1872
            1340     12.2715E-03     71.9087E-03     673.635E-03     652.671E-03        -2.24426     652.425E-03        -2.24401     673.635E-03     12.0177E-03     116.542E-03    -57.7815E-03    -58.7819E-03    -56.4724E-03     114.232E-03    -57.7815E-03     39.0829E-03     66.5548E+06    -6.52990E+06    -28.5538E+06    -28.5077E+06     66.5087E+06    -6.52990E+06     258.383E+03         40.3035
            1341     13.2160E-03     71.9623E-03     671.701E-03     649.076E-03        -2.24020     648.977E-03        -2.24010     671.701E-03    -27.3363E-03     118.225E-03    -57.7852E-03    -60.4763E-03    -55.9599E-03     113.708E-03    -57.7852E-03     55.5268E-03     120.839E+06     18.0653E+06    -25.6607E+06    -25.6300E+06     120.808E+06     18.0653E+06    -194.402E+03         44.0834
            1342     14.1606E-03     72.0295E-03     669.582E-03     646.981E-03        -2.23536     646.748E-03        -2.23513     669.582E-03     21.9018E-03     128.322E-03    -57.9125E-03    -70.5024E-03    -56.7780E-03     114.598E-03    -57.9125E-03     96.7555E-03     136.289E+06     55.1907E+06    -21.7269E+06    -21.6688E+06     136.231E+06     55.1907E+06     1.29958E+06         48.3176
            1343     15.1071E-03     72.1770E-03     667.035E-03     640.950E-03        -2.22449     640.410E-03        -2.22395     667.035E-03    -11.4315E-03     146.973E-03    -58.0548E-03    -89.0331E-03    -56.9780E-03     114.918E-03    -58.0548E-03     160.073E-03     148.505E+06     99.1448E+06    -15.6323E+06    -15.5740E+06     148.446E+06     99.1448E+06     1.44348E+06         52.3500
            1344     16.0542E-03     72.3918E-03     664.413E-03     640.573E-03        -2.21896     639.955E-03        -2.21834     664.413E-03    -6.96583E-03     139.164E-03    -58.1165E-03    -81.0989E-03    -56.4889E-03     114.554E-03    -58.1165E-03     129.869E-03     158.502E+06     127.004E+06    -7.08619E+06    -7.06432E+06     158.480E+06     127.004E+06     412.961E+03         55.4642
            1345     944.173E-06     72.8983E-03         2.34621         1.06223        -4.29858    -739.679E-03        -2.20818         2.05772        -2.18746     116.106E-03    -57.9395E-03    -58.1701E-03    -57.9876E-03     116.106E-03    -58.1217E-03     329.617E-06    -70.2922E+06    -73.4121E+06    -270.067E+06    -72.4689E+06    -270.056E+06    -71.2461E+06     399.265E+03         28.9866
            1346     1.88788E-03     72.8984E-03         1.05975     657.736E-03        -2.61701     653.543E-03        -2.21080     657.736E-03     662.149E-03     116.275E-03    -58.0896E-03    -58.1912E-03    -58.1447E-03     116.274E-03    -58.1353E-03     601.146E-06    -60.6986E+06    -68.2758E+06    -265.059E+06    -68.2989E+06    -265.036E+06    -60.6986E+06     1.76793E+06         29.0801
            1347     2.83114E-03     72.8999E-03     825.937E-03     661.563E-03        -2.38975     690.889E-03        -2.25470     661.563E-03    -318.528E-03     116.394E-03    -58.1421E-03    -58.2604E-03    -58.1954E-03     116.391E-03    -58.2044E-03     1.30102E-03    -50.2546E+06    -63.8870E+06    -257.773E+06    -63.9181E+06    -257.742E+06    -50.2546E+06     1.62505E+06         29.2360
            1348     3.77493E-03     72.9014E-03     752.595E-03     670.004E-03        -2.32628     698.552E-03        -2.27224     670.004E-03     138.015E-03     116.256E-03    -58.0302E-03    -58.2381E-03    -58.0217E-03     116.248E-03    -58.2381E-03     2.33502E-03    -40.6331E+06    -60.0335E+06    -250.520E+06    -60.0511E+06    -250.502E+06    -40.6331E+06     978.673E+03         29.4568
            1349     4.71926E-03     72.9050E-03     715.543E-03     674.760E-03        -2.29375     686.806E-03        -2.26501     674.760E-03    -78.8776E-03     116.217E-03    -57.9916E-03    -58.2464E-03    -57.9723E-03     116.198E-03    -58.2464E-03     3.61583E-03    -30.2646E+06    -54.9743E+06    -233.340E+06    -54.9812E+06    -233.333E+06    -30.2646E+06     706.839E+03         29.7459
            1350     5.66260E-03     72.9090E-03     688.338E-03     675.652E-03        -2.26544     672.186E-03        -2.24929     675.652E-03     69.8364E-03     116.114E-03    -57.9133E-03    -58.2267E-03    -57.8735E-03     116.074E-03    -58.2267E-03     5.17021E-03    -22.4352E+06    -50.2468E+06    -210.995E+06    -50.2506E+06    -210.991E+06    -22.4352E+06     625.685E+03         30.1187
            1351     6.60698E-03     72.9164E-03     680.923E-03     671.351E-03        -2.25411     669.656E-03        -2.24644     674.946E-03    -70.8262E-03     116.048E-03    -57.8697E-03    -58.2050E-03    -57.7923E-03     115.970E-03    -58.2050E-03     7.24912E-03    -15.0545E+06    -45.8619E+06    -187.920E+06    -45.8725E+06    -187.910E+06    -15.0545E+06     1.16650E+06         30.6018
            1352     7.55049E-03     72.9253E-03     676.454E-03     668.815E-03        -2.24925     667.947E-03        -2.24604     674.115E-03     35.0020E-03     116.041E-03    -57.8961E-03    -58.1806E-03    -57.7624E-03     115.908E-03    -58.1806E-03     9.56372E-03    -8.03144E+06    -41.3722E+06    -162.630E+06    -41.3921E+06    -162.610E+06    -8.03144E+06     1.36575E+06         31.2207
            1353     8.49464E-03     72.9372E-03     673.849E-03     666.840E-03        -2.24571     666.285E-03        -2.24456     673.250E-03    -56.9383E-03     115.935E-03    -57.8195E-03    -58.1397E-03    -57.6051E-03     115.720E-03    -58.1397E-03     12.1193E-03    -3.30158E+06    -37.5810E+06    -136.398E+06    -37.6193E+06    -136.359E+06    -3.30158E+06     1.59889E+06         31.9931
            1354     9.43868E-03     72.9511E-03     673.052E-03     665.999E-03        -2.24168     666.514E-03        -2.24160     672.454E-03     9.64280E-03     116.156E-03    -57.9247E-03    -58.2000E-03    -57.6135E-03     115.737E-03    -58.0914E-03     16.7682E-03    -1.59048E+06    -34.6926E+06    -106.558E+06    -34.7451E+06    -106.505E+06    -1.59048E+06     1.65854E+06         33.0782
            1355     10.3825E-03     72.9735E-03     671.346E-03     656.588E-03        -2.22952     656.541E-03        -2.22947     671.346E-03    -20.2401E-03     116.195E-03    -57.9554E-03    -58.2059E-03    -57.4743E-03     115.542E-03    -58.0346E-03     21.2422E-03    -2.71023E+06    -32.0009E+06    -68.6662E+06    -32.1621E+06    -68.5051E+06    -2.71023E+06     1.45613E+06         34.7676
            1356     11.3257E-03     72.9967E-03     669.315E-03     641.069E-03        -2.21143     641.027E-03        -2.21139     669.315E-03    -4.25450E-03     115.890E-03    -57.7941E-03    -58.1188E-03    -56.8842E-03     114.787E-03    -57.9252E-03     27.1646E-03     8.53379E+06    -23.0143E+06    -37.7430E+06    -29.9183E+06    -12.7042E+06    -9.60106E+06     1.42747E+06         37.1875
            1357     12.2711E-03     73.0329E-03     666.829E-03     639.437E-03        -2.20877     639.355E-03        -2.20868     666.829E-03    -10.5048E-03     116.234E-03    -57.7334E-03    -58.5213E-03    -56.1440E-03     113.909E-03    -57.7851E-03     39.3297E-03     67.0116E+06    -7.32242E+06    -28.8789E+06    -28.8076E+06     66.9404E+06    -7.32242E+06     1.14180E+06         40.3056
            1358     13.2179E-03     73.0806E-03     664.502E-03     639.057E-03        -2.20819     638.947E-03        -2.20808     664.502E-03    -30.7932E-03     118.610E-03    -57.7860E-03    -60.8717E-03    -56.1657E-03     113.904E-03    -57.7860E-03     56.6262E-03     120.626E+06     17.0260E+06    -27.8391E+06    -27.7816E+06     120.568E+06     17.0260E+06     423.005E+03         44.0875
            1359     14.1625E-03     73.1564E-03     662.068E-03     634.336E-03        -2.20080     634.113E-03        -2.20058     662.068E-03     20.0345E-03     128.670E-03    -57.9340E-03    -70.8369E-03    -57.1385E-03     114.972E-03    -57.9340E-03     97.3898E-03     135.238E+06     54.4110E+06    -23.1674E+06    -23.1467E+06     135.217E+06     54.4110E+06     92.4278E+03         48.3222
            1360     15.1047E-03     73.2968E-03     659.497E-03     639.393E-03        -2.19967     638.857E-03        -2.19914     659.497E-03    -12.9060E-03     147.187E-03    -58.1035E-03    -89.2121E-03    -57.5253E-03     115.500E-03    -58.1035E-03     159.402E-03     149.902E+06     99.0504E+06    -15.6113E+06    -15.5839E+06     149.874E+06     99.0504E+06     6.26578E+03         52.3538
            1361     16.0503E-03     73.5129E-03     656.944E-03     630.697E-03        -2.18397     629.895E-03        -2.18317     656.944E-03     588.868E-06     139.034E-03    -58.1766E-03    -80.9156E-03    -56.2051E-03     114.323E-03    -58.1766E-03     130.808E-03     158.834E+06     126.762E+06    -7.56161E+06    -7.52613E+06     158.799E+06     126.762E+06     317.213E+03         55.4688
            1362     943.219E-06     74.0198E-03         2.31206     919.394E-03        -4.11192    -727.800E-03        -2.20004         2.04737        -1.98860     116.482E-03    -57.9900E-03    -58.4954E-03    -58.3252E-03     116.481E-03    -58.1598E-03     333.940E-06    -70.9784E+06    -72.5211E+06    -269.928E+06    -72.5299E+06    -269.920E+06    -70.9784E+06    -378.339E+03         29.0023
            1363     1.88719E-03     74.0210E-03         1.01348     661.905E-03        -2.56133     669.426E-03        -2.21727     661.905E-03     661.814E-03     116.372E-03    -58.1153E-03    -58.2618E-03    -58.1160E-03     116.371E-03    -58.2598E-03     734.686E-06    -64.9361E+06    -69.8434E+06    -266.911E+06    -69.8481E+06    -266.906E+06    -64.9361E+06     158.253E+03         29.0907
            1364     2.83129E-03     74.0221E-03     792.164E-03     666.604E-03        -2.34212     683.372E-03        -2.23333     666.604E-03    -244.574E-03     116.346E-03    -58.0891E-03    -58.2644E-03    -58.0882E-03     116.343E-03    -58.2625E-03     1.35692E-03    -52.7852E+06    -64.8937E+06    -258.805E+06    -64.9060E+06    -258.793E+06    -52.7852E+06     1.19401E+06         29.2427
            1365     3.77504E-03     74.0237E-03     722.500E-03     666.702E-03        -2.27399     673.787E-03        -2.22847     669.900E-03     164.594E-03     116.404E-03    -58.1255E-03    -58.2911E-03    -58.1178E-03     116.396E-03    -58.2911E-03     2.25245E-03    -39.1659E+06    -59.6524E+06    -250.018E+06    -59.6645E+06    -250.006E+06    -39.1659E+06     1.24148E+06         29.4626
            1366     4.71852E-03     74.0267E-03     694.207E-03     667.132E-03        -2.24999     669.808E-03        -2.22879     670.329E-03    -56.8503E-03     116.351E-03    -58.0656E-03    -58.3068E-03    -58.0466E-03     116.332E-03    -58.3068E-03     3.55455E-03    -29.3854E+06    -55.1017E+06    -233.417E+06    -55.1084E+06    -233.410E+06    -29.3854E+06     862.493E+03         29.7516
            1367     5.66264E-03     74.0321E-03     681.435E-03     670.196E-03        -2.23907     669.489E-03        -2.22713     670.196E-03     73.0700E-03     116.248E-03    -57.9850E-03    -58.2889E-03    -57.9473E-03     116.210E-03    -58.2889E-03     5.06698E-03    -21.8385E+06    -50.7169E+06    -211.053E+06    -50.7251E+06    -211.045E+06    -21.8385E+06     1.02230E+06         30.1222
            1368     6.60603E-03     74.0379E-03     670.461E-03     660.451E-03        -2.21847     656.082E-03        -2.21281     669.171E-03    -42.2551E-03     116.056E-03    -57.8212E-03    -58.2581E-03    -57.7403E-03     115.975E-03    -58.2581E-03     7.33889E-03    -15.1516E+06    -46.1521E+06    -188.453E+06    -46.1616E+06    -188.444E+06    -15.1516E+06     1.06970E+06         30.6015
            1369     7.55047E-03     74.0484E-03     667.393E-03     656.987E-03        -2.21289     654.538E-03        -2.21044     667.393E-03     50.3838E-03     115.921E-03    -57.7429E-03    -58.2116E-03    -57.6051E-03     115.783E-03    -58.2116E-03     9.73782E-03    -8.60671E+06    -41.6970E+06    -163.415E+06    -41.7183E+06    -163.394E+06    -8.60671E+06     1.34810E+06         31.2173
            1370     8.49445E-03     74.0587E-03     666.744E-03     659.217E-03        -2.21329     659.155E-03        -2.21262     666.146E-03    -21.3567E-03     115.939E-03    -57.8068E-03    -58.1616E-03    -57.5922E-03     115.724E-03    -58.1616E-03     12.1134E-03    -3.22950E+06    -37.7291E+06    -137.158E+06    -37.7706E+06    -137.116E+06    -3.22950E+06     1.71770E+06         31.9872
            1371     9.43852E-03     74.0744E-03     665.622E-03     651.819E-03        -2.20193     652.217E-03        -2.20172     665.023E-03     18.4916E-03     115.990E-03    -57.8251E-03    -58.1396E-03    -57.4294E-03     115.558E-03    -58.1029E-03     16.9855E-03    -1.45873E+06    -34.2474E+06    -107.076E+06    -34.3130E+06    -107.010E+06    -1.45873E+06     1.87021E+06         33.0714
            1372     10.3826E-03     74.0954E-03     663.457E-03     646.359E-03        -2.19458     646.310E-03        -2.19453     663.457E-03    -12.5372E-03     115.983E-03    -57.8293E-03    -58.1262E-03    -57.2370E-03     115.291E-03    -58.0268E-03     21.8403E-03    -2.22842E+06    -31.1938E+06    -68.9315E+06    -31.3830E+06    -68.7424E+06    -2.22842E+06     1.92688E+06         34.7641
            1373     11.3275E-03     74.1201E-03     661.608E-03     640.389E-03        -2.18836     640.356E-03        -2.18833     661.608E-03     8.29712E-03     115.837E-03    -57.7760E-03    -58.0841E-03    -56.8337E-03     114.715E-03    -57.9043E-03     27.4850E-03     9.06131E+06    -22.2036E+06    -37.4039E+06    -29.1361E+06    -12.5612E+06    -8.84892E+06     1.68147E+06         37.1878
            1374     12.2727E-03     74.1521E-03     659.643E-03     637.437E-03        -2.18287     637.404E-03        -2.18284     659.643E-03    -1.98593E-03     116.635E-03    -57.7260E-03    -58.9338E-03    -56.5735E-03     114.326E-03    -57.7777E-03     39.2774E-03     67.5049E+06    -6.58507E+06    -27.4824E+06    -27.4275E+06     67.4499E+06    -6.58507E+06     1.51671E+06         40.3071
            1375     13.2162E-03     74.2052E-03     657.482E-03     629.624E-03        -2.17384     629.598E-03        -2.17381     657.482E-03    -7.40855E-03     118.973E-03    -57.8086E-03    -61.2266E-03    -56.5433E-03     114.290E-03    -57.8086E-03     56.5870E-03     122.271E+06     19.3265E+06    -25.4865E+06    -25.4157E+06     122.200E+06     19.3265E+06     1.37390E+06         44.0886
            1376     14.1599E-03     74.2780E-03     654.984E-03     624.906E-03        -2.16827     624.697E-03        -2.16806     654.984E-03     36.0864E-03     128.138E-03    -57.9571E-03    -70.2938E-03    -56.5543E-03     114.398E-03    -57.9571E-03     97.1236E-03     135.390E+06     56.9596E+06    -22.5597E+06    -22.5054E+06     135.335E+06     56.9596E+06     37.8663E+03         48.3245
            1377     15.1072E-03     74.4207E-03     652.264E-03     625.570E-03        -2.16169     625.144E-03        -2.16127     652.264E-03    -1.25864E-03     147.578E-03    -58.0974E-03    -89.5791E-03    -57.3271E-03     115.326E-03    -58.0974E-03     160.910E-03     149.165E+06     99.5705E+06    -16.7536E+06    -16.7187E+06     149.131E+06     99.5705E+06    -639.015E+03         52.3590
            1378     16.0510E-03     74.6360E-03     649.211E-03     610.859E-03        -2.13808     609.813E-03        -2.13704     649.211E-03     32.4558E-03     139.868E-03    -58.1624E-03    -81.7253E-03    -56.6100E-03     114.753E-03    -58.1624E-03     131.954E-03     159.202E+06     126.359E+06    -7.80848E+06    -7.77084E+06     159.164E+06     126.359E+06    -70.2313E+03         55.4757
            1379     943.925E-06     75.1426E-03         2.28365     821.124E-03        -3.98055    -703.579E-03        -2.23602         2.06382        -1.89244     116.600E-03    -58.0764E-03    -58.5242E-03    -58.5220E-03     116.599E-03    -58.0780E-03     527.528E-06    -68.5206E+06    -70.6553E+06    -269.451E+06    -70.5859E+06    -269.441E+06    -68.5998E+06     732.716E+03         29.0125
            1380     1.88707E-03     75.1432E-03     970.165E-03     679.337E-03        -2.52111     673.326E-03        -2.22427     679.337E-03     576.785E-03     116.568E-03    -58.2023E-03    -58.3717E-03    -58.2415E-03     116.567E-03    -58.3316E-03     760.980E-06    -63.8835E+06    -70.1691E+06    -267.069E+06    -70.1757E+06    -267.062E+06    -63.8835E+06     36.4167E+03         29.0987
            1381     2.83101E-03     75.1437E-03     758.878E-03     675.730E-03        -2.30264     663.097E-03        -2.20686     675.730E-03    -268.239E-03     116.413E-03    -58.0977E-03    -58.3257E-03    -58.0943E-03     116.409E-03    -58.3257E-03     1.40998E-03    -55.0027E+06    -66.9432E+06    -259.640E+06    -66.9450E+06    -259.638E+06    -55.0027E+06    -11.5404E+03         29.2470
            1382     3.77463E-03     75.1468E-03     683.205E-03     667.011E-03        -2.21883     642.972E-03        -2.18179     670.208E-03     132.075E-03     116.481E-03    -58.1574E-03    -58.3396E-03    -58.1492E-03     116.473E-03    -58.3396E-03     2.35983E-03    -41.7362E+06    -61.7755E+06    -250.856E+06    -61.7815E+06    -250.850E+06    -41.7362E+06     750.404E+03         29.4653
            1383     4.71834E-03     75.1492E-03     671.474E-03     659.047E-03        -2.20105     648.590E-03        -2.18425     665.130E-03    -75.7339E-03     116.406E-03    -58.0668E-03    -58.3620E-03    -58.0463E-03     116.385E-03    -58.3620E-03     3.65948E-03    -29.3773E+06    -56.3756E+06    -234.456E+06    -56.3932E+06    -234.439E+06    -29.3773E+06     1.68503E+06         29.7533
            1384     5.66201E-03     75.1543E-03     669.457E-03     659.970E-03        -2.20182     658.199E-03        -2.19363     663.038E-03     53.6941E-03     116.179E-03    -57.8785E-03    -58.3279E-03    -57.8358E-03     116.136E-03    -58.3279E-03     5.38754E-03    -21.3235E+06    -51.1946E+06    -211.379E+06    -51.2116E+06    -211.362E+06    -21.3235E+06     1.57652E+06         30.1222
            1385     6.60614E-03     75.1606E-03     664.656E-03     656.810E-03        -2.19497     655.682E-03        -2.19131     662.118E-03    -48.3652E-03     116.054E-03    -57.8031E-03    -58.2767E-03    -57.7183E-03     115.969E-03    -58.2767E-03     7.54060E-03    -15.2520E+06    -46.7423E+06    -188.324E+06    -46.7566E+06    -188.310E+06    -15.2520E+06     1.24207E+06         30.6000
            1386     7.55035E-03     75.1695E-03     662.708E-03     653.169E-03        -2.18628     653.229E-03        -2.18473     661.096E-03     19.2264E-03     115.935E-03    -57.7415E-03    -58.2247E-03    -57.5974E-03     115.791E-03    -58.2247E-03     9.94658E-03    -9.06804E+06    -42.6340E+06    -164.013E+06    -42.6590E+06    -163.988E+06    -9.06804E+06     1.42792E+06         31.2137
            1387     8.49428E-03     75.1823E-03     659.966E-03     650.675E-03        -2.17943     649.884E-03        -2.17863     659.966E-03    -19.4940E-03     115.858E-03    -57.7128E-03    -58.1663E-03    -57.4880E-03     115.633E-03    -58.1663E-03     12.4020E-03    -3.74003E+06    -38.4114E+06    -137.709E+06    -38.4428E+06    -137.678E+06    -3.74003E+06     1.49779E+06         31.9810
            1388     9.43839E-03     75.1956E-03     658.409E-03     640.534E-03        -2.16764     640.258E-03        -2.16737     658.409E-03     40.3687E-03     115.836E-03    -57.7137E-03    -58.0957E-03    -57.2807E-03     115.403E-03    -58.0957E-03     17.0134E-03    -1.62297E+06    -34.3222E+06    -107.373E+06    -34.3780E+06    -107.317E+06    -1.62297E+06     1.70481E+06         33.0653
            1389     10.3835E-03     75.2179E-03     656.407E-03     634.789E-03        -2.15961     634.722E-03        -2.15955     656.407E-03     16.0244E-03     115.657E-03    -57.6351E-03    -58.0042E-03    -56.9676E-03     114.990E-03    -58.0042E-03     21.4253E-03    -2.03443E+06    -30.9852E+06    -69.1940E+06    -31.1515E+06    -69.0277E+06    -2.03443E+06     1.87238E+06         34.7610
            1390     11.3278E-03     75.2417E-03     654.536E-03     636.826E-03        -2.15995     636.786E-03        -2.15991     654.536E-03     20.3409E-03     115.968E-03    -57.6873E-03    -58.3118E-03    -57.0519E-03     114.903E-03    -57.8823E-03     26.8284E-03     9.69769E+06    -21.8990E+06    -37.4648E+06    -29.0248E+06    -12.3011E+06    -8.34022E+06     1.50243E+06         37.1872
            1391     12.2712E-03     75.2756E-03     652.771E-03     631.948E-03        -2.15182     631.929E-03        -2.15181     652.771E-03     6.02086E-03     117.247E-03    -57.7924E-03    -59.4754E-03    -57.1572E-03     114.929E-03    -57.7924E-03     39.3629E-03     67.5540E+06    -6.01673E+06    -27.6222E+06    -27.5715E+06     67.5033E+06    -6.01673E+06     1.32671E+06         40.3067
            1392     13.2157E-03     75.3281E-03     650.626E-03     622.572E-03        -2.14005     622.527E-03        -2.14000     650.626E-03    -7.73505E-03     118.910E-03    -57.8393E-03    -61.1238E-03    -56.3762E-03     114.163E-03    -57.8393E-03     56.9603E-03     122.576E+06     20.1363E+06    -25.2898E+06    -25.2283E+06     122.514E+06     20.1363E+06     1.56893E+06         44.0874
            1393     14.1617E-03     75.4002E-03     648.114E-03     619.767E-03        -2.13512     619.562E-03        -2.13492     648.114E-03     23.0779E-03     127.471E-03    -57.9594E-03    -69.6283E-03    -55.8187E-03     113.661E-03    -57.9594E-03     97.0112E-03     136.923E+06     58.7041E+06    -20.8452E+06    -20.7721E+06     136.850E+06     58.7041E+06     1.16120E+06         48.3253
            1394     15.1070E-03     75.5406E-03     644.886E-03     604.804E-03        -2.11366     604.518E-03        -2.11337     644.886E-03     3.31866E-03     147.380E-03    -58.0605E-03    -89.4292E-03    -56.8892E-03     114.840E-03    -58.0605E-03     161.396E-03     149.047E+06     101.052E+06    -14.7140E+06    -14.6590E+06     148.992E+06     101.052E+06     387.719E+03         52.3643
            1395     16.0542E-03     75.7608E-03     641.064E-03     595.835E-03        -2.10120     595.142E-03        -2.10051     641.064E-03     28.4247E-03     140.144E-03    -58.1186E-03    -82.0465E-03    -57.1180E-03     115.216E-03    -58.1186E-03     130.479E-03     158.618E+06     126.738E+06    -7.31569E+06    -7.28951E+06     158.592E+06     126.738E+06    -254.879E+03         55.4833
            1396     943.578E-06     76.2654E-03         2.22298     727.519E-03        -3.81266    -709.531E-03        -2.19702         2.04439        -1.82170     116.479E-03    -58.0545E-03    -58.4267E-03    -58.3765E-03     116.478E-03    -58.1038E-03     700.696E-06    -71.0305E+06    -73.6710E+06    -272.228E+06    -73.5692E+06    -272.212E+06    -71.1486E+06     1.69065E+06         29.0124
            1397     1.88736E-03     76.2656E-03     915.216E-03     666.251E-03        -2.44029     660.084E-03        -2.18516     666.251E-03     484.939E-03     116.624E-03    -58.2497E-03    -58.3831E-03    -58.3163E-03     116.623E-03    -58.3154E-03     770.433E-06    -61.8936E+06    -70.5118E+06    -266.666E+06    -70.5373E+06    -266.641E+06    -61.8936E+06     1.79759E+06         29.1009
            1398     2.83056E-03     76.2664E-03     746.820E-03     663.976E-03        -2.26523     659.707E-03        -2.17812     663.976E-03    -258.675E-03     116.608E-03    -58.2276E-03    -58.3932E-03    -58.2511E-03     116.604E-03    -58.3656E-03     1.59363E-03    -52.9658E+06    -67.7630E+06    -259.139E+06    -67.7796E+06    -259.122E+06    -52.9658E+06     962.947E+03         29.2495
            1399     3.77458E-03     76.2685E-03     681.912E-03     661.567E-03        -2.19733     648.190E-03        -2.16361     661.567E-03     113.810E-03     116.405E-03    -58.0482E-03    -58.3721E-03    -58.0380E-03     116.394E-03    -58.3721E-03     2.60365E-03    -43.1198E+06    -64.3530E+06    -252.374E+06    -64.3619E+06    -252.365E+06    -43.1198E+06     956.625E+03         29.4649
            1400     4.71826E-03     76.2720E-03     666.404E-03     653.719E-03        -2.17393     645.079E-03        -2.15741     658.526E-03    -69.4282E-03     116.264E-03    -57.9293E-03    -58.3582E-03    -57.9069E-03     116.242E-03    -58.3582E-03     3.86656E-03    -31.6078E+06    -58.8278E+06    -235.314E+06    -58.8411E+06    -235.300E+06    -31.6078E+06     1.17038E+06         29.7512
            1401     5.66239E-03     76.2760E-03     655.928E-03     649.272E-03        -2.15868     641.185E-03        -2.15059     655.928E-03     63.4587E-03     116.142E-03    -57.8548E-03    -58.3164E-03    -57.8097E-03     116.097E-03    -58.3164E-03     5.52711E-03    -22.2343E+06    -52.9075E+06    -211.715E+06    -52.9246E+06    -211.697E+06    -22.2343E+06     1.28717E+06         30.1212
            1402     6.60656E-03     76.2828E-03     655.972E-03     652.148E-03        -2.16250     650.119E-03        -2.15886     654.360E-03    -30.3906E-03     116.115E-03    -57.8706E-03    -58.2736E-03    -57.7861E-03     116.030E-03    -58.2736E-03     7.57886E-03    -14.9504E+06    -47.5380E+06    -188.457E+06    -47.5576E+06    -188.437E+06    -14.9504E+06     1.54695E+06         30.5998
            1403     7.54998E-03     76.2923E-03     655.159E-03     646.380E-03        -2.15501     646.304E-03        -2.15332     653.548E-03     37.2207E-03     115.964E-03    -57.7650E-03    -58.2279E-03    -57.6234E-03     115.823E-03    -58.2279E-03     9.84700E-03    -8.82071E+06    -42.6174E+06    -163.964E+06    -42.6339E+06    -163.947E+06    -8.82071E+06     1.23720E+06         31.2125
            1404     8.49462E-03     76.3035E-03     652.368E-03     641.319E-03        -2.14320     640.787E-03        -2.14266     652.368E-03    -24.0622E-03     115.765E-03    -57.6149E-03    -58.1650E-03    -57.3902E-03     115.540E-03    -58.1650E-03     12.3920E-03    -4.07251E+06    -38.3711E+06    -138.221E+06    -38.3913E+06    -138.201E+06    -4.07251E+06     1.03736E+06         31.9785
            1405     9.43903E-03     76.3187E-03     651.385E-03     642.245E-03        -2.14241     642.300E-03        -2.14225     651.165E-03     28.1050E-03     115.851E-03    -57.7306E-03    -58.0896E-03    -57.3114E-03     115.432E-03    -58.0896E-03     16.7811E-03    -1.98606E+06    -34.5606E+06    -107.572E+06    -34.5955E+06    -107.537E+06    -1.98606E+06     1.26337E+06         33.0624
            1406     10.3825E-03     76.3394E-03     650.082E-03     633.897E-03        -2.13280     634.063E-03        -2.13275     649.862E-03     13.6679E-03     115.868E-03    -57.7852E-03    -58.0623E-03    -57.1928E-03     115.221E-03    -58.0073E-03     21.1228E-03    -2.57991E+06    -31.0455E+06    -69.4865E+06    -31.1761E+06    -69.3559E+06    -2.57991E+06     1.39455E+06         34.7585
            1407     11.3275E-03     76.3641E-03     647.843E-03     620.702E-03        -2.11778     620.655E-03        -2.11774     647.843E-03     19.8204E-03     116.061E-03    -57.7795E-03    -58.3128E-03    -57.1019E-03     114.968E-03    -57.8980E-03     27.1216E-03     9.26585E+06    -22.1929E+06    -38.3215E+06    -29.3839E+06    -12.6673E+06    -9.19735E+06     1.58025E+06         37.1856
            1408     12.2717E-03     76.3993E-03     645.320E-03     615.641E-03        -2.11026     615.607E-03        -2.11023     645.320E-03     9.42275E-03     116.894E-03    -57.7949E-03    -59.1196E-03    -56.7409E-03     114.516E-03    -57.7949E-03     39.8407E-03     66.9750E+06    -6.76479E+06    -28.4605E+06    -28.3742E+06     66.8888E+06    -6.76479E+06     1.90439E+06         40.3065
            1409     13.2160E-03     76.4502E-03     642.661E-03     611.397E-03        -2.10269     611.340E-03        -2.10264     642.661E-03    -18.2358E-03     118.356E-03    -57.8013E-03    -60.6005E-03    -55.7846E-03     113.540E-03    -57.8013E-03     57.1862E-03     122.590E+06     19.5209E+06    -25.0207E+06    -24.9733E+06     122.543E+06     19.5209E+06     1.55930E+06         44.0896
            1410     14.1612E-03     76.5217E-03     639.520E-03     600.901E-03        -2.08659     600.796E-03        -2.08648     639.520E-03     487.820E-06     127.647E-03    -57.9097E-03    -69.8522E-03    -56.0640E-03     113.859E-03    -57.9097E-03     97.2549E-03     138.393E+06     57.9336E+06    -20.3804E+06    -20.3206E+06     138.334E+06     57.9336E+06     884.578E+03         48.3290
            1411     15.1083E-03     76.6617E-03     635.659E-03     596.370E-03        -2.07595     596.138E-03        -2.07572     635.659E-03    -13.2906E-03     147.880E-03    -58.0457E-03    -89.9862E-03    -57.6440E-03     115.538E-03    -58.0457E-03     161.359E-03     149.988E+06     100.847E+06    -14.2920E+06    -14.2218E+06     149.918E+06     100.847E+06     746.017E+03         52.3682
            1412     16.0514E-03     76.8844E-03     631.814E-03     594.483E-03        -2.07362     594.123E-03        -2.07326     631.814E-03    -376.157E-06     139.885E-03    -58.1261E-03    -81.8182E-03    -57.0993E-03     115.166E-03    -58.1261E-03     129.810E-03     158.489E+06     126.599E+06    -7.29371E+06    -7.25491E+06     158.450E+06     126.599E+06     221.822E+03         55.4884
            1413     943.581E-06     77.3873E-03         2.16447     615.049E-03        -3.61885    -720.053E-03        -2.12181         2.00253        -1.65705     116.460E-03    -58.0181E-03    -58.4474E-03    -58.3662E-03     116.459E-03    -58.0981E-03     477.585E-06    -74.7136E+06    -76.8556E+06    -275.095E+06    -76.5651E+06    -275.082E+06     -75.017E+06     523.426E+03         29.0079
            1414     1.88740E-03     77.3880E-03     870.113E-03     641.084E-03        -2.35463     639.130E-03        -2.12365     641.084E-03     451.906E-03     116.453E-03    -58.1549E-03    -58.3054E-03    -58.1808E-03     116.451E-03    -58.2779E-03     1.01774E-03    -64.3189E+06    -72.3025E+06    -267.878E+06    -72.3272E+06    -267.853E+06    -64.3189E+06     1.88047E+06         29.0969
            1415     2.83107E-03     77.3892E-03     741.631E-03     643.803E-03        -2.22540     663.174E-03        -2.14694     643.803E-03    -233.958E-03     116.589E-03    -58.2416E-03    -58.3593E-03    -58.2672E-03     116.585E-03    -58.3291E-03     1.73765E-03    -52.1351E+06    -67.6568E+06    -260.093E+06    -67.6907E+06    -260.059E+06    -52.1351E+06     2.44406E+06         29.2483
            1416     3.77433E-03     77.3907E-03     694.206E-03     648.738E-03        -2.17968     662.601E-03        -2.14807     648.738E-03     100.107E-03     116.451E-03    -58.1062E-03    -58.3600E-03    -58.0985E-03     116.441E-03    -58.3574E-03     2.62360E-03    -40.7333E+06    -62.3008E+06    -251.769E+06    -62.3209E+06    -251.749E+06    -40.7333E+06     1.64883E+06         29.4642
            1417     4.71870E-03     77.3940E-03     670.509E-03     648.633E-03        -2.15600     651.694E-03        -2.13911     650.555E-03    -59.3040E-03     116.261E-03    -57.9356E-03    -58.3459E-03    -57.9144E-03     116.239E-03    -58.3459E-03     3.78150E-03    -30.7566E+06    -57.1898E+06    -235.019E+06    -57.1960E+06    -235.012E+06    -30.7566E+06     716.949E+03         29.7499
            1418     5.66248E-03     77.3984E-03     655.078E-03     644.473E-03        -2.13503     640.517E-03        -2.12585     649.858E-03     60.2072E-03     116.203E-03    -57.9214E-03    -58.3113E-03    -57.8792E-03     116.161E-03    -58.3113E-03     5.34965E-03    -21.8950E+06    -52.1271E+06    -212.140E+06    -52.1372E+06    -212.130E+06    -21.8950E+06     826.818E+03         30.1203
            1419     6.60594E-03     77.4054E-03     647.839E-03     635.533E-03        -2.11945     631.064E-03        -2.11498     647.839E-03    -34.6493E-03     116.075E-03    -57.8325E-03    -58.2720E-03    -57.7476E-03     115.990E-03    -58.2720E-03     7.56590E-03    -14.7913E+06    -47.1037E+06    -188.710E+06    -47.1135E+06    -188.700E+06    -14.7913E+06     999.351E+03         30.6000
            1420     7.55051E-03     77.4145E-03     645.500E-03     630.354E-03        -2.10845     628.339E-03        -2.10644     645.500E-03     40.3747E-03     115.967E-03    -57.7690E-03    -58.2234E-03    -57.6284E-03     115.826E-03    -58.2234E-03     9.83586E-03    -9.07775E+06    -42.4531E+06    -164.121E+06    -42.4622E+06    -164.112E+06    -9.07775E+06     926.938E+03         31.2136
            1421     8.49417E-03     77.4258E-03     643.543E-03     629.947E-03        -2.10336     629.366E-03        -2.10278     643.543E-03    -31.3490E-03     115.869E-03    -57.7139E-03    -58.1684E-03    -57.4910E-03     115.646E-03    -58.1684E-03     12.3321E-03    -4.39438E+06    -38.2316E+06    -138.451E+06    -38.2427E+06    -138.440E+06    -4.39438E+06     798.444E+03         31.9794
            1422     9.43832E-03     77.4406E-03     642.231E-03     629.727E-03        -2.10120     629.849E-03        -2.10111     642.010E-03     14.7510E-03     115.861E-03    -57.7308E-03    -58.0978E-03    -57.3089E-03     115.440E-03    -58.0978E-03     16.8356E-03    -2.48678E+06    -34.3728E+06    -108.012E+06    -34.3964E+06    -107.988E+06    -2.48678E+06     793.722E+03         33.0620
            1423     10.3833E-03     77.4619E-03     641.005E-03     631.255E-03        -2.10244     631.447E-03        -2.10241     640.784E-03    -10.6281E-03     115.944E-03    -57.8514E-03    -58.0683E-03    -57.2323E-03     115.270E-03    -58.0133E-03     21.5375E-03    -3.34576E+06    -31.2537E+06    -70.3272E+06    -31.3447E+06    -70.2363E+06    -3.34576E+06     1.03367E+06         34.7576
            1424     11.3264E-03     77.4869E-03     639.194E-03     617.201E-03        -2.09017     617.144E-03        -2.09011     639.194E-03     7.41148E-03     115.865E-03    -57.8455E-03    -58.0498E-03    -56.8550E-03     114.719E-03    -57.8936E-03     27.7681E-03     8.74866E+06    -22.5275E+06    -38.3343E+06    -28.9799E+06    -13.4122E+06    -9.72104E+06     1.56364E+06         37.1856
            1425     12.2717E-03     77.5207E-03     636.622E-03     602.084E-03        -2.07069     601.990E-03        -2.07059     636.622E-03    -2.35138E-03     116.328E-03    -57.7632E-03    -58.5866E-03    -56.1696E-03     113.911E-03    -57.7632E-03     40.0834E-03     66.9847E+06    -6.11269E+06    -26.7883E+06    -26.7055E+06     66.9019E+06    -6.11269E+06     1.89771E+06         40.3086
            1426     13.2178E-03     77.5723E-03     633.374E-03     592.652E-03        -2.05509     592.562E-03        -2.05500     633.374E-03    -16.8125E-03     118.149E-03    -57.7475E-03    -60.4455E-03    -55.7528E-03     113.456E-03    -57.7475E-03     56.5136E-03     122.671E+06     19.6545E+06    -23.9714E+06    -23.9273E+06     122.627E+06     19.6545E+06     1.44001E+06         44.0942
            1427     14.1644E-03     77.6421E-03     629.557E-03     581.622E-03        -2.03800     581.545E-03        -2.03793     629.557E-03     14.2941E-03     128.323E-03    -57.8912E-03    -70.5443E-03    -56.8629E-03     114.641E-03    -57.8912E-03     97.0475E-03     139.320E+06     58.6612E+06    -20.1756E+06    -20.1048E+06     139.249E+06     58.6612E+06     1.05459E+06         48.3337
            1428     15.1060E-03     77.7878E-03     625.420E-03     586.094E-03        -2.03339     585.837E-03        -2.03314     625.420E-03    -17.5705E-03     148.047E-03    -58.0672E-03    -90.1152E-03    -58.0359E-03     115.968E-03    -58.0672E-03     160.908E-03     150.586E+06     101.146E+06    -15.1333E+06    -15.0519E+06     150.504E+06     101.146E+06     916.072E+03         52.3716
            1429     16.0524E-03     78.0041E-03     621.433E-03     579.066E-03        -2.02410     578.661E-03        -2.02369     621.433E-03    -3.14336E-03     139.339E-03    -58.1403E-03    -81.2434E-03    -56.6515E-03     114.747E-03    -58.1403E-03     129.695E-03     158.574E+06     125.877E+06    -7.83341E+06    -7.78926E+06     158.530E+06     125.877E+06     460.539E+03         55.4930
            1430     943.634E-06     78.5091E-03         2.12397     571.025E-03        -3.52271    -676.827E-03        -2.11947         1.96857        -1.52964     116.504E-03    -58.0248E-03    -58.4828E-03    -58.4040E-03     116.504E-03    -58.1031E-03     199.582E-06    -74.2177E+06    -76.0963E+06    -275.027E+06    -75.8392E+06    -275.020E+06    -74.4821E+06    -956.803E+03         29.0039
            1431     1.88732E-03     78.5102E-03     846.677E-03     642.101E-03        -2.31178     624.742E-03        -2.08985     642.101E-03     488.433E-03     116.354E-03    -58.0999E-03    -58.2601E-03    -58.0978E-03     116.351E-03    -58.2601E-03     1.01923E-03    -68.0996E+06    -72.8220E+06    -270.436E+06    -72.8300E+06    -270.428E+06    -68.0996E+06     146.914E+03         29.0898
            1432     2.83119E-03     78.5114E-03     713.458E-03     638.150E-03        -2.17133     640.374E-03        -2.09825     638.150E-03    -179.987E-03     116.426E-03    -58.1698E-03    -58.2672E-03    -58.1678E-03     116.421E-03    -58.2645E-03     1.76693E-03    -56.5670E+06    -68.0216E+06    -260.823E+06    -68.0424E+06    -260.802E+06    -56.5670E+06     1.03244E+06         29.2404
            1433     3.77508E-03     78.5136E-03     673.554E-03     638.900E-03        -2.13194     641.940E-03        -2.10032     638.900E-03     130.255E-03     116.525E-03    -58.2201E-03    -58.3196E-03    -58.2142E-03     116.517E-03    -58.3170E-03     2.38788E-03    -41.4778E+06    -61.8564E+06    -251.265E+06    -61.8769E+06    -251.244E+06    -41.4778E+06     977.952E+03         29.4597
            1434     4.71820E-03     78.5159E-03     652.758E-03     636.595E-03        -2.10521     636.655E-03        -2.09153     639.011E-03    -66.2758E-03     116.381E-03    -58.0553E-03    -58.3451E-03    -58.0341E-03     116.360E-03    -58.3451E-03     3.72784E-03    -30.1410E+06    -56.2313E+06    -235.484E+06    -56.2422E+06    -235.473E+06    -30.1410E+06     1.28252E+06         29.7484
            1435     5.66207E-03     78.5212E-03     647.344E-03     634.205E-03        -2.09778     634.921E-03        -2.08958     638.418E-03     16.3062E-03     116.109E-03    -57.8334E-03    -58.3051E-03    -57.7884E-03     116.064E-03    -58.3051E-03     5.51955E-03    -22.8181E+06    -51.6177E+06    -212.180E+06    -51.6281E+06    -212.170E+06    -22.8181E+06     1.16204E+06         30.1193
            1436     6.60660E-03     78.5272E-03     642.298E-03     627.028E-03        -2.08421     627.058E-03        -2.07925     637.305E-03    -56.3772E-03     116.002E-03    -57.7788E-03    -58.2546E-03    -57.6912E-03     115.914E-03    -58.2546E-03     7.68933E-03    -15.8236E+06    -47.1311E+06    -188.469E+06    -47.1381E+06    -188.462E+06    -15.8236E+06     477.841E+03         30.5998
            1437     7.55031E-03     78.5366E-03     637.045E-03     624.833E-03        -2.07303     624.252E-03        -2.07116     635.756E-03     30.6403E-03     115.982E-03    -57.8013E-03    -58.2085E-03    -57.6563E-03     115.837E-03    -58.2085E-03     9.98559E-03    -9.44511E+06    -42.4193E+06    -164.413E+06    -42.4237E+06    -164.409E+06    -9.44511E+06     293.808E+03         31.2149
            1438     8.49446E-03     78.5481E-03     634.266E-03     622.971E-03        -2.06695     622.216E-03        -2.06620     634.266E-03    -20.2866E-03     115.876E-03    -57.7362E-03    -58.1572E-03    -57.5095E-03     115.650E-03    -58.1572E-03     12.4472E-03    -4.44051E+06    -37.8870E+06    -138.189E+06    -37.8938E+06    -138.182E+06    -4.44051E+06     491.606E+03         31.9812
            1439     9.43888E-03     78.5625E-03     632.407E-03     611.432E-03        -2.05356     611.206E-03        -2.05333     632.407E-03     26.9862E-03     115.858E-03    -57.7362E-03    -58.0898E-03    -57.2958E-03     115.418E-03    -58.0898E-03     17.1560E-03    -2.65680E+06    -34.1804E+06    -108.595E+06    -34.1988E+06    -108.577E+06    -2.65680E+06     655.604E+03         33.0637
            1440     10.3824E-03     78.5841E-03     630.132E-03     607.542E-03        -2.04892     607.507E-03        -2.04888     630.132E-03    -13.3220E-03     115.798E-03    -57.7734E-03    -57.9988E-03    -57.0809E-03     115.105E-03    -57.9988E-03     21.8317E-03    -3.69381E+06    -31.2512E+06    -70.9915E+06    -31.3377E+06     -70.905E+06    -3.69381E+06     873.715E+03         34.7590
            1441     11.3284E-03     78.6086E-03     627.928E-03     606.274E-03        -2.04846     606.216E-03        -2.04840     627.928E-03     6.61157E-03     115.622E-03    -57.7279E-03    -57.9196E-03    -56.6750E-03     114.516E-03    -57.8658E-03     27.2850E-03     8.27095E+06    -22.5331E+06    -38.1997E+06    -29.1508E+06    -13.4936E+06    -9.81744E+06     1.21897E+06         37.1870
            1442     12.2730E-03     78.6422E-03     625.529E-03     597.370E-03        -2.03656     597.132E-03        -2.03632     625.529E-03    -18.2971E-03     116.238E-03    -57.6886E-03    -58.5644E-03    -56.1767E-03     113.893E-03    -57.7313E-03     39.3946E-03     66.7441E+06    -6.26357E+06    -27.1091E+06    -27.0535E+06     66.6885E+06    -6.26357E+06     1.24131E+06         40.3105
            1443     13.2178E-03     78.6935E-03     622.618E-03     587.659E-03        -2.02076     587.433E-03        -2.02053     622.618E-03    -20.6607E-03     118.755E-03    -57.7410E-03    -61.0675E-03    -56.4417E-03     114.129E-03    -57.7410E-03     56.3401E-03     122.373E+06     18.7035E+06    -25.7278E+06    -25.6708E+06     122.316E+06     18.7035E+06     1.25908E+06         44.0957
            1444     14.1603E-03     78.7660E-03     619.386E-03     584.393E-03        -2.01220     584.345E-03        -2.01215     619.386E-03     20.8531E-03     128.422E-03    -57.9035E-03    -70.6378E-03    -57.0051E-03     114.789E-03    -57.9035E-03     96.7340E-03     138.959E+06     57.0500E+06    -21.7910E+06    -21.7206E+06     138.888E+06     57.0500E+06     1.82226E+06         48.3347
            1445     15.1070E-03     78.9106E-03     615.483E-03     569.410E-03        -1.99062     569.297E-03        -1.99050     615.483E-03    -5.17872E-03     147.560E-03    -58.0608E-03    -89.6299E-03    -57.2351E-03     115.165E-03    -58.0608E-03     161.134E-03     151.037E+06     100.529E+06    -15.4240E+06    -15.3455E+06     150.958E+06     100.529E+06     1.62249E+06         52.3750
            1446     16.0516E-03     79.1261E-03     610.685E-03     547.164E-03        -1.96013     546.872E-03        -1.95983     610.685E-03     15.9732E-03     139.547E-03    -58.1187E-03    -81.4651E-03    -56.5452E-03     114.627E-03    -58.1187E-03     130.355E-03     159.447E+06     126.501E+06    -8.05510E+06    -7.99959E+06     159.392E+06     126.501E+06     457.812E+03         55.4993
            1447     943.472E-06     79.6325E-03         2.08144     570.268E-03        -3.46483    -626.714E-03        -2.10176         1.91535        -1.52512     116.494E-03    -57.9495E-03    -58.5472E-03    -58.4995E-03     116.494E-03    -57.9970E-03     337.439E-06    -72.3609E+06    -74.4679E+06    -274.069E+06    -74.1426E+06    -274.061E+06    -72.6941E+06    -905.465E+03         29.0007
            1448     1.88738E-03     79.6316E-03     849.212E-03     645.327E-03        -2.29367     646.921E-03        -2.09138     645.327E-03     461.086E-03     116.524E-03    -58.1523E-03    -58.3781E-03    -58.2457E-03     116.523E-03    -58.2833E-03     743.049E-06    -68.3900E+06    -72.2677E+06    -270.716E+06    -72.2806E+06    -270.704E+06    -68.3900E+06    -858.769E+03         29.0853
            1449     2.83117E-03     79.6341E-03     684.577E-03     630.817E-03        -2.11583     607.386E-03        -2.04807     640.247E-03    -189.047E-03     116.303E-03    -58.0383E-03    -58.2787E-03    -58.0342E-03     116.299E-03    -58.2787E-03     1.58595E-03    -59.8090E+06    -68.9190E+06    -260.879E+06    -68.9325E+06    -260.865E+06    -59.8090E+06    -1.17564E+06         29.2311
            1450     3.77459E-03     79.6356E-03     644.750E-03     622.234E-03        -2.06293     606.932E-03        -2.03454     631.664E-03     117.046E-03     116.277E-03    -58.0147E-03    -58.2814E-03    -58.0046E-03     116.267E-03    -58.2814E-03     2.55136E-03    -45.3303E+06    -64.2399E+06    -253.136E+06    -64.2496E+06    -253.126E+06    -45.3303E+06     10.8790E+03         29.4508
            1451     4.71863E-03     79.6390E-03     636.837E-03     625.402E-03        -2.05536     620.538E-03        -2.04148     627.819E-03    -36.9720E-03     116.309E-03    -58.0343E-03    -58.2979E-03    -58.0106E-03     116.285E-03    -58.2979E-03     3.96866E-03    -32.4757E+06    -58.6712E+06    -236.269E+06    -58.6800E+06    -236.261E+06    -32.4757E+06     1.16764E+06         29.7447
            1452     5.66271E-03     79.6425E-03     632.369E-03     618.012E-03        -2.04435     615.906E-03        -2.03607     626.198E-03     58.4554E-03     116.156E-03    -57.9147E-03    -58.2728E-03    -57.8699E-03     116.111E-03    -58.2728E-03     5.51980E-03    -23.8753E+06    -52.8476E+06    -210.886E+06    -52.8569E+06    -210.877E+06    -23.8753E+06     555.246E+03         30.1193
            1453     6.60645E-03     79.6499E-03     632.717E-03     619.378E-03        -2.04719     623.274E-03        -2.04352     625.147E-03    -33.7975E-03     116.011E-03    -57.8064E-03    -58.2377E-03    -57.7219E-03     115.926E-03    -58.2377E-03     7.55510E-03    -16.3068E+06    -47.1057E+06    -188.007E+06    -47.1124E+06    -188.000E+06    -16.3068E+06    -134.489E+03         30.6004
            1454     7.55052E-03     79.6590E-03     628.879E-03     624.136E-03        -2.04709     626.432E-03        -2.04552     625.014E-03     33.7740E-03     115.873E-03    -57.7113E-03    -58.1925E-03    -57.5676E-03     115.730E-03    -58.1925E-03     9.92166E-03    -9.71561E+06    -42.2109E+06    -164.363E+06    -42.2186E+06    -164.355E+06    -9.71561E+06    -459.534E+03         31.2155
            1455     8.49471E-03     79.6703E-03     624.170E-03     610.059E-03        -2.02597     609.453E-03        -2.02537     624.170E-03    -12.4973E-03     115.802E-03    -57.6873E-03    -58.1344E-03    -57.4608E-03     115.576E-03    -58.1344E-03     12.4481E-03    -4.61679E+06    -37.7360E+06    -138.516E+06    -37.7444E+06    -138.508E+06    -4.61679E+06    -144.372E+03         31.9835
            1456     9.43866E-03     79.6847E-03     621.984E-03     598.066E-03        -2.01195     597.791E-03        -2.01167     621.984E-03     16.0201E-03     115.866E-03    -57.7688E-03    -58.0689E-03    -57.3395E-03     115.437E-03    -58.0689E-03     16.9569E-03    -2.96056E+06    -34.1354E+06    -109.209E+06    -34.1504E+06    -109.194E+06    -2.96056E+06     427.050E+03         33.0671
            1457     10.3839E-03     79.7061E-03     619.376E-03     593.236E-03        -2.00563     593.171E-03        -2.00557     619.376E-03    -14.3202E-03     115.799E-03    -57.7908E-03    -57.9853E-03    -57.1157E-03     115.124E-03    -57.9853E-03     21.5471E-03    -4.10660E+06    -31.3668E+06    -71.5707E+06    -31.4744E+06    -71.4631E+06    -4.10660E+06     911.274E+03         34.7609
            1458     11.3269E-03     79.7311E-03     616.557E-03     583.670E-03        -1.99626     583.523E-03        -1.99611     616.557E-03     28.4870E-03     115.692E-03    -57.7340E-03    -57.9894E-03    -56.8151E-03     114.647E-03    -57.8640E-03     26.6017E-03     8.25363E+06    -22.2763E+06    -38.6430E+06    -29.2465E+06    -13.6146E+06    -9.80466E+06     1.23013E+06         37.1870
            1459     12.2722E-03     79.7634E-03     613.628E-03     582.838E-03        -1.99165     582.547E-03        -1.99136     613.628E-03     7.09697E-03     116.731E-03    -57.7106E-03    -59.0433E-03    -56.7283E-03     114.459E-03    -57.7533E-03     38.8065E-03     66.5826E+06    -6.98612E+06    -28.7649E+06    -28.6878E+06     66.5055E+06    -6.98612E+06     1.54655E+06         40.3091
            1460     13.2172E-03     79.8165E-03     611.014E-03     586.665E-03        -1.98945     586.507E-03        -1.98929     611.014E-03    -13.2281E-03     118.860E-03    -57.7677E-03    -61.1418E-03    -56.4463E-03     114.164E-03    -57.7677E-03     56.6729E-03     122.720E+06     16.1595E+06    -26.9375E+06    -26.8617E+06     122.645E+06     16.1595E+06     1.88514E+06         44.0933
            1461     14.1617E-03     79.8909E-03     608.297E-03     580.216E-03        -1.97730     580.198E-03        -1.97729     608.297E-03     10.6685E-03     127.866E-03    -57.8967E-03    -70.0801E-03    -56.3278E-03     114.113E-03    -57.8967E-03     97.0120E-03     138.534E+06     53.0233E+06    -22.8040E+06    -22.7435E+06     138.473E+06     53.0233E+06     1.93559E+06         48.3344
            1462     15.1070E-03     80.0281E-03     604.279E-03     556.961E-03        -1.94680     556.925E-03        -1.94677     604.279E-03    -3.28968E-03     147.097E-03    -58.0295E-03    -89.2057E-03    -56.7008E-03     114.592E-03    -58.0295E-03     161.018E-03     150.856E+06     98.6354E+06    -16.1698E+06    -16.0955E+06     150.782E+06     98.6354E+06     1.41903E+06         52.3788
            1463     16.0548E-03     80.2514E-03     599.191E-03     538.886E-03        -1.91999     538.783E-03        -1.91989     599.191E-03     9.88113E-03     139.735E-03    -58.0899E-03    -81.6963E-03    -56.6701E-03     114.709E-03    -58.0899E-03     130.611E-03     160.350E+06     127.027E+06    -7.76055E+06    -7.70623E+06     160.296E+06     127.027E+06     165.749E+03         55.5056
            1464     944.221E-06     80.7538E-03         1.97826     549.171E-03        -3.30994    -612.065E-03        -2.00618         1.83573        -1.51164     116.491E-03    -58.0514E-03    -58.4432E-03    -58.3729E-03     116.490E-03    -58.1212E-03     412.529E-06    -71.7340E+06    -74.4361E+06    -273.013E+06    -74.1099E+06    -273.006E+06    -72.0672E+06    -599.732E+03         28.9985
            1465     1.88684E-03     80.7554E-03     811.222E-03     614.812E-03        -2.20423     626.111E-03        -2.01912     614.812E-03     389.709E-03     116.696E-03    -58.2679E-03    -58.4362E-03    -58.3763E-03     116.695E-03    -58.3268E-03     791.721E-06    -64.1958E+06    -70.9140E+06    -268.582E+06    -70.9308E+06    -268.565E+06    -64.1958E+06    -1.43641E+06         29.0846
            1466     2.83044E-03     80.7553E-03     687.535E-03     607.975E-03        -2.07572     616.248E-03        -2.01386     617.405E-03    -224.166E-03     116.307E-03    -57.9805E-03    -58.3428E-03    -57.9772E-03     116.304E-03    -58.3428E-03     1.39125E-03    -55.1516E+06    -66.8692E+06    -261.032E+06    -66.8847E+06    -261.017E+06    -55.1516E+06    -1.39358E+06         29.2285
            1467     3.77532E-03     80.7579E-03     648.205E-03     607.369E-03        -2.03482     613.853E-03        -2.00990     616.799E-03     55.1630E-03     116.042E-03    -57.7842E-03    -58.2797E-03    -57.7739E-03     116.031E-03    -58.2797E-03     2.57675E-03    -45.1537E+06    -63.1619E+06    -255.387E+06    -63.1665E+06    -255.383E+06    -45.1537E+06    -242.684E+03         29.4452
            1468     4.71918E-03     80.7607E-03     638.502E-03     616.942E-03        -2.03306     622.520E-03        -2.01708     616.942E-03    -47.8558E-03     116.240E-03    -58.0103E-03    -58.2570E-03    -57.9884E-03     116.218E-03    -58.2570E-03     3.84308E-03    -33.6248E+06    -57.9331E+06    -236.015E+06    -57.9393E+06    -236.009E+06    -33.6248E+06    -230.946E+03         29.7398
            1469     5.66250E-03     80.7658E-03     623.075E-03     609.886E-03        -2.01030     607.331E-03        -2.00135     616.672E-03     63.6908E-03     116.253E-03    -58.0398E-03    -58.2482E-03    -57.9983E-03     116.212E-03    -58.2482E-03     5.31090E-03    -23.8066E+06    -51.7744E+06     -209.81E+06    -51.7824E+06    -209.802E+06    -23.8066E+06    -819.655E+03         30.1177
            1470     6.60624E-03     80.7713E-03     617.278E-03     599.916E-03        -1.99341     598.906E-03        -1.98982     614.701E-03    -49.6938E-03     116.021E-03    -57.8268E-03    -58.2284E-03    -57.7431E-03     115.937E-03    -58.2284E-03     7.50261E-03    -16.5844E+06    -46.4573E+06    -187.916E+06    -46.4679E+06    -187.905E+06    -16.5844E+06    -1.02350E+06         30.6005
            1471     7.55065E-03     80.7809E-03     615.251E-03     598.615E-03        -1.99010     599.965E-03        -1.98888     612.675E-03     22.6993E-03     115.837E-03    -57.6859E-03    -58.1825E-03    -57.5464E-03     115.698E-03    -58.1825E-03     9.79006E-03    -10.2498E+06    -41.6975E+06    -164.051E+06    -41.7101E+06    -164.038E+06    -10.2498E+06    -973.496E+03         31.2162
            1472     8.49481E-03     80.7922E-03     611.443E-03     596.175E-03        -1.98398     596.255E-03        -1.98353     610.910E-03    -26.0221E-03     115.814E-03    -57.7074E-03    -58.1251E-03    -57.4859E-03     115.592E-03    -58.1251E-03     12.2906E-03    -5.39384E+06    -37.7188E+06    -139.208E+06    -37.7345E+06    -139.193E+06    -5.39384E+06    -751.498E+03         31.9850
            1473     9.43916E-03     80.8072E-03     609.591E-03     592.040E-03        -1.97859     592.391E-03        -1.97840     609.058E-03    -4.56983E-03     115.970E-03    -57.8579E-03    -58.0862E-03    -57.4635E-03     115.556E-03    -58.0669E-03     16.7007E-03    -3.63251E+06    -34.1078E+06    -109.819E+06    -34.1245E+06    -109.803E+06    -3.63251E+06    -44.9811E+03         33.0686
            1474     10.3824E-03     80.8280E-03     607.093E-03     587.864E-03        -1.97223     587.748E-03        -1.97211     607.093E-03    -27.1621E-03     115.761E-03    -57.7361E-03    -58.0082E-03    -57.1057E-03     115.111E-03    -57.9889E-03     21.1263E-03    -4.33655E+06    -30.8275E+06    -72.1664E+06    -30.9290E+06    -72.0649E+06    -4.33655E+06     794.443E+03         34.7604
            1475     11.3283E-03     80.8531E-03     604.820E-03     578.885E-03        -1.96025     578.727E-03        -1.96009     604.820E-03     18.7892E-03     115.971E-03    -57.6622E-03    -58.3472E-03    -57.0594E-03     114.895E-03    -57.8747E-03     26.9658E-03     7.39048E+06    -22.9361E+06    -39.6509E+06    -29.1977E+06    -15.1676E+06    -10.8312E+06     1.85182E+06         37.1844
            1476     12.2719E-03     80.8858E-03     602.040E-03     568.745E-03        -1.94649     568.455E-03        -1.94620     602.040E-03     5.45537E-03     117.161E-03    -57.7854E-03    -59.4024E-03    -57.0526E-03     114.811E-03    -57.7854E-03     39.6032E-03     66.2604E+06    -7.21268E+06    -28.4943E+06    -28.3155E+06     66.0816E+06    -7.21268E+06     2.97447E+06         40.3052
            1477     13.2146E-03     80.9406E-03     598.942E-03     564.941E-03        -1.93761     564.771E-03        -1.93744     598.942E-03    -24.6976E-03     118.421E-03    -57.8000E-03    -60.6607E-03    -55.9454E-03     113.705E-03    -57.8000E-03     56.6727E-03     123.396E+06     17.3288E+06    -26.1414E+06    -26.0495E+06     123.304E+06     17.3288E+06     2.88675E+06         44.0906
            1478     14.1625E-03     81.0084E-03     595.373E-03     556.144E-03        -1.92162     556.086E-03        -1.92156     595.373E-03     6.71920E-03     127.642E-03    -57.9069E-03    -69.8285E-03    -56.1290E-03     113.942E-03    -57.9069E-03     96.8084E-03     139.176E+06     53.6374E+06    -22.2968E+06    -22.2002E+06     139.080E+06     53.6374E+06     1.24425E+06         48.3347
            1479     15.1074E-03     81.1554E-03     590.843E-03     546.642E-03        -1.90631     546.509E-03        -1.90618     590.843E-03    -7.98437E-03     146.680E-03    -58.0471E-03    -88.7483E-03    -57.0756E-03     115.007E-03    -58.0471E-03     159.046E-03     151.649E+06     98.7389E+06    -15.4486E+06    -15.3791E+06     151.579E+06     98.7389E+06    -282.684E+03         52.3808
            1480     16.0525E-03     81.3658E-03     586.262E-03     547.636E-03        -1.90072     547.441E-03        -1.90053     586.262E-03     401.594E-06     139.263E-03    -58.1203E-03    -81.1834E-03    -56.6223E-03     114.702E-03    -58.1203E-03     130.263E-03     160.351E+06     126.742E+06    -7.50325E+06    -7.48565E+06     160.333E+06     126.742E+06    -48.0847E+03         55.5087
            1481     943.106E-06     81.8766E-03         1.89281     525.619E-03        -3.17924    -586.395E-03        -1.93731         1.76290        -1.42609     116.647E-03    -58.0925E-03    -58.5569E-03    -58.3948E-03     116.646E-03    -58.2532E-03     719.658E-06    -70.2816E+06    -73.2617E+06    -271.058E+06    -72.9427E+06    -271.053E+06    -70.6061E+06    -696.691E+03         28.9954
            1482     1.88755E-03     81.8777E-03     776.982E-03     590.191E-03        -2.12130     596.705E-03        -1.94102     590.191E-03     429.447E-03     116.467E-03    -58.1161E-03    -58.3575E-03    -58.1297E-03     116.466E-03    -58.3429E-03     755.903E-06    -61.3718E+06    -69.6407E+06    -267.133E+06    -69.6524E+06    -267.121E+06    -61.3718E+06    -1.48146E+06         29.0825
            1483     2.83105E-03     81.8780E-03     688.533E-03     597.137E-03        -2.04195     629.014E-03        -1.98243     597.137E-03    -124.494E-03     116.421E-03    -58.0360E-03    -58.3961E-03    -58.0980E-03     116.418E-03    -58.3312E-03     1.31329E-03    -51.7399E+06    -65.9956E+06    -261.827E+06    -66.0026E+06    -261.820E+06    -51.7399E+06    -671.503E+03         29.2302
            1484     3.77450E-03     81.8791E-03     647.251E-03     596.399E-03        -2.00401     610.261E-03        -1.97393     603.310E-03     113.068E-03     116.354E-03    -57.9917E-03    -58.3805E-03    -58.0473E-03     116.344E-03    -58.3156E-03     2.44733E-03    -43.4294E+06    -61.5470E+06    -255.241E+06    -61.5491E+06    -255.239E+06    -43.4294E+06    -308.804E+03         29.4458
            1485     4.71863E-03     81.8835E-03     616.537E-03     594.264E-03        -1.97191     593.533E-03        -1.95782     603.175E-03    -59.8696E-03     116.149E-03    -57.8928E-03    -58.2795E-03    -57.8722E-03     116.129E-03    -58.2795E-03     3.72185E-03    -35.9225E+06    -56.7020E+06    -234.935E+06    -56.7167E+06    -234.920E+06    -35.9225E+06    -1.42787E+06         29.7355
            1486     5.66263E-03     81.8880E-03     615.762E-03     599.337E-03        -1.97771     604.937E-03        -1.96990     602.352E-03     34.3713E-03     116.014E-03    -57.8132E-03    -58.2306E-03    -57.7720E-03     115.973E-03    -58.2306E-03     5.26910E-03    -27.0872E+06    -51.7852E+06    -209.731E+06    -51.8174E+06    -209.699E+06    -27.0872E+06    -2.07627E+06         30.1122
            1487     6.60684E-03     81.8941E-03     611.244E-03     586.595E-03        -1.95868     591.918E-03        -1.95453     601.771E-03    -48.8877E-03     116.022E-03    -57.8545E-03    -58.2024E-03    -57.7705E-03     115.938E-03    -58.2024E-03     7.52652E-03    -18.2499E+06    -46.7162E+06    -187.620E+06    -46.7473E+06    -187.589E+06    -18.2499E+06    -1.95648E+06         30.5978
            1488     7.55039E-03     81.9031E-03     598.942E-03     568.298E-03        -1.92910     566.775E-03        -1.92757     598.942E-03     31.9156E-03     116.030E-03    -57.8896E-03    -58.1721E-03    -57.7495E-03     115.890E-03    -58.1721E-03     9.82113E-03    -11.8617E+06    -42.0853E+06    -164.159E+06    -42.1148E+06    -164.130E+06    -11.8617E+06    -1.68578E+06         31.2158
            1489     8.49459E-03     81.9145E-03     596.379E-03     578.856E-03        -1.93628     579.014E-03        -1.93590     595.846E-03    -32.8144E-03     115.899E-03    -57.7789E-03    -58.1317E-03    -57.5626E-03     115.682E-03    -58.1317E-03     12.1681E-03    -6.65775E+06    -37.7518E+06    -139.710E+06    -37.7775E+06    -139.685E+06    -6.65775E+06    -1.26388E+06         31.9846
            1490     9.43841E-03     81.9293E-03     594.962E-03     588.481E-03        -1.94401     588.948E-03        -1.94394     594.429E-03    -3.15506E-03     115.884E-03    -57.7560E-03    -58.0909E-03    -57.3457E-03     115.455E-03    -58.0716E-03     16.9204E-03    -4.33164E+06    -33.6770E+06    -110.553E+06    -33.7023E+06    -110.528E+06    -4.33164E+06    -560.366E+03         33.0665
            1491     10.3834E-03     81.9508E-03     593.104E-03     575.933E-03        -1.92977     575.867E-03        -1.92971     593.104E-03    -19.6497E-03     115.937E-03    -57.7297E-03    -58.1765E-03    -57.2681E-03     115.294E-03    -57.9949E-03     21.0878E-03    -5.11514E+06    -30.4893E+06    -73.3803E+06    -30.5589E+06    -73.3107E+06    -5.11514E+06     359.337E+03         34.7561
            1492     11.3272E-03     81.9736E-03     591.033E-03     568.500E-03        -1.91504     568.380E-03        -1.91492     591.033E-03     13.5265E-03     116.098E-03    -57.7175E-03    -58.4023E-03    -57.1108E-03     114.979E-03    -57.8899E-03     27.2991E-03     5.77504E+06    -23.0638E+06    -39.4649E+06    -28.2657E+06    -17.0347E+06    -11.4533E+06     1.93041E+06         37.1776
            1493     12.2708E-03     82.0117E-03     588.561E-03     561.889E-03        -1.90692     561.482E-03        -1.90651     588.561E-03    -18.1012E-03     116.657E-03    -57.7775E-03    -58.8950E-03    -56.5327E-03     114.295E-03    -57.7775E-03     39.8015E-03     64.2681E+06    -8.04418E+06    -26.0511E+06    -25.8804E+06     64.0974E+06    -8.04418E+06     2.96726E+06         40.2988
            1494     13.2182E-03     82.0590E-03     585.531E-03     549.312E-03        -1.89111     548.876E-03        -1.89067     585.531E-03    -28.6330E-03     118.525E-03    -57.7905E-03    -60.7842E-03    -56.0563E-03     113.797E-03    -57.7905E-03     56.6932E-03     123.624E+06     19.1910E+06    -23.5916E+06    -23.5050E+06     123.538E+06     19.1910E+06     3.33176E+06         44.0879
            1495     14.1610E-03     82.1341E-03     581.730E-03     538.161E-03        -1.87243     537.929E-03        -1.87220     581.730E-03     32.3200E-03     128.198E-03    -57.9275E-03    -70.3885E-03    -56.5512E-03     114.361E-03    -57.9275E-03     97.5777E-03     141.999E+06     58.0470E+06    -20.0561E+06    -19.9534E+06     141.897E+06     58.0470E+06     1.91297E+06         48.3352
            1496     15.1060E-03     82.2745E-03     577.140E-03     531.394E-03        -1.86588     531.217E-03        -1.86570     577.140E-03     4.82071E-03     147.312E-03    -58.0797E-03    -89.3347E-03    -57.5918E-03     115.569E-03    -58.0797E-03     159.762E-03     153.429E+06     100.079E+06    -15.0727E+06    -14.9883E+06     153.345E+06     100.079E+06    -648.870E+03         52.3820
            1497     16.0511E-03     82.4916E-03     572.525E-03     530.405E-03        -1.85719     530.238E-03        -1.85702     572.525E-03     2.24968E-03     139.449E-03    -58.1565E-03    -81.3032E-03    -56.6604E-03     114.807E-03    -58.1565E-03     130.995E-03     159.841E+06     125.973E+06    -8.37365E+06    -8.33701E+06     159.804E+06     125.973E+06    -213.246E+03         55.5108
            1498     943.633E-06     82.9997E-03         1.84053     522.459E-03        -3.10613    -507.430E-03        -1.93599         1.70028        -1.33591     116.584E-03    -57.9854E-03    -58.5993E-03    -58.4862E-03     116.582E-03    -58.0970E-03     798.214E-06    -70.6142E+06    -74.0947E+06    -269.796E+06    -73.7725E+06    -269.794E+06    -70.9387E+06    -556.262E+03         28.9878
            1499     1.88684E-03     82.9993E-03     781.518E-03     597.260E-03        -2.11723     598.284E-03        -1.93400     597.260E-03     407.752E-03     116.337E-03    -58.0428E-03    -58.2988E-03    -58.0422E-03     116.336E-03    -58.2988E-03     551.143E-06    -63.4985E+06    -71.2337E+06    -267.517E+06    -71.2415E+06    -267.509E+06    -63.4985E+06    -261.641E+03         29.0774
            1500     2.83148E-03     83.0002E-03     659.167E-03     596.569E-03        -2.00001     593.235E-03        -1.93440     596.895E-03    -143.343E-03     116.501E-03    -58.1498E-03    -58.3593E-03    -58.2119E-03     116.498E-03    -58.2942E-03     1.36054E-03    -54.0258E+06    -67.9830E+06    -262.222E+06    -67.9909E+06    -262.214E+06    -54.0258E+06    -91.2003E+03         29.2302
            1501     3.77469E-03     83.0023E-03     614.928E-03     586.989E-03        -1.94327     577.939E-03        -1.91352     594.227E-03     135.455E-03     116.550E-03    -58.1690E-03    -58.3946E-03    -58.2248E-03     116.541E-03    -58.3295E-03     2.45765E-03    -44.1496E+06    -62.8220E+06    -253.844E+06    -62.8312E+06    -253.835E+06    -44.1496E+06    -967.356E+03         29.4476
            1502     4.71810E-03     83.0050E-03     592.899E-03     581.382E-03        -1.91389     571.626E-03        -1.90153     590.292E-03    -49.3863E-03     116.102E-03    -57.8175E-03    -58.3001E-03    -57.7949E-03     116.080E-03    -58.3001E-03     3.87147E-03    -36.9635E+06    -57.3003E+06    -232.771E+06    -57.3367E+06    -232.734E+06    -36.9635E+06    -2.26216E+06         29.7341
            1503     5.66280E-03     83.0097E-03     597.760E-03     581.854E-03        -1.92124     584.950E-03        -1.91469     588.115E-03     46.0353E-03     115.907E-03    -57.7049E-03    -58.2256E-03    -57.6621E-03     115.864E-03    -58.2256E-03     5.39081E-03    -29.7669E+06    -52.4287E+06    -208.772E+06    -52.4998E+06    -208.701E+06    -29.7669E+06    -3.28241E+06         30.1080
            1504     6.60653E-03     83.0165E-03     596.795E-03     575.627E-03        -1.91797     581.005E-03        -1.91388     587.322E-03    -2.91199E-03     116.018E-03    -57.8605E-03    -58.1894E-03    -57.7797E-03     115.938E-03    -58.1894E-03     7.38743E-03    -21.0732E+06    -47.7068E+06    -187.700E+06    -47.7970E+06    -187.610E+06    -21.0732E+06    -3.36500E+06         30.5938
            1505     7.55080E-03     83.0253E-03     585.233E-03     563.374E-03        -1.89501     560.837E-03        -1.89248     585.233E-03     49.9549E-03     116.058E-03    -57.9196E-03    -58.1655E-03    -57.7769E-03     115.916E-03    -58.1655E-03     9.88282E-03    -13.8996E+06    -42.8418E+06    -164.571E+06    -42.9199E+06    -164.493E+06    -13.8996E+06    -2.89438E+06         31.2134
            1506     8.49414E-03     83.0376E-03     582.376E-03     561.378E-03        -1.88917     560.823E-03        -1.88862     582.376E-03    -36.9806E-03     115.942E-03    -57.8225E-03    -58.1298E-03    -57.6020E-03     115.722E-03    -58.1298E-03     12.3116E-03    -8.16149E+06    -37.8653E+06    -139.913E+06    -37.9339E+06    -139.844E+06    -8.16149E+06    -2.26547E+06         31.9838
            1507     9.43891E-03     83.0507E-03     580.408E-03     568.609E-03        -1.89639     568.572E-03        -1.89636     580.408E-03     13.8245E-03     115.831E-03    -57.7177E-03    -58.0689E-03    -57.2921E-03     115.406E-03    -58.0689E-03     16.8316E-03    -6.11023E+06    -33.6178E+06    -111.812E+06    -33.6690E+06    -111.760E+06    -6.11023E+06    -1.54264E+06         33.0650
            1508     10.3832E-03     83.0737E-03     578.676E-03     559.313E-03        -1.88432     559.294E-03        -1.88430     578.676E-03     6.83505E-03     116.069E-03    -57.8344E-03    -58.1909E-03    -57.3528E-03     115.391E-03    -57.9939E-03     21.6156E-03    -6.78837E+06    -30.0869E+06    -74.8890E+06    -30.1795E+06    -74.7963E+06    -6.78837E+06    -462.030E+03         34.7493
            1509     11.3263E-03     83.0976E-03     576.293E-03     548.625E-03        -1.86304     548.509E-03        -1.86292     576.293E-03     26.7484E-03     116.062E-03    -57.8932E-03    -58.1829E-03    -57.0718E-03     114.951E-03    -57.8932E-03     27.3201E-03     3.98468E+06    -23.1675E+06    -39.1355E+06    -27.2108E+06    -18.5372E+06    -12.5703E+06     591.645E+03         37.1656
            1510     12.2730E-03     83.1310E-03     573.699E-03     549.191E-03        -1.85921     548.774E-03        -1.85879     573.699E-03    -17.9122E-03     116.375E-03    -57.7693E-03    -58.6250E-03    -56.3041E-03     114.054E-03    -57.7693E-03     39.2627E-03     61.6648E+06    -9.81816E+06    -25.1591E+06    -25.1136E+06     61.6193E+06    -9.81816E+06     1.84663E+06         40.2869
            1511     13.2158E-03     83.1832E-03     571.103E-03     545.045E-03        -1.85299     544.545E-03        -1.85249     571.103E-03    -9.56379E-03     118.508E-03    -57.7699E-03    -60.7950E-03    -56.0933E-03     113.806E-03    -57.7699E-03     56.5699E-03     122.860E+06     17.3687E+06    -22.9172E+06    -22.8392E+06     122.782E+06     17.3687E+06     3.10995E+06         44.0814
            1512     14.1623E-03     83.2550E-03     567.927E-03     534.155E-03        -1.83513     533.869E-03        -1.83485     567.927E-03     33.0049E-03     127.937E-03    -57.8987E-03    -70.1692E-03    -56.2961E-03     114.064E-03    -57.8987E-03     97.4316E-03     143.682E+06     57.8767E+06    -19.2064E+06    -19.1271E+06     143.602E+06     57.8767E+06     3.35980E+06         48.3356
            1513     15.1079E-03     83.3982E-03     563.460E-03     516.067E-03        -1.81481     515.943E-03        -1.81468     563.460E-03    -6.79665E-03     147.923E-03    -58.0381E-03    -90.0027E-03    -57.4177E-03     115.338E-03    -58.0381E-03     161.967E-03     155.685E+06     101.413E+06    -14.5904E+06    -14.4812E+06     155.576E+06     101.413E+06     1.94311E+06         52.3862
            1514     16.0516E-03     83.6151E-03     558.257E-03     503.411E-03        -1.79458     503.356E-03        -1.79452     558.257E-03     1.53200E-03     140.267E-03    -58.1179E-03    -82.1849E-03    -57.1407E-03     115.223E-03    -58.1179E-03     131.335E-03     160.937E+06     126.864E+06    -7.79354E+06    -7.70289E+06     160.846E+06     126.864E+06     135.002E+03         55.5154
            1515     943.682E-06     84.1222E-03         1.74732     536.471E-03        -3.00598    -437.257E-03        -1.91326         1.62833        -1.31620     116.209E-03    -57.9838E-03    -58.2286E-03    -58.2041E-03     116.208E-03    -58.0078E-03     440.999E-06    -72.7557E+06    -77.4416E+06    -270.759E+06    -76.5112E+06    -270.753E+06    -73.6915E+06     500.511E+03         28.9783
            1516     1.88789E-03     84.1214E-03     745.079E-03     590.080E-03        -2.06055     567.910E-03        -1.88338     590.080E-03     339.719E-03     116.510E-03    -58.1643E-03    -58.3518E-03    -58.3040E-03     116.509E-03    -58.2110E-03     753.770E-06    -66.1267E+06    -74.2976E+06    -268.181E+06    -74.3065E+06    -268.172E+06    -66.1267E+06     738.800E+03         29.0731
            1517     2.83068E-03     84.1227E-03     623.053E-03     580.072E-03        -1.93023     555.777E-03        -1.86328     580.397E-03    -200.873E-03     116.591E-03    -58.1593E-03    -58.4396E-03    -58.2971E-03     116.588E-03    -58.2986E-03     1.47955E-03    -55.6356E+06    -69.2603E+06    -260.686E+06    -69.2695E+06    -260.676E+06    -55.6356E+06    -321.193E+03         29.2286
            1518     3.77455E-03     84.1249E-03     596.208E-03     575.194E-03        -1.90073     569.682E-03        -1.87453     575.519E-03     93.3812E-03     116.295E-03    -57.9899E-03    -58.3182E-03    -57.9821E-03     116.287E-03    -58.3180E-03     2.28851E-03    -44.8173E+06    -63.7383E+06    -251.715E+06    -63.7723E+06    -251.681E+06    -44.8173E+06    -2.25359E+06         29.4479
            1519     4.71892E-03     84.1268E-03     590.404E-03     575.094E-03        -1.89041     578.693E-03        -1.87870     575.094E-03    -73.1745E-03     116.190E-03    -57.9244E-03    -58.2801E-03    -57.9016E-03     116.167E-03    -58.2801E-03     3.85236E-03    -37.0384E+06    -58.3675E+06    -230.490E+06    -58.4463E+06    -230.411E+06    -37.0384E+06    -3.54217E+06         29.7358
            1520     5.66232E-03     84.1322E-03     575.361E-03     563.816E-03        -1.86451     558.685E-03        -1.85811     574.093E-03     12.0945E-03     116.098E-03    -57.8915E-03    -58.2285E-03    -57.8473E-03     116.054E-03    -58.2285E-03     5.50912E-03    -30.4878E+06    -52.8611E+06    -207.014E+06    -53.0002E+06    -206.874E+06    -30.4878E+06    -4.48128E+06         30.1084
            1521     6.60657E-03     84.1385E-03     573.857E-03     560.133E-03        -1.86097     557.406E-03        -1.85607     571.682E-03    -20.6142E-03     115.983E-03    -57.8113E-03    -58.1977E-03    -57.7276E-03     115.899E-03    -58.1977E-03     7.50182E-03    -22.9644E+06    -47.5806E+06    -187.497E+06    -47.7680E+06    -187.310E+06    -22.9644E+06    -5.03267E+06         30.5920
            1522     7.55015E-03     84.1480E-03     575.904E-03     565.250E-03        -1.86996     568.206E-03        -1.86741     570.391E-03     42.7440E-03     115.903E-03    -57.7668E-03    -58.1620E-03    -57.6228E-03     115.759E-03    -58.1620E-03     9.93531E-03    -15.6713E+06    -42.4875E+06    -164.882E+06    -42.6763E+06    -164.693E+06    -15.6713E+06     -4.6147E+06         31.2109
            1523     8.49508E-03     84.1591E-03     572.697E-03     553.317E-03        -1.85708     555.991E-03        -1.85642     569.359E-03    -38.8327E-03     115.911E-03    -57.8139E-03    -58.1168E-03    -57.5925E-03     115.689E-03    -58.1168E-03     12.3274E-03    -10.0338E+06    -37.9304E+06    -140.381E+06    -38.0888E+06    -140.223E+06    -10.0338E+06    -3.83704E+06         31.9836
            1524     9.43829E-03     84.1738E-03     566.864E-03     535.760E-03        -1.83194     535.699E-03        -1.83188     566.864E-03     15.3046E-03     116.029E-03    -57.8989E-03    -58.0931E-03    -57.5083E-03     115.612E-03    -58.0669E-03     16.7218E-03    -7.86052E+06    -33.7667E+06    -112.936E+06    -33.8992E+06    -112.803E+06    -7.86052E+06    -2.93239E+06         33.0638
            1525     10.3827E-03     84.1943E-03     563.656E-03     533.546E-03        -1.82250     533.518E-03        -1.82247     563.656E-03     9.31043E-03     115.876E-03    -57.7933E-03    -58.0497E-03    -57.1578E-03     115.179E-03    -57.9888E-03     21.8509E-03    -8.65737E+06    -30.2849E+06    -76.3584E+06    -30.3818E+06    -76.2616E+06    -8.65737E+06    -1.74845E+06         34.7396
            1526     11.3282E-03     84.2212E-03     561.080E-03     541.049E-03        -1.82219     540.955E-03        -1.82209     561.080E-03     27.7608E-03     115.934E-03    -57.7466E-03    -58.2095E-03    -56.9968E-03     114.850E-03    -57.8754E-03     27.1753E-03     2.74862E+06    -24.1108E+06    -40.9355E+06    -28.1502E+06    -19.7238E+06    -14.4236E+06    -771.816E+03         37.1485
            1527     12.2702E-03     84.2521E-03     558.703E-03     531.938E-03        -1.81033     531.590E-03        -1.80999     558.703E-03    -17.2713E-03     116.681E-03    -57.7726E-03    -58.9366E-03    -56.6201E-03     114.365E-03    -57.7726E-03     39.1215E-03     59.2793E+06    -11.0243E+06    -26.1603E+06    -26.1040E+06     59.2230E+06    -11.0243E+06     1.01117E+06         40.2691
            1528     13.2178E-03     84.3059E-03     555.729E-03     522.933E-03        -1.80086     522.587E-03        -1.80052     555.729E-03    -21.1577E-03     118.392E-03    -57.7759E-03    -60.6715E-03    -55.9013E-03     113.622E-03    -57.7759E-03     56.9760E-03     120.594E+06     15.4340E+06    -23.5488E+06    -23.4742E+06     120.520E+06     15.4340E+06     3.08764E+06         44.0701
            1529     14.1615E-03     84.3771E-03     552.289E-03     523.009E-03        -1.79597     522.892E-03        -1.79585     552.289E-03     9.96872E-03     127.282E-03    -57.8719E-03    -69.5246E-03    -55.9005E-03     113.658E-03    -57.8719E-03     96.4397E-03     143.375E+06     55.0259E+06    -20.2838E+06    -20.1843E+06     143.276E+06     55.0259E+06     3.77530E+06         48.3337
            1530     15.1085E-03     84.5179E-03     548.001E-03     511.501E-03        -1.77836     511.423E-03        -1.77828     548.001E-03    -16.7486E-03     147.589E-03    -57.9964E-03    -89.7294E-03    -57.0609E-03     114.921E-03    -57.9964E-03     161.702E-03     157.146E+06     101.252E+06    -13.7338E+06    -13.6359E+06     157.048E+06     101.252E+06     3.18600E+06         52.3887
            1531     16.0551E-03     84.7412E-03     543.312E-03     502.877E-03        -1.76315     502.796E-03        -1.76307     543.312E-03     2.12104E-03     140.403E-03    -58.0826E-03    -82.3961E-03    -57.4009E-03     115.408E-03    -58.0826E-03     130.005E-03     163.456E+06     128.739E+06    -5.73851E+06    -5.66814E+06     163.386E+06     128.739E+06     1.34823E+06         55.5182
            1532     944.078E-06     85.2427E-03         1.63729     568.270E-03        -2.91429    -409.235E-03        -1.80904         1.50955        -1.35855     116.077E-03    -57.9095E-03    -58.1699E-03    -58.1661E-03     116.076E-03    -57.9127E-03     512.316E-06    -75.1690E+06    -79.1771E+06    -272.991E+06    -78.2546E+06    -272.978E+06    -76.1048E+06     1.52600E+06         28.9725
            1533     1.88751E-03     85.2445E-03     722.913E-03     551.264E-03        -1.98475     555.436E-03        -1.81728     551.264E-03     340.273E-03     116.541E-03    -58.0726E-03    -58.4724E-03    -58.3763E-03     116.539E-03    -58.1672E-03     972.311E-06    -67.8178E+06    -76.0043E+06    -267.462E+06    -76.0146E+06    -267.451E+06    -67.8178E+06     1.06392E+06         29.0693
            1534     2.83086E-03     85.2454E-03     616.848E-03     552.731E-03        -1.87972     555.434E-03        -1.81831     552.731E-03    -174.655E-03     116.434E-03    -58.0303E-03    -58.4107E-03    -58.1681E-03     116.431E-03    -58.2699E-03     1.42568E-03    -57.2402E+06    -71.5015E+06    -258.229E+06    -71.5165E+06    -258.214E+06    -57.2402E+06    -1.02025E+06         29.2263
            1535     3.77495E-03     85.2461E-03     590.248E-03     554.442E-03        -1.85392     564.745E-03        -1.82842     554.442E-03     92.2641E-03     116.290E-03    -58.0125E-03    -58.2922E-03    -58.0194E-03     116.281E-03    -58.2764E-03     2.38833E-03    -47.0346E+06    -65.9942E+06    -248.520E+06    -66.0668E+06    -248.448E+06    -47.0346E+06    -3.36545E+06         29.4484
            1536     4.71857E-03     85.2497E-03     572.462E-03     552.723E-03        -1.83630     556.716E-03        -1.82360     555.772E-03    -51.9249E-03     116.267E-03    -58.0082E-03    -58.2750E-03    -58.0028E-03     116.246E-03    -58.2592E-03     3.77515E-03    -39.3197E+06    -60.0521E+06    -227.782E+06    -60.2684E+06    -227.566E+06    -39.3197E+06    -5.58633E+06         29.7383
            1537     5.66255E-03     85.2540E-03     558.571E-03     545.572E-03        -1.81557     540.957E-03        -1.80702     554.636E-03     10.0087E-03     116.104E-03    -57.9041E-03    -58.2237E-03    -57.8590E-03     116.059E-03    -58.2237E-03     5.50060E-03    -32.1358E+06    -53.6860E+06    -205.528E+06    -53.9835E+06    -205.230E+06    -32.1358E+06    -6.51590E+06         30.1100
            1538     6.60612E-03     85.2609E-03     560.396E-03     547.068E-03        -1.81647     549.026E-03        -1.81111     553.083E-03    -53.5408E-03     115.969E-03    -57.8097E-03    -58.1906E-03    -57.7233E-03     115.882E-03    -58.1906E-03     7.66009E-03    -24.9242E+06    -48.0588E+06    -186.332E+06    -48.4148E+06    -185.976E+06    -24.9242E+06    -6.80616E+06         30.5917
            1539     7.55091E-03     85.2697E-03     563.004E-03     553.106E-03        -1.82503     560.595E-03        -1.82262     553.106E-03     16.1640E-03     115.900E-03    -57.7747E-03    -58.1553E-03    -57.6315E-03     115.757E-03    -58.1553E-03     9.90060E-03    -18.3074E+06    -43.1912E+06    -165.047E+06    -43.5835E+06    -164.655E+06    -18.3074E+06    -6.76516E+06         31.2097
            1540     8.49418E-03     85.2815E-03     558.403E-03     541.487E-03        -1.81040     545.823E-03        -1.80931     552.978E-03    -44.2160E-03     115.870E-03    -57.7749E-03    -58.1135E-03    -57.5524E-03     115.647E-03    -58.1135E-03     12.3536E-03    -12.3489E+06    -38.2435E+06    -141.487E+06    -38.6070E+06    -141.124E+06    -12.3489E+06    -5.88729E+06         31.9821
            1541     9.43905E-03     85.2959E-03     550.745E-03     519.309E-03        -1.77849     519.167E-03        -1.77835     550.745E-03     10.3134E-03     116.008E-03    -57.8842E-03    -58.0896E-03    -57.4880E-03     115.585E-03    -58.0634E-03     16.8313E-03    -9.82300E+06    -33.8672E+06    -114.278E+06    -34.1681E+06    -113.977E+06    -9.82300E+06    -4.68965E+06         33.0583
            1542     10.3826E-03     85.3171E-03     547.572E-03     519.471E-03        -1.77255     519.423E-03        -1.77250     547.572E-03    -11.7004E-03     115.801E-03    -57.7688E-03    -58.0081E-03    -57.1113E-03     115.117E-03    -57.9819E-03     21.6715E-03    -10.5332E+06    -30.3643E+06    -78.0282E+06    -30.6113E+06    -77.7812E+06    -10.5332E+06    -3.06738E+06         34.7246
            1543     11.3268E-03     85.3418E-03     545.137E-03     526.859E-03        -1.77724     526.688E-03        -1.77707     545.137E-03     26.4328E-03     115.710E-03    -57.6640E-03    -58.0782E-03    -56.7494E-03     114.570E-03    -57.8526E-03     27.7088E-03     967.794E+03    -25.1859E+06    -41.9272E+06    -28.1692E+06    -21.5530E+06    -16.4232E+06    -1.14986E+06         37.1261
            1544     12.2732E-03     85.3769E-03     542.652E-03     512.555E-03        -1.76230     512.070E-03        -1.76181     542.652E-03    -11.3338E-03     116.784E-03    -57.7393E-03    -59.0670E-03    -56.7299E-03     114.447E-03    -57.7393E-03     39.5937E-03     57.1109E+06    -13.3136E+06    -27.1044E+06    -27.0374E+06     57.0440E+06    -13.3136E+06     649.320E+03         40.2466
            1545     13.2155E-03     85.4255E-03     539.324E-03     501.383E-03        -1.75054     501.039E-03        -1.75020     539.324E-03    -30.5086E-03     118.689E-03    -57.7576E-03    -60.9806E-03    -56.2433E-03     113.952E-03    -57.7576E-03     56.7909E-03     118.798E+06     12.3372E+06    -25.1868E+06    -25.1129E+06     118.724E+06     12.3372E+06     2.59816E+06         44.0541
            1546     14.1629E-03     85.5005E-03     535.605E-03     502.474E-03        -1.74594     502.385E-03        -1.74585     535.605E-03     23.7383E-03     127.266E-03    -57.8782E-03    -69.4791E-03    -56.1710E-03     113.958E-03    -57.8782E-03     95.5883E-03     143.703E+06     53.2983E+06    -20.0196E+06    -19.9234E+06     143.607E+06     53.2983E+06     3.09976E+06         48.3257
            1547     15.1070E-03     85.6381E-03     531.557E-03     505.083E-03        -1.73886     504.943E-03        -1.73872     531.557E-03    -763.595E-06     147.617E-03    -58.0239E-03    -89.7250E-03    -57.1708E-03     115.063E-03    -58.0239E-03     161.221E-03     157.732E+06     100.688E+06    -13.3264E+06    -13.2080E+06     157.614E+06     100.688E+06     2.83479E+06         52.3845
            1548     16.0517E-03     85.8637E-03     527.574E-03     501.393E-03        -1.72538     501.275E-03        -1.72526     527.574E-03    -2.44033E-03     140.233E-03    -58.1046E-03    -82.2181E-03    -56.9705E-03     114.985E-03    -58.1046E-03     130.557E-03     164.371E+06     128.273E+06    -6.72045E+06    -6.63471E+06     164.285E+06     128.273E+06     2.47456E+06         55.5161
            1549     944.162E-06     86.3653E-03         1.57397     559.327E-03        -2.82227    -369.348E-03        -1.75460         1.43499        -1.23781     116.251E-03    -57.8387E-03    -58.4107E-03    -58.3218E-03     116.250E-03    -57.9262E-03     951.310E-06    -79.0288E+06    -82.8122E+06    -274.361E+06    -81.8989E+06    -274.351E+06    -79.9525E+06     525.003E+03         28.9690
            1550     1.88704E-03     86.3669E-03     716.851E-03     534.238E-03        -1.93853     538.104E-03        -1.75978     534.238E-03     415.230E-03     116.284E-03    -57.9467E-03    -58.3394E-03    -58.1095E-03     116.283E-03    -58.1750E-03     1.01835E-03    -70.8229E+06    -77.5880E+06    -267.168E+06    -77.5960E+06    -267.160E+06    -70.8229E+06     262.014E+03         29.0643
            1551     2.83160E-03     86.3670E-03     600.937E-03     536.562E-03        -1.82520     544.747E-03        -1.76901     536.562E-03    -144.679E-03     116.264E-03    -58.0268E-03    -58.2457E-03    -58.0700E-03     116.260E-03    -58.1993E-03     1.38584E-03    -59.6901E+06    -72.5953E+06    -255.036E+06    -72.6228E+06    -255.009E+06    -59.6901E+06    -1.46415E+06         29.2233
            1552     3.77499E-03     86.3690E-03     562.785E-03     537.780E-03        -1.79107     536.813E-03        -1.76510     537.780E-03     87.2033E-03     116.444E-03    -58.1664E-03    -58.2928E-03    -58.2194E-03     116.435E-03    -58.2306E-03     2.45156E-03    -48.6558E+06    -66.5838E+06    -243.292E+06    -66.7795E+06    -243.096E+06    -48.6558E+06    -5.18943E+06         29.4485
            1553     4.71840E-03     86.3720E-03     547.821E-03     533.882E-03        -1.77648     530.122E-03        -1.76183     536.931E-03    -30.9646E-03     116.283E-03    -58.0391E-03    -58.2622E-03    -58.0331E-03     116.261E-03    -58.2464E-03     3.79823E-03    -40.8605E+06    -60.0663E+06    -224.260E+06    -60.4700E+06    -223.856E+06    -40.8605E+06    -7.89699E+06         29.7403
            1554     5.66239E-03     86.3761E-03     545.735E-03     532.912E-03        -1.77120     533.311E-03        -1.76183     535.961E-03     45.3867E-03     116.037E-03    -57.8504E-03    -58.2139E-03    -57.8055E-03     115.992E-03    -58.2139E-03     5.49470E-03    -34.1294E+06    -54.5058E+06    -204.170E+06    -55.0478E+06    -203.628E+06    -34.1294E+06    -8.77882E+06         30.1120
            1555     6.60684E-03     86.3832E-03     540.816E-03     531.077E-03        -1.76298     531.663E-03        -1.75812     535.378E-03    -38.0764E-03     115.986E-03    -57.8386E-03    -58.1793E-03    -57.7524E-03     115.900E-03    -58.1793E-03     7.63041E-03    -27.3602E+06    -49.3847E+06    -185.090E+06    -50.0227E+06    -184.452E+06    -27.3602E+06    -9.09379E+06         30.5920
            1556     7.54991E-03     86.3921E-03     538.753E-03     523.056E-03        -1.75166     524.812E-03        -1.74903     534.367E-03     15.9264E-03     115.958E-03    -57.8400E-03    -58.1479E-03    -57.6945E-03     115.812E-03    -58.1479E-03     9.98283E-03    -20.5450E+06    -44.0065E+06    -164.406E+06    -44.7451E+06    -163.667E+06    -20.5450E+06    -9.19152E+06         31.2087
            1557     8.49490E-03     86.4038E-03     536.802E-03     520.617E-03        -1.74550     523.194E-03        -1.74429     533.012E-03    -41.9050E-03     115.849E-03    -57.7609E-03    -58.1091E-03    -57.5362E-03     115.624E-03    -58.1091E-03     12.4147E-03    -15.0721E+06    -38.7044E+06    -142.804E+06    -39.4410E+06    -142.067E+06    -15.0721E+06    -8.54519E+06         31.9796
            1558     9.43831E-03     86.4182E-03     538.564E-03     520.991E-03        -1.74657     527.406E-03        -1.74639     531.965E-03     17.5545E-03     115.823E-03    -57.7472E-03    -58.0519E-03    -57.3245E-03     115.400E-03    -58.0519E-03     16.8235E-03    -12.3734E+06    -33.8001E+06    -115.795E+06    -34.4754E+06    -115.120E+06    -12.3734E+06    -7.11771E+06         33.0498
            1559     10.3832E-03     86.4396E-03     535.688E-03     512.255E-03        -1.73609     517.113E-03        -1.73605     530.791E-03    -13.8561E-03     115.767E-03    -57.7807E-03    -57.9681E-03    -57.1154E-03     115.101E-03    -57.9681E-03     21.3913E-03    -12.4521E+06    -29.4638E+06    -79.8758E+06    -30.0509E+06    -79.2886E+06    -12.4521E+06    -5.10914E+06         34.7055
            1560     11.3282E-03     86.4633E-03     528.648E-03     502.010E-03        -1.71759     501.657E-03        -1.71724     528.648E-03     33.1333E-03     115.690E-03    -57.7701E-03    -57.9542E-03    -56.7752E-03     114.585E-03    -57.8450E-03     27.2291E-03    -2.53308E+06    -25.6815E+06    -42.7212E+06    -27.3681E+06    -25.0286E+06    -18.5391E+06    -1.84972E+06         37.0992
            1561     12.2721E-03     86.4982E-03     525.947E-03     499.671E-03        -1.71125     499.020E-03        -1.71059     525.947E-03     2.31877E-03     116.635E-03    -57.7218E-03    -58.9397E-03    -56.6161E-03     114.312E-03    -57.7218E-03     39.4012E-03     54.3678E+06    -15.3110E+06    -26.6945E+06    -26.6076E+06     54.2809E+06    -15.3110E+06     1.09105E+06         40.2194
            1562     13.2180E-03     86.5502E-03     523.080E-03     493.401E-03        -1.70114     492.902E-03        -1.70065     523.080E-03    -10.3985E-03     118.848E-03    -57.7424E-03    -61.1624E-03    -56.5020E-03     114.187E-03    -57.7424E-03     56.4696E-03     118.645E+06     10.8960E+06    -25.5277E+06    -25.4385E+06     118.556E+06     10.8960E+06     1.91037E+06         44.0333
            1563     14.1602E-03     86.6208E-03     519.526E-03     481.367E-03        -1.68417     481.108E-03        -1.68392     519.526E-03     35.4905E-03     127.952E-03    -57.9035E-03    -70.1515E-03    -56.8009E-03     114.602E-03    -57.9035E-03     95.8996E-03     143.858E+06     52.6733E+06    -21.0519E+06    -20.9799E+06     143.786E+06     52.6733E+06     1.79162E+06         48.3127
            1564     15.1066E-03     86.7618E-03     514.960E-03     479.013E-03        -1.67595     478.783E-03        -1.67572     514.960E-03    -16.0729E-03     147.522E-03    -58.0669E-03    -89.5706E-03    -57.1451E-03     115.096E-03    -58.0669E-03     160.878E-03     156.425E+06     99.2719E+06    -14.6370E+06    -14.5311E+06     156.319E+06     99.2719E+06     3.12825E+06         52.3762
            1565     16.0535E-03     86.9836E-03     510.207E-03     475.212E-03        -1.65702     475.010E-03        -1.65682     510.207E-03    -13.8849E-03     139.788E-03    -58.1239E-03    -81.7595E-03    -56.3584E-03     114.387E-03    -58.1239E-03     131.735E-03     165.187E+06     127.336E+06    -7.88331E+06    -7.78814E+06     165.091E+06     127.336E+06     3.20763E+06         55.5114
            1566     942.917E-06     87.4879E-03         1.50326     544.961E-03        -2.71609    -308.639E-03        -1.75743         1.39820        -1.17382     116.272E-03    -57.9175E-03    -58.3539E-03    -58.1504E-03     116.270E-03    -58.1189E-03     1.18500E-03    -81.6127E+06    -84.3006E+06    -274.001E+06    -83.3827E+06    -273.996E+06    -82.5364E+06    -915.466E+03         28.9668
            1567     1.88797E-03     87.4885E-03     676.141E-03     536.626E-03        -1.87310     503.463E-03        -1.70042     536.626E-03     368.960E-03     116.122E-03    -57.9249E-03    -58.1994E-03    -57.9796E-03     116.120E-03    -58.1431E-03     980.207E-06    -75.7447E+06    -80.4035E+06    -266.846E+06    -80.4202E+06    -266.829E+06    -75.7447E+06    -1.37261E+06         29.0609
            1568     2.83125E-03     87.4891E-03     567.585E-03     525.495E-03        -1.75619     508.566E-03        -1.69717     525.495E-03    -150.008E-03     116.302E-03    -58.0727E-03    -58.2400E-03    -58.1716E-03     116.299E-03    -58.1374E-03     1.51445E-03    -67.2558E+06    -75.5105E+06    -249.753E+06    -75.6706E+06    -249.593E+06    -67.2558E+06     -3.9422E+06         29.2196
            1569     3.77481E-03     87.4920E-03     528.132E-03     519.885E-03        -1.71809     500.962E-03        -1.69127     520.232E-03     85.4387E-03     116.282E-03    -58.0652E-03    -58.2346E-03    -58.1026E-03     116.273E-03    -58.1882E-03     2.46048E-03    -54.1416E+06    -69.0100E+06    -236.636E+06    -69.4623E+06    -236.184E+06    -54.1416E+06    -8.14945E+06         29.4457
            1570     4.71882E-03     87.4938E-03     525.995E-03     516.938E-03        -1.71752     512.448E-03        -1.70432     517.285E-03    -60.7157E-03     116.255E-03    -58.0499E-03    -58.2277E-03    -58.0342E-03     116.233E-03    -58.2212E-03     3.82416E-03    -43.2018E+06    -62.3516E+06    -221.528E+06    -63.0108E+06    -220.868E+06    -43.2018E+06    -10.0689E+06         29.7406
            1571     5.66248E-03     87.4987E-03     531.317E-03     517.259E-03        -1.72255     523.802E-03        -1.71503     517.259E-03     18.5749E-03     116.156E-03    -57.9740E-03    -58.2088E-03    -57.9380E-03     116.114E-03    -58.2023E-03     5.39456E-03    -36.7817E+06    -56.9221E+06    -201.671E+06    -57.7812E+06    -200.811E+06    -36.7817E+06    -10.9314E+06         30.1143
            1572     6.60599E-03     87.5045E-03     522.772E-03     508.654E-03        -1.70308     509.857E-03        -1.69867     517.157E-03    -47.2510E-03     115.949E-03    -57.7946E-03    -58.1778E-03    -57.7096E-03     115.864E-03    -58.1778E-03     7.53947E-03    -29.6340E+06    -50.8513E+06    -183.131E+06    -51.9911E+06    -181.991E+06    -29.6340E+06    -11.9790E+06         30.5931
            1573     7.55097E-03     87.5148E-03     516.864E-03     499.965E-03        -1.68775     499.567E-03        -1.68597     515.479E-03     22.8654E-03     115.923E-03    -57.8097E-03    -58.1403E-03    -57.6618E-03     115.775E-03    -58.1403E-03     10.0759E-03    -22.8398E+06    -44.6572E+06    -163.564E+06    -45.9518E+06    -162.269E+06    -22.8398E+06    -12.1354E+06         31.2079
            1574     8.49395E-03     87.5257E-03     517.036E-03     505.303E-03        -1.69070     507.656E-03        -1.68996     513.948E-03    -18.9750E-03     115.861E-03    -57.7845E-03    -58.0985E-03    -57.5626E-03     115.639E-03    -58.0985E-03     12.3454E-03    -17.3985E+06    -39.0798E+06    -143.297E+06    -40.4549E+06    -141.922E+06    -17.3985E+06    -11.6427E+06         31.9777
            1575     9.43896E-03     87.5402E-03     519.965E-03     507.185E-03        -1.69289     513.586E-03        -1.69269     513.365E-03     26.3431E-03     115.764E-03    -57.7055E-03    -58.0372E-03    -57.2888E-03     115.348E-03    -58.0372E-03     16.6880E-03    -14.9018E+06    -33.7741E+06    -117.654E+06    -35.1060E+06    -116.322E+06    -14.9018E+06    -10.2590E+06         33.0425
            1576     10.3830E-03     87.5610E-03     517.384E-03     495.733E-03        -1.68033     500.593E-03        -1.68029     512.487E-03    -12.5722E-03     115.911E-03    -57.8169E-03    -58.0750E-03    -57.2701E-03     115.251E-03    -57.9618E-03     21.3264E-03    -14.8817E+06    -29.2515E+06    -82.9412E+06    -30.5906E+06    -81.6022E+06    -14.8817E+06    -7.93039E+06         34.6858
            1577     11.3267E-03     87.5862E-03     510.660E-03     490.872E-03        -1.66992     490.596E-03        -1.66964     510.660E-03     15.3156E-03     115.842E-03    -57.8048E-03    -58.0673E-03    -56.9654E-03     114.796E-03    -57.8608E-03     26.6030E-03    -6.52831E+06    -25.6029E+06    -44.3655E+06    -26.7323E+06    -29.3617E+06    -20.4027E+06    -4.49713E+06         37.0695
            1578     12.2720E-03     87.6193E-03     508.581E-03     492.506E-03        -1.66593     491.912E-03        -1.66534     508.581E-03    -12.5921E-03     116.602E-03    -57.7000E-03    -58.9166E-03    -56.4630E-03     114.190E-03    -57.7410E-03     39.7957E-03     49.4503E+06    -15.8546E+06    -24.3603E+06    -23.3678E+06     49.2434E+06    -16.6403E+06     391.451E+03         40.1888
            1579     13.2160E-03     87.6726E-03     506.185E-03     481.565E-03        -1.64863     481.022E-03        -1.64809     506.185E-03    -12.4690E-03     118.695E-03    -57.7504E-03    -60.9899E-03    -56.3289E-03     114.034E-03    -57.7504E-03     56.6656E-03     117.841E+06     11.6145E+06    -21.8152E+06    -21.6578E+06     117.683E+06     11.6145E+06     3.28324E+06         44.0098
            1580     14.1628E-03     87.7439E-03     502.698E-03     465.837E-03        -1.62996     465.632E-03        -1.62976     502.698E-03     18.5068E-03     128.286E-03    -57.9111E-03    -70.4913E-03    -56.9508E-03     114.746E-03    -57.9111E-03     96.3156E-03     143.385E+06     52.1021E+06    -22.0121E+06    -21.8669E+06     143.239E+06     52.1021E+06     3.45637E+06         48.2988
            1581     15.1052E-03     87.8854E-03     497.703E-03     450.084E-03        -1.61087     449.947E-03        -1.61074     497.703E-03    -19.0041E-03     147.430E-03    -58.0855E-03    -89.4244E-03    -57.4531E-03     115.459E-03    -58.0855E-03     160.154E-03     155.630E+06     96.9303E+06    -18.1236E+06    -18.0612E+06     155.567E+06     96.9303E+06     3.14944E+06         52.3675
            1582     16.0518E-03     88.1007E-03     492.208E-03     443.695E-03        -1.59271     443.286E-03        -1.59230     492.208E-03     16.2096E-03     139.292E-03    -58.1545E-03    -81.1842E-03    -56.2680E-03     114.376E-03    -58.1545E-03     131.296E-03     167.482E+06     127.155E+06    -10.0576E+06    -10.0146E+06     167.439E+06     127.155E+06     1.85258E+06         55.5049
            1583     944.311E-06     88.6098E-03         1.37837     561.577E-03        -2.57456    -254.908E-03        -1.63643         1.25672        -1.17555     116.280E-03    -57.9489E-03    -58.3326E-03    -58.2171E-03     116.279E-03    -58.0628E-03     796.299E-06    -85.8968E+06    -87.9040E+06    -271.801E+06    -87.9356E+06    -271.769E+06    -85.8968E+06    -773.866E+03         28.9699
            1584     1.88737E-03     88.6099E-03     668.818E-03     502.581E-03        -1.81168     509.213E-03        -1.65208     502.581E-03     296.147E-03     116.264E-03    -57.9856E-03    -58.2824E-03    -58.1024E-03     116.263E-03    -58.1641E-03     834.383E-06    -81.0705E+06    -84.3063E+06    -263.187E+06    -84.4440E+06    -263.049E+06    -81.0705E+06    -3.97938E+06         29.0611
            1585     2.83110E-03     88.6124E-03     560.573E-03     503.461E-03        -1.70568     499.053E-03        -1.64416     503.461E-03    -175.750E-03     116.128E-03    -57.9477E-03    -58.1902E-03    -57.9999E-03     116.124E-03    -58.1340E-03     1.65766E-03    -74.1214E+06    -78.7932E+06    -242.645E+06    -79.2724E+06    -242.166E+06    -74.1214E+06     -8.0814E+06         29.2155
            1586     3.77503E-03     88.6130E-03     515.231E-03     500.942E-03        -1.66392     490.106E-03        -1.63914     501.289E-03     88.4552E-03     116.147E-03    -57.9821E-03    -58.1808E-03    -58.0063E-03     116.137E-03    -58.1464E-03     2.58848E-03    -60.5520E+06    -72.9565E+06    -230.616E+06    -73.7787E+06    -229.794E+06    -60.5520E+06    -11.2253E+06         29.4409
            1587     4.71876E-03     88.6170E-03     501.510E-03     491.230E-03        -1.64751     482.737E-03        -1.63580     498.286E-03    -56.6252E-03     116.250E-03    -58.0300E-03    -58.2392E-03    -58.0489E-03     116.228E-03    -58.1982E-03     3.86440E-03    -46.6505E+06    -66.6907E+06    -218.890E+06    -67.7742E+06    -217.807E+06    -46.6505E+06    -12.6194E+06         29.7382
            1588     5.66226E-03     88.6211E-03     504.783E-03     489.527E-03        -1.64901     491.263E-03        -1.64220     496.236E-03     15.1884E-03     116.157E-03    -57.9806E-03    -58.2002E-03    -57.9436E-03     116.114E-03    -58.1937E-03     5.42370E-03    -38.5299E+06    -59.3731E+06    -197.831E+06    -60.8575E+06    -196.346E+06    -38.5299E+06    -13.9933E+06         30.1147
            1589     6.60643E-03     88.6275E-03     508.881E-03     491.801E-03        -1.65443     500.307E-03        -1.65006     496.003E-03    -35.5067E-03     116.068E-03    -57.9134E-03    -58.1777E-03    -57.8297E-03     115.984E-03    -58.1777E-03     7.53754E-03    -31.7335E+06    -52.2711E+06    -180.131E+06    -54.2381E+06    -178.165E+06    -31.7335E+06    -15.4948E+06         30.5948
            1590     7.54992E-03     88.6363E-03     503.653E-03     490.506E-03        -1.64564     495.889E-03        -1.64350     496.128E-03     22.7074E-03     115.899E-03    -57.7772E-03    -58.1487E-03    -57.6331E-03     115.755E-03    -58.1487E-03     9.92663E-03    -25.1208E+06    -45.7651E+06    -162.747E+06    -48.0238E+06    -160.488E+06    -25.1208E+06    -15.8906E+06         31.2080
            1591     8.49476E-03     88.6488E-03     496.920E-03     488.225E-03        -1.63374     488.821E-03        -1.63295     495.535E-03    -37.4254E-03     115.737E-03    -57.6524E-03    -58.0980E-03    -57.4349E-03     115.520E-03    -58.0980E-03     12.2233E-03    -19.7407E+06    -39.4698E+06    -143.920E+06    -41.8220E+06    -141.568E+06    -19.7407E+06    -15.3053E+06         31.9765
            1592     9.43819E-03     88.6617E-03     494.003E-03     476.585E-03        -1.62041     476.469E-03        -1.62030     494.003E-03     10.5260E-03     115.945E-03    -57.7775E-03    -58.1324E-03    -57.4523E-03     115.525E-03    -58.0375E-03     16.7300E-03    -17.5924E+06    -34.1826E+06    -119.700E+06    -36.5423E+06    -117.340E+06    -17.5924E+06    -13.7938E+06         33.0369
            1593     10.3828E-03     88.6840E-03     491.982E-03     475.463E-03        -1.61786     475.378E-03        -1.61777     491.982E-03    -22.8472E-03     115.984E-03    -57.7721E-03    -58.1787E-03    -57.3050E-03     115.309E-03    -57.9706E-03     21.5789E-03    -17.9463E+06    -29.9176E+06    -86.8493E+06    -32.3076E+06    -84.4593E+06    -17.9463E+06    -11.0500E+06         34.6677
            1594     11.3270E-03     88.7088E-03     490.364E-03     481.695E-03        -1.62196     481.580E-03        -1.62184     490.364E-03    -7.77502E-03     115.951E-03    -57.6736E-03    -58.2962E-03    -57.0501E-03     114.902E-03    -57.8713E-03     26.6857E-03    -9.38789E+06    -27.5255E+06    -48.7473E+06    -28.7484E+06    -33.3611E+06    -23.5513E+06    -7.84299E+06         37.0409
            1595     12.2719E-03     88.7402E-03     488.867E-03     477.911E-03        -1.61344     477.411E-03        -1.61294     488.867E-03    -33.4683E-03     116.794E-03    -57.7247E-03    -59.0738E-03    -56.6611E-03     114.422E-03    -57.7657E-03     39.5044E-03     43.2854E+06    -19.0699E+06    -27.3299E+06    -25.7681E+06     42.5093E+06    -19.8555E+06    -2.58796E+06         40.1583
            1596     13.2175E-03     88.7965E-03     486.874E-03     471.578E-03        -1.60433     471.070E-03        -1.60382     486.874E-03    -30.4763E-03     118.270E-03    -57.7585E-03    -60.5337E-03    -55.8569E-03     113.594E-03    -57.7585E-03     56.5125E-03     111.977E+06     6.48688E+06    -23.8631E+06    -23.6479E+06     111.762E+06     6.48688E+06     4.57329E+06         43.9859
            1597     14.1604E-03     88.8652E-03     484.119E-03     463.149E-03        -1.59435     463.083E-03        -1.59428     484.119E-03     13.3671E-03     127.956E-03    -57.8699E-03    -70.1691E-03    -56.3387E-03     114.126E-03    -57.8699E-03     97.1145E-03     144.063E+06     47.4288E+06    -22.1665E+06    -21.8095E+06     143.706E+06     47.4288E+06     7.23851E+06         48.2861
            1598     15.1079E-03     89.0093E-03     479.959E-03     444.403E-03        -1.56940     444.375E-03        -1.56938     479.959E-03     3.80954E-03     148.105E-03    -58.0535E-03    -90.1356E-03    -58.0526E-03     116.022E-03    -58.0535E-03     161.169E-03     159.418E+06     96.8857E+06    -17.4222E+06    -17.2505E+06     159.246E+06     96.8857E+06     3.56763E+06         52.3603
            1599     16.0501E-03     89.2244E-03     475.183E-03     436.573E-03        -1.55312     436.290E-03        -1.55284     475.183E-03     30.7050E-03     139.498E-03    -58.1660E-03    -81.3895E-03    -56.6911E-03     114.799E-03    -58.1660E-03     131.018E-03     169.754E+06     128.829E+06    -9.07410E+06    -9.04624E+06     169.726E+06     128.829E+06     348.783E+03         55.4987
            1600     943.244E-06     89.7319E-03         1.28745     557.916E-03        -2.46250    -230.736E-03        -1.54144         1.15504        -1.11247     116.549E-03    -57.9876E-03    -58.5609E-03    -58.4693E-03     116.548E-03    -58.0779E-03     365.851E-06    -87.6285E+06    -90.0935E+06    -267.629E+06    -89.4561E+06    -267.569E+06    -88.3264E+06    -1.85572E+06         28.9767
            1601     1.88689E-03     89.7330E-03     652.901E-03     468.542E-03        -1.74385     493.246E-03        -1.58419     468.542E-03     342.312E-03     116.325E-03    -58.0044E-03    -58.3232E-03    -58.0649E-03     116.323E-03    -58.2611E-03     843.360E-06    -82.0389E+06    -85.5769E+06    -254.695E+06    -85.8720E+06    -254.348E+06    -82.0909E+06    -6.81615E+06         29.0644
            1602     2.83114E-03     89.7332E-03     551.118E-03     477.985E-03        -1.65431     497.725E-03        -1.60092     477.985E-03    -147.650E-03     116.050E-03    -57.8823E-03    -58.1779E-03    -57.8783E-03     116.046E-03    -58.1779E-03     1.55957E-03    -75.1289E+06    -81.0591E+06    -234.879E+06    -81.9195E+06    -234.018E+06    -75.1289E+06    -11.1707E+06         29.2151
            1603     3.77519E-03     89.7361E-03     506.954E-03     481.573E-03        -1.62107     484.290E-03        -1.59841     481.573E-03     86.0339E-03     116.114E-03    -57.9397E-03    -58.1885E-03    -57.9638E-03     116.104E-03    -58.1540E-03     2.62621E-03    -63.3725E+06    -76.3249E+06    -224.937E+06    -77.5762E+06    -223.685E+06    -63.3725E+06    -13.4900E+06         29.4377
            1604     4.71841E-03     89.7393E-03     484.350E-03     469.989E-03        -1.59210     463.116E-03        -1.58103     480.152E-03    -45.6085E-03     116.167E-03    -57.9588E-03    -58.2240E-03    -57.9714E-03     116.145E-03    -58.1896E-03     3.84172E-03    -49.8621E+06    -69.1449E+06    -214.199E+06    -71.0652E+06    -212.278E+06    -49.8621E+06    -16.1077E+06         29.7342
            1605     5.66274E-03     89.7433E-03     478.240E-03     464.455E-03        -1.58284     458.179E-03        -1.57514     476.816E-03     6.66724E-03     116.116E-03    -57.9568E-03    -58.1842E-03    -57.9128E-03     116.072E-03    -58.1842E-03     5.45858E-03    -40.6122E+06    -60.5528E+06    -193.861E+06    -63.2254E+06    -191.188E+06    -40.6122E+06    -18.4057E+06         30.1120
            1606     6.60613E-03     89.7500E-03     483.732E-03     473.008E-03        -1.59370     476.061E-03        -1.58823     475.206E-03    -33.8217E-03     116.151E-03    -58.0035E-03    -58.1747E-03    -57.9189E-03     116.066E-03    -58.1747E-03     7.57938E-03    -33.7779E+06    -52.9036E+06    -177.548E+06    -56.0701E+06    -174.382E+06    -33.7779E+06    -19.4330E+06         30.5946
            1607     7.54999E-03     89.7590E-03     482.104E-03     469.236E-03        -1.58591     473.556E-03        -1.58313     475.003E-03     21.8270E-03     115.934E-03    -57.8073E-03    -58.1557E-03    -57.6646E-03     115.791E-03    -58.1557E-03     9.88901E-03    -27.4669E+06    -46.1965E+06    -161.417E+06    -49.7502E+06    -157.863E+06    -27.4669E+06    -19.7912E+06         31.2092
            1608     8.49389E-03     89.7698E-03     473.923E-03     461.434E-03        -1.56920     460.410E-03        -1.56817     473.923E-03    -56.2411E-03     115.742E-03    -57.6523E-03    -58.1046E-03    -57.4339E-03     115.523E-03    -58.1046E-03     12.2372E-03    -22.9992E+06    -40.4094E+06    -144.422E+06    -44.2493E+06    -140.582E+06    -22.9992E+06    -19.3896E+06         31.9772
            1609     9.43899E-03     89.7849E-03     473.503E-03     458.526E-03        -1.56179     459.768E-03        -1.56176     472.230E-03     5.65943E-03     116.021E-03    -57.8433E-03    -58.1405E-03    -57.5079E-03     115.590E-03    -58.0457E-03     16.9387E-03    -21.4968E+06    -35.2452E+06    -122.309E+06    -39.0319E+06    -118.523E+06    -21.4968E+06    -17.5821E+06         33.0323
            1610     10.3820E-03     89.8064E-03     472.092E-03     461.078E-03        -1.56218     462.180E-03        -1.56201     470.819E-03    -27.1316E-03     115.957E-03    -57.8137E-03    -58.0996E-03    -57.2842E-03     115.307E-03    -57.9792E-03     21.1972E-03    -21.6241E+06    -30.3944E+06    -91.0497E+06    -34.3068E+06    -87.1373E+06    -21.6241E+06    -14.4915E+06         34.6524
            1611     11.3275E-03     89.8297E-03     469.533E-03     460.064E-03        -1.55929     459.552E-03        -1.55878     469.533E-03     7.54270E-03     116.030E-03    -57.7228E-03    -58.3195E-03    -57.0905E-03     114.958E-03    -57.8794E-03     26.8188E-03    -12.9466E+06    -29.5834E+06    -53.4636E+06    -31.3953E+06    -37.2614E+06    -27.3370E+06    -10.2119E+06         37.0179
            1612     12.2702E-03     89.8656E-03     467.935E-03     455.470E-03        -1.55258     454.479E-03        -1.55159     467.935E-03    -17.0060E-03     116.952E-03    -57.7814E-03    -59.1875E-03    -56.8401E-03     114.604E-03    -57.7814E-03     39.5964E-03     35.2684E+06    -24.6451E+06    -32.8078E+06    -30.9271E+06     34.1845E+06    -25.4419E+06    -3.55732E+06         40.1338
            1613     13.2147E-03     89.9149E-03     467.166E-03     460.101E-03        -1.55583     460.345E-03        -1.55514     466.239E-03    -39.1136E-03     118.017E-03    -57.7510E-03    -60.3034E-03    -55.6994E-03     113.413E-03    -57.7510E-03     55.9145E-03     103.538E+06    -3.96365E+06    -29.0734E+06    -28.9426E+06     103.408E+06    -3.96365E+06     3.24964E+06         43.9652
            1614     14.1642E-03     89.9886E-03     465.115E-03     455.067E-03        -1.54811     455.948E-03        -1.54806     464.189E-03     16.1220E-03     127.278E-03    -57.8222E-03    -69.5481E-03    -55.6587E-03     113.389E-03    -57.8222E-03     96.9354E-03     144.743E+06     38.2129E+06    -21.9307E+06    -21.6628E+06     144.475E+06     38.2129E+06     5.73178E+06         48.2731
            1615     15.1072E-03     90.1310E-03     460.742E-03     444.784E-03        -1.53389     444.531E-03        -1.53364     460.742E-03    -16.0516E-03     148.056E-03    -57.9846E-03    -90.1794E-03    -57.3306E-03     115.208E-03    -57.9846E-03     162.670E-03     163.513E+06     95.1193E+06    -14.2903E+06    -14.1000E+06     163.323E+06     95.1193E+06     3.69081E+06         52.3542
            1616     16.0527E-03     90.3512E-03     456.959E-03     444.434E-03        -1.52725     444.234E-03        -1.52700     456.909E-03    -16.6695E-03     139.943E-03    -58.1027E-03    -81.9174E-03    -56.9805E-03     115.006E-03    -58.1027E-03     130.278E-03     171.401E+06     130.359E+06    -7.05858E+06    -7.00206E+06     171.344E+06     130.359E+06     955.344E+03         55.4954
            1617     943.387E-06     90.8543E-03         1.22136     556.090E-03        -2.38396    -181.051E-03        -1.55030         1.12484        -1.08301     116.572E-03    -58.1015E-03    -58.4707E-03    -58.3786E-03     116.570E-03    -58.1919E-03     642.592E-06    -87.0436E+06    -88.3216E+06    -260.616E+06     -87.675E+06    -260.453E+06    -87.8534E+06    -4.80058E+06         28.9814
            1618     1.88737E-03     90.8552E-03     595.052E-03     467.490E-03        -1.67415     449.098E-03        -1.52819     467.490E-03     338.819E-03     116.407E-03    -58.1153E-03    -58.2939E-03    -58.1322E-03     116.406E-03    -58.2756E-03     878.230E-06    -81.2413E+06    -84.6911E+06    -243.905E+06    -85.0472E+06    -243.385E+06    -81.4051E+06    -8.49088E+06         29.0704
            1619     2.83073E-03     90.8557E-03     504.548E-03     462.165E-03        -1.57753     457.850E-03        -1.53083     462.165E-03    -125.041E-03     116.329E-03    -58.0834E-03    -58.2557E-03    -58.0795E-03     116.325E-03    -58.2557E-03     1.48194E-03    -71.6778E+06    -80.6750E+06    -226.561E+06    -81.7537E+06    -225.482E+06    -71.6778E+06    -12.3461E+06         29.2205
            1620     3.77431E-03     90.8585E-03     474.669E-03     460.058E-03        -1.54706     453.668E-03        -1.52655     460.547E-03     83.5210E-03     116.138E-03    -57.9190E-03    -58.2350E-03    -57.9098E-03     116.128E-03    -58.2350E-03     2.50833E-03    -61.2300E+06    -74.5662E+06    -217.835E+06    -76.4374E+06    -215.964E+06    -61.2300E+06    -16.0070E+06         29.4388
            1621     4.71884E-03     90.8610E-03     463.784E-03     454.846E-03        -1.53408     450.473E-03        -1.52471     458.789E-03    -44.6400E-03     116.065E-03    -57.8679E-03    -58.2155E-03    -57.8475E-03     116.045E-03    -58.2155E-03     3.67311E-03    -51.7170E+06    -67.2096E+06    -207.345E+06    -70.1782E+06    -204.376E+06    -51.7170E+06    -19.8874E+06         29.7310
            1622     5.66205E-03     90.8658E-03     458.857E-03     447.049E-03        -1.52412     442.021E-03        -1.51688     456.644E-03    -12.4892E-03     116.060E-03    -57.9001E-03    -58.1878E-03    -57.8558E-03     116.016E-03    -58.1878E-03     5.46697E-03    -43.3249E+06    -60.1327E+06    -189.657E+06    -64.0877E+06    -185.702E+06    -43.3249E+06    -22.1487E+06         30.1077
            1623     6.60610E-03     90.8723E-03     455.181E-03     443.596E-03        -1.51668     439.196E-03        -1.51132     454.220E-03    -52.9574E-03     116.012E-03    -57.8746E-03    -58.1683E-03    -57.7880E-03     115.926E-03    -58.1683E-03     7.65493E-03    -36.1095E+06    -53.1541E+06    -174.462E+06    -57.9032E+06    -169.713E+06    -36.1095E+06    -23.3485E+06         30.5925
            1624     7.55017E-03     90.8811E-03     458.528E-03     443.838E-03        -1.51768     447.837E-03        -1.51582     452.667E-03     31.6284E-03     116.037E-03    -57.9175E-03    -58.1496E-03    -57.7798E-03     115.899E-03    -58.1496E-03     9.74427E-03    -30.5570E+06    -46.2703E+06    -160.438E+06    -51.6002E+06    -155.108E+06    -30.5570E+06    -23.9273E+06         31.2113
            1625     8.49423E-03     90.8923E-03     456.577E-03     439.028E-03        -1.51039     443.253E-03        -1.50971     451.678E-03    -19.2680E-03     115.976E-03    -57.8792E-03    -58.1203E-03    -57.6631E-03     115.760E-03    -58.1203E-03     12.1482E-03    -25.8520E+06    -40.2066E+06    -144.226E+06    -45.7621E+06    -138.671E+06    -25.8520E+06    -23.2778E+06         31.9805
            1626     9.43749E-03     90.9069E-03     451.797E-03     441.473E-03        -1.50617     442.616E-03        -1.50604     450.524E-03     15.9762E-03     115.904E-03    -57.8102E-03    -58.0672E-03    -57.3814E-03     115.476E-03    -58.0672E-03     16.9322E-03    -24.4838E+06    -34.8523E+06    -124.231E+06    -40.7040E+06    -118.379E+06    -24.4838E+06    -21.8558E+06         33.0298
            1627     10.3828E-03     90.9289E-03     452.685E-03     447.847E-03        -1.51090     450.542E-03        -1.51069     449.777E-03    -32.4308E-03     116.031E-03    -57.8835E-03    -58.1157E-03    -57.3494E-03     115.373E-03    -57.9915E-03     21.3261E-03    -24.0306E+06    -30.0429E+06    -96.4581E+06    -34.9663E+06    -90.2188E+06    -25.3465E+06    -19.2256E+06         34.6417
            1628     11.3255E-03     90.9524E-03     450.704E-03     441.871E-03        -1.50459     442.806E-03        -1.50389     449.069E-03     15.8559E-03     115.981E-03    -57.8885E-03    -58.1164E-03    -57.0378E-03     114.904E-03    -57.8893E-03     26.9140E-03    -16.9472E+06    -31.2209E+06    -58.1523E+06     -30.268E+06    -44.5046E+06    -31.5478E+06    -13.1493E+06         37.0020
            1629     12.2723E-03     90.9866E-03     448.433E-03     439.340E-03        -1.50125     438.754E-03        -1.50005     447.819E-03    -8.00509E-03     116.484E-03    -57.7674E-03    -58.7459E-03    -56.3456E-03     114.084E-03    -57.7681E-03     39.8412E-03     26.8442E+06    -28.3854E+06    -32.2291E+06    -27.9029E+06     24.0123E+06    -29.8797E+06    -3.92521E+06         40.1179
            1630     13.2167E-03     91.0389E-03     447.712E-03     434.795E-03        -1.49365     435.349E-03        -1.49267     446.172E-03    -25.8946E-03     118.472E-03    -57.7224E-03    -60.8133E-03    -56.1149E-03     113.774E-03    -57.7224E-03     56.7211E-03     99.2726E+06    -8.72393E+06    -25.9802E+06    -25.8528E+06     99.2391E+06    -8.81774E+06     1.13809E+06         43.9515
            1631     14.1587E-03     91.1070E-03     444.659E-03     427.342E-03        -1.47797     427.961E-03        -1.47766     443.732E-03     32.5143E-03     127.521E-03    -57.8201E-03    -69.8136E-03    -56.0400E-03     113.747E-03    -57.8201E-03     96.6971E-03     144.600E+06     32.5359E+06    -21.4867E+06    -21.4412E+06     144.554E+06     32.5359E+06     1.74540E+06         48.2610
            1632     15.1091E-03     91.2530E-03     440.134E-03     428.035E-03        -1.47169     427.685E-03        -1.47134     440.134E-03    -27.7464E-03     147.182E-03    -57.9752E-03    -89.2789E-03    -56.3252E-03     114.228E-03    -57.9752E-03     162.021E-03     164.373E+06     91.8483E+06    -14.7073E+06    -14.6403E+06     164.306E+06     91.8483E+06     2.84252E+06         52.3456
            1633     16.0557E-03     91.4731E-03     436.502E-03     427.609E-03        -1.46465     427.304E-03        -1.46430     436.453E-03    -26.6456E-03     139.640E-03    -58.0658E-03    -81.5985E-03    -56.6689E-03     114.711E-03    -58.0658E-03     128.985E-03     173.654E+06     130.443E+06    -7.68137E+06    -7.62171E+06     173.594E+06     130.443E+06     2.00778E+06         55.4900
            1634     943.892E-06     91.9774E-03         1.12694     568.343E-03        -2.28941    -124.522E-03        -1.50161         1.03200        -1.07826     116.460E-03    -58.1083E-03    -58.3535E-03    -58.3513E-03     116.459E-03    -58.1098E-03     578.829E-06    -87.7888E+06    -89.5434E+06    -249.712E+06    -89.6210E+06    -249.369E+06    -88.0546E+06    -6.09310E+06         28.9843
            1635     1.88694E-03     91.9770E-03     561.622E-03     447.386E-03        -1.60343     421.445E-03        -1.46326     447.386E-03     275.717E-03     116.585E-03    -58.2680E-03    -58.3194E-03    -58.3155E-03     116.583E-03    -58.2703E-03     861.526E-06    -82.4941E+06    -85.8852E+06    -233.434E+06    -86.6307E+06    -232.576E+06    -82.6060E+06    -10.8946E+06         29.0756
            1636     2.83056E-03     91.9791E-03     462.932E-03     437.051E-03        -1.49197     414.237E-03        -1.44327     437.051E-03    -189.914E-03     116.529E-03    -58.2068E-03    -58.3343E-03    -58.2339E-03     116.525E-03    -58.3035E-03     1.54132E-03    -73.7708E+06    -79.6026E+06    -217.154E+06    -81.3780E+06    -215.378E+06    -73.7708E+06    -14.7839E+06         29.2264
            1637     3.77427E-03     91.9802E-03     451.942E-03     432.907E-03        -1.47695     435.031E-03        -1.46053     433.396E-03     36.8356E-03     116.228E-03    -57.9493E-03    -58.2976E-03    -57.9400E-03     116.219E-03    -58.2976E-03     2.40968E-03    -62.4211E+06    -72.5326E+06    -208.851E+06    -75.2562E+06    -206.127E+06    -62.4211E+06    -18.7681E+06         29.4428
            1638     4.71770E-03     91.9837E-03     452.450E-03     433.860E-03        -1.47916     442.594E-03        -1.46980     434.349E-03    -48.4157E-03     116.068E-03    -57.8214E-03    -58.2658E-03    -57.7983E-03     116.044E-03    -58.2658E-03     3.91808E-03    -53.0954E+06    -66.6756E+06    -199.533E+06    -70.4637E+06    -195.745E+06    -53.0954E+06    -21.8114E+06         29.7321
            1639     5.66223E-03     91.9882E-03     440.706E-03     428.149E-03        -1.46240     428.516E-03        -1.45663     434.570E-03     6.18036E-03     115.985E-03    -57.8019E-03    -58.2107E-03    -57.7593E-03     115.943E-03    -58.2107E-03     5.38030E-03    -45.8029E+06    -60.2788E+06    -184.055E+06    -65.6360E+06    -178.698E+06    -45.8029E+06    -24.9666E+06         30.1067
            1640     6.60621E-03     91.9943E-03     433.884E-03     422.060E-03        -1.44858     419.308E-03        -1.44491     432.963E-03    -43.5922E-03     115.974E-03    -57.8248E-03    -58.1807E-03    -57.7419E-03     115.891E-03    -58.1807E-03     7.45383E-03    -38.5047E+06    -52.7031E+06    -170.858E+06    -59.4785E+06    -164.083E+06    -38.5047E+06    -27.2847E+06         30.5915
            1641     7.54989E-03     92.0041E-03     437.391E-03     422.859E-03        -1.45260     427.537E-03        -1.45146     431.571E-03     31.9531E-03     116.071E-03    -57.9431E-03    -58.1599E-03    -57.8075E-03     115.936E-03    -58.1599E-03     9.67734E-03    -33.1333E+06    -45.9214E+06    -158.908E+06    -53.5341E+06    -151.296E+06    -33.1333E+06    -28.2014E+06         31.2116
            1642     8.49331E-03     92.0150E-03     438.055E-03     420.862E-03        -1.45740     427.657E-03        -1.45707     430.929E-03    -4.65415E-03     116.006E-03    -57.8924E-03    -58.1328E-03    -57.6756E-03     115.789E-03    -58.1328E-03     12.1571E-03    -28.7856E+06    -39.1550E+06    -144.671E+06    -47.2462E+06    -136.580E+06    -28.7856E+06    -27.8372E+06         31.9814
            1643     9.43809E-03     92.0289E-03     432.256E-03     419.135E-03        -1.45022     421.223E-03        -1.45008     430.029E-03     18.5140E-03     115.925E-03    -57.8120E-03    -58.0826E-03    -57.3800E-03     115.493E-03    -58.0826E-03     17.0051E-03    -25.0805E+06    -32.0110E+06    -125.032E+06    -39.7884E+06    -116.054E+06    -26.2812E+06    -27.4249E+06         33.0283
            1644     10.3817E-03     92.0503E-03     430.380E-03     417.074E-03        -1.44269     418.512E-03        -1.44249     428.744E-03    -28.2035E-03     115.928E-03    -57.8048E-03    -58.0996E-03    -57.2138E-03     115.238E-03    -58.0009E-03     21.7982E-03    -23.5655E+06    -29.9686E+06    -102.583E+06    -34.1895E+06    -93.3430E+06    -28.5843E+06    -25.0318E+06         34.6349
            1645     11.3271E-03     92.0756E-03     433.665E-03     419.538E-03        -1.44781     425.152E-03        -1.44743     427.674E-03    -3.44246E-03     115.927E-03    -57.7994E-03    -58.1527E-03    -57.0088E-03     114.872E-03    -57.8883E-03     26.7966E-03    -18.1891E+06    -35.5400E+06    -66.0677E+06    -29.5015E+06    -54.1516E+06    -36.1437E+06    -18.1974E+06         36.9908
            1646     12.2700E-03     92.1065E-03     433.211E-03     425.491E-03        -1.44853     430.720E-03        -1.44756     427.013E-03    -30.4280E-03     116.302E-03    -57.7629E-03    -58.5602E-03    -56.2673E-03     114.010E-03    -57.7637E-03     38.8191E-03     20.1330E+06    -31.2543E+06    -33.4625E+06    -24.3851E+06     12.6310E+06    -32.8296E+06    -8.39351E+06         40.1056
            1647     13.2175E-03     92.1600E-03     427.576E-03     413.442E-03        -1.42991     414.224E-03        -1.42885     425.734E-03    -26.8663E-03     118.277E-03    -57.7100E-03    -60.6195E-03    -55.9073E-03     113.565E-03    -57.7100E-03     56.6450E-03     95.3521E+06    -10.1218E+06    -22.8126E+06    -21.5439E+06     95.0550E+06    -11.0935E+06     154.624E+03         43.9414
            1648     14.1635E-03     92.2326E-03     425.313E-03     407.604E-03        -1.42183     409.307E-03        -1.42151     423.289E-03     27.0742E-03     127.921E-03    -57.8242E-03    -70.1928E-03    -56.7536E-03     114.482E-03    -57.8242E-03     96.2036E-03     145.450E+06     29.7182E+06    -20.9299E+06    -20.8059E+06     145.326E+06     29.7182E+06     1.99399E+06         48.2520
            1649     15.1050E-03     92.3699E-03     422.037E-03     409.959E-03        -1.41751     411.862E-03        -1.41739     420.012E-03    -12.2070E-03     147.328E-03    -58.0236E-03    -89.3773E-03    -56.8887E-03     114.840E-03    -58.0236E-03     160.845E-03     163.261E+06     90.4192E+06    -15.4276E+06    -15.3966E+06     163.230E+06     90.4192E+06     1.16791E+06         52.3343
            1650     16.0523E-03     92.5953E-03     416.422E-03     399.296E-03        -1.40361     399.126E-03        -1.40344     416.422E-03     3.44546E-03     139.063E-03    -58.1064E-03    -81.0027E-03    -55.8543E-03     113.915E-03    -58.1064E-03     130.008E-03     174.627E+06     130.711E+06    -7.21712E+06    -7.18777E+06     174.598E+06     130.711E+06     2.16962E+06         55.4791
            1651     943.242E-06     93.0994E-03         1.05025     546.386E-03        -2.17208    -136.859E-03        -1.38153     942.941E-03        -1.00836     116.693E-03    -58.1522E-03    -58.5411E-03    -58.5342E-03     116.692E-03    -58.1585E-03     490.847E-06    -84.6980E+06    -86.4679E+06    -236.204E+06    -86.0571E+06    -235.866E+06    -85.4474E+06    -5.96845E+06         28.9888
            1652     1.88724E-03     93.1001E-03     552.800E-03     402.934E-03        -1.53005     401.937E-03        -1.37918     402.934E-03     302.808E-03     116.624E-03    -58.2503E-03    -58.3773E-03    -58.2795E-03     116.623E-03    -58.3465E-03     849.237E-06    -82.1073E+06    -84.5215E+06    -220.677E+06    -85.4770E+06    -219.509E+06    -82.3200E+06    -11.7985E+06         29.0781
            1653     2.83030E-03     93.1016E-03     461.619E-03     404.024E-03        -1.43920     412.267E-03        -1.38985     404.024E-03    -161.032E-03     116.406E-03    -58.0860E-03    -58.3320E-03    -58.1126E-03     116.402E-03    -58.3012E-03     1.63357E-03    -78.1377E+06    -80.2802E+06    -205.909E+06    -83.0808E+06    -203.108E+06    -78.1377E+06    -18.0242E+06         29.2290
            1654     3.77389E-03     93.1027E-03     435.312E-03     406.531E-03        -1.41470     415.904E-03        -1.39529     406.531E-03     49.5649E-03     116.317E-03    -58.0402E-03    -58.2967E-03    -58.0368E-03     116.306E-03    -58.2893E-03     2.59354E-03    -67.4315E+06    -75.4305E+06    -200.897E+06    -79.2803E+06    -197.047E+06    -67.4315E+06    -21.4898E+06         29.4480
            1655     4.71824E-03     93.1057E-03     430.545E-03     408.805E-03        -1.41181     420.533E-03        -1.40180     408.805E-03    -49.8519E-03     116.250E-03    -57.9650E-03    -58.3060E-03    -57.9492E-03     116.227E-03    -58.2985E-03     3.96685E-03    -54.7978E+06    -68.5798E+06    -191.587E+06    -73.5912E+06    -186.576E+06    -54.7978E+06    -23.8524E+06         29.7374
            1656     5.66156E-03     93.1109E-03     422.488E-03     407.684E-03        -1.40288     413.723E-03        -1.39660     410.163E-03     3.13918E-03     116.077E-03    -57.8497E-03    -58.2547E-03    -57.8089E-03     116.036E-03    -58.2547E-03     5.26668E-03    -46.8237E+06    -59.3816E+06    -175.899E+06    -66.8531E+06    -168.427E+06    -46.8237E+06    -28.2864E+06         30.1094
            1657     6.60532E-03     93.1168E-03     415.655E-03     407.790E-03        -1.39340     409.724E-03        -1.38994     410.269E-03    -66.4257E-03     115.993E-03    -57.8025E-03    -58.2185E-03    -57.7201E-03     115.910E-03    -58.2185E-03     7.41970E-03    -40.6655E+06    -51.4923E+06    -167.145E+06    -60.7488E+06    -157.889E+06    -40.6655E+06    -31.2198E+06         30.5912
            1658     7.54946E-03     93.1266E-03     410.679E-03     402.816E-03        -1.38466     403.084E-03        -1.38387     409.625E-03     1.69648E-03     115.870E-03    -57.7200E-03    -58.1751E-03    -57.5799E-03     115.730E-03    -58.1751E-03     9.81083E-03    -35.4933E+06    -44.5301E+06    -156.604E+06    -54.7004E+06    -146.434E+06    -35.4933E+06    -32.0907E+06         31.2079
            1659     8.49389E-03     93.1373E-03     410.809E-03     399.823E-03        -1.38845     401.560E-03        -1.38796     408.582E-03    -40.3232E-03     115.877E-03    -57.7687E-03    -58.1159E-03    -57.5451E-03     115.653E-03    -58.1159E-03     12.3523E-03    -30.3053E+06    -37.8646E+06    -143.707E+06    -48.0148E+06    -131.378E+06    -32.4837E+06    -33.9975E+06         31.9766
            1660     9.43748E-03     93.1514E-03     413.826E-03     401.586E-03        -1.39366     407.442E-03        -1.39354     407.845E-03    -5.13829E-03     116.053E-03    -57.9440E-03    -58.0671E-03    -57.5147E-03     115.622E-03    -58.0656E-03     17.0195E-03    -26.4419E+06    -32.5344E+06    -127.962E+06    -41.3191E+06    -114.443E+06    -31.1768E+06    -34.0453E+06         33.0240
            1661     10.3821E-03     93.1727E-03     410.729E-03     394.025E-03        -1.38245     397.503E-03        -1.38217     406.974E-03    -31.6666E-03     115.752E-03    -57.7257E-03    -58.0029E-03    -57.0538E-03     115.079E-03    -58.0015E-03     21.5179E-03    -22.7669E+06    -31.6868E+06    -108.710E+06    -35.4374E+06    -96.0399E+06    -31.6868E+06    -30.3574E+06         34.6275
            1662     11.3261E-03     93.1969E-03     410.012E-03     392.609E-03        -1.37762     396.614E-03        -1.37727     405.656E-03    -15.2699E-03     115.776E-03    -57.6108E-03    -58.1969E-03    -56.8385E-03     114.685E-03    -57.8778E-03     27.1355E-03    -15.7320E+06    -40.0568E+06    -75.7382E+06    -30.7521E+06    -60.7181E+06    -40.0568E+06    -24.8109E+06         36.9799
            1663     12.2719E-03     93.2301E-03     410.359E-03     400.178E-03        -1.38009     405.162E-03        -1.37930     404.585E-03    -33.6321E-03     116.966E-03    -57.7688E-03    -59.2029E-03    -56.9557E-03     114.719E-03    -57.7688E-03     38.8353E-03     13.1341E+06    -35.7305E+06    -43.0438E+06    -26.0235E+06    -713.456E+03    -38.9032E+06    -14.9626E+06         40.0922
            1664     13.2148E-03     93.2798E-03     410.037E-03     400.243E-03        -1.38177     405.909E-03        -1.38102     403.621E-03    -36.9837E-03     118.479E-03    -57.7298E-03    -60.7815E-03    -56.1560E-03     113.853E-03    -57.7298E-03     56.0076E-03     86.1526E+06    -15.6631E+06    -24.9529E+06    -21.0759E+06     85.4483E+06    -18.8359E+06    -2.62812E+06         43.9274
            1665     14.1608E-03     93.3547E-03     410.810E-03     398.830E-03        -1.38239     407.370E-03        -1.38233     402.209E-03     5.43203E-03     127.384E-03    -57.8115E-03    -69.6527E-03    -56.1906E-03     113.922E-03    -57.8115E-03     96.0182E-03     146.232E+06     23.2435E+06    -17.9019E+06    -17.6738E+06     146.003E+06     23.2435E+06     3.29268E+06         48.2399
            1666     15.1065E-03     93.4960E-03     406.792E-03     397.172E-03        -1.37560     404.017E-03        -1.37546     399.803E-03    -21.9729E-03     147.166E-03    -57.9967E-03    -89.2569E-03    -56.7947E-03     114.703E-03    -57.9967E-03     160.732E-03     162.501E+06     86.1112E+06    -15.6985E+06    -15.5592E+06     162.362E+06     86.1112E+06     2.92655E+06         52.3225
            1667     16.0526E-03     93.7116E-03     401.765E-03     387.934E-03        -1.36096     392.667E-03        -1.36074     396.811E-03     2.14376E-03     139.291E-03    -58.0892E-03    -81.2685E-03    -55.6550E-03     113.678E-03    -58.0892E-03     132.613E-03     174.286E+06     129.111E+06    -10.1840E+06    -10.1555E+06     174.257E+06     129.111E+06     1.54162E+06         55.4667
            1668     943.499E-06     94.2223E-03     972.386E-03     499.176E-03        -2.02118    -119.180E-03        -1.29961     869.176E-03    -918.395E-03     116.854E-03    -58.2075E-03    -58.6485E-03    -58.5994E-03     116.853E-03    -58.2550E-03     501.727E-06    -79.9389E+06    -81.4649E+06    -223.564E+06    -81.1443E+06    -223.269E+06    -80.5540E+06    -5.76418E+06         28.9925
            1669     1.88626E-03     94.2232E-03     530.918E-03     379.718E-03        -1.46375     397.861E-03        -1.33070     379.718E-03     299.710E-03     116.546E-03    -58.1651E-03    -58.3848E-03    -58.1635E-03     116.544E-03    -58.3848E-03     978.233E-06    -76.4843E+06    -78.8466E+06    -205.145E+06    -79.8591E+06    -203.901E+06    -76.7167E+06    -11.5171E+06         29.0805
            1670     2.83069E-03     94.2236E-03     451.598E-03     387.616E-03        -1.39370     407.818E-03        -1.34992     387.616E-03    -92.3725E-03     116.405E-03    -58.0774E-03    -58.3357E-03    -58.0829E-03     116.400E-03    -58.3260E-03     1.60433E-03    -68.8493E+06    -75.3741E+06    -192.748E+06    -78.2105E+06    -189.911E+06    -68.8493E+06    -17.7769E+06         29.2318
            1671     3.77466E-03     94.2255E-03     407.034E-03     379.376E-03        -1.33767     375.668E-03        -1.31618     389.259E-03     88.6812E-03     116.552E-03    -58.2259E-03    -58.3399E-03    -58.2336E-03     116.542E-03    -58.3228E-03     2.52653E-03    -61.2194E+06    -71.2863E+06    -191.464E+06    -75.8568E+06    -186.893E+06    -61.2194E+06    -22.8430E+06         29.4515
            1672     4.71709E-03     94.2288E-03     391.518E-03     370.749E-03        -1.31523     367.289E-03        -1.30592     385.666E-03    -38.7698E-03     116.380E-03    -58.0651E-03    -58.3340E-03    -58.0511E-03     116.358E-03    -58.3266E-03     3.74608E-03    -53.8455E+06    -63.2108E+06    -182.355E+06    -70.3921E+06    -175.174E+06    -53.8455E+06    -27.9080E+06         29.7401
            1673     5.66131E-03     94.2331E-03     399.955E-03     379.057E-03        -1.33272     388.452E-03        -1.32625     384.091E-03    -2.71406E-03     116.084E-03    -57.8221E-03    -58.2879E-03    -57.7744E-03     116.036E-03    -58.2879E-03     5.65180E-03    -46.0210E+06    -54.3802E+06    -167.611E+06    -64.0751E+06    -157.916E+06    -46.0210E+06    -31.5625E+06         30.1100
            1674     6.60523E-03     94.2396E-03     400.394E-03     385.126E-03        -1.34012     396.622E-03        -1.33635     385.126E-03    -65.0102E-03     115.982E-03    -57.7621E-03    -58.2448E-03    -57.6737E-03     115.894E-03    -58.2448E-03     7.76054E-03    -39.6383E+06    -47.8614E+06    -161.623E+06    -59.0670E+06    -150.417E+06    -39.6383E+06    -33.8629E+06         30.5891
            1675     7.54928E-03     94.2482E-03     389.273E-03     383.186E-03        -1.32633     385.946E-03        -1.32559     385.765E-03     16.2448E-03     115.830E-03    -57.6697E-03    -58.1796E-03    -57.5263E-03     115.687E-03    -58.1796E-03     9.90976E-03    -35.0115E+06    -40.7870E+06    -152.898E+06    -53.5569E+06    -139.081E+06    -36.0585E+06    -36.7381E+06         31.2029
            1676     8.49351E-03     94.2594E-03     384.987E-03     374.672E-03        -1.31534     374.396E-03        -1.31503     384.952E-03    -40.1789E-03     115.784E-03    -57.6793E-03    -58.1090E-03    -57.4540E-03     115.559E-03    -58.1090E-03     12.4124E-03    -29.9230E+06    -34.7395E+06    -141.055E+06    -47.9166E+06    -124.233E+06    -33.5683E+06    -39.3730E+06         31.9699
            1677     9.43775E-03     94.2740E-03     392.806E-03     376.392E-03        -1.32743     385.007E-03        -1.32734     384.093E-03    -15.9972E-03     115.851E-03    -57.7561E-03    -58.0538E-03    -57.3124E-03     115.406E-03    -58.0523E-03     17.2166E-03    -26.4079E+06    -33.1255E+06    -130.644E+06    -43.6759E+06    -113.376E+06    -33.1255E+06    -38.7365E+06         33.0164
            1678     10.3812E-03     94.2950E-03     398.555E-03     382.248E-03        -1.33970     396.351E-03        -1.33953     384.275E-03    -20.2815E-03     115.789E-03    -57.6840E-03    -58.0760E-03    -57.0946E-03     115.105E-03    -57.9813E-03     21.7132E-03    -21.0387E+06    -34.3330E+06    -114.340E+06    -38.5059E+06    -96.8728E+06    -34.3330E+06    -36.1534E+06         34.6171
            1679     11.3273E-03     94.3176E-03     389.588E-03     371.616E-03        -1.31949     376.851E-03        -1.31916     384.021E-03     4.53504E-03     115.964E-03    -57.6957E-03    -58.2961E-03    -57.0103E-03     114.856E-03    -57.8746E-03     27.3124E-03    -12.5462E+06    -43.0256E+06    -85.2448E+06    -32.9546E+06    -64.8363E+06    -43.0256E+06    -31.8818E+06         36.9654
            1680     12.2708E-03     94.3534E-03     383.492E-03     372.264E-03        -1.31215     372.183E-03        -1.31122     382.642E-03    -25.2229E-03     117.048E-03    -57.7697E-03    -59.2911E-03    -57.0060E-03     114.763E-03    -57.7697E-03     39.2146E-03     6.65441E+06    -42.0283E+06    -54.3160E+06    -28.2578E+06    -15.5603E+06    -45.8718E+06    -22.6379E+06         40.0754
            1681     13.2152E-03     94.4034E-03     391.846E-03     381.593E-03        -1.33000     391.027E-03        -1.32918     381.593E-03    -35.1681E-03     118.952E-03    -57.7147E-03    -61.2847E-03    -56.5276E-03     114.194E-03    -57.7147E-03     56.8919E-03     74.6000E+06    -24.4024E+06    -31.4987E+06    -22.4288E+06     70.8594E+06    -29.7317E+06    -9.16731E+06         43.9102
            1682     14.1599E-03     94.4751E-03     395.309E-03     380.812E-03        -1.32989     395.242E-03        -1.32982     380.812E-03     16.2647E-03     127.247E-03    -57.7766E-03    -69.5675E-03    -55.7550E-03     113.434E-03    -57.7766E-03     97.0652E-03     140.660E+06     13.0378E+06    -19.6605E+06    -17.9938E+06     140.479E+06     11.5521E+06     2.76258E+06         48.2235
            1683     15.1079E-03     94.6168E-03     387.282E-03     377.702E-03        -1.31505     385.973E-03        -1.31484     378.803E-03    -23.1487E-03     146.166E-03    -57.9327E-03    -88.3069E-03    -55.8180E-03     113.677E-03    -57.9327E-03     160.261E-03     164.098E+06     79.9330E+06    -14.9359E+06    -14.6696E+06     163.832E+06     79.9330E+06     6.37289E+06         52.3071
            1684     16.0547E-03     94.8339E-03     386.331E-03     375.102E-03        -1.30665     384.953E-03        -1.30637     376.203E-03    -9.40047E-03     139.274E-03    -58.0287E-03    -81.3059E-03    -55.7630E-03     113.731E-03    -58.0287E-03     132.691E-03     178.225E+06     130.178E+06    -8.29974E+06    -8.19763E+06     178.123E+06     130.178E+06     2.02495E+06         55.4503
            1685     943.139E-06     95.3454E-03     873.013E-03     483.251E-03        -1.89258    -56.1792E-03        -1.26444     784.304E-03    -874.184E-03     116.651E-03    -58.0654E-03    -58.5912E-03    -58.5457E-03     116.649E-03    -58.1081E-03     728.639E-06    -72.5196E+06    -75.5355E+06    -210.853E+06    -74.8794E+06    -210.486E+06    -73.5431E+06    -6.02097E+06         28.9911
            1686     1.88747E-03     95.3461E-03     483.241E-03     364.851E-03        -1.38465     367.101E-03        -1.26851     364.851E-03     213.605E-03     116.575E-03    -58.2016E-03    -58.3812E-03    -58.2547E-03     116.574E-03    -58.3266E-03     883.233E-06    -67.6824E+06    -71.4819E+06    -190.978E+06    -72.7624E+06    -189.678E+06    -67.7022E+06    -11.8980E+06         29.0823
            1687     2.83051E-03     95.3464E-03     405.488E-03     364.970E-03        -1.30586     362.567E-03        -1.26294     364.970E-03    -159.249E-03     116.654E-03    -58.2574E-03    -58.4053E-03    -58.3030E-03     116.649E-03    -58.3548E-03     1.66484E-03    -58.8549E+06    -67.9233E+06    -180.451E+06    -70.2712E+06    -178.103E+06    -58.8549E+06    -16.0015E+06         29.2335
            1688     3.77326E-03     95.3495E-03     384.283E-03     354.052E-03        -1.27173     359.389E-03        -1.25672     363.934E-03     41.1686E-03     116.518E-03    -58.1536E-03    -58.3793E-03    -58.1528E-03     116.508E-03    -58.3695E-03     2.66963E-03    -51.0946E+06    -62.4983E+06    -176.833E+06    -67.0593E+06    -172.272E+06    -51.0946E+06    -21.9022E+06         29.4498
            1689     4.71767E-03     95.3511E-03     373.092E-03     347.248E-03        -1.25452     350.875E-03        -1.24722     362.165E-03    -61.5618E-03     116.230E-03    -57.9298E-03    -58.3232E-03    -57.9043E-03     116.205E-03    -58.3232E-03     4.05357E-03    -48.6643E+06    -55.4494E+06    -169.806E+06    -64.0477E+06    -161.207E+06    -48.6643E+06    -29.7875E+06         29.7370
            1690     5.66141E-03     95.3557E-03     371.539E-03     356.054E-03        -1.25967     362.771E-03        -1.25593     361.089E-03    -6.09980E-03     116.082E-03    -57.8451E-03    -58.2659E-03    -57.7924E-03     116.029E-03    -58.2659E-03     5.99486E-03    -44.3836E+06    -49.2420E+06    -160.470E+06    -60.7829E+06    -148.929E+06    -44.3836E+06    -33.8362E+06         30.1073
            1691     6.60540E-03     95.3621E-03     373.931E-03     358.156E-03        -1.26238     367.868E-03        -1.25972     361.555E-03    -33.2519E-03     115.985E-03    -57.7780E-03    -58.2334E-03    -57.6873E-03     115.895E-03    -58.2334E-03     7.86378E-03    -36.5346E+06    -41.6537E+06    -154.598E+06    -55.6122E+06    -140.639E+06    -36.5346E+06    -36.9567E+06         30.5851
            1692     7.54936E-03     95.3705E-03     367.773E-03     358.519E-03        -1.26038     363.401E-03        -1.25940     361.918E-03     16.3743E-03     115.912E-03    -57.7467E-03    -58.1795E-03    -57.5952E-03     115.760E-03    -58.1795E-03     10.1718E-03    -30.6786E+06    -34.3278E+06    -146.821E+06    -50.0143E+06    -129.498E+06    -32.3153E+06    -40.7657E+06         31.1968
            1693     8.49308E-03     95.3820E-03     371.293E-03     356.207E-03        -1.26703     365.195E-03        -1.26669     361.957E-03    -35.4688E-03     115.710E-03    -57.5981E-03    -58.1121E-03    -57.3596E-03     115.471E-03    -58.1121E-03     12.7692E-03    -27.6834E+06    -31.1900E+06    -137.608E+06    -46.5652E+06    -118.726E+06    -31.1900E+06    -41.4547E+06         31.9637
            1694     9.43765E-03     95.3957E-03     373.766E-03     353.023E-03        -1.26808     364.737E-03        -1.26802     361.985E-03    -12.5771E-03     115.622E-03    -57.5482E-03    -58.0382E-03    -57.1092E-03     115.183E-03    -58.0382E-03     17.1258E-03    -23.4188E+06    -32.0849E+06    -129.666E+06    -43.5915E+06    -109.494E+06    -32.0849E+06    -41.5372E+06         33.0083
            1695     10.3836E-03     95.4166E-03     372.571E-03     358.333E-03        -1.27027     368.789E-03        -1.27020     362.046E-03    -12.9793E-03     115.932E-03    -57.7735E-03    -58.1244E-03    -57.2528E-03     115.242E-03    -57.9553E-03     21.7844E-03    -16.1693E+06    -35.8534E+06    -117.278E+06    -39.6228E+06    -93.8244E+06    -35.8534E+06    -42.4461E+06         34.6026
            1696     11.3255E-03     95.4413E-03     374.944E-03     355.628E-03        -1.26842     368.261E-03        -1.26821     362.100E-03     18.2918E-03     116.139E-03    -57.8685E-03    -58.2832E-03    -57.1675E-03     115.023E-03    -57.8685E-03     27.5003E-03    -8.01199E+06    -45.0077E+06    -95.0200E+06    -34.1882E+06    -68.8438E+06    -45.0077E+06    -39.6731E+06         36.9441
            1697     12.2708E-03     95.4743E-03     369.564E-03     353.734E-03        -1.26135     360.414E-03        -1.26009     361.627E-03    -33.3453E-03     116.715E-03    -57.7522E-03    -58.9845E-03    -56.5851E-03     114.315E-03    -57.7522E-03     39.9318E-03     4.24107E+06    -46.5835E+06    -64.2570E+06    -28.2840E+06    -28.5150E+06    -49.8005E+06    -30.4026E+06         40.0517
            1698     13.2165E-03     95.5254E-03     365.883E-03     358.772E-03        -1.26257     362.875E-03        -1.26148     360.693E-03    -49.5207E-03     118.565E-03    -57.6591E-03    -60.9708E-03    -56.1489E-03     113.743E-03    -57.6591E-03     57.3829E-03     59.4625E+06    -33.3660E+06    -38.6779E+06    -25.4710E+06     51.5675E+06    -38.6779E+06    -14.9448E+06         43.8886
            1699     14.1616E-03     95.5978E-03     373.051E-03     359.641E-03        -1.26752     373.002E-03        -1.26747     359.641E-03     17.7220E-03     127.014E-03    -57.6763E-03    -69.4411E-03    -55.7922E-03     113.365E-03    -57.6763E-03     96.3963E-03     127.542E+06    -2.02452E+06    -24.0731E+06    -21.6764E+06     127.241E+06    -4.11948E+06    -66.1658E+03         48.2032
            1700     15.1068E-03     95.7350E-03     370.607E-03     356.665E-03        -1.25968     369.345E-03        -1.25952     357.766E-03    -12.3642E-03     146.514E-03    -57.8465E-03    -88.7460E-03    -56.1304E-03     113.898E-03    -57.8465E-03     160.764E-03     166.528E+06     69.2752E+06    -14.6101E+06    -14.4193E+06     166.337E+06     69.2752E+06     4.62315E+06         52.2834
            1701     16.0549E-03     95.9545E-03     364.970E-03     354.248E-03        -1.25306     363.686E-03        -1.25288     355.349E-03    -10.3446E-03     139.157E-03    -57.9959E-03    -81.2391E-03    -55.6059E-03     113.524E-03    -57.9959E-03     132.630E-03     183.256E+06     130.662E+06    -6.12355E+06    -6.00917E+06     183.141E+06     130.662E+06     2.41977E+06         55.4232
            1702     944.082E-06     96.4690E-03     805.596E-03     458.048E-03        -1.77947    -46.5507E-03        -1.21170     742.418E-03    -799.625E-03     116.407E-03    -57.9490E-03    -58.4601E-03    -58.3359E-03     116.405E-03    -58.0713E-03     899.549E-06    -66.1833E+06    -69.4731E+06    -195.910E+06    -67.8605E+06    -195.315E+06    -68.3915E+06    -7.84359E+06         28.9872
            1703     1.88672E-03     96.4682E-03     423.896E-03     340.495E-03        -1.28280     310.421E-03        -1.16933     340.495E-03     228.058E-03     116.682E-03    -58.2538E-03    -58.4358E-03    -58.4339E-03     116.680E-03    -58.2538E-03     882.097E-06    -61.2713E+06    -64.8860E+06    -177.993E+06    -65.2865E+06    -176.413E+06    -62.4504E+06    -12.9489E+06         29.0795
            1704     2.83026E-03     96.4704E-03     360.082E-03     331.312E-03        -1.20935     321.498E-03        -1.17076     331.312E-03    -132.051E-03     116.545E-03    -58.1542E-03    -58.4009E-03    -58.2217E-03     116.539E-03    -58.3276E-03     1.86720E-03    -53.3659E+06    -58.1487E+06    -169.943E+06    -60.9492E+06    -167.142E+06    -53.3659E+06    -17.2632E+06         29.2288
            1705     3.77438E-03     96.4714E-03     358.924E-03     331.429E-03        -1.20713     345.822E-03        -1.19403     331.429E-03     56.2400E-03     116.223E-03    -57.9193E-03    -58.3208E-03    -57.9071E-03     116.211E-03    -58.3208E-03     2.83009E-03    -41.4789E+06    -50.2720E+06    -162.538E+06    -55.1389E+06    -157.671E+06    -41.4789E+06    -22.4645E+06         29.4428
            1706     4.71812E-03     96.4737E-03     366.856E-03     335.806E-03        -1.21710     362.232E-03        -1.21248     335.806E-03    -62.0104E-03     116.206E-03    -57.9403E-03    -58.2899E-03    -57.9139E-03     116.180E-03    -58.2899E-03     4.20239E-03    -34.3552E+06    -44.0473E+06    -154.599E+06    -51.9155E+06    -146.731E+06    -34.3552E+06    -28.1839E+06         29.7311
            1707     5.66171E-03     96.4787E-03     352.750E-03     336.312E-03        -1.20177     347.727E-03        -1.19952     339.077E-03    -18.5504E-03     116.116E-03    -57.9057E-03    -58.2350E-03    -57.8538E-03     116.064E-03    -58.2350E-03     5.93458E-03    -33.9205E+06    -39.2112E+06    -149.852E+06    -50.6687E+06    -138.394E+06    -33.9205E+06    -33.4732E+06         30.1030
            1708     6.60555E-03     96.4841E-03     340.347E-03     326.719E-03        -1.18083     326.341E-03        -1.17888     338.774E-03    -30.1303E-03     115.915E-03    -57.7476E-03    -58.1882E-03    -57.6488E-03     115.816E-03    -58.1882E-03     8.17163E-03    -31.4046E+06    -33.0550E+06    -144.171E+06    -49.0378E+06    -128.188E+06    -31.4046E+06    -38.8264E+06         30.5780
            1709     7.54953E-03     96.4933E-03     345.237E-03     328.222E-03        -1.18892     334.590E-03        -1.18756     337.513E-03    -16.5534E-03     115.788E-03    -57.6503E-03    -58.1431E-03    -57.4883E-03     115.626E-03    -58.1431E-03     10.5403E-03    -26.8912E+06    -28.4995E+06    -139.559E+06    -46.7901E+06    -120.348E+06    -27.8119E+06    -42.1838E+06         31.1855
            1710     8.49417E-03     96.5039E-03     359.034E-03     338.183E-03        -1.21636     358.021E-03        -1.21535     338.183E-03    -67.6641E-03     115.769E-03    -57.6772E-03    -58.0815E-03    -57.4292E-03     115.521E-03    -58.0815E-03     13.0297E-03    -22.8307E+06    -28.0663E+06    -134.020E+06    -43.4288E+06    -113.422E+06    -28.0663E+06    -43.1438E+06         31.9524
            1711     9.43837E-03     96.5181E-03     353.307E-03     336.271E-03        -1.21296     349.948E-03        -1.21281     339.483E-03    -25.0316E-03     115.947E-03    -57.8206E-03    -58.0964E-03    -57.4548E-03     115.513E-03    -58.0281E-03     17.1360E-03    -15.9688E+06    -29.2855E+06    -125.417E+06    -39.3835E+06    -102.002E+06    -29.2855E+06    -44.7788E+06         32.9955
            1712     10.3810E-03     96.5385E-03     340.195E-03     335.721E-03        -1.19890     336.181E-03        -1.19860     339.434E-03    -33.3156E-03     115.765E-03    -57.6675E-03    -58.0981E-03    -57.1044E-03     115.057E-03    -57.9540E-03     21.9857E-03    -8.38408E+06    -33.6246E+06    -115.589E+06     -36.025E+06    -87.9484E+06    -33.6246E+06    -46.8020E+06         34.5797
            1713     11.3275E-03     96.5642E-03     353.587E-03     338.811E-03        -1.21337     352.690E-03        -1.21297     339.311E-03    -2.48032E-03     115.660E-03    -57.6185E-03    -58.0801E-03    -56.7069E-03     114.510E-03    -57.8417E-03     27.9085E-03    -3.41089E+06    -44.1790E+06    -101.297E+06    -33.4986E+06    -71.2095E+06    -44.1790E+06    -45.0644E+06         36.9121
            1714     12.2719E-03     96.5948E-03     361.906E-03     337.961E-03        -1.21765     358.841E-03        -1.21651     339.883E-03    -34.8607E-03     116.678E-03    -57.6951E-03    -58.9984E-03    -56.5477E-03     114.227E-03    -57.6951E-03     40.3214E-03     2.52968E+06    -51.7907E+06    -75.3984E+06    -31.2070E+06    -39.9934E+06    -53.4591E+06    -36.5094E+06         40.0170
            1715     13.2165E-03     96.6481E-03     347.628E-03     335.235E-03        -1.20081     342.109E-03        -1.19974     339.690E-03    -61.0095E-03     118.297E-03    -57.5881E-03    -60.7513E-03    -55.8715E-03     113.418E-03    -57.5881E-03     57.6637E-03     43.6822E+06    -39.5816E+06    -47.1052E+06    -27.7222E+06     30.5097E+06    -45.7921E+06    -20.5366E+06         43.8557
            1716     14.1622E-03     96.7180E-03     346.446E-03     335.827E-03        -1.20068     343.831E-03        -1.20060     338.361E-03    -1.76281E-03     126.504E-03    -57.5433E-03    -69.0534E-03    -55.5003E-03     112.951E-03    -57.5433E-03     95.9644E-03     113.371E+06    -12.4276E+06    -28.2568E+06    -23.0406E+06     112.697E+06    -16.9697E+06    -5.34483E+06         48.1725
            1717     15.1103E-03     96.8559E-03     358.501E-03     336.468E-03        -1.20960     358.257E-03        -1.20935     336.468E-03    -22.6749E-03     147.285E-03    -57.6909E-03    -89.6747E-03    -56.6033E-03     114.213E-03    -57.6909E-03     162.254E-03     166.241E+06     54.5572E+06    -17.2571E+06    -17.1348E+06     166.119E+06     54.5572E+06     803.913E+03         52.2490
            1718     16.0536E-03     97.0783E-03     356.832E-03     334.677E-03        -1.20315     356.523E-03        -1.20284     334.677E-03    -12.9614E-03     139.234E-03    -57.9076E-03    -81.3614E-03    -55.4300E-03     113.302E-03    -57.9076E-03     132.839E-03     184.697E+06     125.728E+06    -9.00818E+06    -8.96094E+06     184.650E+06     125.728E+06     1.52001E+06         55.3842
            1719     943.486E-06     97.5911E-03     714.034E-03     402.123E-03        -1.61723    -36.5268E-03        -1.11646     651.914E-03    -752.409E-03     116.605E-03    -58.1131E-03    -58.4920E-03    -58.2685E-03     116.603E-03    -58.3354E-03     864.065E-06    -51.5198E+06    -53.7880E+06    -178.288E+06    -53.2203E+06    -177.651E+06    -52.7241E+06    -7.89681E+06         28.9819
            1720     1.88738E-03     97.5925E-03     393.843E-03     308.044E-03        -1.20263     309.981E-03        -1.11877     308.044E-03     194.399E-03     116.446E-03    -58.0574E-03    -58.3942E-03    -58.1827E-03     116.443E-03    -58.2668E-03     1.01917E-03    -50.1890E+06    -53.1005E+06    -164.440E+06    -53.1830E+06    -162.495E+06    -52.0513E+06    -14.2068E+06         29.0682
            1721     2.83051E-03     97.5926E-03     334.789E-03     306.836E-03        -1.14454     305.570E-03        -1.11658     308.095E-03    -94.0084E-03     116.170E-03    -57.9253E-03    -58.2560E-03    -57.9524E-03     116.164E-03    -58.2235E-03     1.80577E-03    -45.2821E+06    -47.6429E+06    -157.560E+06    -50.9400E+06    -153.579E+06    -45.9653E+06    -20.2942E+06         29.2151
            1722     3.77458E-03     97.5939E-03     325.810E-03     306.923E-03        -1.13189     312.464E-03        -1.11981     308.182E-03     42.6406E-03     116.103E-03    -57.9108E-03    -58.2056E-03    -57.8972E-03     116.089E-03    -58.2056E-03     2.94245E-03    -34.9578E+06    -40.3092E+06    -150.947E+06    -46.5619E+06    -144.694E+06    -34.9578E+06    -25.2878E+06         29.4298
            1723     4.71825E-03     97.5973E-03     335.799E-03     308.366E-03        -1.14337     328.920E-03        -1.13863     310.500E-03    -59.2977E-03     116.154E-03    -57.9506E-03    -58.2199E-03    -57.9226E-03     116.126E-03    -58.2199E-03     4.36171E-03    -22.7594E+06    -32.2960E+06    -143.276E+06    -40.3679E+06    -135.204E+06    -22.7594E+06    -28.7114E+06         29.7195
            1724     5.66214E-03     97.6006E-03     325.284E-03     307.768E-03        -1.13509     317.827E-03        -1.13253     312.666E-03    -24.1379E-03     115.989E-03    -57.8167E-03    -58.1900E-03    -57.7634E-03     115.935E-03    -58.1900E-03     5.99926E-03    -17.5049E+06    -24.1482E+06    -136.509E+06    -35.0812E+06    -125.576E+06    -17.5049E+06    -33.0720E+06         30.0923
            1725     6.60636E-03     97.6072E-03     324.667E-03     304.360E-03        -1.13406     314.060E-03        -1.13211     313.016E-03    -49.7278E-03     115.780E-03    -57.6604E-03    -58.1349E-03    -57.5590E-03     115.679E-03    -58.1349E-03     8.27952E-03    -16.9853E+06    -18.6004E+06    -130.980E+06    -32.8967E+06    -116.684E+06    -16.9853E+06    -37.2060E+06         30.5652
            1726     7.55067E-03     97.6152E-03     332.512E-03     307.767E-03        -1.14112     325.717E-03        -1.14022     313.658E-03    -21.6138E-03     115.777E-03    -57.6939E-03    -58.0963E-03    -57.5314E-03     115.613E-03    -58.0940E-03     10.6321E-03    -14.8257E+06    -16.3786E+06    -128.411E+06    -33.2600E+06    -111.199E+06    -15.1568E+06    -40.1361E+06         31.1666
            1727     8.49460E-03     97.6263E-03     330.110E-03     308.770E-03        -1.13666     323.385E-03        -1.13584     314.671E-03    -59.5510E-03     115.810E-03    -57.7660E-03    -58.0440E-03    -57.5128E-03     115.555E-03    -58.0417E-03     13.2152E-03    -10.8401E+06    -17.9125E+06    -125.346E+06    -33.0814E+06    -103.788E+06    -17.2292E+06    -44.4556E+06         31.9274
            1728     9.43810E-03     97.6408E-03     328.637E-03     309.308E-03        -1.13900     322.623E-03        -1.13888     315.209E-03    -20.6078E-03     115.812E-03    -57.7628E-03    -58.0494E-03    -57.3388E-03     115.320E-03    -57.9811E-03     18.1320E-03    -4.84770E+06    -21.7629E+06    -120.136E+06    -30.6258E+06    -94.3578E+06    -21.7629E+06    -47.9878E+06         32.9648
            1729     10.3833E-03     97.6608E-03     331.691E-03     315.861E-03        -1.14801     331.330E-03        -1.14765     315.861E-03    -35.8066E-03     115.665E-03    -57.6120E-03    -58.0978E-03    -57.0414E-03     114.910E-03    -57.9135E-03     22.7843E-03    -1.41766E+06    -25.5889E+06    -110.706E+06    -29.1054E+06    -83.0182E+06    -25.5889E+06    -47.4604E+06         34.5395
            1730     11.3276E-03     97.6836E-03     332.381E-03     316.688E-03        -1.15364     331.945E-03        -1.15321     316.688E-03    -16.4325E-03     115.582E-03    -57.5853E-03    -58.0407E-03    -56.6503E-03     114.414E-03    -57.8085E-03     28.0616E-03    -1.71477E+06    -35.8475E+06    -100.414E+06    -30.8753E+06    -71.2537E+06    -35.8475E+06    -44.8938E+06         36.8626
            1731     12.2727E-03     97.7182E-03     340.832E-03     317.492E-03        -1.16120     340.104E-03        -1.16047     317.492E-03    -26.6264E-03     116.526E-03    -57.6341E-03    -58.8788E-03    -56.4152E-03     114.062E-03    -57.6341E-03     40.4585E-03     3.01314E+06    -51.4865E+06    -82.0338E+06    -31.3334E+06    -47.6873E+06    -51.4865E+06    -40.9663E+06         39.9645
            1732     13.2180E-03     97.7677E-03     338.154E-03     315.414E-03        -1.15226     334.918E-03        -1.15156     317.948E-03    -51.2609E-03     118.009E-03    -57.4913E-03    -60.5474E-03    -55.6851E-03     113.147E-03    -57.4913E-03     57.4718E-03     32.9881E+06    -44.1331E+06    -56.0061E+06    -26.6322E+06     10.7021E+06    -51.2210E+06    -28.9632E+06         43.8058
            1733     14.1647E-03     97.8397E-03     328.343E-03     314.740E-03        -1.14078     325.751E-03        -1.14072     317.274E-03    -9.22899E-03     126.490E-03    -57.3848E-03    -69.1893E-03    -55.6729E-03     112.973E-03    -57.3848E-03     95.9354E-03     99.5668E+06    -19.6115E+06    -35.8519E+06    -21.3093E+06     96.4857E+06    -31.0729E+06    -11.5854E+06         48.1245
            1734     15.1095E-03     97.9754E-03     335.860E-03     315.593E-03        -1.14643     335.671E-03        -1.14624     315.593E-03    -22.0569E-03     146.917E-03    -57.5039E-03    -89.4756E-03    -56.2780E-03     113.719E-03    -57.5039E-03     162.128E-03     162.939E+06     42.7661E+06    -20.6189E+06    -16.1468E+06     162.840E+06     38.3926E+06    -1.76805E+06         52.1978
            1735     16.0586E-03     98.2012E-03     343.998E-03     314.170E-03        -1.15091     343.699E-03        -1.15061     314.170E-03    -3.78975E-03     138.375E-03    -57.7624E-03    -80.6625E-03    -54.7883E-03     112.501E-03    -57.7624E-03     131.487E-03     183.921E+06     119.109E+06    -8.73231E+06    -8.67653E+06     183.865E+06     119.109E+06     333.742E+03         55.3299
            1736     943.029E-06     98.7140E-03     622.329E-03     332.289E-03        -1.43111    -13.9047E-03        -1.02896     566.364E-03    -601.221E-03     116.760E-03    -57.9354E-03    -58.8259E-03    -58.5719E-03     116.759E-03    -58.1880E-03     728.271E-06    -36.7791E+06    -37.9603E+06    -161.326E+06    -38.4857E+06    -160.683E+06    -36.8964E+06    -7.49669E+06         28.9643
            1737     1.88670E-03     98.7151E-03     358.873E-03     279.092E-03        -1.11736     290.194E-03        -1.04868     279.092E-03     177.033E-03     116.019E-03    -57.7602E-03    -58.2649E-03    -57.7586E-03     116.017E-03    -58.2649E-03     1.01229E-03    -31.2392E+06    -34.0341E+06    -148.508E+06    -35.3424E+06    -146.452E+06    -31.9874E+06    -14.7942E+06         29.0439
            1738     2.83160E-03     98.7149E-03     318.174E-03     282.762E-03        -1.07980     297.091E-03        -1.05998     284.021E-03    -102.054E-03     115.908E-03    -57.8079E-03    -58.1118E-03    -57.8016E-03     115.902E-03    -58.1118E-03     1.92303E-03    -27.0976E+06    -30.3784E+06    -143.184E+06    -33.7262E+06    -139.153E+06    -27.7808E+06    -20.6855E+06         29.1882
            1739     3.77503E-03     98.7170E-03     304.605E-03     285.945E-03        -1.07126     295.504E-03        -1.06342     287.204E-03     7.36417E-03     115.954E-03    -57.8951E-03    -58.0719E-03    -57.8787E-03     115.937E-03    -58.0719E-03     3.32398E-03    -23.2452E+06    -26.3616E+06    -137.697E+06    -33.0191E+06    -131.040E+06    -23.2452E+06    -26.1126E+06         29.4016
            1740     4.71907E-03     98.7190E-03     295.083E-03     284.426E-03        -1.06234     286.316E-03        -1.05716     288.019E-03    -36.7046E-03     115.815E-03    -57.7633E-03    -58.0683E-03    -57.7291E-03     115.781E-03    -58.0683E-03     4.78884E-03    -15.3869E+06    -20.7401E+06    -133.217E+06    -30.2422E+06    -123.715E+06    -15.3869E+06    -31.1707E+06         29.6895
            1741     5.66304E-03     98.7233E-03     290.902E-03     283.967E-03        -1.06057     285.021E-03        -1.05828     287.560E-03     18.1813E-03     115.692E-03    -57.6655E-03    -58.0499E-03    -57.6045E-03     115.631E-03    -58.0499E-03     6.44216E-03    -7.65644E+06    -13.8153E+06    -125.865E+06    -25.8724E+06    -113.808E+06    -7.65644E+06    -34.6078E+06         30.0620
            1742     6.60702E-03     98.7286E-03     304.858E-03     288.350E-03        -1.07945     304.013E-03        -1.07861     288.350E-03    -40.1402E-03     115.607E-03    -57.6187E-03    -58.0073E-03    -57.5082E-03     115.497E-03    -58.0073E-03     8.61999E-03    -5.48644E+06    -8.78949E+06    -121.430E+06    -22.2428E+06    -107.977E+06    -5.48644E+06    -36.4849E+06         30.5339
            1743     7.55134E-03     98.7373E-03     312.064E-03     290.616E-03        -1.08672     311.763E-03        -1.08642     290.616E-03    -23.8129E-03     115.585E-03    -57.6358E-03    -57.9674E-03    -57.4450E-03     115.392E-03    -57.9651E-03     11.4294E-03    -2.66543E+06    -5.25517E+06    -117.393E+06    -19.1230E+06    -102.303E+06    -3.88715E+06    -38.3782E+06         31.1293
            1744     8.49503E-03     98.7493E-03     303.653E-03     286.105E-03        -1.07176     297.335E-03        -1.07134     292.006E-03    -45.3758E-03     115.397E-03    -57.5082E-03    -57.9108E-03    -57.2153E-03     115.101E-03    -57.9085E-03     14.1867E-03     2.34316E+06    -4.58125E+06    -111.105E+06    -18.2206E+06    -91.2242E+06    -3.89795E+06    -42.7812E+06         31.8807
            1745     9.44066E-03     98.7612E-03     306.903E-03     286.536E-03        -1.07407     300.855E-03        -1.07392     292.437E-03    -19.6416E-03     115.358E-03    -57.4894E-03    -57.8826E-03    -57.0052E-03     114.814E-03    -57.8228E-03     19.0414E-03     3.32362E+06    -11.2329E+06    -110.635E+06    -20.7308E+06    -86.5802E+06    -11.2329E+06    -46.4292E+06         32.9089
            1746     10.3849E-03     98.7834E-03     317.188E-03     293.555E-03        -1.08958     317.058E-03        -1.08945     293.555E-03    -18.0236E-03     115.699E-03    -57.6734E-03    -58.0472E-03    -57.1619E-03     114.892E-03    -57.7516E-03     23.5890E-03     1.38155E+06    -19.2513E+06    -106.700E+06    -23.7192E+06    -81.5997E+06    -19.2513E+06    -45.5569E+06         34.4738
            1747     11.3287E-03     98.8065E-03     310.609E-03     294.797E-03        -1.08921     310.398E-03        -1.08900     294.797E-03    -16.0602E-03     115.784E-03    -57.6789E-03    -58.1107E-03    -56.8854E-03     114.559E-03    -57.6789E-03     28.7662E-03     4.24462E+06    -26.9936E+06    -95.4459E+06    -23.6075E+06    -67.5938E+06    -26.9936E+06    -44.5665E+06         36.7888
            1748     12.2739E-03     98.8380E-03     312.798E-03     295.414E-03        -1.09386     312.208E-03        -1.09327     295.414E-03    -36.2697E-03     116.441E-03    -57.5305E-03    -58.9194E-03    -56.3145E-03     113.836E-03    -57.5305E-03     41.5585E-03     10.2941E+06    -42.7703E+06    -81.4422E+06    -22.7246E+06    -48.4235E+06    -42.7703E+06    -43.7114E+06         39.8884
            1749     13.2194E-03     98.8902E-03     321.902E-03     295.969E-03        -1.10267     321.386E-03        -1.10215     295.969E-03    -40.7998E-03     117.924E-03    -57.3658E-03    -60.6338E-03    -55.7600E-03     113.050E-03    -57.3658E-03     57.7048E-03     25.6079E+06    -44.1417E+06    -64.4907E+06    -21.8745E+06    -7.19723E+06    -53.9528E+06    -35.4683E+06         43.7330
            1750     14.1649E-03     98.9577E-03     324.052E-03     296.212E-03        -1.10192     323.870E-03        -1.10174     296.212E-03    -18.4259E-03     127.068E-03    -57.1956E-03    -69.9562E-03    -55.9095E-03     113.021E-03    -57.1956E-03     97.5528E-03     84.0945E+06    -25.6715E+06    -48.0769E+06    -18.0272E+06     76.4502E+06    -48.0769E+06    -18.6020E+06         48.0550
            1751     15.1111E-03     99.1004E-03     322.545E-03     295.338E-03        -1.09832     322.081E-03        -1.09786     295.338E-03    -39.6417E-03     146.762E-03    -57.2873E-03    -89.5192E-03    -56.0537E-03     113.296E-03    -57.2873E-03     162.940E-03     156.331E+06     32.2451E+06    -26.2780E+06    -13.1661E+06     155.813E+06     19.6508E+06    -4.79404E+06         52.1264
            1752     16.0580E-03     99.3148E-03     325.683E-03     294.198E-03        -1.10059     325.280E-03        -1.10019     294.198E-03    -8.19799E-03     137.295E-03    -57.5659E-03    -79.7851E-03    -54.0076E-03     111.517E-03    -57.5659E-03     131.371E-03     183.043E+06     110.518E+06    -7.64603E+06    -7.60367E+06     183.000E+06     110.518E+06    -36.8202E+03         55.2568
            1753     943.474E-06     99.8380E-03     566.972E-03     276.781E-03        -1.29294    -7.76382E-03    -990.402E-03     548.982E-03    -494.828E-03     115.899E-03    -57.4386E-03    -58.4619E-03    -58.0842E-03     115.898E-03    -57.8153E-03     635.567E-06    -23.4621E+06    -24.8627E+06    -144.326E+06    -24.2738E+06    -143.515E+06    -24.8627E+06    -8.99989E+06         28.9191
            1754     1.88799E-03     99.8362E-03     305.821E-03     264.426E-03        -1.02033     244.550E-03    -960.119E-03     265.490E-03     143.327E-03     115.656E-03    -57.6205E-03    -58.0418E-03    -57.7430E-03     115.652E-03    -57.9157E-03     1.44292E-03    -19.0546E+06    -21.4498E+06    -131.703E+06    -23.1009E+06    -129.484E+06    -19.6225E+06    -15.0860E+06         29.0007
            1755     2.83164E-03     99.8379E-03     307.110E-03     264.258E-03        -1.02834     288.303E-03        -1.00953     264.258E-03    -77.1549E-03     115.570E-03    -57.6347E-03    -57.9468E-03    -57.6810E-03     115.561E-03    -57.8912E-03     2.45679E-03    -11.8978E+06    -15.2570E+06    -128.149E+06    -19.5385E+06    -123.868E+06    -11.8978E+06    -21.2319E+06         29.1415
            1756     3.77602E-03     99.8390E-03     291.686E-03     261.363E-03        -1.01291     277.596E-03        -1.00675     269.287E-03     59.3618E-03     115.422E-03    -57.5842E-03    -57.8521E-03    -57.5634E-03     115.401E-03    -57.8521E-03     3.69085E-03    -6.99305E+06    -9.46329E+06    -123.996E+06    -15.8127E+06    -117.646E+06    -6.99305E+06    -26.0405E+06         29.3477
            1757     4.72021E-03     99.8414E-03     271.005E-03     257.744E-03    -990.337E-03     257.400E-03    -988.106E-03     269.117E-03    -12.2018E-03     115.243E-03    -57.4510E-03    -57.8120E-03    -57.4064E-03     115.198E-03    -57.8120E-03     5.43927E-03    -1.35610E+06    -4.53203E+06    -119.321E+06    -13.6927E+06    -110.161E+06    -1.35610E+06    -30.8909E+06         29.6291
            1758     5.66451E-03     99.8452E-03     271.249E-03     264.321E-03    -997.776E-03     266.442E-03    -996.417E-03     267.769E-03     9.57662E-03     115.143E-03    -57.3867E-03    -57.7818E-03    -57.3045E-03     115.061E-03    -57.7818E-03     7.43053E-03     4.21662E+06    -152.228E+03    -116.074E+06    -12.0385E+06    -104.188E+06     4.21662E+06    -35.0682E+06         29.9974
            1759     6.60904E-03     99.8511E-03     274.346E-03     259.075E-03    -998.135E-03     265.563E-03    -997.695E-03     267.419E-03    -38.6826E-03     115.162E-03    -57.4386E-03    -57.7393E-03    -57.2885E-03     115.012E-03    -57.7393E-03     10.0100E-03     6.44011E+06     2.97562E+06    -113.346E+06    -10.0173E+06    -100.353E+06     6.44011E+06    -36.5190E+06         30.4649
            1760     7.55305E-03     99.8595E-03     279.448E-03     258.992E-03        -1.00284     270.814E-03        -1.00254     267.336E-03    -33.1622E-03     114.959E-03    -57.2849E-03    -57.6847E-03    -57.0395E-03     114.713E-03    -57.6847E-03     12.9074E-03     8.73296E+06     4.80698E+06    -107.811E+06    -8.04352E+06    -92.3677E+06     6.14027E+06    -39.0328E+06         31.0540
            1761     8.49880E-03     99.8701E-03     295.190E-03     268.767E-03        -1.02464     294.726E-03        -1.02417     268.767E-03    -48.9964E-03     114.854E-03    -57.2248E-03    -57.6510E-03    -56.8882E-03     114.494E-03    -57.6279E-03     15.6334E-03     11.4995E+06     6.90021E+06    -100.509E+06    -6.46395E+06    -82.7264E+06     7.08065E+06    -40.7573E+06         31.7996
            1762     9.44261E-03     99.8836E-03     295.636E-03     271.135E-03        -1.02505     295.422E-03        -1.02484     271.135E-03    -26.2962E-03     115.193E-03    -57.4488E-03    -57.7518E-03    -57.0116E-03     114.569E-03    -57.5645E-03     20.4324E-03     10.8572E+06     2.94477E+06    -98.5758E+06    -7.78830E+06    -80.1108E+06     3.12521E+06    -40.7516E+06         32.8203
            1763     10.3872E-03     99.9044E-03     284.276E-03     272.496E-03        -1.01611     283.983E-03        -1.01582     272.496E-03    -24.9599E-03     115.323E-03    -57.4833E-03    -57.8485E-03    -56.9000E-03     114.375E-03    -57.4833E-03     25.4700E-03     10.9536E+06    -8.60513E+06    -97.9315E+06    -10.3680E+06    -76.6099E+06    -8.60513E+06    -42.9742E+06         34.3751
            1764     11.3324E-03     99.9284E-03     288.823E-03     273.179E-03        -1.02319     288.447E-03        -1.02282     273.179E-03    -20.7329E-03     115.591E-03    -57.4076E-03    -58.1973E-03    -56.8163E-03     114.210E-03    -57.4076E-03     30.6411E-03     14.3144E+06    -18.7565E+06    -89.0810E+06    -11.9591E+06    -62.8075E+06    -18.7565E+06    -44.6889E+06         36.6852
            1765     12.2770E-03     99.9582E-03     297.411E-03     274.038E-03        -1.03149     296.714E-03        -1.03079     274.038E-03    -38.8885E-03     116.722E-03    -57.3117E-03    -59.4588E-03    -56.6413E-03     113.905E-03    -57.3117E-03     43.2746E-03     15.4907E+06    -31.7911E+06    -77.1556E+06    -14.6944E+06    -46.9705E+06    -31.7911E+06    -43.2794E+06         39.7850
            1766     13.2222E-03     100.011E-03     300.046E-03     274.854E-03        -1.03856     299.378E-03        -1.03789     274.854E-03    -35.3638E-03     118.288E-03    -57.1676E-03    -61.1946E-03    -56.0942E-03     113.188E-03    -57.1676E-03     59.2635E-03     21.3034E+06    -42.2390E+06    -65.7957E+06    -17.3179E+06    -19.4264E+06    -49.9870E+06    -37.8413E+06         43.6323
            1767     14.1684E-03     100.078E-03     306.319E-03     275.235E-03        -1.04515     306.065E-03        -1.04490     275.235E-03    -15.6525E-03     127.147E-03    -56.9456E-03    -70.2569E-03    -55.8052E-03     112.695E-03    -56.9456E-03     98.8519E-03     70.0533E+06    -31.1301E+06    -62.5773E+06    -17.2460E+06     56.1692E+06    -62.5773E+06    -25.1954E+06         47.9585
            1768     15.1155E-03     100.221E-03     312.892E-03     274.805E-03        -1.04837     312.311E-03        -1.04779     274.805E-03    -52.3866E-03     146.615E-03    -56.9739E-03    -89.6692E-03    -55.6334E-03     112.579E-03    -56.9739E-03     164.236E-03     144.283E+06     17.2491E+06    -38.8629E+06    -13.9986E+06     143.118E+06    -6.45007E+06    -9.40766E+06         52.0331
            1769     16.0625E-03     100.436E-03     321.964E-03     274.461E-03        -1.05230     321.494E-03        -1.05183     274.461E-03    -23.8493E-03     136.428E-03    -57.1571E-03    -79.3405E-03    -53.1810E-03     110.365E-03    -57.2534E-03     131.778E-03     180.173E+06     96.0130E+06    -8.02464E+06    -7.93574E+06     180.084E+06     96.0130E+06    -786.596E+03         55.1673
            1770     945.350E-06     100.959E-03     481.640E-03     218.659E-03        -1.12746     26.9860E-03    -902.804E-03     448.655E-03    -427.306E-03     114.476E-03    -57.0394E-03    -57.4393E-03    -57.2137E-03     114.475E-03    -57.2635E-03     1.01165E-03    -4.14726E+06    -6.77836E+06    -125.894E+06    -6.25358E+06    -125.136E+06    -5.43056E+06    -8.94839E+06         28.8330
            1771     1.88887E-03     100.959E-03     303.628E-03     242.027E-03    -972.677E-03     264.277E-03    -934.389E-03     243.091E-03     42.1147E-03     114.900E-03    -57.3105E-03    -57.5969E-03    -57.5904E-03     114.893E-03    -57.3105E-03     1.89918E-03    -2.72958E+06    -4.29470E+06    -114.460E+06    -5.79050E+06    -112.047E+06    -3.64691E+06    -15.5322E+06         28.9197
            1772     2.83302E-03     100.959E-03     287.752E-03     240.695E-03    -962.367E-03     259.884E-03    -943.831E-03     250.027E-03    -107.112E-03     114.816E-03    -57.2848E-03    -57.5444E-03    -57.3890E-03     114.800E-03    -57.4245E-03     3.22940E-03     4.27040E+06     1.19622E+06    -111.799E+06    -3.27062E+06    -106.917E+06     3.85591E+06    -22.8499E+06         29.0559
            1773     3.77751E-03     100.960E-03     260.178E-03     231.069E-03    -928.520E-03     236.875E-03    -924.154E-03     250.004E-03     46.1702E-03     114.441E-03    -57.0410E-03    -57.4160E-03    -57.0052E-03     114.405E-03    -57.4160E-03     4.76433E-03     10.6274E+06     7.47954E+06    -112.106E+06     738.441E+03    -105.365E+06     10.6274E+06    -27.5315E+06         29.2506
            1774     4.72240E-03     100.963E-03     246.674E-03     231.670E-03    -917.391E-03     230.380E-03    -916.102E-03     246.674E-03    -56.3814E-03     114.204E-03    -56.8922E-03    -57.3289E-03    -56.8194E-03     114.132E-03    -57.3289E-03     6.90450E-03     15.0890E+06     11.3373E+06    -106.093E+06     4.17409E+06    -97.3671E+06     13.5267E+06    -30.8827E+06         29.5206
            1775     5.66740E-03     100.967E-03     248.894E-03     239.330E-03    -929.794E-03     242.146E-03    -928.448E-03     244.732E-03    -59.4903E-03     114.134E-03    -56.8749E-03    -57.2777E-03    -56.7475E-03     114.007E-03    -57.2777E-03     9.17519E-03     19.5751E+06     14.8646E+06    -105.171E+06     6.11865E+06    -94.8629E+06     18.0129E+06    -33.8137E+06         29.8799
            1776     6.61221E-03     100.972E-03     256.584E-03     236.234E-03    -938.416E-03     247.322E-03    -937.499E-03     244.578E-03    -58.2905E-03     114.053E-03    -56.8437E-03    -57.2190E-03    -56.6204E-03     113.830E-03    -57.2190E-03     12.1480E-03     21.5686E+06     16.7560E+06    -104.292E+06     6.97415E+06    -92.8241E+06     19.8828E+06    -35.5898E+06         30.3394
            1777     7.55759E-03     100.980E-03     262.684E-03     236.819E-03    -943.412E-03     253.982E-03    -943.053E-03     245.162E-03    -39.4833E-03     114.061E-03    -56.8296E-03    -57.2347E-03    -56.5736E-03     113.716E-03    -57.1457E-03     15.1859E-03     21.8789E+06     16.5062E+06    -96.4974E+06     6.70120E+06    -82.4660E+06     17.6524E+06    -37.8215E+06         30.9206
            1778     8.50206E-03     100.990E-03     270.887E-03     246.680E-03    -955.433E-03     270.296E-03    -954.980E-03     246.817E-03    -46.5515E-03     114.240E-03    -56.9575E-03    -57.2896E-03    -56.6403E-03     113.733E-03    -57.0998E-03     18.4014E-03     20.5679E+06     15.2280E+06    -93.5020E+06     5.29163E+06    -78.4062E+06     15.4085E+06    -38.5016E+06         31.6592
            1779     9.44761E-03     101.005E-03     269.851E-03     248.719E-03    -956.395E-03     269.497E-03    -956.179E-03     248.856E-03    -28.3215E-03     114.568E-03    -57.0541E-03    -57.5157E-03    -56.6842E-03     113.737E-03    -57.0541E-03     23.5552E-03     20.3298E+06     11.6509E+06    -90.3275E+06     5.00803E+06    -75.1862E+06     11.8313E+06    -37.9592E+06         32.6753
            1780     10.3924E-03     101.025E-03     269.116E-03     250.292E-03    -958.314E-03     268.247E-03    -957.444E-03     250.292E-03    -51.6057E-03     114.769E-03    -56.9942E-03    -57.7894E-03    -56.6096E-03     113.589E-03    -56.9942E-03     28.3446E-03     21.7297E+06     2.50055E+06    -85.5787E+06     4.06427E+06    -67.9133E+06     2.50055E+06    -39.6820E+06         34.2324
            1781     11.3378E-03     101.049E-03     280.857E-03     251.787E-03    -971.227E-03     279.951E-03    -970.321E-03     251.787E-03    -35.8889E-03     115.390E-03    -56.9381E-03    -58.4936E-03    -56.8000E-03     113.696E-03    -56.9381E-03     33.8730E-03     20.2321E+06    -10.8112E+06    -80.4324E+06    -1.26433E+06    -58.9359E+06    -10.8112E+06    -40.9859E+06         36.5496
            1782     12.2821E-03     101.081E-03     283.245E-03     253.435E-03    -975.955E-03     282.422E-03    -975.132E-03     253.435E-03    -33.5090E-03     116.841E-03    -56.9082E-03    -59.9990E-03    -56.8760E-03     113.718E-03    -56.9082E-03     45.8729E-03     18.7227E+06    -21.1679E+06    -70.5991E+06    -6.32134E+06    -45.5551E+06    -21.1679E+06    -39.8253E+06         39.6545
            1783     13.2270E-03     101.131E-03     282.996E-03     254.618E-03    -977.542E-03     282.014E-03    -976.559E-03     254.618E-03    -48.1891E-03     118.840E-03    -56.8051E-03    -62.0890E-03    -56.4608E-03     113.212E-03    -56.8051E-03     62.2590E-03     21.8348E+06    -35.4607E+06    -60.5686E+06    -9.94751E+06    -23.2944E+06    -40.9525E+06    -36.8734E+06         43.5024
            1784     14.1718E-03     101.199E-03     290.350E-03     255.336E-03    -985.523E-03     290.118E-03    -985.292E-03     255.336E-03    -9.76763E-03     127.673E-03    -56.5864E-03    -71.1118E-03    -56.2713E-03     112.832E-03    -56.5864E-03     101.107E-03     58.9427E+06    -32.3950E+06    -67.6975E+06    -13.5267E+06     40.0744E+06    -67.6975E+06    -27.9041E+06         47.8306
            1785     15.1185E-03     101.338E-03     294.851E-03     255.396E-03    -988.492E-03     294.554E-03    -988.196E-03     255.396E-03    -31.0409E-03     146.269E-03    -56.5414E-03    -89.7647E-03    -54.8773E-03     111.381E-03    -56.5414E-03     165.484E-03     127.594E+06    -87.9935E+03    -45.5289E+06    -13.4108E+06     125.287E+06    -29.8986E+06    -13.1978E+06         51.9164
            1786     16.0689E-03     101.555E-03     299.355E-03     255.353E-03    -988.557E-03     299.005E-03    -988.206E-03     255.353E-03    -19.2127E-03     135.597E-03    -56.6808E-03    -79.0430E-03    -52.1220E-03     108.773E-03    -56.7771E-03     132.326E-03     173.695E+06     77.4197E+06    -8.21139E+06    -8.09492E+06     173.578E+06     77.4197E+06    -3.15387E+06         55.0666
            1787     944.935E-06     102.079E-03     413.664E-03     185.638E-03        -1.00527     55.8790E-03    -842.527E-03     380.678E-03    -337.822E-03     112.935E-03    -56.2799E-03    -56.6561E-03    -56.6505E-03     112.929E-03    -56.2799E-03     1.80564E-03     14.1524E+06     10.7215E+06    -107.563E+06     11.9338E+06    -106.692E+06     12.0693E+06    -8.79156E+06         28.6888
            1788     1.89056E-03     102.080E-03     269.690E-03     213.764E-03    -889.689E-03     235.473E-03    -863.472E-03     221.765E-03     41.0113E-03     113.121E-03    -56.4521E-03    -56.6749E-03    -56.6186E-03     113.108E-03    -56.4954E-03     2.78672E-03     16.2190E+06     14.6089E+06    -95.9643E+06     13.4521E+06    -93.3119E+06     14.7233E+06    -16.5690E+06         28.7686
            1789     2.83548E-03     102.080E-03     237.301E-03     201.553E-03    -846.621E-03     205.429E-03    -835.558E-03     222.362E-03    -120.902E-03     112.963E-03    -56.3769E-03    -56.5981E-03    -56.4107E-03     112.933E-03    -56.5338E-03     4.37756E-03     20.2682E+06     16.9771E+06    -95.9271E+06     14.2612E+06    -91.0857E+06     18.1428E+06    -22.9653E+06         28.8959
            1790     3.78074E-03     102.080E-03     227.472E-03     203.939E-03    -842.095E-03     211.679E-03    -841.002E-03     218.640E-03    -59.3662E-06     112.659E-03    -56.1654E-03    -56.5047E-03    -56.0966E-03     112.590E-03    -56.5047E-03     6.57373E-03     25.1778E+06     20.8185E+06    -98.9323E+06     16.1550E+06    -91.6414E+06     22.5503E+06    -28.8299E+06         29.0792
            1791     4.72668E-03     102.083E-03     235.944E-03     213.719E-03    -860.749E-03     229.787E-03    -859.683E-03     218.810E-03    -56.1033E-03     112.352E-03    -55.9606E-03    -56.4011E-03    -55.8217E-03     112.213E-03    -56.4011E-03     9.40006E-03     27.4114E+06     22.1307E+06    -95.9718E+06     17.9182E+06    -87.0448E+06     22.6969E+06    -31.8229E+06         29.3344
            1792     5.67222E-03     102.087E-03     231.922E-03     217.004E-03    -865.089E-03     227.451E-03    -864.030E-03     220.416E-03    -45.0679E-03     112.264E-03    -55.9500E-03    -56.3232E-03    -55.7162E-03     112.030E-03    -56.3232E-03     12.2717E-03     30.1735E+06     23.7236E+06    -95.4145E+06     19.0754E+06    -85.7768E+06     25.1840E+06    -33.1678E+06         29.6795
            1793     6.61840E-03     102.092E-03     239.509E-03     222.095E-03    -882.038E-03     238.779E-03    -881.307E-03     222.095E-03    -37.9396E-03     112.278E-03    -55.9910E-03    -56.2929E-03    -55.6553E-03     111.904E-03    -56.2540E-03     15.5749E-03     33.0779E+06     26.1724E+06    -95.1016E+06     20.6058E+06    -84.0898E+06     27.6328E+06    -35.5598E+06         30.1280
            1794     7.56444E-03     102.099E-03     247.502E-03     224.548E-03    -895.636E-03     247.052E-03    -895.187E-03     224.548E-03    -44.9378E-03     112.528E-03    -56.0759E-03    -56.4523E-03    -55.7792E-03     111.959E-03    -56.1805E-03     19.3065E-03     32.7467E+06     25.0502E+06    -88.5480E+06     21.0898E+06    -76.8911E+06     25.0502E+06    -35.6372E+06         30.6989
            1795     8.51027E-03     102.111E-03     235.973E-03     226.121E-03    -886.687E-03     235.402E-03    -886.253E-03     226.258E-03    -42.9593E-03     112.907E-03    -56.1545E-03    -56.7521E-03    -55.9579E-03     112.113E-03    -56.1545E-03     22.9330E-03     32.4723E+06     24.2336E+06    -85.4914E+06     20.4032E+06    -73.4223E+06     24.2336E+06    -35.6088E+06         31.4294
            1796     9.45556E-03     102.124E-03     241.684E-03     227.061E-03    -890.036E-03     241.353E-03    -889.843E-03     227.198E-03    -13.9298E-03     113.492E-03    -56.1382E-03    -57.3629E-03    -56.1222E-03     112.251E-03    -56.1382E-03     28.5880E-03     31.9626E+06     20.2046E+06    -83.6639E+06     18.9035E+06    -70.6048E+06     20.2046E+06    -36.4366E+06         32.4573
            1797     10.4012E-03     102.146E-03     260.678E-03     228.963E-03    -909.103E-03     260.005E-03    -908.430E-03     228.963E-03    -30.6994E-03     114.323E-03    -56.1309E-03    -58.2038E-03    -56.5569E-03     112.676E-03    -56.1309E-03     33.3617E-03     29.9379E+06     10.7728E+06    -76.4569E+06     15.8741E+06    -62.3932E+06     10.7728E+06    -35.7617E+06         34.0481
            1798     11.3460E-03     102.168E-03     265.141E-03     231.305E-03    -914.361E-03     264.501E-03    -913.721E-03     231.305E-03    -32.0830E-03     115.300E-03    -56.1368E-03    -59.1839E-03    -56.9210E-03     113.037E-03    -56.1368E-03     39.0818E-03     27.1677E+06    -2.18077E+06    -70.1956E+06     11.6207E+06    -54.6486E+06    -2.18077E+06    -35.3415E+06         36.3924
            1799     12.2910E-03     102.204E-03     264.287E-03     233.227E-03    -915.065E-03     263.664E-03    -914.442E-03     233.227E-03    -32.4414E-03     116.883E-03    -56.1739E-03    -60.7638E-03    -57.0216E-03     113.141E-03    -56.1739E-03     50.5386E-03     24.0646E+06    -14.6640E+06    -62.4932E+06     5.67803E+06    -44.1066E+06    -14.6640E+06    -34.9062E+06         39.5063
            1800     13.2360E-03     102.250E-03     273.095E-03     234.845E-03    -925.067E-03     272.240E-03    -924.212E-03     234.845E-03    -58.6971E-03     119.264E-03    -56.1549E-03    -63.1563E-03    -56.7285E-03     112.836E-03    -56.1549E-03     66.6316E-03     24.8482E+06    -28.4690E+06    -51.5775E+06     227.237E+03    -22.5566E+06    -32.8689E+06    -33.3795E+06         43.3507
            1801     14.1816E-03     102.322E-03     286.227E-03     236.454E-03    -938.444E-03     285.975E-03    -938.192E-03     236.454E-03    -19.0918E-03     128.729E-03    -56.0009E-03    -72.7473E-03    -56.7223E-03     112.704E-03    -56.0009E-03     106.044E-03     49.3032E+06    -25.2658E+06    -60.9416E+06    -4.33209E+06     28.2617E+06    -60.8338E+06    -26.8158E+06         47.6793
            1802     15.1267E-03     102.457E-03     282.823E-03     237.236E-03    -936.327E-03     282.235E-03    -935.739E-03     237.236E-03    -31.3241E-03     146.375E-03    -55.9065E-03    -90.5353E-03    -54.9892E-03     110.829E-03    -55.9065E-03     167.330E-03     111.823E+06    -6.64623E+06    -43.7044E+06    -7.16916E+06     108.615E+06    -39.9732E+06    -14.7752E+06         51.7881
            1803     16.0790E-03     102.668E-03     276.118E-03     237.267E-03    -929.417E-03     275.415E-03    -928.714E-03     237.267E-03    -18.1034E-03     135.195E-03    -56.1178E-03    -79.2006E-03    -51.7956E-03     107.790E-03    -56.1178E-03     134.655E-03     166.659E+06     63.8130E+06    -7.71543E+06    -5.25053E+06     166.353E+06     61.6541E+06    -4.42722E+06         54.9682
            1804     946.762E-06     103.197E-03     373.891E-03     191.358E-03    -962.200E-03     60.8475E-03    -831.689E-03     373.891E-03    -345.985E-03     110.401E-03    -54.9686E-03    -55.4332E-03    -55.3398E-03     110.389E-03    -55.0502E-03     2.57114E-03     30.8879E+06     26.0045E+06    -86.9092E+06     28.7776E+06    -85.9188E+06     27.1244E+06    -9.62366E+06         28.4525
            1805     1.89262E-03     103.198E-03     207.085E-03     183.709E-03    -783.953E-03     165.783E-03    -766.027E-03     207.085E-03     57.6387E-03     109.969E-03    -54.8525E-03    -55.1218E-03    -54.8436E-03     109.941E-03    -55.1027E-03     4.15997E-03     29.8618E+06     25.7403E+06    -78.2231E+06     27.0095E+06    -75.3708E+06     25.7403E+06    -16.8447E+06         28.5141
            1806     2.83968E-03     103.197E-03     198.921E-03     180.594E-03    -769.087E-03     178.934E-03    -762.717E-03     194.210E-03    -61.0089E-03     109.630E-03    -54.6532E-03    -54.9837E-03    -54.5837E-03     109.561E-03    -54.9837E-03     6.39501E-03     33.2339E+06     27.3939E+06    -79.8358E+06     27.8006E+06    -74.4025E+06     27.3939E+06    -24.0287E+06         28.6273
            1807     3.78677E-03     103.198E-03     210.404E-03     189.518E-03    -789.367E-03     205.619E-03    -788.272E-03     193.208E-03     33.0057E-03     109.531E-03    -54.6359E-03    -54.9003E-03    -54.4894E-03     109.384E-03    -54.9003E-03     9.48801E-03     37.8917E+06     30.8708E+06    -84.6532E+06     29.9883E+06    -76.7498E+06     30.8708E+06     -30.035E+06         28.8001
            1808     4.73355E-03     103.199E-03     224.288E-03     197.416E-03    -812.110E-03     224.215E-03    -812.037E-03     197.416E-03    -15.1337E-03     109.375E-03    -54.5578E-03    -54.8233E-03    -54.2908E-03     109.108E-03    -54.8233E-03     12.8904E-03     40.8129E+06     33.2204E+06    -87.6569E+06     31.7415E+06    -78.5855E+06     33.2204E+06    -32.9002E+06         29.0399
            1809     5.68151E-03     103.203E-03     222.921E-03     201.776E-03    -817.560E-03     222.501E-03    -817.140E-03     201.776E-03    -22.2446E-03     109.274E-03    -54.5216E-03    -54.7557E-03    -54.1108E-03     108.837E-03    -54.7299E-03     16.5950E-03     43.9163E+06     33.5918E+06    -86.0733E+06     33.7935E+06    -75.9504E+06     33.5918E+06    -34.7805E+06         29.3651
            1810     6.62863E-03     103.208E-03     217.069E-03     198.822E-03    -812.393E-03     211.273E-03    -811.719E-03     203.945E-03    -36.2071E-03     109.595E-03    -54.6312E-03    -54.9629E-03    -54.2433E-03     108.921E-03    -54.6767E-03     20.6478E-03     46.4508E+06     37.0729E+06    -87.0772E+06     35.6343E+06    -76.2607E+06     37.0729E+06    -36.4049E+06         29.7956
            1811     7.57574E-03     103.216E-03     214.358E-03     199.456E-03    -811.903E-03     208.645E-03    -811.313E-03     204.579E-03    -48.1656E-03     110.026E-03    -54.6393E-03    -55.3842E-03    -54.3874E-03     109.029E-03    -54.6393E-03     25.2108E-03     46.7615E+06     35.7413E+06    -84.3548E+06     36.4458E+06    -74.0391E+06     35.7413E+06    -35.2816E+06         30.3558
            1812     8.52279E-03     103.228E-03     220.642E-03     205.432E-03    -824.449E-03     220.063E-03    -823.870E-03     205.432E-03    -46.6541E-03     110.713E-03    -54.6363E-03    -56.0768E-03    -54.7237E-03     109.359E-03    -54.6363E-03     29.5306E-03     45.8903E+06     35.3401E+06    -78.3540E+06     35.9791E+06    -68.4429E+06     35.3401E+06    -33.6063E+06         31.1106
            1813     9.46965E-03     103.242E-03     237.995E-03     207.460E-03    -842.080E-03     237.434E-03    -841.519E-03     207.460E-03    -32.2606E-03     111.943E-03    -54.6796E-03    -57.2894E-03    -55.3144E-03     109.968E-03    -54.6796E-03     35.8373E-03     44.2152E+06     32.4233E+06    -76.7437E+06     33.8912E+06    -66.4197E+06     32.4233E+06    -33.6884E+06         32.2047
            1814     10.4155E-03     103.264E-03     244.756E-03     210.154E-03    -850.091E-03     244.276E-03    -849.612E-03     210.154E-03    -30.4014E-03     113.484E-03    -54.7381E-03    -58.7688E-03    -56.1548E-03     110.870E-03    -54.7381E-03     41.7585E-03     41.9617E+06     21.6886E+06    -70.9874E+06     31.3669E+06    -60.3925E+06     21.6886E+06    -32.8069E+06         33.8575
            1815     11.3603E-03     103.289E-03     241.533E-03     212.469E-03    -851.175E-03     241.300E-03    -850.943E-03     212.469E-03    -15.0994E-03     115.138E-03    -54.8492E-03    -60.3000E-03    -56.9582E-03     111.797E-03    -54.8492E-03     47.5090E-03     37.2365E+06     11.7783E+06    -63.0529E+06     27.3894E+06    -53.2058E+06     11.7783E+06    -29.4240E+06         36.2358
            1816     12.3051E-03     103.322E-03     249.478E-03     214.427E-03    -864.565E-03     249.038E-03    -864.125E-03     214.427E-03    -23.2820E-03     117.479E-03    -54.9902E-03    -62.5201E-03    -57.4463E-03     112.405E-03    -54.9902E-03     58.9610E-03     31.4424E+06    -911.346E+03    -52.3695E+06     20.3533E+06    -41.2804E+06    -911.346E+03    -27.5170E+06         39.3640
            1817     13.2493E-03     103.373E-03     259.855E-03     216.486E-03    -878.833E-03     259.255E-03    -878.233E-03     216.486E-03    -49.1866E-03     120.399E-03    -55.0888E-03    -65.3246E-03    -57.5892E-03     112.663E-03    -55.0888E-03     73.7427E-03     28.4206E+06    -17.9094E+06    -39.7303E+06     11.6620E+06    -20.2703E+06    -20.6108E+06    -27.2505E+06         43.2018
            1818     14.1945E-03     103.440E-03     263.785E-03     218.213E-03    -878.871E-03     263.562E-03    -878.647E-03     218.213E-03    -21.5367E-03     130.130E-03    -55.0627E-03    -75.0612E-03    -57.6542E-03     112.723E-03    -55.0627E-03     111.495E-03     42.0955E+06    -16.9720E+06    -49.6693E+06     4.35322E+06     20.6625E+06    -49.5615E+06    -23.3501E+06         47.5290
            1819     15.1421E-03     103.580E-03     265.864E-03     218.910E-03    -878.600E-03     265.185E-03    -877.921E-03     218.910E-03    -39.0290E-03     146.388E-03    -55.0144E-03    -91.4104E-03    -55.6492E-03     110.627E-03    -55.0144E-03     168.573E-03     98.9187E+06    -5.81643E+06    -43.4072E+06    -1.80132E+06     94.9035E+06    -43.4072E+06    -13.2485E+06         51.6723
            1820     16.0892E-03     103.780E-03     273.217E-03     219.409E-03    -885.586E-03     272.474E-03    -884.843E-03     219.409E-03    -36.2829E-03     135.010E-03    -55.2511E-03    -79.7903E-03    -52.0575E-03     107.278E-03    -55.2511E-03     137.499E-03     158.971E+06     58.2021E+06    -12.5144E+06    -4.53962E+06     158.699E+06     50.4995E+06    -3.19717E+06         54.8957
            1821     947.667E-06     104.311E-03     316.900E-03     148.474E-03    -857.938E-03     59.9136E-03    -752.261E-03     299.783E-03    -264.422E-03     105.798E-03    -52.5784E-03    -53.2209E-03    -52.9932E-03     105.775E-03    -52.7825E-03     3.52584E-03     45.9749E+06     41.2248E+06    -65.5350E+06     43.6492E+06    -64.3292E+06     42.3448E+06    -10.4047E+06         28.0683
            1822     1.89732E-03     104.312E-03     205.760E-03     163.324E-03    -744.023E-03     173.886E-03    -727.523E-03     178.699E-03     61.1932E-03     105.064E-03    -52.3230E-03    -52.7449E-03    -52.2591E-03     105.001E-03    -52.7449E-03     6.04193E-03     47.6437E+06     40.7756E+06    -60.3342E+06     44.3367E+06    -57.0272E+06     40.7756E+06    -18.1160E+06         28.1173
            1823     2.84649E-03     104.310E-03     193.172E-03     175.255E-03    -735.587E-03     184.614E-03    -730.291E-03     178.517E-03    -56.2484E-03     104.766E-03    -52.2247E-03    -52.5433E-03    -52.0746E-03     104.616E-03    -52.5433E-03     9.31315E-03     50.7088E+06     40.0643E+06    -62.2294E+06     44.4372E+06    -55.9578E+06     40.0643E+06    -25.6254E+06         28.2175
            1824     3.79595E-03     104.311E-03     188.533E-03     178.280E-03    -737.336E-03     185.247E-03    -735.938E-03     180.169E-03     14.2178E-03     104.732E-03    -52.3003E-03    -52.4333E-03    -52.0061E-03     104.438E-03    -52.4333E-03     13.2355E-03     51.9657E+06     40.3965E+06    -71.2417E+06     43.4188E+06    -62.6948E+06     40.3965E+06    -31.2700E+06         28.3768
            1825     4.74548E-03     104.313E-03     191.668E-03     180.875E-03    -745.921E-03     190.221E-03    -745.240E-03     181.641E-03    -40.2073E-03     104.766E-03    -52.2914E-03    -52.4781E-03    -51.9007E-03     104.251E-03    -52.3540E-03     17.5240E-03     54.4252E+06     40.6984E+06    -77.8713E+06     44.1736E+06    -67.6197E+06     40.6984E+06    -35.2543E+06         28.5990
            1826     5.69439E-03     104.315E-03     198.583E-03     183.628E-03    -758.687E-03     197.847E-03    -757.951E-03     183.628E-03    -49.3604E-03     104.888E-03    -52.2392E-03    -52.6521E-03    -51.7840E-03     104.051E-03    -52.2695E-03     22.4015E-03     55.9729E+06     38.8039E+06    -78.6971E+06     45.0308E+06    -67.7550E+06     38.8039E+06    -36.6937E+06         28.9020
            1827     6.64439E-03     104.321E-03     198.119E-03     180.097E-03    -754.407E-03     192.363E-03    -753.773E-03     185.219E-03    -43.2004E-03     105.357E-03    -52.2258E-03    -53.1299E-03    -51.8501E-03     104.077E-03    -52.2258E-03     27.7931E-03     54.3260E+06     39.4098E+06    -80.8334E+06     43.8101E+06    -70.3176E+06     39.4098E+06    -36.1654E+06         29.3129
            1828     7.59354E-03     104.330E-03     195.200E-03     180.695E-03    -746.730E-03     189.576E-03    -746.229E-03     185.818E-03    -39.0201E-03     106.221E-03    -52.2129E-03    -54.0058E-03    -52.1882E-03     104.404E-03    -52.2129E-03     33.3924E-03     53.0569E+06     38.3049E+06    -80.9941E+06     42.8106E+06    -70.7478E+06     38.3049E+06    -35.5989E+06         29.8889
            1829     8.54285E-03     104.341E-03     205.708E-03     186.885E-03    -762.703E-03     205.164E-03    -762.159E-03     186.885E-03    -38.7119E-03     107.548E-03    -52.2438E-03    -55.3118E-03    -52.8465E-03     105.083E-03    -52.2438E-03     39.1710E-03     51.8487E+06     35.9168E+06    -75.9473E+06     42.6092E+06    -66.7077E+06     35.9168E+06    -33.0847E+06         30.7400
            1830     9.49054E-03     104.357E-03     217.164E-03     189.022E-03    -780.901E-03     216.658E-03    -780.395E-03     189.022E-03    -34.7964E-03     109.610E-03    -52.3682E-03    -57.2536E-03    -53.8754E-03     106.232E-03    -52.3682E-03     46.3448E-03     50.2583E+06     36.0255E+06    -70.5227E+06     41.4916E+06    -61.7560E+06     36.0255E+06    -31.3023E+06         31.9624
            1831     10.4381E-03     104.379E-03     224.426E-03     191.487E-03    -794.012E-03     223.661E-03    -793.247E-03     191.487E-03    -51.1716E-03     111.942E-03    -52.5233E-03    -59.4130E-03    -55.0898E-03     107.619E-03    -52.5233E-03     53.2420E-03     44.8679E+06     25.4643E+06    -69.2799E+06     37.0061E+06    -61.4180E+06     25.4643E+06    -28.6733E+06         33.6904
            1832     11.3843E-03     104.408E-03     233.595E-03     194.077E-03    -810.767E-03     232.984E-03    -810.156E-03     194.077E-03    -37.0156E-03     114.588E-03    -52.7626E-03    -61.8329E-03    -56.5633E-03     109.319E-03    -52.7626E-03     59.5803E-03     37.9184E+06     15.4192E+06    -61.6699E+06     31.4781E+06    -55.2296E+06     15.4192E+06    -24.3022E+06         36.1075
            1833     12.3287E-03     104.441E-03     238.228E-03     196.620E-03    -819.821E-03     237.185E-03    -818.778E-03     196.620E-03    -49.2323E-03     118.440E-03    -53.0818E-03    -65.3986E-03    -58.0922E-03     111.134E-03    -53.0818E-03     71.2133E-03     34.0867E+06     8.09737E+06    -45.3236E+06     27.4521E+06    -38.6890E+06     8.09737E+06    -21.7808E+06         39.2628
            1834     13.2728E-03     104.494E-03     237.308E-03     198.634E-03    -820.137E-03     236.066E-03    -818.895E-03     198.634E-03    -68.5190E-03     123.105E-03    -53.4032E-03    -69.7142E-03    -59.6660E-03     113.057E-03    -53.4032E-03     85.4209E-03     29.1913E+06    -5.47319E+06    -29.9498E+06     21.0467E+06    -19.1038E+06    -8.17457E+06    -18.9638E+06         43.1012
            1835     14.2146E-03     104.561E-03     240.940E-03     199.941E-03    -822.780E-03     240.563E-03    -822.403E-03     199.941E-03    -37.8789E-03     133.075E-03    -53.6588E-03    -79.3992E-03    -59.9464E-03     113.622E-03    -53.6588E-03     120.086E-03     35.7745E+06    -8.03689E+06    -35.0480E+06     9.04598E+06     16.1971E+06    -32.5535E+06    -13.3416E+06         47.4298
            1836     15.1575E-03     104.700E-03     250.863E-03     200.621E-03    -830.675E-03     250.175E-03    -829.987E-03     200.621E-03    -49.2858E-03     148.318E-03    -53.7991E-03    -94.5106E-03    -57.4507E-03     111.258E-03    -53.7991E-03     173.483E-03     89.8984E+06    -6.16829E+06    -36.3970E+06    -3.47211E+06     87.2022E+06    -36.3970E+06    -7.87148E+06         51.6092
            1837     16.1104E-03     104.893E-03     258.062E-03     201.415E-03    -835.025E-03     257.380E-03    -834.343E-03     201.415E-03    -49.1366E-03     136.026E-03    -54.1355E-03    -81.8373E-03    -53.7293E-03     107.918E-03    -54.1355E-03     139.513E-03     152.111E+06     55.2134E+06    -13.7908E+06    -5.13646E+06     151.870E+06     46.7999E+06    -2.82437E+06         54.8758
            1838     952.291E-06     105.421E-03     248.226E-03     117.085E-03    -728.305E-03     66.5307E-03    -655.832E-03     226.306E-03    -160.506E-03     98.3144E-03    -48.8634E-03    -49.4507E-03    -49.2878E-03     98.2741E-03    -48.9859E-03     4.63187E-03     60.0775E+06     54.1470E+06    -44.2461E+06     56.9437E+06    -42.8901E+06     55.9248E+06    -10.3908E+06         27.4898
            1839     1.90405E-03     105.417E-03     183.685E-03     151.085E-03    -689.827E-03     169.513E-03    -675.655E-03     151.085E-03     56.5996E-03     98.0091E-03    -48.8332E-03    -49.1774E-03    -48.8337E-03     97.8805E-03    -49.0482E-03     8.25866E-03     59.2020E+06     50.2690E+06    -40.6088E+06     54.9295E+06    -36.3362E+06     50.2690E+06    -19.5154E+06         27.5395
            1840     2.85681E-03     105.418E-03     171.521E-03     156.081E-03    -678.915E-03     166.157E-03    -674.674E-03     157.204E-03    -100.480E-03     97.8638E-03    -48.8293E-03    -49.0338E-03    -48.6412E-03     97.5690E-03    -48.9271E-03     12.7329E-03     59.7563E+06     44.7442E+06    -45.6087E+06     52.4312E+06    -38.2836E+06     44.7442E+06    -26.5791E+06         27.6323
            1841     3.80907E-03     105.417E-03     173.895E-03     158.149E-03    -680.512E-03     170.741E-03    -679.246E-03     160.038E-03    -54.6760E-03     97.8320E-03    -48.8223E-03    -49.0080E-03    -48.4260E-03     97.2629E-03    -48.8352E-03     17.7235E-03     60.6269E+06     42.0493E+06    -57.3025E+06     50.7323E+06    -47.4079E+06     42.0493E+06    -32.5814E+06         27.7765
            1842     4.76187E-03     105.419E-03     174.033E-03     161.571E-03    -682.544E-03     172.188E-03    -681.464E-03     162.336E-03    -60.4712E-03     97.9828E-03    -48.7371E-03    -49.2473E-03    -48.2568E-03     96.9999E-03    -48.7448E-03     23.4174E-03     61.2444E+06     39.8848E+06    -66.9485E+06     49.6864E+06    -55.3905E+06     39.8848E+06    -36.6086E+06         27.9828
            1843     5.71508E-03     105.422E-03     167.715E-03     160.549E-03    -675.721E-03     163.796E-03    -674.556E-03     163.303E-03    -58.5366E-03     98.4672E-03    -48.6691E-03    -49.8024E-03    -48.2357E-03     96.9005E-03    -48.6691E-03     29.7161E-03     59.3516E+06     36.9189E+06    -73.5252E+06     47.9496E+06    -62.1231E+06     36.9189E+06    -37.1361E+06         28.2703
            1844     6.66744E-03     105.426E-03     182.691E-03     161.496E-03    -693.308E-03     178.541E-03    -691.913E-03     164.250E-03    -57.2032E-03     99.4118E-03    -48.6370E-03    -50.7738E-03    -48.4155E-03     97.0535E-03    -48.6370E-03     36.6964E-03     56.9419E+06     35.6010E+06    -75.9754E+06     46.5232E+06    -65.5566E+06     35.6010E+06    -35.6502E+06         28.6913
            1845     7.62046E-03     105.436E-03     199.595E-03     167.022E-03    -714.845E-03     197.896E-03    -713.146E-03     167.022E-03    -65.4286E-03     100.996E-03    -48.6714E-03    -52.3206E-03    -49.0561E-03     97.7315E-03    -48.6714E-03     43.6272E-03     53.5882E+06     35.4316E+06    -76.8373E+06     44.0241E+06    -67.2732E+06     35.4316E+06    -33.9644E+06         29.3553
            1846     8.57172E-03     105.449E-03     195.671E-03     170.055E-03    -714.500E-03     194.049E-03    -712.878E-03     170.055E-03    -61.0487E-03     103.160E-03    -48.7678E-03    -54.3905E-03    -50.0754E-03     98.8447E-03    -48.7678E-03     50.7829E-03     48.6777E+06     30.7743E+06    -75.4961E+06     39.9600E+06    -66.7784E+06     30.7743E+06    -31.7213E+06         30.3614
            1847     9.52303E-03     105.466E-03     192.284E-03     172.066E-03    -715.620E-03     191.448E-03    -714.783E-03     172.066E-03    -39.0919E-03     106.397E-03    -48.9914E-03    -57.4025E-03    -51.6624E-03     100.657E-03    -48.9914E-03     59.5746E-03     43.7247E+06     29.9072E+06    -68.3798E+06     35.3591E+06    -61.2390E+06     31.1321E+06    -27.1172E+06         31.7283
            1848     10.4714E-03     105.492E-03     199.339E-03     173.784E-03    -732.603E-03     198.544E-03    -731.809E-03     173.784E-03    -49.8012E-03     110.018E-03    -49.3183E-03    -60.6849E-03    -53.7618E-03     103.095E-03    -49.3183E-03     66.8713E-03     35.6396E+06     23.9757E+06    -68.6423E+06     29.3605E+06    -63.5882E+06     25.2006E+06    -22.0537E+06         33.5512
            1849     11.4189E-03     105.521E-03     213.656E-03     175.960E-03    -754.906E-03     212.957E-03    -754.206E-03     175.960E-03    -48.2006E-03     113.956E-03    -49.7437E-03    -64.2006E-03    -56.1209E-03     105.876E-03    -49.7437E-03     73.7094E-03     26.8853E+06     13.5287E+06    -61.3287E+06     22.5265E+06    -56.9699E+06     13.5287E+06    -18.8692E+06         36.0327
            1850     12.3640E-03     105.560E-03     222.694E-03     178.483E-03    -764.208E-03     221.822E-03    -763.336E-03     178.483E-03    -51.6461E-03     119.749E-03    -50.3154E-03    -69.4507E-03    -59.2408E-03     109.540E-03    -50.3154E-03     85.1278E-03     21.1349E+06     7.16479E+06    -42.6804E+06     15.3950E+06    -36.9405E+06     7.16479E+06    -17.5794E+06         39.2351
            1851     13.3059E-03     105.614E-03     218.521E-03     180.534E-03    -760.374E-03     217.412E-03    -759.266E-03     180.534E-03    -62.7457E-03     126.013E-03    -50.9913E-03    -75.0325E-03    -62.0193E-03     113.000E-03    -50.9913E-03     98.6751E-03     13.3256E+06    -3.68221E+06    -29.5659E+06     7.98036E+06    -24.9253E+06    -2.97755E+06    -12.4577E+06         43.0981
            1852     14.2447E-03     105.690E-03     227.682E-03     182.029E-03    -769.263E-03     227.224E-03    -768.804E-03     182.029E-03    -40.8193E-03     135.922E-03    -51.6080E-03    -84.3088E-03    -62.4647E-03     114.078E-03    -51.6080E-03     129.995E-03     24.8913E+06    -4.82094E+06    -24.5526E+06     1.88259E+06     9.89472E+06    -16.2596E+06    -3.90125E+06         47.4433
            1853     15.1899E-03     105.816E-03     240.635E-03     183.255E-03    -779.299E-03     240.050E-03    -778.714E-03     183.255E-03    -44.4070E-03     153.007E-03    -52.0601E-03    -100.947E-03    -61.9775E-03     114.038E-03    -52.0601E-03     182.081E-03     90.4073E+06    -2.61145E+06    -18.9248E+06    -2.16790E+06     89.9638E+06    -18.9248E+06    -638.975E+03         51.6465
            1854     16.1293E-03     106.019E-03     237.062E-03     184.377E-03    -771.825E-03     236.244E-03    -771.007E-03     184.377E-03    -18.9782E-03     140.293E-03    -52.7586E-03    -87.4790E-03    -59.5073E-03     112.322E-03    -52.7586E-03     139.871E-03     150.945E+06     56.8948E+06    -8.70762E+06    -4.12304E+06     150.531E+06     52.7247E+06    -1.07546E+06         54.9310
            1855     956.966E-06     106.517E-03     196.843E-03     102.984E-03    -642.660E-03     76.4830E-03    -611.356E-03     192.040E-03    -111.466E-03     88.1998E-03    -43.9287E-03    -44.2701E-03    -44.1990E-03     88.1287E-03    -43.9287E-03     5.66812E-03     64.2749E+06     57.4117E+06    -22.3771E+06     60.7964E+06    -20.6763E+06     59.1896E+06    -10.3294E+06         26.7139
            1856     1.91399E-03     106.517E-03     139.575E-03     122.220E-03    -601.682E-03     123.400E-03    -595.401E-03     132.114E-03     42.7884E-03     88.4474E-03    -44.0663E-03    -44.3835E-03    -44.1565E-03     88.2204E-03    -44.0663E-03     10.4663E-03     65.2337E+06     55.8245E+06    -19.6687E+06     60.0026E+06    -14.4375E+06     55.8245E+06    -19.7789E+06         26.7667
            1857     2.87017E-03     106.515E-03     145.419E-03     131.845E-03    -606.307E-03     143.210E-03    -604.098E-03     131.845E-03    -67.5187E-03     88.4422E-03    -44.0459E-03    -44.4012E-03    -43.8649E-03     87.9058E-03    -44.0459E-03     16.3058E-03     67.3949E+06     49.2981E+06    -29.7260E+06     58.5035E+06    -20.8347E+06     49.2981E+06    -27.8829E+06         26.8557
            1858     3.82775E-03     106.515E-03     162.033E-03     136.773E-03    -620.661E-03     161.000E-03    -619.629E-03     136.773E-03    -47.2559E-03     88.5453E-03    -43.9557E-03    -44.5941E-03    -43.5639E-03     87.5151E-03    -43.9557E-03     22.7576E-03     66.6384E+06     41.4710E+06    -43.1226E+06     55.4956E+06    -31.9798E+06     41.4710E+06    -33.0436E+06         26.9899
            1859     4.78501E-03     106.516E-03     156.810E-03     141.248E-03    -619.748E-03     156.231E-03    -619.199E-03     141.278E-03    -35.8707E-03     89.0191E-03    -43.8728E-03    -45.1459E-03    -43.4118E-03     87.2850E-03    -43.8728E-03     29.7159E-03     61.9401E+06     35.8144E+06    -57.6488E+06     50.4028E+06    -46.1115E+06     35.8144E+06    -35.2602E+06         27.1885
            1860     5.74236E-03     106.518E-03     151.820E-03     140.322E-03    -612.196E-03     147.783E-03    -610.944E-03     143.106E-03    -58.9612E-03     89.9730E-03    -43.8046E-03    -46.1656E-03    -43.4660E-03     87.2734E-03    -43.8046E-03     37.3149E-03     55.7479E+06     29.4280E+06    -67.1879E+06     44.6447E+06    -56.0847E+06     29.4280E+06    -35.2268E+06         27.4951
            1861     6.70005E-03     106.525E-03     167.873E-03     141.965E-03    -629.091E-03     163.349E-03    -627.321E-03     144.720E-03    -72.1867E-03     91.7417E-03    -43.7993E-03    -47.9412E-03    -43.9742E-03     87.7747E-03    -43.7993E-03     45.7572E-03     48.5550E+06     23.5497E+06    -72.9432E+06     38.5345E+06    -62.9227E+06     23.5497E+06    -33.3464E+06         28.0086
            1862     7.65614E-03     106.535E-03     182.035E-03     147.890E-03    -652.136E-03     180.162E-03    -650.262E-03     147.890E-03    -74.3460E-03     94.3401E-03    -43.9204E-03    -50.4184E-03    -44.9997E-03     88.9213E-03    -43.9204E-03     54.3369E-03     39.6545E+06     22.3040E+06    -74.7404E+06     31.6440E+06    -66.7299E+06     22.3040E+06    -29.1676E+06         28.8363
            1863     8.61193E-03     106.550E-03     189.320E-03     151.626E-03    -664.796E-03     187.441E-03    -662.917E-03     151.626E-03    -76.2797E-03     97.8059E-03    -44.1687E-03    -53.6327E-03    -46.7204E-03     90.8937E-03    -44.1687E-03     62.6680E-03     31.8190E+06     17.7740E+06    -74.0100E+06     22.4385E+06    -67.9308E+06     21.0754E+06    -23.9086E+06         30.0113
            1864     9.56533E-03     106.569E-03     191.879E-03     155.022E-03    -672.541E-03     190.551E-03    -671.213E-03     155.022E-03    -65.7002E-03     102.494E-03    -44.5709E-03    -57.9221E-03    -49.1424E-03     93.7145E-03    -44.5709E-03     72.4877E-03     26.1906E+06     12.2806E+06    -68.7121E+06     12.3307E+06    -64.1265E+06     21.5550E+06    -18.9533E+06         31.5168
            1865     10.5170E-03     106.600E-03     188.981E-03     157.715E-03    -677.653E-03     187.822E-03    -676.495E-03     157.715E-03    -62.4758E-03     107.856E-03    -45.1519E-03    -62.7130E-03    -52.5644E-03     97.7073E-03    -45.1519E-03     80.3740E-03     20.7950E+06     6.65996E+06    -70.1330E+06     5.40622E+06    -66.9702E+06     18.8860E+06    -14.9278E+06         33.4531
            1866     11.4641E-03     106.631E-03     188.732E-03     159.735E-03    -686.389E-03     187.941E-03    -685.597E-03     159.735E-03    -48.3315E-03     113.815E-03    -45.9083E-03    -67.9115E-03    -56.7414E-03     102.645E-03    -45.9083E-03     87.0829E-03     14.1442E+06     1.30191E+06    -59.4367E+06    -138.855E+03    -55.8970E+06     12.0452E+06    -12.2943E+06         36.0255
            1867     12.4086E-03     106.676E-03     198.383E-03     161.632E-03    -702.406E-03     198.042E-03    -702.065E-03     161.632E-03    -34.1936E-03     121.278E-03    -46.8681E-03    -74.4125E-03    -61.1197E-03     107.986E-03    -46.8681E-03     98.2958E-03     8.75163E+06    -2.59621E+06    -41.1814E+06    -6.11389E+06    -36.6351E+06     7.72294E+06    -10.4220E+06         39.2999
            1868     13.3471E-03     106.738E-03     208.539E-03     163.701E-03    -712.128E-03     207.997E-03    -711.586E-03     163.701E-03    -43.9443E-03     128.313E-03    -47.9506E-03    -80.3833E-03    -64.7920E-03     112.722E-03    -47.9506E-03     109.643E-03    -1.27204E+06    -10.1247E+06    -36.4198E+06    -11.0102E+06    -33.2150E+06    -3.59131E+06    -7.11129E+06         43.2215
            1869     14.2873E-03     106.812E-03     217.364E-03     165.714E-03    -720.479E-03     216.772E-03    -719.887E-03     165.714E-03    -45.5154E-03     139.215E-03    -49.0147E-03    -90.2337E-03    -67.7133E-03     116.695E-03    -49.0147E-03     135.626E-03     17.5314E+06    -11.8604E+06    -23.9825E+06    -12.2682E+06     8.49275E+06    -14.5361E+06    -4.13263E+06         47.5982
            1870     15.2235E-03     106.943E-03     227.144E-03     167.341E-03    -728.105E-03     226.787E-03    -727.748E-03     167.341E-03    -33.0724E-03     156.675E-03    -50.0495E-03    -106.640E-03    -69.3955E-03     119.431E-03    -50.0495E-03     182.472E-03     93.0198E+06    -2.58903E+06    -14.2234E+06    -9.06604E+06     92.5431E+06    -7.26968E+06    -2.39041E+06         51.7968
            1871     16.1626E-03     107.151E-03     229.353E-03     168.945E-03    -728.367E-03     228.945E-03    -727.958E-03     168.945E-03     5.99222E-03     144.989E-03    -51.3672E-03    -93.5893E-03    -68.5152E-03     119.915E-03    -51.3672E-03     131.651E-03     150.074E+06     66.5293E+06    -5.98039E+06    -4.23039E+06     149.624E+06     65.2290E+06    -199.676E+03         55.0617
            1872     962.954E-06     107.604E-03     183.366E-03     87.8235E-03    -595.107E-03     98.8632E-03    -555.228E-03     132.448E-03    -119.095E-03     76.0839E-03    -37.8637E-03    -38.2201E-03    -38.0972E-03     75.9610E-03    -37.8637E-03     6.95105E-03     65.8817E+06     57.4280E+06     338.546E+03     61.1696E+06     3.22744E+06     59.2512E+06    -11.7404E+06         25.7626
            1873     1.92515E-03     107.602E-03     137.602E-03     106.791E-03    -559.311E-03     120.683E-03    -552.285E-03     116.684E-03     63.1821E-03     76.1904E-03    -37.9400E-03    -38.2552E-03    -37.8714E-03     75.8066E-03    -37.9400E-03     12.6403E-03     67.0286E+06     52.8838E+06    -949.938E+03     59.6495E+06     6.42920E+06     52.8838E+06    -20.4104E+06         25.8118
            1874     2.88849E-03     107.601E-03     130.086E-03     119.323E-03    -554.079E-03     129.104E-03    -553.096E-03     119.323E-03    -43.7216E-03     76.4959E-03    -37.8829E-03    -38.6181E-03    -37.7328E-03     75.6106E-03    -37.8829E-03     19.5217E-03     65.3756E+06     43.0570E+06    -14.3640E+06     54.5662E+06    -3.55458E+06     43.0570E+06    -26.8745E+06         25.9000
            1875     3.85118E-03     107.600E-03     134.428E-03     118.347E-03    -554.347E-03     130.339E-03    -553.913E-03     122.002E-03    -29.0070E-03     77.0469E-03    -37.8104E-03    -39.2365E-03    -37.5749E-03     75.3852E-03    -37.8104E-03     27.0381E-03     57.8624E+06     29.1019E+06    -31.9381E+06     46.2797E+06    -20.3555E+06     29.1019E+06    -29.9480E+06         26.0368
            1876     4.81435E-03     107.601E-03     140.086E-03     120.543E-03    -563.251E-03     136.185E-03    -563.035E-03     124.229E-03    -12.2161E-03     78.0457E-03    -37.7531E-03    -40.2905E-03    -37.5279E-03     75.2832E-03    -37.7531E-03     35.1280E-03     46.9479E+06     15.6987E+06    -50.0990E+06     36.3800E+06    -39.5311E+06     15.6987E+06    -30.0780E+06         26.2620
            1877     5.77741E-03     107.604E-03     154.543E-03     127.561E-03    -580.514E-03     154.032E-03    -580.034E-03     127.591E-03    -19.9941E-03     79.9240E-03    -37.7569E-03    -42.1626E-03    -37.9247E-03     75.6861E-03    -37.7569E-03     44.0866E-03     33.0276E+06     4.59791E+06    -61.5422E+06     24.1698E+06    -52.6843E+06     4.59791E+06    -27.5498E+06         26.6701
            1878     6.73951E-03     107.611E-03     153.265E-03     131.259E-03    -578.077E-03     152.710E-03    -577.523E-03     131.259E-03    -32.2194E-03     82.7757E-03    -37.8783E-03    -44.8922E-03    -38.8559E-03     76.7393E-03    -37.8783E-03     53.6360E-03     16.9228E+06    -2.25619E+06    -69.8219E+06     9.77359E+06    -62.6727E+06    -2.25619E+06    -23.7905E+06         27.3620
            1879     7.70131E-03     107.623E-03     149.944E-03     133.666E-03    -579.449E-03     149.530E-03    -579.036E-03     133.666E-03    -33.6717E-03     86.6491E-03    -38.1628E-03    -48.4956E-03    -40.5156E-03     78.6692E-03    -38.1628E-03     63.2674E-03     6.49470E+06    -7.62600E+06    -74.6826E+06    -4.03414E+06    -69.7343E+06    -2.04546E+06    -18.5752E+06         28.3780
            1880     8.66061E-03     107.640E-03     165.477E-03     136.061E-03    -601.072E-03     164.884E-03    -600.478E-03     136.061E-03    -41.2229E-03     91.8977E-03    -38.6499E-03    -53.2543E-03    -43.3306E-03     81.9740E-03    -38.6499E-03     72.8989E-03     5.63743E+06    -14.4079E+06    -74.3624E+06    -14.5165E+06    -71.5816E+06     2.96521E+06    -12.6965E+06         29.7131
            1881     9.61659E-03     107.664E-03     179.205E-03     139.288E-03    -622.840E-03     178.461E-03    -622.097E-03     139.288E-03    -47.1440E-03     98.5018E-03    -39.3482E-03    -59.1592E-03    -47.1943E-03     86.5369E-03    -39.3482E-03     83.2312E-03      8.4405E+06    -19.6282E+06    -67.2597E+06    -21.5948E+06    -65.2930E+06      8.4405E+06    -9.04427E+06         31.3555
            1882     10.5694E-03     107.699E-03     179.334E-03     142.385E-03    -629.759E-03     178.177E-03    -628.602E-03     142.385E-03    -58.3139E-03     105.916E-03    -40.3112E-03    -65.6312E-03    -52.2927E-03     92.5778E-03    -40.3112E-03     91.7175E-03     8.99293E+06    -24.0512E+06    -70.8318E+06    -25.9181E+06    -68.9649E+06     8.99293E+06    -8.42459E+06         33.4107
            1883     11.5168E-03     107.741E-03     175.435E-03     144.609E-03    -634.137E-03     173.979E-03    -632.681E-03     144.609E-03    -65.8630E-03     114.074E-03    -41.5249E-03    -72.5520E-03    -58.4842E-03     100.006E-03    -41.5249E-03     98.4276E-03     6.54103E+06    -22.0421E+06    -59.0417E+06    -27.2998E+06    -53.7840E+06     6.54103E+06    -7.75648E+06         36.0875
            1884     12.4568E-03     107.791E-03     180.907E-03     146.337E-03    -646.872E-03     179.935E-03    -645.900E-03     146.337E-03    -51.5957E-03     122.985E-03    -43.0020E-03    -79.9694E-03    -64.3829E-03     107.399E-03    -43.0020E-03     108.031E-03     6.36420E+06    -20.0599E+06    -43.4862E+06    -26.7260E+06    -36.8200E+06     6.36420E+06    -6.85258E+06         39.4557
            1885     13.3967E-03     107.860E-03     198.787E-03     148.418E-03    -662.722E-03     198.184E-03    -662.118E-03     148.418E-03    -44.0155E-03     131.741E-03    -44.6330E-03    -87.1254E-03    -70.4235E-03     115.039E-03    -44.6330E-03     116.182E-03    -4.39621E+06    -20.6747E+06    -40.8953E+06    -23.4166E+06     -36.484E+06    -6.06564E+06    -6.76413E+06         43.4635
            1886     14.3257E-03     107.940E-03     207.711E-03     150.755E-03    -673.556E-03     206.988E-03    -672.833E-03     150.755E-03    -50.0842E-03     144.676E-03    -46.3780E-03    -98.3268E-03    -76.3357E-03     122.685E-03    -46.3780E-03     138.771E-03     18.9737E+06    -8.98624E+06    -25.2856E+06    -20.0048E+06     13.6929E+06    -8.98624E+06    -7.13279E+06         47.8803
            1887     15.2506E-03     108.082E-03     209.266E-03     152.452E-03    -679.831E-03     208.783E-03    -679.348E-03     152.452E-03    -36.3679E-03     161.904E-03    -48.1957E-03    -113.708E-03    -79.2543E-03     127.451E-03    -48.1957E-03     181.560E-03     93.5164E+06     5.53508E+06    -18.8409E+06    -18.1345E+06     92.8100E+06     5.53508E+06    -7.72917E+06         52.0443
            1888     16.1743E-03     108.281E-03     218.073E-03     154.076E-03    -692.025E-03     218.010E-03    -691.963E-03     154.076E-03    -10.3683E-03     152.212E-03    -50.2260E-03    -101.944E-03    -79.7542E-03     130.022E-03    -50.2260E-03     126.131E-03     143.819E+06     72.7196E+06    -11.6796E+06    -11.2526E+06     143.392E+06     72.7196E+06    -4.63427E+06         55.2546
            1889     969.097E-06     108.676E-03     147.405E-03     85.1733E-03    -522.122E-03     90.6377E-03    -465.354E-03     85.1733E-03    -154.193E-03     62.0735E-03    -30.9532E-03    -31.1202E-03    -30.9400E-03     61.8933E-03    -30.9532E-03     7.58514E-03     68.6685E+06     57.3269E+06     22.8063E+06     62.6428E+06     27.0088E+06     59.1501E+06    -10.6781E+06         24.6751
            1890     1.93962E-03     108.674E-03     140.390E-03     96.1009E-03    -528.414E-03     128.689E-03    -516.713E-03     96.1009E-03     14.1557E-03     62.0711E-03    -30.8398E-03    -31.2330E-03    -30.6600E-03     61.4982E-03    -30.8398E-03     13.9930E-03     62.8259E+06     43.1176E+06     15.5525E+06     53.7279E+06     24.6505E+06     43.1176E+06    -18.2586E+06         24.7243
            1891     2.90919E-03     108.673E-03     131.629E-03     107.409E-03    -525.796E-03     126.161E-03    -520.328E-03     107.409E-03    -71.5885E-03     62.7553E-03    -30.7513E-03    -32.0009E-03    -30.7080E-03     61.4623E-03    -30.7513E-03     21.4483E-03     53.0439E+06     26.9087E+06    -1.68199E+06     42.3709E+06     8.99099E+06     26.9087E+06    -21.6194E+06         24.8215
            1892     3.87887E-03     108.672E-03     113.600E-03     106.721E-03    -502.130E-03     109.017E-03    -501.202E-03     110.376E-03    -15.0805E-03     63.9084E-03    -30.7281E-03    -33.1725E-03    -30.7721E-03     61.5080E-03    -30.7281E-03     29.5987E-03     38.4127E+06     9.05046E+06    -23.1704E+06     29.1495E+06    -13.9071E+06     9.05046E+06    -21.6776E+06         24.9982
            1893     4.84844E-03     108.672E-03     132.515E-03     108.114E-03    -517.744E-03     127.558E-03    -516.442E-03     111.769E-03    -39.6340E-03     65.8490E-03    -30.7548E-03    -35.0932E-03    -31.1446E-03     61.9004E-03    -30.7548E-03     38.6170E-03     17.8000E+06    -11.2204E+06    -44.5014E+06     11.6172E+06    -38.3185E+06    -11.2204E+06    -18.0354E+06         25.3335
            1894     5.81748E-03     108.676E-03     151.264E-03     116.098E-03    -542.802E-03     149.834E-03    -541.372E-03     116.098E-03    -36.8173E-03     68.9183E-03    -30.9163E-03    -38.0010E-03    -32.0880E-03     63.0053E-03    -30.9163E-03     48.4176E-03    -4.66569E+06    -24.2389E+06    -58.3258E+06    -8.46212E+06    -54.5293E+06    -24.2389E+06    -12.3014E+06         25.9214
            1895     6.78536E-03     108.684E-03     145.020E-03     120.469E-03    -539.983E-03     144.019E-03    -538.982E-03     120.469E-03    -41.2771E-03     73.2391E-03    -31.2846E-03    -41.9470E-03    -33.7633E-03     65.0553E-03    -31.2846E-03     58.8129E-03    -17.6486E+06    -30.9125E+06    -68.0974E+06    -26.7976E+06    -65.4546E+06    -24.4062E+06    -6.91639E+06         26.8067
            1896     7.75086E-03     108.699E-03     137.502E-03     122.780E-03    -535.471E-03     135.903E-03    -533.873E-03     122.780E-03    -55.6803E-03     78.9169E-03    -31.8653E-03    -47.0612E-03    -36.5412E-03     68.3968E-03    -31.8653E-03     69.4283E-03    -16.7526E+06    -39.7028E+06    -73.7271E+06    -40.5344E+06    -72.1219E+06    -17.5261E+06    -3.91587E+06         27.9920
            1897     8.71362E-03     108.721E-03     139.773E-03     124.055E-03    -544.574E-03     137.287E-03    -542.088E-03     124.055E-03    -70.6005E-03     85.9437E-03    -32.6855E-03    -53.2644E-03    -40.5738E-03     73.2531E-03    -32.6855E-03     79.9582E-03    -9.07152E+06    -46.0988E+06    -73.7212E+06    -47.0751E+06    -72.7449E+06    -9.07152E+06    -4.10836E+06         29.4735
            1898     9.67247E-03     108.752E-03     152.412E-03     125.595E-03    -562.833E-03     150.248E-03    -560.669E-03     125.595E-03    -68.1136E-03     94.7704E-03    -33.7804E-03    -60.9914E-03    -46.1725E-03     79.9515E-03    -33.7804E-03     91.2821E-03     57.7938E+03    -46.3027E+06    -66.9653E+06    -47.0006E+06    -66.2674E+06     57.7938E+03    -3.52141E+06         31.2461
            1899     10.6245E-03     108.795E-03     161.457E-03     127.677E-03    -578.707E-03     159.795E-03    -577.046E-03     127.677E-03    -65.0016E-03     104.593E-03    -35.2241E-03    -69.3771E-03    -53.2575E-03     88.4730E-03    -35.2241E-03     100.781E-03     6.42860E+06    -42.6678E+06    -66.5514E+06    -44.1504E+06    -65.0688E+06     6.42860E+06    -5.32586E+06         33.4198
            1900     11.5701E-03     108.845E-03     163.940E-03     129.728E-03    -588.241E-03     162.140E-03    -586.440E-03     129.728E-03    -72.7285E-03     114.692E-03    -36.9818E-03    -77.6856E-03    -61.1452E-03     98.1515E-03    -36.9818E-03     107.799E-03     6.65967E+06    -32.5208E+06    -58.3318E+06    -39.0888E+06    -51.7638E+06     6.65967E+06    -8.10789E+06         36.2072
            1901     12.5096E-03     108.908E-03     173.717E-03     131.726E-03    -602.809E-03     172.210E-03    -601.302E-03     131.726E-03    -67.5211E-03     126.067E-03    -39.0808E-03    -86.9599E-03    -69.7408E-03     108.848E-03    -39.0808E-03     116.108E-03     10.4929E+06    -24.1623E+06    -43.9795E+06    -32.6724E+06    -35.4694E+06     10.4929E+06     -8.6424E+06         39.6807
            1902     13.4377E-03     108.985E-03     190.078E-03     134.128E-03    -622.919E-03     188.947E-03    -621.788E-03     134.128E-03    -58.9451E-03     137.857E-03    -41.4087E-03    -96.4397E-03    -78.6742E-03     120.091E-03    -41.4087E-03     124.010E-03    -1.56902E+06    -21.6340E+06    -42.3716E+06    -28.0583E+06    -35.4499E+06    -2.06640E+06    -9.90954E+06         43.7923
            1903     14.3604E-03     109.082E-03     197.021E-03     136.647E-03    -631.392E-03     196.262E-03    -630.632E-03     136.647E-03    -47.9239E-03     151.751E-03    -43.9389E-03    -107.805E-03    -85.9300E-03     129.876E-03    -43.9389E-03     143.794E-03     25.5851E+06     1.57998E+06    -31.5745E+06    -23.9524E+06     17.9631E+06     1.57998E+06    -9.83120E+06         48.2570
            1904     15.2810E-03     109.223E-03     191.617E-03     138.346E-03    -627.297E-03     191.258E-03    -626.938E-03     138.346E-03    -31.4639E-03     168.983E-03    -46.5587E-03    -122.421E-03    -90.1150E-03     136.677E-03    -46.5587E-03     182.214E-03     97.2776E+06     22.5537E+06    -19.9000E+06    -18.2246E+06     95.6021E+06     22.5537E+06    -11.7582E+06         52.3662
            1905     16.1960E-03     109.438E-03     194.743E-03     139.680E-03    -633.926E-03     194.560E-03    -633.743E-03     139.680E-03    -22.7030E-03     162.101E-03    -49.3295E-03    -112.704E-03    -92.2190E-03     141.616E-03    -49.3295E-03     125.058E-03     135.590E+06     79.7210E+06    -11.0929E+06    -9.79656E+06     134.265E+06     79.7490E+06    -10.3338E+06         55.4966
            1906     977.314E-06     109.731E-03     114.679E-03     61.5266E-03    -445.452E-03     45.2535E-03    -417.865E-03     103.366E-03    -96.3302E-03     46.8446E-03    -23.2426E-03    -23.6022E-03    -23.3662E-03     46.6086E-03    -23.2426E-03     7.39843E-03     60.9115E+06     49.8873E+06     33.1484E+06     51.2185E+06     44.1890E+06     48.5397E+06    -6.75064E+06         23.5301
            1907     1.95416E-03     109.729E-03     113.711E-03     76.1236E-03    -447.434E-03     103.266E-03    -440.986E-03     80.1214E-03    -15.6190E-03     47.3138E-03    -23.2604E-03    -24.0518E-03    -23.2852E-03     46.5473E-03    -23.2604E-03     14.1366E-03     52.1609E+06     33.7520E+06     22.8428E+06     40.2827E+06     37.0880E+06     31.3851E+06    -10.3732E+06         23.5969
            1908     2.93129E-03     109.728E-03     128.275E-03     91.2823E-03    -476.534E-03     123.441E-03    -471.700E-03     91.2823E-03    -36.5318E-03     48.3191E-03    -23.2282E-03    -25.0879E-03    -23.3915E-03     46.6228E-03    -23.2282E-03     21.5544E-03     32.0372E+06     12.2187E+06    -3.51425E+06     22.2581E+06     13.5075E+06     4.97606E+06    -9.89862E+06         23.7395
            1909     3.90835E-03     109.727E-03     109.553E-03     97.9019E-03    -460.583E-03     107.980E-03    -459.010E-03     97.9019E-03    -7.61815E-03     50.2223E-03    -23.2828E-03    -26.9363E-03    -23.8451E-03     47.1311E-03    -23.2828E-03     29.8223E-03     7.26097E+06    -14.5875E+06    -30.7028E+06    -1.18899E+06    -15.6932E+06    -21.1471E+06    -4.89831E+06         24.0245
            1910     4.88453E-03     109.729E-03     112.337E-03     98.3716E-03    -463.733E-03     107.721E-03    -460.657E-03     99.9112E-03    -80.7705E-03     53.4408E-03    -23.5126E-03    -29.9263E-03    -24.9175E-03     48.4319E-03    -23.5126E-03     39.2355E-03    -17.3484E+06    -37.8164E+06    -52.0785E+06    -25.9166E+06    -43.1739E+06    -38.1527E+06     1.35851E+06         24.5318
            1911     5.85898E-03     109.734E-03     129.283E-03     100.937E-03    -487.239E-03     125.045E-03    -484.540E-03     102.476E-03    -77.2303E-03     57.8892E-03    -23.9383E-03    -33.9423E-03    -26.5913E-03     50.5382E-03    -23.9383E-03     49.5366E-03    -34.1843E+06    -45.6671E+06    -67.8296E+06    -45.2115E+06    -59.0936E+06    -43.3759E+06     5.85650E+06         25.3032
            1912     6.83181E-03     109.745E-03     137.888E-03     106.316E-03    -500.592E-03     136.544E-03    -499.249E-03     106.316E-03    -57.7250E-03     63.8798E-03    -24.6120E-03    -39.2572E-03    -29.2577E-03     53.8804E-03    -24.6120E-03     60.8075E-03    -34.6734E+06    -50.4028E+06    -75.0064E+06    -56.1530E+06    -68.7158E+06    -35.2138E+06     7.66894E+06         26.3498
            1913     7.80153E-03     109.765E-03     126.927E-03     109.074E-03    -495.203E-03     123.782E-03    -492.059E-03     109.074E-03    -83.3012E-03     71.5220E-03    -25.5485E-03    -45.9785E-03    -33.2981E-03     58.8416E-03    -25.5485E-03     72.7627E-03    -21.2535E+06    -55.9600E+06    -73.1107E+06    -59.1775E+06    -69.8933E+06    -21.2535E+06     5.26124E+06         27.6772
            1914     8.76652E-03     109.794E-03     127.922E-03     110.219E-03    -500.524E-03     122.362E-03    -494.964E-03     110.219E-03    -116.822E-03     80.5657E-03    -26.7744E-03    -53.8136E-03    -38.7928E-03     65.5449E-03    -26.7744E-03     84.5780E-03    -8.21837E+06    -56.2127E+06    -68.9614E+06    -56.8882E+06    -68.2859E+06    -8.21837E+06     359.932E+03         29.2873
            1915     9.72584E-03     109.832E-03     139.298E-03     111.479E-03    -517.104E-03     135.121E-03    -512.926E-03     111.479E-03    -100.203E-03     91.6268E-03    -28.3272E-03    -63.3050E-03    -45.9188E-03     74.2406E-03    -28.3272E-03     97.7179E-03     1.89435E+06    -50.4774E+06    -66.8153E+06    -51.3585E+06    -65.9342E+06     1.89435E+06    -3.44726E+06         31.1783
            1916     10.6788E-03     109.887E-03     150.809E-03     113.514E-03    -533.156E-03     148.704E-03    -531.051E-03     113.514E-03    -75.5531E-03     103.703E-03    -30.2602E-03    -73.4189E-03    -54.7429E-03     85.0270E-03    -30.2602E-03     108.673E-03     9.71158E+06    -41.2190E+06    -62.1411E+06    -43.9628E+06    -59.3973E+06     9.71158E+06    -6.87125E+06         33.4644
            1917     11.6225E-03     109.949E-03     160.180E-03     116.007E-03    -546.946E-03     158.429E-03    -545.196E-03     116.007E-03    -69.6745E-03     116.165E-03    -32.5771E-03    -83.5692E-03    -64.7684E-03     97.3639E-03    -32.5771E-03     116.566E-03     11.1398E+06    -29.7169E+06    -54.5551E+06    -37.3891E+06    -46.8830E+06     11.1398E+06    -10.8237E+06         36.3606
            1918     12.5562E-03     110.025E-03     165.279E-03     118.509E-03    -556.741E-03     163.684E-03    -555.146E-03     118.509E-03    -67.4269E-03     130.294E-03    -35.3104E-03    -94.9769E-03    -75.6074E-03     110.924E-03    -35.3104E-03     126.245E-03     15.2553E+06    -19.7183E+06    -45.9948E+06    -30.8414E+06    -34.8717E+06     15.2553E+06    -12.8416E+06         39.9421
            1919     13.4814E-03     110.119E-03     173.943E-03     120.887E-03    -568.263E-03     172.315E-03    -566.635E-03     120.887E-03    -69.1901E-03     145.171E-03    -38.3462E-03    -106.817E-03    -87.0758E-03     125.430E-03    -38.3462E-03     135.342E-03     4.51215E+06    -16.7757E+06    -43.8590E+06    -24.8080E+06    -35.5182E+06     4.20372E+06    -11.5308E+06         44.1661
            1920     14.3956E-03     110.226E-03     184.177E-03     123.201E-03    -579.407E-03     183.267E-03    -578.497E-03     123.201E-03    -49.3559E-03     161.232E-03    -41.6697E-03    -119.563E-03    -97.2275E-03     138.896E-03    -41.6697E-03     151.853E-03     40.2198E+06     8.68197E+06    -33.5074E+06    -21.1588E+06     25.7531E+06     10.8001E+06    -12.5276E+06         48.6796
            1921     15.2994E-03     110.381E-03     184.117E-03     125.035E-03    -580.424E-03     183.910E-03    -580.217E-03     125.035E-03    -23.4471E-03     177.510E-03    -45.1401E-03    -132.380E-03    -102.327E-03     147.456E-03    -45.1401E-03     182.893E-03     104.409E+06     39.0074E+06    -17.8334E+06    -15.1032E+06     101.679E+06     39.0074E+06    -17.2984E+06         52.7192
            1922     16.2031E-03     110.594E-03     180.442E-03     126.531E-03    -579.112E-03     180.259E-03    -578.929E-03     126.531E-03    -21.9454E-03     171.019E-03    -48.6567E-03    -122.355E-03    -103.715E-03     152.379E-03    -48.6567E-03     124.269E-03     124.319E+06     86.8379E+06    -9.88190E+06    -7.96728E+06     121.214E+06     88.0287E+06    -14.0206E+06         55.7597
            1923     984.672E-06     110.771E-03     134.879E-03     52.3415E-03    -422.378E-03     89.7381E-03    -419.075E-03     94.1805E-03    -28.0498E-03     31.9074E-03    -15.6376E-03    -16.2708E-03    -15.9896E-03     31.6262E-03    -15.6376E-03     6.65900E-03     52.2923E+06     20.5551E+06     14.4385E+06     18.5584E+06     51.0632E+06     17.6643E+06    -1.29385E+06         22.4426
            1924     1.96903E-03     110.770E-03     99.2552E-03     67.9078E-03    -394.808E-03     76.6738E-03    -393.198E-03     88.8789E-03    -4.55549E-03     32.9049E-03    -15.8456E-03    -17.0587E-03    -16.1604E-03     32.0067E-03    -15.8456E-03     12.8224E-03     40.4110E+06     2.35087E+06    -2.32693E+06     5.01896E+06     37.7429E+06    -2.32693E+06     2.61543E+06         22.5559
            1925     2.95311E-03     110.768E-03     99.9361E-03     68.3342E-03    -394.636E-03     82.2587E-03    -393.932E-03     85.3076E-03    -1.27019E-03     34.5824E-03    -15.9886E-03    -18.5939E-03    -16.6293E-03     32.6179E-03    -15.9886E-03     19.6988E-03     12.9565E+06    -19.4403E+06    -32.0470E+06    -17.2324E+06     7.08659E+06    -28.3850E+06     9.49891E+06         22.7972
            1926     3.93638E-03     110.768E-03     104.665E-03     86.8792E-03    -418.283E-03     103.588E-03    -417.206E-03     86.8792E-03    -3.39066E-03     37.5285E-03    -16.2776E-03    -21.2510E-03    -17.6873E-03     33.9647E-03    -16.2776E-03     27.7363E-03    -13.7736E+06    -40.9151E+06    -58.3173E+06    -40.3045E+06    -25.2268E+06    -47.4747E+06     16.7901E+06         23.2294
            1927     4.91803E-03     110.771E-03     105.256E-03     88.5612E-03    -422.135E-03     101.684E-03    -420.103E-03     90.1007E-03    -52.0916E-03     41.8630E-03    -16.7802E-03    -25.0818E-03    -19.3478E-03     36.1290E-03    -16.7802E-03     37.2058E-03    -32.7783E+06    -52.8759E+06    -74.9628E+06    -57.8200E+06    -49.5848E+06    -53.2123E+06     20.4739E+06         23.8933
            1928     5.89813E-03     110.780E-03     106.373E-03     83.2985E-03    -422.149E-03     96.4603E-03    -420.546E-03     91.6079E-03    -52.3219E-03     47.7124E-03    -17.5008E-03    -30.2125E-03    -21.8582E-03     39.3581E-03    -17.5008E-03     48.0317E-03    -41.8125E+06    -52.1464E+06    -85.1360E+06    -68.2068E+06    -62.2011E+06    -48.6870E+06     19.6590E+06         24.8062
            1929     6.87481E-03     110.795E-03     117.071E-03     86.2687E-03    -441.083E-03     109.648E-03    -440.430E-03     93.0386E-03    -37.0829E-03     55.3261E-03    -18.4636E-03    -36.8559E-03    -25.4897E-03     43.9599E-03    -18.4636E-03     60.4736E-03    -37.6885E+06    -53.8645E+06    -83.2318E+06    -70.8072E+06    -66.2891E+06    -37.6885E+06     14.0727E+06         25.9800
            1930     7.84774E-03     110.822E-03     120.907E-03     95.3999E-03    -458.199E-03     119.037E-03    -456.330E-03     95.3999E-03    -55.0832E-03     64.6178E-03    -19.7123E-03    -44.8997E-03    -30.4690E-03     50.1872E-03    -19.7123E-03     73.9805E-03    -22.5899E+06    -57.6169E+06    -72.5278E+06    -66.4936E+06    -63.6510E+06    -22.5899E+06     6.41293E+06         27.4234
            1931     8.81548E-03     110.858E-03     121.824E-03     97.6321E-03    -465.242E-03     118.156E-03    -461.574E-03     97.6321E-03    -83.1910E-03     75.6453E-03    -21.2998E-03    -54.3619E-03    -37.1735E-03     58.4569E-03    -21.2998E-03     87.9771E-03    -7.87969E+06    -56.0998E+06    -65.6200E+06    -59.3179E+06    -62.4019E+06    -7.87969E+06    -42.9666E+03         29.1415
            1932     9.77618E-03     110.908E-03     126.313E-03     99.4968E-03    -472.284E-03     123.616E-03    -469.586E-03     99.4968E-03    -72.4487E-03     89.0069E-03    -23.2607E-03    -65.7652E-03    -45.7491E-03     68.9907E-03    -23.2607E-03     103.788E-03     2.77010E+06    -46.4385E+06    -64.7296E+06    -51.4587E+06    -59.7094E+06     2.77010E+06    -6.55542E+06         31.1357
            1933     10.7284E-03     110.974E-03     138.703E-03     101.652E-03    -486.527E-03     137.093E-03    -484.918E-03     101.652E-03    -62.7210E-03     103.377E-03    -25.6356E-03    -77.7373E-03    -56.1415E-03     81.7815E-03    -25.6356E-03     117.222E-03     9.53080E+06    -34.4861E+06    -62.4299E+06    -42.1646E+06    -54.7514E+06     9.53080E+06    -11.5559E+06         33.5230
            1934     11.6706E-03     111.052E-03     150.282E-03     104.238E-03    -503.528E-03     148.554E-03    -501.800E-03     104.238E-03    -66.8058E-03     118.420E-03    -28.4479E-03    -89.9558E-03    -68.1314E-03     96.5958E-03    -28.4479E-03     127.459E-03     11.8884E+06    -25.2303E+06    -52.9416E+06    -34.6607E+06    -43.5112E+06     11.8884E+06    -12.7408E+06         36.5200
            1935     12.6017E-03     111.144E-03     155.939E-03     106.828E-03    -512.004E-03     154.343E-03    -510.408E-03     106.828E-03    -65.1206E-03     134.981E-03    -31.7421E-03    -103.227E-03    -80.9005E-03     112.655E-03    -31.7421E-03     138.753E-03     16.9962E+06    -15.1736E+06    -45.6564E+06    -30.9100E+06    -29.9201E+06     16.9962E+06    -14.9717E+06         40.2034
            1936     13.5216E-03     111.255E-03     155.764E-03     108.978E-03    -512.647E-03     154.059E-03    -510.941E-03     108.978E-03    -67.3201E-03     153.283E-03    -35.4154E-03    -117.872E-03    -95.1493E-03     130.560E-03    -35.4154E-03     150.123E-03     11.8968E+06    -11.6784E+06    -51.5836E+06    -23.3377E+06    -34.2364E+06     6.20877E+06    -20.2008E+06         44.5303
            1937     14.4261E-03     111.386E-03     162.744E-03     110.710E-03    -520.127E-03     161.504E-03    -518.887E-03     110.710E-03    -55.9380E-03     171.998E-03    -39.4683E-03    -132.546E-03    -107.936E-03     147.388E-03    -39.4683E-03     165.939E-03     52.6808E+06      18.071E+06    -30.7979E+06    -9.17218E+06     28.9370E+06     20.1891E+06    -19.6007E+06         49.0863
            1938     15.3218E-03     111.552E-03     175.642E-03     112.327E-03    -534.979E-03     175.221E-03    -534.558E-03     112.327E-03    -29.3515E-03     189.516E-03    -43.7478E-03    -145.776E-03    -115.010E-03     158.750E-03    -43.7478E-03     193.306E-03     107.837E+06     58.2382E+06    -4.09964E+06    -2.09739E+06     105.835E+06     58.2382E+06    -14.3338E+06         53.0638
            1939     16.2133E-03     111.768E-03     177.790E-03     114.166E-03    -542.094E-03     177.515E-03    -541.818E-03     114.166E-03    -24.2278E-03     183.236E-03    -48.0142E-03    -135.261E-03    -116.536E-03     164.511E-03    -48.0142E-03     130.988E-03     121.630E+06     89.1451E+06    -3.36206E+06    -2.33661E+06     110.915E+06     98.8348E+06    -10.3647E+06         56.0223
            1940     991.212E-06     111.797E-03     121.223E-03     72.4169E-03    -394.633E-03     114.429E-03    -393.975E-03     78.5527E-03    -28.2673E-03     19.1100E-03    -9.31573E-03    -9.79474E-03    -9.51140E-03     18.8267E-03    -9.31573E-03     5.31444E-03     46.1273E+06    -25.8574E+06    -30.4663E+06    -27.2614E+06     44.4657E+06    -27.4007E+06     9.05687E+06         21.5380
            1941     1.98173E-03     111.795E-03     96.7949E-03     68.6782E-03    -367.075E-03     72.9564E-03    -366.346E-03     91.7873E-03    -26.3727E-03     20.4477E-03    -9.52384E-03    -10.9226E-03    -10.0457E-03     19.5708E-03    -9.52384E-03     10.0389E-03     28.8462E+06    -42.9518E+06    -50.8264E+06    -42.8780E+06     23.2087E+06    -45.2627E+06     18.2932E+06         21.7228
            1942     2.97162E-03     111.795E-03     87.0814E-03     62.0716E-03    -343.730E-03     64.4976E-03    -342.934E-03     83.8592E-03    -19.5838E-03     22.9825E-03    -9.90000E-03    -13.0826E-03    -11.0960E-03     20.9959E-03    -9.90000E-03     16.2012E-03     4.56972E+06    -53.2359E+06    -73.8820E+06    -58.2490E+06    -9.36128E+06    -54.9379E+06     28.6734E+06         22.0738
            1943     3.95982E-03     111.796E-03     92.6849E-03     76.5476E-03    -365.294E-03     87.2738E-03    -364.697E-03     81.3617E-03    -10.1780E-03     26.7541E-03    -10.4411E-03    -16.3117E-03    -12.6068E-03     23.0492E-03    -10.4411E-03     23.9398E-03    -15.4321E+06    -59.6953E+06    -91.1970E+06    -70.2791E+06    -36.3500E+06    -59.6953E+06     33.5534E+06         22.6258
            1944     4.94664E-03     111.803E-03     100.666E-03     83.5738E-03    -384.231E-03     98.8602E-03    -382.426E-03     83.5738E-03    -44.7807E-03     31.9894E-03    -11.1554E-03    -20.8357E-03    -14.7671E-03     25.9208E-03    -11.1554E-03     33.5246E-03    -31.4421E+06    -58.3778E+06    -99.3498E+06    -76.3801E+06    -54.4118E+06    -58.3778E+06     31.8076E+06         23.4001
            1945     5.93049E-03     111.815E-03     90.6542E-03     75.8276E-03    -374.460E-03     79.7649E-03    -372.335E-03     84.5918E-03    -56.3732E-03     38.8928E-03    -12.0839E-03    -26.8205E-03    -17.8492E-03     29.9215E-03    -12.0839E-03     44.9978E-03    -39.8295E+06    -50.2168E+06    -95.4201E+06    -76.2209E+06    -60.1969E+06    -49.0486E+06     25.6306E+06         24.4146
            1946     6.91130E-03     111.836E-03     93.0012E-03     75.1668E-03    -384.227E-03     82.6435E-03    -382.633E-03     83.9310E-03    -48.8800E-03     47.7309E-03    -13.2563E-03    -34.4752E-03    -22.0796E-03     35.3353E-03    -13.2563E-03     58.7262E-03    -35.0589E+06    -48.3176E+06    -82.1814E+06    -72.0204E+06    -57.6478E+06    -35.8898E+06     15.4223E+06         25.6833
            1947     7.88733E-03     111.868E-03     116.159E-03     85.3265E-03    -422.444E-03     113.905E-03    -420.189E-03     85.3265E-03    -60.3854E-03     58.4547E-03    -14.7260E-03    -43.7148E-03    -27.7305E-03     42.4705E-03    -14.7260E-03     74.1460E-03    -22.6550E+06    -53.0170E+06    -69.6672E+06    -66.6693E+06    -56.0148E+06    -22.6550E+06     5.31396E+06         27.2162
            1948     8.85760E-03     111.915E-03     120.623E-03     88.2665E-03    -433.390E-03     117.519E-03    -430.286E-03     88.2665E-03    -74.3046E-03     71.0831E-03    -16.5468E-03    -54.5311E-03    -35.1282E-03     51.6801E-03    -16.5468E-03     90.6976E-03    -10.2888E+06    -50.4756E+06    -63.3003E+06    -59.3148E+06    -54.4610E+06    -10.2888E+06    -3.46013E+06         29.0205
            1949     9.82040E-03     111.976E-03     114.155E-03     90.2604E-03    -429.825E-03     110.091E-03    -425.760E-03     90.2604E-03    -83.3930E-03     86.5733E-03    -18.7714E-03    -67.8090E-03    -44.7517E-03     63.5160E-03    -18.7714E-03     109.940E-03     687.506E+03    -40.1134E+06    -61.5057E+06    -50.1987E+06    -51.4205E+06     687.506E+03    -10.5462E+06         31.0998
            1950     10.7736E-03     112.058E-03     126.718E-03     91.8566E-03    -444.600E-03     122.863E-03    -440.745E-03     91.8566E-03    -85.9357E-03     103.493E-03    -21.4577E-03    -82.0387E-03    -56.7530E-03     78.2071E-03    -21.4577E-03     127.099E-03     7.19853E+06    -30.3158E+06    -62.0655E+06    -43.0697E+06    -49.3115E+06     7.19853E+06    -15.2943E+06         33.5729
            1951     11.7156E-03     112.153E-03     137.879E-03     93.9858E-03    -458.917E-03     135.330E-03    -456.368E-03     93.9858E-03    -76.0279E-03     120.745E-03    -24.6464E-03    -96.0852E-03    -70.3229E-03     94.9830E-03    -24.6464E-03     140.128E-03     9.82837E+06    -22.1933E+06    -57.2380E+06    -36.1291E+06    -43.3023E+06     9.82837E+06    -16.9596E+06         36.6576
            1952     12.6446E-03     112.265E-03     144.448E-03     96.3077E-03    -465.932E-03     142.788E-03    -464.272E-03     96.3077E-03    -62.1863E-03     140.093E-03    -28.3805E-03    -111.701E-03    -85.2435E-03     113.636E-03    -28.3805E-03     154.239E-03     19.2234E+06    -7.65496E+06    -43.2978E+06    -27.2735E+06    -23.6792E+06     19.2234E+06    -17.2287E+06         40.4291
            1953     13.5594E-03     112.396E-03     147.070E-03     98.4054E-03    -469.764E-03     145.679E-03    -468.372E-03     98.4054E-03    -58.2530E-03     162.076E-03    -32.5505E-03    -129.534E-03    -101.877E-03     134.418E-03    -32.5505E-03     170.685E-03     23.1707E+06    -786.829E+03    -49.1799E+06    -21.4571E+06    -17.2066E+06     11.8677E+06    -28.2171E+06         44.8377
            1954     14.4599E-03     112.554E-03     143.230E-03     99.9683E-03    -471.880E-03     142.166E-03    -470.816E-03     99.9683E-03    -47.4567E-03     182.236E-03    -37.1535E-03    -145.096E-03    -116.489E-03     153.628E-03    -37.1535E-03     184.776E-03     47.6531E+06     15.2386E+06    -42.9620E+06    -15.3374E+06     20.0284E+06     15.2386E+06    -33.2324E+06         49.4273
            1955     15.3503E-03     112.729E-03     148.509E-03     101.034E-03    -477.511E-03     148.118E-03    -477.119E-03     101.034E-03    -27.1592E-03     201.577E-03    -42.0886E-03    -159.492E-03    -126.726E-03     168.811E-03    -42.0886E-03     207.287E-03     96.6486E+06     52.3344E+06    -13.0672E+06    -6.61097E+06     90.1924E+06     52.3344E+06    -16.2514E+06         53.3680
            1956     16.2295E-03     112.967E-03     156.737E-03     102.315E-03    -491.655E-03     156.243E-03    -491.160E-03     102.315E-03    -33.2442E-03     198.109E-03    -47.1615E-03    -150.958E-03    -131.656E-03     178.807E-03    -47.1615E-03     136.764E-03     125.531E+06     84.4526E+06    -3.88036E+06    -3.61937E+06     107.394E+06     102.329E+06    -3.86243E+06         56.2796
            1957     995.309E-06     112.809E-03     88.5569E-03     72.4006E-03    -330.793E-03     78.4048E-03    -329.663E-03     81.4221E-03    -8.10154E-03     9.87122E-03    -4.73959E-03    -5.13200E-03    -4.90543E-03     9.64464E-03    -4.73959E-03     3.41272E-03     22.1089E+06    -71.8441E+06    -86.2699E+06    -79.6259E+06     15.4648E+06    -71.8441E+06     24.5245E+06         20.8921
            1958     1.99079E-03     112.810E-03     80.6716E-03     67.0561E-03    -312.415E-03     69.0186E-03    -311.448E-03     77.7428E-03    -3.43841E-03     11.4720E-03    -5.06152E-03    -6.41018E-03    -5.66770E-03     10.7295E-03    -5.06152E-03     6.95740E-03     12.2466E+06    -73.7845E+06    -99.7004E+06    -87.7914E+06     337.649E+03    -73.7845E+06     33.8824E+06         21.1377
            1959     2.98440E-03     112.810E-03     79.4129E-03     68.3741E-03    -314.245E-03     70.7366E-03    -312.048E-03     74.8536E-03    -49.2188E-03     14.2706E-03    -5.54934E-03    -8.71965E-03    -6.92249E-03     12.4735E-03    -5.54934E-03     12.1733E-03    -8.99641E+06    -72.5606E+06    -108.949E+06    -89.8631E+06    -28.0821E+06    -72.5606E+06     38.5707E+06         21.5615
            1960     3.97705E-03     112.815E-03     83.5871E-03     69.2043E-03    -321.308E-03     73.3798E-03    -315.915E-03     74.0184E-03    -78.9418E-03     18.3789E-03    -6.15736E-03    -12.2172E-03    -8.64003E-03     14.8018E-03    -6.15736E-03     19.5200E-03    -21.5509E+06    -71.5876E+06    -111.709E+06    -86.9918E+06    -46.2682E+06    -71.5876E+06     39.9963E+06         22.1862
            1961     4.96721E-03     112.823E-03     90.0126E-03     74.8281E-03    -339.837E-03     84.9761E-03    -334.801E-03     74.8281E-03    -79.6793E-03     24.2084E-03    -6.95168E-03    -17.2572E-03    -11.1117E-03     18.0629E-03    -6.95168E-03     29.3515E-03    -31.4810E+06    -65.2379E+06    -107.820E+06    -83.6124E+06    -55.6882E+06    -65.2379E+06      35.373E+06         23.0311
            1962     5.95503E-03     112.841E-03     90.7643E-03     74.5388E-03    -348.666E-03     86.7536E-03    -346.649E-03     76.5331E-03    -52.5123E-03     31.7294E-03    -7.96722E-03    -23.7664E-03    -14.4099E-03     22.3729E-03    -7.96722E-03     41.4663E-03    -37.6964E+06    -52.8443E+06    -94.4302E+06    -78.4509E+06    -53.6757E+06    -52.8443E+06     25.1033E+06         24.1130
            1963     6.93899E-03     112.867E-03     86.3479E-03     71.0059E-03    -347.748E-03     78.0469E-03    -345.708E-03     77.2663E-03    -55.8336E-03     41.2978E-03    -9.22924E-03    -32.0724E-03    -18.7902E-03     28.0156E-03    -9.22924E-03     56.4135E-03    -33.3641E+06    -45.6109E+06    -77.9427E+06    -71.2239E+06    -47.9085E+06    -37.7852E+06     13.5556E+06         25.4459
            1964     7.91862E-03     112.908E-03     91.1403E-03     72.2986E-03    -360.111E-03     81.2652E-03    -355.227E-03     77.2892E-03    -89.4978E-03     53.0632E-03    -10.7822E-03    -42.2786E-03    -24.6969E-03     35.4814E-03    -10.7822E-03     73.8536E-03    -23.3477E+06    -44.8346E+06    -64.9869E+06    -63.0418E+06    -46.7798E+06    -23.3477E+06     3.14002E+06         27.0414
            1965     8.89178E-03     112.963E-03     112.704E-03     77.8272E-03    -388.221E-03     106.616E-03    -382.858E-03     78.5517E-03    -97.3736E-03     67.0438E-03    -12.6714E-03    -54.3684E-03    -32.4357E-03     45.1110E-03    -12.6714E-03     93.3040E-03    -11.4955E+06    -39.5633E+06    -59.9110E+06    -55.4887E+06    -43.9856E+06    -11.4955E+06    -6.72345E+06         28.9082
            1966     9.85755E-03     113.038E-03     119.659E-03     81.0583E-03    -402.954E-03     115.129E-03    -398.423E-03     81.0583E-03    -91.5907E-03     84.4986E-03    -14.9926E-03    -69.4928E-03    -42.7993E-03     57.8050E-03    -14.9926E-03     116.456E-03    -1.08501E+06    -31.3051E+06    -60.9182E+06    -47.7461E+06    -44.4772E+06    -1.08501E+06    -14.2525E+06         31.0515
            1967     10.8136E-03     113.136E-03     115.900E-03     83.2579E-03    -400.767E-03     112.116E-03    -396.984E-03     83.2579E-03    -81.3205E-03     103.613E-03    -17.8232E-03    -85.7660E-03    -55.9689E-03     73.8164E-03    -17.8232E-03     137.659E-03     7.59304E+06    -22.6549E+06    -60.1959E+06    -39.6788E+06    -43.1721E+06     7.59304E+06    -18.5514E+06         33.5915
            1968     11.7555E-03     113.252E-03     119.761E-03     84.9417E-03    -405.260E-03     116.468E-03    -401.967E-03     84.9417E-03    -78.4719E-03     122.958E-03    -21.2163E-03    -101.745E-03    -70.9697E-03     92.1825E-03    -21.2163E-03     154.228E-03     11.8099E+06    -12.7729E+06    -58.3620E+06    -31.2365E+06    -39.8983E+06     11.8099E+06    -22.2981E+06         36.7467
            1969     12.6850E-03     113.383E-03     131.208E-03     86.6057E-03    -420.295E-03     128.128E-03    -417.215E-03     86.6057E-03    -78.0427E-03     145.142E-03    -25.1964E-03    -119.965E-03    -87.7115E-03     112.888E-03    -25.1964E-03     173.083E-03     20.7543E+06     3.67045E+06    -46.0020E+06    -21.4171E+06    -20.9145E+06     20.7543E+06    -23.9810E+06         40.5904
            1970     13.5995E-03     113.542E-03     145.924E-03     88.5623E-03    -434.070E-03     143.494E-03    -431.640E-03     88.5623E-03    -71.1123E-03     170.285E-03    -29.6992E-03    -140.595E-03    -106.582E-03     136.273E-03    -29.6992E-03     193.833E-03     27.1662E+06     14.0617E+06    -36.0199E+06    -17.0056E+06     1.21650E+06     20.9972E+06    -26.4502E+06         45.0584
            1971     14.4968E-03     113.724E-03     140.241E-03     90.3026E-03    -438.333E-03     138.443E-03    -436.535E-03     90.3026E-03    -55.3301E-03     193.085E-03    -34.7500E-03    -158.337E-03    -124.604E-03     159.353E-03    -34.7500E-03     206.767E-03     37.6188E+06     16.3660E+06    -40.3546E+06    -22.9649E+06     20.2291E+06     16.3660E+06    -31.0404E+06         49.6682
            1972     15.3759E-03     113.924E-03     133.163E-03     91.2327E-03    -435.738E-03     132.689E-03    -435.264E-03     91.2327E-03    -30.0832E-03     215.887E-03    -40.3070E-03    -175.559E-03    -139.679E-03     180.007E-03    -40.3070E-03     225.842E-03     76.1245E+06     39.1217E+06    -35.3878E+06    -25.2857E+06     66.0224E+06     39.1217E+06    -25.3496E+06         53.5985
            1973     16.2464E-03     114.176E-03     139.693E-03     92.1974E-03    -441.573E-03     139.294E-03    -441.173E-03     92.1974E-03    -25.7032E-03     214.888E-03    -46.2003E-03    -168.613E-03    -148.326E-03     194.601E-03    -46.2003E-03     144.668E-03     116.366E+06     74.6170E+06    -16.8353E+06    -14.1650E+06     93.8658E+06     94.4465E+06    -10.5603E+06         56.5177
            1974     998.453E-06     113.817E-03     83.0481E-03     43.3213E-03    -264.154E-03     79.1204E-03    -263.113E-03     46.2071E-03    -6.96061E-03     4.62102E-03    -2.15640E-03    -2.46462E-03    -2.29736E-03     4.45915E-03    -2.16179E-03     1.94104E-03    -22.5495E+06    -108.690E+06    -130.329E+06    -117.638E+06    -33.4659E+06    -110.464E+06     31.4656E+06         20.4975
            1975     1.99511E-03     113.816E-03     70.5736E-03     56.8895E-03    -269.409E-03     63.6342E-03    -268.425E-03     62.8447E-03    -7.96950E-03     6.14779E-03    -2.50612E-03    -3.64347E-03    -3.02689E-03     5.53121E-03    -2.50612E-03     4.63223E-03    -7.04173E+06    -90.3942E+06    -128.441E+06    -110.391E+06    -25.0922E+06    -90.3942E+06     42.6521E+06         20.7697
            1976     2.99184E-03     113.820E-03     68.3623E-03     59.9959E-03    -270.105E-03     63.3825E-03    -268.194E-03     63.0653E-03    -37.3707E-03     8.74958E-03    -2.93838E-03    -5.81218E-03    -4.18020E-03     7.11761E-03    -2.93838E-03     9.06485E-03    -20.7190E+06    -87.3255E+06    -127.354E+06    -105.948E+06    -42.1253E+06    -87.3255E+06     42.4377E+06         21.2276
            1977     3.98679E-03     113.825E-03     78.1090E-03     64.1662E-03    -286.954E-03     72.8668E-03    -281.712E-03     64.1662E-03    -72.5842E-03     12.8641E-03    -3.49975E-03    -9.36066E-03    -5.91355E-03     9.41696E-03    -3.49975E-03     15.9993E-03    -31.6542E+06    -85.3689E+06    -121.937E+06    -100.305E+06    -53.2868E+06    -85.3689E+06     37.7423E+06         21.8898
            1978     4.98042E-03     113.839E-03     84.4486E-03     66.5430E-03    -300.001E-03     80.1542E-03    -295.707E-03     66.5430E-03    -67.7892E-03     18.7334E-03    -4.25831E-03    -14.4732E-03    -8.32042E-03     12.5807E-03    -4.25831E-03     25.7333E-03    -35.1191E+06    -74.1257E+06    -104.424E+06    -87.5889E+06    -51.9546E+06    -74.1257E+06     28.3642E+06         22.7721
            1979     5.97065E-03     113.859E-03     89.3718E-03     69.2355E-03    -313.112E-03     86.9714E-03    -310.712E-03     69.2355E-03    -52.4558E-03     26.3732E-03    -5.23172E-03    -21.1415E-03    -11.4715E-03     16.7032E-03    -5.23172E-03     38.1924E-03    -36.9092E+06    -56.7693E+06    -80.3697E+06    -71.3686E+06    -45.9103E+06    -56.7693E+06     16.7313E+06         23.8901
            1980     6.95803E-03     113.892E-03     85.2729E-03     66.7397E-03    -315.357E-03     78.4562E-03    -312.806E-03     71.0058E-03    -56.0101E-03     36.3784E-03    -6.44349E-03    -29.9369E-03    -15.7463E-03     22.1877E-03    -6.44349E-03     54.3216E-03    -32.9237E+06    -42.2047E+06    -63.1646E+06    -58.5424E+06    -41.0871E+06    -38.6635E+06     8.85485E+06         25.2578
            1981     7.94062E-03     113.940E-03     78.7363E-03     66.1379E-03    -312.837E-03     68.6681E-03    -307.759E-03     71.1285E-03    -82.1410E-03     48.6101E-03    -7.92618E-03    -40.6917E-03    -21.4111E-03     29.3294E-03    -7.92618E-03     73.4025E-03    -23.4942E+06    -35.4896E+06    -54.6213E+06    -52.2782E+06    -37.8326E+06    -23.4942E+06     1.92583E+06         26.8879
            1982     8.91801E-03     114.006E-03     93.1502E-03     70.8800E-03    -335.284E-03     87.6112E-03    -330.470E-03     71.6045E-03    -80.4842E-03     63.5674E-03    -9.73967E-03    -53.8290E-03    -29.1280E-03     38.8664E-03    -9.73967E-03     95.5935E-03    -10.1600E+06    -29.3130E+06    -52.2754E+06    -49.0436E+06    -32.5448E+06    -10.1600E+06    -6.96054E+06         28.7909
            1983     9.88742E-03     114.092E-03     110.003E-03     73.7143E-03    -356.308E-03     107.422E-03    -353.727E-03     73.7143E-03    -64.8403E-03     82.8365E-03    -12.0004E-03    -70.8267E-03    -39.9559E-03     51.9657E-03    -12.0004E-03     122.988E-03     165.149E+03    -22.3699E+06    -58.3241E+06    -45.0742E+06    -35.6198E+06     165.149E+03    -16.5699E+06         30.9733
            1984     10.8455E-03     114.209E-03     108.440E-03     75.9021E-03    -357.206E-03     104.600E-03    -353.366E-03     75.9021E-03    -77.3141E-03     103.647E-03    -14.7905E-03    -88.8434E-03    -53.5545E-03     68.3583E-03    -14.7905E-03     148.678E-03     8.37569E+06    -13.2313E+06    -60.8190E+06    -37.6870E+06    -36.3632E+06     8.37569E+06    -23.6432E+06         33.5572
            1985     11.7926E-03     114.343E-03     105.070E-03     77.1604E-03    -357.463E-03     100.566E-03    -352.959E-03     77.1604E-03    -85.2626E-03     124.940E-03    -18.1843E-03    -106.765E-03    -69.6239E-03     87.7987E-03    -18.1843E-03     169.671E-03     14.6485E+06    -2.12026E+06    -59.6050E+06    -28.3517E+06    -33.3735E+06     14.6485E+06    -28.2713E+06         36.7630
            1986     12.7236E-03     114.500E-03     115.703E-03     78.2569E-03    -371.945E-03     111.743E-03    -367.984E-03     78.2569E-03    -85.8256E-03     149.841E-03    -22.2257E-03    -127.637E-03    -88.4697E-03     110.674E-03    -22.2257E-03     192.953E-03     21.9771E+06     11.8302E+06    -50.9942E+06    -20.9600E+06    -18.2040E+06     21.9771E+06    -30.5707E+06         40.6606
            1987     13.6386E-03     114.684E-03     128.942E-03     79.7767E-03    -389.646E-03     126.245E-03    -386.948E-03     79.7767E-03    -71.7674E-03     178.125E-03    -26.9233E-03    -151.206E-03    -109.793E-03     136.712E-03    -26.9233E-03     218.089E-03     28.1976E+06     22.6926E+06    -34.6718E+06    -14.5298E+06     3.10450E+06     27.6436E+06    -27.4100E+06         45.1678
            1988     14.5336E-03     114.902E-03     129.763E-03     81.2788E-03    -398.406E-03     128.099E-03    -396.743E-03     81.2788E-03    -50.3172E-03     204.802E-03    -32.3178E-03    -172.482E-03    -131.852E-03     164.171E-03    -32.3178E-03     233.411E-03     37.8626E+06     28.9670E+06    -21.0479E+06    -9.66477E+06     23.2945E+06     32.1520E+06    -20.9872E+06         49.7879
            1989     15.4100E-03     115.127E-03     133.049E-03     82.4715E-03    -407.175E-03     132.598E-03    -406.725E-03     82.4715E-03    -28.3813E-03     233.281E-03    -38.4516E-03    -194.785E-03    -153.355E-03     191.851E-03    -38.4516E-03     253.064E-03     68.6612E+06     54.3789E+06    -12.6638E+06    -7.11585E+06     61.7304E+06     55.7618E+06    -17.0354E+06         53.7177
            1990     16.2611E-03     115.414E-03     140.260E-03     83.9708E-03    -411.973E-03     139.992E-03    -411.705E-03     83.9708E-03    -20.4006E-03     235.721E-03    -45.1525E-03    -190.466E-03    -167.618E-03     212.874E-03    -45.1525E-03     161.176E-03     106.670E+06     73.8335E+06    -9.16832E+06    -5.98191E+06     78.3899E+06     98.9268E+06    -12.8447E+06         56.6796
            1991     998.198E-06     114.818E-03     64.6816E-03     21.8347E-03    -203.514E-03     57.7755E-03    -203.152E-03     28.3786E-03    -12.2719E-03     2.61533E-03    -1.24532E-03    -1.37001E-03    -1.25863E-03     2.52619E-03    -1.26756E-03     1.01893E-03    -70.8925E+06    -167.620E+06    -181.629E+06    -170.137E+06    -76.8798E+06    -173.124E+06     17.0238E+06         20.3171
            1992     1.99742E-03     114.821E-03     75.7562E-03     47.8597E-03    -239.045E-03     74.0410E-03    -238.734E-03     49.2639E-03    -7.17894E-03     3.42234E-03    -1.37431E-03    -2.04922E-03    -1.61026E-03     2.98513E-03    -1.37606E-03     2.86728E-03    -39.2151E+06    -137.923E+06    -163.774E+06    -144.113E+06    -50.7198E+06    -146.079E+06     29.1865E+06         20.5893
            1993     2.99496E-03     114.824E-03     78.9942E-03     57.1649E-03    -257.012E-03     77.2322E-03    -256.654E-03     58.5691E-03    -9.94502E-03     5.76854E-03    -1.67020E-03    -4.10060E-03    -2.59885E-03     4.26678E-03    -1.67020E-03     7.01793E-03    -37.5055E+06    -112.549E+06    -141.273E+06    -117.414E+06    -51.5623E+06    -122.351E+06     31.1207E+06         21.0544
            1994     3.99173E-03     114.833E-03     72.3034E-03     58.6584E-03    -251.128E-03     67.3080E-03    -249.794E-03     62.3197E-03    -35.7642E-03     10.0133E-03    -2.17063E-03    -7.84087E-03    -4.32120E-03     6.49359E-03    -2.17063E-03     14.1597E-03    -41.9774E+06    -89.3848E+06    -116.855E+06    -94.8147E+06    -53.6535E+06    -99.7491E+06     24.3820E+06         21.7256
            1995     4.98582E-03     114.848E-03     70.9737E-03     58.4860E-03    -248.523E-03     62.7325E-03    -244.698E-03     62.9021E-03    -63.3044E-03     15.7610E-03    -2.85094E-03    -12.9072E-03    -6.57056E-03     9.42437E-03    -2.85094E-03     23.7564E-03    -39.5805E+06    -73.0015E+06    -92.4823E+06    -78.1518E+06    -45.3020E+06    -81.6105E+06     14.5417E+06         22.6170
            1996     5.97888E-03     114.874E-03     74.3048E-03     62.4784E-03    -261.224E-03     68.9721E-03    -256.646E-03     63.2331E-03    -71.2958E-03     23.0963E-03    -3.72761E-03    -19.3672E-03    -9.41835E-03     13.1475E-03    -3.72761E-03     35.9486E-03    -38.4908E+06    -63.4694E+06    -75.2827E+06    -70.0597E+06    -40.6799E+06    -66.5031E+06     7.77415E+06         23.7420
            1997     6.96861E-03     114.911E-03     87.7454E-03     64.9517E-03    -281.749E-03     85.3460E-03    -279.350E-03     64.9517E-03    -54.0361E-03     32.8321E-03    -4.81217E-03    -28.0250E-03    -13.1744E-03     17.9814E-03    -4.81217E-03     52.2409E-03    -33.4422E+06    -51.7009E+06    -68.2927E+06    -65.4876E+06    -36.8972E+06    -51.0509E+06     3.02995E+06         25.1141
            1998     7.95455E-03     114.967E-03     95.9346E-03     67.7783E-03    -298.324E-03     92.6186E-03    -295.008E-03     67.7783E-03    -66.6403E-03     45.0507E-03    -6.13920E-03    -38.9179E-03    -18.2576E-03     24.3904E-03    -6.13920E-03     72.2795E-03    -21.6632E+06    -35.7461E+06    -58.9098E+06    -55.4688E+06    -29.0579E+06    -31.7923E+06    -4.05357E+06         26.7482
            1999     8.93521E-03     115.039E-03     84.3760E-03     64.4451E-03    -287.897E-03     75.6965E-03    -284.348E-03     69.5757E-03    -67.3422E-03     60.7797E-03    -7.79261E-03    -52.9912E-03    -25.7097E-03     33.4982E-03    -7.79261E-03     97.0713E-03    -6.07815E+06    -20.8323E+06    -48.7576E+06    -41.3118E+06    -24.0174E+06    -10.3388E+06    -11.1261E+06         28.6567
            2000     9.90829E-03     115.141E-03     81.2472E-03     61.4928E-03    -283.701E-03     70.3444E-03    -281.066E-03     69.7608E-03    -57.9163E-03     81.0882E-03    -9.87281E-03    -71.2215E-03    -36.2418E-03     46.1085E-03    -9.87281E-03     128.010E-03     6.03012E+06    -11.8244E+06    -46.6657E+06    -32.5641E+06    -25.9260E+06     6.03012E+06    -16.1420E+06         30.8488
            2001     10.8726E-03     115.272E-03     92.4444E-03     66.8902E-03    -305.403E-03     85.7257E-03    -301.822E-03     70.0276E-03    -68.5603E-03     103.140E-03    -12.4668E-03    -90.6683E-03    -49.8374E-03     62.3092E-03    -12.4668E-03     157.828E-03     14.6069E+06    -4.84678E+06    -51.8478E+06    -30.5851E+06    -26.1094E+06     14.6069E+06    -23.1813E+06         33.4497
            2002     11.8228E-03     115.429E-03     103.353E-03     71.2139E-03    -324.010E-03     99.7369E-03    -320.394E-03     71.2139E-03    -72.6994E-03     126.322E-03    -15.6935E-03    -110.621E-03    -66.8909E-03     82.5919E-03    -15.6935E-03     183.520E-03     19.4485E+06     3.79034E+06    -58.3405E+06    -30.2591E+06    -24.2910E+06     19.4485E+06    -30.5680E+06         36.6798
            2003     12.7586E-03     115.610E-03     104.938E-03     72.7319E-03    -332.288E-03     101.913E-03    -329.263E-03     72.7319E-03    -71.6393E-03     153.760E-03    -19.6548E-03    -134.104E-03    -87.7907E-03     107.447E-03    -19.6548E-03     211.241E-03     24.6781E+06     14.7134E+06    -56.5741E+06    -27.5607E+06    -14.3000E+06     24.6781E+06    -34.6757E+06         40.6059
            2004     13.6746E-03     115.826E-03     101.533E-03     73.9135E-03    -336.043E-03     100.029E-03    -334.539E-03     73.9135E-03    -48.4670E-03     184.925E-03    -24.4157E-03    -160.509E-03    -111.742E-03     136.158E-03    -24.4157E-03     240.283E-03     31.5009E+06     22.2347E+06    -46.4021E+06    -21.8680E+06    -2.29937E+06     31.5009E+06    -32.7625E+06         45.1294
            2005     14.5727E-03     116.075E-03     106.937E-03     74.8175E-03    -343.527E-03     106.418E-03    -343.008E-03     74.8175E-03    -28.3665E-03     215.755E-03    -30.0252E-03    -185.727E-03    -137.850E-03     167.877E-03    -30.0252E-03     259.697E-03     42.0100E+06     33.2381E+06    -30.7036E+06    -14.2332E+06     16.7677E+06     42.0100E+06    -27.3956E+06         49.7408
            2006     15.4414E-03     116.347E-03     114.622E-03     75.6177E-03    -356.111E-03     113.832E-03    -355.321E-03     75.6177E-03    -31.9837E-03     249.739E-03    -36.5824E-03    -213.128E-03    -165.624E-03     202.235E-03    -36.5824E-03     280.800E-03     66.0764E+06     63.1611E+06    -13.5869E+06    -4.76258E+06     54.6510E+06     65.7622E+06    -20.0796E+06         53.6543
            2007     16.2906E-03     116.669E-03     119.290E-03     76.5544E-03    -367.754E-03     118.625E-03    -367.089E-03     76.5544E-03    -27.8917E-03     256.904E-03    -44.0858E-03    -212.822E-03    -187.291E-03     231.373E-03    -44.0858E-03     178.717E-03     107.958E+06     69.7052E+06    -4.55683E+06     184.571E+03      65.278E+06     107.644E+06    -7.14800E+06         56.6223
            2008     998.113E-06     115.822E-03     59.8468E-03     14.2246E-03    -172.663E-03     46.6882E-03    -166.048E-03     20.7685E-03    -57.2491E-03     3.30968E-03    -1.61969E-03    -1.68996E-03    -1.59936E-03     3.28935E-03    -1.68996E-03     333.470E-06    -90.2599E+06    -192.655E+06    -198.651E+06    -194.221E+06    -90.9603E+06    -196.385E+06    -2.69981E+06         20.3370
            2009     1.99569E-03     115.822E-03     81.5496E-03     42.5361E-03    -213.099E-03     77.8031E-03    -209.352E-03     42.5361E-03    -40.5306E-03     3.46094E-03    -1.62450E-03    -1.83641E-03    -1.64020E-03     3.29728E-03    -1.65705E-03     1.30274E-03    -62.0558E+06    -168.978E+06    -182.562E+06    -171.871E+06    -64.5912E+06    -177.134E+06    -1.19437E+06         20.5878
            2010     2.99470E-03     115.829E-03     86.4317E-03     56.0347E-03    -233.912E-03     84.3540E-03    -231.834E-03     56.0347E-03    -35.7357E-03     4.93655E-03    -1.79090E-03    -3.14585E-03    -2.26007E-03     4.05078E-03    -1.79090E-03     4.55897E-03    -50.6602E+06    -141.968E+06    -155.769E+06    -142.143E+06    -54.4839E+06    -151.770E+06    -57.1247E+03         21.0351
            2011     3.99201E-03     115.838E-03     68.8784E-03     57.2375E-03    -222.255E-03     62.6096E-03    -219.648E-03     60.8989E-03    -51.6634E-03     8.32669E-03    -2.08168E-03    -6.24530E-03    -3.59667E-03     5.67806E-03    -2.08168E-03     11.0227E-03    -44.8139E+06    -116.881E+06    -133.580E+06    -112.541E+06    -49.7703E+06    -132.964E+06    -3.57851E+06         21.6915
            2012     4.98838E-03     115.857E-03     68.4877E-03     56.5022E-03    -220.048E-03     59.4671E-03    -215.444E-03     60.9182E-03    -68.2808E-03     13.4929E-03    -2.54924E-03    -10.9442E-03    -5.53354E-03     8.08219E-03    -2.54924E-03     20.2346E-03    -36.6704E+06    -92.7166E+06    -119.433E+06    -88.5314E+06    -40.8555E+06    -119.433E+06    -5.97647E+06         22.5666
            2013     5.98110E-03     115.884E-03     71.2220E-03     60.5721E-03    -228.270E-03     67.5192E-03    -225.322E-03     61.3268E-03    -36.8339E-03     20.7730E-03    -3.30339E-03    -17.4713E-03    -8.16194E-03     11.4637E-03    -3.30339E-03     32.8091E-03    -32.3034E+06    -73.3449E+06    -96.9507E+06    -68.8646E+06    -40.3710E+06    -93.3634E+06    -5.53501E+06         23.6716
            2014     6.97146E-03     115.928E-03     82.2314E-03     63.0784E-03    -245.383E-03     79.4303E-03    -242.582E-03     63.0784E-03    -37.6329E-03     30.4197E-03    -4.29121E-03    -26.1371E-03    -11.5683E-03     15.8510E-03    -4.29121E-03     49.4599E-03    -23.2099E+06    -51.9325E+06    -71.4642E+06    -52.6720E+06    -33.3475E+06    -60.5871E+06    -5.85179E+06         25.0178
            2015     7.95932E-03     115.986E-03     92.6696E-03     65.5020E-03    -260.082E-03     87.2961E-03    -254.708E-03     65.5020E-03    -79.2218E-03     42.4755E-03    -5.47359E-03    -37.0056E-03    -16.1922E-03     21.6621E-03    -5.47359E-03     69.8867E-03    -14.8175E+06    -30.9088E+06    -54.9267E+06    -44.7669E+06    -20.9186E+06    -34.9675E+06    -10.1224E+06         26.6185
            2016     8.94291E-03     116.069E-03     88.0491E-03     61.9416E-03    -254.867E-03     77.0058E-03    -248.954E-03     67.0722E-03    -84.8197E-03     58.1306E-03    -6.94380E-03    -51.1873E-03    -22.8461E-03     29.7893E-03    -6.94380E-03     95.8002E-03    -8.20491E+06    -17.9860E+06    -53.6861E+06    -44.9618E+06    -19.3318E+06    -15.5834E+06    -14.0256E+06         28.4940
            2017     9.92005E-03     116.180E-03     82.9630E-03     59.1589E-03    -255.858E-03     70.1544E-03    -251.317E-03     67.4268E-03    -73.1737E-03     78.5491E-03    -8.77551E-03    -69.7729E-03    -32.2925E-03     41.0687E-03    -8.77551E-03     128.862E-03     4.62980E+06    -5.47016E+06    -54.7764E+06    -41.6014E+06    -16.4619E+06     2.44656E+06    -19.6139E+06         30.6606
            2018     10.8879E-03     116.328E-03     80.6147E-03     64.6758E-03    -266.605E-03     75.6958E-03    -264.824E-03     67.8131E-03    -43.8089E-03     101.656E-03    -11.0942E-03    -90.5524E-03    -45.6157E-03     56.7198E-03    -11.0942E-03     162.519E-03     19.0927E+06     1.30486E+06    -51.4225E+06    -31.6199E+06    -17.2767E+06     17.8716E+06    -25.2943E+06         33.2448
            2019     11.8446E-03     116.504E-03     89.2829E-03     68.8987E-03    -283.201E-03     87.1515E-03    -281.069E-03     68.8987E-03    -50.2535E-03     126.485E-03    -14.0649E-03    -112.409E-03    -63.3062E-03     77.3813E-03    -14.0649E-03     192.800E-03     28.2998E+06     7.30398E+06    -48.5159E+06    -23.9239E+06    -17.2880E+06     28.2998E+06    -27.4032E+06         36.4677
            2020     12.7833E-03     116.713E-03     90.6162E-03     70.1288E-03    -293.066E-03     88.1719E-03    -290.622E-03     70.1288E-03    -54.2206E-03     156.442E-03    -17.8443E-03    -138.588E-03    -85.9758E-03     103.830E-03    -17.8443E-03     225.578E-03     37.1633E+06     18.4498E+06    -47.0077E+06    -23.2990E+06    -5.25888E+06     37.1633E+06    -30.7093E+06         40.3844
            2021     13.7040E-03     116.959E-03     84.1818E-03     70.7318E-03    -290.132E-03     82.3432E-03    -288.294E-03     70.7318E-03    -43.9497E-03     190.988E-03    -22.5789E-03    -168.389E-03    -113.612E-03     136.211E-03    -22.5789E-03     257.960E-03     44.1233E+06     26.2302E+06    -48.7257E+06    -21.1586E+06    -1.33696E+06     44.1233E+06    -35.1314E+06         44.8763
            2022     14.5986E-03     117.249E-03     88.6308E-03     70.8751E-03    -297.403E-03     86.8940E-03    -295.666E-03     70.8751E-03    -46.0646E-03     224.968E-03    -28.3173E-03    -196.631E-03    -142.983E-03     171.320E-03    -28.3173E-03     280.547E-03     53.4120E+06     34.2254E+06    -38.3082E+06    -13.5050E+06     9.42219E+06     53.4120E+06    -33.2279E+06         49.4340
            2023     15.4694E-03     117.567E-03     88.8521E-03     70.8446E-03    -305.040E-03     87.8256E-03    -304.013E-03     70.8446E-03    -37.8455E-03     266.406E-03    -35.1574E-03    -231.246E-03    -177.021E-03     212.180E-03    -35.1574E-03     309.893E-03     68.1982E+06     53.2252E+06    -21.7593E+06    -10.3877E+06     41.9941E+06     68.0577E+06    -21.7367E+06         53.2890
            2024     16.2979E-03     117.945E-03     89.1391E-03     70.8518E-03    -310.380E-03     88.5691E-03    -309.810E-03     70.8518E-03    -20.0814E-03     276.746E-03    -43.2774E-03    -233.537E-03    -204.057E-03     247.266E-03    -43.2774E-03     201.622E-03     108.120E+06     53.4371E+06    -14.7708E+06    -10.3460E+06     49.1528E+06     107.980E+06    -5.59732E+06         56.1842
            2025     996.417E-06     116.825E-03     80.0947E-03     33.5303E-03    -195.676E-03     61.3535E-03    -185.134E-03     41.7295E-03    -33.1724E-03     6.24772E-03    -3.06619E-03    -3.18136E-03    -3.12169E-03     6.24148E-03    -3.11962E-03    -356.938E-06    -75.8916E+06    -151.342E+06    -156.814E+06    -153.986E+06    -78.1391E+06    -151.923E+06    -12.2086E+06         20.5509
            2026     1.99359E-03     116.828E-03     77.1731E-03     41.9382E-03    -191.138E-03     58.5487E-03    -183.585E-03     53.0104E-03    -6.24872E-03     6.68246E-03    -3.20024E-03    -3.48212E-03    -3.43314E-03     6.66428E-03    -3.23104E-03     17.4532E-06    -56.2184E+06    -139.288E+06    -151.887E+06    -148.290E+06    -59.8149E+06    -139.288E+06    -17.8422E+06         20.7651
            2027     2.98910E-03     116.832E-03     72.1258E-03     44.0041E-03    -182.488E-03     58.8974E-03    -180.332E-03     55.0763E-03    -17.2093E-03     7.68281E-03    -3.43847E-03    -4.24362E-03    -4.03915E-03     7.47835E-03    -3.43847E-03     1.99673E-03    -43.9090E+06    -130.347E+06    -144.698E+06    -139.667E+06    -48.9403E+06    -130.347E+06    -21.0244E+06         21.1740
            2028     3.98521E-03     116.844E-03     72.3072E-03     57.3596E-03    -196.322E-03     70.5009E-03    -194.516E-03     57.3596E-03    -27.4196E-03     9.46964E-03    -3.68558E-03    -5.78310E-03    -4.78150E-03     8.46804E-03    -3.68558E-03     6.36222E-03    -32.6728E+06    -122.241E+06    -142.369E+06    -128.769E+06    -40.5548E+06    -127.959E+06    -26.2354E+06         21.7941
            2029     4.98001E-03     116.864E-03     78.2260E-03     60.3980E-03    -201.047E-03     74.2825E-03    -197.103E-03     60.3980E-03    -57.9112E-03     12.6891E-03    -3.99740E-03    -8.69193E-03    -5.83479E-03     9.83198E-03    -3.99740E-03     13.6631E-03    -24.2073E+06    -107.255E+06    -143.056E+06    -113.103E+06    -36.0534E+06    -125.362E+06    -31.0848E+06         22.6286
            2030     5.97499E-03     116.896E-03     79.4498E-03     62.7623E-03    -199.411E-03     74.3027E-03    -194.263E-03     62.7623E-03    -52.3491E-03     18.4628E-03    -4.49401E-03    -13.9709E-03    -7.71851E-03     12.2104E-03    -4.49401E-03     25.0928E-03    -20.1641E+06    -92.6438E+06    -126.932E+06    -91.0290E+06    -39.0819E+06    -109.629E+06    -32.5095E+06         23.6869
            2031     6.96729E-03     116.941E-03     72.9011E-03     61.2961E-03    -197.519E-03     64.1313E-03    -191.197E-03     63.7431E-03    -61.5644E-03     27.1161E-03    -5.17770E-03    -21.9404E-03    -10.6222E-03     15.7979E-03    -5.17770E-03     41.1120E-03    -11.1719E+06    -78.2538E+06    -95.6012E+06    -63.9700E+06    -33.0523E+06    -88.0045E+06    -30.4281E+06         24.9786
            2032     7.95532E-03     117.007E-03     70.0634E-03     59.1130E-03    -198.703E-03     59.3651E-03    -192.336E-03     63.4444E-03    -79.0577E-03     38.9750E-03    -6.14288E-03    -32.8346E-03    -14.7948E-03     20.9352E-03    -6.14288E-03     62.2277E-03    -7.97415E+06    -50.6385E+06    -61.3549E+06    -39.9644E+06    -24.2097E+06    -55.7933E+06    -21.1544E+06         26.5089
            2033     8.93870E-03     117.094E-03     85.2119E-03     61.8968E-03    -221.757E-03     77.4213E-03    -215.851E-03     63.7813E-03    -81.5404E-03     54.7820E-03    -7.44593E-03    -47.3352E-03    -20.8578E-03     28.3046E-03    -7.44593E-03     89.4924E-03    -1.28942E+06    -16.3133E+06    -41.5104E+06    -25.8626E+06    -16.9372E+06    -16.3133E+06    -13.6900E+06         28.2885
            2034     9.91746E-03     117.215E-03     93.2094E-03     65.4018E-03    -241.480E-03     87.6529E-03    -235.924E-03     65.4018E-03    -84.2229E-03     75.1477E-03    -9.05011E-03    -66.0867E-03    -29.6007E-03     38.6617E-03    -9.05011E-03     123.634E-03     16.1968E+06     2.40561E+06    -37.9551E+06    -22.7368E+06    -6.16689E+06     9.55102E+06    -16.2688E+06         30.3703
            2035     10.8901E-03     117.374E-03     90.1581E-03     66.9583E-03    -249.170E-03     83.9808E-03    -242.992E-03     66.9583E-03    -82.0271E-03     98.4691E-03    -11.1101E-03    -87.3557E-03    -41.8602E-03     52.9736E-03    -11.1101E-03     159.733E-03     25.6047E+06     1.51848E+06    -42.8745E+06    -28.7094E+06    -11.4256E+06     24.3837E+06    -20.7252E+06         32.9204
            2036     11.8495E-03     117.572E-03     91.4841E-03     68.0254E-03    -258.303E-03     84.4865E-03    -251.305E-03     68.0254E-03    -89.5521E-03     124.350E-03    -13.7771E-03    -110.570E-03    -58.9344E-03     72.7144E-03    -13.7771E-03     194.380E-03     36.1407E+06     9.98999E+06    -50.8201E+06    -31.9652E+06    -8.86494E+06     36.1407E+06    -26.5616E+06         36.1171
            2037     12.7952E-03     117.804E-03     81.0145E-03     68.6179E-03    -254.272E-03     77.2478E-03    -250.505E-03     68.6179E-03    -61.9765E-03     157.341E-03    -17.3102E-03    -140.020E-03    -83.7127E-03     101.033E-03    -17.3102E-03     232.685E-03     52.3854E+06     27.4812E+06    -47.4647E+06    -21.9791E+06     1.99557E+06     52.3854E+06    -32.9786E+06         39.9582
            2038     13.7167E-03     118.090E-03     75.9719E-03     68.6654E-03    -252.505E-03     73.6547E-03    -250.187E-03     68.6654E-03    -48.4652E-03     195.281E-03    -21.9512E-03    -173.315E-03    -114.965E-03     136.930E-03    -21.9512E-03     268.636E-03     63.6775E+06     32.9141E+06    -40.8989E+06    -11.3700E+06     3.38523E+06     63.6775E+06    -34.6056E+06         44.3274
            2039     14.6117E-03     118.418E-03     77.5318E-03     66.6021E-03    -258.987E-03     73.4011E-03    -256.830E-03     68.5757E-03    -50.9785E-03     230.272E-03    -27.6968E-03    -202.563E-03    -145.294E-03     173.002E-03    -27.6968E-03     292.958E-03     68.2114E+06     28.7244E+06    -36.3382E+06    -10.8385E+06     3.22474E+06     68.2114E+06    -31.1519E+06         48.7528
            2040     15.4801E-03     118.779E-03     72.5715E-03     65.2084E-03    -260.212E-03     68.6840E-03    -259.538E-03     68.4226E-03    -17.0713E-03     280.980E-03    -34.4719E-03    -246.510E-03    -182.625E-03     217.095E-03    -34.4719E-03     343.852E-03     69.8732E+06     30.8864E+06    -21.9875E+06    -8.20095E+06     17.0999E+06     69.8732E+06    -17.5781E+06         52.4636
            2041     16.3126E-03     119.250E-03     76.5752E-03     67.1431E-03    -264.594E-03     74.9495E-03    -264.209E-03     68.3837E-03    -7.65041E-03     297.019E-03    -42.7097E-03    -254.332E-03    -216.090E-03     258.777E-03    -42.7097E-03     242.444E-03     115.000E+06     46.2792E+06    -7.20760E+06     2.59239E+06     36.4792E+06     115.000E+06     262.830E+03         55.2218
            2042     994.989E-06     117.835E-03     106.196E-03     73.8066E-03    -230.975E-03     75.3081E-03    -215.767E-03     89.4865E-03    -56.9229E-03     11.3265E-03    -5.53757E-03    -5.78894E-03    -5.75205E-03     11.3036E-03    -5.55160E-03    -1.20300E-03    -54.5015E+06    -100.906E+06    -108.847E+06    -105.337E+06    -57.4299E+06    -101.487E+06    -12.1146E+06         20.9464
            2043     1.98846E-03     117.836E-03     80.0569E-03     51.5107E-03    -174.546E-03     50.8998E-03    -170.022E-03     76.1443E-03     33.4468E-03     12.5448E-03    -5.88370E-03    -6.66206E-03    -6.62965E-03     12.5123E-03    -5.88370E-03    -1.47048E-03    -39.9957E+06    -96.2784E+06    -109.607E+06    -103.716E+06    -45.8859E+06    -96.2784E+06    -18.5038E+06         21.1281
            2044     2.98179E-03     117.844E-03     69.5915E-03     40.5804E-03    -149.704E-03     43.3924E-03    -149.105E-03     66.1804E-03     19.5568E-03     14.0756E-03    -6.37388E-03    -7.70015E-03    -7.66349E-03     14.0390E-03    -6.37388E-03    -499.780E-06    -26.9873E+06    -84.8940E+06    -107.649E+06    -98.5831E+06    -36.0533E+06    -84.8940E+06    -24.7689E+06         21.4881
            2045     3.97289E-03     117.855E-03     72.1847E-03     53.5402E-03    -160.018E-03     62.9043E-03    -159.793E-03     62.5957E-03     964.278E-06     15.5272E-03    -6.88162E-03    -8.63995E-03    -8.46999E-03     15.3573E-03    -6.88162E-03     2.08269E-03    -14.2446E+06    -74.4853E+06    -106.103E+06    -93.5321E+06    -26.8154E+06    -74.4853E+06    -31.2981E+06         22.0516
            2046     4.96466E-03     117.876E-03     73.7963E-03     62.9119E-03    -167.811E-03     70.9011E-03    -165.524E-03     63.5204E-03    -31.2521E-03     17.3836E-03    -7.35137E-03    -10.0280E-03    -9.25616E-03     16.6118E-03    -7.35137E-03     6.83381E-03    -8.12908E+06    -72.0144E+06    -110.683E+06    -94.1434E+06    -24.6685E+06    -72.0144E+06    -37.4690E+06         22.8207
            2047     5.95497E-03     117.908E-03     77.3571E-03     65.0046E-03    -169.747E-03     72.2767E-03    -164.666E-03     65.0046E-03    -39.4640E-03     20.5500E-03    -7.82501E-03    -12.7227E-03    -10.3647E-03     18.1920E-03    -7.82501E-03     14.8401E-03    -6.16807E+06    -75.8368E+06    -119.493E+06    -96.7530E+06    -28.9083E+06    -75.8368E+06    -44.5602E+06         23.8048
            2048     6.94437E-03     117.957E-03     75.1261E-03     63.4935E-03    -166.624E-03     67.4834E-03    -161.428E-03     65.9404E-03    -19.7924E-03     25.8291E-03    -8.32658E-03    -17.5050E-03    -11.9171E-03     20.2412E-03    -8.32658E-03     27.2578E-03    -3.30880E+03    -80.3208E+06    -123.433E+06    -94.0252E+06    -28.3147E+06    -81.4169E+06    -51.1032E+06         25.0126
            2049     7.93341E-03     118.024E-03     66.8357E-03     59.4203E-03    -165.260E-03     56.9445E-03    -161.853E-03     65.9043E-03    -27.9302E-03     34.7532E-03    -9.00642E-03    -25.7502E-03    -14.5820E-03     23.5851E-03    -9.00642E-03     45.8159E-03    -1.37921E+06    -70.1679E+06    -110.678E+06    -77.1737E+06    -33.7874E+06    -71.2641E+06    -48.3668E+06         26.4472
            2050     8.91966E-03     118.120E-03     74.0285E-03     56.1709E-03    -178.697E-03     62.2473E-03    -176.478E-03     65.7332E-03    -45.4859E-03     48.7076E-03    -9.97319E-03    -38.7350E-03    -19.4427E-03     29.4153E-03    -9.97319E-03     71.9838E-03     6.18785E+06    -41.2215E+06    -79.2876E+06    -48.2628E+06    -24.8369E+06    -41.2215E+06    -36.2455E+06         28.0794
            2051     9.89916E-03     118.246E-03     78.3943E-03     57.0615E-03    -187.475E-03     67.0786E-03    -185.220E-03     66.1229E-03    -44.8657E-03     68.3340E-03    -11.3249E-03    -57.0060E-03    -27.1917E-03     38.5198E-03    -11.3249E-03     106.552E-03     21.2643E+06    -13.3427E+06    -44.4727E+06    -25.1381E+06    -10.1672E+06    -1.24570E+06    -21.1249E+06         30.0144
            2052     10.8691E-03     118.417E-03     81.5062E-03     61.7837E-03    -201.479E-03     70.7424E-03    -195.638E-03     66.7065E-03    -72.6979E-03     91.9616E-03    -13.1419E-03    -78.8148E-03    -38.2065E-03     51.3532E-03    -13.1419E-03     145.357E-03     36.7395E+06     1.82866E+06    -24.0034E+06    -13.3082E+06    -8.86656E+06     36.7395E+06    -11.4144E+06         32.5101
            2053     11.8334E-03     118.627E-03     85.8984E-03     62.5954E-03    -211.599E-03     74.4847E-03    -204.952E-03     67.3622E-03    -81.2109E-03     119.542E-03    -15.5114E-03    -104.027E-03    -55.3189E-03     70.8344E-03    -15.5114E-03     184.374E-03     61.6387E+06     19.9365E+06    -22.0681E+06    -9.12981E+06     6.99820E+06     61.6387E+06    -15.7951E+06         35.6474
            2054     12.7803E-03     118.888E-03     77.3395E-03     64.4857E-03    -211.720E-03     70.9767E-03    -208.738E-03     67.8658E-03    -54.2151E-03     154.893E-03    -18.8146E-03    -136.075E-03    -81.7485E-03     100.566E-03    -18.8146E-03     226.400E-03     71.6814E+06     33.0444E+06    -36.6322E+06    -16.0654E+06     12.4776E+06     71.6814E+06    -25.5637E+06         39.3269
            2055     13.7029E-03     119.208E-03     74.2558E-03     68.3780E-03    -221.622E-03     72.7275E-03    -220.094E-03     68.3780E-03    -36.3508E-03     193.095E-03    -23.2788E-03    -169.813E-03    -112.066E-03     135.347E-03    -23.2788E-03     265.197E-03     77.1138E+06     30.3377E+06    -48.3535E+06    -27.2804E+06     9.26465E+06     77.1138E+06    -30.7233E+06         43.4326
            2056     14.5983E-03     119.579E-03     72.9604E-03     58.8085E-03    -218.116E-03     62.1669E-03    -217.357E-03     68.8438E-03    -21.3236E-03     228.105E-03    -28.7370E-03    -199.366E-03    -140.046E-03     168.784E-03    -28.7370E-03     295.304E-03     86.4080E+06     27.7308E+06    -50.3667E+06    -27.2899E+06     4.65400E+06     86.4080E+06    -35.1574E+06         47.5995
            2057     15.4755E-03     119.974E-03     68.7546E-03     51.0709E-03    -210.187E-03     50.3979E-03    -209.514E-03     68.7546E-03    -11.9086E-03     285.343E-03    -34.8983E-03    -250.446E-03    -178.133E-03     213.030E-03    -34.8983E-03     365.981E-03     60.7873E+06     10.5448E+06    -51.6072E+06    -22.8218E+06    -18.2406E+06     60.7873E+06    -28.0284E+06         51.1289
            2058     16.3271E-03     120.528E-03     72.3490E-03     60.6727E-03    -218.265E-03     63.3933E-03    -217.233E-03     68.5967E-03    -21.8650E-03     308.619E-03    -42.6146E-03    -266.009E-03    -217.488E-03     260.098E-03    -42.6146E-03     289.711E-03     94.2995E+06     30.7764E+06    -41.4024E+06    -17.8007E+06     7.17459E+06     94.2995E+06    -12.6352E+06         53.6715
            2059     990.857E-06     118.847E-03     122.352E-03     77.3124E-03    -192.237E-03     85.3388E-03    -171.904E-03     93.9928E-03    -17.0678E-03     19.4188E-03    -9.44473E-03    -9.97372E-03    -9.92560E-03     19.3847E-03    -9.45876E-03    -1.86826E-03    -33.5470E+06    -52.1043E+06    -62.2196E+06    -56.8966E+06    -38.8700E+06    -52.1043E+06    -7.71948E+06         21.5389
            2060     1.98116E-03     118.853E-03     91.1113E-03     62.4071E-03    -150.159E-03     67.0744E-03    -148.884E-03     85.1682E-03     884.365E-06     21.2430E-03    -10.0263E-03    -11.2176E-03    -11.1406E-03     21.1660E-03    -10.0263E-03    -3.12581E-03    -18.9585E+06    -47.2165E+06    -64.0043E+06    -54.1999E+06    -28.7629E+06    -47.2165E+06    -17.5010E+06         21.7011
            2061     2.96899E-03     118.861E-03     84.4043E-03     59.3027E-03    -141.952E-03     65.0091E-03    -141.716E-03     78.4612E-03     2.39769E-03     23.2926E-03    -10.6844E-03    -12.6022E-03    -12.5061E-03     23.1965E-03    -10.6844E-03    -3.57691E-03    -9.32060E+06    -42.4537E+06    -66.0948E+06    -53.0445E+06    -22.3709E+06    -42.4537E+06    -23.0884E+06         22.0070
            2062     3.95663E-03     118.876E-03     73.8834E-03     54.4068E-03    -131.299E-03     53.9057E-03    -130.798E-03     73.8834E-03    -10.5178E-03     25.5566E-03    -11.4274E-03    -14.1276E-03    -14.0444E-03     25.4735E-03    -11.4274E-03    -2.81821E-03    -1.17795E+06    -35.7115E+06    -68.5744E+06    -55.1672E+06    -14.5852E+06    -35.7115E+06    -26.4720E+06         22.4949
            2063     4.94152E-03     118.896E-03     73.5956E-03     64.7838E-03    -140.298E-03     66.6869E-03    -139.789E-03     71.1825E-03    -13.2505E-03     28.0149E-03    -12.2407E-03    -15.7852E-03    -15.6778E-03     27.9076E-03    -12.2407E-03    -414.219E-06     3.41338E+06    -29.2228E+06    -71.7632E+06    -55.6775E+06    -12.6724E+06    -29.2228E+06    -29.7616E+06         23.1737
            2064     5.92502E-03     118.931E-03     77.8408E-03     71.3699E-03    -151.515E-03     75.1853E-03    -148.860E-03     71.3699E-03    -14.2368E-03     30.4078E-03    -13.0791E-03    -17.3340E-03    -16.9382E-03     30.0120E-03    -13.0791E-03     4.34645E-03     8.01879E+06    -23.6917E+06    -78.0565E+06    -57.0021E+06    -13.0356E+06    -23.6917E+06    -35.6931E+06         24.0534
            2065     6.90782E-03     118.979E-03     77.6852E-03     72.2442E-03    -156.407E-03     74.3680E-03    -153.090E-03     72.2442E-03     3.08307E-03     33.3719E-03    -13.8887E-03    -19.4874E-03    -18.0939E-03     31.9785E-03    -13.8887E-03     12.3800E-03     9.09668E+06    -22.9026E+06    -89.9878E+06    -65.2348E+06    -15.6563E+06    -22.9026E+06    -42.5262E+06         25.1484
            2066     7.88872E-03     119.049E-03     73.8494E-03     69.6037E-03    -155.921E-03     65.7552E-03    -150.689E-03     72.4662E-03    -26.2079E-03     38.2301E-03    -14.6856E-03    -23.5453E-03    -19.7663E-03     34.4512E-03    -14.6856E-03     24.9644E-03     6.14494E+06    -33.6870E+06    -111.138E+06    -79.2267E+06    -25.7660E+06    -33.6870E+06    -51.5484E+06         26.4655
            2067     8.86812E-03     119.143E-03     71.3128E-03     54.8800E-03    -145.597E-03     48.4139E-03    -139.131E-03     71.3128E-03    -62.7480E-03     46.5526E-03    -15.5930E-03    -30.9539E-03    -22.4355E-03     38.0343E-03    -15.5930E-03     44.4416E-03     4.22786E+06    -42.2545E+06    -122.294E+06    -85.3938E+06    -32.6727E+06    -42.2545E+06    -55.3699E+06         27.9804
            2068     9.84572E-03     119.277E-03     76.5255E-03     52.6806E-03    -152.126E-03     53.3817E-03    -146.088E-03     69.7871E-03    -58.8402E-03     59.9597E-03    -16.7797E-03    -43.1858E-03    -26.7576E-03     43.5314E-03    -16.7797E-03     72.6798E-03     7.32657E+06    -26.6306E+06    -102.787E+06    -73.0067E+06    -27.4057E+06    -21.6790E+06    -45.0199E+06         29.7800
            2069     10.8211E-03     119.452E-03     76.6496E-03     64.5953E-03    -166.641E-03     66.1204E-03    -161.034E-03     69.5181E-03    -62.2448E-03     79.3662E-03    -18.3467E-03    -61.0281E-03    -34.7645E-03     53.1026E-03    -18.3467E-03     107.927E-03     25.7309E+06    -91.0693E+03    -70.1412E+06    -46.1301E+06    -17.8307E+06     19.4594E+06    -33.3618E+06         32.1250
            2070     11.7834E-03     119.679E-03     70.2754E-03     60.5176E-03    -159.559E-03     58.7459E-03    -157.394E-03     69.8824E-03    -41.4078E-03     106.772E-03    -20.4968E-03    -86.2793E-03    -50.3158E-03     70.8090E-03    -20.4968E-03     149.588E-03     63.5435E+06     20.1003E+06    -40.7340E+06    -23.3841E+06     2.75042E+06     63.5435E+06    -21.0780E+06         35.1031
            2071     12.7267E-03     119.961E-03     71.9427E-03     59.1805E-03    -165.816E-03     59.5515E-03    -164.534E-03     70.2895E-03    -32.7314E-03     144.196E-03    -23.5723E-03    -120.627E-03    -75.5526E-03     99.1219E-03    -23.5723E-03     198.751E-03     95.8918E+06     25.8486E+06    -23.7494E+06    -16.4241E+06     18.5233E+06     95.8918E+06    -8.11785E+06         38.5469
            2072     13.6454E-03     120.315E-03     72.8545E-03     62.1775E-03    -180.695E-03     62.4451E-03    -179.084E-03     70.9755E-03    -31.1538E-03     180.780E-03    -27.6187E-03    -153.148E-03    -101.860E-03     129.492E-03    -27.6187E-03     240.643E-03     112.989E+06     36.3816E+06    -23.3937E+06    -15.8088E+06     28.7967E+06     112.989E+06    -10.8300E+06         42.2718
            2073     14.5547E-03     120.707E-03     71.5274E-03     52.4746E-03    -180.194E-03     51.5799E-03    -179.074E-03     71.3016E-03    -8.72666E-03     213.306E-03    -32.3722E-03    -180.916E-03    -125.741E-03     158.131E-03    -32.3722E-03     273.429E-03     109.167E+06     36.3233E+06    -33.1907E+06    -18.5661E+06     21.6987E+06     109.167E+06    -23.1143E+06         46.0769
            2074     15.4439E-03     121.150E-03     71.1257E-03     42.5282E-03    -172.932E-03     41.9781E-03    -172.382E-03     71.1257E-03    -8.05279E-03     271.693E-03    -37.7855E-03    -233.903E-03    -163.927E-03     201.717E-03    -37.7855E-03     349.129E-03     75.6388E+06     7.69900E+06    -53.3119E+06    -20.8216E+06    -24.7913E+06     75.6388E+06    -26.0680E+06         49.4271
            2075     16.3008E-03     121.747E-03     70.8367E-03     39.9485E-03    -160.037E-03     38.5758E-03    -158.664E-03     70.8367E-03    -15.3369E-03     294.474E-03    -44.2643E-03    -250.227E-03    -193.097E-03     237.345E-03    -44.2643E-03     321.306E-03     82.3824E+06     22.2212E+06    -58.5413E+06    -20.8783E+06    -15.4417E+06     82.3824E+06    -18.5848E+06         51.7659
            2076     985.802E-06     119.873E-03     112.128E-03     69.8906E-03    -103.190E-03     93.3196E-03    -93.5808E-03     79.0902E-03     48.1669E-03     30.9471E-03    -15.0248E-03    -15.9203E-03    -15.4743E-03     30.9097E-03    -15.4335E-03    -2.46977E-03    -201.641E+03    -8.79357E+06    -30.5113E+06    -7.74562E+06    -22.9673E+06    -8.79357E+06    -7.91566E+06         22.3286
            2077     1.96943E-03     119.878E-03     94.9649E-03     73.4358E-03    -105.537E-03     81.7771E-03    -104.235E-03     85.3213E-03    -8.39484E-03     32.9056E-03    -15.8077E-03    -17.0968E-03    -16.9957E-03     32.8045E-03    -15.8077E-03    -4.40486E-03     6.12888E+06    -4.22548E+06    -27.1834E+06    -9.16477E+06    -12.7010E+06    -3.41426E+06    -14.0256E+06         22.4828
            2078     2.95251E-03     119.890E-03     96.7835E-03     77.5290E-03    -127.075E-03     86.8300E-03    -124.438E-03     84.8456E-03     7.22549E-03     35.8520E-03    -16.5960E-03    -19.2467E-03    -19.0695E-03     35.6747E-03    -16.5960E-03    -6.21071E-03     7.98389E+06    -4.52878E+06    -31.6374E+06    -11.9225E+06    -12.5423E+06    -3.71756E+06    -17.3149E+06         22.7532
            2079     3.93245E-03     119.906E-03     90.0514E-03     71.7162E-03    -121.166E-03     73.7564E-03    -117.212E-03     84.0565E-03    -5.29136E-03     39.4168E-03    -17.6232E-03    -21.7869E-03    -21.5610E-03     39.1909E-03    -17.6232E-03    -7.39148E-03     13.2308E+06     127.118E+03    -31.0164E+06    -13.5103E+06    -5.30522E+06     1.15706E+06    -19.2966E+06         23.1701
            2080     4.90975E-03     119.933E-03     83.8897E-03     65.4826E-03    -112.852E-03     65.9447E-03    -110.918E-03     81.4942E-03    -24.8282E-03     43.1431E-03    -18.8497E-03    -24.3110E-03    -24.0945E-03     42.9266E-03    -18.8497E-03    -7.37526E-03     18.6845E+06     5.61961E+06    -34.6121E+06    -16.1524E+06    -4.39922E+06     10.2437E+06    -21.8096E+06         23.7420
            2081     5.88444E-03     119.967E-03     83.0464E-03     68.0967E-03    -122.019E-03     68.3621E-03    -118.570E-03     79.3310E-03    -36.5327E-03     46.9801E-03    -20.1645E-03    -26.8364E-03    -26.6566E-03     46.8002E-03    -20.1645E-03    -6.08097E-03     23.1068E+06     5.44883E+06    -37.9760E+06    -21.4293E+06    -3.58516E+06     15.5941E+06    -22.3546E+06         24.4756
            2082     6.85633E-03     120.019E-03     80.0906E-03     74.9158E-03    -133.633E-03     73.2134E-03    -130.159E-03     78.3190E-03    -37.6763E-03     51.0777E-03    -21.5631E-03    -29.5216E-03    -29.3014E-03     50.8575E-03    -21.5631E-03    -3.14018E-03     23.7578E+06     4.46406E+06    -44.0917E+06    -29.0268E+06    -5.10061E+06     18.2575E+06    -22.7578E+06         25.4085
            2083     7.82553E-03     120.088E-03     78.3398E-03     75.6401E-03    -137.692E-03     72.0274E-03    -133.628E-03     77.8879E-03    -34.4376E-03     55.6090E-03    -23.0833E-03    -32.5338E-03    -31.9913E-03     55.0666E-03    -23.0833E-03     2.52482E-03     29.8333E+06     2.30829E+06    -54.4836E+06    -36.8914E+06    -7.53864E+06     22.0881E+06    -27.8390E+06         26.5857
            2084     8.79070E-03     120.186E-03     77.0170E-03     64.5097E-03    -127.417E-03     58.1967E-03    -121.104E-03     77.0170E-03    -39.8815E-03     60.8871E-03    -24.7177E-03    -36.1509E-03    -34.5041E-03     59.2403E-03    -24.7177E-03     11.8772E-03     28.9660E+06    -3.79481E+06    -76.5298E+06    -49.2180E+06    -20.1275E+06     17.9869E+06    -37.7844E+06         28.0263
            2085     9.75307E-03     120.315E-03     82.8126E-03     57.7887E-03    -125.762E-03     58.1940E-03    -119.429E-03     76.0741E-03    -40.0220E-03     66.9131E-03    -26.4165E-03    -40.4918E-03    -36.4228E-03     62.8441E-03    -26.4165E-03     26.0270E-03     19.6308E+06    -7.62873E+06    -95.4247E+06    -60.8433E+06    -31.2520E+06     8.67274E+06    -44.8134E+06         29.7462
            2086     10.7110E-03     120.491E-03     82.9640E-03     57.2585E-03    -128.089E-03     59.1369E-03    -122.836E-03     75.8325E-03    -35.8851E-03     75.8414E-03    -28.3086E-03    -47.5684E-03    -39.3884E-03     67.6614E-03    -28.3086E-03     47.6726E-03     22.1792E+06     4.03414E+06    -97.9307E+06    -65.5040E+06    -22.1210E+06     15.9077E+06    -47.0213E+06         31.8847
            2087     11.6658E-03     120.720E-03     76.3996E-03     58.6502E-03    -125.679E-03     57.1059E-03    -123.742E-03     76.0066E-03    -18.4187E-03     92.9461E-03    -30.6687E-03    -62.2884E-03    -47.8668E-03     78.5245E-03    -30.6687E-03     79.2442E-03     45.0015E+06     15.1500E+06    -90.5105E+06    -57.5541E+06    -17.8064E+06     45.0015E+06    -41.1887E+06         34.5751
            2088     12.6108E-03     121.021E-03     76.2990E-03     52.2670E-03    -128.012E-03     50.8061E-03    -126.551E-03     76.2990E-03    -31.0414E-03     118.120E-03    -33.7085E-03    -84.4135E-03    -61.9949E-03     95.7014E-03    -33.7085E-03     119.511E-03     85.2494E+06     21.4025E+06    -55.4802E+06    -30.0881E+06    -3.98954E+06     85.2494E+06    -25.4728E+06         37.6863
            2089     13.5387E-03     121.397E-03     76.0104E-03     37.6909E-03    -128.205E-03     34.8340E-03    -125.348E-03     76.0104E-03    -40.5479E-03     141.946E-03    -37.2965E-03    -104.651E-03    -75.4544E-03     112.749E-03    -37.2965E-03     155.773E-03     116.500E+06     34.0938E+06    -12.9484E+06    -1.71446E+06     22.8598E+06     116.500E+06    -4.89546E+06         41.0258
            2090     14.4455E-03     121.807E-03     75.2622E-03     38.8698E-03    -133.897E-03     36.6039E-03    -131.631E-03     75.2622E-03    -21.6917E-03     170.428E-03    -41.3850E-03    -129.117E-03    -95.0055E-03     136.317E-03    -41.3850E-03     188.290E-03     132.946E+06     51.6260E+06    -1.24292E+06     7.56544E+06     42.8177E+06     132.946E+06     7.58757E+06         44.4464
            2091     15.3364E-03     122.273E-03     75.2615E-03     44.6580E-03    -134.410E-03     44.1126E-03    -133.865E-03     75.2615E-03     5.94125E-03     220.215E-03    -46.2385E-03    -174.114E-03    -126.139E-03     172.241E-03    -46.2385E-03     256.251E-03     130.436E+06     45.9367E+06    -19.1236E+06     12.5316E+06     14.2815E+06     130.436E+06    -5.16103E+06         47.5220
            2092     16.2045E-03     122.900E-03     75.2331E-03     26.4922E-03    -107.954E-03     21.0196E-03    -102.481E-03     75.2331E-03     24.4076E-03     224.972E-03    -50.6880E-03    -174.364E-03    -119.676E-03     170.284E-03    -50.6880E-03     269.908E-03     91.7803E+06     18.6458E+06    -36.2038E+06     3.56379E+06    -21.1219E+06     91.7803E+06    -9.36474E+06         49.7926
            2093     977.749E-06     120.910E-03     131.996E-03     84.0029E-03    -75.4472E-03     126.661E-03    -70.1125E-03     84.0029E-03     35.5608E-03     45.7166E-03    -22.3296E-03    -23.3856E-03    -22.8863E-03     45.6777E-03    -22.7900E-03    -3.16606E-03     46.5848E+06     38.3973E+06    -11.2858E+06     42.6790E+06    -8.97185E+06     39.9891E+06    -8.27476E+06         23.1075
            2094     1.95598E-03     120.919E-03     119.349E-03     102.929E-03    -108.333E-03     107.982E-03    -100.209E-03     106.171E-03     46.2333E-03     47.5654E-03    -23.1044E-03    -24.4559E-03    -24.3165E-03     47.4777E-03    -23.1561E-03    -4.87533E-03     40.1350E+06     34.1458E+06    -6.40498E+06     35.7359E+06    -3.43142E+06     35.5714E+06    -7.98088E+06         23.2674
            2095     2.93069E-03     120.933E-03     110.765E-03     94.9846E-03    -105.878E-03     90.1224E-03    -95.0206E-03     104.770E-03     68.8292E-03     51.6554E-03    -24.1058E-03    -27.5396E-03    -27.3719E-03     51.4877E-03    -24.1058E-03    -7.11175E-03     39.1692E+06     33.4775E+06    -10.5033E+06     29.4716E+06    -5.34301E+06     38.0148E+06    -10.1114E+06         23.5367
            2096     3.90171E-03     120.955E-03     106.607E-03     86.3499E-03    -110.012E-03     81.8429E-03    -99.5097E-03     100.613E-03     55.4868E-03     56.6440E-03    -25.4708E-03    -31.1737E-03    -30.9093E-03     56.3797E-03    -25.4708E-03    -9.48922E-03     41.2224E+06     30.7361E+06    -7.26418E+06     25.1465E+06    -520.222E+03     40.0680E+06    -11.0955E+06         23.9188
            2097     4.86969E-03     120.983E-03     95.6416E-03     67.9990E-03    -92.9778E-03     62.8851E-03    -87.8639E-03     95.6416E-03     12.1686E-03     62.5880E-03    -27.1746E-03    -35.4412E-03    -35.0738E-03     62.2206E-03    -27.1746E-03    -11.9239E-03     44.6501E+06     28.7147E+06    -8.50919E+06     19.3503E+06     855.193E+03     44.6501E+06    -10.0373E+06         24.4096
            2098     5.83301E-03     121.026E-03     90.3949E-03     59.6870E-03    -86.8112E-03     58.0361E-03    -85.1603E-03     90.3949E-03    -5.81941E-03     69.7740E-03    -29.2151E-03    -40.5836E-03    -40.0951E-03     69.2855E-03    -29.2151E-03    -14.5872E-03     53.2429E+06     23.9807E+06    -9.73563E+06     15.2251E+06    -980.099E+03     53.2429E+06    -8.72564E+06         25.0103
            2099     6.79003E-03     121.080E-03     87.2814E-03     72.5462E-03    -98.4404E-03     69.6520E-03    -95.5463E-03     87.2814E-03     3.22426E-03     77.9386E-03    -31.6041E-03    -46.3396E-03    -45.6821E-03     77.2812E-03    -31.6041E-03    -17.6775E-03     65.2063E+06     23.7806E+06    -10.7745E+06     13.9107E+06    -904.643E+03     65.2063E+06    -8.27081E+06         25.7670
            2100     7.74039E-03     121.156E-03     86.7952E-03     81.5302E-03    -108.233E-03     78.7091E-03    -105.164E-03     86.5474E-03     23.6822E-03     86.5407E-03    -34.3262E-03    -52.2024E-03    -51.2781E-03     85.6164E-03    -34.3262E-03    -21.2079E-03     77.0975E+06     24.3938E+06    -10.1430E+06     12.6350E+06     1.61575E+06     77.0975E+06    -8.60580E+06         26.7794
            2101     8.68427E-03     121.255E-03     87.1367E-03     80.5818E-03    -112.276E-03     78.4157E-03    -109.862E-03     86.8889E-03     25.4588E-03     94.9033E-03    -37.3233E-03    -57.5153E-03    -56.1674E-03     93.5554E-03    -37.3233E-03    -24.9861E-03     79.8065E+06     24.2793E+06    -20.8288E+06     7.98730E+06    -4.53677E+06     79.8065E+06    -9.67433E+06         28.1219
            2102     9.61929E-03     121.387E-03     87.1053E-03     67.6982E-03    -96.6503E-03     66.9706E-03    -95.9226E-03     87.1053E-03     8.39828E-03     102.250E-03    -40.5469E-03    -61.6985E-03    -59.6488E-03     100.200E-03    -40.5469E-03    -28.2480E-03     73.7531E+06     22.0352E+06    -36.7317E+06     732.304E+03    -15.4288E+06     73.7531E+06    -16.6423E+06         29.7855
            2103     10.5497E-03     121.555E-03     86.7154E-03     53.3840E-03    -83.5440E-03     52.3920E-03    -82.5520E-03     86.7154E-03    -1.66778E-03     108.969E-03    -44.0334E-03    -65.0256E-03    -61.4894E-03     105.433E-03    -44.0334E-03    -29.9515E-03     71.2582E+06     23.6980E+06    -44.8160E+06    -6.84712E+06    -14.2709E+06     71.2582E+06    -22.7481E+06         31.7801
            2104     11.4720E-03     121.779E-03     86.2318E-03     48.6775E-03    -89.7516E-03     46.9957E-03    -88.0699E-03     86.2318E-03     5.22327E-03     115.228E-03    -47.8468E-03    -67.4273E-03    -61.8916E-03     109.693E-03    -47.8468E-03    -25.5760E-03     76.3274E+06     27.6179E+06    -51.3069E+06    -11.0371E+06    -12.6518E+06     76.3274E+06    -27.7464E+06         34.1723
            2105     12.3761E-03     122.072E-03     85.6802E-03     35.2359E-03    -86.1715E-03     33.4247E-03    -84.3603E-03     85.6802E-03     624.090E-06     116.084E-03    -49.7291E-03    -66.3560E-03    -57.0561E-03     108.884E-03    -51.8293E-03    -9.69604E-03     79.4176E+06     19.5608E+06    -57.7683E+06    -16.2243E+06    -21.9833E+06     79.4176E+06    -26.8222E+06         36.9122
            2106     13.2775E-03     122.428E-03     84.5453E-03     15.4008E-03    -78.4039E-03     12.9119E-03    -75.9150E-03     84.5453E-03    -8.35760E-03     114.671E-03    -46.8622E-03    -67.8339E-03    -49.7659E-03     105.421E-03    -55.6801E-03     12.5615E-03     86.4526E+06     27.8848E+06    -49.4117E+06    -15.5665E+06    -5.96047E+06     86.4526E+06    -20.9790E+06         39.8832
            2107     14.1942E-03     122.841E-03     83.3549E-03     11.6248E-03    -80.6357E-03     3.63651E-03    -72.6474E-03     83.3549E-03     4.61940E-03     127.480E-03    -45.8290E-03    -81.8136E-03    -55.5376E-03     115.353E-03    -59.9779E-03     31.1292E-03     118.217E+06     41.5159E+06    -30.1042E+06    -4.37455E+06     15.7862E+06     118.217E+06    -1.38029E+06         42.9460
            2108     15.0670E-03     123.339E-03     83.0527E-03     22.1687E-03    -82.8372E-03     13.8354E-03    -74.5039E-03     83.0527E-03     28.2028E-03     134.809E-03    -32.1513E-03    -102.854E-03    -51.9569E-03     116.181E-03    -64.4192E-03     82.5352E-03     138.916E+06     62.0638E+06    -22.3697E+06     7.34465E+06     32.3494E+06     138.916E+06     4.10349E+06         45.7677
            2109     15.9409E-03     123.899E-03     82.1911E-03     19.0508E-03    -84.6770E-03    -8.87567E-03    -56.7505E-03     82.1911E-03     57.2460E-03     109.940E-03    -13.2254E-03    -96.7859E-03    -17.0332E-03     83.7062E-03    -66.7440E-03     111.785E-03     92.4462E+06     29.1309E+06    -37.4279E+06     4.10918E+06     8.72882E+06     71.3112E+06    -270.582E+03         48.0814


