********************************************************************************
Field Output Report, written Tue May  6 16:27:52 2025

Source 1
---------

   ODB: D:/AISI_1020/Vel_20/1020_2a_8_rd_250_cal_0_v_20_f_025.odb
   Step: Step-1
   Frame: Increment   3712342: Step Time =   0.5260

Loc 1 : Nodal values from source 1

Output sorted by column "Node Label".

Field Output reported at nodes for region: DIE_2A_8_D0_36-1.Region_1
   Computation algorithm: EXTRAPOLATE_COMPUTE_AVERAGE
   Averaged at nodes
   Averaging regions: ODB_REGIONS

      Node Label     COORD.COOR1     COORD.COOR2
                          @Loc 1          @Loc 1
-------------------------------------------------
               1     18.7742E-03     160.883E-03


Field Output reported at nodes for region: DIE_2A_8_D0_36-1.Region_2
   Computation algorithm: EXTRAPOLATE_COMPUTE_AVERAGE
   Averaged at nodes
   Averaging regions: ODB_REGIONS

      Node Label     COORD.COOR1     COORD.COOR2
                          @Loc 1          @Loc 1
-------------------------------------------------
               1     18.7742E-03     160.883E-03


Field Output reported at nodes for part: WIRE_1-1
   Computation algorithm: EXTRAPOLATE_COMPUTE_AVERAGE
   Averaged at nodes
   Averaging regions: ODB_REGIONS

      Node Label     COORD.COOR1     COORD.COOR2    ER.Max. Prin    ER.Mid. Prin    ER.Min. Prin         ER.ER11         ER.ER22         ER.ER33         ER.ER12    PE.Max. Prin    PE.Mid. Prin    PE.Min. Prin         PE.PE11         PE.PE22         PE.PE33         PE.PE12     S.Max. Prin     S.Mid. Prin     S.Min. Prin           S.S11           S.S22           S.S33           S.S12            TEMP
                          @Loc 1          @Loc 1          @Loc 1          @Loc 1          @Loc 1          @Loc 1          @Loc 1          @Loc 1          @Loc 1          @Loc 1          @Loc 1          @Loc 1          @Loc 1          @Loc 1          @Loc 1          @Loc 1          @Loc 1          @Loc 1          @Loc 1          @Loc 1          @Loc 1          @Loc 1          @Loc 1          @Loc 1
-----------------------------------------------------------------------------------------------------------------------------------------------------------------------------------------------------------------------------------------------------------------------------------------------------------------------------------------------------------------------------------------------------------------
               1     17.5420E-03     58.0501E-03     239.308E-03    -79.4210E-03    -597.368E-03     239.044E-03    -597.105E-03    -79.4210E-03     28.9371E-03     50.9057E-03    -24.5966E-03    -26.3099E-03    -24.3630E-03     50.6721E-03    -26.3099E-03    -8.38550E-03     209.561E+06     126.132E+06    -3.56008E+06    -3.56000E+06     209.561E+06     126.132E+06     95.5618E+03         34.5800
               2     561.966E-09     57.8451E-03         11.2531         1.68211        -13.3757        -11.6479    -45.6904E-03         11.2531        -9.59762     52.5930E-03    -26.0053E-03    -26.5862E-03    -26.3065E-03     52.5877E-03    -26.2797E-03     1.20046E-03    -42.5247E+06    -44.1522E+06    -216.962E+06     -44.259E+06    -216.855E+06    -42.5247E+06     2.01980E+06         23.7609
               3     1.24816E-06     63.3299E-09     402.715E-03    -473.380E-03    -547.802E-03    -545.520E-03     400.433E-03    -473.380E-03    -93.0256E-03     101.748E-03    -50.4734E-03    -51.2826E-03    -51.2826E-03     101.748E-03    -50.4734E-03     20.3426E-06    -56.6373E+06    -57.7997E+06    -228.666E+06    -56.6766E+06    -228.627E+06    -57.7997E+06    -2.59814E+06         28.1035
               4     17.3852E-03     63.3299E-09     451.723E-03    -81.0281E-03        -1.02270     448.196E-03        -1.01917    -81.0281E-03    -144.052E-03     66.5224E-03    -32.5423E-03    -33.9595E-03    -26.9575E-03     60.9376E-03    -33.9595E-03     45.6976E-03     192.201E+06     135.445E+06    -4.34621E+06    -4.06796E+06     191.923E+06     135.445E+06     7.39008E+06         34.0863
               5     17.5609E-03     116.314E-03     15.5992E-03     12.1101E-03    -27.1735E-03    -2.91229E-03    -12.1511E-03     15.5992E-03     38.1817E-03     55.9956E-03    -24.1663E-03    -31.8294E-03    -31.5726E-03     55.7388E-03    -24.1663E-03    -9.48340E-03     22.8348E+06    -27.1788E+06    -96.1598E+06    -89.8683E+06     16.5432E+06    -27.1788E+06     26.6284E+06         32.2813
               6     4.72652E-06     115.360E-03     131.972E-03     105.318E-03    -279.036E-03     104.370E-03    -278.087E-03     131.972E-03     38.1376E-03     30.1495E-03    -14.0531E-03    -16.0965E-03    -16.0357E-03     30.0886E-03    -14.0531E-03    -3.35342E-03     68.4449E+06     52.4429E+06    -929.627E+03     45.2527E+06     6.26053E+06     68.4449E+06    -18.2225E+06         21.8462
               7     16.5668E-03     58.0592E-03     212.594E-03    -88.0107E-03    -555.891E-03     211.754E-03    -555.051E-03    -88.0107E-03    -16.2097E-03     52.3147E-03    -25.3654E-03    -26.9500E-03    -24.4759E-03     50.6972E-03    -26.2220E-03     11.1377E-03     206.468E+06     103.698E+06    -6.91837E+06    -6.91814E+06     206.468E+06     103.698E+06     90.1149E+03         33.5621
               8     15.5908E-03     58.0272E-03     165.690E-03    -104.407E-03    -486.094E-03     161.861E-03    -482.265E-03    -104.407E-03     28.9036E-03     52.5332E-03    -25.7930E-03    -26.7374E-03    -24.6738E-03     50.6860E-03    -26.0094E-03     22.5897E-03     192.744E+06     50.4009E+06    -12.0814E+06    -12.0778E+06     192.741E+06     50.4009E+06     346.983E+03         31.5428
               9     14.6156E-03     58.0118E-03     116.525E-03    -119.473E-03    -424.800E-03     112.124E-03    -420.399E-03    -119.473E-03     25.6514E-03     52.2268E-03    -25.6733E-03    -26.5577E-03    -25.0991E-03     50.9846E-03    -25.8896E-03     19.1210E-03     134.610E+06     3.77571E+06    -14.5612E+06    -14.5559E+06     134.605E+06     3.77571E+06     589.446E+03         29.7078
              10     13.6410E-03     57.9870E-03     63.0820E-03    -133.128E-03    -361.318E-03     60.7290E-03    -358.965E-03    -133.128E-03    -6.08461E-03     52.8668E-03    -25.9645E-03    -26.8939E-03    -25.5116E-03     51.4845E-03    -25.9645E-03     20.5862E-03     47.7797E+06    -11.2269E+06    -16.2221E+06    -16.0779E+06     47.6354E+06    -11.2269E+06     1.02591E+06         28.2179
              11     12.6662E-03     57.9684E-03     19.6753E-03    -145.309E-03    -307.540E-03     16.9642E-03    -304.829E-03    -145.309E-03     47.9024E-03     52.6627E-03    -26.0894E-03    -26.5775E-03    -25.6468E-03     51.7320E-03    -26.0894E-03     17.0699E-03    -2.17165E+06    -14.3034E+06    -31.8459E+06    -17.6464E+06    -19.0434E+06    -11.6312E+06     1.48081E+06         27.0928
              12     11.6914E-03     57.9513E-03    -22.9049E-03    -149.117E-03    -262.544E-03    -31.8773E-03    -246.862E-03    -155.826E-03     61.3433E-03     52.6868E-03    -26.1806E-03    -26.5467E-03    -25.7815E-03     51.9215E-03    -26.1806E-03     15.4462E-03    -10.8908E+06    -16.5381E+06    -60.7448E+06    -16.7103E+06    -60.5726E+06    -10.8908E+06    -223.260E+03         26.3131
              13     10.7171E-03     57.9362E-03    -71.3367E-03    -142.088E-03    -223.291E-03    -81.7377E-03    -191.069E-03    -163.909E-03     24.9943E-03     52.7563E-03    -26.2738E-03    -26.5209E-03    -25.9170E-03     52.1525E-03    -26.2738E-03     13.7765E-03    -4.49385E+06    -14.6315E+06    -89.5314E+06    -14.6946E+06    -89.4682E+06    -4.49385E+06    -1.47232E+06         25.7721
              14     9.74187E-03     57.9226E-03    -70.4254E-03    -146.317E-03    -219.906E-03    -99.9658E-03    -166.297E-03    -170.385E-03     62.9034E-03     52.8942E-03    -26.3289E-03    -26.5871E-03    -26.0415E-03     52.3486E-03    -26.3289E-03     13.1185E-03    -4.44367E+06    -14.5610E+06    -113.642E+06    -14.5671E+06    -113.636E+06    -4.44367E+06    -510.475E+03         25.3501
              15     8.76805E-03     57.9087E-03    -45.5439E-03    -164.426E-03    -225.293E-03    -120.359E-03    -138.685E-03    -176.218E-03     5.08591E-03     52.9759E-03    -26.3861E-03    -26.6091E-03    -26.1518E-03     52.5186E-03    -26.3861E-03     11.9931E-03    -5.46861E+06    -16.6217E+06    -139.313E+06    -16.6343E+06    -139.300E+06    -5.46861E+06    -225.447E+03         25.0028
              16     7.79353E-03     57.8972E-03    -20.7456E-03    -177.693E-03    -239.892E-03    -148.606E-03    -109.196E-03    -180.529E-03     49.7464E-03     52.9650E-03    -26.4464E-03    -26.5335E-03    -26.1558E-03     52.6010E-03    -26.4602E-03     10.7265E-03    -3.84543E+06    -21.0136E+06    -162.300E+06    -21.0392E+06    -162.274E+06    -3.84543E+06    -889.853E+03         24.7214
              17     6.81926E-03     57.8861E-03     12.1904E-03    -183.952E-03    -268.677E-03    -153.267E-03    -103.219E-03    -183.952E-03    -9.71743E-03     52.8894E-03    -26.3921E-03    -26.4939E-03    -26.0842E-03     52.5806E-03    -26.4930E-03     9.86368E-03    -7.23661E+06    -24.1334E+06    -172.555E+06    -24.1790E+06    -172.509E+06    -7.23661E+06    -1.55421E+06         24.4922
              18     5.84460E-03     57.8763E-03     52.2816E-03    -186.664E-03    -305.652E-03    -171.678E-03    -81.6927E-03    -186.664E-03     63.5313E-03     53.0490E-03    -26.4552E-03    -26.5905E-03    -26.2539E-03     52.7995E-03    -26.5423E-03     8.87873E-03    -7.93334E+06    -24.7660E+06    -185.553E+06    -24.8085E+06    -185.510E+06    -7.93334E+06    -372.742E+03         24.3079
              19     4.87027E-03     57.8674E-03     142.552E-03    -187.890E-03    -397.288E-03    -181.301E-03    -73.4358E-03    -187.890E-03    -120.203E-03     53.2597E-03    -26.5626E-03    -26.6962E-03    -26.5042E-03     53.0676E-03    -26.5626E-03     7.80246E-03    -10.1138E+06    -25.6938E+06    -200.431E+06    -25.7142E+06    -200.410E+06    -10.1138E+06     1.26717E+06         24.1606
              20     3.89686E-03     57.8600E-03     337.173E-03    -190.995E-03    -587.802E-03    -166.659E-03    -83.9694E-03    -190.995E-03     268.748E-03     53.1927E-03    -26.5300E-03    -26.6609E-03    -26.5137E-03     53.0524E-03    -26.5369E-03     6.65984E-03    -16.8419E+06    -28.6318E+06    -211.394E+06    -28.6431E+06    -211.383E+06    -16.8419E+06      756.69E+03         24.0436
              21     2.92230E-03     57.8533E-03     695.562E-03    -198.133E-03    -938.192E-03    -170.864E-03    -71.7655E-03    -198.133E-03    -449.026E-03     53.0623E-03    -26.4839E-03    -26.5772E-03    -26.4779E-03     52.9769E-03    -26.4978E-03     5.11191E-03    -24.4745E+06    -32.4486E+06    -217.511E+06    -32.4521E+06    -217.508E+06    -24.4745E+06    -416.490E+03         23.9552
              22     1.94847E-03     57.8496E-03         1.37951    -203.322E-03        -1.61012    -199.582E-03    -31.0296E-03    -203.322E-03     913.682E-03     52.9558E-03    -26.3911E-03    -26.5654E-03    -26.4661E-03     52.9195E-03    -26.4541E-03     3.29014E-03    -27.8943E+06    -36.5416E+06    -215.303E+06    -36.5563E+06    -215.288E+06    -27.8943E+06     510.231E+03         23.8807
              23     973.864E-06     57.8469E-03         6.54763     738.985E-03        -7.71889        -5.93352    -23.2213E-03         5.52446        -2.85004     52.7450E-03    -26.1642E-03    -26.5811E-03    -26.3759E-03     52.7328E-03    -26.3573E-03     1.82690E-03    -34.9268E+06    -41.5293E+06    -214.835E+06    -41.5950E+06    -214.769E+06    -34.9268E+06     1.94210E+06         23.8022
              24    -1.06303E-06     56.7934E-03         11.5992         1.70981        -13.7396        -11.8029    -226.848E-03         11.5992        -10.2242     52.6664E-03    -25.9667E-03    -26.6994E-03    -26.4234E-03     52.6649E-03    -26.2412E-03     698.047E-06    -37.8940E+06    -40.2889E+06    -211.502E+06    -38.7913E+06    -211.491E+06    -39.4029E+06    -1.29738E+06         23.7731
              25     1.95533E-06     55.7390E-03         11.8377         1.78927        -14.0909        -11.8897    -412.005E-03         11.8377        -10.9720     53.3420E-03    -26.4162E-03    -26.9259E-03    -26.9213E-03     53.3375E-03    -26.4162E-03     1.12599E-03    -35.3810E+06    -39.8012E+06    -212.998E+06    -38.3024E+06    -212.988E+06    -36.8900E+06    -1.24964E+06         23.7741
              26    -1.80433E-06     54.6851E-03         12.0041         1.84273        -14.3106        -11.8281    -639.774E-03         12.0041        -11.6431     53.1564E-03    -26.2813E-03    -26.8740E-03    -26.3290E-03     53.1526E-03    -26.8225E-03     711.910E-06    -36.5160E+06    -42.4828E+06    -216.555E+06    -39.4921E+06    -216.490E+06    -39.5716E+06    -3.10469E+06         23.7597
              27     729.579E-09     53.6320E-03         12.0838         1.93658        -14.4972        -11.6927    -867.949E-03         12.0838        -12.3610     53.0461E-03    -25.9775E-03    -27.0675E-03    -26.5214E-03     53.0412E-03    -26.5186E-03     817.790E-06    -36.6709E+06    -41.7380E+06    -217.256E+06    -38.7511E+06    -217.187E+06    -39.7264E+06    -3.28570E+06         23.7477
              28     375.521E-09     52.5773E-03         12.0211         2.16966        -14.7307        -11.5673    -993.737E-03         12.0211        -13.1782     53.1541E-03    -26.2353E-03    -26.9177E-03    -26.7764E-03     53.1463E-03    -26.3689E-03     1.56583E-03    -37.6195E+06    -42.3354E+06    -218.922E+06    -39.6524E+06    -218.900E+06    -40.3238E+06    -1.95087E+06         23.7440
              29    -659.160E-09     51.5235E-03         11.8498         2.44576        -14.8575        -11.2797        -1.13197         11.8498        -14.0078     52.4918E-03    -26.1275E-03    -26.3644E-03    -26.2249E-03     52.4859E-03    -26.2610E-03     1.36302E-03    -37.2281E+06    -40.9828E+06    -217.542E+06    -37.3621E+06    -217.408E+06    -40.9828E+06     2.42151E+06         23.7424
              30     860.239E-09     50.4717E-03         11.6606         2.67374        -14.9246        -10.8728        -1.37812         11.6606        -14.8078     52.3725E-03    -25.9682E-03    -26.4046E-03    -26.3995E-03     52.3673E-03    -25.9682E-03     1.26628E-03    -38.3459E+06    -43.8158E+06    -222.382E+06    -42.8979E+06    -222.250E+06    -39.3963E+06     2.50117E+06         23.7388
              31    -137.684E-09     49.4188E-03         11.3951         3.04824        -15.0296        -10.4837        -1.49761         11.3951        -15.6822     52.5253E-03    -25.9464E-03    -26.5786E-03    -26.5764E-03     52.5230E-03    -25.9464E-03     695.939E-06    -40.6841E+06    -46.1456E+06    -225.338E+06    -45.1138E+06    -225.328E+06    -41.7261E+06    -1.30164E+06         23.7284
              32     726.008E-09     48.3662E-03         10.9871         3.46184        -15.0215        -10.0417        -1.51797         10.9871        -16.3959     52.1781E-03    -25.7473E-03    -26.4315E-03    -26.0412E-03     52.1728E-03    -26.1323E-03     1.00646E-03    -40.2199E+06    -42.1453E+06    -221.468E+06    -40.2306E+06    -221.457E+06    -42.1453E+06    -1.33324E+06         23.7174
              33    -1.48038E-06     47.3125E-03         10.5848         3.75231        -14.8990        -9.53994        -1.60677         10.5848        -16.8764     52.1462E-03    -25.8380E-03    -26.3078E-03    -25.9162E-03     52.1396E-03    -26.2230E-03     1.37720E-03    -37.3669E+06    -38.9672E+06    -219.660E+06    -38.0936E+06    -219.650E+06    -38.2503E+06    -512.220E+03         23.7188
              34     1.67162E-06     46.2606E-03         10.2730         3.92473        -14.8025        -9.00960        -1.86819         10.2730        -17.3035     52.8740E-03    -26.2271E-03    -26.6438E-03    -26.6352E-03     52.8654E-03    -26.2271E-03     1.55410E-03    -39.2994E+06    -40.0435E+06    -221.315E+06    -40.0478E+06    -221.310E+06    -39.2994E+06     871.760E+03         23.7318
              35    -1.02006E-06     45.2062E-03         9.89312         4.18164        -14.6876        -8.37932        -2.12662         9.89312        -17.7972     53.0880E-03    -26.1509E-03    -26.9348E-03    -26.4750E-03     53.0802E-03    -26.6029E-03     1.39240E-03    -35.7324E+06    -38.8032E+06    -219.510E+06    -35.7674E+06    -219.503E+06    -38.7760E+06     1.18575E+06         23.7433
              36     115.801E-09     44.1527E-03         9.36477         4.46329        -14.4389        -7.77731        -2.19828         9.36477        -18.0581     52.9431E-03    -26.1302E-03    -26.8107E-03    -26.3480E-03     52.9323E-03    -26.5822E-03     1.58943E-03    -35.9710E+06    -42.3702E+06    -221.081E+06    -39.3340E+06    -221.074E+06    -39.0146E+06     1.14275E+06         23.7495
              37     373.644E-09     43.0990E-03         8.80477         4.69822        -14.1449        -7.17999        -2.26668         8.80477        -18.1866     53.3206E-03    -26.5442E-03    -26.7749E-03    -26.7621E-03     53.3099E-03    -26.5464E-03     1.59337E-03    -36.1299E+06    -40.4825E+06    -219.854E+06    -39.6046E+06    -219.735E+06    -37.1269E+06    -2.79939E+06         23.7561
              38    -372.701E-09     42.0465E-03         8.27448         4.85854        -13.7710        -6.43029        -2.48218         8.27448        -18.1985     53.1896E-03    -26.4474E-03    -26.7418E-03    -26.7386E-03     53.1885E-03    -26.4495E-03     578.357E-06    -38.2256E+06    -40.2222E+06    -220.503E+06    -38.3425E+06    -220.386E+06    -40.2222E+06    -3.41746E+06         23.7621
              39     947.627E-09     40.9915E-03         7.71007         4.98759        -13.3669        -5.63870        -2.74061         7.71007        -18.1179     52.9651E-03    -26.3118E-03    -26.6532E-03    -26.5934E-03     52.9546E-03    -26.3610E-03     1.52515E-03    -45.6877E+06    -46.9581E+06    -227.089E+06    -45.9973E+06    -227.050E+06    -46.6873E+06     1.71976E+06         23.7640
              40    -1.04276E-06     39.9381E-03         7.10807         5.19230        -12.9800        -4.88522        -2.90243         7.10807        -18.0589     53.1956E-03    -26.4989E-03    -26.6982E-03    -26.6380E-03     53.1845E-03    -26.5481E-03     1.64519E-03    -42.0463E+06    -43.8775E+06    -223.953E+06    -43.9639E+06    -223.867E+06    -42.0463E+06    -200.095E+03         23.7631
              41     1.37512E-06     38.8847E-03         6.47835         5.50135        -12.6743        -4.12019        -3.05273         6.47835        -18.1376     53.0413E-03    -26.3170E-03    -26.7266E-03    -26.7224E-03     53.0371E-03    -26.3170E-03     1.10373E-03    -43.8339E+06    -46.3328E+06    -224.895E+06    -46.3811E+06    -224.847E+06    -43.8339E+06    -1.87598E+06         23.7584
              42    -846.072E-09     37.8315E-03         6.07323         5.55995        -12.3328        -3.32806        -3.15934         5.78775        -18.1728     52.7741E-03    -26.1802E-03    -26.5954E-03    -26.4339E-03     52.7682E-03    -26.3359E-03     1.35433E-03    -41.2016E+06    -44.0003E+06    -221.647E+06    -42.1476E+06    -221.640E+06    -43.0617E+06     991.162E+03         23.7503
              43     533.804E-09     36.7776E-03         6.12457         5.10987        -11.9521        -2.51509        -3.31248         5.10987        -18.0506     52.7986E-03    -26.2737E-03    -26.5236E-03    -26.3630E-03     52.7937E-03    -26.4294E-03     1.25113E-03    -40.7978E+06    -42.7228E+06    -220.748E+06    -40.8135E+06    -220.733E+06    -42.7228E+06    -81.7435E+03         23.7457
              44    -336.890E-09     35.7250E-03         6.35790         4.56682        -11.7067        -1.79876        -3.55001         4.56682        -17.9749     52.9881E-03    -26.4368E-03    -26.5506E-03    -26.5248E-03     52.9819E-03    -26.4563E-03     1.39344E-03    -44.8659E+06    -45.9488E+06    -222.492E+06    -44.8755E+06    -222.482E+06    -45.9488E+06    -593.839E+03         23.7436
              45     297.114E-09     34.6705E-03         6.83836         3.93873        -11.5535        -1.13621        -3.57897         3.93873        -18.2273     53.2719E-03    -26.4827E-03    -26.7900E-03    -26.7603E-03     53.2618E-03    -26.5023E-03     1.77908E-03    -43.3555E+06    -45.3707E+06    -222.783E+06    -44.3566E+06    -222.779E+06    -44.3735E+06    -228.546E+03         23.7394
              46     283.893E-09     33.6160E-03         7.46447         3.22769        -11.4668    -455.874E-03        -3.54649         3.22769        -18.6744     52.8799E-03    -26.2598E-03    -26.6212E-03    -26.5375E-03     52.8699E-03    -26.3335E-03     1.77025E-03    -42.1380E+06    -43.2481E+06    -223.603E+06    -43.1488E+06    -223.589E+06    -42.2509E+06     467.908E+03         23.7364
              47    -416.688E-09     32.5645E-03         7.90496         2.66645        -11.3665     169.725E-03        -3.63128         2.66645        -18.8900     52.3834E-03    -26.0385E-03    -26.3455E-03    -26.0341E-03     52.3791E-03    -26.3455E-03     1.08964E-03    -40.0396E+06    -43.1690E+06    -223.303E+06    -40.0539E+06    -223.288E+06    -43.1690E+06     401.875E+03         23.7385
              48    -58.8547E-09     31.5124E-03         8.46078         2.15013        -11.3830     742.196E-03        -3.66445         2.15013        -19.3477     53.1442E-03    -26.3360E-03    -26.8089E-03    -26.5729E-03     53.1415E-03    -26.5693E-03     893.517E-06    -35.4196E+06    -42.4755E+06    -221.622E+06    -39.4669E+06    -221.614E+06    -38.4361E+06     36.2623E+03         23.7474
              49     594.975E-09     30.4564E-03         9.12214         1.55872        -11.4430         1.21976        -3.54062         1.55872        -20.0066     53.6009E-03    -26.5997E-03    -27.0025E-03    -26.9999E-03     53.5983E-03    -26.5997E-03     888.016E-06    -40.6973E+06    -47.4247E+06    -226.148E+06    -44.7736E+06    -226.111E+06    -43.3853E+06    -1.11703E+06         23.7522
              50    -297.092E-09     29.4037E-03         9.63952     952.821E-03        -11.3550         1.65119        -3.36664     952.821E-03        -20.3856     52.9113E-03    -26.2812E-03    -26.6301E-03    -26.4396E-03     52.9064E-03    -26.4669E-03     1.14158E-03    -43.5939E+06    -48.5572E+06    -225.557E+06    -45.9277E+06    -225.498E+06    -46.2819E+06    -229.668E+03         23.7437
              51    -23.9140E-09     28.3489E-03         10.0329     530.640E-03        -11.3312         2.05409        -3.35246     530.640E-03        -20.6679     52.8630E-03    -26.1273E-03    -26.7343E-03    -26.5397E-03     52.8540E-03    -26.3130E-03     1.68456E-03    -42.4113E+06    -45.7282E+06    -223.633E+06    -44.7221E+06    -223.597E+06    -43.4529E+06     2.44332E+06         23.7310
              52     838.692E-09     27.2966E-03         10.2967     148.096E-03        -11.2343         2.31156        -3.24922     148.096E-03        -20.8004     52.8946E-03    -26.2053E-03    -26.6870E-03    -26.6166E-03     52.8847E-03    -26.2657E-03     1.78083E-03    -41.8292E+06    -45.1526E+06    -225.284E+06    -44.2298E+06    -225.165E+06    -42.8708E+06    -2.18582E+06         23.7174
              53    -917.711E-09     26.2420E-03         10.5041    -306.434E-03        -10.9550         2.47382        -2.92477    -306.434E-03        -20.7688     52.3656E-03    -26.0896E-03    -26.2760E-03    -26.2065E-03     52.3565E-03    -26.1500E-03     1.68454E-03    -41.4908E+06    -48.4361E+06    -223.123E+06    -43.8946E+06    -223.002E+06    -46.1543E+06    -4.19567E+06         23.7077
              54     1.10970E-06     25.1912E-03         10.5637    -574.517E-03        -10.7362         2.70437        -2.87680    -574.517E-03        -20.5532     52.5848E-03    -26.1507E-03    -26.4349E-03    -26.4274E-03     52.5773E-03    -26.1507E-03     1.53941E-03    -41.7704E+06    -48.2124E+06    -223.028E+06    -43.6086E+06    -222.968E+06    -46.4338E+06     980.040E+03         23.7085
              55    -767.656E-09     24.1367E-03         10.4308    -808.989E-03        -10.3716         2.86503        -2.80580    -808.989E-03        -20.0143     52.8306E-03    -26.2691E-03    -26.5596E-03    -26.4200E-03     52.8233E-03    -26.4013E-03     1.52419E-03    -41.9640E+06    -45.3787E+06    -222.326E+06    -45.4282E+06    -222.276E+06    -41.9640E+06     1.57745E+06         23.7094
              56     541.664E-09     23.0830E-03         10.1928        -1.08926        -9.82715         2.83225        -2.46661        -1.08926        -19.3058     52.6161E-03    -26.1334E-03    -26.4804E-03    -26.3401E-03     52.6079E-03    -26.2656E-03     1.59973E-03    -40.9557E+06    -45.1782E+06    -219.265E+06    -42.5954E+06    -219.262E+06    -43.5421E+06    -767.332E+03         23.7026
              57    -149.378E-09     22.0314E-03         9.80754        -1.18691        -9.33454         2.82772        -2.35472        -1.18691        -18.4261     52.5279E-03    -26.1124E-03    -26.4141E-03    -26.4084E-03     52.5222E-03    -26.1124E-03     1.27779E-03    -41.6948E+06    -47.6300E+06    -220.817E+06    -45.0479E+06    -220.813E+06    -44.2812E+06     240.872E+03         23.6930
              58     376.095E-09     20.9774E-03         9.27122        -1.25134        -8.73914         2.77875        -2.24666        -1.25134        -17.2950     52.2617E-03    -26.0507E-03    -26.2116E-03    -26.1314E-03     52.2555E-03    -26.1246E-03     1.31833E-03    -45.7857E+06    -49.4184E+06    -224.863E+06    -49.1413E+06    -224.856E+06    -46.0695E+06    -23.2304E+03         23.6814
              59    -515.895E-09     19.9250E-03         8.63783        -1.33312        -8.03048         2.60000        -1.99265        -1.33312        -16.0231     51.7725E-03    -25.7884E-03    -25.9869E-03    -25.7814E-03     51.7655E-03    -25.9869E-03     1.44422E-03    -44.1650E+06    -47.4213E+06    -222.155E+06    -44.1718E+06    -222.149E+06    -47.4213E+06    -1.10091E+06         23.6597
              60     245.408E-09     18.8734E-03         7.84620        -1.27366        -7.29421         2.40051        -1.84851        -1.27366        -14.5316     51.3630E-03    -25.4391E-03    -25.9243E-03    -25.7976E-03     51.3608E-03    -25.5637E-03     705.402E-06    -43.7975E+06    -48.0911E+06    -220.782E+06    -45.1265E+06    -220.774E+06    -46.7700E+06    -1.17994E+06         23.6232
              61     491.627E-09     17.8224E-03         6.95042        -1.19677        -6.48558         2.17748        -1.71264        -1.19677        -12.8605     50.6162E-03    -25.0323E-03    -25.5826E-03    -25.3920E-03     50.6152E-03    -25.2220E-03     492.678E-06    -45.0195E+06    -46.7942E+06    -222.737E+06    -46.3610E+06    -222.716E+06    -45.4731E+06     552.933E+03         23.5652
              62    -853.320E-09     16.7707E-03         6.00350        -1.05161        -5.64626         1.96210        -1.60486        -1.05161        -11.0885     49.5661E-03    -24.6070E-03    -24.9577E-03    -24.7669E-03     49.5650E-03    -24.7966E-03     555.655E-06    -42.3639E+06    -45.6888E+06    -219.688E+06    -42.3816E+06    -219.670E+06    -45.6888E+06     1.59108E+06         23.4741
              63     1.14357E-06     15.7223E-03         4.98352    -833.724E-03        -4.83014         1.74567        -1.59229    -833.724E-03        -9.22658     48.1672E-03    -23.9667E-03    -24.1999E-03    -24.1981E-03     48.1655E-03    -23.9667E-03     656.326E-06    -40.3683E+06    -47.4922E+06    -215.973E+06    -44.6664E+06    -215.927E+06    -43.2395E+06     2.30640E+06         23.3395
              64    -933.680E-09     14.6734E-03         4.07997    -740.867E-03        -4.01665         1.45277        -1.38946    -740.867E-03        -7.58086     45.6567E-03    -22.7176E-03    -22.9406E-03    -22.7882E-03     45.6553E-03    -22.8685E-03     508.185E-06    -37.2076E+06    -44.5125E+06    -212.938E+06    -41.5044E+06    -212.894E+06    -40.2598E+06     1.69428E+06         23.1526
              65     613.715E-09     13.6304E-03         3.21076    -622.552E-03        -3.25508         1.15006        -1.19438    -622.552E-03        -6.02321     42.1547E-03    -20.8368E-03    -21.3205E-03    -21.1685E-03     42.1537E-03    -20.9877E-03    -297.317E-06    -29.6518E+06    -35.7864E+06    -205.854E+06    -32.7353E+06    -205.853E+06     -32.704E+06     12.8959E+03         22.9081
              66     93.8375E-09     12.5900E-03         2.39263    -435.112E-03        -2.62243     924.103E-03        -1.15391    -435.112E-03        -4.56201     37.7960E-03    -18.6820E-03    -19.1147E-03    -19.0133E-03     37.7946E-03    -18.7819E-03    -555.333E-06    -24.6449E+06    -31.2113E+06    -200.191E+06    -27.7668E+06    -200.151E+06    -28.1288E+06     2.06742E+06         22.6133
              67    -318.294E-09     11.5546E-03         1.77725    -337.907E-03        -2.09687     649.307E-03    -968.933E-03    -337.907E-03        -3.51766     33.3372E-03    -16.5529E-03    -16.7830E-03    -16.6803E-03     33.3345E-03    -16.6528E-03    -670.789E-06    -17.6720E+06    -23.4675E+06    -195.363E+06    -20.0311E+06    -195.316E+06    -21.1560E+06     2.71349E+06         22.2999
              68     617.864E-09     10.5247E-03         1.23588    -276.269E-03        -1.61834     404.159E-03    -786.620E-03    -276.269E-03        -2.59083     29.1803E-03    -14.5037E-03    -14.6767E-03    -14.6690E-03     29.1725E-03    -14.5037E-03    -1.13353E-03    -10.4355E+06    -13.2488E+06    -187.654E+06    -12.7720E+06    -187.629E+06    -10.9372E+06     2.06151E+06         22.0216
              69    -531.026E-09     9.49797E-03     782.382E-03    -192.293E-03        -1.26799     261.388E-03    -746.999E-03    -192.293E-03        -1.78395     25.3891E-03    -12.6710E-03    -12.7181E-03    -12.7071E-03     25.3823E-03    -12.6752E-03    -978.357E-06    -12.1937E+06    -16.8840E+06    -188.488E+06    -16.4085E+06    -188.462E+06    -12.6954E+06     271.762E+03         21.8445
              70     596.670E-09     8.47440E-03     509.245E-03    -182.361E-03    -975.038E-03     107.966E-03    -573.760E-03    -182.361E-03        -1.31164     23.5157E-03    -11.7510E-03    -11.7640E-03    -11.7460E-03     23.5106E-03    -11.7640E-03     188.932E-06    -18.4191E+06    -23.8662E+06    -195.202E+06    -22.6411E+06    -195.169E+06    -19.6776E+06    -2.35061E+06         21.8314
              71    -619.589E-09     7.45205E-03     330.004E-03    -199.029E-03    -779.843E-03    -9.77272E-03    -440.067E-03    -199.029E-03        -1.02241     24.8614E-03    -12.3744E-03    -12.4860E-03    -12.3670E-03     24.8540E-03    -12.4860E-03     1.04755E-03    -25.2399E+06     -28.994E+06    -200.225E+06    -25.2710E+06    -200.194E+06     -28.994E+06    -2.25303E+06         22.0223
              72     407.819E-09     6.42677E-03     161.904E-03    -253.564E-03    -555.865E-03    -71.9419E-03    -318.902E-03    -256.682E-03    -664.521E-03     30.2971E-03    -15.0265E-03    -15.2687E-03    -15.0108E-03     30.2815E-03    -15.2687E-03     1.64491E-03    -28.0522E+06    -31.2014E+06    -205.041E+06    -28.7157E+06    -205.031E+06    -30.5478E+06    -389.219E+03         22.4546
              73    -664.619E-09     5.39331E-03     119.603E-03    -352.743E-03    -382.350E-03    -239.197E-03     6.05750E-03    -382.350E-03    -241.246E-03     40.1821E-03    -19.9815E-03    -20.1993E-03    -20.0354E-03     40.1576E-03    -20.1209E-03     2.42506E-03    -25.4078E+06    -28.3251E+06    -204.611E+06    -26.0641E+06    -204.608E+06    -27.6714E+06     648.621E+03         23.1623
              74     795.027E-09     4.34689E-03     143.476E-03    -367.892E-03    -412.276E-03    -368.223E-03     125.911E-03    -394.380E-03     71.0704E-03     53.7601E-03    -26.7833E-03    -26.9759E-03    -26.9437E-03     53.7279E-03    -26.7833E-03     3.21955E-03    -30.4514E+06    -37.9563E+06    -210.933E+06    -35.7157E+06    -210.910E+06    -32.7150E+06    -1.16861E+06         24.1235
              75    -504.793E-09     3.28523E-03     17.0006E-03    -305.121E-03    -347.483E-03    -331.869E-03     1.38624E-03    -305.121E-03     130.955E-03     69.6782E-03    -34.7472E-03    -34.9306E-03    -34.8284E-03     69.6452E-03    -34.8164E-03     3.67196E-03    -39.7732E+06    -50.8031E+06    -221.195E+06     -45.059E+06    -221.151E+06    -45.5618E+06    -2.79810E+06         25.2393
              76     270.797E-09     2.20414E-03     15.2200E-03    -282.347E-03    -375.326E-03    -374.967E-03     14.8611E-03    -282.347E-03     21.6699E-03     85.6491E-03    -42.7168E-03    -42.9331E-03    -42.6924E-03     85.6246E-03    -42.9331E-03     3.52372E-03    -42.5829E+06    -52.1178E+06    -223.039E+06    -46.3522E+06    -223.016E+06    -48.3714E+06    -1.14043E+06         26.3674
              77    -574.041E-09     1.10693E-03     256.817E-03    -389.787E-03    -495.510E-03    -494.259E-03     255.566E-03    -389.787E-03    -35.4505E-03     97.5127E-03    -48.4828E-03    -49.0344E-03    -48.8764E-03     97.5018E-03    -48.6298E-03     1.75775E-03    -49.1081E+06    -53.4357E+06    -224.892E+06    -52.8750E+06    -224.872E+06    -49.6893E+06    -1.02548E+06         27.5096
              78     949.740E-06     63.3299E-09     308.233E-03    -415.782E-03    -502.039E-03    -447.809E-03     303.049E-03    -464.828E-03    -114.034E-03     100.965E-03    -50.0799E-03    -50.8869E-03    -50.4812E-03     100.961E-03    -50.4823E-03     993.260E-06    -49.7678E+06    -52.9718E+06    -226.894E+06    -52.4643E+06    -226.820E+06    -50.3490E+06    -3.48646E+06         28.0629
              79     1.90047E-03     63.3299E-09     196.210E-03    -365.566E-03    -437.178E-03    -360.921E-03     191.564E-03    -437.178E-03    -41.7740E-03     98.7235E-03    -48.6092E-03    -50.1122E-03    -48.5945E-03     98.7089E-03    -50.1122E-03     2.79883E-03    -42.1014E+06    -45.8657E+06    -223.770E+06    -45.9261E+06    -223.710E+06    -42.1014E+06    -2.93914E+06         27.9496
              80     2.85326E-03     63.3299E-09     177.859E-03    -381.266E-03    -412.669E-03    -380.272E-03     176.865E-03    -412.669E-03     4.67878E-03     95.2380E-03    -46.0457E-03    -49.1939E-03    -46.0153E-03     95.2076E-03    -49.1939E-03     4.10246E-03    -40.9240E+06    -43.2848E+06    -222.257E+06    -42.0722E+06    -222.250E+06    -42.1433E+06    -917.876E+03         27.7947
              81     3.80947E-03     63.3299E-09     129.752E-03    -350.596E-03    -400.855E-03    -349.908E-03     129.064E-03    -400.855E-03    -36.3214E-03     90.9362E-03    -42.9472E-03    -47.9939E-03    -42.8971E-03     90.8861E-03    -47.9939E-03     5.13122E-03    -40.1124E+06    -46.9546E+06    -223.120E+06    -40.1238E+06    -223.108E+06    -46.9546E+06    -1.17703E+06         27.6437
              82     4.76878E-03     63.3299E-09     69.3597E-03    -315.489E-03    -387.124E-03    -314.289E-03     68.1604E-03    -387.124E-03     10.7393E-03     86.3513E-03    -39.7518E-03    -46.6072E-03    -39.6811E-03     86.2806E-03    -46.6072E-03     5.95421E-03    -38.7813E+06    -55.5083E+06    -227.486E+06    -38.8585E+06    -227.409E+06    -55.5083E+06    -3.53543E+06         27.5315
              83     5.73156E-03     63.3299E-09     22.7508E-03    -286.919E-03    -372.426E-03    -284.553E-03     20.3849E-03    -372.426E-03     52.5287E-03     81.7045E-03    -36.6055E-03    -45.1122E-03    -36.5153E-03     81.6143E-03    -45.1122E-03     6.51211E-03    -35.3888E+06    -66.0493E+06    -231.876E+06    -35.5519E+06    -231.713E+06    -66.0493E+06    -5.63713E+06         27.4769
              84     6.69725E-03     63.3299E-09    -51.6208E-03    -222.266E-03    -354.602E-03    -209.514E-03    -64.3727E-03    -354.602E-03     67.6901E-03     77.1675E-03    -33.6465E-03    -43.5352E-03    -33.5338E-03     77.0548E-03    -43.5352E-03     7.05056E-03    -31.3320E+06    -82.9741E+06    -226.954E+06    -31.5576E+06    -226.728E+06    -82.9741E+06    -6.61657E+06         27.4974
              85     7.66607E-03     63.3299E-09    -100.630E-03    -187.706E-03    -332.027E-03    -140.119E-03    -148.216E-03    -332.027E-03     58.1356E-03     72.9433E-03    -31.0818E-03    -41.9007E-03    -30.9441E-03     72.8056E-03    -41.9007E-03     7.54870E-03    -26.9926E+06    -108.095E+06    -204.416E+06    -27.4182E+06    -203.991E+06    -108.095E+06    -8.42412E+06         27.6124
              86     8.63685E-03     63.3299E-09    -87.5668E-03    -216.213E-03    -307.653E-03    -89.7129E-03    -214.067E-03    -307.653E-03     24.5741E-03     69.3500E-03    -29.0681E-03    -40.3475E-03    -28.9054E-03     69.1873E-03    -40.3475E-03     7.98722E-03    -20.8687E+06    -126.437E+06    -170.683E+06    -21.5177E+06    -170.034E+06    -126.437E+06    -9.80003E+06         27.8362
              87     9.61010E-03     63.3299E-09    -35.4240E-03    -258.734E-03    -319.539E-03    -35.6281E-03    -295.174E-03    -282.896E-03     13.0775E-03     67.3659E-03    -28.4075E-03    -38.9953E-03    -28.1794E-03     67.1378E-03    -38.9953E-03     9.26872E-03    -14.9896E+06    -124.258E+06    -144.509E+06    -15.8094E+06    -134.886E+06    -133.062E+06    -9.82366E+06         28.1760
              88     10.5815E-03     63.3299E-09     30.9944E-03    -257.246E-03    -394.201E-03     29.1837E-03    -392.390E-03    -257.246E-03     47.8339E-03     67.6795E-03    -29.7954E-03    -37.9089E-03    -29.2820E-03     67.1661E-03    -37.9089E-03     13.7548E-03    -8.56526E+06    -94.3393E+06    -132.419E+06    -9.70190E+06    -93.2027E+06    -132.419E+06    -9.59815E+06         28.6336
              89     11.5471E-03     63.3299E-09     94.8161E-03    -230.503E-03    -484.752E-03     92.7633E-03    -482.699E-03    -230.503E-03     61.6077E-03     65.1970E-03    -28.2272E-03    -37.0010E-03    -27.6622E-03     64.6320E-03    -37.0010E-03     14.3634E-03     1.44013E+06    -44.1444E+06    -125.838E+06    -2.72228E+06    -39.9820E+06    -125.838E+06    -10.2724E+06         29.2092
              90     12.5254E-03     63.3299E-09     151.361E-03    -203.100E-03    -566.021E-03     151.063E-03    -565.722E-03    -203.100E-03     14.9015E-03     58.9631E-03    -22.9741E-03    -36.0052E-03    -22.6673E-03     58.6562E-03    -36.0052E-03     9.96406E-03     43.9853E+06    -11.8230E+06    -112.494E+06    -2.65364E+06      34.816E+06    -112.494E+06    -3.20496E+06         29.8931
              91     13.5129E-03     63.3299E-09     191.593E-03    -175.980E-03    -632.696E-03     191.467E-03    -632.570E-03    -175.980E-03     9.68122E-03     56.1202E-03    -21.0982E-03    -35.0508E-03    -20.9165E-03     55.9386E-03    -35.0508E-03     7.41252E-03     105.768E+06    -7.54475E+06    -75.5546E+06    -7.40355E+06     105.627E+06    -75.5546E+06     3.07419E+06         30.6447
              92     14.4846E-03     63.3299E-09     239.447E-03    -149.555E-03    -708.621E-03     239.191E-03    -708.365E-03    -149.555E-03     31.1689E-03     58.4918E-03    -24.0979E-03    -34.4041E-03    -23.1345E-03     57.5283E-03    -34.4041E-03     15.6090E-03     152.760E+06     7.52819E+06    -23.3430E+06    -3.23034E+06     152.404E+06    -12.2281E+06    -4.82478E+06         31.4595
              93     15.4528E-03     63.3299E-09     304.793E-03    -123.054E-03    -806.215E-03     302.112E-03    -803.534E-03    -123.054E-03     94.6247E-03     62.4181E-03    -28.2810E-03    -34.1339E-03    -25.9998E-03     60.1369E-03    -34.1339E-03     28.2868E-03     186.477E+06     64.7011E+06     1.48644E+06     1.89039E+06     186.073E+06     64.7011E+06    -3.18130E+06         32.3921
              94     16.4217E-03     63.3299E-09     393.013E-03    -95.3455E-03    -938.007E-03     388.710E-03    -933.704E-03    -95.3455E-03     5.46900E-03     65.3381E-03    -31.3058E-03    -34.0321E-03    -27.1283E-03     61.1606E-03    -34.0321E-03     38.7657E-03     195.376E+06     120.422E+06    -1.57388E+06    -1.38090E+06     195.183E+06     120.422E+06     5.99967E+06         33.4907
              95     17.4385E-03     1.06477E-03     391.055E-03    -77.6542E-03    -933.249E-03     387.292E-03    -929.486E-03    -77.6542E-03    -140.430E-03     60.8061E-03    -28.0915E-03    -32.7004E-03    -22.9606E-03     55.6752E-03    -32.7004E-03     41.4591E-03     194.970E+06     134.104E+06    -4.39070E+06    -4.00788E+06     194.587E+06     134.104E+06     8.65236E+06         33.6271
              96     17.4774E-03     2.11338E-03     350.053E-03    -69.0922E-03    -865.295E-03     348.053E-03    -863.295E-03    -69.0922E-03    -69.5241E-03     56.9168E-03    -26.4744E-03    -30.4492E-03    -23.2795E-03     53.6474E-03    -30.3747E-03     31.2892E-03     197.824E+06     133.232E+06    -3.33090E+06    -3.02915E+06     197.522E+06     133.232E+06     7.36688E+06         33.0262
              97     17.5026E-03     3.17321E-03     396.090E-03    -55.4801E-03    -938.520E-03     395.727E-03    -938.157E-03    -55.4801E-03     30.8822E-03     62.0267E-03    -28.5458E-03    -33.4951E-03    -32.2819E-03     60.8134E-03    -28.5458E-03     20.2779E-03     198.554E+06     136.603E+06    -3.37070E+06    -3.28565E+06     198.469E+06     136.603E+06     4.06745E+06         32.9280
              98     17.5215E-03     4.24276E-03     406.751E-03    -35.3203E-03    -979.805E-03     405.488E-03    -978.541E-03    -35.3203E-03    -17.4651E-03     65.8879E-03    -27.3006E-03    -38.5900E-03    -38.2131E-03     65.5110E-03    -27.3006E-03     12.0753E-03     198.040E+06     139.027E+06    -3.61739E+06    -3.57309E+06     197.995E+06     139.027E+06     2.97201E+06         33.0844
              99     17.5332E-03     5.31346E-03     381.983E-03    -12.0135E-03    -964.421E-03     377.453E-03    -959.891E-03    -12.0135E-03    -147.541E-03     66.1274E-03    -26.5368E-03    -39.5907E-03    -39.4581E-03     65.9947E-03    -26.5368E-03     7.30786E-03     196.381E+06     136.506E+06    -3.80395E+06    -3.77082E+06     196.348E+06     136.506E+06     2.57446E+06         33.3284
             100     17.5402E-03     6.38408E-03     378.566E-03     13.2560E-03    -994.454E-03     374.851E-03    -990.739E-03     13.2560E-03    -82.4986E-03     65.2952E-03    -26.1173E-03    -39.1788E-03    -39.1201E-03     65.2365E-03    -26.1173E-03     4.89962E-03     195.755E+06     132.913E+06    -4.18066E+06    -4.15901E+06     195.733E+06     132.913E+06     498.101E+03         33.5781
             101     17.5428E-03     7.45337E-03     405.502E-03     46.0151E-03        -1.07375     405.173E-03        -1.07342     46.0151E-03     43.0067E-03     64.1417E-03    -25.9566E-03    -38.1821E-03    -38.1431E-03     64.1026E-03    -25.9566E-03     3.99711E-03     195.558E+06     131.330E+06    -3.72390E+06    -3.71750E+06     195.551E+06     131.330E+06    -1.00082E+06         33.7870
             102     17.5431E-03     8.52208E-03     424.706E-03     86.4493E-03        -1.12780     423.753E-03        -1.12685     86.4493E-03    -19.6069E-03     62.2764E-03    -25.9591E-03    -36.3143E-03    -36.2779E-03     62.2399E-03    -25.9591E-03     3.78973E-03     194.280E+06     129.045E+06    -4.39700E+06    -4.39525E+06     194.279E+06     129.045E+06     102.890E+03         33.9349
             103     17.5429E-03     9.58443E-03     395.718E-03     129.437E-03        -1.13733     394.675E-03        -1.13629     129.437E-03    -78.6909E-03     59.9818E-03    -26.0197E-03    -33.9626E-03    -33.9364E-03     59.9556E-03    -26.0197E-03     3.08531E-03     192.677E+06     125.866E+06    -4.04894E+06    -4.04771E+06     192.676E+06     125.866E+06     275.078E+03         34.0212
             104     17.5424E-03     10.6462E-03     390.319E-03     175.208E-03        -1.19328     389.468E-03        -1.19243     175.208E-03     9.79963E-03     57.7951E-03    -26.0838E-03    -31.7143E-03    -31.7038E-03     57.7845E-03    -26.0838E-03     1.86942E-03     192.946E+06     124.740E+06    -2.78615E+06    -2.78350E+06     192.943E+06     124.740E+06    -572.183E+03         34.0584
             105     17.5430E-03     11.7036E-03     443.761E-03     226.137E-03        -1.32916     443.240E-03        -1.32864     226.137E-03     45.2000E-03     55.8716E-03    -26.1327E-03    -29.7437E-03    -29.7410E-03     55.8690E-03    -26.1327E-03     449.825E-06     193.097E+06     123.738E+06    -3.18794E+06    -3.18462E+06     193.093E+06     123.738E+06    -242.886E+03         34.0631
             106     17.5425E-03     12.7617E-03     464.346E-03     281.129E-03        -1.41043     464.206E-03        -1.41029     281.129E-03    -18.8163E-03     54.4007E-03    -26.1862E-03    -28.2136E-03    -28.1986E-03     54.3856E-03    -26.1862E-03    -1.74643E-03     193.094E+06     123.114E+06    -3.25207E+06    -3.25099E+06     193.093E+06     123.114E+06     68.5641E+03         34.0476
             107     17.5420E-03     13.8156E-03     436.428E-03     338.724E-03        -1.44062     436.173E-03        -1.44037     338.724E-03    -43.7060E-03     53.1585E-03    -26.2486E-03    -26.9068E-03    -26.8366E-03     53.0907E-03    -26.2510E-03    -4.43852E-03     193.277E+06     123.119E+06    -2.71777E+06    -2.71736E+06     193.277E+06     123.119E+06    -149.077E+03         34.0214
             108     17.5416E-03     14.8693E-03     439.961E-03     398.061E-03        -1.51966     439.835E-03        -1.51954     398.061E-03    -26.6981E-03     52.1740E-03    -25.8856E-03    -26.2904E-03    -25.7613E-03     52.0496E-03    -26.2904E-03    -6.20734E-03     192.563E+06     121.558E+06    -3.66244E+06    -3.66211E+06     192.563E+06     121.558E+06     218.184E+03         33.9951
             109     17.5418E-03     15.9234E-03     495.033E-03     459.982E-03        -1.66847     494.859E-03        -1.66830     459.982E-03     22.1060E-03     51.5577E-03    -25.2584E-03    -26.3021E-03    -25.1071E-03     51.4065E-03    -26.3021E-03    -6.80681E-03     192.879E+06     120.770E+06    -3.98199E+06    -3.98146E+06     192.879E+06     120.770E+06     25.0402E+03         33.9794
             110     17.5420E-03     16.9759E-03     541.862E-03     508.183E-03        -1.76262     525.775E-03        -1.76117     522.827E-03    -48.6515E-03     51.3669E-03    -25.0572E-03    -26.3099E-03    -24.8570E-03     51.1667E-03    -26.3099E-03    -7.77235E-03     193.689E+06     121.679E+06    -3.34676E+06    -3.34627E+06     193.688E+06     121.679E+06    -308.873E+03         33.9773
             111     17.5417E-03     18.0293E-03     582.392E-03     482.968E-03        -1.76290     481.422E-03        -1.76135     582.392E-03    -110.819E-03     51.3018E-03    -24.9856E-03    -26.3171E-03    -24.7476E-03     51.0639E-03    -26.3171E-03    -8.50805E-03     194.593E+06     122.007E+06    -2.72104E+06    -2.71835E+06     194.591E+06     122.007E+06     328.401E+03         33.9833
             112     17.5418E-03     19.0825E-03     640.245E-03     480.476E-03        -1.84611     480.136E-03        -1.84577     640.245E-03    -15.8894E-03     51.0370E-03    -24.7228E-03    -26.3160E-03    -24.5026E-03     50.8168E-03    -26.3160E-03    -8.15398E-03     195.202E+06     120.867E+06    -3.68938E+06    -3.68642E+06     195.199E+06     120.867E+06     720.877E+03         33.9926
             113     17.5420E-03     20.1361E-03     698.166E-03     563.785E-03        -2.00050     563.675E-03        -2.00039     698.166E-03     33.0786E-03     50.9939E-03    -24.6843E-03    -26.3110E-03    -24.4789E-03     50.7885E-03    -26.3110E-03    -7.87454E-03     195.483E+06     120.823E+06    -4.06242E+06    -4.06126E+06     195.482E+06     120.823E+06     479.109E+03         34.0058
             114     17.5418E-03     21.1887E-03     753.008E-03     561.332E-03        -2.08305     560.656E-03        -2.08237     753.008E-03    -43.1398E-03     51.2323E-03    -24.9131E-03    -26.3218E-03    -24.6639E-03     50.9831E-03    -26.3218E-03    -8.66492E-03     197.135E+06     123.030E+06    -2.92859E+06    -2.92629E+06     197.132E+06     123.030E+06     659.445E+03         34.0226
             115     17.5414E-03     22.2421E-03     803.396E-03     518.570E-03        -2.09954     517.931E-03        -2.09890     803.396E-03    -60.8641E-03     51.1283E-03    -24.7971E-03    -26.3334E-03    -24.5336E-03     50.8649E-03    -26.3334E-03    -8.91629E-03     197.212E+06     122.617E+06    -3.96970E+06    -3.96381E+06     197.206E+06     122.617E+06     1.06231E+06         34.0411
             116     17.5418E-03     23.2952E-03     850.842E-03     563.307E-03        -2.17328     563.034E-03        -2.17301     850.842E-03     35.9448E-03     50.9130E-03    -24.5864E-03    -26.3273E-03    -24.3499E-03     50.6765E-03    -26.3273E-03    -8.43755E-03     196.972E+06     122.565E+06    -3.98217E+06    -3.97493E+06     196.964E+06     122.565E+06     98.5196E+03         34.0609
             117     17.5422E-03     24.3480E-03     893.703E-03     589.792E-03        -2.24581     589.357E-03        -2.24538     893.703E-03     69.6549E-03     51.0267E-03    -24.7160E-03    -26.3106E-03    -24.4739E-03     50.7846E-03    -26.3106E-03    -8.55027E-03     197.493E+06     123.419E+06    -3.00806E+06    -3.00458E+06     197.490E+06     123.419E+06    -762.299E+03         34.0810
             118     17.5421E-03     25.4020E-03     929.496E-03     552.135E-03        -2.26452     551.923E-03        -2.26431     929.496E-03     14.0306E-03     51.1269E-03    -24.8168E-03    -26.3104E-03    -24.5500E-03     50.8602E-03    -26.3104E-03    -8.97866E-03     197.646E+06     123.340E+06    -3.10206E+06    -3.10143E+06     197.646E+06     123.340E+06    -74.7118E+03         34.0969
             119     17.5417E-03     26.4544E-03     960.166E-03     540.120E-03        -2.29663     539.816E-03        -2.29633     960.166E-03     21.9170E-03     51.2013E-03    -24.8758E-03    -26.3262E-03    -24.6058E-03     50.9313E-03    -26.3262E-03    -9.04319E-03     197.385E+06     123.688E+06    -3.58750E+06    -3.58689E+06     197.384E+06     123.688E+06     341.929E+03         34.1033
             120     17.5416E-03     27.5084E-03     987.607E-03     575.718E-03        -2.34246     574.943E-03        -2.34169     987.607E-03     93.8467E-03     51.2163E-03    -24.8836E-03    -26.3319E-03    -24.6319E-03     50.9646E-03    -26.3319E-03    -8.73915E-03     197.767E+06     124.113E+06    -3.97986E+06    -3.97872E+06     197.766E+06     124.113E+06     476.359E+03         34.0993
             121     17.5419E-03     28.5613E-03         1.00998     601.431E-03        -2.38278     600.440E-03        -2.38179         1.00998     108.738E-03     50.9631E-03    -24.6323E-03    -26.3291E-03    -24.3792E-03     50.7099E-03    -26.3291E-03    -8.73485E-03     199.151E+06     124.327E+06    -3.87601E+06    -3.87505E+06     199.150E+06     124.327E+06     424.805E+03         34.0900
             122     17.5420E-03     29.6142E-03         1.02614     582.723E-03        -2.40062     582.188E-03        -2.40009         1.02614     72.5195E-03     50.8116E-03    -24.4939E-03    -26.3183E-03    -24.2336E-03     50.5513E-03    -26.3183E-03    -8.83802E-03     199.311E+06     123.546E+06    -3.96049E+06    -3.96018E+06     199.311E+06     123.546E+06     70.0853E+03         34.0830
             123     17.5422E-03     30.6671E-03         1.03713     563.707E-03        -2.38235     563.441E-03        -2.38208         1.03713     53.7884E-03     50.9237E-03    -24.6178E-03    -26.3091E-03    -24.3475E-03     50.6535E-03    -26.3091E-03    -9.02000E-03     199.759E+06     124.076E+06    -3.16737E+06    -3.16727E+06     199.759E+06     124.076E+06    -140.076E+03         34.0823
             124     17.5421E-03     31.7202E-03         1.04363     575.703E-03        -2.37561     575.037E-03        -2.37495         1.04363     86.9831E-03     51.1484E-03    -24.8425E-03    -26.3085E-03    -24.5836E-03     50.8895E-03    -26.3085E-03    -8.85120E-03     199.985E+06     124.704E+06    -2.91156E+06    -2.91085E+06     199.984E+06     124.704E+06    -316.161E+03         34.0884
             125     17.5418E-03     32.7743E-03         1.04439     575.945E-03        -2.39095     575.392E-03        -2.39040         1.04439     75.5362E-03     51.2489E-03    -24.9326E-03    -26.3177E-03    -24.6859E-03     51.0021E-03    -26.3177E-03    -8.65635E-03     199.913E+06     124.686E+06    -3.43454E+06    -3.42899E+06     199.907E+06     124.686E+06     443.511E+03         34.1013
             126     17.5417E-03     33.8273E-03         1.03868     572.601E-03        -2.38923     572.379E-03        -2.38901         1.03868     51.0273E-03     50.9768E-03    -24.6508E-03    -26.3274E-03    -24.3847E-03     50.7107E-03    -26.3274E-03    -8.95134E-03     200.165E+06     123.871E+06    -3.96133E+06    -3.95485E+06     200.158E+06     123.871E+06     1.10910E+06         34.1208
             127     17.5420E-03     34.8796E-03         1.02815     561.538E-03        -2.36310     561.352E-03        -2.36291         1.02815     45.6029E-03     50.8494E-03    -24.5247E-03    -26.3247E-03    -24.2419E-03     50.5666E-03    -26.3247E-03    -9.21704E-03     200.544E+06     123.366E+06    -4.27977E+06    -4.27669E+06     200.541E+06     123.366E+06     15.7376E+03         34.1455
             128     17.5419E-03     35.9328E-03         1.01438     543.119E-03        -2.32577     542.931E-03        -2.32558         1.01438     45.3160E-03     51.0969E-03    -24.7771E-03    -26.3178E-03    -24.5066E-03     50.8265E-03    -26.3178E-03    -9.04020E-03     201.637E+06     124.804E+06    -3.02248E+06    -3.02077E+06     201.635E+06     124.804E+06    -545.158E+03         34.1715
             129     17.5419E-03     36.9869E-03     996.537E-03     564.968E-03        -2.32014     564.810E-03        -2.31998     996.537E-03     16.0796E-03     51.3393E-03    -25.0102E-03    -26.3274E-03    -24.7691E-03     51.0983E-03    -26.3274E-03    -8.56084E-03     202.133E+06     126.219E+06    -2.89267E+06    -2.88855E+06     202.129E+06     126.219E+06     475.640E+03         34.1945
             130     17.5412E-03     38.0410E-03     972.282E-03     557.510E-03        -2.27460     557.455E-03        -2.27454     972.282E-03    -24.8183E-03     51.1143E-03    -24.7835E-03    -26.3331E-03    -24.5540E-03     50.8849E-03    -26.3331E-03    -8.33236E-03     201.789E+06     125.183E+06    -4.41454E+06    -4.40949E+06     201.784E+06     125.183E+06     979.853E+03         34.2151
             131     17.5426E-03     39.0923E-03     941.865E-03     527.492E-03        -2.19784     527.400E-03        -2.19774     941.865E-03     4.87164E-03     50.8187E-03    -24.5066E-03    -26.3161E-03    -24.2474E-03     50.5595E-03    -26.3161E-03    -8.81107E-03     203.362E+06     124.832E+06    -3.47611E+06    -3.47173E+06     203.357E+06     124.832E+06    -228.238E+03         34.2370
             132     17.5420E-03     40.1462E-03     906.857E-03     527.893E-03        -2.15259     527.803E-03        -2.15250     906.857E-03     30.6264E-03     50.9316E-03    -24.6262E-03    -26.3060E-03    -24.3596E-03     50.6649E-03    -26.3060E-03    -8.95620E-03     203.917E+06     125.260E+06    -3.16625E+06    -3.16041E+06     203.911E+06     125.260E+06    -53.9013E+03         34.2615
             133     17.5422E-03     41.1998E-03     866.467E-03     514.048E-03        -2.08400     514.017E-03        -2.08397     866.467E-03     10.3910E-03     50.8868E-03    -24.5753E-03    -26.3102E-03    -24.3389E-03     50.6505E-03    -26.3102E-03    -8.43039E-03     203.206E+06     124.596E+06    -4.02511E+06    -4.02232E+06     203.204E+06     124.596E+06     647.250E+03         34.2881
             134     17.5421E-03     42.2522E-03     820.376E-03     515.888E-03        -2.02658     515.579E-03        -2.02627     820.376E-03     37.4691E-03     50.9121E-03    -24.5943E-03    -26.3170E-03    -24.3553E-03     50.6731E-03    -26.3170E-03    -8.47973E-03     203.885E+06     124.570E+06    -3.90104E+06    -3.90033E+06     203.884E+06     124.570E+06     367.024E+03         34.3156
             135     17.5416E-03     43.3061E-03     770.340E-03     511.667E-03        -1.95587     510.573E-03        -1.95477     770.340E-03     100.878E-03     51.0324E-03    -24.7074E-03    -26.3239E-03    -24.4622E-03     50.7871E-03    -26.3239E-03    -8.60418E-03     204.539E+06     124.944E+06    -3.35908E+06    -3.35849E+06     204.538E+06     124.944E+06     293.039E+03         34.3431
             136     17.5418E-03     44.3583E-03     716.283E-03     455.903E-03        -1.83297     454.823E-03        -1.83189     716.283E-03     97.1361E-03     51.0204E-03    -24.6940E-03    -26.3242E-03    -24.4431E-03     50.7695E-03    -26.3242E-03    -8.70000E-03     204.970E+06     125.609E+06    -3.42094E+06    -3.42035E+06     204.969E+06     125.609E+06     294.107E+03         34.3711
             137     17.5422E-03     45.4115E-03     657.093E-03     435.097E-03        -1.74536     434.729E-03        -1.74499     657.093E-03     53.8566E-03     51.1738E-03    -24.8602E-03    -26.3148E-03    -24.5803E-03     50.8939E-03    -26.3148E-03    -9.20731E-03     205.852E+06     126.181E+06    -3.33544E+06    -3.33466E+06     205.851E+06     126.181E+06     90.7842E+03         34.3998
             138     17.5419E-03     46.4651E-03     594.860E-03     465.804E-03        -1.69099     465.334E-03        -1.69052     594.860E-03     59.1358E-03     51.1922E-03    -24.8789E-03    -26.3152E-03    -24.5984E-03     50.9118E-03    -26.3152E-03    -9.21843E-03     206.653E+06     126.362E+06    -3.44444E+06    -3.44283E+06     206.651E+06     126.362E+06     229.690E+03         34.4266
             139     17.5420E-03     47.5188E-03     531.123E-03     453.239E-03        -1.58834     452.775E-03        -1.58788     531.123E-03     57.5105E-03     50.8556E-03    -24.5390E-03    -26.3180E-03    -24.2945E-03     50.6111E-03    -26.3180E-03    -8.56538E-03     206.484E+06     125.627E+06    -4.07922E+06    -4.07763E+06     206.482E+06     125.627E+06     530.023E+03         34.4494
             140     17.5423E-03     48.5715E-03     464.695E-03     402.103E-03        -1.45239     401.971E-03        -1.45225     464.695E-03     31.3306E-03     50.8264E-03    -24.5117E-03    -26.3174E-03    -24.2757E-03     50.5904E-03    -26.3174E-03    -8.41735E-03     206.447E+06     125.665E+06    -3.71519E+06    -3.71492E+06     206.446E+06     125.665E+06     228.286E+03         34.4684
             141     17.5416E-03     49.6248E-03     409.141E-03     370.908E-03        -1.34314     383.811E-03        -1.34307     396.172E-03     11.6376E-03     51.1275E-03    -24.8040E-03    -26.3251E-03    -24.5469E-03     50.8703E-03    -26.3251E-03    -8.82147E-03     206.835E+06     126.078E+06    -3.76818E+06    -3.76812E+06     206.835E+06     126.078E+06     78.9073E+03         34.4836
             142     17.5418E-03     50.6777E-03     385.549E-03     328.303E-03        -1.25442     385.302E-03        -1.25418     328.303E-03     24.5460E-03     51.1160E-03    -24.7865E-03    -26.3305E-03    -24.5177E-03     50.8471E-03    -26.3305E-03    -9.01770E-03     207.967E+06     127.003E+06    -3.34799E+06    -3.34799E+06     207.967E+06     127.003E+06    -17.7768E+03         34.4944
             143     17.5420E-03     51.7309E-03     363.182E-03     261.780E-03        -1.14890     362.830E-03        -1.14855     261.780E-03     10.3260E-03     51.0178E-03    -24.6930E-03    -26.3250E-03    -24.4381E-03     50.7629E-03    -26.3250E-03    -8.76556E-03     208.613E+06     127.404E+06    -3.33743E+06    -3.33627E+06     208.612E+06     127.404E+06     334.995E+03         34.5018
             144     17.5420E-03     52.7850E-03     330.970E-03     195.817E-03        -1.03269     330.724E-03        -1.03244     195.817E-03     1.33955E-03     51.0072E-03    -24.6817E-03    -26.3257E-03    -24.4389E-03     50.7644E-03    -26.3257E-03    -8.55915E-03     208.670E+06     126.700E+06    -3.94191E+06    -3.94070E+06     208.668E+06     126.700E+06     280.670E+03         34.5083
             145     17.5416E-03     53.8377E-03     308.144E-03     132.840E-03    -928.381E-03     307.810E-03    -928.047E-03     132.840E-03     40.3491E-03     50.8102E-03    -24.4889E-03    -26.3201E-03    -24.2431E-03     50.5644E-03    -26.3201E-03    -8.59006E-03     208.561E+06     125.495E+06    -3.98745E+06    -3.98702E+06     208.561E+06     125.495E+06     129.725E+03         34.5154
             146     17.5428E-03     54.8895E-03     293.709E-03     75.3561E-03    -835.469E-03     293.222E-03    -834.983E-03     75.3561E-03     46.5320E-03     50.8834E-03    -24.5818E-03    -26.3040E-03    -24.3154E-03     50.6170E-03    -26.3040E-03    -8.94317E-03     209.629E+06     126.617E+06    -3.03112E+06    -3.02836E+06     209.626E+06     126.617E+06    -305.064E+03         34.5237
             147     17.5420E-03     55.9441E-03     303.444E-03     21.1871E-03    -769.396E-03     303.064E-03    -769.016E-03     21.1871E-03     11.3199E-03     51.0681E-03    -24.7757E-03    -26.2990E-03    -24.5141E-03     50.8065E-03    -26.2990E-03    -8.87967E-03     209.657E+06     126.464E+06    -3.71053E+06    -3.70661E+06     209.653E+06     126.464E+06    -102.773E+03         34.5341
             148     17.5424E-03     56.9973E-03     290.905E-03    -31.5454E-03    -702.307E-03     290.730E-03    -702.132E-03    -31.5454E-03    -1.16369E-03     50.9098E-03    -24.6080E-03    -26.3052E-03    -24.3782E-03     50.6800E-03    -26.3052E-03    -8.31914E-03     209.637E+06     125.568E+06    -3.75211E+06    -3.75052E+06     209.635E+06     125.568E+06     493.326E+03         34.5507
             149     17.5424E-03     59.1033E-03     231.770E-03    -119.961E-03    -521.764E-03     231.592E-03    -521.586E-03    -119.961E-03     16.8237E-03     50.9711E-03    -24.6638E-03    -26.3095E-03    -24.4206E-03     50.7279E-03    -26.3095E-03    -8.56401E-03     209.497E+06     126.532E+06    -3.48462E+06    -3.48452E+06     209.497E+06     126.532E+06     106.964E+03         34.6263
             150     17.5420E-03     60.1565E-03     256.036E-03    -154.755E-03    -485.501E-03     255.294E-03    -484.759E-03    -154.755E-03    -32.3098E-03     50.9684E-03    -24.6632E-03    -26.3086E-03    -24.3997E-03     50.7050E-03    -26.3086E-03    -8.90782E-03     209.664E+06     126.046E+06    -3.51168E+06    -3.51147E+06     209.663E+06     126.046E+06    -3.48076E+03         34.6876
             151     17.5422E-03     61.2089E-03     239.783E-03    -185.406E-03    -420.445E-03     237.922E-03    -418.584E-03    -185.406E-03    -69.1912E-03     50.9470E-03    -24.6428E-03    -26.3066E-03    -24.3722E-03     50.6764E-03    -26.3066E-03    -9.02721E-03     209.180E+06     125.490E+06    -3.86091E+06    -3.86076E+06     209.180E+06     125.490E+06    -38.3929E+03         34.7570
             152     17.5423E-03     62.2627E-03     228.477E-03    -211.878E-03    -374.717E-03     227.130E-03    -373.370E-03    -211.878E-03    -19.6744E-03     50.8392E-03    -24.5431E-03    -26.2993E-03    -24.2896E-03     50.5858E-03    -26.2993E-03    -8.72678E-03     209.478E+06     125.749E+06    -3.49721E+06    -3.49655E+06     209.477E+06     125.749E+06    -188.938E+03         34.8276
             153     17.5427E-03     63.3155E-03     239.958E-03    -232.926E-03    -368.601E-03     239.493E-03    -368.136E-03    -232.926E-03     33.6361E-03     50.8039E-03    -24.5196E-03    -26.2934E-03    -24.2755E-03     50.5598E-03    -26.2934E-03    -8.56165E-03     209.975E+06     126.207E+06    -3.29375E+06    -3.29272E+06     209.974E+06     126.207E+06    -466.655E+03         34.8913
             154     17.5423E-03     64.3690E-03     216.624E-03    -248.391E-03    -319.427E-03     214.406E-03    -317.209E-03    -248.391E-03    -25.9261E-03     50.7471E-03    -24.4659E-03    -26.2917E-03    -24.2228E-03     50.5040E-03    -26.2917E-03    -8.53829E-03     209.683E+06     125.716E+06    -3.31619E+06    -3.31484E+06     209.682E+06     125.716E+06     104.417E+03         34.9410
             155     17.5428E-03     65.4214E-03     197.375E-03    -252.655E-03    -269.327E-03     192.530E-03    -257.664E-03    -259.473E-03    -93.4260E-03     50.7033E-03    -24.4252E-03    -26.2838E-03    -24.1923E-03     50.4703E-03    -26.2838E-03    -8.35096E-03     209.126E+06     124.371E+06    -4.01735E+06    -4.01605E+06     209.124E+06     124.371E+06     514.498E+03         34.9752
             156     17.5425E-03     66.4749E-03     205.955E-03    -255.363E-03    -265.643E-03     202.015E-03    -251.424E-03    -265.643E-03    -18.8372E-03     50.9179E-03    -24.6378E-03    -26.2836E-03    -24.4049E-03     50.6849E-03    -26.2836E-03    -8.37523E-03     209.860E+06     125.790E+06    -3.53993E+06    -3.53951E+06     209.859E+06     125.790E+06     277.886E+03         34.9972
             157     17.5426E-03     67.5278E-03     212.524E-03    -262.651E-03    -268.425E-03     211.427E-03    -263.866E-03    -266.113E-03     36.2208E-03     51.0220E-03    -24.7450E-03    -26.2798E-03    -24.4883E-03     50.7653E-03    -26.2798E-03    -8.80325E-03     210.121E+06     125.902E+06    -3.43899E+06    -3.43894E+06     210.121E+06     125.902E+06     75.8612E+03         35.0105
             158     17.5428E-03     68.5802E-03     213.828E-03    -262.908E-03    -266.174E-03     211.707E-03    -264.054E-03    -262.908E-03    -39.9986E-03     50.9571E-03    -24.6916E-03    -26.2715E-03    -24.4150E-03     50.6805E-03    -26.2715E-03    -9.13074E-03     210.379E+06     125.126E+06    -3.39039E+06    -3.39013E+06     210.378E+06     125.126E+06    -170.841E+03         35.0177
             159     17.5427E-03     69.6345E-03     188.012E-03    -241.364E-03    -257.153E-03     185.887E-03    -240.193E-03    -256.199E-03    -48.9024E-03     50.7895E-03    -24.5273E-03    -26.2696E-03    -24.2864E-03     50.5487E-03    -26.2696E-03    -8.47172E-03     210.298E+06     124.636E+06    -3.81076E+06    -3.81043E+06     210.298E+06     124.636E+06    -253.125E+03         35.0222
             160     17.5429E-03     70.6876E-03     163.434E-03    -228.090E-03    -248.559E-03     162.488E-03    -232.778E-03    -242.925E-03     22.9550E-03     50.8338E-03    -24.5632E-03    -26.2763E-03    -24.3472E-03     50.6178E-03    -26.2763E-03    -8.05324E-03     210.653E+06     125.678E+06    -3.46962E+06    -3.46932E+06     210.652E+06     125.678E+06    -242.516E+03         35.0274
             161     17.5424E-03     71.7402E-03     182.054E-03    -222.653E-03    -266.608E-03     180.575E-03    -265.129E-03    -222.653E-03     4.05464E-03     51.0713E-03    -24.7998E-03    -26.2773E-03    -24.5551E-03     50.8266E-03    -26.2773E-03    -8.60193E-03     210.430E+06     125.760E+06    -3.35799E+06    -3.35166E+06     210.424E+06     125.760E+06     649.260E+03         35.0333
             162     17.5429E-03     72.7934E-03     190.220E-03    -198.256E-03    -286.311E-03     187.739E-03    -283.829E-03    -198.256E-03    -65.4253E-03     51.0467E-03    -24.7898E-03    -26.2643E-03    -24.5408E-03     50.7978E-03    -26.2643E-03    -8.67570E-03     210.330E+06     124.565E+06    -3.74898E+06    -3.74200E+06     210.323E+06     124.565E+06     499.426E+03         35.0387
             163     17.5426E-03     73.8471E-03     161.975E-03    -169.706E-03    -293.860E-03     159.822E-03    -291.707E-03    -169.706E-03    -27.7543E-03     50.9843E-03    -24.7260E-03    -26.2633E-03    -24.4667E-03     50.7250E-03    -26.2633E-03    -8.84220E-03     210.826E+06     124.614E+06    -3.62625E+06    -3.62513E+06     210.825E+06     124.614E+06    -149.304E+03         35.0431
             164     17.5427E-03     74.8997E-03     173.112E-03    -134.849E-03    -337.021E-03     172.700E-03    -336.609E-03    -134.849E-03     28.7718E-03     50.9068E-03    -24.6427E-03    -26.2691E-03    -24.3609E-03     50.6251E-03    -26.2691E-03    -9.20969E-03     211.393E+06     124.781E+06    -3.85692E+06    -3.85613E+06     211.393E+06     124.781E+06     403.835E+03         35.0465
             165     17.5427E-03     75.9525E-03     203.314E-03    -96.5267E-03    -392.476E-03     200.605E-03    -389.767E-03    -96.5267E-03    -41.2460E-03     50.8304E-03    -24.5732E-03    -26.2597E-03    -24.2919E-03     50.5491E-03    -26.2597E-03    -9.19336E-03     213.898E+06     125.307E+06    -3.18862E+06    -3.18805E+06     213.897E+06     125.307E+06     286.814E+03         35.0500
             166     17.5429E-03     77.0061E-03     172.348E-03    -56.3524E-03    -417.386E-03     169.469E-03    -414.508E-03    -56.3524E-03    -75.5330E-03     50.7774E-03    -24.5224E-03    -26.2547E-03    -24.2646E-03     50.5196E-03    -26.2547E-03    -8.79306E-03     215.183E+06     125.099E+06    -3.27826E+06    -3.27748E+06     215.182E+06     125.099E+06     331.365E+03         35.0537
             167     17.5427E-03     78.0594E-03     161.145E-03    -9.53537E-03    -461.801E-03     159.878E-03    -460.534E-03    -9.53537E-03     15.4858E-03     50.7965E-03    -24.5393E-03    -26.2623E-03    -24.3059E-03     50.5631E-03    -26.2623E-03    -8.37235E-03     214.920E+06     124.397E+06    -3.84284E+06    -3.83938E+06     214.917E+06     124.397E+06     832.804E+03         35.0578
             168     17.5426E-03     79.1125E-03     212.068E-03     43.6477E-03    -555.149E-03     211.149E-03    -554.231E-03     43.6477E-03     37.8471E-03     50.7885E-03    -24.5266E-03    -26.2673E-03    -24.2898E-03     50.5518E-03    -26.2673E-03    -8.43025E-03     215.017E+06     123.917E+06    -3.99606E+06    -3.99315E+06     215.014E+06     123.917E+06     699.151E+03         35.0626
             169     17.5426E-03     80.1650E-03     221.432E-03     96.6860E-03    -623.189E-03     220.083E-03    -621.841E-03     96.6860E-03    -44.9470E-03     50.7590E-03    -24.5004E-03    -26.2624E-03    -24.2481E-03     50.5068E-03    -26.2624E-03    -8.69978E-03     215.750E+06     123.985E+06    -3.54854E+06    -3.54811E+06     215.750E+06     123.985E+06      7.5805E+03         35.0685
             170     17.5428E-03     81.2180E-03     189.442E-03     149.464E-03    -670.712E-03     188.097E-03    -669.367E-03     149.464E-03    -48.1561E-03     50.9071E-03    -24.6546E-03    -26.2580E-03    -24.3961E-03     50.6486E-03    -26.2580E-03    -8.82401E-03     216.036E+06     123.966E+06    -3.29645E+06    -3.29624E+06     216.035E+06     123.966E+06    -158.868E+03         35.0758
             171     17.5423E-03     82.2721E-03     216.980E-03     206.220E-03    -756.810E-03     216.844E-03    -756.673E-03     206.220E-03     16.3217E-03     50.8749E-03    -24.6162E-03    -26.2643E-03    -24.3507E-03     50.6094E-03    -26.2643E-03    -8.93689E-03     215.205E+06     123.084E+06    -3.89994E+06    -3.89987E+06     215.205E+06     123.084E+06    -93.8370E+03         35.0831
             172     17.5426E-03     83.3237E-03     274.228E-03     255.718E-03    -848.186E-03     265.042E-03    -847.446E-03     264.163E-03    -20.4165E-03     50.6766E-03    -24.4191E-03    -26.2642E-03    -24.1399E-03     50.3974E-03    -26.2642E-03    -9.13964E-03     215.114E+06     122.220E+06    -3.83409E+06    -3.83339E+06     215.113E+06     122.220E+06    -349.394E+03         35.0886
             173     17.5427E-03     84.3773E-03     319.064E-03     243.646E-03    -890.473E-03     242.995E-03    -889.822E-03     319.064E-03    -47.6365E-03     50.6859E-03    -24.4310E-03    -26.2637E-03    -24.1670E-03     50.4219E-03    -26.2637E-03    -8.88090E-03     215.814E+06     122.420E+06    -3.20339E+06    -3.20275E+06     215.814E+06     122.420E+06    -286.572E+03         35.0921
             174     17.5424E-03     85.4310E-03     372.458E-03     209.534E-03    -931.020E-03     209.272E-03    -930.758E-03     372.458E-03     12.2640E-03     50.6258E-03    -24.3671E-03    -26.2649E-03    -24.1433E-03     50.4020E-03    -26.2649E-03    -8.17633E-03     215.382E+06     121.554E+06    -3.04036E+06    -3.04036E+06     215.382E+06     121.554E+06    -16.0074E+03         35.0941
             175     17.5427E-03     86.4832E-03     425.532E-03     254.953E-03        -1.02673     254.550E-03        -1.02633     425.532E-03     45.2918E-03     50.5492E-03    -24.2892E-03    -26.2643E-03    -24.0673E-03     50.3273E-03    -26.2643E-03    -8.13403E-03     214.127E+06     120.204E+06    -3.68783E+06    -3.68783E+06     214.127E+06     120.204E+06     11.7935E+03         35.0946
             176     17.5423E-03     87.5362E-03     475.352E-03     298.091E-03        -1.10960     296.873E-03        -1.10838     475.352E-03    -31.3316E-03     50.5784E-03    -24.3218E-03    -26.2608E-03    -24.0645E-03     50.3211E-03    -26.2608E-03    -8.75779E-03     213.418E+06     119.435E+06    -3.72642E+06    -3.72562E+06     213.417E+06     119.435E+06    -287.654E+03         35.0940
             177     17.5428E-03     88.5877E-03     519.551E-03     247.422E-03        -1.11198     246.370E-03        -1.11093     519.551E-03    -46.7046E-03     50.4755E-03    -24.2331E-03    -26.2467E-03    -23.9647E-03     50.2071E-03    -26.2467E-03    -8.93882E-03     213.112E+06     118.127E+06    -3.47307E+06    -3.46799E+06     213.107E+06     118.127E+06    -975.415E+03         35.0934
             178     17.5428E-03     89.6418E-03     559.907E-03     243.515E-03        -1.14796     242.634E-03        -1.14708     559.907E-03     58.0329E-03     50.3536E-03    -24.1231E-03    -26.2354E-03    -23.8878E-03     50.1182E-03    -26.2354E-03    -8.35009E-03     212.562E+06     117.170E+06    -3.12702E+06    -3.12263E+06     212.557E+06     117.170E+06    -794.204E+03         35.0939
             179     17.5429E-03     90.6941E-03     596.857E-03     317.709E-03        -1.26522     316.794E-03        -1.26430     596.857E-03     64.2582E-03     50.1973E-03    -23.9782E-03    -26.2243E-03    -23.7415E-03     49.9606E-03    -26.2243E-03    -8.35452E-03     211.036E+06     114.788E+06    -3.54833E+06    -3.54693E+06     211.034E+06     114.788E+06    -485.459E+03         35.0942
             180     17.5431E-03     91.7456E-03     627.533E-03     298.391E-03        -1.28102     297.713E-03        -1.28034     627.533E-03    -29.2418E-03     49.9888E-03    -23.7866E-03    -26.2071E-03    -23.5219E-03     49.7241E-03    -26.2071E-03    -8.82186E-03     209.424E+06     112.543E+06    -3.26986E+06    -3.26681E+06     209.421E+06     112.543E+06    -802.698E+03         35.0924
             181     17.5436E-03     92.7980E-03     651.996E-03     220.223E-03        -1.21509     219.266E-03        -1.21413     651.996E-03    -12.4653E-03     49.7533E-03    -23.5915E-03    -26.1674E-03    -23.3474E-03     49.5092E-03    -26.1674E-03    -8.43947E-03     207.527E+06     108.233E+06    -3.08834E+06    -3.08468E+06     207.523E+06     108.233E+06    -878.356E+03         35.0886
             182     17.5443E-03     93.8501E-03     673.113E-03     229.424E-03        -1.25331     228.038E-03        -1.25193     673.113E-03     88.0304E-03     49.5389E-03    -23.4384E-03    -26.1060E-03    -23.2114E-03     49.3119E-03    -26.1060E-03    -8.12686E-03     204.406E+06     101.423E+06    -3.23033E+06    -3.22496E+06     204.401E+06     101.423E+06    -1.04358E+06         35.0820
             183     17.5449E-03     94.9012E-03     689.935E-03     296.446E-03        -1.34001     295.315E-03        -1.33888     689.935E-03     41.1341E-03     49.2536E-03    -23.2413E-03    -26.0156E-03    -23.0020E-03     49.0143E-03    -26.0156E-03    -8.31682E-03     199.871E+06     91.5159E+06    -3.19018E+06    -3.16195E+06     199.843E+06     91.5159E+06    -2.17452E+06         35.0724
             184     17.5465E-03     95.9518E-03     699.915E-03     298.018E-03        -1.34241     296.808E-03        -1.34120     699.915E-03    -76.2702E-03     48.9635E-03    -23.0801E-03    -25.8844E-03    -22.8227E-03     48.7062E-03    -25.8844E-03    -8.59373E-03     194.075E+06     79.0056E+06    -2.56105E+06    -2.48739E+06     194.001E+06     79.0056E+06    -3.74438E+06         35.0602
             185     17.5481E-03     97.0024E-03     703.847E-03     225.757E-03        -1.25022     224.623E-03        -1.24909     703.847E-03    -63.1461E-03     48.6409E-03    -22.9433E-03    -25.6973E-03    -22.6893E-03     48.3870E-03    -25.6973E-03    -8.50893E-03     185.309E+06     61.1546E+06    -2.21809E+06    -2.10431E+06     185.196E+06     61.1546E+06    -4.60202E+06         35.0462
             186     17.5509E-03     98.0531E-03     704.312E-03     215.765E-03        -1.23233     214.806E-03        -1.23137     704.312E-03     50.7269E-03     48.2755E-03    -22.8249E-03    -25.4507E-03    -22.5916E-03     48.0422E-03    -25.4507E-03    -8.13158E-03     174.236E+06     40.9724E+06    -1.32846E+06    -1.17377E+06     174.081E+06     40.9724E+06    -5.18178E+06         35.0372
             187     17.5546E-03     99.1011E-03     701.798E-03     267.838E-03        -1.27789     266.544E-03        -1.27660     701.798E-03     21.5216E-03     48.5444E-03    -23.3919E-03    -25.1527E-03    -23.1222E-03     48.2747E-03    -25.1527E-03    -8.77120E-03     163.124E+06     25.1147E+06    -1.18346E+06    -1.02623E+06     162.966E+06     25.1147E+06    -5.07098E+06         35.0462
             188     17.5592E-03     100.152E-03     692.853E-03     247.098E-03        -1.22746     243.840E-03        -1.22420     692.853E-03    -122.341E-03     49.6081E-03    -24.2868E-03    -25.3209E-03    -24.4733E-03     49.2806E-03    -24.8069E-03    -9.84955E-03     148.318E+06     11.5038E+06    -4.38545E+06    -3.82969E+06     147.762E+06     11.5038E+06    -8.25175E+06         35.0914
             189     17.5644E-03     101.202E-03     676.801E-03     185.154E-03        -1.13999     182.178E-03        -1.13702     676.801E-03    -77.8992E-03     52.0793E-03    -24.5558E-03    -27.5245E-03    -27.0808E-03     51.6356E-03    -24.5558E-03    -11.8041E-03     124.389E+06     20.9255E+06    -5.38648E+06    -3.64169E+06     122.644E+06     20.9255E+06    -14.3230E+06         35.1891
             190     17.5677E-03     102.256E-03     657.153E-03     193.787E-03        -1.12256     192.088E-03        -1.12086     657.153E-03     78.9399E-03     56.0975E-03    -24.4052E-03    -31.6938E-03    -31.1080E-03     55.5117E-03    -24.4052E-03    -14.2942E-03     94.4048E+06     43.8266E+06    -239.409E+03     2.22964E+06     91.9358E+06     43.8266E+06    -15.0093E+06         35.3329
             191     17.5694E-03     103.317E-03     633.837E-03     243.957E-03        -1.14839     242.310E-03        -1.14674     633.837E-03     70.5224E-03     60.2048E-03    -24.2723E-03    -35.9326E-03    -35.3688E-03     59.6410E-03    -24.2723E-03    -14.6371E-03     65.1698E+06     51.1483E+06    -3.70782E+06    -1.38042E+06     62.8424E+06     51.1483E+06    -12.4427E+06         35.4954
             192     17.5698E-03     104.382E-03     603.552E-03     221.482E-03        -1.07718     219.712E-03        -1.07541     603.552E-03    -61.0211E-03     63.7086E-03    -24.1676E-03    -39.5413E-03    -39.0552E-03     63.2226E-03    -24.1676E-03    -14.1283E-03     51.7459E+06     39.3024E+06    -6.42084E+06    -2.08457E+06     35.3821E+06     51.3300E+06    -11.8668E+06         35.6537
             193     17.5706E-03     105.448E-03     567.033E-03     156.176E-03    -949.115E-03     154.170E-03    -947.109E-03     567.033E-03    -42.3206E-03     66.9224E-03    -24.0541E-03    -42.8678E-03    -42.4533E-03     66.5079E-03    -24.0541E-03    -13.4161E-03     46.8993E+06     18.6904E+06    -8.44710E+06    -340.315E+03     10.5836E+06     46.8993E+06    -12.1774E+06         35.7892
             194     17.5708E-03     106.521E-03     527.703E-03     167.596E-03    -891.651E-03     166.114E-03    -890.169E-03     527.703E-03     74.2060E-03     70.5350E-03    -23.9594E-03    -46.5744E-03    -46.2630E-03     70.2236E-03    -23.9594E-03    -12.0127E-03     44.2254E+06     6.63954E+06    -27.8942E+06    -4.43917E+06    -16.8155E+06     44.2254E+06    -14.0397E+06         35.8767
             195     17.5713E-03     107.595E-03     483.993E-03     202.842E-03    -880.622E-03     201.538E-03    -879.319E-03     483.993E-03     63.4789E-03     74.6133E-03    -23.8682E-03    -50.7447E-03    -50.5051E-03     74.3737E-03    -23.8682E-03    -10.9214E-03     45.8911E+06     6.69214E+06    -50.0125E+06     2.80783E+06    -46.1282E+06     45.8911E+06    -12.1367E+06         35.9016
             196     17.5714E-03     108.676E-03     432.922E-03     161.701E-03    -785.087E-03     161.604E-03    -784.989E-03     432.922E-03     3.75554E-03     79.1102E-03    -23.7470E-03    -55.3623E-03    -55.2398E-03     78.9877E-03    -23.7470E-03    -7.36717E-03     39.4310E+06    -3.05024E+06    -74.4616E+06    -4.56205E+06    -72.9498E+06     39.4310E+06    -10.1709E+06         35.8656
             197     17.5711E-03     109.765E-03     375.626E-03     95.1438E-03    -627.987E-03     95.0776E-03    -627.920E-03     375.626E-03    -1.62730E-03     84.3108E-03    -23.5972E-03    -60.7127E-03    -60.6704E-03     84.2685E-03    -23.5972E-03     680.759E-06     34.4090E+06    -1.83687E+06    -106.084E+06    -4.51209E+06    -103.409E+06     34.4090E+06    -16.4812E+06         35.7517
             198     17.5729E-03     110.860E-03     314.857E-03     98.1337E-03    -547.624E-03     97.9977E-03    -547.488E-03     314.857E-03     17.9781E-03     88.8753E-03    -23.4557E-03    -65.4192E-03    -65.3061E-03     88.7622E-03    -23.4557E-03     8.04492E-03     37.6921E+06     11.0750E+06    -130.920E+06     9.36693E+06    -129.212E+06     37.6921E+06    -9.31638E+06         35.5089
             199     17.5731E-03     111.958E-03     252.693E-03     127.213E-03    -491.617E-03     127.104E-03    -491.508E-03     252.693E-03     13.5644E-03     90.8759E-03    -23.3965E-03    -67.4786E-03    -67.3571E-03     90.7544E-03    -23.3965E-03     8.54437E-03     36.7542E+06    -2.59966E+06    -138.567E+06    -2.64107E+06    -138.525E+06     36.7542E+06     94.4784E+03         35.0820
             200     17.5726E-03     113.047E-03     188.706E-03     92.0547E-03    -359.489E-03     92.0516E-03    -359.486E-03     188.706E-03     1.03375E-03     94.0562E-03    -23.3161E-03    -70.7395E-03    -70.5731E-03     93.8898E-03    -23.3161E-03     10.0151E-03     34.3649E+06    -8.99470E+06    -157.363E+06    -9.75494E+06    -156.603E+06     34.3649E+06    -9.11257E+06         34.4256
             201     17.5740E-03     114.152E-03     120.537E-03     47.4812E-03    -226.355E-03     44.5592E-03    -223.433E-03     120.537E-03    -35.9983E-03     95.7933E-03    -23.1494E-03    -72.6441E-03    -72.3041E-03     95.4533E-03    -23.1494E-03     15.0110E-03     73.8835E+06     21.8541E+06    -154.986E+06     46.8894E+06    -147.056E+06     40.9176E+06     20.8859E+06         33.5347
             202     17.5751E-03     115.267E-03     50.3529E-03     25.6591E-03    -103.795E-03     15.2267E-03    -93.3628E-03     50.3529E-03    -16.2508E-03     75.2711E-03    -23.6109E-03    -51.6605E-03    -51.3242E-03     74.9347E-03    -23.6109E-03     3.55825E-03     67.4314E+06     9.45866E+06    -115.086E+06     3.88842E+06    -51.5436E+06     9.45866E+06     42.1755E+06         32.6582
             203     16.5660E-03     116.289E-03     20.3658E-03     16.4170E-03    -57.8670E-03     6.75268E-03    -45.9984E-03     18.1616E-03     49.3376E-03     61.0677E-03    -23.8459E-03    -37.2213E-03    -36.4819E-03     60.3282E-03    -23.8459E-03     6.72196E-03     19.0927E+06    -21.0734E+06    -87.2124E+06    -84.0379E+06     758.798E+03    -5.91412E+06     14.2685E+06         31.4983
             204     15.6036E-03     116.177E-03     26.6302E-03     21.5327E-03    -78.6682E-03     19.2450E-03    -74.1762E-03     24.4260E-03     25.3025E-03     57.5368E-03    -23.0279E-03    -34.5092E-03    -33.3232E-03     56.3509E-03    -23.0279E-03     20.6993E-03     23.9555E+06    -1.93898E+06    -79.3067E+06    -74.3747E+06     3.86421E+06     13.2203E+06    -14.9443E+06         29.8257
             205     14.6265E-03     116.051E-03     32.4076E-03     16.6520E-03    -65.4697E-03     12.2446E-03    -61.0623E-03     32.4076E-03     18.5480E-03     43.8181E-03    -19.4399E-03    -24.3792E-03    -20.7083E-03     43.1492E-03    -22.4418E-03     12.4486E-03     21.0733E+06    -12.0312E+06    -64.4844E+06    -56.1802E+06    -9.60023E+06     10.3381E+06    -19.2654E+06         28.1141
             206     13.6431E-03     115.946E-03     41.6163E-03     8.33333E-03    -73.4858E-03     3.88984E-03    -69.0423E-03     41.6163E-03     29.0393E-03     41.8485E-03    -19.2892E-03    -22.5595E-03    -19.4587E-03     41.7496E-03    -22.2911E-03     4.01439E-03     27.1657E+06    -2.42369E+06    -47.4718E+06    -44.0671E+06    -5.82836E+06     27.1657E+06    -3.73965E+06         26.6317
             207     12.6725E-03     115.842E-03     51.6943E-03     5.04217E-03    -85.8995E-03     4.83901E-03    -85.6964E-03     51.6943E-03     7.98479E-03     45.6931E-03    -21.9626E-03    -23.7264E-03    -23.7191E-03     45.6858E-03    -21.9626E-03     1.40434E-03     37.9276E+06     4.16829E+06    -51.8783E+06    -50.9151E+06     3.20502E+06     37.9276E+06    -4.38479E+06         25.3961
             208     11.7099E-03     115.743E-03     61.2849E-03     22.1701E-03    -96.0749E-03     20.4758E-03    -94.3806E-03     61.2849E-03     24.1462E-03     45.3558E-03    -21.4143E-03    -23.9385E-03    -23.9355E-03     45.3528E-03    -21.4143E-03     349.583E-06     40.1386E+06     2.24387E+06    -53.3509E+06    -50.5719E+06    -535.132E+03     40.1386E+06    -12.1098E+06         24.3963
             209     10.7402E-03     115.662E-03     68.9858E-03     49.8184E-03    -114.087E-03     46.2952E-03    -110.564E-03     68.9858E-03     47.5208E-03     45.1805E-03    -20.8329E-03    -24.3492E-03    -24.3389E-03     45.1701E-03    -20.8329E-03    -1.44172E-03     47.7291E+06     7.76895E+06    -46.3167E+06    -38.3961E+06    -151.596E+03     47.7291E+06    -15.9564E+06         23.7348
             210     9.77253E-03     115.593E-03     75.8344E-03     44.3454E-03    -109.398E-03     42.4837E-03    -107.536E-03     75.8344E-03     26.0804E-03     45.5563E-03    -20.1553E-03    -25.4012E-03    -25.3817E-03     45.5367E-03    -20.1553E-03    -2.35750E-03     55.0191E+06    -410.941E+03    -32.9610E+06    -26.3433E+06    -7.02863E+06     55.0191E+06    -10.7162E+06         23.3612
             211     8.80544E-03     115.533E-03     83.3742E-03     46.6885E-03    -100.926E-03     41.5266E-03    -95.7636E-03     83.3742E-03    -40.3874E-03     43.7694E-03    -19.3542E-03    -24.4184E-03    -24.3990E-03     43.7500E-03    -19.3542E-03    -2.29762E-03     54.5378E+06     257.854E+03    -23.6334E+06    -21.6589E+06    -1.71663E+06     54.5378E+06    -5.84148E+06         23.0940
             212     7.83402E-03     115.484E-03     92.8070E-03     78.1274E-03    -118.072E-03     74.9007E-03    -111.646E-03     89.6081E-03    -16.7623E-03     41.6456E-03    -18.5311E-03    -23.1150E-03    -23.0886E-03     41.6192E-03    -18.5311E-03    -2.58697E-03     44.8939E+06     3.26435E+06    -22.1620E+06    -19.1107E+06     213.048E+03     44.8939E+06    -8.07510E+06         22.8463
             213     6.86165E-03     115.445E-03     101.861E-03     92.4857E-03    -137.950E-03     100.185E-03    -136.275E-03     92.4857E-03     9.53087E-03     39.7803E-03    -17.7540E-03    -22.0233E-03    -21.9909E-03     39.7480E-03    -17.7540E-03    -2.82912E-03     41.8896E+06     10.0743E+06    -19.8438E+06    -11.2214E+06     1.45186E+06     41.8896E+06    -11.0358E+06         22.6294
             214     5.88700E-03     115.414E-03     99.7774E-03     91.9149E-03    -129.175E-03     97.6730E-03    -128.757E-03     93.6009E-03    -15.9858E-03     37.5128E-03    -17.0087E-03    -20.5036E-03    -20.4709E-03     37.4802E-03    -17.0087E-03    -2.74947E-03     37.9578E+06     8.44596E+06     -12.822E+06    -340.140E+03    -4.03590E+06     37.9578E+06    -10.4718E+06         22.4441
             215     4.91009E-03     115.391E-03     113.367E-03     91.1199E-03    -138.646E-03     111.401E-03    -138.366E-03     92.8060E-03     11.1212E-03     35.3894E-03    -16.3557E-03    -19.0333E-03    -19.0028E-03     35.3589E-03    -16.3557E-03    -2.57276E-03     41.5290E+06     14.7422E+06    -6.85735E+06     9.20574E+06    -1.32089E+06     41.5290E+06    -8.87022E+06         22.2838
             216     3.93131E-03     115.374E-03     135.122E-03     85.7522E-03    -173.303E-03     134.271E-03    -172.452E-03     85.7522E-03     31.9150E-03     33.3493E-03    -15.7659E-03    -17.5836E-03    -17.5610E-03     33.3267E-03    -15.7659E-03    -2.13920E-03     39.6989E+06     19.4705E+06    -4.28719E+06     17.0144E+06    -1.83109E+06     39.6989E+06    -7.03620E+06         22.1436
             217     2.94982E-03     115.362E-03     105.248E-03     71.7717E-03    -135.229E-03     99.3427E-03    -133.991E-03     76.4390E-03     5.05028E-03     31.5212E-03    -15.2635E-03    -16.2575E-03    -16.2429E-03     31.5067E-03    -15.2635E-03    -1.65736E-03     31.3269E+06     25.4758E+06    -1.32783E+06     24.7805E+06    -94.2545E+03     30.7886E+06    -5.61871E+06         22.0202
             218     1.96765E-03     115.354E-03     81.4485E-03     57.0562E-03    -89.6045E-03     47.7804E-03    -80.3288E-03     81.4485E-03     32.0912E-03     30.2970E-03    -14.9671E-03    -15.3294E-03    -15.3174E-03     30.2850E-03    -14.9671E-03    -1.47767E-03     31.2536E+06     26.4544E+06    -4.04967E+06     30.4657E+06    -3.26177E+06     26.4544E+06    -5.03394E+06         21.9203
             219     985.193E-06     115.351E-03     111.003E-03     77.9507E-03    -184.811E-03     68.8616E-03    -175.722E-03     111.003E-03     65.2799E-03     29.9549E-03    -14.4604E-03    -15.4944E-03    -15.4574E-03     29.9179E-03    -14.4604E-03    -2.44231E-03     50.6168E+06     38.3549E+06    -3.40168E+06     38.7879E+06     426.173E+03     46.3559E+06    -11.2197E+06         21.8621
             220    -2.70785E-06     114.325E-03     117.952E-03     98.3680E-03    -230.675E-03     94.0711E-03    -226.378E-03     117.952E-03     64.1722E-03     28.1668E-03    -13.1183E-03    -15.0489E-03    -14.0635E-03     28.0903E-03    -14.0272E-03    -3.55594E-03     53.5240E+06     27.8548E+06    -18.3807E+06     40.3360E+06    -13.1938E+06     35.8559E+06    -16.6420E+06         21.6936
             221     532.962E-09     113.296E-03     139.913E-03     115.004E-03    -277.108E-03     105.503E-03    -267.607E-03     139.913E-03    -30.1870E-03     22.0613E-03    -10.5022E-03    -11.5596E-03    -10.4553E-03     22.0144E-03    -11.5596E-03    -2.08435E-03     12.4004E+06    -10.3534E+06    -48.8721E+06     5.66576E+06    -47.2231E+06    -5.26775E+06    -8.56991E+06         21.3343
             222    -790.723E-09     112.277E-03     252.244E-03     225.571E-03    -568.096E-03     219.770E-03    -562.295E-03     252.244E-03    -91.5478E-03     15.3592E-03    -7.55626E-03    -7.80317E-03    -7.54169E-03     15.3446E-03    -7.80317E-03     519.529E-06    -39.4501E+06    -47.7329E+06    -71.9943E+06    -45.5109E+06    -71.0192E+06    -42.6472E+06     1.59718E+06         20.9699
             223     524.771E-09     111.265E-03     369.736E-03     326.788E-03    -774.841E-03     356.108E-03    -769.235E-03     334.810E-03    -130.270E-03     11.7363E-03    -5.80696E-03    -5.92940E-03    -5.80486E-03     11.7102E-03    -5.90543E-03     1.35259E-03    -73.7915E+06    -88.5058E+06    -100.406E+06    -91.6328E+06    -82.5646E+06    -88.5058E+06    -1.87385E+06         20.7251
             224    -435.860E-09     110.254E-03     450.823E-03     362.584E-03    -899.644E-03     371.470E-03    -873.605E-03     415.897E-03    -350.201E-03     9.92914E-03    -4.94458E-03    -4.98436E-03    -4.96425E-03     9.90903E-03    -4.94458E-03     1.09170E-03    -99.5705E+06    -141.151E+06    -150.396E+06    -145.177E+06    -102.152E+06    -143.788E+06    -10.8015E+06         20.6000
             225     397.050E-09     109.246E-03     601.786E-03     448.819E-03        -1.13891     465.621E-03        -1.05606     502.133E-03    -716.565E-03     9.36317E-03    -4.65995E-03    -4.70311E-03    -4.64074E-03     9.32815E-03    -4.68730E-03     1.34451E-03    -129.928E+06    -195.549E+06    -198.881E+06    -194.719E+06    -131.453E+06    -198.185E+06    -3.99946E+06         20.5944
             226    -489.465E-09     108.235E-03     772.947E-03     510.731E-03        -1.34344     622.566E-03        -1.19306     510.731E-03        -1.08570     11.3129E-03    -5.58401E-03    -5.72889E-03    -5.63748E-03     11.2488E-03    -5.61136E-03     2.08401E-03    -125.978E+06    -176.244E+06    -177.727E+06    -175.122E+06    -127.796E+06    -177.032E+06     6.96058E+06         20.7491
             227     619.013E-09     107.224E-03     945.011E-03     552.631E-03        -1.61961     707.937E-03        -1.38253     552.631E-03        -1.48131     16.1819E-03    -7.95974E-03    -8.22233E-03    -8.16558E-03     16.1252E-03    -7.95974E-03     2.27850E-03    -70.1204E+06    -88.1769E+06    -108.162E+06    -87.2260E+06    -93.6169E+06    -85.6160E+06     8.31890E+06         21.0533
             228    -308.563E-09     106.204E-03         1.19938     583.823E-03        -1.94061     864.688E-03        -1.60592     583.823E-03        -1.93776     22.0204E-03    -10.7905E-03    -11.2304E-03    -10.8977E-03     21.9826E-03    -11.0854E-03     2.22395E-03    -5.21420E+06    -12.4899E+06    -64.8770E+06    -9.28833E+06    -64.1512E+06    -9.14150E+06     4.06371E+06         21.4419
             229    -355.186E-09     105.178E-03         1.54747     546.787E-03        -2.25809         1.02935        -1.73997     546.787E-03        -2.59579     27.7280E-03    -13.6709E-03    -14.0576E-03    -13.7231E-03     27.6884E-03    -13.9658E-03     2.56122E-03     29.0652E+06     21.6812E+06    -58.1538E+06     25.6030E+06    -58.1484E+06     25.1379E+06     614.046E+03         21.8675
             230     553.605E-09     104.149E-03         1.89142     452.331E-03        -2.52255         1.23449        -1.86563     452.331E-03        -3.14011     34.1970E-03    -16.9403E-03    -17.2575E-03    -17.2220E-03     34.1615E-03    -16.9403E-03     2.66580E-03     55.7375E+06     49.9932E+06    -50.3644E+06     52.2781E+06    -50.3618E+06     53.4499E+06     514.631E+03         22.2992
             231    -155.626E-09     103.109E-03         2.25691     354.294E-03        -2.78766         1.54497        -2.07572     354.294E-03        -3.51257     40.1392E-03    -19.9233E-03    -20.2150E-03    -20.1258E-03     40.1163E-03    -19.9896E-03     2.32669E-03     70.2261E+06     66.2190E+06    -42.8379E+06     68.4991E+06    -42.8304E+06     67.9385E+06     880.233E+03         22.6870
             232     47.5062E-09     102.066E-03         2.55943     282.894E-03        -3.04676         1.79931        -2.28663     282.894E-03        -3.83728     44.0521E-03    -21.9499E-03    -22.1013E-03    -22.0190E-03     44.0362E-03    -22.0162E-03     2.04441E-03     58.7927E+06     56.7577E+06    -59.6559E+06     56.7214E+06    -59.6196E+06     58.7927E+06    -797.897E+03         22.9932
             233     127.270E-09     101.020E-03         2.85151     75.0329E-03        -3.15489         2.03714        -2.34052     75.0329E-03        -4.11134     46.7683E-03    -23.3145E-03    -23.4540E-03    -23.3790E-03     46.7477E-03    -23.3689E-03     2.37455E-03     52.9555E+06     50.8639E+06    -68.3989E+06     52.5232E+06    -68.2822E+06     51.1794E+06     908.517E+03         23.2250
             234    -268.098E-09     99.9707E-03         3.06928    -274.831E-03        -3.04142         2.31261        -2.28475    -274.831E-03        -4.01218     49.1683E-03    -24.4844E-03    -24.6850E-03    -24.4656E-03     49.1496E-03    -24.6850E-03     2.27541E-03     54.0209E+06     51.5412E+06    -63.8218E+06     53.1997E+06    -63.7041E+06     52.2448E+06     933.862E+03         23.3953
             235     409.106E-12     98.9206E-03         3.07085    -624.504E-03        -2.71575         2.56076        -2.20566    -624.504E-03        -3.25986     50.8616E-03    -25.2002E-03    -25.6628E-03    -25.5106E-03     50.8556E-03    -25.3463E-03     1.25660E-03     35.3499E+06     32.6399E+06    -79.4878E+06     31.7993E+06    -78.6473E+06     35.3499E+06    -7.95804E+06         23.5087
             236     668.718E-09     97.8681E-03         3.10833    -883.747E-03        -2.49420         2.87598        -2.26184    -883.747E-03        -2.06910     51.9802E-03    -25.6694E-03    -26.3113E-03    -26.3059E-03     51.9748E-03    -25.6694E-03     1.22315E-03     13.6058E+06     8.36257E+06    -105.014E+06     10.7801E+06    -104.194E+06     10.3690E+06    -7.40774E+06         23.5815
             237    -69.2304E-09     96.8142E-03         3.21474        -1.06429        -2.46547         3.17628        -2.42701        -1.06429    -522.720E-03     52.5709E-03    -25.9640E-03    -26.6070E-03    -26.2843E-03     52.5658E-03    -26.2815E-03     1.17487E-03     7.71354E+06     4.33651E+06    -115.356E+06     7.55677E+06    -115.339E+06     4.47681E+06    -162.863E+03         23.6293
             238    -530.714E-09     95.7611E-03         3.52903        -1.37213        -2.49201         3.38136        -2.34434        -1.37213         1.44124     52.6291E-03    -26.1079E-03    -26.5212E-03    -26.1054E-03     52.6266E-03    -26.5212E-03     871.434E-06    -5.38925E+06    -6.61558E+06    -126.127E+06    -6.77398E+06    -125.969E+06    -5.38925E+06    -2.34595E+06         23.6576
             239     373.645E-09     94.7072E-03         4.25953        -1.81134        -2.77251         3.53511        -2.04809        -1.81134         4.09335     53.1651E-03    -26.4967E-03    -26.6678E-03    -26.5636E-03     53.1566E-03    -26.5924E-03     1.57102E-03    -18.5583E+06    -20.7752E+06    -141.908E+06     -21.262E+06    -141.422E+06    -18.5583E+06    -7.54805E+06         23.6763
             240    -202.355E-09     93.6518E-03         5.48066        -2.06024        -3.73560         3.54850        -1.80344        -2.06024         7.40436     53.7437E-03    -26.7401E-03    -27.0034E-03    -26.9922E-03     53.7324E-03    -26.7401E-03     1.89563E-03    -23.4377E+06    -28.4329E+06    -152.903E+06    -25.1704E+06    -152.301E+06    -27.3020E+06    -8.74905E+06         23.6901
             241     531.423E-09     92.5975E-03         6.96794        -2.16002        -5.11034         3.49503        -1.63743        -2.16002         10.9055     53.4344E-03    -26.6144E-03    -26.8209E-03    -26.8142E-03     53.4278E-03    -26.6144E-03     1.43369E-03    -36.3956E+06    -42.5285E+06    -163.001E+06    -38.9507E+06    -162.714E+06      -40.26E+06    -5.24289E+06         23.6934
             242    -452.006E-09     91.5442E-03         8.59937        -2.26771        -6.64402         3.53080        -1.57545        -2.26771         14.3521     53.0785E-03    -26.4310E-03    -26.6479E-03    -26.4447E-03     53.0735E-03    -26.6293E-03     1.25320E-03    -49.8040E+06    -53.0187E+06    -181.015E+06    -52.0983E+06    -180.989E+06    -50.7502E+06    -1.73898E+06         23.6877
             243     64.4833E-09     90.4900E-03         10.2921        -2.22049        -8.40522         3.50509        -1.61822        -2.22049         17.9735     53.1868E-03    -26.3637E-03    -26.8228E-03    -26.6207E-03     53.1830E-03    -26.5619E-03     1.07531E-03    -50.6204E+06    -53.9867E+06    -192.471E+06    -53.1652E+06    -192.347E+06    -51.5666E+06    -3.53210E+06         23.6841
             244     491.848E-09     89.4362E-03         11.9257        -2.13789        -10.1453         3.30316        -1.52269        -2.13789         21.5278     53.0766E-03    -26.3730E-03    -26.7029E-03    -26.6309E-03     53.0736E-03    -26.4420E-03     960.271E-06    -50.4422E+06    -56.5801E+06    -201.492E+06    -53.0325E+06    -201.322E+06    -54.1600E+06    -4.88844E+06         23.6836
             245    -660.845E-09     88.3833E-03         13.3876        -2.08417        -11.6487         3.03641        -1.29748        -2.08417         24.6537     52.8809E-03    -26.3213E-03    -26.5593E-03    -26.4882E-03     52.8788E-03    -26.3903E-03     668.137E-06    -48.1496E+06    -51.9825E+06    -205.920E+06    -48.2631E+06    -205.806E+06    -51.9825E+06    -4.22610E+06         23.6768
             246     1.00698E-06     87.3288E-03         14.7313        -1.89703        -13.1695         2.71742        -1.15567        -1.89703         27.6271     52.7238E-03    -26.1602E-03    -26.5632E-03    -26.5577E-03     52.7182E-03    -26.1602E-03     1.03243E-03    -55.4947E+06    -60.4026E+06    -216.916E+06    -60.3491E+06    -216.854E+06    -55.6100E+06    -2.16414E+06         23.6620
             247    -481.716E-09     86.2758E-03         15.8360        -1.62825        -14.5471         2.36615        -1.07726        -1.62825         30.1856     52.4837E-03    -26.0525E-03    -26.4310E-03    -26.4254E-03     52.4782E-03    -26.0525E-03     1.04169E-03    -53.0621E+06    -63.1553E+06    -223.815E+06    -57.8674E+06    -223.802E+06    -58.3626E+06    -1.01468E+06         23.6494
             248     711.775E-09     85.2237E-03         16.6529        -1.36893        -15.6031         1.97689    -927.114E-03        -1.36893         32.1223     52.3022E-03    -26.0769E-03    -26.2251E-03    -26.2201E-03     52.3009E-03    -26.0807E-03     545.105E-06    -49.4587E+06    -57.2169E+06    -225.842E+06    -52.1113E+06    -225.648E+06    -54.7592E+06     2.90495E+06         23.6478
             249    -667.034E-09     84.1708E-03         17.0464        -1.04726        -16.3162         1.50734    -777.227E-03        -1.04726         33.2829     52.7942E-03    -26.3000E-03    -26.4953E-03    -26.2953E-03     52.7895E-03    -26.4953E-03     1.18309E-03    -51.6582E+06    -54.1201E+06    -229.720E+06    -54.3067E+06    -229.529E+06    -51.6623E+06     4.82980E+06         23.6539
             250     306.058E-09     83.1160E-03         17.0159    -586.731E-03        -16.7736         1.11656    -874.238E-03    -586.731E-03         33.7307     52.8824E-03    -26.3166E-03    -26.5661E-03    -26.3697E-03     52.8776E-03    -26.5082E-03     1.20191E-03    -51.1737E+06    -52.0638E+06    -228.395E+06    -52.3067E+06    -228.148E+06    -51.1779E+06    -3.67071E+06         23.6600
             251    -161.346E-09     82.0630E-03         16.7507    -150.546E-03        -16.9210     721.334E-03    -891.550E-03    -150.546E-03         33.6312     52.1680E-03    -25.9990E-03    -26.1685E-03    -26.1633E-03     52.1627E-03    -25.9990E-03     1.23696E-03    -49.4401E+06    -54.6576E+06    -228.919E+06    -50.6209E+06    -228.624E+06    -53.7717E+06    -2.27191E+06         23.6659
             252     332.943E-09     81.0120E-03         16.1852     261.432E-03        -16.7648     70.6967E-03    -650.300E-03     261.432E-03         32.9382     52.4581E-03    -26.1015E-03    -26.3567E-03    -26.3526E-03     52.4540E-03    -26.1015E-03     955.294E-06    -47.9396E+06    -54.7883E+06    -228.876E+06    -50.5132E+06    -228.820E+06    -52.2712E+06     2.12419E+06         23.6747
             253    -1.22036E-09     79.9580E-03         15.3037     732.812E-03        -16.3730    -536.789E-03    -532.549E-03     732.812E-03         31.6761     52.9464E-03    -26.3112E-03    -26.6339E-03    -26.6332E-03     52.9458E-03    -26.3112E-03     443.229E-06    -49.1231E+06    -52.4562E+06    -227.971E+06    -52.4848E+06    -227.943E+06    -49.1231E+06     1.43887E+06         23.6814
             254     379.789E-09     78.9047E-03         14.0078         1.28239        -15.6123        -1.09626    -508.239E-03         1.28239         29.6115     52.6511E-03    -26.0850E-03    -26.5653E-03    -26.2604E-03     52.6474E-03    -26.3863E-03     984.440E-06    -45.4674E+06    -47.9651E+06    -225.209E+06    -46.3328E+06    -225.160E+06    -47.1491E+06     209.749E+03         23.6829
             255    -977.131E-09     77.8506E-03         12.5225         1.80686        -14.6498        -1.78226    -344.994E-03         1.80686         27.1289     52.7177E-03    -26.0132E-03    -26.7041E-03    -26.3968E-03     52.7116E-03    -26.3145E-03     1.38547E-03    -52.3550E+06    -54.3491E+06    -232.365E+06    -52.8593E+06    -232.173E+06    -54.0367E+06     2.53329E+06         23.6857
             256     1.75630E-06     76.7981E-03         10.8728         2.28021        -13.4641        -2.37592    -215.330E-03         2.28021         24.2377     53.1209E-03    -26.3519E-03    -26.7681E-03    -26.7358E-03     53.1152E-03    -26.3785E-03     1.34685E-03    -46.8881E+06    -49.8761E+06    -230.517E+06    -50.0518E+06    -230.341E+06    -46.8881E+06     3.24505E+06         23.6895
             257    -1.75946E-06     75.7440E-03         9.05812         2.83079        -12.2271        -2.99518    -173.808E-03         2.83079         21.0883     52.9260E-03    -26.4226E-03    -26.5031E-03    -26.4725E-03     52.9220E-03    -26.4491E-03     1.10750E-03    -41.2645E+06    -44.5660E+06    -226.175E+06    -43.9765E+06    -226.139E+06    -41.8903E+06    -2.35868E+06         23.6856
             258     1.87559E-06     74.6906E-03         7.26938         3.32427        -10.9355        -3.66831     2.18456E-03         3.32427         17.8143     52.3962E-03    -26.1267E-03    -26.2697E-03    -26.2631E-03     52.3896E-03    -26.1267E-03     1.35637E-03    -43.9479E+06    -45.1922E+06    -226.322E+06    -44.6026E+06    -226.285E+06    -44.5737E+06    -1.03569E+06         23.6755
             259    -1.68502E-06     73.6381E-03         5.48282         3.77019        -9.57045        -4.28312     195.488E-03         3.77019         14.3439     52.0698E-03    -25.8396E-03    -26.2312E-03    -25.9191E-03     52.0602E-03    -26.1421E-03     1.72227E-03    -41.5493E+06    -45.3164E+06    -225.154E+06    -42.1776E+06    -225.144E+06    -44.6978E+06    -26.6451E+03         23.6685
             260     1.06526E-06     72.5856E-03         4.56268         3.47055        -8.37117        -4.91580     288.229E-03         4.28964         10.8902     52.1852E-03    -25.7243E-03    -26.4607E-03    -26.1525E-03     52.1795E-03    -26.0268E-03     1.29756E-03    -39.1477E+06    -43.8641E+06    -222.704E+06    -40.7299E+06    -222.690E+06    -42.2963E+06     227.518E+03         23.6664
             261    -181.838E-09     71.5332E-03         4.81640         2.28020        -7.43611        -5.51591     360.005E-03         4.81640         7.64032     52.0488E-03    -25.7252E-03    -26.3227E-03    -26.3199E-03     52.0460E-03    -25.7252E-03     934.412E-06    -40.7157E+06    -44.0863E+06    -222.454E+06    -44.1083E+06    -222.432E+06    -40.7157E+06    -150.575E+03         23.6667
             262     542.621E-09     70.4813E-03         5.29565         1.31908        -6.92820        -6.14589     536.765E-03         5.29565         4.60408     52.0079E-03    -25.7875E-03    -26.2212E-03    -25.9455E-03     52.0024E-03    -26.0576E-03     1.26028E-03    -40.9778E+06    -45.5721E+06    -221.947E+06    -42.8039E+06    -221.924E+06    -43.7693E+06    -2.04128E+06         23.6715
             263    -1.09507E-06     69.4279E-03         5.77088     930.004E-03        -7.00845        -6.83574     757.296E-03         5.77088         1.90163     52.2396E-03    -25.9572E-03    -26.2832E-03    -25.9524E-03     52.2348E-03    -26.2832E-03     1.09177E-03    -39.5560E+06    -42.8830E+06    -217.705E+06    -39.5933E+06    -217.668E+06    -42.8830E+06     550.349E+03         23.6826
             264     997.156E-09     68.3753E-03         6.33381     805.195E-03        -7.47142        -7.43184     765.620E-03         6.33381    -426.692E-03     52.3277E-03    -25.9468E-03    -26.3828E-03    -26.3213E-03     52.3221E-03    -26.0028E-03     1.16627E-03    -40.0955E+06    -43.9931E+06    -216.310E+06    -43.5110E+06    -216.257E+06    -40.6310E+06     3.03657E+06         23.6960
             265    -203.791E-09     67.3225E-03         6.90938     938.392E-03        -8.18338        -7.99839     753.407E-03         6.90938        -2.43999     52.4850E-03    -25.9896E-03    -26.4963E-03    -26.3635E-03     52.4789E-03    -26.1162E-03     1.30665E-03    -41.1780E+06    -46.4804E+06    -218.626E+06    -44.5704E+06    -218.596E+06    -43.1184E+06     940.287E+03         23.7009
             266    -50.9770E-09     66.2695E-03         7.36298         1.30210        -9.00394        -8.57330     871.466E-03         7.36298        -4.09136     52.3450E-03    -26.0703E-03    -26.2751E-03    -26.1464E-03     52.3429E-03    -26.1969E-03     818.162E-06    -43.1382E+06     -45.264E+06    -219.654E+06    -43.3556E+06    -219.622E+06    -45.0786E+06     1.00640E+06         23.6961
             267     221.331E-09     65.2167E-03         7.90089         1.51303        -9.79362        -9.09574     815.140E-03         7.90089        -5.42092     52.2057E-03    -26.0438E-03    -26.1627E-03    -26.1570E-03     52.2000E-03    -26.0438E-03     1.26580E-03    -40.0669E+06    -43.5578E+06    -214.987E+06    -43.5949E+06    -214.950E+06    -40.0669E+06     719.424E+03         23.6965
             268    -89.0400E-09     64.1634E-03         8.47733         1.65468        -10.5278        -9.57506     701.948E-03         8.47733        -6.53521     52.3562E-03    -26.0764E-03    -26.2789E-03    -26.2688E-03     52.3461E-03    -26.0764E-03     1.78175E-03    -37.3733E+06    -45.3720E+06    -214.715E+06    -40.7494E+06    -214.644E+06    -42.0665E+06    -3.21207E+06         23.7060
             269     351.348E-09     63.1104E-03         8.91293         1.88102        -11.1907        -10.0250     715.379E-03         8.91293        -7.44775     52.2766E-03    -25.9579E-03    -26.3183E-03    -26.1138E-03     52.2707E-03    -26.1564E-03     1.21090E-03    -40.1042E+06    -45.5315E+06    -216.764E+06    -40.9101E+06    -216.693E+06    -44.7974E+06    -1.44035E+06         23.7173
             270    -710.306E-09     62.0598E-03         9.43372         1.89087        -11.7279        -10.4392     602.166E-03         9.43372        -7.97224     52.3335E-03    -26.0290E-03    -26.3041E-03    -26.1049E-03     52.3328E-03    -26.2276E-03     415.196E-06    -43.4346E+06    -44.8969E+06    -217.541E+06    -44.9259E+06    -217.512E+06    -43.4346E+06    -374.600E+03         23.7285
             271     888.671E-09     61.0052E-03         10.0310         1.77277        -12.2162        -10.7709     327.437E-03         10.0310        -8.50876     52.7501E-03    -26.2439E-03    -26.5059E-03    -26.5034E-03     52.7476E-03    -26.2439E-03     752.566E-06    -40.1438E+06    -41.8003E+06    -214.241E+06    -40.9284E+06    -214.184E+06    -41.0722E+06    -3.08732E+06         23.7399
             272    -523.555E-09     59.9518E-03         10.4772         1.74026        -12.6296        -11.0649     175.587E-03         10.4772        -8.95192     52.6264E-03    -26.0973E-03    -26.5294E-03    -26.2785E-03     52.6221E-03    -26.3439E-03     1.16419E-03    -37.7777E+06    -38.9145E+06    -213.436E+06    -37.9141E+06    -213.300E+06    -38.9145E+06     1.17411E+06         23.7473
             273     59.4726E-09     58.8986E-03         10.8418         1.73636        -12.9973        -11.3798     118.942E-03         10.8418        -9.21096     52.5967E-03    -26.0215E-03    -26.5747E-03    -26.3217E-03     52.5903E-03    -26.2682E-03     1.38780E-03    -42.3919E+06    -43.3419E+06    -219.575E+06    -43.3301E+06    -219.378E+06    -42.6003E+06     5.88685E+06         23.7520
             274     16.5662E-03     57.0059E-03     251.052E-03    -39.8162E-03    -651.855E-03     250.308E-03    -651.111E-03    -39.8162E-03    -31.0869E-03     52.3164E-03    -25.3640E-03    -26.9544E-03    -24.5457E-03     50.7564E-03    -26.2127E-03     10.8964E-03     206.301E+06     102.525E+06    -6.82879E+06    -6.82656E+06     206.299E+06     102.525E+06     75.0823E+03         33.5345
             275     15.5915E-03     56.9741E-03     180.941E-03    -54.8047E-03    -567.455E-03     178.939E-03    -565.452E-03    -54.8047E-03     10.7179E-03     52.5266E-03    -25.7871E-03    -26.7380E-03    -24.7416E-03     50.7393E-03    -25.9963E-03     22.2701E-03     192.415E+06     49.3108E+06    -11.5150E+06    -11.5133E+06     192.414E+06     49.3108E+06    -289.609E+03         31.5188
             276     14.6161E-03     56.9587E-03     135.729E-03    -67.7099E-03    -511.994E-03     133.307E-03    -509.571E-03    -67.7099E-03     11.3199E-03     52.1353E-03    -25.6705E-03    -26.4680E-03    -25.0135E-03     50.8899E-03    -25.8796E-03     19.0986E-03     133.898E+06      3.1959E+06    -14.1819E+06    -14.0612E+06     133.879E+06     3.09372E+06     728.402E+03         29.6884
             277     13.6411E-03     56.9336E-03     84.9809E-03    -79.0965E-03    -452.548E-03     82.7268E-03    -450.294E-03    -79.0965E-03     3.00407E-03     52.8140E-03    -25.9646E-03    -26.8410E-03    -25.4370E-03     51.4101E-03    -25.9646E-03     20.7391E-03     46.5055E+06    -11.1471E+06    -15.4961E+06    -15.2209E+06     46.3325E+06    -11.2493E+06     2.05912E+06         28.2045
             278     12.6662E-03     56.9157E-03     35.1239E-03    -88.5046E-03    -397.255E-03     33.9298E-03    -396.061E-03    -88.5046E-03     32.2724E-03     52.6954E-03    -26.0933E-03    -26.6080E-03    -25.6747E-03     51.7621E-03    -26.0933E-03     17.0925E-03    -1.30710E+06    -11.1419E+06    -27.7694E+06    -14.1123E+06    -16.4860E+06    -9.62011E+06     770.995E+03         27.0863
             279     11.6916E-03     56.8978E-03     13.4567E-03    -96.6695E-03    -368.806E-03     9.67203E-03    -365.022E-03    -96.6695E-03     50.7835E-03     52.6787E-03    -26.1783E-03    -26.5434E-03    -25.7790E-03     51.9143E-03    -26.1783E-03     15.4545E-03    -10.0649E+06    -13.5936E+06    -57.8159E+06    -13.6813E+06    -57.7282E+06    -10.0649E+06    -1.73788E+06         26.3126
             280     10.7166E-03     56.8833E-03    -22.9265E-03    -103.554E-03    -323.730E-03    -29.4511E-03    -317.206E-03    -103.554E-03     15.6215E-03     52.8155E-03    -26.2736E-03    -26.5845E-03    -25.9738E-03     52.2048E-03    -26.2736E-03     13.8586E-03    -5.47548E+06    -15.4344E+06    -91.1248E+06    -15.5076E+06    -91.0516E+06    -5.47548E+06    -1.85137E+06         25.7751
             281     9.74286E-03     56.8690E-03    -54.1967E-03    -109.243E-03    -285.480E-03    -79.5673E-03    -261.901E-03    -107.451E-03     42.3127E-03     52.9332E-03    -26.3267E-03    -26.6261E-03    -26.0909E-03     52.3981E-03    -26.3267E-03     13.0023E-03    -4.91691E+06    -16.9204E+06    -114.839E+06    -16.9281E+06    -114.832E+06    -4.91691E+06    -402.219E+03         25.3533
             282     8.76797E-03     56.8557E-03    -60.6292E-03    -110.314E-03    -280.015E-03    -99.2319E-03    -243.203E-03    -108.523E-03     12.7607E-03     52.9231E-03    -26.3824E-03    -26.5569E-03    -26.0961E-03     52.4622E-03    -26.3824E-03     12.0470E-03    -5.45487E+06    -17.7052E+06    -139.356E+06    -17.7095E+06    -139.352E+06    -5.45487E+06     312.525E+03         25.0036
             283     7.79373E-03     56.8437E-03    -41.6657E-03    -108.820E-03    -303.076E-03    -99.6318E-03    -245.110E-03    -108.820E-03     68.1415E-03     52.9652E-03    -26.4661E-03    -26.5172E-03    -26.1492E-03     52.5972E-03    -26.4661E-03     10.7733E-03    -775.753E+03    -18.3076E+06    -161.098E+06    -18.3124E+06    -161.093E+06    -775.753E+03     8.92135E+03         24.7209
             284     6.81922E-03     56.8332E-03    -23.7234E-03    -108.657E-03    -322.895E-03    -108.500E-03    -238.119E-03    -108.657E-03     5.33492E-03     52.9585E-03    -26.4463E-03    -26.5096E-03    -26.1553E-03     52.6488E-03    -26.4908E-03     9.89678E-03    -5.13805E+06    -20.7219E+06    -172.106E+06    -20.7542E+06    -172.073E+06    -5.13805E+06    -1.13286E+06         24.4919
             285     5.84484E-03     56.8231E-03     12.9683E-03    -106.948E-03    -362.314E-03    -118.782E-03    -230.563E-03    -106.948E-03     86.9691E-03     53.0487E-03    -26.4805E-03    -26.5635E-03    -26.2559E-03     52.7856E-03    -26.5251E-03     9.11685E-03    -9.95171E+06    -24.6452E+06    -187.214E+06    -24.6867E+06    -187.172E+06    -9.95171E+06    -1.75906E+06         24.3080
             286     4.87082E-03     56.8138E-03     132.157E-03    -105.987E-03    -486.261E-03    -98.8473E-03    -255.257E-03    -105.987E-03    -153.458E-03     53.1715E-03    -26.5457E-03    -26.6259E-03    -26.4229E-03     52.9773E-03    -26.5544E-03     7.81926E-03    -11.4693E+06    -26.5834E+06    -201.452E+06    -26.6069E+06    -201.428E+06    -11.4693E+06    -504.590E+03         24.1623
             287     3.89626E-03     56.8065E-03     353.058E-03    -111.286E-03    -695.775E-03    -69.9314E-03    -272.785E-03    -111.286E-03     283.833E-03     53.1012E-03    -26.4945E-03    -26.6058E-03    -26.4067E-03     52.9650E-03    -26.5573E-03     6.56361E-03    -16.3241E+06    -28.0035E+06    -211.086E+06    -28.0264E+06    -211.063E+06    -16.3241E+06     1.08015E+06         24.0460
             288     2.92237E-03     56.8003E-03     728.518E-03    -121.994E-03        -1.05561    -85.8665E-03    -241.230E-03    -121.994E-03    -466.913E-03     53.0475E-03    -26.4881E-03    -26.5591E-03    -26.3993E-03     52.9587E-03    -26.5591E-03     5.22956E-03    -23.6035E+06    -31.5973E+06    -216.914E+06    -31.6118E+06    -216.899E+06    -23.6035E+06     873.539E+03         23.9576
             289     1.94791E-03     56.7960E-03         1.44626    -124.946E-03        -1.76703    -135.728E-03    -185.036E-03    -124.946E-03     969.414E-03     53.1311E-03    -26.5215E-03    -26.6115E-03    -26.5547E-03     53.0912E-03    -26.5384E-03     3.43305E-03    -27.5455E+06    -35.6545E+06    -215.904E+06    -35.6718E+06    -215.886E+06    -27.5455E+06     531.457E+03         23.8863
             290     974.881E-06     56.7934E-03         6.76558     793.856E-03        -7.99380        -5.98404    -188.896E-03         5.73857        -3.02337     52.9237E-03    -26.2428E-03    -26.6823E-03    -26.5344E-03     52.9130E-03    -26.3800E-03     1.60352E-03    -32.5375E+06    -38.8582E+06    -212.862E+06    -38.1216E+06    -212.844E+06    -33.2920E+06    -182.881E+03         23.8126
             291     16.5672E-03     55.9526E-03     277.415E-03     13.7353E-03    -741.316E-03     276.990E-03    -740.891E-03     13.7353E-03     4.82282E-03     52.3193E-03    -25.4405E-03    -26.8822E-03    -24.4983E-03     50.6970E-03    -26.2022E-03     10.8132E-03     206.365E+06     102.373E+06    -6.43735E+06    -6.43259E+06     206.360E+06     102.373E+06    -26.3484E+03         33.5186
             292     15.5913E-03     55.9210E-03     215.907E-03     203.444E-06    -673.448E-03     215.243E-03    -672.783E-03     203.444E-06     23.0953E-03     52.4438E-03    -25.7751E-03    -26.6692E-03    -24.6042E-03     50.5929E-03    -25.9892E-03     22.6467E-03     191.678E+06     48.0886E+06    -12.1445E+06    -12.1349E+06     191.669E+06     48.0886E+06     577.513E+03         31.5037
             293     14.6161E-03     55.9057E-03     157.326E-03    -10.8922E-03    -606.638E-03     156.350E-03    -605.661E-03    -10.8922E-03    -1.54048E-03     52.1402E-03    -25.6635E-03    -26.4809E-03    -24.9818E-03     50.8552E-03    -25.8775E-03     19.4251E-03     133.131E+06     1.68653E+06    -15.4881E+06    -15.3599E+06     133.105E+06     1.58435E+06     935.514E+03         29.6748
             294     13.6406E-03     55.8810E-03     111.603E-03    -19.9113E-03    -554.361E-03     110.083E-03    -552.841E-03    -19.9113E-03     7.17691E-03     52.8318E-03    -25.9601E-03    -26.8626E-03    -25.4327E-03     51.4018E-03    -25.9601E-03     20.9200E-03     46.7953E+06    -12.5246E+06    -14.7230E+06    -14.5742E+06     46.7488E+06    -12.6268E+06     443.750E+03         28.1944
             295     12.6662E-03     55.8617E-03     67.0606E-03    -26.9508E-03    -504.290E-03     65.9803E-03    -503.210E-03    -26.9508E-03     22.8367E-03     52.7185E-03    -26.0895E-03    -26.6366E-03    -25.7092E-03     51.7911E-03    -26.0895E-03     17.0398E-03    -1.16304E+06    -12.2638E+06    -25.1446E+06    -13.7910E+06    -14.5471E+06    -10.2334E+06    -214.980E+03         27.0815
             296     11.6914E-03     55.8455E-03     37.3385E-03    -32.2817E-03    -470.116E-03     35.0192E-03    -467.797E-03    -32.2817E-03     31.9536E-03     52.7661E-03    -26.1728E-03    -26.6429E-03    -25.8868E-03     52.0100E-03    -26.1728E-03     15.3944E-03    -10.5668E+06    -14.5510E+06    -56.6108E+06    -14.5837E+06    -56.5781E+06    -10.5668E+06    -851.459E+03         26.3122
             297     10.7171E-03     55.8295E-03     16.2934E-03    -36.2588E-03    -445.463E-03     11.5483E-03    -440.718E-03    -36.2588E-03    -176.549E-06     52.8251E-03    -26.2636E-03    -26.6084E-03    -25.9980E-03     52.2147E-03    -26.2636E-03     13.8578E-03    -6.08687E+06    -15.7804E+06    -91.8294E+06    -15.7982E+06    -91.8116E+06    -6.08687E+06    -1.07413E+06         25.7750
             298     9.74226E-03     55.8159E-03    -10.2373E-03    -40.1426E-03    -414.428E-03    -20.7290E-03    -405.727E-03    -38.3513E-03     22.2792E-03     52.8731E-03    -26.3258E-03    -26.5748E-03    -26.0421E-03     52.3404E-03    -26.3258E-03     12.9621E-03    -4.70857E+06    -17.5207E+06    -116.462E+06    -17.5275E+06    -116.455E+06    -4.70857E+06    -487.687E+03         25.3522
             299     8.76806E-03     55.8026E-03    -23.8967E-03    -39.9757E-03    -403.443E-03    -42.1877E-03    -387.029E-03    -38.0991E-03    -22.0601E-03     52.8857E-03    -26.3743E-03    -26.5365E-03    -26.0761E-03     52.4253E-03    -26.3743E-03     12.0385E-03    -6.99303E+06    -18.3143E+06    -138.653E+06    -18.3234E+06    -138.644E+06    -6.99303E+06    -662.475E+03         25.0019
             300     7.79344E-03     55.7905E-03    -10.0471E-03    -36.4157E-03    -424.235E-03    -47.6711E-03    -386.696E-03    -36.3303E-03     51.9224E-03     52.9166E-03    -26.4399E-03    -26.4938E-03    -26.1133E-03     52.5516E-03    -26.4554E-03     10.7186E-03    -3.36361E+06    -19.2456E+06    -161.090E+06    -19.2549E+06    -161.081E+06    -3.36361E+06    -897.674E+03         24.7196
             301     6.81916E-03     55.7800E-03     3.22539E-03    -33.8281E-03    -440.510E-03    -48.1699E-03    -389.114E-03    -33.8281E-03     6.11727E-03     53.0008E-03    -26.4743E-03    -26.5252E-03    -26.2006E-03     52.6917E-03    -26.4898E-03     9.89298E-03    -5.28138E+06    -21.1049E+06    -172.390E+06    -21.1071E+06    -172.388E+06    -5.28138E+06     65.8864E+03         24.4926
             302     5.84491E-03     55.7697E-03     52.0377E-03    -31.2617E-03    -492.338E-03    -41.3035E-03    -398.997E-03    -31.2617E-03     129.693E-03     53.0511E-03    -26.4954E-03    -26.5548E-03    -26.2750E-03     52.7791E-03    -26.5032E-03     9.27938E-03    -11.8690E+06    -23.0558E+06    -185.649E+06    -23.0681E+06    -185.637E+06    -11.8690E+06    -607.075E+03         24.3093
             303     4.87046E-03     55.7606E-03     163.085E-03    -28.5820E-03    -609.984E-03    -40.7548E-03    -406.144E-03    -28.5820E-03    -150.437E-03     53.0341E-03    -26.4801E-03    -26.5558E-03    -26.2939E-03     52.8292E-03    -26.5371E-03     8.02166E-03    -16.5097E+06    -26.6170E+06    -203.435E+06    -26.6318E+06    -203.420E+06    -16.5097E+06    -1.40332E+06         24.1639
             304     3.89655E-03     55.7531E-03     352.278E-03    -24.3641E-03    -800.391E-03    -43.6913E-03    -404.421E-03    -24.3641E-03     265.702E-03     53.0730E-03    -26.4857E-03    -26.5859E-03    -26.3516E-03     52.9351E-03    -26.5821E-03     6.58733E-03    -18.5905E+06    -29.6286E+06    -212.822E+06    -29.6411E+06    -212.810E+06    -18.5905E+06     89.0606E+03         24.0484
             305     2.92186E-03     55.7472E-03     759.771E-03    -22.6992E-03        -1.20712    -14.6708E-03    -432.683E-03    -22.6992E-03    -560.603E-03     53.1254E-03    -26.5065E-03    -26.6189E-03    -26.4225E-03     53.0376E-03    -26.6150E-03     5.23300E-03    -20.9244E+06    -30.6432E+06    -215.137E+06    -30.6566E+06    -215.124E+06    -20.9244E+06     1.23138E+06         23.9589
             306     1.94815E-03     55.7420E-03         1.54523    -26.6039E-03        -1.98729    -14.3014E-03    -427.765E-03    -26.6039E-03         1.02043     53.1353E-03    -26.4931E-03    -26.6445E-03    -26.4540E-03     53.0936E-03    -26.6419E-03     3.49157E-03    -26.2387E+06    -33.1510E+06    -214.407E+06    -33.1636E+06    -214.395E+06    -26.2387E+06    -148.471E+03         23.8868
             307     973.227E-06     55.7402E-03         6.94441     879.904E-03        -8.28801        -5.96573    -402.088E-03         5.90413        -3.22707     53.2466E-03    -26.4514E-03    -26.7963E-03    -26.6969E-03     53.2347E-03    -26.5389E-03     1.80112E-03    -32.2629E+06    -37.5934E+06    -213.749E+06    -36.8520E+06    -213.736E+06    -33.0174E+06    -1.40977E+06         23.8136
             308     16.5667E-03     54.9006E-03     277.264E-03     69.5521E-03    -815.245E-03     276.893E-03    -814.874E-03     69.5521E-03     38.9469E-03     52.3253E-03    -25.3514E-03    -26.9746E-03    -24.4229E-03     50.6347E-03    -26.2125E-03     11.1449E-03     205.861E+06     102.602E+06    -6.77872E+06    -6.77419E+06     205.857E+06     102.602E+06     425.769E+03         33.5087
             309     15.5909E-03     54.8677E-03     237.412E-03     58.8824E-03    -770.402E-03     235.988E-03    -768.977E-03     58.8824E-03     58.7049E-03     52.5744E-03    -25.8177E-03    -26.7568E-03    -24.6906E-03     50.6852E-03    -25.9947E-03     22.7213E-03     191.337E+06      47.595E+06    -12.0561E+06    -12.0462E+06     191.327E+06      47.595E+06     1.10308E+06         31.4938
             310     14.6154E-03     54.8530E-03     184.733E-03     50.1898E-03    -712.248E-03     182.845E-03    -710.360E-03     50.1898E-03     14.1136E-03     52.2213E-03    -25.6986E-03    -26.5264E-03    -25.1081E-03     50.9800E-03    -25.8757E-03     19.0487E-03     133.981E+06     1.53748E+06     -14.323E+06    -14.3134E+06     133.971E+06     1.53748E+06     320.425E+03         29.6655
             311     13.6412E-03     54.8272E-03     144.093E-03     43.5091E-03    -663.258E-03     142.360E-03    -661.525E-03     43.5091E-03     11.7929E-03     52.8229E-03    -25.9520E-03    -26.8611E-03    -25.4535E-03     51.4153E-03    -25.9520E-03     20.7650E-03     47.8127E+06    -13.4358E+06    -14.9880E+06    -14.9622E+06     47.7869E+06    -13.4358E+06    -720.264E+03         28.1873
             312     12.6660E-03     54.8093E-03     107.542E-03     38.6227E-03    -623.629E-03     106.303E-03    -622.391E-03     38.6227E-03     33.4816E-03     52.6835E-03    -26.0780E-03    -26.6070E-03    -25.6887E-03     51.7651E-03    -26.0780E-03     16.9511E-03    -1.27884E+06    -14.0224E+06    -26.3768E+06    -14.8020E+06    -14.8029E+06    -12.0731E+06    -757.080E+03         27.0771
             313     11.6916E-03     54.7915E-03     66.5267E-03     35.8963E-03    -584.762E-03     65.4229E-03    -583.659E-03     35.8963E-03     27.7644E-03     52.8235E-03    -26.1638E-03    -26.7016E-03    -25.9490E-03     52.0709E-03    -26.1638E-03     15.3720E-03    -11.2074E+06    -14.5258E+06    -56.8065E+06    -14.5466E+06    -56.7857E+06    -11.2074E+06    -287.005E+03         26.3095
             314     10.7172E-03     54.7768E-03     54.6613E-03     34.8684E-03    -570.977E-03     53.0682E-03    -569.384E-03     34.8684E-03     9.87664E-03     52.7979E-03    -26.2476E-03    -26.5953E-03    -25.9897E-03     52.1924E-03    -26.2476E-03     13.7983E-03    -7.07435E+06    -15.3223E+06    -91.9376E+06    -15.3285E+06    -91.9314E+06    -7.07435E+06    -61.6543E+03         25.7722
             315     9.74269E-03     54.7626E-03     54.0068E-03     33.8729E-03    -568.074E-03     47.6398E-03    -562.175E-03     34.3412E-03     54.4381E-03     52.8017E-03    -26.3119E-03    -26.5155E-03    -25.9815E-03     52.2677E-03    -26.3119E-03     12.9682E-03    -5.57589E+06    -16.6312E+06    -116.411E+06    -16.6377E+06    -116.404E+06    -5.57589E+06    -433.316E+03         25.3498
             316     8.76815E-03     54.7493E-03     42.9632E-03     30.4582E-03    -559.402E-03     21.8784E-03    -543.204E-03     35.3447E-03    -28.9832E-03     52.8832E-03    -26.3561E-03    -26.5477E-03    -26.0892E-03     52.4247E-03    -26.3561E-03     12.0016E-03    -8.86225E+06    -18.3600E+06    -138.222E+06    -18.3746E+06    -138.207E+06    -8.86225E+06    -634.572E+03         25.0011
             317     7.79382E-03     54.7376E-03     46.3751E-03     33.9963E-03    -570.160E-03     14.9478E-03    -543.151E-03     38.4145E-03     31.0842E-03     52.9181E-03    -26.4162E-03    -26.5128E-03    -26.1339E-03     52.5547E-03    -26.4317E-03     10.7078E-03    -6.83745E+06    -20.7765E+06    -161.624E+06    -20.7877E+06    -161.612E+06    -6.83745E+06    -460.288E+03         24.7197
             318     6.81922E-03     54.7266E-03     69.7586E-03     40.9970E-03    -599.627E-03     36.3200E-03    -566.188E-03     40.9970E-03    -9.81977E-03     52.9780E-03    -26.4576E-03    -26.5163E-03    -26.1900E-03     52.6672E-03    -26.4731E-03     9.91224E-03    -7.80024E+06    -22.9999E+06    -172.908E+06    -23.0039E+06    -172.904E+06    -7.80024E+06    -339.480E+03         24.4934
             319     5.84487E-03     54.7165E-03     110.644E-03     42.0460E-03    -639.557E-03     42.1100E-03    -571.023E-03     42.0460E-03     114.724E-03     52.9573E-03    -26.4358E-03    -26.5202E-03    -26.2053E-03     52.6962E-03    -26.4897E-03     9.07766E-03    -13.7903E+06    -25.1549E+06    -185.133E+06    -25.1611E+06    -185.127E+06    -13.7903E+06    -75.7465E+03         24.3102
             320     4.87060E-03     54.7073E-03     178.046E-03     45.9252E-03    -713.275E-03     13.5466E-03    -548.775E-03     45.9252E-03    -141.936E-03     52.9739E-03    -26.4393E-03    -26.5374E-03    -26.2398E-03     52.7745E-03    -26.5374E-03     7.92138E-03    -17.5262E+06    -27.0561E+06    -203.436E+06    -27.0627E+06    -203.429E+06    -17.5262E+06    -468.479E+03         24.1644
             321     3.89583E-03     54.7000E-03     365.085E-03     57.2731E-03    -913.243E-03    -3.27407E-03    -544.884E-03     57.2731E-03     331.099E-03     53.1063E-03    -26.5127E-03    -26.5934E-03    -26.3800E-03     52.9698E-03    -26.5895E-03     6.54101E-03    -19.1477E+06    -29.2590E+06    -213.837E+06    -29.2677E+06    -213.828E+06    -19.1477E+06    -1.03061E+06         24.0497
             322     2.92238E-03     54.6933E-03     777.539E-03     68.9948E-03        -1.33786     46.6243E-03    -606.949E-03     68.9948E-03    -534.684E-03     53.1322E-03    -26.5063E-03    -26.6246E-03    -26.4245E-03     53.0466E-03    -26.6207E-03     5.17546E-03    -21.4124E+06    -30.6404E+06    -215.264E+06    -30.6484E+06    -215.256E+06    -21.4124E+06    -510.073E+03         23.9600
             323     1.94768E-03     54.6892E-03         1.61115     73.5334E-03        -2.17624     71.6338E-03    -636.728E-03     73.5334E-03         1.16596     53.1829E-03    -26.4735E-03    -26.7096E-03    -26.4993E-03     53.1420E-03    -26.6429E-03     3.42770E-03    -24.8351E+06    -33.0148E+06    -213.214E+06    -33.0246E+06    -213.204E+06    -24.8351E+06    -432.577E+03         23.8842
             324     974.242E-06     54.6858E-03         7.09170     958.444E-03        -8.52645        -5.88808    -627.374E-03         6.03915        -3.38369     53.2118E-03    -26.3803E-03    -26.8309E-03    -26.4625E-03     53.2015E-03    -26.7384E-03     1.51136E-03    -31.5753E+06    -38.8745E+06    -214.615E+06    -37.3862E+06    -214.576E+06    -33.1030E+06    -2.01647E+06         23.8036
             325     16.5659E-03     53.8468E-03     287.475E-03     128.499E-03    -903.438E-03     287.038E-03    -903.001E-03     128.499E-03     8.56255E-03     52.4224E-03    -25.3144E-03    -27.1070E-03    -24.5776E-03     50.8085E-03    -26.2300E-03     11.0452E-03     205.813E+06     102.980E+06    -7.08903E+06    -7.08720E+06     205.812E+06     102.980E+06     368.267E+03         33.5009
             326     15.5912E-03     53.8147E-03     251.027E-03     120.873E-03    -862.605E-03     248.995E-03    -860.573E-03     120.873E-03     48.3860E-03     52.7580E-03    -25.8812E-03    -26.8750E-03    -24.9192E-03     50.9190E-03    -25.9979E-03     22.6181E-03     191.813E+06     47.8178E+06    -11.7347E+06    -11.7325E+06     191.811E+06     47.8178E+06     91.7854E+03         31.4867
             327     14.6167E-03     53.7993E-03     213.293E-03     115.024E-03    -821.058E-03     210.835E-03    -818.601E-03     115.024E-03     25.2507E-03     52.2259E-03    -25.7476E-03    -26.4806E-03    -25.1093E-03     50.9713E-03    -25.8643E-03     19.1890E-03     134.345E+06     1.45021E+06    -13.7859E+06    -12.9771E+06     134.344E+06     642.225E+03    -97.5763E+03         29.6589
             328     13.6408E-03     53.7748E-03     177.909E-03     110.846E-03    -781.549E-03     176.292E-03    -779.932E-03     110.846E-03    -11.6497E-03     52.8313E-03    -25.9438E-03    -26.8778E-03    -25.4427E-03     51.3962E-03    -25.9438E-03     21.0060E-03     48.4780E+06    -12.4010E+06    -14.7609E+06    -13.2282E+06     48.4618E+06    -13.9174E+06    -37.6006E+03         28.1820
             329     12.6664E-03     53.7555E-03     151.933E-03     108.201E-03    -755.107E-03     150.996E-03    -754.170E-03     108.201E-03     19.7286E-03     52.7514E-03    -26.0737E-03    -26.6730E-03    -25.7207E-03     51.7991E-03    -26.0737E-03     17.2593E-03    -898.395E+03    -13.1173E+06    -26.7495E+06    -13.7633E+06    -14.7156E+06    -12.2862E+06    -653.087E+03         27.0735
             330     11.6917E-03     53.7387E-03     130.059E-03     106.791E-03    -733.653E-03     129.206E-03    -732.800E-03     106.791E-03     30.4090E-03     52.7972E-03    -26.1592E-03    -26.6669E-03    -25.8990E-03     52.0293E-03    -26.1592E-03     15.5254E-03    -11.9307E+06    -14.0761E+06    -57.2608E+06    -14.1002E+06    -57.2368E+06    -11.9307E+06    -446.747E+03         26.3074
             331     10.7170E-03     53.7231E-03     119.668E-03     103.829E-03    -720.523E-03     115.868E-03    -719.374E-03     106.480E-03     11.1016E-03     52.8350E-03    -26.2392E-03    -26.6335E-03    -26.0247E-03     52.2262E-03    -26.2392E-03     13.8242E-03    -8.06497E+06    -14.2986E+06    -92.4394E+06    -14.3017E+06    -92.4364E+06    -8.06497E+06     176.925E+03         25.7721
             332     9.74261E-03     53.7099E-03     113.343E-03     101.441E-03    -711.492E-03     101.408E-03    -705.432E-03     107.316E-03     73.0432E-03     52.8783E-03    -26.3054E-03    -26.5993E-03    -26.0696E-03     52.3486E-03    -26.3054E-03     12.9298E-03    -5.46002E+06    -15.6434E+06    -116.775E+06    -15.6840E+06    -116.735E+06    -5.46002E+06     783.557E+03         25.3513
             333     8.76795E-03     53.6959E-03     113.819E-03     101.913E-03    -716.581E-03     92.5445E-03    -702.863E-03     109.470E-03    -17.3268E-03     52.8613E-03    -26.3400E-03    -26.5342E-03    -26.0740E-03     52.4125E-03    -26.3514E-03     11.8474E-03    -7.83164E+06    -18.7212E+06    -138.000E+06    -18.7635E+06    -137.958E+06    -7.83164E+06     912.260E+03         25.0038
             334     7.79361E-03     53.6845E-03     123.381E-03     102.896E-03    -731.125E-03     90.4367E-03    -707.919E-03     112.634E-03     44.4345E-03     52.9131E-03    -26.4040E-03    -26.5126E-03    -26.1456E-03     52.5575E-03    -26.4154E-03     10.5978E-03    -6.73638E+06    -20.9650E+06    -160.698E+06    -20.9712E+06    -160.692E+06    -6.73638E+06    -251.952E+03         24.7233
             335     6.81940E-03     53.6734E-03     131.601E-03     109.997E-03    -745.580E-03     86.5323E-03    -707.488E-03     116.974E-03    -36.7443E-03     52.9651E-03    -26.4518E-03    -26.5105E-03    -26.1911E-03     52.6512E-03    -26.4574E-03     9.95774E-03    -7.28966E+06    -22.6180E+06    -173.145E+06    -22.6238E+06    -173.139E+06    -7.28966E+06    -862.691E+03         24.4964
             336     5.84513E-03     53.6633E-03     166.078E-03     119.635E-03    -786.051E-03     105.689E-03    -727.234E-03     121.206E-03     63.2862E-03     52.9759E-03    -26.4316E-03    -26.5427E-03    -26.2397E-03     52.7245E-03    -26.4832E-03     8.90416E-03    -10.6328E+06    -24.6148E+06    -185.919E+06    -24.6190E+06    -185.915E+06    -10.6328E+06    -153.992E+03         24.3117
             337     4.87047E-03     53.6546E-03     251.404E-03     121.896E-03    -874.172E-03     134.890E-03    -757.659E-03     121.896E-03    -154.255E-03     52.9840E-03    -26.4262E-03    -26.5597E-03    -26.2827E-03     52.7940E-03    -26.5133E-03     7.73722E-03    -14.7086E+06    -26.7764E+06    -202.273E+06    -26.7817E+06    -202.268E+06    -14.7086E+06    -292.512E+03         24.1632
             338     3.89683E-03     53.6460E-03     449.938E-03     120.788E-03        -1.07552     123.440E-03    -749.017E-03     120.788E-03     391.581E-03     52.9964E-03    -26.4542E-03    -26.5423E-03    -26.3221E-03     52.8643E-03    -26.5423E-03     6.43190E-03    -19.5826E+06    -28.9812E+06    -213.616E+06    -29.0000E+06    -213.597E+06    -19.5826E+06    -1.68516E+06         24.0468
             339     2.92182E-03     53.6406E-03     836.685E-03     123.533E-03        -1.46613     106.980E-03    -736.427E-03     123.533E-03    -525.599E-03     53.0729E-03    -26.4795E-03    -26.5916E-03    -26.4318E-03     52.9907E-03    -26.5572E-03     5.05899E-03    -24.0570E+06    -31.2185E+06    -216.538E+06    -31.2354E+06    -216.521E+06    -24.0570E+06    -1.54704E+06         23.9575
             340     1.94824E-03     53.6348E-03         1.70403     139.048E-03        -2.35495     88.7729E-03    -739.687E-03     139.048E-03         1.30341     53.0772E-03    -26.4172E-03    -26.6596E-03    -26.4767E-03     53.0356E-03    -26.5585E-03     3.51317E-03    -27.0667E+06    -34.1355E+06    -213.740E+06    -34.1377E+06    -213.738E+06    -27.0667E+06    -414.537E+03         23.8794
             341     974.223E-06     53.6326E-03         7.20587         1.04414        -8.74716        -5.81389    -801.010E-03         6.11775        -3.54813     53.0377E-03    -26.1573E-03    -26.8799E-03    -26.4850E-03     53.0242E-03    -26.5388E-03     1.72135E-03    -32.4809E+06    -38.8008E+06    -215.105E+06    -37.3080E+06    -215.070E+06    -34.0086E+06    -1.69718E+06         23.7938
             342     16.5666E-03     52.7931E-03     315.977E-03     192.553E-03        -1.01588     315.549E-03        -1.01545     192.553E-03    -25.8021E-03     52.3832E-03    -25.4075E-03    -26.9759E-03    -24.5481E-03     50.7775E-03    -26.2295E-03     10.9748E-03     205.409E+06     102.635E+06    -7.29348E+06    -7.29194E+06     205.408E+06     102.635E+06    -72.3882E+03         33.4943
             343     15.5911E-03     52.7615E-03     284.423E-03     187.057E-03    -981.597E-03     283.064E-03    -980.239E-03     187.057E-03     24.3947E-03     52.6046E-03    -25.8481E-03    -26.7549E-03    -24.7435E-03     50.7536E-03    -26.0086E-03     22.7276E-03     191.942E+06     48.2921E+06    -12.4524E+06    -12.4501E+06     191.939E+06     48.2921E+06    -171.115E+03         31.4806
             344     14.6152E-03     52.7462E-03     251.943E-03     183.249E-03    -946.370E-03     250.270E-03    -944.697E-03     183.249E-03     31.7603E-03     52.3148E-03    -25.7190E-03    -26.6001E-03    -25.1718E-03     51.0472E-03    -25.8795E-03     19.3810E-03     134.782E+06     1.69503E+06    -16.0692E+06    -15.2574E+06     134.778E+06     887.038E+03    -145.362E+03         29.6532
             345     13.6410E-03     52.7217E-03     224.276E-03     180.907E-03    -917.265E-03     222.904E-03    -915.894E-03     180.907E-03     6.20630E-03     52.9522E-03    -25.9478E-03    -26.9982E-03    -25.5802E-03     51.5342E-03    -25.9478E-03     20.9030E-03     49.1067E+06    -12.7927E+06    -16.7016E+06    -15.1659E+06     49.0875E+06    -14.3091E+06    -369.490E+03         28.1777
             346     12.6659E-03     52.7022E-03     210.330E-03     179.621E-03    -902.685E-03     208.999E-03    -901.354E-03     179.621E-03     47.6893E-03     52.7247E-03    -26.0793E-03    -26.6418E-03    -25.7054E-03     51.7883E-03    -26.0793E-03     17.1103E-03    -99.0643E+03    -13.3298E+06    -28.1041E+06    -14.9199E+06    -15.1333E+06    -11.4798E+06     30.4329E+03         27.0713
             347     11.6915E-03     52.6856E-03     199.949E-03     175.632E-03    -886.844E-03     195.503E-03    -885.733E-03     178.968E-03     55.0816E-03     52.7814E-03    -26.1602E-03    -26.6498E-03    -25.8920E-03     52.0235E-03    -26.1602E-03     15.4176E-03    -12.1061E+06    -16.2870E+06    -57.6363E+06    -16.3213E+06    -57.6021E+06    -12.1061E+06     73.9309E+03         26.3074
             348     10.7171E-03     52.6700E-03     185.953E-03     171.015E-03    -868.244E-03     176.395E-03    -867.161E-03     179.489E-03    -819.162E-06     52.8701E-03    -26.2429E-03    -26.6626E-03    -26.0643E-03     52.2718E-03    -26.2429E-03     13.7119E-03    -8.03658E+06    -17.6644E+06    -92.5382E+06    -17.6688E+06    -92.5338E+06    -8.03658E+06     125.342E+03         25.7728
             349     9.74277E-03     52.6564E-03     187.322E-03     173.089E-03    -873.609E-03     173.711E-03    -867.892E-03     180.983E-03     69.0438E-03     52.9132E-03    -26.3061E-03    -26.6272E-03    -26.1103E-03     52.3963E-03    -26.3061E-03     12.7807E-03    -4.88001E+06    -18.2156E+06    -118.020E+06    -18.2616E+06    -117.974E+06    -4.88001E+06     836.614E+03         25.3525
             350     8.76872E-03     52.6429E-03     193.219E-03     178.831E-03    -888.965E-03     177.680E-03    -877.125E-03     182.530E-03    -16.6584E-03     52.8958E-03    -26.3406E-03    -26.5666E-03    -26.1044E-03     52.4451E-03    -26.3520E-03     11.8943E-03    -4.54759E+06    -17.2472E+06    -137.155E+06    -17.2900E+06    -137.112E+06    -4.54759E+06     658.933E+03         25.0066
             351     7.79403E-03     52.6314E-03     189.946E-03     174.837E-03    -883.800E-03     154.128E-03    -858.741E-03     185.596E-03     72.5551E-03     52.9327E-03    -26.4029E-03    -26.5366E-03    -26.1652E-03     52.5727E-03    -26.4143E-03     10.6511E-03    -1.93005E+06    -18.0047E+06    -159.182E+06    -18.0086E+06    -159.179E+06    -1.93005E+06    -403.991E+03         24.7274
             352     6.81956E-03     52.6201E-03     195.657E-03     180.523E-03    -894.005E-03     141.721E-03    -851.456E-03     191.910E-03    -29.7438E-03     52.9995E-03    -26.4314E-03    -26.5670E-03    -26.2546E-03     52.6927E-03    -26.4370E-03     9.85364E-03    -4.45893E+06    -20.5788E+06    -173.695E+06    -20.5832E+06    -173.690E+06    -4.45893E+06    -751.395E+03         24.5000
             353     5.84506E-03     52.6103E-03     244.955E-03     196.207E-03    -955.723E-03     178.659E-03    -890.998E-03     197.778E-03     90.2429E-03     53.0196E-03    -26.4422E-03    -26.5761E-03    -26.3252E-03     52.7742E-03    -26.4478E-03     8.80007E-03    -8.11221E+06    -22.8067E+06    -185.957E+06    -22.8078E+06    -185.956E+06    -8.11221E+06    -330.664E+03         24.3132
             354     4.87146E-03     52.6008E-03     345.602E-03     197.628E-03        -1.05801     221.193E-03    -933.600E-03     197.628E-03    -164.399E-03     52.9245E-03    -26.4008E-03    -26.5243E-03    -26.2811E-03     52.7405E-03    -26.4600E-03     7.61777E-03    -12.8569E+06    -25.5609E+06    -201.703E+06    -25.5614E+06    -201.703E+06    -12.8569E+06    -246.049E+03         24.1609
             355     3.89631E-03     52.5938E-03     517.060E-03     193.112E-03        -1.23018     215.128E-03    -928.244E-03     193.112E-03     341.052E-03     52.9090E-03    -26.3942E-03    -26.5140E-03    -26.3023E-03     52.7712E-03    -26.4681E-03     6.58675E-03    -19.6951E+06    -28.7240E+06    -213.315E+06    -28.7358E+06    -213.303E+06    -19.6951E+06    -633.254E+03         24.0400
             356     2.92281E-03     52.5863E-03     942.792E-03     191.002E-03        -1.65929     190.545E-03    -907.042E-03     191.002E-03    -702.184E-03     52.9566E-03    -26.4162E-03    -26.5384E-03    -26.4111E-03     52.8712E-03    -26.4581E-03     5.11438E-03    -26.0574E+06    -32.0031E+06    -217.226E+06    -32.0268E+06    -217.202E+06    -26.0574E+06    -1.33129E+06         23.9492
             357     1.94840E-03     52.5824E-03         1.85815     197.947E-03        -2.58656     172.204E-03    -900.614E-03     197.947E-03         1.25825     52.8193E-03    -26.3093E-03    -26.5095E-03    -26.3045E-03     52.7801E-03    -26.4751E-03     3.45428E-03    -28.5958E+06    -33.5987E+06    -215.045E+06    -33.6117E+06    -215.032E+06    -28.5958E+06    -945.457E+03         23.8715
             358     973.474E-06     52.5790E-03         7.24063         1.18710        -8.96381        -5.70532    -943.560E-03         6.11281        -3.81143     52.9432E-03    -26.2317E-03    -26.7116E-03    -26.4901E-03     52.9271E-03    -26.4371E-03     2.16645E-03    -32.8808E+06    -37.9007E+06    -215.958E+06    -36.5598E+06    -215.947E+06    -34.2329E+06    -1.04675E+06         23.7881
             359     16.5665E-03     51.7408E-03     346.486E-03     259.587E-03        -1.13156     346.235E-03        -1.13131     259.587E-03     76.8602E-06     52.3601E-03    -25.4156E-03    -26.9456E-03    -24.4847E-03     50.7152E-03    -26.2316E-03     11.0257E-03     205.260E+06     103.444E+06    -6.80779E+06    -6.80364E+06     205.256E+06     103.444E+06     318.125E+03         33.4883
             360     15.5905E-03     51.7082E-03     320.949E-03     256.182E-03        -1.10584     320.233E-03        -1.10512     256.182E-03     34.4501E-03     52.5899E-03    -25.8555E-03    -26.7346E-03    -24.7243E-03     50.7447E-03    -26.0205E-03     22.4833E-03     191.886E+06     50.1739E+06    -12.7319E+06    -12.7275E+06     191.881E+06     50.1739E+06     341.810E+03         31.4751
             361     14.6159E-03     51.6932E-03     308.891E-03     253.838E-03        -1.09250     308.135E-03        -1.09174     253.838E-03     33.9081E-03     52.3557E-03    -25.7307E-03    -26.6278E-03    -25.2368E-03     51.1297E-03    -25.8958E-03     18.9710E-03     136.062E+06     4.32994E+06    -15.7143E+06    -15.7111E+06     136.059E+06     4.32994E+06        -747.083         29.6482
             362     13.6410E-03     51.6676E-03     289.691E-03     252.143E-03        -1.07175     288.837E-03        -1.07089     252.143E-03     21.0874E-03     52.9791E-03    -25.9534E-03    -27.0194E-03    -25.6380E-03     51.5977E-03    -25.9534E-03     20.6031E-03     48.6934E+06    -12.7905E+06    -17.4684E+06    -17.4445E+06     48.6695E+06    -12.7905E+06    -289.254E+03         28.1739
             363     12.6668E-03     51.6499E-03     269.055E-03     248.779E-03        -1.04778     264.661E-03        -1.04631     251.703E-03     37.6650E-03     52.7147E-03    -26.0758E-03    -26.6358E-03    -25.7200E-03     51.7989E-03    -26.0758E-03     16.9422E-03    -767.013E+03    -15.8479E+06    -28.6221E+06    -18.5746E+06    -15.6441E+06    -11.0183E+06    -181.337E+03         27.0697
             364     11.6917E-03     51.6318E-03     258.921E-03     242.363E-03        -1.03080     247.286E-03        -1.02944     252.632E-03     50.2602E-03     52.7379E-03    -26.1542E-03    -26.6146E-03    -25.8572E-03     51.9805E-03    -26.1542E-03     15.3886E-03    -11.2700E+06    -18.0368E+06    -58.0291E+06    -18.1311E+06    -57.9348E+06    -11.2700E+06     161.267E+03         26.3066
             365     10.7174E-03     51.6171E-03     254.543E-03     243.491E-03        -1.02584     241.753E-03        -1.02411     254.543E-03    -13.3957E-03     52.7919E-03    -26.2368E-03    -26.5928E-03    -25.9942E-03     52.1934E-03    -26.2368E-03     13.7211E-03    -8.13922E+06    -18.6084E+06    -93.1996E+06    -18.6215E+06    -93.1865E+06    -8.13922E+06     843.246E+03         25.7703
             366     9.74295E-03     51.6029E-03     264.014E-03     252.416E-03        -1.04496     256.383E-03        -1.04104     256.123E-03     31.7437E-03     52.8192E-03    -26.2971E-03    -26.5327E-03    -25.9995E-03     52.2860E-03    -26.2971E-03     12.9643E-03    -5.93942E+06    -19.6580E+06    -116.582E+06    -19.6898E+06    -116.550E+06    -5.93942E+06    -490.436E+03         25.3500
             367     8.76804E-03     51.5901E-03     265.155E-03     254.851E-03        -1.05379     253.627E-03        -1.04467     257.263E-03    -42.7086E-03     52.9190E-03    -26.3355E-03    -26.5830E-03    -26.1074E-03     52.4435E-03    -26.3355E-03     12.2475E-03    -7.48594E+06    -19.5219E+06    -136.784E+06    -19.5808E+06    -136.725E+06    -7.48594E+06    -2.01611E+06         25.0060
             368     7.79398E-03     51.5777E-03     270.639E-03     252.714E-03        -1.06056     240.362E-03        -1.03710     259.537E-03     78.3138E-03     53.0818E-03    -26.3996E-03    -26.6849E-03    -26.3045E-03     52.7013E-03    -26.3996E-03     10.9651E-03    -3.19959E+06    -19.3979E+06    -159.692E+06    -19.4338E+06    -159.656E+06    -3.19959E+06    -1.11060E+06         24.7269
             369     6.81980E-03     51.5674E-03     296.849E-03     257.482E-03        -1.08924     256.198E-03        -1.05300     261.893E-03    -23.7494E-03     53.0805E-03    -26.4039E-03    -26.6759E-03    -26.3638E-03     52.7684E-03    -26.4039E-03     9.95334E-03    -5.58814E+06    -21.0977E+06    -173.825E+06    -21.0994E+06    -173.824E+06    -5.58814E+06    -377.588E+03         24.4986
             370     5.84594E-03     51.5563E-03     318.240E-03     263.996E-03        -1.11314     251.126E-03        -1.04602     263.996E-03     130.961E-03     52.9378E-03    -26.3943E-03    -26.5418E-03    -26.2856E-03     52.6816E-03    -26.3943E-03     8.98044E-03    -11.5160E+06    -23.5383E+06    -186.024E+06    -23.5417E+06    -186.020E+06    -11.5160E+06    -532.094E+03         24.3112
             371     4.87096E-03     51.5485E-03     374.832E-03     269.509E-03        -1.17828     230.629E-03        -1.03408     269.509E-03    -170.815E-03     52.9191E-03    -26.3906E-03    -26.5281E-03    -26.3161E-03     52.7293E-03    -26.4127E-03     7.73556E-03    -14.1195E+06    -25.0999E+06    -202.199E+06    -25.1037E+06    -202.195E+06    -14.1195E+06    -165.864E+03         24.1582
             372     3.89729E-03     51.5401E-03     571.675E-03     278.190E-03        -1.38268     244.255E-03        -1.05526     278.190E-03     378.275E-03     52.8852E-03    -26.3344E-03    -26.5504E-03    -26.3256E-03     52.7423E-03    -26.4163E-03     6.71276E-03    -17.9717E+06    -27.2828E+06    -212.264E+06    -27.2876E+06    -212.259E+06    -17.9717E+06     746.013E+03         24.0347
             373     2.92259E-03     51.5336E-03         1.04793     283.550E-03        -1.87016     280.020E-03        -1.10225     283.550E-03    -731.816E-03     52.7798E-03    -26.3213E-03    -26.4575E-03    -26.2786E-03     52.6879E-03    -26.4083E-03     5.30953E-03    -25.0645E+06    -31.0138E+06    -216.602E+06    -31.0296E+06    -216.587E+06    -25.0645E+06    -259.357E+03         23.9410
             374     1.94831E-03     51.5291E-03         1.98813     283.052E-03        -2.82013     289.096E-03        -1.12110     283.052E-03         1.29391     52.8313E-03    -26.3445E-03    -26.4864E-03    -26.3880E-03     52.7879E-03    -26.3994E-03     3.62321E-03    -28.6385E+06    -35.0282E+06    -217.187E+06    -35.0518E+06    -217.164E+06    -28.6385E+06    -1.47031E+06         23.8643
             375     974.784E-06     51.5258E-03         7.22503         1.36374        -9.14389        -5.50213        -1.11877         6.06578        -4.06892     52.6960E-03    -26.2331E-03    -26.4630E-03    -26.3526E-03     52.6800E-03    -26.3277E-03     2.11365E-03    -32.4216E+06    -38.9314E+06    -216.664E+06    -37.1325E+06    -216.586E+06    -34.2990E+06     574.290E+03         23.7846
             376     16.5662E-03     50.6876E-03     368.466E-03     327.464E-03        -1.24018     368.312E-03        -1.24002     327.464E-03     21.9929E-03     52.5324E-03    -25.4686E-03    -27.0655E-03    -24.6628E-03     50.9016E-03    -26.2406E-03     10.8435E-03     205.432E+06     105.007E+06    -6.90148E+06    -6.89758E+06     205.428E+06     105.007E+06     625.590E+03         33.4816
             377     15.5915E-03     50.6550E-03     351.183E-03     326.672E-03        -1.22236     350.979E-03        -1.22215     326.672E-03     32.5698E-03     52.7097E-03    -25.8662E-03    -26.8434E-03    -24.8488E-03     50.8674E-03    -26.0184E-03     22.6136E-03     192.474E+06     51.7686E+06    -12.3361E+06     -12.332E+06     192.470E+06     51.7686E+06     726.101E+03         31.4691
             378     14.6160E-03     50.6397E-03     353.289E-03     324.784E-03        -1.22346     351.143E-03        -1.22314     326.610E-03     1.41795E-03     52.2934E-03    -25.7281E-03    -26.5658E-03    -25.1488E-03     51.0286E-03    -25.8804E-03     19.2735E-03     135.687E+06     3.45123E+06    -15.1303E+06    -15.1231E+06     135.680E+06     3.45123E+06     569.484E+03         29.6428
             379     13.6412E-03     50.6147E-03     344.904E-03     324.129E-03        -1.21958     342.089E-03        -1.21939     326.752E-03    -16.7328E-03     52.9293E-03    -25.9425E-03    -26.9784E-03    -25.5655E-03     51.5164E-03    -25.9425E-03     20.8177E-03     48.2510E+06    -13.9626E+06    -16.8445E+06    -16.8244E+06     48.2310E+06    -13.9626E+06     877.636E+03         28.1700
             380     12.6662E-03     50.5961E-03     331.328E-03     323.015E-03        -1.20426     326.403E-03        -1.20405     327.723E-03    -13.3914E-03     52.8011E-03    -26.0630E-03    -26.7325E-03    -25.8001E-03     51.8688E-03    -26.0630E-03     17.1113E-03    -1.18023E+06    -16.1796E+06    -26.9276E+06    -17.9003E+06    -14.4659E+06    -11.9212E+06    -104.252E+03         27.0676
             381     11.6921E-03     50.5792E-03     335.433E-03     321.227E-03        -1.20253     326.782E-03        -1.20180     329.147E-03     23.3706E-03     52.7202E-03    -26.1414E-03    -26.6075E-03    -25.8324E-03     51.9451E-03    -26.1414E-03     15.5716E-03    -12.2112E+06    -17.9853E+06    -58.2319E+06    -18.0826E+06    -58.1346E+06    -12.2112E+06    -896.074E+03         26.3051
             382     10.7172E-03     50.5634E-03     337.156E-03     325.149E-03        -1.20719     330.314E-03        -1.20557     330.377E-03    -13.7444E-03     52.6631E-03    -26.2279E-03    -26.4758E-03    -25.8567E-03     52.0440E-03    -26.2279E-03     13.9294E-03    -9.15793E+06    -16.4950E+06    -94.0384E+06    -16.5422E+06    -93.9912E+06    -9.15793E+06    -496.334E+03         25.7686
             383     9.74252E-03     50.5503E-03     334.033E-03     321.599E-03        -1.20219     320.052E-03        -1.19860     331.987E-03     31.7740E-03     52.8605E-03    -26.3027E-03    -26.5726E-03    -26.0377E-03     52.3256E-03    -26.3027E-03     12.9863E-03    -4.23936E+06    -15.8963E+06    -114.429E+06    -15.9251E+06    -114.400E+06    -4.23936E+06    -708.890E+03         25.3495
             384     8.76831E-03     50.5366E-03     341.510E-03     323.525E-03        -1.21345     322.861E-03        -1.20544     334.162E-03    -42.8982E-03     52.9864E-03    -26.3334E-03    -26.6506E-03    -26.1944E-03     52.5301E-03    -26.3334E-03     12.0013E-03    -7.72822E+06    -18.5261E+06    -136.016E+06    -18.5795E+06    -135.963E+06    -7.72822E+06    -1.88918E+06         25.0054
             385     7.79382E-03     50.5247E-03     364.445E-03     333.455E-03        -1.24866     346.880E-03        -1.23256     334.924E-03     55.8302E-03     53.0247E-03    -26.3781E-03    -26.6425E-03    -26.2655E-03     52.6511E-03    -26.3814E-03     10.8733E-03    -8.05464E+06      -21.56E+06    -161.821E+06    -21.6055E+06    -161.776E+06    -8.05464E+06    -1.87079E+06         24.7234
             386     6.81996E-03     50.5134E-03     382.499E-03     333.821E-03        -1.26686     349.959E-03        -1.23432     333.821E-03    -79.5215E-03     53.0060E-03    -26.3938E-03    -26.6079E-03    -26.2814E-03     52.6828E-03    -26.3971E-03     10.1201E-03    -9.05257E+06    -22.8877E+06    -174.068E+06    -22.8999E+06    -174.056E+06    -9.05257E+06    -938.967E+03         24.4937
             387     5.84523E-03     50.5041E-03     378.972E-03     334.928E-03        -1.26113     316.667E-03        -1.19883     334.928E-03     85.8063E-03     52.9884E-03    -26.3942E-03    -26.5936E-03    -26.3241E-03     52.7189E-03    -26.3942E-03     9.22449E-03    -13.5431E+06    -23.9773E+06    -186.359E+06    -23.9843E+06    -186.352E+06    -13.5431E+06    -444.831E+03         24.3075
             388     4.87142E-03     50.4945E-03     439.558E-03     340.906E-03        -1.32339     302.907E-03        -1.18674     340.906E-03    -220.388E-03     53.0176E-03    -26.4039E-03    -26.6133E-03    -26.4122E-03     52.8165E-03    -26.4039E-03     7.96773E-03    -15.8609E+06    -26.0161E+06    -203.495E+06    -26.0213E+06    -203.490E+06    -15.8609E+06     187.494E+03         24.1560
             389     3.89706E-03     50.4873E-03     661.279E-03     348.716E-03        -1.55552     320.650E-03        -1.21489     348.716E-03     428.550E-03     52.8796E-03    -26.3405E-03    -26.5378E-03    -26.3342E-03     52.7357E-03    -26.4003E-03     6.72392E-03    -17.9274E+06    -28.0147E+06    -211.737E+06    -28.0186E+06    -211.733E+06    -17.9274E+06     524.263E+03         24.0325
             390     2.92266E-03     50.4809E-03         1.12199     353.571E-03        -2.02853     347.577E-03        -1.25412     353.571E-03    -692.357E-03     52.7612E-03    -26.3340E-03    -26.4277E-03    -26.2742E-03     52.6675E-03    -26.3938E-03     5.39226E-03    -22.7663E+06    -30.2153E+06    -215.397E+06    -30.2184E+06    -215.394E+06    -22.7663E+06     265.766E+03         23.9372
             391     1.94848E-03     50.4755E-03         2.08577     360.968E-03        -3.00454     336.409E-03        -1.25518     360.968E-03         1.42314     52.8072E-03    -26.3535E-03    -26.4559E-03    -26.3933E-03     52.7596E-03    -26.3684E-03     3.77255E-03    -27.0691E+06    -34.0227E+06    -216.633E+06    -34.0346E+06    -216.621E+06    -27.0691E+06    -644.284E+03         23.8597
             392     974.200E-06     50.4728E-03         7.20330         1.52048        -9.29872        -5.28270        -1.30616         6.01391        -4.28841     52.6026E-03    -26.1434E-03    -26.4603E-03    -26.4297E-03     52.5870E-03    -26.1583E-03     2.06874E-03    -32.8814E+06    -40.1952E+06    -219.283E+06    -39.7477E+06    -219.205E+06    -33.4066E+06     585.227E+03         23.7806
             393     16.5666E-03     49.6337E-03     404.382E-03     377.436E-03        -1.34747     384.778E-03        -1.34733     396.904E-03    -1.11195E-03     52.4823E-03    -25.4748E-03    -27.0081E-03    -24.6488E-03     50.8836E-03    -26.2353E-03     10.7904E-03     205.149E+06     104.475E+06    -6.84508E+06    -6.84350E+06     205.147E+06     104.475E+06     178.943E+03         33.4715
             394     15.5909E-03     49.6021E-03     401.026E-03     389.482E-03        -1.35548     391.648E-03        -1.35531     398.683E-03     8.49736E-03     52.6407E-03    -25.8509E-03    -26.7880E-03    -24.7835E-03     50.8005E-03    -26.0152E-03     22.7123E-03     192.778E+06     51.5636E+06    -11.8385E+06    -11.8286E+06     192.768E+06     51.5636E+06     876.091E+03         31.4604
             395     14.6158E-03     49.5865E-03     402.101E-03     390.204E-03        -1.35645     391.398E-03        -1.35630     400.751E-03    -815.585E-06     52.2763E-03    -25.7117E-03    -26.5654E-03    -25.1296E-03     51.0048E-03    -25.8760E-03     19.4118E-03     135.035E+06     2.05217E+06    -14.9944E+06    -14.9733E+06     135.014E+06     2.05217E+06     1.54996E+06         29.6357
             396     13.6409E-03     49.5615E-03     402.946E-03     392.280E-03        -1.36367     391.940E-03        -1.36333     402.946E-03     12.0782E-03     52.9022E-03    -25.9396E-03    -26.9545E-03    -25.5420E-03     51.4897E-03    -25.9396E-03     20.8469E-03     49.3624E+06    -14.7364E+06    -15.5679E+06    -15.5499E+06     49.3444E+06    -14.7364E+06     1.02039E+06         28.1652
             397     12.6665E-03     49.5429E-03     407.315E-03     401.338E-03        -1.37779     403.523E-03        -1.37747     404.808E-03     36.0797E-03     52.7637E-03    -26.0625E-03    -26.6954E-03    -25.7479E-03     51.8161E-03    -26.0625E-03     17.2352E-03    -717.923E+03    -14.4952E+06    -26.5033E+06    -15.2897E+06    -13.6744E+06    -12.7523E+06     438.919E+03         27.0657
             398     11.6918E-03     49.5257E-03     416.884E-03     404.679E-03        -1.38837     415.357E-03        -1.38783     405.666E-03     48.3863E-03     52.7423E-03    -26.1446E-03    -26.6232E-03    -25.8502E-03     51.9693E-03    -26.1446E-03     15.5545E-03    -13.1756E+06    -16.2902E+06    -57.3740E+06    -16.3307E+06    -57.3335E+06    -13.1756E+06    -508.851E+03         26.3062
             399     10.7171E-03     49.5112E-03     419.251E-03     405.782E-03        -1.38831     418.387E-03        -1.38745     405.782E-03     6.07093E-03     52.7492E-03    -26.2162E-03    -26.5734E-03    -25.9424E-03     52.1182E-03    -26.2162E-03     14.0834E-03    -12.9361E+06    -17.2560E+06    -93.5957E+06    -17.3760E+06    -93.4758E+06    -12.9361E+06    -2.51662E+06         25.7716
             400     9.74266E-03     49.4964E-03     411.731E-03     397.430E-03        -1.37083     398.912E-03        -1.36718     406.598E-03     72.0151E-03     52.9879E-03    -26.2745E-03    -26.7361E-03    -26.1902E-03     52.4420E-03    -26.2745E-03     13.1367E-03    -9.49957E+06    -16.6892E+06    -115.275E+06    -16.7895E+06    -115.174E+06    -9.49957E+06    -2.24876E+06         25.3524
             401     8.76853E-03     49.4835E-03     418.583E-03     399.133E-03        -1.37967     400.979E-03        -1.37123     408.301E-03    -30.5468E-03     53.0309E-03    -26.3251E-03    -26.7064E-03    -26.2602E-03     52.5848E-03    -26.3251E-03     11.8723E-03    -6.62574E+06    -16.3557E+06    -135.990E+06    -16.3829E+06    -135.963E+06    -6.62574E+06    -3.91445E+03         25.0069
             402     7.79439E-03     49.4713E-03     431.791E-03     409.191E-03        -1.40425     414.589E-03        -1.38705     409.191E-03     71.7573E-03     52.8650E-03    -26.3706E-03    -26.4864E-03    -26.1050E-03     52.4937E-03    -26.3807E-03     10.8278E-03    -6.58092E+06    -18.8879E+06    -161.598E+06    -18.9134E+06    -161.572E+06    -6.58092E+06    -208.434E+03         24.7225
             403     6.81922E-03     49.4608E-03     428.423E-03     410.616E-03        -1.40409     396.846E-03        -1.37252     410.616E-03    -53.3616E-03     52.9178E-03    -26.3986E-03    -26.5144E-03    -26.1834E-03     52.5969E-03    -26.4086E-03     10.0616E-03      -9.331E+06    -22.4196E+06    -174.928E+06    -22.4362E+06    -174.911E+06      -9.331E+06    -1.41834E+06         24.4915
             404     5.84536E-03     49.4502E-03     457.056E-03     413.258E-03        -1.43390     402.195E-03        -1.37904     413.258E-03     102.907E-03     53.0303E-03    -26.4164E-03    -26.6153E-03    -26.3568E-03     52.7718E-03    -26.4164E-03     9.04329E-03    -13.3462E+06    -24.5391E+06    -187.427E+06    -24.5480E+06    -187.418E+06    -13.3462E+06    -624.539E+03         24.3062
             405     4.87109E-03     49.4417E-03     551.531E-03     413.243E-03        -1.52676     428.970E-03        -1.40420     413.243E-03    -226.856E-03     53.0051E-03    -26.4291E-03    -26.5760E-03    -26.3736E-03     52.8027E-03    -26.4291E-03     8.00019E-03    -15.5222E+06    -25.7411E+06    -203.575E+06    -25.7447E+06    -203.572E+06    -15.5222E+06    -114.392E+03         24.1564
             406     3.89689E-03     49.4340E-03     731.430E-03     411.508E-03        -1.70399     416.887E-03        -1.38945     411.508E-03     412.196E-03     53.0351E-03    -26.4238E-03    -26.6105E-03    -26.4651E-03     52.8897E-03    -26.4238E-03     6.75725E-03    -16.6257E+06    -27.8270E+06    -212.322E+06    -27.8309E+06    -212.318E+06    -16.6257E+06    -33.7994E+03         24.0355
             407     2.92294E-03     49.4278E-03         1.18168     412.108E-03        -2.15892     406.911E-03        -1.38416     412.108E-03    -781.070E-03     52.9115E-03    -26.3695E-03    -26.5427E-03    -26.4532E-03     52.8220E-03    -26.3695E-03     5.27485E-03    -20.6155E+06    -30.0350E+06    -214.581E+06    -30.0387E+06    -214.577E+06    -20.6155E+06     50.2851E+03         23.9409
             408     1.94856E-03     49.4225E-03         2.20115     420.684E-03        -3.18520     391.069E-03        -1.37512     420.684E-03         1.48705     52.6328E-03    -26.2723E-03    -26.3618E-03    -26.2683E-03     52.5884E-03    -26.3215E-03     3.62623E-03    -25.6146E+06    -33.7104E+06    -215.888E+06    -33.7199E+06    -215.878E+06    -25.6146E+06     487.625E+03         23.8591
             409     974.286E-06     49.4195E-03         7.14287         1.73823        -9.45260        -5.05916        -1.42400         5.91166        -4.56878     52.5258E-03    -26.0806E-03    -26.4459E-03    -26.3837E-03     52.5128E-03    -26.1297E-03     1.71253E-03    -34.0626E+06    -41.3747E+06    -220.829E+06    -40.8666E+06    -220.816E+06    -34.5836E+06    -16.4852E+03         23.7735
             410     16.5664E-03     48.5805E-03     466.615E-03     413.833E-03        -1.46900     413.682E-03        -1.46885     466.615E-03     3.87782E-03     52.3062E-03    -25.3265E-03    -26.9800E-03    -24.4955E-03     50.7245E-03    -26.2294E-03     10.9502E-03     204.250E+06     103.333E+06    -6.78203E+06    -6.78122E+06     204.249E+06     103.333E+06     138.723E+03         33.4573
             411     15.5911E-03     48.5490E-03     470.356E-03     438.383E-03        -1.49844     437.577E-03        -1.49763     470.356E-03     32.0233E-03     52.6617E-03    -25.8963E-03    -26.7637E-03    -24.8232E-03     50.8380E-03    -26.0130E-03     22.5799E-03     191.942E+06     50.5249E+06    -11.4881E+06    -11.4789E+06     191.933E+06     50.5249E+06     778.296E+03         31.4485
             412     14.6159E-03     48.5331E-03     473.598E-03     452.265E-03        -1.51180     451.512E-03        -1.51105     473.598E-03     41.7090E-03     52.3067E-03    -25.7606E-03    -26.5459E-03    -25.1783E-03     51.0558E-03    -25.8773E-03     19.2468E-03     135.892E+06     3.02500E+06    -13.6284E+06    -13.5761E+06     135.874E+06     2.99106E+06     1.46591E+06         29.6266
             413     13.6410E-03     48.5084E-03     476.389E-03     459.273E-03        -1.52233     458.839E-03        -1.52190     476.389E-03     37.9313E-03     52.8282E-03    -25.9452E-03    -26.8726E-03    -25.4844E-03     51.4399E-03    -25.9452E-03     20.6402E-03     50.1624E+06    -13.0744E+06    -14.4451E+06    -14.3825E+06     50.1338E+06    -13.1084E+06     1.07674E+06         28.1593
             414     12.6660E-03     48.4896E-03     481.309E-03     465.768E-03        -1.53712     467.770E-03        -1.53661     478.802E-03     60.1016E-03     52.6250E-03    -26.0776E-03    -26.5426E-03    -25.6052E-03     51.6876E-03    -26.0776E-03     17.1162E-03     30.4432E+03    -13.4820E+06    -26.0301E+06    -14.7783E+06    -13.4727E+06    -11.2308E+06     616.117E+03         27.0640
             415     11.6913E-03     48.4727E-03     485.610E-03     469.732E-03        -1.54447     474.395E-03        -1.54421     480.679E-03     42.9785E-03     52.7790E-03    -26.1640E-03    -26.6444E-03    -25.8824E-03     52.0169E-03    -26.1640E-03     15.4351E-03     -11.243E+06    -14.9426E+06    -55.6430E+06    -14.9647E+06    -55.6209E+06     -11.243E+06    -235.161E+03         26.3087
             416     10.7170E-03     48.4576E-03     490.963E-03     477.665E-03        -1.55376     486.292E-03        -1.55327     481.847E-03    -12.0790E-03     52.9449E-03    -26.2288E-03    -26.7581E-03    -26.1409E-03     52.3278E-03    -26.2288E-03     13.9677E-03    -10.5004E+06    -15.8161E+06    -91.4178E+06    -15.9105E+06    -91.3234E+06    -10.5004E+06    -1.89188E+06         25.7743
             417     9.74277E-03     48.4434E-03     502.084E-03     481.805E-03        -1.56384     499.464E-03        -1.56122     481.805E-03     59.2557E-03     52.9437E-03    -26.2734E-03    -26.6996E-03    -26.1399E-03     52.3840E-03    -26.2734E-03     13.2991E-03    -10.5863E+06    -17.9268E+06    -117.067E+06    -18.0497E+06    -116.944E+06    -10.5863E+06    -2.83674E+06         25.3526
             418     8.76851E-03     48.4295E-03     503.242E-03     481.087E-03        -1.55979     495.190E-03        -1.55174     481.087E-03    -58.9065E-03     52.9427E-03    -26.3379E-03    -26.6142E-03    -26.1516E-03     52.4802E-03    -26.3379E-03     12.0636E-03    -7.19139E+06    -18.6475E+06    -139.396E+06    -18.7067E+06    -139.337E+06    -7.19139E+06    -1.08499E+06         25.0076
             419     7.79384E-03     48.4190E-03     494.705E-03     481.560E-03        -1.55377     474.695E-03        -1.53376     481.560E-03     86.6872E-03     53.0017E-03    -26.3890E-03    -26.6095E-03    -26.2316E-03     52.6306E-03    -26.3958E-03     10.8377E-03    -4.09921E+06    -18.9089E+06    -159.938E+06    -18.9400E+06    -159.907E+06    -4.09921E+06     929.146E+03         24.7258
             420     6.81987E-03     48.4072E-03     500.968E-03     483.522E-03        -1.56597     472.396E-03        -1.53740     483.522E-03    -1.47203E-03     52.9555E-03    -26.3745E-03    -26.5789E-03    -26.2281E-03     52.6360E-03    -26.4057E-03     10.0483E-03    -8.12016E+06    -21.3885E+06    -174.291E+06    -21.4057E+06    -174.274E+06    -8.12016E+06     143.126E+03         24.4943
             421     5.84542E-03     48.3972E-03     538.806E-03     484.530E-03        -1.60455     489.749E-03        -1.55550     484.530E-03     143.133E-03     52.9042E-03    -26.3977E-03    -26.5062E-03    -26.2247E-03     52.6472E-03    -26.4222E-03     8.99551E-03    -12.4510E+06    -23.8556E+06    -188.148E+06    -23.8646E+06    -188.139E+06    -12.4510E+06    -995.209E+03         24.3074
             422     4.87091E-03     48.3885E-03     619.090E-03     482.499E-03        -1.68445     504.064E-03        -1.56942     482.499E-03    -216.171E-03     52.9905E-03    -26.4469E-03    -26.5442E-03    -26.3449E-03     52.7912E-03    -26.4469E-03     7.93898E-03    -15.4043E+06    -25.7978E+06    -203.215E+06    -25.8047E+06    -203.208E+06    -15.4043E+06    -972.536E+03         24.1591
             423     3.89677E-03     48.3806E-03     795.496E-03     480.079E-03        -1.85696     486.237E-03        -1.54770     480.079E-03     456.235E-03     53.0996E-03    -26.4449E-03    -26.6570E-03    -26.5091E-03     52.9516E-03    -26.4449E-03     6.82987E-03    -16.6371E+06    -27.9215E+06    -213.250E+06    -27.9301E+06    -213.242E+06    -16.6371E+06    -586.088E+03         24.0410
             424     2.92294E-03     48.3742E-03         1.26970     480.519E-03        -2.32750     475.841E-03        -1.53364     480.519E-03    -834.652E-03     53.0238E-03    -26.3701E-03    -26.6546E-03    -26.5656E-03     52.9347E-03    -26.3701E-03     5.24721E-03    -20.3783E+06    -31.0367E+06    -215.080E+06    -31.0519E+06    -215.065E+06    -20.3783E+06     152.417E+03         23.9464
             425     1.94897E-03     48.3701E-03         2.34044     479.257E-03        -3.38891     488.662E-03        -1.53713     479.257E-03         1.54424     52.6758E-03    -26.2242E-03    -26.4510E-03    -26.3761E-03     52.6351E-03    -26.2585E-03     3.48350E-03    -24.9923E+06    -34.9301E+06    -216.362E+06    -34.9468E+06    -216.345E+06    -24.9923E+06     992.080E+03         23.8600
             426     974.380E-06     48.3665E-03         7.02431         1.96943        -9.56084        -4.77700        -1.52217         5.73207        -4.76219     52.3009E-03    -25.9414E-03    -26.3601E-03    -26.1196E-03     52.2872E-03    -26.1682E-03     1.81651E-03    -33.3684E+06    -39.4644E+06    -219.093E+06    -38.5150E+06    -219.080E+06    -34.3311E+06     3.70571E+03         23.7666
             427     16.5662E-03     47.5276E-03     533.674E-03     459.040E-03        -1.59881     458.804E-03        -1.59857     533.674E-03     32.2623E-03     52.3834E-03    -25.3430E-03    -27.0399E-03    -24.5329E-03     50.7659E-03    -26.2325E-03     11.0569E-03     203.938E+06     103.972E+06    -7.05431E+06    -7.05305E+06     203.937E+06     103.972E+06     468.040E+03         33.4396
             428     15.5910E-03     47.4953E-03     539.221E-03     468.591E-03        -1.61573     467.674E-03        -1.61481     539.221E-03     62.6445E-03     52.7266E-03    -25.9072E-03    -26.8190E-03    -24.8841E-03     50.8961E-03    -26.0115E-03     22.4995E-03     191.041E+06     50.5181E+06    -12.5692E+06    -12.5675E+06     191.039E+06     50.5181E+06     538.152E+03         31.4338
             429     14.6161E-03     47.4802E-03     544.659E-03     493.045E-03        -1.64372     491.681E-03        -1.64236     544.659E-03     31.7605E-03     52.2436E-03    -25.7711E-03    -26.4735E-03    -25.1152E-03     50.9896E-03    -25.8754E-03     19.1447E-03     135.841E+06     3.04491E+06    -15.6023E+06    -15.5615E+06     135.834E+06     3.01097E+06     873.418E+03         29.6153
             430     13.6411E-03     47.4549E-03     548.919E-03     519.861E-03        -1.67385     519.183E-03        -1.67317     548.919E-03     2.21118E-03     52.7764E-03    -25.9491E-03    -26.8164E-03    -25.4084E-03     51.3685E-03    -25.9491E-03     20.7306E-03     50.5161E+06    -12.4249E+06    -15.9832E+06    -15.9229E+06     50.4898E+06    -12.4589E+06     995.735E+03         28.1517
             431     12.6665E-03     47.4372E-03     552.415E-03     525.560E-03        -1.68404     525.278E-03        -1.68376     552.415E-03     33.4721E-03     52.6552E-03    -26.0811E-03    -26.5740E-03    -25.6513E-03     51.7325E-03    -26.0811E-03     16.9911E-03     302.634E+03    -13.8448E+06    -25.7773E+06    -15.6492E+06    -12.8429E+06    -10.8273E+06     435.787E+03         27.0608
             432     11.6915E-03     47.4191E-03     555.594E-03     533.818E-03        -1.69616     533.527E-03        -1.69587     555.594E-03     32.5185E-03     52.7947E-03    -26.1632E-03    -26.6688E-03    -25.9064E-03     52.0324E-03    -26.1632E-03     15.4519E-03    -10.3083E+06    -15.5090E+06    -53.8876E+06    -15.5241E+06    -53.8726E+06    -10.3083E+06    -635.833E+03         26.3080
             433     10.7172E-03     47.4043E-03     560.443E-03     550.549E-03        -1.71615     552.608E-03        -1.71562     557.854E-03    -4.90910E-03     52.9116E-03    -26.2283E-03    -26.7262E-03    -26.1193E-03     52.3047E-03    -26.2283E-03     13.8378E-03    -8.31098E+06    -15.3985E+06    -89.6820E+06    -15.4545E+06    -89.6260E+06    -8.31098E+06    -1.62039E+06         25.7719
             434     9.74291E-03     47.3901E-03     580.230E-03     558.103E-03        -1.73800     578.093E-03        -1.73586     558.103E-03     58.6701E-03     52.8187E-03    -26.2803E-03    -26.5534E-03    -26.0120E-03     52.2773E-03    -26.2803E-03     13.0628E-03    -8.10776E+06    -15.5868E+06    -117.562E+06    -15.6319E+06    -117.491E+06    -8.13384E+06    -1.83854E+06         25.3482
             435     8.76782E-03     47.3771E-03     588.374E-03     556.667E-03        -1.74143     581.734E-03        -1.73479     556.667E-03    -54.8387E-03     52.8982E-03    -26.3489E-03    -26.5540E-03    -26.0851E-03     52.4294E-03    -26.3489E-03     12.1436E-03    -8.01462E+06    -17.8083E+06    -142.139E+06    -17.8191E+06    -142.102E+06    -8.04070E+06    -1.51627E+06         25.0056
             436     7.79402E-03     47.3647E-03     578.231E-03     555.744E-03        -1.72930     562.237E-03        -1.71331     555.744E-03     75.0285E-03     53.1335E-03    -26.4117E-03    -26.7271E-03    -26.3542E-03     52.7606E-03    -26.4117E-03     10.8746E-03    -4.06621E+06    -19.2089E+06    -161.171E+06    -19.2345E+06    -161.145E+06    -4.06621E+06    -491.876E+03         24.7290
             437     6.81984E-03     47.3545E-03     598.497E-03     555.054E-03        -1.74840     569.924E-03        -1.71982     555.054E-03    -62.0619E-03     53.0169E-03    -26.3988E-03    -26.6174E-03    -26.2764E-03     52.7004E-03    -26.4232E-03     10.0151E-03    -4.22194E+06    -19.1426E+06    -172.799E+06    -19.1731E+06    -172.768E+06    -4.22194E+06     832.797E+03         24.4995
             438     5.84513E-03     47.3441E-03     627.601E-03     552.742E-03        -1.77722     576.046E-03        -1.72567     552.742E-03     116.585E-03     52.9089E-03    -26.4178E-03    -26.4912E-03    -26.2039E-03     52.6461E-03    -26.4422E-03     9.09794E-03    -8.44863E+06    -22.3134E+06    -187.463E+06    -22.3296E+06    -187.447E+06    -8.44863E+06     193.791E+03         24.3109
             439     4.87109E-03     47.3353E-03     678.788E-03     549.996E-03        -1.82602     564.045E-03        -1.71128     549.996E-03    -224.820E-03     53.0386E-03    -26.4522E-03    -26.5875E-03    -26.3849E-03     52.8359E-03    -26.4522E-03     8.00716E-03    -14.2919E+06    -26.1932E+06    -203.473E+06    -26.2006E+06    -203.466E+06    -14.2919E+06    -922.745E+03         24.1616
             440     3.89692E-03     47.3273E-03     873.031E-03     548.405E-03        -2.02124     553.909E-03        -1.70212     548.405E-03     513.441E-03     53.0320E-03    -26.4401E-03    -26.5947E-03    -26.4506E-03     52.8879E-03    -26.4401E-03     6.71807E-03    -17.9628E+06    -28.3630E+06    -213.663E+06    -28.3724E+06    -213.654E+06    -17.9628E+06    -1.23006E+06         24.0423
             441     2.92246E-03     47.3210E-03         1.37133     545.677E-03        -2.51652     560.257E-03        -1.70545     545.677E-03    -843.292E-03     52.9402E-03    -26.3894E-03    -26.5522E-03    -26.4547E-03     52.8535E-03    -26.4002E-03     5.19233E-03    -21.3751E+06    -30.7377E+06    -216.601E+06    -30.7532E+06    -216.585E+06    -21.3751E+06    -462.908E+03         23.9457
             442     1.94872E-03     47.3164E-03         2.45968     537.090E-03        -3.59664     562.776E-03        -1.69974     537.090E-03         1.61500     52.8085E-03    -26.3012E-03    -26.5064E-03    -26.4549E-03     52.7678E-03    -26.3120E-03     3.44267E-03    -24.5173E+06    -33.1506E+06    -216.017E+06    -33.1617E+06    -216.006E+06    -24.5173E+06     82.2253E+03         23.8593
             443     974.797E-06     47.3148E-03         6.89227         2.14154        -9.61674        -4.49447        -1.64623         5.55777        -4.84094     52.4126E-03    -26.0464E-03    -26.3652E-03    -26.1602E-03     52.4001E-03    -26.2389E-03     1.89527E-03    -31.1632E+06    -36.6007E+06    -217.059E+06    -36.1659E+06    -217.052E+06    -31.6049E+06    -465.237E+03         23.7674
             444     16.5668E-03     46.4749E-03     598.892E-03     474.646E-03        -1.69668     474.316E-03        -1.69635     598.892E-03     18.2385E-03     52.5209E-03    -25.5064E-03    -27.0149E-03    -24.6147E-03     50.8388E-03    -26.2246E-03     10.9467E-03     203.742E+06     103.895E+06    -6.85762E+06    -6.84854E+06     203.733E+06     103.895E+06     829.634E+03         33.4184
             445     15.5913E-03     46.4416E-03     607.315E-03     492.254E-03        -1.71762     491.915E-03        -1.71729     607.315E-03     18.7704E-03     52.6114E-03    -25.8161E-03    -26.7942E-03    -24.7333E-03     50.7383E-03    -26.0038E-03     22.6588E-03     190.669E+06     49.8554E+06    -12.7633E+06    -12.7538E+06     190.660E+06     49.8554E+06     1.04440E+06         31.4160
             446     14.6161E-03     46.4273E-03     615.350E-03     526.915E-03        -1.76160     526.048E-03        -1.76073     615.350E-03    -22.4572E-03     52.1698E-03    -25.6922E-03    -26.4802E-03    -25.0314E-03     50.9087E-03    -25.8799E-03     19.1611E-03     135.484E+06     3.29477E+06    -15.3174E+06    -15.3137E+06     135.480E+06     3.29477E+06     686.119E+03         29.6015
             447     13.6408E-03     46.4022E-03     621.758E-03     566.525E-03        -1.80806     565.464E-03        -1.80700     621.758E-03    -11.2028E-03     52.8441E-03    -25.9541E-03    -26.8832E-03    -25.4448E-03     51.4057E-03    -25.9541E-03     20.9878E-03     50.8158E+06    -12.2173E+06    -15.2507E+06    -15.2447E+06     50.8098E+06    -12.2173E+06     368.809E+03         28.1421
             448     12.6661E-03     46.3834E-03     626.330E-03     596.004E-03        -1.84366     595.533E-03        -1.84318     626.330E-03     28.2970E-03     52.7822E-03    -26.0769E-03    -26.7033E-03    -25.7670E-03     51.8459E-03    -26.0769E-03     17.1345E-03     1.15782E+06    -13.5452E+06    -24.7607E+06    -14.7819E+06    -11.5676E+06    -10.7986E+06    -516.498E+03         27.0552
             449     11.6919E-03     46.3665E-03     630.593E-03     617.833E-03        -1.87200     618.634E-03        -1.87134     629.140E-03     42.1878E-03     52.7942E-03    -26.1562E-03    -26.6712E-03    -25.8791E-03     52.0021E-03    -26.1562E-03     15.7709E-03    -10.1367E+06    -14.0309E+06    -53.1920E+06    -14.0919E+06    -53.1310E+06    -10.1367E+06    -1.07462E+06         26.3045
             450     10.7172E-03     46.3504E-03     632.556E-03     623.471E-03        -1.87902     624.301E-03        -1.87823     630.939E-03     26.9888E-03     52.7737E-03    -26.2283E-03    -26.5890E-03    -25.9509E-03     52.1356E-03    -26.2283E-03     14.1345E-03    -9.17971E+06    -14.6216E+06    -89.7556E+06    -14.6748E+06    -89.7024E+06    -9.17971E+06    -1.32260E+06         25.7684
             451     9.74264E-03     46.3375E-03     639.222E-03     617.887E-03        -1.87729     622.166E-03        -1.87508     632.734E-03     72.3222E-03     52.9065E-03    -26.2846E-03    -26.6332E-03    -26.0893E-03     52.3625E-03    -26.2846E-03     13.1076E-03    -9.42548E+06    -16.6891E+06    -117.820E+06    -16.7097E+06    -117.773E+06    -9.45156E+06    -1.04191E+06         25.3456
             452     8.76843E-03     46.3236E-03     653.449E-03     623.603E-03        -1.89377     635.925E-03        -1.88675     634.104E-03    -58.1844E-03     52.9903E-03    -26.3492E-03    -26.6333E-03    -26.1574E-03     52.5145E-03    -26.3492E-03     12.2429E-03    -8.17095E+06    -18.1952E+06    -141.541E+06    -18.1790E+06    -141.531E+06    -8.19704E+06    -881.232E+03         25.0035
             453     7.79371E-03     46.3115E-03     669.854E-03     633.553E-03        -1.91427     655.200E-03        -1.89961     633.553E-03     64.0977E-03     52.9940E-03    -26.4274E-03    -26.5663E-03    -26.1898E-03     52.6176E-03    -26.4274E-03     10.9063E-03    -3.46288E+06    -19.9888E+06    -163.194E+06    -20.0007E+06    -163.182E+06    -3.46288E+06    -1.19008E+06         24.7281
             454     6.81941E-03     46.3009E-03     692.636E-03     630.719E-03        -1.93277     662.767E-03        -1.90290     630.719E-03    -100.928E-03     53.0549E-03    -26.4491E-03    -26.6058E-03    -26.2920E-03     52.7410E-03    -26.4491E-03     9.97001E-03    -4.38360E+06    -22.4703E+06    -173.808E+06    -22.4916E+06    -173.786E+06    -4.38360E+06    -241.904E+03         24.5021
             455     5.84553E-03     46.2912E-03     722.779E-03     625.773E-03        -1.95903     666.306E-03        -1.90256     625.773E-03     113.779E-03     53.0495E-03    -26.4562E-03    -26.5942E-03    -26.3291E-03     52.7844E-03    -26.4562E-03     9.16654E-03    -7.84322E+06    -23.5718E+06    -185.982E+06    -23.5869E+06    -185.966E+06    -7.84322E+06     395.376E+03         24.3140
             456     4.87092E-03     46.2818E-03     765.999E-03     620.267E-03        -1.99601     647.962E-03        -1.87797     620.267E-03    -220.500E-03     53.0391E-03    -26.4521E-03    -26.5890E-03    -26.3758E-03     52.8259E-03    -26.4521E-03     8.20569E-03    -14.1995E+06    -25.1793E+06    -202.836E+06    -25.1846E+06    -202.831E+06    -14.1995E+06    -622.244E+03         24.1617
             457     3.89696E-03     46.2740E-03     940.319E-03     616.592E-03        -2.16878     628.146E-03        -1.85661     616.592E-03     506.149E-03     53.0314E-03    -26.4379E-03    -26.5940E-03    -26.4472E-03     52.8846E-03    -26.4379E-03     6.77656E-03    -19.3613E+06    -28.0686E+06    -213.585E+06    -28.0760E+06    -213.577E+06    -19.3613E+06    -1.11104E+06         24.0412
             458     2.92297E-03     46.2680E-03         1.44102     611.690E-03        -2.66567     634.971E-03        -1.85962     611.690E-03    -887.300E-03     52.8643E-03    -26.3866E-03    -26.4779E-03    -26.3617E-03     52.7789E-03    -26.4174E-03     5.13482E-03    -23.6464E+06    -30.2509E+06    -217.704E+06    -30.2557E+06    -217.699E+06    -23.6464E+06    -912.465E+03         23.9457
             459     1.94812E-03     46.2632E-03         2.52311     609.528E-03        -3.74693     603.971E-03        -1.82779     609.528E-03         1.63048     52.7418E-03    -26.2776E-03    -26.4636E-03    -26.2815E-03     52.7041E-03    -26.4220E-03     3.28644E-03    -27.3346E+06    -32.4986E+06    -216.219E+06    -32.5033E+06    -216.214E+06    -27.3346E+06    -866.164E+03         23.8631
             460     973.964E-06     46.2614E-03         6.76263         2.26790        -9.64157        -4.22215        -1.83090         5.44201        -4.96978     52.8109E-03    -26.2223E-03    -26.5859E-03    -26.4600E-03     52.7986E-03    -26.3359E-03     1.89861E-03    -33.2064E+06    -36.9782E+06    -217.805E+06    -36.9824E+06    -217.801E+06    -33.2064E+06     56.6749E+03         23.7772
             461     16.5667E-03     45.4215E-03     663.236E-03     466.427E-03        -1.77335     466.145E-03        -1.77307     663.236E-03     8.60827E-03     52.5117E-03    -25.5019E-03    -27.0118E-03    -24.5794E-03     50.8067E-03    -26.2292E-03     11.0643E-03     203.289E+06     104.458E+06    -6.84533E+06    -6.83502E+06     203.279E+06     104.458E+06     1.00203E+06         33.3931
             462     15.5911E-03     45.3890E-03     674.477E-03     535.713E-03        -1.84406     535.444E-03        -1.84379     674.477E-03     9.43743E-03     52.5646E-03    -25.7684E-03    -26.7937E-03    -24.6423E-03     50.6559E-03    -26.0112E-03     22.8944E-03     190.715E+06     50.4615E+06    -11.8057E+06    -11.7925E+06     190.702E+06     50.4615E+06     1.45110E+06         31.3951
             463     14.6154E-03     45.3739E-03     683.599E-03     581.838E-03        -1.90030     581.484E-03        -1.89994     683.599E-03     4.29195E-03     52.2120E-03    -25.6378E-03    -26.5760E-03    -25.0820E-03     50.9607E-03    -25.8805E-03     19.1711E-03     135.907E+06     2.33835E+06    -14.1712E+06    -14.1663E+06     135.902E+06     2.33835E+06     481.419E+03         29.5858
             464     13.6410E-03     45.3491E-03     691.483E-03     603.677E-03        -1.93068     603.014E-03        -1.93002     691.483E-03     23.0139E-03     52.9110E-03    -25.9484E-03    -26.9570E-03    -25.5355E-03     51.4895E-03    -25.9484E-03     20.9149E-03     51.8221E+06    -13.4823E+06    -14.8408E+06    -14.8338E+06     51.8151E+06    -13.4823E+06    -277.012E+03         28.1311
             465     12.6662E-03     45.3300E-03     697.866E-03     648.327E-03        -1.98149     647.666E-03        -1.98083     697.866E-03     18.0124E-03     52.6706E-03    -26.0740E-03    -26.5937E-03    -25.6538E-03     51.7307E-03    -26.0740E-03     17.1406E-03     1.16401E+06    -14.1107E+06    -24.0547E+06    -14.7655E+06    -10.4057E+06    -11.8301E+06    -1.17650E+06         27.0480
             466     11.6915E-03     45.3132E-03     702.984E-03     686.837E-03        -2.02538     687.591E-03        -2.02468     701.532E-03     22.4139E-03     52.6819E-03    -26.1734E-03    -26.5412E-03    -25.7382E-03     51.8789E-03    -26.1734E-03     15.8619E-03    -10.7028E+06    -15.1552E+06    -53.8740E+06    -15.2650E+06    -53.7642E+06    -10.7028E+06    -1.67272E+06         26.3001
             467     10.7167E-03     45.2977E-03     705.217E-03     690.721E-03        -2.03233     691.243E-03        -2.03139     703.764E-03     4.26871E-03     52.8214E-03    -26.2696E-03    -26.5956E-03    -25.9399E-03     52.1657E-03    -26.2696E-03     14.3293E-03    -7.76564E+06    -16.3730E+06    -90.9528E+06    -16.4123E+06    -90.9135E+06    -7.76564E+06     45.5674E+03         25.7666
             468     9.74220E-03     45.2839E-03     706.532E-03     685.512E-03        -2.02871     682.575E-03        -2.02577     706.532E-03     69.2209E-03     53.0416E-03    -26.3273E-03    -26.7369E-03    -26.1894E-03     52.4941E-03    -26.3273E-03     13.1681E-03    -6.82660E+06    -18.5048E+06    -116.826E+06    -18.5292E+06    -116.802E+06    -6.82660E+06     323.777E+03         25.3458
             469     8.76820E-03     45.2702E-03     718.856E-03     697.065E-03        -2.04971     699.324E-03        -2.04230     709.195E-03    -46.8837E-03     53.0230E-03    -26.3703E-03    -26.6590E-03    -26.1806E-03     52.5446E-03    -26.3703E-03     12.2838E-03    -7.98569E+06    -20.2628E+06    -141.158E+06    -20.2753E+06    -141.146E+06    -7.98569E+06    -1.18412E+06         25.0033
             470     7.79386E-03     45.2589E-03     759.212E-03     708.535E-03        -2.09506     740.964E-03        -2.07681     708.535E-03     114.581E-03     52.9517E-03    -26.4395E-03    -26.5170E-03    -26.1258E-03     52.5605E-03    -26.4395E-03     11.1135E-03    -5.41965E+06    -21.7899E+06    -164.122E+06    -21.7979E+06    -164.114E+06    -5.41965E+06    -695.947E+03         24.7256
             471     6.81929E-03     45.2474E-03     778.566E-03     704.120E-03        -2.10754     747.773E-03        -2.07674     704.120E-03    -36.5410E-03     53.0436E-03    -26.4641E-03    -26.5789E-03    -26.2556E-03     52.7203E-03    -26.4641E-03     10.1069E-03    -7.62009E+06    -24.2498E+06    -174.217E+06    -24.2546E+06    -174.212E+06    -7.62009E+06    -539.381E+03         24.4998
             472     5.84496E-03     45.2379E-03     783.383E-03     699.175E-03        -2.11057     729.117E-03        -2.05630     699.175E-03     144.310E-03     53.0859E-03    -26.4646E-03    -26.6202E-03    -26.3510E-03     52.8167E-03    -26.4646E-03     9.24591E-03    -13.5821E+06    -26.8427E+06    -186.266E+06    -26.8484E+06    -186.260E+06    -13.5821E+06    -698.681E+03         24.3137
             473     4.87113E-03     45.2287E-03     838.749E-03     694.072E-03        -2.16344     726.422E-03        -2.05111     694.072E-03    -204.636E-03     53.0330E-03    -26.4612E-03    -26.5724E-03    -26.3461E-03     52.8067E-03    -26.4612E-03     8.45643E-03    -20.6865E+06    -28.8012E+06    -201.813E+06    -28.8055E+06    -201.809E+06    -20.6865E+06    -398.503E+03         24.1607
             474     3.89657E-03     45.2208E-03         1.01406     687.606E-03        -2.33031     717.887E-03        -2.03413     687.606E-03     519.174E-03     53.0436E-03    -26.4667E-03    -26.5743E-03    -26.4146E-03     52.8839E-03    -26.4667E-03     7.06810E-03    -25.1258E+06    -30.1249E+06    -213.461E+06    -30.1340E+06    -213.452E+06    -25.1258E+06    -910.485E+03         24.0404
             475     2.92241E-03     45.2146E-03         1.46455     684.156E-03        -2.77250     684.718E-03        -1.99268     684.156E-03    -864.900E-03     52.9974E-03    -26.4503E-03    -26.5447E-03    -26.4359E-03     52.9085E-03    -26.4702E-03     5.22046E-03    -26.5712E+06    -31.5525E+06    -218.988E+06    -31.5601E+06    -218.980E+06    -26.5712E+06    -1.00707E+06         23.9503
             476     1.94863E-03     45.2108E-03         2.52930     698.180E-03        -3.84779     642.997E-03        -1.96148     698.180E-03         1.67990     52.8561E-03    -26.3503E-03    -26.5053E-03    -26.3338E-03     52.8182E-03    -26.4839E-03     3.34187E-03    -28.5235E+06    -33.1812E+06    -217.040E+06    -33.1827E+06    -217.039E+06    -28.5235E+06    -430.308E+03         23.8730
             477     973.790E-06     45.2077E-03         6.58590         2.44688        -9.64837        -3.87748        -2.04072         5.30262        -5.17183     52.9547E-03    -26.2151E-03    -26.7384E-03    -26.3850E-03     52.9410E-03    -26.5547E-03     1.92845E-03    -32.3148E+06    -36.3778E+06    -217.459E+06    -34.8601E+06    -217.455E+06    -33.8365E+06     504.547E+03         23.7888
             478     16.5662E-03     44.3683E-03     723.271E-03     496.147E-03        -1.87733     495.589E-03        -1.87678     723.271E-03     39.2726E-03     52.4691E-03    -25.4258E-03    -27.0429E-03    -24.6073E-03     50.8486E-03    -26.2409E-03     10.9856E-03     202.605E+06     104.217E+06    -6.98716E+06    -6.98513E+06     202.603E+06     104.217E+06     398.076E+03         33.3661
             479     15.5909E-03     44.3360E-03     736.060E-03     571.913E-03        -1.96063     571.401E-03        -1.96012     736.060E-03     40.1188E-03     52.6588E-03    -25.8301E-03    -26.8277E-03    -24.7848E-03     50.8115E-03    -26.0257E-03     22.6610E-03     190.836E+06     51.6820E+06    -11.8111E+06    -11.8021E+06     190.827E+06     51.6820E+06     1.08749E+06         31.3728
             480     14.6159E-03     44.3208E-03     746.875E-03     614.514E-03        -2.01366     614.017E-03        -2.01317     746.875E-03     46.4809E-03     52.2579E-03    -25.6914E-03    -26.5696E-03    -25.1197E-03     51.0037E-03    -25.8870E-03     19.2301E-03     136.989E+06     3.47491E+06    -14.2678E+06    -14.2539E+06     136.975E+06     3.47491E+06     1.07309E+06         29.5692
             481     13.6409E-03     44.2955E-03     756.868E-03     636.154E-03        -2.04741     635.953E-03        -2.04721     756.868E-03     29.9110E-03     52.8406E-03    -25.9521E-03    -26.8841E-03    -25.4645E-03     51.4210E-03    -25.9521E-03     20.8930E-03     53.0482E+06    -13.2874E+06    -15.2283E+06    -15.2045E+06     53.0244E+06    -13.2874E+06    -237.033E+03         28.1194
             482     12.6662E-03     44.2773E-03     766.058E-03     671.708E-03        -2.08998     671.261E-03        -2.08953     766.058E-03    -4.00998E-03     52.5538E-03    -26.0842E-03    -26.4746E-03    -25.5233E-03     51.6024E-03    -26.0842E-03     17.2200E-03     363.913E+03    -15.0227E+06    -24.7551E+06    -16.0811E+06    -10.4295E+06    -12.9033E+06    -504.323E+03         27.0409
             483     11.6911E-03     44.2601E-03     773.286E-03     714.665E-03        -2.13778     714.108E-03        -2.13722     773.286E-03     5.30979E-03     52.6717E-03    -26.1904E-03    -26.5214E-03    -25.7274E-03     51.8777E-03    -26.1904E-03     15.7612E-03    -12.3943E+06    -18.7753E+06    -54.8365E+06    -18.8931E+06    -54.7187E+06    -12.3943E+06     222.394E+03         26.2969
             484     10.7165E-03     44.2446E-03     778.786E-03     753.549E-03        -2.18207     753.671E-03        -2.18134     777.932E-03    -6.92496E-03     52.8821E-03    -26.2691E-03    -26.6548E-03    -26.0074E-03     52.2347E-03    -26.2691E-03     14.2685E-03    -11.2812E+06    -20.4861E+06    -91.1825E+06    -20.6287E+06    -91.0399E+06    -11.2812E+06    -440.567E+03         25.7661
             485     9.74252E-03     44.2301E-03     789.997E-03     773.824E-03        -2.21189     780.653E-03        -2.20872     779.998E-03     78.4163E-03     52.9518E-03    -26.3275E-03    -26.6544E-03    -26.1096E-03     52.4070E-03    -26.3275E-03     13.1205E-03    -9.74536E+06    -19.1490E+06    -116.463E+06    -19.2482E+06    -116.364E+06    -9.74536E+06    -858.100E+03         25.3468
             486     8.76775E-03     44.2175E-03     799.037E-03     778.720E-03        -2.22662     789.424E-03        -2.21864     780.349E-03    -48.2742E-03     52.9589E-03    -26.3867E-03    -26.5971E-03    -26.1316E-03     52.4934E-03    -26.3867E-03     12.1147E-03    -9.63892E+06    -19.1763E+06    -141.195E+06    -19.1846E+06    -141.187E+06    -9.63892E+06    -296.314E+03         25.0043
             487     7.79330E-03     44.2053E-03     815.849E-03     779.452E-03        -2.24233     798.566E-03        -2.22505     779.452E-03     93.2504E-03     53.0074E-03    -26.4507E-03    -26.5681E-03    -26.1728E-03     52.6122E-03    -26.4507E-03     11.1829E-03    -8.99496E+06    -21.5197E+06    -164.155E+06    -21.5323E+06    -164.142E+06    -8.99496E+06    -459.880E+03         24.7239
             488     6.81919E-03     44.1945E-03     831.547E-03     777.252E-03        -2.25494     802.092E-03        -2.22548     777.252E-03    -56.9436E-03     53.0498E-03    -26.4857E-03    -26.5619E-03    -26.2255E-03     52.7134E-03    -26.4857E-03     10.3096E-03    -10.3363E+06    -23.3595E+06    -174.100E+06    -23.3669E+06    -174.092E+06    -10.3363E+06    -319.934E+03         24.4958
             489     5.84487E-03     44.1843E-03     841.944E-03     774.718E-03        -2.26534     792.712E-03        -2.21611     774.718E-03     113.715E-03     53.1040E-03    -26.5022E-03    -26.5999E-03    -26.3310E-03     52.8351E-03    -26.5022E-03     9.22618E-03    -15.1352E+06    -25.4968E+06    -186.724E+06    -25.5003E+06    -186.720E+06    -15.1352E+06    -219.721E+03         24.3122
             490     4.87034E-03     44.1757E-03     900.823E-03     771.218E-03        -2.32020     797.994E-03        -2.21737     771.218E-03    -231.431E-03     53.1180E-03    -26.5163E-03    -26.6010E-03    -26.3843E-03     52.9013E-03    -26.5163E-03     8.28324E-03    -20.2232E+06    -28.2238E+06    -201.766E+06    -28.2259E+06    -201.764E+06    -20.2232E+06     20.8787E+03         24.1623
             491     3.89632E-03     44.1674E-03         1.07258     766.045E-03        -2.48385     790.872E-03        -2.20214     766.045E-03     521.057E-03     53.0487E-03    -26.4648E-03    -26.5823E-03    -26.3543E-03     52.8929E-03    -26.5370E-03     6.97656E-03    -25.2489E+06    -30.6827E+06    -213.265E+06    -30.6895E+06    -213.258E+06    -25.2489E+06    -349.093E+03         24.0432
             492     2.92221E-03     44.1613E-03         1.50757     763.985E-03        -2.91022     760.818E-03        -2.16347     763.985E-03    -868.771E-03     53.0859E-03    -26.4908E-03    -26.5946E-03    -26.4255E-03     52.9967E-03    -26.5707E-03     5.25393E-03    -28.0617E+06    -32.6396E+06    -219.599E+06    -32.6530E+06    -219.585E+06    -28.0617E+06    -1.30317E+06         23.9562
             493     1.94780E-03     44.1572E-03         2.57888     770.997E-03        -3.98878     746.469E-03        -2.15637     770.997E-03         1.71619     53.1813E-03    -26.5733E-03    -26.6076E-03    -26.5524E-03     53.1389E-03    -26.5862E-03     3.58448E-03    -26.9251E+06    -34.8113E+06    -217.224E+06    -34.8206E+06    -217.215E+06    -26.9251E+06    -994.371E+03         23.8824
             494     974.575E-06     44.1545E-03         6.35203         2.62027        -9.59893        -3.51538        -2.18227         5.07101        -5.25194     53.0707E-03    -26.3533E-03    -26.7165E-03    -26.4678E-03     53.0532E-03    -26.5846E-03     2.18490E-03    -30.4775E+06    -39.2047E+06    -218.106E+06    -37.6885E+06    -218.101E+06    -31.9993E+06     282.370E+03         23.7970
             495     16.5661E-03     43.3142E-03     777.761E-03     535.781E-03        -1.98686     535.041E-03        -1.98612     777.761E-03     23.4023E-03     52.4201E-03    -25.4294E-03    -26.9895E-03    -24.6315E-03     50.8704E-03    -26.2376E-03     10.6767E-03     202.196E+06     103.207E+06    -6.64001E+06    -6.63966E+06     202.196E+06     103.207E+06     78.3553E+03         33.3399
             496     15.5911E-03     43.2833E-03     792.519E-03     578.235E-03        -2.04041     577.639E-03        -2.03981     792.519E-03     14.6476E-03     52.6203E-03    -25.8427E-03    -26.7766E-03    -24.8027E-03     50.8285E-03    -26.0247E-03     22.4364E-03     190.236E+06     51.1699E+06    -11.9733E+06    -11.9690E+06     190.232E+06     51.1699E+06     373.927E+03         31.3508
             497     14.6156E-03     43.2672E-03     806.532E-03     623.683E-03        -2.09869     623.186E-03        -2.09820     806.532E-03     24.9100E-03     52.1985E-03    -25.7139E-03    -26.4894E-03    -25.0272E-03     50.9184E-03    -25.8960E-03     19.4237E-03     137.622E+06     4.98888E+06    -13.4575E+06    -13.4457E+06     137.611E+06     4.98888E+06     1.05356E+06         29.5521
             498     13.6408E-03     43.2428E-03     819.050E-03     673.418E-03        -2.16528     673.121E-03        -2.16498     819.050E-03     17.3475E-03     52.7711E-03    -25.9649E-03    -26.8031E-03    -25.3806E-03     51.3486E-03    -25.9649E-03     20.8641E-03     54.0036E+06    -12.3659E+06    -14.4839E+06    -14.4337E+06     53.9533E+06    -12.3659E+06     767.655E+03         28.1076
             499     12.6656E-03     43.2241E-03     829.927E-03     712.764E-03        -2.21278     712.470E-03        -2.21249     829.927E-03     20.8267E-03     52.6225E-03    -26.0965E-03    -26.5303E-03    -25.6029E-03     51.6952E-03    -26.0965E-03     17.0129E-03     704.841E+03    -15.0425E+06    -25.9929E+06    -16.1697E+06    -11.2559E+06    -12.9050E+06     840.991E+03         27.0350
             500     11.6912E-03     43.2072E-03     839.161E-03     751.205E-03        -2.25435     749.922E-03        -2.25307     839.161E-03     66.3826E-03     52.7834E-03    -26.1906E-03    -26.6289E-03    -25.8383E-03     51.9928E-03    -26.1906E-03     15.7567E-03    -11.7031E+06    -16.4110E+06    -54.3445E+06    -16.1397E+06    -54.2616E+06    -12.0573E+06     1.32409E+06         26.2966
             501     10.7169E-03     43.1908E-03     846.975E-03     795.576E-03        -2.30818     795.102E-03        -2.30685     846.121E-03     60.1729E-03     52.8395E-03    -26.2622E-03    -26.6164E-03    -25.9681E-03     52.1912E-03    -26.2622E-03     14.2557E-03    -10.9832E+06    -17.1949E+06    -89.1508E+06    -16.9712E+06    -89.0202E+06    -11.3375E+06    -49.8396E+03         25.7687
             502     9.74185E-03     43.1774E-03     859.792E-03     832.899E-03        -2.35811     840.177E-03        -2.35539     849.793E-03     109.546E-03     52.8328E-03    -26.3268E-03    -26.5274E-03    -25.9847E-03     52.2901E-03    -26.3268E-03     13.0769E-03    -12.4614E+06    -19.8977E+06    -118.099E+06    -20.0016E+06    -117.995E+06    -12.4614E+06    -1.09914E+06         25.3494
             503     8.76770E-03     43.1637E-03     865.240E-03     848.310E-03        -2.37649     854.864E-03        -2.36871     850.906E-03    -50.6405E-03     52.9256E-03    -26.3985E-03    -26.5422E-03    -26.0772E-03     52.4605E-03    -26.3985E-03     12.0930E-03    -11.7138E+06    -21.9525E+06    -142.018E+06    -21.9639E+06    -142.007E+06    -11.7138E+06     195.322E+03         25.0051
             504     7.79338E-03     43.1525E-03     860.583E-03     849.511E-03        -2.37457     842.935E-03        -2.35950     852.082E-03     72.1234E-03     53.0085E-03    -26.4721E-03    -26.5440E-03    -26.1549E-03     52.6194E-03    -26.4721E-03     11.0982E-03    -10.1166E+06    -23.3570E+06    -162.499E+06    -23.3682E+06    -162.487E+06    -10.1166E+06     326.688E+03         24.7225
             505     6.81867E-03     43.1410E-03     877.422E-03     852.123E-03        -2.39544     850.536E-03        -2.37010     853.665E-03    -65.2090E-03     53.0821E-03    -26.5124E-03    -26.5650E-03    -26.2289E-03     52.7460E-03    -26.5124E-03     10.3042E-03    -12.2035E+06    -24.8208E+06    -174.640E+06    -24.8508E+06    -174.610E+06    -12.2035E+06    -1.01552E+06         24.4930
             506     5.84447E-03     43.1312E-03     912.093E-03     853.559E-03        -2.42781     866.405E-03        -2.38212     853.559E-03     129.968E-03     53.1680E-03    -26.5433E-03    -26.6219E-03    -26.3555E-03     52.9017E-03    -26.5433E-03     9.18854E-03    -13.7591E+06    -25.6259E+06    -186.802E+06    -25.6511E+06    -186.777E+06    -13.7591E+06    -550.920E+03         24.3105
             507     4.87063E-03     43.1220E-03     953.230E-03     853.409E-03        -2.46656     851.120E-03        -2.36445     853.409E-03    -244.234E-03     53.1974E-03    -26.5604E-03    -26.6378E-03    -26.4141E-03     52.9873E-03    -26.5740E-03     8.15916E-03    -15.7458E+06    -26.6978E+06    -202.431E+06    -26.6994E+06    -202.430E+06    -15.7458E+06     229.996E+03         24.1646
             508     3.89635E-03     43.1143E-03         1.10674     856.849E-03        -2.62254     836.455E-03        -2.35225     856.849E-03     502.168E-03     53.1151E-03    -26.4980E-03    -26.6175E-03    -26.3641E-03     52.9671E-03    -26.6035E-03     6.81174E-03    -19.6420E+06    -28.9488E+06    -212.795E+06    -28.9530E+06    -212.791E+06    -19.6420E+06     371.816E+03         24.0478
             509     2.92167E-03     43.1081E-03         1.58068     859.067E-03        -3.09417     864.627E-03        -2.37812     859.067E-03    -921.809E-03     53.0979E-03    -26.4573E-03    -26.6406E-03    -26.3697E-03     53.0104E-03    -26.6406E-03     5.21270E-03    -26.4713E+06    -31.8620E+06    -218.088E+06    -31.8854E+06    -218.065E+06    -26.4713E+06    -1.02058E+06         23.9601
             510     1.94801E-03     43.1032E-03         2.65475     848.508E-03        -4.14932     888.887E-03        -2.38345     848.508E-03         1.67296     53.2805E-03    -26.5876E-03    -26.6933E-03    -26.5440E-03     53.2368E-03    -26.6933E-03     3.64846E-03    -29.7327E+06    -35.0770E+06    -219.257E+06    -35.0988E+06    -219.235E+06    -29.7327E+06    -1.61033E+06         23.8864
             511     973.447E-06     43.1011E-03         6.09447         2.76841        -9.50358        -3.14611        -2.31628         4.82169        -5.30514     53.3726E-03    -26.6214E-03    -26.7510E-03    -26.7173E-03     53.3542E-03    -26.6367E-03     2.23751E-03    -32.3770E+06    -38.9080E+06    -219.441E+06    -38.4710E+06    -219.379E+06    -32.8755E+06    -1.66169E+06         23.8027
             512     16.5667E-03     42.2616E-03     829.182E-03     539.798E-03        -2.05674     539.445E-03        -2.05639     829.182E-03    -9.69182E-03     52.2882E-03    -25.3757E-03    -26.9106E-03    -24.4805E-03     50.7194E-03    -26.2370E-03     10.8213E-03     201.848E+06     103.806E+06    -6.82778E+06    -6.82722E+06     201.847E+06     103.806E+06     265.289E+03         33.3139
             513     15.5908E-03     42.2296E-03     846.848E-03     582.934E-03        -2.11731     582.689E-03        -2.11707     846.848E-03    -16.0275E-03     52.5482E-03    -25.8443E-03    -26.7028E-03    -24.7089E-03     50.7391E-03    -26.0292E-03     22.4684E-03     190.039E+06     51.8216E+06    -11.8876E+06    -11.8872E+06     190.039E+06     51.8216E+06     162.770E+03         31.3287
             514     14.6158E-03     42.2148E-03     863.534E-03     645.069E-03        -2.19662     644.810E-03        -2.19636     863.534E-03    -22.8452E-03     52.2320E-03    -25.7121E-03    -26.5234E-03    -25.0840E-03     50.9775E-03    -25.8970E-03     19.2490E-03     137.353E+06     4.32580E+06    -14.8903E+06    -14.8880E+06     137.351E+06     4.32580E+06     401.171E+03         29.5352
             515     13.6403E-03     42.1892E-03     877.682E-03     717.555E-03        -2.28371     717.162E-03        -2.28332     877.682E-03    -1.89818E-03     52.7933E-03    -25.9625E-03    -26.8235E-03    -25.4592E-03     51.4290E-03    -25.9625E-03     20.4047E-03     54.2101E+06    -12.1801E+06    -15.7597E+06    -15.7227E+06     54.1731E+06    -12.1801E+06     991.050E+03         28.0961
             516     12.6662E-03     42.1712E-03     888.988E-03     772.120E-03        -2.34515     771.923E-03        -2.34495     888.988E-03     29.2980E-03     52.5942E-03    -26.0951E-03    -26.5003E-03    -25.6114E-03     51.7053E-03    -26.0951E-03     16.6645E-03     1.98548E+06    -13.8465E+06    -25.8461E+06    -15.5031E+06    -10.9940E+06    -11.2101E+06     977.336E+03         27.0296
             517     11.6913E-03     42.1538E-03     898.504E-03     801.894E-03        -2.37864     800.824E-03        -2.37757     898.504E-03     64.8797E-03     52.7234E-03    -26.1900E-03    -26.5694E-03    -25.7741E-03     51.9281E-03    -26.1900E-03     15.7942E-03    -10.5431E+06    -15.5019E+06    -54.0220E+06    -15.1644E+06    -54.0053E+06    -10.8974E+06     289.079E+03         26.2970
             518     10.7165E-03     42.1378E-03     907.629E-03     817.518E-03        -2.40460     815.979E-03        -2.40306     907.629E-03     30.1396E-03     52.8128E-03    -26.2783E-03    -26.5746E-03    -25.9376E-03     52.1757E-03    -26.2783E-03     14.1068E-03    -7.33098E+06    -15.4618E+06    -88.6619E+06    -15.1360E+06    -88.6335E+06    -7.68525E+06     1.10381E+06         25.7717
             519     9.74233E-03     42.1242E-03     915.479E-03     861.202E-03        -2.45494     858.656E-03        -2.45240     915.479E-03     75.6688E-03     52.8149E-03    -26.3386E-03    -26.4868E-03    -25.9489E-03     52.2990E-03    -26.3606E-03     12.7484E-03    -5.61001E+06    -16.6702E+06    -117.657E+06    -16.7606E+06    -117.567E+06    -5.61001E+06     1.98577E+06         25.3510
             520     8.76738E-03     42.1108E-03     920.297E-03     904.536E-03        -2.50451     899.464E-03        -2.49944     920.297E-03    -28.7120E-03     52.8774E-03    -26.3989E-03    -26.4817E-03    -25.9938E-03     52.4213E-03    -26.4308E-03     11.9727E-03    -7.16756E+06    -20.3365E+06    -142.389E+06    -20.4069E+06    -142.319E+06    -7.16756E+06     768.357E+03         25.0047
             521     7.79286E-03     42.0990E-03     928.181E-03     918.091E-03        -2.52636     909.950E-03        -2.51310     923.052E-03     122.400E-03     53.0375E-03    -26.5006E-03    -26.5457E-03    -26.1541E-03     52.6558E-03    -26.5105E-03     10.9888E-03    -4.94111E+06    -22.4686E+06    -161.531E+06    -22.4787E+06    -161.521E+06    -4.94111E+06    -137.537E+03         24.7216
             522     6.81890E-03     42.0878E-03     938.806E-03     923.626E-03        -2.53894     914.599E-03        -2.51646     925.353E-03    -25.0750E-03     53.0885E-03    -26.5190E-03    -26.5673E-03    -26.2152E-03     52.7596E-03    -26.5423E-03     10.1967E-03    -8.86701E+06    -24.5115E+06    -173.697E+06    -24.5378E+06    -173.670E+06    -8.86701E+06    -757.583E+03         24.4912
             523     5.84451E-03     42.0776E-03     956.879E-03     927.968E-03        -2.55808     911.734E-03        -2.51312     928.153E-03     186.439E-03     53.1130E-03    -26.5103E-03    -26.5996E-03    -26.2649E-03     52.8392E-03    -26.5712E-03     9.31324E-03    -14.4021E+06    -27.2401E+06    -188.014E+06    -27.2999E+06    -187.954E+06    -14.4021E+06    -1.76150E+06         24.3082
             524     4.87012E-03     42.0686E-03     996.915E-03     933.331E-03        -2.60438     901.488E-03        -2.50895     933.331E-03    -187.109E-03     53.2399E-03    -26.5690E-03    -26.6706E-03    -26.4013E-03     53.0217E-03    -26.6201E-03     8.31237E-03    -15.8824E+06    -28.5846E+06    -203.748E+06    -28.6222E+06    -203.710E+06    -15.8824E+06    -838.951E+03         24.1646
             525     3.89593E-03     42.0610E-03         1.17314     940.765E-03        -2.78504     911.160E-03        -2.52307     940.765E-03     575.707E-03     53.2607E-03    -26.5881E-03    -26.6720E-03    -26.4623E-03     53.1107E-03    -26.6479E-03     6.86473E-03    -18.5800E+06    -29.7309E+06    -212.120E+06    -29.7373E+06    -212.114E+06    -18.5800E+06     427.565E+03         24.0508
             526     2.92235E-03     42.0545E-03         1.63513     945.569E-03        -3.24868     941.525E-03        -2.55508     945.569E-03    -874.558E-03     53.2282E-03    -26.5298E-03    -26.6972E-03    -26.4781E-03     53.1391E-03    -26.6598E-03     5.27273E-03    -24.9245E+06    -31.6971E+06    -216.343E+06    -31.7180E+06    -216.322E+06    -24.9245E+06    -142.449E+03         23.9625
             527     1.94737E-03     42.0503E-03         2.69895     941.616E-03        -4.30064     961.496E-03        -2.56319     941.616E-03         1.74822     53.3020E-03    -26.5678E-03    -26.7340E-03    -26.5980E-03     53.2588E-03    -26.6606E-03     3.58618E-03    -32.4245E+06    -34.9342E+06    -220.295E+06    -34.9577E+06    -220.272E+06    -32.4245E+06    -884.666E+03         23.8878
             528     974.192E-06     42.0461E-03         5.86261         2.89767        -9.40390        -2.73292        -2.51635         4.60564        -5.23659     53.2827E-03    -26.5452E-03    -26.7374E-03    -26.7155E-03     53.2708E-03    -26.5553E-03     1.62198E-03    -36.4361E+06    -38.4240E+06    -221.086E+06    -37.4907E+06    -221.021E+06    -37.4344E+06    -2.22966E+06         23.8066
             529     16.5661E-03     41.2081E-03     876.626E-03     539.706E-03        -2.12062     539.605E-03        -2.12052     876.626E-03     12.4658E-03     52.1775E-03    -25.3619E-03    -26.8128E-03    -24.4008E-03     50.6329E-03    -26.2294E-03     10.6934E-03     201.587E+06     103.488E+06    -6.54361E+06    -6.53981E+06     201.583E+06     103.488E+06     85.7823E+03         33.2879
             530     15.5909E-03     41.1769E-03     896.686E-03     596.880E-03        -2.19929     596.783E-03        -2.19919     896.686E-03     14.1654E-03     52.5149E-03    -25.9106E-03    -26.6043E-03    -24.6996E-03     50.7204E-03    -26.0209E-03     22.4114E-03     189.846E+06     50.8803E+06    -11.5708E+06    -11.5583E+06     189.833E+06     50.8803E+06     546.342E+03         31.3070
             531     14.6156E-03     41.1610E-03     915.228E-03     670.075E-03        -2.28821     669.931E-03        -2.28806     915.228E-03    -18.5400E-03     52.3377E-03    -25.7767E-03    -26.5643E-03    -25.2165E-03     51.1003E-03    -25.8870E-03     19.1944E-03     137.217E+06     3.77016E+06    -15.1840E+06    -15.1724E+06     137.206E+06     3.77016E+06     1.06400E+06         29.5187
             532     13.6416E-03     41.1362E-03     931.242E-03     739.572E-03        -2.37182     739.333E-03        -2.37159     931.242E-03    -1.34619E-03     52.7847E-03    -25.9527E-03    -26.8227E-03    -25.4639E-03     51.4260E-03    -25.9527E-03     20.4133E-03     54.3557E+06    -11.5613E+06    -16.3109E+06    -16.3012E+06     54.3461E+06    -11.5613E+06     343.306E+03         28.0850
             533     12.6661E-03     41.1180E-03     944.986E-03     791.569E-03        -2.43307     791.406E-03        -2.43291     944.986E-03     5.60623E-03     52.5483E-03    -26.0879E-03    -26.4606E-03    -25.5451E-03     51.6328E-03    -26.0879E-03     16.8918E-03     2.67506E+06    -13.6520E+06    -25.4763E+06    -16.1756E+06    -10.3113E+06    -9.96626E+06     227.996E+03         27.0238
             534     11.6913E-03     41.1009E-03     957.263E-03     827.231E-03        -2.47422     826.922E-03        -2.47391     957.263E-03     20.6548E-03     52.6923E-03    -26.1843E-03    -26.5442E-03    -25.7428E-03     51.8909E-03    -26.1843E-03     15.8466E-03    -10.0741E+06    -16.7558E+06    -53.8461E+06    -16.7677E+06    -53.8342E+06    -10.0741E+06     462.235E+03         26.2945
             535     10.7169E-03     41.0845E-03     968.557E-03     860.554E-03        -2.51973     859.654E-03        -2.51883     968.557E-03    -24.8746E-03     52.7572E-03    -26.2735E-03    -26.5246E-03    -25.8856E-03     52.1182E-03    -26.2735E-03     14.1227E-03    -8.18704E+06    -18.0147E+06    -90.1507E+06    -18.0318E+06    -90.1336E+06    -8.18704E+06     865.483E+03         25.7693
             536     9.74217E-03     41.0709E-03     978.167E-03     904.089E-03        -2.57234     901.493E-03        -2.56974     978.167E-03     50.5335E-03     52.7930E-03    -26.3430E-03    -26.4613E-03    -25.9265E-03     52.2802E-03    -26.3649E-03     12.7053E-03    -3.94658E+06    -17.8953E+06    -117.504E+06    -17.9630E+06    -117.436E+06    -3.94658E+06     1.70475E+06         25.3486
             537     8.76773E-03     41.0580E-03     985.501E-03     940.913E-03        -2.61714     936.329E-03        -2.61256     985.501E-03    -22.9824E-03     52.9058E-03    -26.4084E-03    -26.4932E-03    -25.9980E-03     52.4424E-03    -26.4403E-03     12.0802E-03    -3.18951E+06    -17.3287E+06    -139.873E+06    -17.3952E+06    -139.806E+06    -3.18951E+06     1.11031E+06         25.0027
             538     7.79328E-03     41.0454E-03     995.902E-03     968.452E-03        -2.65717     962.159E-03        -2.64575     990.774E-03     115.217E-03     53.0356E-03    -26.4868E-03    -26.5497E-03    -26.1382E-03     52.6539E-03    -26.5166E-03     10.9687E-03    -2.36341E+06    -19.3704E+06    -161.674E+06    -19.3813E+06    -161.663E+06    -2.36341E+06    -292.261E+03         24.7201
             539     6.81867E-03     41.0347E-03         1.00044     984.000E-03        -2.67627     967.066E-03        -2.65421     995.316E-03    -57.5243E-03     52.9987E-03    -26.4381E-03    -26.5593E-03    -26.1244E-03     52.6799E-03    -26.5543E-03     10.0410E-03    -6.53156E+06    -22.5614E+06    -173.396E+06    -22.5640E+06    -173.393E+06    -6.53156E+06    -24.9845E+03         24.4905
             540     5.84419E-03     41.0244E-03         1.01319     995.876E-03        -2.69685     963.897E-03        -2.65283         1.00116     165.153E-03     53.0841E-03    -26.4555E-03    -26.6252E-03    -26.2136E-03     52.8064E-03    -26.5893E-03     9.37343E-03    -13.4772E+06    -24.9882E+06    -186.896E+06    -25.0240E+06    -186.860E+06    -13.4772E+06    -951.243E+03         24.3074
             541     4.86988E-03     41.0153E-03         1.07407         1.00737        -2.76513     982.894E-03        -2.67395         1.00737    -203.281E-03     53.2956E-03    -26.5904E-03    -26.7036E-03    -26.4399E-03     53.0851E-03    -26.6437E-03     8.15099E-03    -16.3035E+06    -27.7223E+06    -205.428E+06    -27.7792E+06    -205.371E+06    -16.3035E+06    -1.84908E+06         24.1654
             542     3.89607E-03     41.0070E-03         1.24978         1.01176        -2.94929         1.00054        -2.70004         1.01176     562.341E-03     53.3199E-03    -26.6253E-03    -26.6950E-03    -26.5135E-03     53.1806E-03    -26.6675E-03     6.62717E-03    -19.1092E+06    -30.4157E+06    -213.387E+06    -30.4407E+06    -213.362E+06    -19.1092E+06    -537.041E+03         24.0544
             543     2.92139E-03     41.0014E-03         1.67716         1.01660        -3.37798     998.615E-03        -2.69943         1.01660    -896.479E-03     53.3739E-03    -26.6215E-03    -26.7523E-03    -26.6375E-03     53.2857E-03    -26.6480E-03     5.27023E-03    -24.4943E+06    -33.4287E+06    -215.870E+06    -33.4373E+06    -215.861E+06    -24.4943E+06     862.018E+03         23.9666
             544     1.94864E-03     40.9956E-03         2.72024         1.02467        -4.42274         1.00577        -2.70828         1.02467         1.75637     53.2791E-03    -26.5473E-03    -26.7305E-03    -26.6403E-03     53.2352E-03    -26.5936E-03     3.60107E-03    -29.5128E+06    -36.8897E+06    -218.387E+06    -36.9028E+06    -218.374E+06    -29.5128E+06     331.530E+03         23.8897
             545     974.057E-06     40.9937E-03         5.58817         3.00856        -9.27102        -2.31094        -2.73315         4.36981        -5.16506     53.0348E-03    -26.3906E-03    -26.6437E-03    -26.5570E-03     53.0190E-03    -26.4615E-03     2.04972E-03    -38.2956E+06    -42.7270E+06    -223.213E+06    -42.2535E+06    -223.187E+06    -38.7954E+06     449.603E+03         23.8078
             546     16.5672E-03     40.1553E-03     917.646E-03     557.932E-03        -2.19423     557.794E-03        -2.19410     917.646E-03     37.3751E-03     52.3111E-03    -25.3763E-03    -26.9331E-03    -24.4956E-03     50.7134E-03    -26.2162E-03     10.6617E-03     201.243E+06     102.323E+06    -6.70286E+06    -6.68558E+06     201.225E+06     102.323E+06     430.182E+03         33.2631
             547     15.5910E-03     40.1241E-03     938.753E-03     622.989E-03        -2.28022     622.790E-03        -2.28002     938.753E-03     44.6937E-03     52.5975E-03    -25.8758E-03    -26.7214E-03    -24.7707E-03     50.7754E-03    -26.0044E-03     22.5309E-03     189.085E+06     49.8278E+06    -12.5494E+06    -12.5249E+06     189.060E+06     49.8278E+06     1.02436E+06         31.2864
             548     14.6162E-03     40.1072E-03     958.776E-03     679.202E-03        -2.35484     679.074E-03        -2.35471     958.776E-03     20.6877E-03     52.1327E-03    -25.7538E-03    -26.3846E-03    -25.0098E-03     50.8865E-03    -25.8824E-03     19.1530E-03     136.993E+06     4.71490E+06    -14.7001E+06    -14.6874E+06     136.981E+06     4.71490E+06     943.068E+03         29.5029
             549     13.6405E-03     40.0835E-03     978.134E-03     720.442E-03        -2.41389     720.299E-03        -2.41374     978.134E-03     23.4718E-03     52.6672E-03    -25.9607E-03    -26.6991E-03    -25.3054E-03     51.2735E-03    -25.9607E-03     20.6409E-03     54.7971E+06    -10.3672E+06    -15.5844E+06    -15.5329E+06     54.7455E+06    -10.3672E+06     848.285E+03         28.0738
             550     12.6661E-03     40.0649E-03     996.706E-03     775.665E-03        -2.48119     775.499E-03        -2.48102     996.706E-03     16.6013E-03     52.6932E-03    -26.0927E-03    -26.5969E-03    -25.6448E-03     51.7411E-03    -26.0927E-03     17.2565E-03     2.72874E+06    -13.9522E+06    -25.1662E+06    -17.3073E+06    -9.25905E+06    -9.82335E+06     303.848E+03         27.0173
             551     11.6916E-03     40.0478E-03         1.01278     851.392E-03        -2.56705     850.957E-03        -2.56661         1.01278     43.4648E-03     52.7957E-03    -26.1774E-03    -26.6494E-03    -25.8327E-03     51.9791E-03    -26.1774E-03     16.0037E-03    -11.1424E+06    -17.1855E+06    -54.6072E+06    -17.2292E+06    -54.5635E+06    -11.1424E+06     163.321E+03         26.2898
             552     10.7167E-03     40.0315E-03         1.02538     914.454E-03        -2.64427     913.753E-03        -2.64357         1.02538     4.87828E-03     52.7013E-03    -26.2600E-03    -26.4797E-03    -25.8264E-03     52.0537E-03    -26.2657E-03     14.2241E-03    -9.33941E+06    -17.0788E+06    -91.0108E+06    -17.1143E+06    -90.9753E+06    -9.33941E+06     1.21989E+06         25.7633
             553     9.74219E-03     40.0180E-03         1.03615     939.249E-03        -2.68027     936.738E-03        -2.67776         1.03615     77.6290E-03     52.7946E-03    -26.3479E-03    -26.4624E-03    -25.9288E-03     52.2668E-03    -26.3537E-03     12.8870E-03    -6.19699E+06    -18.7658E+06    -116.692E+06    -18.8066E+06    -116.651E+06    -6.19699E+06     220.669E+03         25.3433
             554     8.76754E-03     40.0047E-03         1.04742     953.523E-03        -2.70637     947.087E-03        -2.69994         1.04742    -48.6052E-03     52.9762E-03    -26.4154E-03    -26.5614E-03    -26.0915E-03     52.5063E-03    -26.4154E-03     12.1820E-03    -6.94332E+06    -19.7427E+06    -138.965E+06    -19.7597E+06    -138.948E+06    -6.94332E+06    -441.832E+03         25.0001
             555     7.79317E-03     39.9922E-03         1.05874     990.747E-03        -2.75607     978.721E-03        -2.74404         1.05874     69.2122E-03     52.9518E-03    -26.4099E-03    -26.5420E-03    -26.0707E-03     52.5654E-03    -26.4949E-03     11.0231E-03    -5.17302E+06    -20.5185E+06    -161.522E+06    -20.5275E+06    -161.513E+06    -5.17302E+06     500.828E+03         24.7199
             556     6.81888E-03     39.9815E-03         1.06857         1.03230        -2.80396         1.01147        -2.78313         1.06857    -72.4802E-03     52.9972E-03    -26.3957E-03    -26.5995E-03    -26.1244E-03     52.6800E-03    -26.5537E-03     10.0147E-03    -5.77169E+06    -22.6099E+06    -173.419E+06    -22.6137E+06    -173.416E+06    -5.77169E+06     175.619E+03         24.4924
             557     5.84423E-03     39.9713E-03         1.08586         1.06474        -2.85308         1.03429        -2.81371         1.07694     138.553E-03     53.1656E-03    -26.4987E-03    -26.6637E-03    -26.3060E-03     52.8912E-03    -26.5819E-03     9.32724E-03    -12.0691E+06    -25.3567E+06    -185.628E+06    -25.3572E+06    -185.628E+06    -12.0691E+06    -141.037E+03         24.3088
             558     4.87037E-03     39.9610E-03         1.14944         1.08358        -2.93682         1.05971        -2.84708         1.08358    -263.791E-03     53.2702E-03    -26.5887E-03    -26.6800E-03    -26.4505E-03     53.0665E-03    -26.6146E-03     8.00993E-03    -17.3550E+06    -28.4782E+06    -205.780E+06    -28.4987E+06    -205.760E+06    -17.3550E+06    -1.01828E+06         24.1659
             559     3.89587E-03     39.9542E-03         1.31461         1.08804        -3.10613         1.07628        -2.86779         1.08804     508.992E-03     53.3196E-03    -26.6096E-03    -26.7095E-03    -26.5606E-03     53.1864E-03    -26.6253E-03     6.48996E-03    -20.2895E+06    -31.7412E+06    -215.078E+06    -31.7649E+06    -215.054E+06    -20.2895E+06    -946.009E+03         24.0557
             560     2.92255E-03     39.9469E-03         1.71807         1.09303        -3.51541         1.07491        -2.87226         1.09303    -909.317E-03     53.2321E-03    -26.5100E-03    -26.7208E-03    -26.5429E-03     53.1469E-03    -26.6027E-03     5.17083E-03    -24.9913E+06    -34.1726E+06    -216.085E+06    -34.1790E+06    -216.078E+06    -24.9913E+06     538.564E+03         23.9680
             561     1.94773E-03     39.9428E-03         2.72996         1.10112        -4.52447         1.08234        -2.87684         1.10112         1.72924     53.1122E-03    -26.4409E-03    -26.6694E-03    -26.4602E-03     53.0681E-03    -26.6059E-03     3.65205E-03    -29.1708E+06    -37.8047E+06    -218.147E+06    -37.8168E+06    -218.135E+06    -29.1708E+06     1.26733E+06         23.8900
             562     973.974E-06     39.9399E-03         5.28045         3.14914        -9.11035        -1.89560        -2.89219         4.10702        -5.16421     53.1540E-03    -26.4909E-03    -26.6629E-03    -26.5481E-03     53.1360E-03    -26.5879E-03     2.22662E-03    -35.7884E+06    -42.2242E+06    -221.538E+06    -42.2764E+06    -221.486E+06    -35.7884E+06     659.696E+03         23.8071
             563     16.5660E-03     39.1034E-03     953.047E-03     579.341E-03        -2.25670     579.222E-03        -2.25658     953.047E-03    -1.58380E-03     52.5464E-03    -25.3248E-03    -27.2231E-03    -24.6191E-03     50.8471E-03    -26.2295E-03     11.3693E-03     201.016E+06     103.307E+06    -7.00370E+06    -6.98878E+06     201.001E+06     103.307E+06     856.585E+03         33.2399
             564     15.5917E-03     39.0693E-03     974.782E-03     649.863E-03        -2.35070     649.687E-03        -2.35052     974.782E-03     17.8392E-03     52.8276E-03    -25.8244E-03    -27.0020E-03    -24.9149E-03     50.9244E-03    -26.0084E-03     22.9045E-03     189.660E+06     51.1239E+06    -11.7675E+06    -11.7544E+06     189.647E+06     51.1239E+06     829.803E+03         31.2669
             565     14.6160E-03     39.0558E-03     996.383E-03     675.556E-03        -2.40195     675.406E-03        -2.40180     996.383E-03     15.4768E-03     51.9917E-03    -25.6931E-03    -26.3037E-03    -24.8728E-03     50.7448E-03    -25.8771E-03     19.0287E-03     136.532E+06     3.73289E+06    -14.2187E+06    -14.2116E+06     136.525E+06     3.73289E+06     437.022E+03         29.4877
             566     13.6408E-03     39.0297E-03         1.01889     709.524E-03        -2.45642     709.368E-03        -2.45627         1.01889     15.5373E-03     52.5935E-03    -25.9674E-03    -26.6199E-03    -25.2031E-03     51.1767E-03    -25.9674E-03     20.7630E-03     54.4800E+06    -10.7153E+06    -15.0557E+06    -14.9979E+06     54.4223E+06    -10.7153E+06     1.37281E+06         28.0628
             567     12.6657E-03     39.0122E-03         1.04052     784.948E-03        -2.54948     784.835E-03        -2.54936         1.04052     27.3036E-03     52.7823E-03    -26.1040E-03    -26.6703E-03    -25.7159E-03     51.8279E-03    -26.1040E-03     17.2967E-03     3.68003E+06    -12.0705E+06    -23.5918E+06    -15.2096E+06    -7.96542E+06    -8.80726E+06      877.89E+03         27.0112
             568     11.6912E-03     38.9939E-03         1.05872     874.183E-03        -2.65116     873.655E-03        -2.65063         1.05872     66.2643E-03     52.8611E-03    -26.1844E-03    -26.7042E-03    -25.9065E-03     52.0634E-03    -26.1844E-03     15.8167E-03    -11.3653E+06    -16.8133E+06    -55.2851E+06    -16.8794E+06    -55.2190E+06    -11.3653E+06     106.214E+03         26.2868
             569     10.7169E-03     38.9790E-03         1.07416     918.817E-03        -2.71110     918.143E-03        -2.71043         1.07416     35.1383E-03     52.7476E-03    -26.2524E-03    -26.5360E-03    -25.8989E-03     52.1163E-03    -26.2582E-03     14.0752E-03    -11.0821E+06    -16.5384E+06    -91.6987E+06    -16.6001E+06    -91.6370E+06    -11.0821E+06    -13.9004E+03         25.7602
             570     9.74194E-03     38.9646E-03         1.08967     936.386E-03        -2.74295     934.570E-03        -2.74113         1.08967     85.3960E-03     52.8779E-03    -26.3513E-03    -26.5485E-03    -26.0149E-03     52.3500E-03    -26.3570E-03     12.8961E-03    -3.88642E+06    -15.5064E+06    -115.837E+06    -15.6336E+06    -115.710E+06    -3.88642E+06     668.138E+03         25.3406
             571     8.76790E-03     38.9514E-03         1.10606     968.459E-03        -2.79090     962.829E-03        -2.78527         1.10606    -56.9284E-03     52.9679E-03    -26.4246E-03    -26.5548E-03    -26.1044E-03     52.5175E-03    -26.4246E-03     11.9252E-03    -3.64421E+06    -18.5029E+06    -138.805E+06    -18.5695E+06    -138.738E+06    -3.64421E+06     473.691E+03         25.0000
             572     7.79338E-03     38.9393E-03         1.12211         1.01511        -2.85338         1.00312        -2.84138         1.12211     82.5724E-03     52.9309E-03    -26.4174E-03    -26.5198E-03    -26.0860E-03     52.5621E-03    -26.4825E-03     10.7736E-03    -5.49020E+06    -21.7833E+06    -161.561E+06    -21.7926E+06    -161.551E+06    -5.49020E+06    -317.522E+03         24.7218
             573     6.81847E-03     38.9285E-03         1.13623         1.07015        -2.92013         1.05174        -2.90171         1.13623    -38.5215E-03     53.0334E-03    -26.4540E-03    -26.5784E-03    -26.1853E-03     52.7186E-03    -26.5322E-03     9.98597E-03    -5.61981E+06    -23.3882E+06    -173.371E+06    -23.3968E+06    -173.362E+06    -5.61981E+06    -170.862E+03         24.4946
             574     5.84489E-03     38.9173E-03         1.14802         1.12487        -2.98545         1.08998        -2.95024         1.14770     163.089E-03     53.1663E-03    -26.5261E-03    -26.6397E-03    -26.3417E-03     52.8918E-03    -26.5496E-03     9.32802E-03    -11.1405E+06    -25.4032E+06    -185.905E+06     -25.405E+06    -185.903E+06    -11.1405E+06     82.0871E+03         24.3102
             575     4.87015E-03     38.9085E-03         1.20584         1.15638        -3.07465         1.12363        -2.99245         1.15638    -247.094E-03     53.2325E-03    -26.5577E-03    -26.6740E-03    -26.4594E-03     53.0282E-03    -26.5679E-03     8.03240E-03    -16.5232E+06    -28.1624E+06    -205.191E+06    -28.1659E+06    -205.188E+06    -16.5232E+06     468.950E+03         24.1647
             576     3.89661E-03     38.8999E-03         1.38282         1.16128        -3.25841         1.15224        -3.02783         1.16128     555.321E-03     53.2038E-03    -26.5222E-03    -26.6811E-03    -26.4976E-03     53.0661E-03    -26.5680E-03     6.59035E-03    -20.6739E+06    -31.7302E+06    -214.470E+06    -31.7399E+06    -214.460E+06    -20.6739E+06    -491.311E+03         24.0520
             577     2.92211E-03     38.8942E-03         1.77076         1.16297        -3.64588         1.16191        -3.03703         1.16297    -846.729E-03     53.0551E-03    -26.4222E-03    -26.6335E-03    -26.4092E-03     52.9693E-03    -26.5607E-03     5.17156E-03    -26.5100E+06    -34.9120E+06    -217.602E+06    -34.9208E+06    -217.593E+06    -26.5100E+06    -469.687E+03         23.9647
             578     1.94806E-03     38.8892E-03         2.75076         1.16628        -4.62021         1.15488        -3.02433         1.16628         1.77639     53.0625E-03    -26.4554E-03    -26.6071E-03    -26.4454E-03     53.0196E-03    -26.5742E-03     3.59614E-03    -30.8591E+06    -37.0828E+06    -217.976E+06    -37.0943E+06    -217.965E+06    -30.8591E+06     1.22026E+06         23.8880
             579     973.856E-06     38.8859E-03         4.97289         3.33529        -9.00393        -1.48661        -3.03294         3.82379        -5.19100     53.0968E-03    -26.4278E-03    -26.6699E-03    -26.6298E-03     53.0827E-03    -26.4538E-03     1.92964E-03    -37.3606E+06    -42.1260E+06    -220.560E+06    -42.1605E+06    -220.526E+06    -37.3606E+06    -41.3134E+03         23.8038
             580     16.5663E-03     38.0487E-03     984.079E-03     588.969E-03        -2.31474     588.825E-03        -2.31460     984.079E-03    -38.7236E-03     52.5269E-03    -25.4704E-03    -27.0577E-03    -24.6585E-03     50.9026E-03    -26.2452E-03     11.2457E-03     200.744E+06     104.237E+06    -7.06086E+06    -7.05520E+06     200.739E+06     104.237E+06     297.855E+03         33.2193
             581     15.5906E-03     38.0168E-03         1.00769     641.229E-03        -2.38520     641.088E-03        -2.38506         1.00769    -14.5734E-03     52.6356E-03    -25.7951E-03    -26.8392E-03    -24.7508E-03     50.7789E-03    -26.0267E-03     22.6769E-03     189.709E+06     51.8458E+06    -11.5816E+06    -11.5754E+06     189.703E+06     51.8458E+06     174.664E+03         31.2488
             582     14.6159E-03     38.0019E-03         1.03133     686.441E-03        -2.45061     686.345E-03        -2.45052         1.03133    -9.85405E-03     52.1584E-03    -25.6581E-03    -26.5031E-03    -25.0270E-03     50.9139E-03    -25.8897E-03     19.1180E-03     136.531E+06     3.28749E+06    -14.0667E+06    -14.0198E+06     136.522E+06     3.24931E+06     831.588E+03         29.4728
             583     13.6406E-03     37.9781E-03         1.05469     741.650E-03        -2.52954     741.551E-03        -2.52944         1.05469    -9.21557E-03     52.8374E-03    -25.9623E-03    -26.8681E-03    -25.4370E-03     51.4063E-03    -25.9623E-03     20.9926E-03     54.8177E+06    -12.0055E+06    -14.6718E+06    -14.6002E+06     54.7842E+06    -12.0437E+06     1.07860E+06         28.0522
             584     12.6658E-03     37.9578E-03         1.07689     807.676E-03        -2.61631     807.482E-03        -2.61611         1.07689    -9.36005E-03     52.7732E-03    -26.0967E-03    -26.6707E-03    -25.7230E-03     51.8256E-03    -26.0967E-03     17.2122E-03     3.83575E+06    -13.0756E+06    -23.8118E+06    -15.4178E+06    -8.23084E+06    -9.40299E+06     1.59847E+06         27.0055
             585     11.6916E-03     37.9412E-03         1.09772     861.012E-03        -2.68506     860.482E-03        -2.68453         1.09772     22.9530E-03     52.7492E-03    -26.1835E-03    -26.5947E-03    -25.8448E-03     51.9992E-03    -26.1835E-03     15.3337E-03    -10.4660E+06    -16.3363E+06    -53.8533E+06    -16.4680E+06    -53.7216E+06    -10.4660E+06     822.657E+03         26.2851
             586     10.7166E-03     37.9254E-03         1.11852     892.303E-03        -2.73831     891.620E-03        -2.73763         1.11852     7.93017E-03     52.7646E-03    -26.2513E-03    -26.5572E-03    -25.9195E-03     52.1269E-03    -26.2513E-03     14.1581E-03    -12.2970E+06    -17.7835E+06    -90.7949E+06    -17.8188E+06    -90.7596E+06    -12.2970E+06     -848.24E+03         25.7593
             587     9.74278E-03     37.9115E-03         1.13935     942.935E-03        -2.81168     941.392E-03        -2.81014         1.13935     57.8396E-03     52.9193E-03    -26.3422E-03    -26.6082E-03    -26.0550E-03     52.3660E-03    -26.3422E-03     13.2004E-03    -7.32690E+06    -19.0101E+06    -117.873E+06    -19.1164E+06    -117.767E+06    -7.32690E+06    -128.257E+03         25.3400
             588     8.76783E-03     37.8979E-03         1.15856         1.00616        -2.89173         1.00195        -2.88752         1.15856    -57.5767E-03     52.9234E-03    -26.4092E-03    -26.5286E-03    -26.0554E-03     52.4619E-03    -26.4209E-03     12.0598E-03    -2.77033E+06    -19.3824E+06    -138.717E+06    -19.5004E+06    -138.599E+06    -2.77033E+06     1.69263E+06         25.0004
             589     7.79350E-03     37.8862E-03         1.17614         1.05341        -2.95488         1.04320        -2.94467         1.17614     88.7195E-03     53.0142E-03    -26.4567E-03    -26.5586E-03    -26.1550E-03     52.6224E-03    -26.4685E-03     11.1167E-03    -5.22734E+06    -21.7069E+06    -159.628E+06    -21.7604E+06    -159.574E+06    -5.22734E+06     367.699E+03         24.7213
             590     6.81970E-03     37.8749E-03         1.19239         1.10546        -3.02219         1.08876        -3.00548         1.19239    -40.4172E-03     53.1453E-03    -26.4828E-03    -26.6581E-03    -26.3059E-03     52.8062E-03    -26.4959E-03     10.3572E-03    -8.22178E+06    -24.2051E+06    -173.654E+06    -24.2251E+06    -173.634E+06    -8.22178E+06    -1.41286E+06         24.4934
             591     5.84448E-03     37.8645E-03         1.21133         1.17342        -3.10828         1.14387        -3.07282         1.20543     192.767E-03     53.1605E-03    -26.4963E-03    -26.6635E-03    -26.3746E-03     52.8847E-03    -26.5094E-03     9.34153E-03    -11.2359E+06    -25.8086E+06    -187.050E+06    -25.8264E+06    -187.032E+06    -11.2359E+06     35.8174E+03         24.3100
             592     4.87100E-03     37.8544E-03         1.26119         1.21413        -3.19665         1.18286        -3.11832         1.21413    -207.133E-03     53.0936E-03    -26.4736E-03    -26.6208E-03    -26.3635E-03     52.8871E-03    -26.5244E-03     8.07772E-03    -16.2035E+06    -27.9064E+06    -204.616E+06    -27.9146E+06    -204.607E+06    -16.2035E+06     913.197E+03         24.1630
             593     3.89638E-03     37.8470E-03         1.41945         1.22047        -3.36355         1.19788        -3.14198         1.22047     578.690E-03     53.0112E-03    -26.4328E-03    -26.5797E-03    -26.3202E-03     52.8663E-03    -26.5474E-03     6.74092E-03    -20.8732E+06    -30.8540E+06    -214.311E+06    -30.8757E+06    -214.289E+06    -20.8732E+06     483.526E+03         24.0471
             594     2.92225E-03     37.8406E-03         1.81173         1.22617        -3.76206         1.21104        -3.16137         1.22617    -869.685E-03     53.1053E-03    -26.4904E-03    -26.6166E-03    -26.4619E-03     53.0143E-03    -26.5541E-03     5.33026E-03    -26.4918E+06    -35.0686E+06    -217.979E+06    -35.0887E+06    -217.959E+06    -26.4918E+06     304.266E+03         23.9583
             595     1.94831E-03     37.8358E-03         2.78799         1.22979        -4.73508         1.22671        -3.17380         1.22979         1.75116     53.1106E-03    -26.5126E-03    -26.5973E-03    -26.5498E-03     53.0631E-03    -26.5126E-03     3.79442E-03    -31.8320E+06    -38.8843E+06    -218.501E+06    -38.8871E+06    -218.498E+06    -31.8320E+06     171.100E+03         23.8814
             596     974.434E-06     37.8325E-03         4.78243         3.39533        -8.88439        -1.04802        -3.16784         3.50923        -5.20564     52.8915E-03    -26.3310E-03    -26.5609E-03    -26.4664E-03     52.8749E-03    -26.4089E-03     2.14918E-03    -37.2681E+06    -42.2718E+06    -219.800E+06    -41.3478E+06    -219.794E+06    -38.1981E+06     614.404E+03         23.7965
             597     16.5666E-03     36.9956E-03         1.00932     579.399E-03        -2.34426     579.211E-03        -2.34408         1.00932     5.11564E-03     52.3908E-03    -25.5737E-03    -26.8150E-03    -24.5904E-03     50.8247E-03    -26.2323E-03     10.7221E-03     200.315E+06     103.021E+06    -6.32310E+06    -6.31535E+06     200.307E+06     103.021E+06     274.933E+03         33.2000
             598     15.5911E-03     36.9641E-03         1.03523     624.607E-03        -2.40656     624.200E-03        -2.40615         1.03523     33.6948E-03     52.3205E-03    -25.7116E-03    -26.6079E-03    -24.5002E-03     50.5264E-03    -26.0252E-03     22.2699E-03     188.089E+06     50.0216E+06    -12.6996E+06    -12.6884E+06     188.078E+06     50.0216E+06     763.175E+03         31.2315
             599     14.6149E-03     36.9487E-03         1.06060     700.767E-03        -2.50352     700.413E-03        -2.50317         1.06060     17.6102E-03     52.2287E-03    -25.5924E-03    -26.6389E-03    -25.1102E-03     51.0135E-03    -25.9059E-03     18.9606E-03     136.792E+06     4.18717E+06    -16.1697E+06    -16.1234E+06     136.784E+06     4.14899E+06     1.07049E+06         29.4583
             600     13.6408E-03     36.9243E-03         1.08439     768.746E-03        -2.59586     768.604E-03        -2.59572         1.08439     4.54049E-03     53.0668E-03    -25.9636E-03    -27.0975E-03    -25.7129E-03     51.6821E-03    -25.9636E-03     20.7195E-03     55.2292E+06    -11.8451E+06    -17.2061E+06    -17.1317E+06     55.1930E+06    -11.8833E+06     1.06419E+06         28.0420
             601     12.6665E-03     36.9049E-03         1.10797     802.239E-03        -2.65018     801.910E-03        -2.64985         1.10797    -16.8886E-03     52.6988E-03    -26.0868E-03    -26.6101E-03    -25.6665E-03     51.7552E-03    -26.0868E-03     17.1722E-03     3.67289E+06    -14.1291E+06    -24.5140E+06    -17.1283E+06    -8.31482E+06    -9.52711E+06     1.29271E+06         26.9996
             602     11.6914E-03     36.8877E-03         1.13271     834.320E-03        -2.70418     833.451E-03        -2.70332         1.13271     15.9726E-03     52.5791E-03    -26.1783E-03    -26.4314E-03    -25.6676E-03     51.8154E-03    -26.1783E-03     15.4304E-03    -10.1045E+06    -16.8083E+06    -52.0961E+06    -16.9118E+06    -51.9926E+06    -10.1045E+06     711.103E+03         26.2823
             603     10.7169E-03     36.8729E-03         1.15773     893.839E-03        -2.78869     892.850E-03        -2.78770         1.15773     8.93272E-03     52.7303E-03    -26.2548E-03    -26.5207E-03    -25.8632E-03     52.0728E-03    -26.2548E-03     14.3748E-03    -12.1271E+06    -17.5812E+06    -89.8038E+06    -17.5908E+06    -89.7943E+06    -12.1271E+06     173.327E+03         25.7578
             604     9.74178E-03     36.8577E-03         1.18100     968.449E-03        -2.88691     966.144E-03        -2.88460         1.18100     69.3357E-03     52.9360E-03    -26.3461E-03    -26.6233E-03    -26.0531E-03     52.3658E-03    -26.3461E-03     13.3945E-03    -8.50757E+06    -19.3653E+06    -119.158E+06    -19.4009E+06    -119.123E+06    -8.50757E+06     21.2608E+03         25.3396
             605     8.76790E-03     36.8453E-03         1.20202         1.03038        -2.96892         1.02539        -2.96393         1.20202    -38.8207E-03     52.9536E-03    -26.4041E-03    -26.5669E-03    -26.0924E-03     52.4998E-03    -26.4248E-03     11.9571E-03    -4.12403E+06    -20.9458E+06    -139.793E+06    -21.0336E+06    -139.705E+06    -4.12403E+06     655.731E+03         25.0000
             606     7.79312E-03     36.8327E-03         1.22111         1.09037        -3.04532         1.07994        -3.03488         1.22111     92.7445E-03     52.9831E-03    -26.4356E-03    -26.5510E-03    -26.1063E-03     52.5819E-03    -26.4791E-03     11.2617E-03    -4.01819E+06    -21.8574E+06    -157.081E+06    -21.9203E+06    -157.018E+06    -4.01819E+06     794.555E+03         24.7192
             607     6.81848E-03     36.8215E-03         1.23789         1.15027        -3.12212         1.13278        -3.10463         1.23789    -46.5550E-03     53.2610E-03    -26.4774E-03    -26.7792E-03    -26.3954E-03     52.8999E-03    -26.5001E-03     10.7096E-03    -8.59344E+06    -25.1255E+06    -173.313E+06    -25.1462E+06    -173.292E+06    -8.59344E+06    -530.967E+03         24.4909
             608     5.84563E-03     36.8108E-03         1.25733         1.21178        -3.20079         1.18235        -3.16560         1.25157     177.660E-03     53.2438E-03    -26.4944E-03    -26.7468E-03    -26.4597E-03     52.9567E-03    -26.4944E-03     9.54485E-03    -13.4526E+06    -28.7093E+06    -188.553E+06    -28.7283E+06    -188.534E+06    -13.4526E+06    -538.828E+03         24.3081
             609     4.87063E-03     36.8018E-03         1.29418         1.25811        -3.28307         1.21018        -3.20397         1.26301    -227.196E-03     52.9688E-03    -26.4199E-03    -26.5498E-03    -26.2532E-03     52.7568E-03    -26.5045E-03     8.16425E-03    -18.6058E+06    -30.4578E+06    -204.730E+06    -30.4698E+06    -204.718E+06    -18.6058E+06     500.981E+03         24.1605
             610     3.89635E-03     36.7938E-03         1.42715         1.27686        -3.43840         1.21156        -3.22281         1.27686     540.993E-03     52.9533E-03    -26.4093E-03    -26.5455E-03    -26.2584E-03     52.8024E-03    -26.5455E-03     6.89036E-03    -22.8233E+06    -32.3264E+06    -214.475E+06    -32.3447E+06    -214.456E+06    -22.8233E+06     1.24331E+06         24.0423
             611     2.92209E-03     36.7872E-03         1.82981         1.29597        -3.85945         1.23270        -3.26234         1.29597    -931.572E-03     53.1234E-03    -26.5111E-03    -26.6128E-03    -26.4512E-03     53.0225E-03    -26.5719E-03     5.61524E-03    -26.4456E+06    -34.7877E+06    -217.284E+06    -34.8013E+06    -217.270E+06    -26.4456E+06     799.191E+03         23.9507
             612     1.94815E-03     36.7822E-03         2.81239         1.30966        -4.85241         1.29855        -3.33857         1.30966         1.68014     53.1627E-03    -26.5370E-03    -26.6244E-03    -26.5647E-03     53.1122E-03    -26.5461E-03     3.87871E-03    -30.4491E+06    -38.3036E+06    -218.272E+06    -38.3047E+06    -218.271E+06    -30.4491E+06    -344.827E+03         23.8732
             613     973.934E-06     36.7796E-03         4.81236         3.21124        -8.74638    -585.777E-03        -3.34825         3.21124        -5.17284     52.9590E-03    -26.3976E-03    -26.5599E-03    -26.4666E-03     52.9435E-03    -26.4754E-03     2.05919E-03    -36.2534E+06    -41.6269E+06    -219.431E+06    -40.6732E+06    -219.422E+06    -37.2159E+06    -325.515E+03         23.7905
             614     16.5666E-03     35.9427E-03         1.02793     570.429E-03        -2.36528     570.292E-03        -2.36514         1.02793     32.2582E-03     52.4011E-03    -25.4626E-03    -26.9364E-03    -24.5582E-03     50.7932E-03    -26.2330E-03     10.6675E-03     199.455E+06     103.050E+06    -6.72594E+06    -6.71770E+06     199.446E+06     103.050E+06     601.132E+03         33.1782
             615     15.5908E-03     35.9113E-03         1.05496     630.300E-03        -2.44908     629.908E-03        -2.44869         1.05496     53.9903E-03     52.5603E-03    -25.8309E-03    -26.7285E-03    -24.7313E-03     50.7572E-03    -26.0250E-03     22.2868E-03     188.120E+06     51.4510E+06    -12.3195E+06    -12.3002E+06     188.101E+06     51.4510E+06     1.89445E+06         31.2133
             616     14.6161E-03     35.8959E-03         1.08156     693.882E-03        -2.53542     693.329E-03        -2.53487         1.08156     11.6002E-03     52.2556E-03    -25.6996E-03    -26.5575E-03    -25.1330E-03     51.0252E-03    -25.8937E-03     18.9828E-03     137.575E+06     5.18814E+06    -15.5027E+06    -15.4802E+06     137.553E+06     5.18814E+06     1.75196E+06         29.4444
             617     13.6409E-03     35.8700E-03         1.10762     751.408E-03        -2.61412     751.007E-03        -2.61372         1.10762     3.43141E-03     52.8810E-03    -25.9517E-03    -26.9222E-03    -25.5308E-03     51.4896E-03    -25.9517E-03     20.6570E-03     55.0976E+06    -11.9632E+06    -16.5883E+06    -16.5674E+06     55.0767E+06    -11.9632E+06     980.609E+03         28.0321
             618     12.6663E-03     35.8523E-03         1.13398     791.142E-03        -2.67664     790.686E-03        -2.67618         1.13398    -5.45567E-03     52.5818E-03    -26.0786E-03    -26.4988E-03    -25.5623E-03     51.6453E-03    -26.0786E-03     17.1040E-03     2.59561E+06    -14.6206E+06    -23.7320E+06    -16.4617E+06    -8.53617E+06    -10.7591E+06     424.538E+03         26.9936
             619     11.6913E-03     35.8348E-03         1.16112     837.256E-03        -2.74876     836.335E-03        -2.74784         1.16112     20.1908E-03     52.5637E-03    -26.1820E-03    -26.4086E-03    -25.6234E-03     51.7786E-03    -26.1820E-03     15.6336E-03    -10.1723E+06    -17.0838E+06    -51.4494E+06    -17.1001E+06    -51.4332E+06    -10.1723E+06     573.154E+03         26.2799
             620     10.7165E-03     35.8196E-03         1.18757     913.050E-03        -2.84985     911.669E-03        -2.84847         1.18757    -2.39399E-03     52.7423E-03    -26.2614E-03    -26.5248E-03    -25.8702E-03     52.0876E-03    -26.2614E-03     14.3444E-03    -12.1282E+06    -18.2646E+06    -89.4381E+06    -18.2811E+06    -89.4216E+06    -12.1282E+06     702.322E+03         25.7579
             621     9.74240E-03     35.8049E-03         1.21205     983.515E-03        -2.94353     980.457E-03        -2.94047         1.21205     70.1042E-03     52.8982E-03    -26.3544E-03    -26.5767E-03    -26.0003E-03     52.3223E-03    -26.3549E-03     13.4588E-03    -8.67246E+06    -18.9455E+06    -119.187E+06    -18.9844E+06    -119.148E+06    -8.67246E+06     367.618E+03         25.3401
             622     8.76770E-03     35.7911E-03         1.23478         1.04612        -3.02565         1.04032        -3.01985         1.23478    -32.4882E-03     52.9861E-03    -26.4293E-03    -26.5728E-03    -26.1023E-03     52.5251E-03    -26.4388E-03     12.0407E-03    -4.03319E+06    -19.7644E+06    -140.180E+06    -19.8059E+06    -140.138E+06    -4.03319E+06    -142.163E+03         25.0005
             623     7.79358E-03     35.7805E-03         1.25546         1.11456        -3.11021         1.10256        -3.09821         1.25546     103.491E-03     53.1266E-03    -26.4556E-03    -26.6726E-03    -26.2314E-03     52.7171E-03    -26.4872E-03     11.3916E-03    -3.74348E+06    -21.6119E+06    -157.001E+06    -21.6316E+06    -156.981E+06    -3.74348E+06     503.233E+03         24.7197
             624     6.81924E-03     35.7675E-03         1.27467         1.16549        -3.17967         1.14435        -3.15853         1.27467    -60.7672E-03     53.1988E-03    -26.4468E-03    -26.7477E-03    -26.3267E-03     52.8388E-03    -26.5077E-03     10.6553E-03    -7.79055E+06    -24.3236E+06    -172.120E+06    -24.3362E+06    -172.108E+06    -7.79055E+06     1.16132E+06         24.4902
             625     5.84432E-03     35.7575E-03         1.29339         1.21980        -3.24995         1.18484        -3.21499         1.29339     117.088E-03     53.1176E-03    -26.4581E-03    -26.6580E-03    -26.3269E-03     52.8439E-03    -26.5154E-03     9.31103E-03    -14.0650E+06    -28.1269E+06    -188.900E+06    -28.1347E+06    -188.893E+06    -14.0650E+06     240.821E+03         24.3069
             626     4.87083E-03     35.7485E-03         1.32418         1.28856        -3.34950         1.22391        -3.27225         1.31158    -265.725E-03     53.0926E-03    -26.4860E-03    -26.6075E-03    -26.3366E-03     52.8746E-03    -26.5388E-03     8.29794E-03    -18.5878E+06    -31.8722E+06    -205.542E+06    -31.8818E+06    -205.532E+06    -18.5878E+06     546.399E+03         24.1593
             627     3.89640E-03     35.7408E-03         1.46156         1.33121        -3.53375         1.24734        -3.31952         1.33121     538.104E-03     53.1008E-03    -26.4834E-03    -26.6178E-03    -26.3929E-03     52.9434E-03    -26.5508E-03     7.03419E-03    -23.7175E+06    -34.2366E+06    -213.756E+06    -34.2435E+06    -213.749E+06    -23.7175E+06     767.342E+03         24.0405
             628     2.92211E-03     35.7338E-03         1.87293         1.35270        -3.96173         1.28849        -3.37729         1.35270    -925.794E-03     53.0808E-03    -26.4959E-03    -26.5853E-03    -26.4198E-03     52.9811E-03    -26.5616E-03     5.58267E-03    -27.5897E+06    -35.1771E+06    -216.810E+06    -35.1789E+06    -216.808E+06    -27.5897E+06    -227.930E+03         23.9482
             629     1.94789E-03     35.7287E-03         2.83594         1.37079        -4.94482         1.34202        -3.45090         1.37079         1.68829     53.1032E-03    -26.5050E-03    -26.5989E-03    -26.4839E-03     53.0557E-03    -26.5724E-03     3.72328E-03    -30.4893E+06    -37.8375E+06    -217.720E+06    -37.8395E+06    -217.718E+06    -30.4893E+06    -292.650E+03         23.8706
             630     974.319E-06     35.7257E-03         4.93065         2.97244        -8.66671    -216.487E-03        -3.51957         2.97244        -5.12134     53.0548E-03    -26.4678E-03    -26.5865E-03    -26.5276E-03     53.0411E-03    -26.5130E-03     1.99774E-03    -38.7527E+06    -43.1422E+06    -219.628E+06    -42.6060E+06    -219.623E+06    -39.2942E+06    -352.497E+03         23.7881
             631     16.5660E-03     34.8899E-03         1.04195     575.687E-03        -2.39644     575.472E-03        -2.39622         1.04195     2.08238E-03     52.5152E-03    -25.3513E-03    -27.1645E-03    -24.6111E-03     50.8618E-03    -26.2514E-03     10.8633E-03     198.644E+06     104.204E+06    -7.93041E+06    -7.92395E+06     198.638E+06     104.204E+06     665.997E+03         33.1539
             632     15.5912E-03     34.8575E-03         1.06964     630.179E-03        -2.47371     629.969E-03        -2.47350         1.06964     1.91047E-03     52.8907E-03    -25.9315E-03    -26.9608E-03    -25.0094E-03     51.0555E-03    -26.0476E-03     22.5102E-03     188.956E+06     56.1425E+06    -12.4273E+06    -12.4127E+06     188.942E+06     56.1425E+06     1.25168E+06         31.1938
             633     14.6162E-03     34.8427E-03         1.09735     687.720E-03        -2.55017     687.240E-03        -2.54969         1.09735    -28.1239E-03     52.2765E-03    -25.7794E-03    -26.4998E-03    -25.0930E-03     50.9859E-03    -25.8955E-03     19.3299E-03     137.643E+06     7.69830E+06    -13.7576E+06    -13.7325E+06     137.617E+06     7.69830E+06     1.50719E+06         29.4304
             634     13.6411E-03     34.8173E-03         1.12542     731.733E-03        -2.62316     731.129E-03        -2.62255         1.12542    -13.0416E-03     52.7308E-03    -25.9561E-03    -26.7656E-03    -25.3071E-03     51.2723E-03    -25.9561E-03     21.0423E-03     54.8753E+06    -10.5440E+06    -14.6542E+06    -14.5765E+06     54.7976E+06    -10.5440E+06     1.58961E+06         28.0223
             635     12.6659E-03     34.7990E-03         1.15367     793.599E-03        -2.71021     793.198E-03        -2.70981         1.15367     6.83908E-03     52.5713E-03    -26.0929E-03    -26.4772E-03    -25.5526E-03     51.6467E-03    -26.0929E-03     16.9888E-03     2.64301E+06    -13.2656E+06    -23.5889E+06    -16.1581E+06    -8.25854E+06    -9.79479E+06     1.21690E+06         26.9882
             636     11.6915E-03     34.7821E-03         1.18118     860.784E-03        -2.79958     860.187E-03        -2.79898         1.18118     20.4027E-03     52.6636E-03    -26.1904E-03    -26.5056E-03    -25.7166E-03     51.8746E-03    -26.1904E-03     15.7063E-03    -10.5046E+06    -17.8756E+06    -51.5817E+06    -17.9202E+06    -51.5372E+06    -10.5046E+06     780.825E+03         26.2783
             637     10.7167E-03     34.7664E-03         1.20785     921.987E-03        -2.88178     920.873E-03        -2.88066         1.20785    -11.2418E-03     52.7342E-03    -26.2660E-03    -26.5097E-03    -25.8458E-03     52.0704E-03    -26.2660E-03     14.4335E-03    -11.4682E+06    -17.7403E+06    -88.8220E+06    -17.5174E+06    -88.7985E+06    -11.7145E+06     131.548E+03         25.7576
             638     9.74192E-03     34.7517E-03         1.23366     985.646E-03        -2.97140     982.944E-03        -2.96870         1.23366     63.5385E-03     52.8231E-03    -26.3579E-03    -26.4986E-03    -25.9108E-03     52.2358E-03    -26.3585E-03     13.5957E-03    -9.38528E+06    -17.5766E+06    -119.058E+06    -17.3782E+06    -119.010E+06    -9.63157E+06    -103.622E+03         25.3395
             639     8.76724E-03     34.7385E-03         1.25797         1.05631        -3.06748         1.05039        -3.06155         1.25797    -54.7029E-03     53.0306E-03    -26.4493E-03    -26.6021E-03    -26.1231E-03     52.5522E-03    -26.4499E-03     12.2597E-03    -5.14893E+06    -19.2521E+06    -140.429E+06    -19.2824E+06    -140.398E+06    -5.14893E+06     459.572E+03         25.0013
             640     7.79286E-03     34.7263E-03         1.28091         1.11404        -3.14491         1.10218        -3.13306         1.28091     80.0631E-03     53.2760E-03    -26.4960E-03    -26.7818E-03    -26.3676E-03     52.8619E-03    -26.4960E-03     11.4787E-03    -4.27632E+06    -21.7174E+06    -157.473E+06    -21.7236E+06    -157.467E+06    -4.27632E+06     855.938E+03         24.7218
             641     6.81912E-03     34.7145E-03         1.30397         1.16182        -3.21460         1.14125        -3.19403         1.30397    -72.5497E-03     53.1791E-03    -26.4803E-03    -26.6914E-03    -26.2868E-03     52.8127E-03    -26.5185E-03     10.7454E-03    -7.00437E+06    -24.2159E+06    -171.350E+06    -24.2257E+06    -171.340E+06    -7.00437E+06     1.13640E+06         24.4908
             642     5.84508E-03     34.7042E-03         1.32714         1.22743        -3.30160         1.19166        -3.26583         1.32714     125.726E-03     53.0375E-03    -26.4739E-03    -26.5608E-03    -26.2113E-03     52.7681E-03    -26.5540E-03     9.21741E-03    -10.5540E+06    -26.6938E+06    -188.602E+06    -26.7086E+06    -188.587E+06    -10.5540E+06     1.40547E+06         24.3059
             643     4.86990E-03     34.6952E-03         1.35455         1.31316        -3.41209         1.24574        -3.33910         1.34898    -227.988E-03     53.1836E-03    -26.5487E-03    -26.6362E-03    -26.3797E-03     52.9689E-03    -26.5905E-03     8.25262E-03    -14.5793E+06    -30.0022E+06    -205.648E+06    -30.0120E+06    -205.638E+06    -14.5793E+06     858.615E+03         24.1589
             644     3.89632E-03     34.6869E-03         1.50386         1.36823        -3.61449         1.29842        -3.40905         1.36823     569.802E-03     53.2930E-03    -26.5729E-03    -26.7209E-03    -26.5608E-03     53.1329E-03    -26.5729E-03     7.10577E-03    -21.4352E+06    -33.2232E+06    -212.773E+06    -33.2258E+06     -212.77E+06    -21.4352E+06     11.4067E+03         24.0416
             645     2.92246E-03     34.6808E-03         1.93629         1.37958        -4.05974         1.36462        -3.48807         1.37958    -933.896E-03     53.1556E-03    -26.5058E-03    -26.6500E-03    -26.5280E-03     53.0564E-03    -26.5287E-03     5.56928E-03    -28.5044E+06    -36.0465E+06    -216.804E+06    -36.0487E+06    -216.802E+06    -28.5044E+06    -312.444E+03         23.9503
             646     1.94831E-03     34.6749E-03         2.89670         1.38361        -5.02836         1.37764        -3.50930         1.38361         1.75119     52.9330E-03    -26.3754E-03    -26.5580E-03    -26.3470E-03     52.8856E-03    -26.5389E-03     3.73322E-03    -32.4148E+06    -39.0237E+06    -217.981E+06    -39.0261E+06    -217.978E+06    -32.4148E+06     74.1826E+03         23.8705
             647     973.645E-06     34.6726E-03         5.19817         2.66191        -8.62303     107.921E-03        -3.53278         2.66191        -5.17168     53.0622E-03    -26.3842E-03    -26.6785E-03    -26.5117E-03     53.0459E-03    -26.5347E-03     2.22805E-03    -38.3689E+06    -42.8941E+06    -219.752E+06    -42.3876E+06    -219.749E+06    -38.8779E+06     95.3089E+03         23.7849
             648     16.5661E-03     33.8365E-03         1.05244     586.797E-03        -2.41707     586.541E-03        -2.41682         1.05244    -2.13317E-03     52.5095E-03    -25.4087E-03    -27.1025E-03    -24.6333E-03     50.8787E-03    -26.2470E-03     10.9000E-03     198.726E+06     103.856E+06    -6.82094E+06    -6.81690E+06     198.722E+06     103.856E+06     661.454E+03         33.1309
             649     15.5909E-03     33.8035E-03         1.08031     632.398E-03        -2.48469     632.215E-03        -2.48451         1.08031    -12.0549E-03     52.7268E-03    -25.8302E-03    -26.8989E-03    -24.8722E-03     50.9133E-03    -26.0434E-03     22.3148E-03     187.775E+06     54.5175E+06    -12.0915E+06    -12.0903E+06     187.774E+06     54.5175E+06    -88.1186E+03         31.1753
             650     14.6158E-03     33.7900E-03         1.10862     685.424E-03        -2.56374     685.153E-03        -2.56347         1.10862    -19.2872E-03     52.2138E-03    -25.6897E-03    -26.5308E-03    -25.0565E-03     50.9528E-03    -25.9029E-03     19.0995E-03     136.936E+06     6.83020E+06    -14.9396E+06    -14.9232E+06     136.920E+06     6.83020E+06     747.864E+03         29.4169
             651     13.6405E-03     33.7640E-03         1.13723     736.744E-03        -2.64506     736.431E-03        -2.64474         1.13723    -15.7182E-03     52.7420E-03    -25.9679E-03    -26.7693E-03    -25.3226E-03     51.2952E-03    -25.9679E-03     20.9966E-03     55.5236E+06    -10.5307E+06    -15.5135E+06    -15.4334E+06     55.4436E+06    -10.5307E+06     1.77560E+06         28.0133
             652     12.6661E-03     33.7459E-03         1.16557     805.475E-03        -2.74074     805.301E-03        -2.74057         1.16557    -4.04860E-03     52.5950E-03    -26.1067E-03    -26.4883E-03    -25.5587E-03     51.6654E-03    -26.1067E-03     17.0323E-03     3.38697E+06    -11.9635E+06    -23.6636E+06    -15.0747E+06    -8.06878E+06    -9.09665E+06     1.80305E+06         26.9835
             653     11.6910E-03     33.7289E-03         1.19306     869.915E-03        -2.82933     869.440E-03        -2.82885         1.19306     24.5121E-03     52.7229E-03    -26.1992E-03    -26.5546E-03    -25.7634E-03     51.9317E-03    -26.1992E-03     15.7462E-03    -9.45482E+06    -14.8317E+06    -50.3716E+06    -14.9517E+06    -50.2516E+06    -9.45482E+06     1.34065E+06         26.2770
             654     10.7166E-03     33.7131E-03         1.22021     923.802E-03        -2.90102     922.484E-03        -2.89970         1.22021    -23.1642E-03     52.7306E-03    -26.2768E-03    -26.4925E-03    -25.8269E-03     52.0651E-03    -26.2768E-03     14.4459E-03    -10.9785E+06    -16.7330E+06    -88.3993E+06    -16.5100E+06    -88.3760E+06    -11.2248E+06     168.153E+03         25.7577
             655     9.74178E-03     33.6990E-03         1.24719     983.497E-03        -2.98528     981.196E-03        -2.98298         1.24719     22.9050E-03     52.8998E-03    -26.3674E-03    -26.5620E-03    -25.9816E-03     52.3194E-03    -26.3674E-03     13.5291E-03    -9.74460E+06    -18.3893E+06    -119.671E+06    -18.1740E+06    -119.640E+06    -9.99089E+06     316.555E+03         25.3399
             656     8.76744E-03     33.6848E-03         1.27393         1.04008        -3.07103         1.03467        -3.06562         1.27393    -88.6269E-03     53.1395E-03    -26.4589E-03    -26.7004E-03    -26.2258E-03     52.6649E-03    -26.4589E-03     12.2268E-03    -4.23294E+06    -19.6197E+06    -140.752E+06    -19.6370E+06    -140.735E+06    -4.23294E+06     995.779E+03         25.0018
             657     7.79347E-03     33.6730E-03         1.29998         1.10842        -3.16450         1.09853        -3.15461         1.29998     41.0025E-03     53.1727E-03    -26.5089E-03    -26.6700E-03    -26.2784E-03     52.7838E-03    -26.5116E-03     11.1170E-03    -2.04321E+06    -21.7677E+06    -157.455E+06    -21.7737E+06    -157.449E+06    -2.04321E+06     830.142E+03         24.7217
             658     6.81873E-03     33.6609E-03         1.32338         1.19066        -3.27175         1.17434        -3.25543         1.32338    -84.6094E-03     53.0750E-03    -26.4794E-03    -26.5911E-03    -26.1878E-03     52.7332E-03    -26.5410E-03     10.3831E-03    -4.82593E+06    -24.3469E+06    -171.467E+06    -24.3534E+06    -171.461E+06    -4.82593E+06     948.843E+03         24.4886
             659     5.84420E-03     33.6512E-03         1.34519         1.24758        -3.34491         1.21282        -3.31015         1.34519     163.460E-03     53.0989E-03    -26.5001E-03    -26.5974E-03    -26.2440E-03     52.8271E-03    -26.5818E-03     9.26797E-03    -8.08701E+06    -26.8582E+06    -188.354E+06    -26.8711E+06    -188.342E+06    -8.08701E+06     1.35693E+06         24.3024
             660     4.87076E-03     33.6418E-03         1.37473         1.32259        -3.44453         1.25021        -3.36552         1.36811    -251.389E-03     53.2065E-03    -26.5837E-03    -26.6246E-03    -26.3799E-03     52.9847E-03    -26.6065E-03     8.38727E-03    -13.7287E+06    -29.3635E+06    -203.996E+06    -29.3720E+06    -203.988E+06    -13.7287E+06     666.569E+03         24.1566
             661     3.89607E-03     33.6335E-03         1.53636         1.38644        -3.67489         1.33489        -3.47342         1.38644     513.895E-03     53.2973E-03    -26.5964E-03    -26.7025E-03    -26.5355E-03     53.1303E-03    -26.5964E-03     7.26340E-03    -20.9560E+06    -31.5738E+06    -212.370E+06    -31.5761E+06    -212.368E+06    -20.9560E+06    -487.689E+03         24.0415
             662     2.92226E-03     33.6266E-03         1.97082         1.39113        -4.11243         1.40207        -3.54368         1.39113    -978.788E-03     53.2642E-03    -26.5567E-03    -26.7094E-03    -26.6087E-03     53.1635E-03    -26.5567E-03     5.58731E-03    -27.2318E+06    -33.9576E+06    -217.619E+06    -33.9602E+06    -217.617E+06    -27.2318E+06    -173.246E+03         23.9508
             663     1.94824E-03     33.6225E-03         2.93094         1.38647        -5.07328         1.39804        -3.54038         1.38647         1.76343     53.0720E-03    -26.4117E-03    -26.6612E-03    -26.5089E-03     53.0250E-03    -26.5170E-03     3.77485E-03    -29.9324E+06    -36.8124E+06    -217.783E+06    -36.8143E+06    -217.781E+06    -29.9324E+06     147.544E+03         23.8697
             664     974.077E-06     33.6188E-03         5.53211         2.30565        -8.60765     461.051E-03        -3.53658         2.30565        -5.35821     52.9265E-03    -26.2764E-03    -26.6507E-03    -26.4899E-03     52.9078E-03    -26.4185E-03     2.35712E-03    -35.9569E+06    -40.6373E+06    -219.734E+06    -40.5891E+06    -219.726E+06    -36.0133E+06     161.649E+03         23.7824
             665     16.5668E-03     32.7827E-03         1.05777     603.696E-03        -2.43128     603.389E-03        -2.43097         1.05777     24.5889E-03     52.3999E-03    -25.5397E-03    -26.8618E-03    -24.5934E-03     50.8240E-03    -26.2323E-03     10.7298E-03     198.572E+06     103.648E+06    -6.03101E+06    -6.02503E+06     198.566E+06     103.648E+06     539.108E+03         33.1127
             666     15.5910E-03     32.7513E-03         1.08480     649.041E-03        -2.50517     648.867E-03        -2.50499         1.08480     14.5239E-03     52.4189E-03    -25.7609E-03    -26.6606E-03    -24.6079E-03     50.6365E-03    -26.0310E-03     22.1368E-03     186.860E+06     52.7134E+06    -11.6565E+06    -11.6475E+06     186.851E+06     52.7134E+06     722.239E+03         31.1604
             667     14.6156E-03     32.7360E-03         1.11263     687.823E-03        -2.57667     687.647E-03        -2.57649         1.11263     13.0907E-03     52.1607E-03    -25.6354E-03    -26.5337E-03    -25.0326E-03     50.9297E-03    -25.9056E-03     18.9640E-03     136.518E+06     5.86016E+06    -15.7798E+06    -15.7653E+06     136.503E+06     5.86016E+06     933.677E+03         29.4057
             668     13.6411E-03     32.7116E-03         1.14089     746.390E-03        -2.66415     746.229E-03        -2.66398         1.14089     9.30123E-03     52.7580E-03    -25.9674E-03    -26.7875E-03    -25.3795E-03     51.3500E-03    -25.9674E-03     20.7718E-03     55.8915E+06    -11.5376E+06    -16.5228E+06    -16.4902E+06     55.8589E+06    -11.5376E+06     1.07635E+06         28.0054
             669     12.6655E-03     32.6926E-03         1.16890     807.324E-03        -2.75124     807.110E-03        -2.75103         1.16890     7.54532E-03     52.6054E-03    -26.1032E-03    -26.4988E-03    -25.5699E-03     51.6765E-03    -26.1032E-03     17.0235E-03     3.57838E+06    -14.0939E+06    -23.6214E+06    -16.2811E+06    -7.82747E+06    -10.0284E+06     846.421E+03         26.9792
             670     11.6913E-03     32.6757E-03         1.19700     857.169E-03        -2.82578     856.573E-03        -2.82519         1.19700     37.4167E-03     52.6954E-03    -26.2010E-03    -26.5229E-03    -25.7669E-03     51.9395E-03    -26.2010E-03     15.3741E-03    -9.33385E+06    -16.2234E+06    -50.1763E+06    -16.3762E+06    -50.0234E+06    -9.33385E+06     1.18826E+06         26.2769
             671     10.7162E-03     32.6601E-03         1.22512     920.408E-03        -2.90690     918.876E-03        -2.90537         1.22512    -27.2112E-03     52.7272E-03    -26.2942E-03    -26.4744E-03    -25.8455E-03     52.0983E-03    -26.2942E-03     14.0486E-03    -8.61755E+06    -18.0419E+06    -88.5002E+06    -18.1554E+06    -88.3867E+06    -8.61755E+06     2.48354E+06         25.7601
             672     9.74198E-03     32.6456E-03         1.25283     979.754E-03        -2.99175     977.439E-03        -2.98943         1.25283     10.5233E-03     52.9545E-03    -26.3693E-03    -26.6135E-03    -26.0292E-03     52.3702E-03    -26.3693E-03     13.5856E-03    -8.82153E+06    -21.0168E+06    -117.952E+06    -21.0943E+06    -117.875E+06    -8.82153E+06     1.28385E+06         25.3403
             673     8.76768E-03     32.6314E-03         1.28060         1.03357        -3.07614         1.02895        -3.07152         1.28060    -69.7426E-03     53.1078E-03    -26.4385E-03    -26.6873E-03    -26.1918E-03     52.6123E-03    -26.4385E-03     12.4918E-03    -6.73081E+06    -21.7748E+06    -141.200E+06    -21.7939E+06    -141.181E+06    -6.73081E+06    -633.790E+03         24.9978
             674     7.79324E-03     32.6193E-03         1.30742         1.11005        -3.18034         1.10210        -3.17240         1.30742     39.8750E-03     53.0797E-03    -26.5055E-03    -26.5826E-03    -26.1801E-03     52.6800E-03    -26.5082E-03     11.2557E-03    -2.63094E+06    -22.2799E+06    -158.367E+06    -22.3035E+06    -158.343E+06    -2.63094E+06     313.702E+03         24.7149
             675     6.81917E-03     32.6081E-03         1.33078         1.19795        -3.29064         1.18346        -3.27614         1.33078    -99.0303E-03     53.0168E-03    -26.4620E-03    -26.5529E-03    -26.1230E-03     52.6699E-03    -26.5450E-03     10.4513E-03    -5.56458E+06    -24.3165E+06    -171.300E+06    -24.3256E+06    -171.291E+06    -5.56458E+06     1.02759E+06         24.4817
             676     5.84478E-03     32.5976E-03         1.35185         1.26033        -3.37006         1.22554        -3.33527         1.35185     179.752E-03     53.0765E-03    -26.4841E-03    -26.5929E-03    -26.2085E-03     52.7921E-03    -26.5841E-03     9.47918E-03    -11.0382E+06    -26.6044E+06    -188.326E+06    -26.6079E+06    -188.323E+06    -11.0382E+06     583.220E+03         24.2978
             677     4.86984E-03     32.5885E-03         1.40312         1.33072        -3.48699         1.27590        -3.40104         1.37199    -292.832E-03     53.2744E-03    -26.5912E-03    -26.6857E-03    -26.4333E-03     53.0417E-03    -26.6109E-03     8.59039E-03    -15.9563E+06    -28.3645E+06    -202.370E+06    -28.3676E+06    -202.367E+06    -15.9563E+06    -99.9270E+03         24.1553
             678     3.89622E-03     32.5800E-03         1.57252         1.38545        -3.70893         1.35418        -3.49058         1.38545     508.737E-03     53.2806E-03    -26.5737E-03    -26.7079E-03    -26.4899E-03     53.1125E-03    -26.6237E-03     7.28010E-03    -20.7088E+06    -30.8327E+06    -212.193E+06    -30.8372E+06    -212.189E+06    -20.7088E+06    -388.918E+03         24.0422
             679     2.92192E-03     32.5732E-03         1.95943         1.39223        -4.11245         1.37456        -3.52758         1.39223    -934.720E-03     53.2647E-03    -26.5692E-03    -26.6968E-03    -26.5463E-03     53.1641E-03    -26.6192E-03     5.58415E-03    -26.1884E+06    -33.5640E+06    -218.196E+06    -33.5691E+06    -218.191E+06    -26.1884E+06    -339.865E+03         23.9522
             680     1.94808E-03     32.5687E-03         2.91012         1.40169        -5.07963         1.37555        -3.54506         1.40169         1.76708     53.3386E-03    -26.5409E-03    -26.7990E-03    -26.7501E-03     53.2897E-03    -26.5409E-03     3.87348E-03    -29.4752E+06    -36.4669E+06    -217.986E+06    -36.4792E+06    -217.974E+06    -29.4752E+06     166.540E+03         23.8720
             681     974.678E-06     32.5654E-03         5.75377         2.03735        -8.57224     779.146E-03        -3.59762         2.03735        -5.46173     52.8616E-03    -26.2549E-03    -26.6072E-03    -26.4366E-03     52.8445E-03    -26.4084E-03     2.08970E-03    -34.9316E+06    -40.8423E+06    -219.551E+06    -39.2944E+06    -219.534E+06    -36.4963E+06     611.182E+03         23.7850
             682     16.5667E-03     31.7300E-03         1.05690     605.902E-03        -2.42630     605.462E-03        -2.42586         1.05690     21.2379E-03     52.3322E-03    -25.4938E-03    -26.8403E-03    -24.5327E-03     50.7576E-03    -26.2268E-03     10.5890E-03     197.797E+06     103.648E+06    -6.45503E+06    -6.45088E+06     197.793E+06     103.648E+06     432.939E+03         33.1008
             683     15.5911E-03     31.6984E-03         1.08328     663.353E-03        -2.51365     663.059E-03        -2.51336         1.08328     12.1366E-03     52.3927E-03    -25.7509E-03    -26.6447E-03    -24.5704E-03     50.5987E-03    -26.0312E-03     22.2933E-03     186.654E+06     53.4939E+06    -11.9539E+06    -11.9406E+06     186.640E+06     53.4939E+06     1.53980E+06         31.1505
             684     14.6157E-03     31.6831E-03         1.10969     709.488E-03        -2.58943     709.142E-03        -2.58909         1.10969     5.96605E-03     52.1408E-03    -25.6286E-03    -26.5198E-03    -25.0096E-03     50.9109E-03    -25.9089E-03     19.0285E-03     136.039E+06     7.13301E+06    -15.2591E+06    -15.2334E+06     136.013E+06     7.13301E+06     1.64269E+06         29.3977
             685     13.6404E-03     31.6582E-03         1.13669     751.554E-03        -2.66483     751.265E-03        -2.66454         1.13669    -3.26236E-03     52.8142E-03    -25.9700E-03    -26.8356E-03    -25.4669E-03     51.4455E-03    -25.9700E-03     20.4813E-03     55.7094E+06    -9.75574E+06    -17.1381E+06    -17.0918E+06     55.6630E+06    -9.75574E+06     1.39405E+06         27.9991
             686     12.6664E-03     31.6397E-03         1.16467     792.245E-03        -2.73498     791.951E-03        -2.73468         1.16467     2.34268E-03     52.6291E-03    -26.0958E-03    -26.5311E-03    -25.6159E-03     51.7140E-03    -26.0958E-03     16.9121E-03     4.03612E+06    -14.4683E+06    -24.1675E+06    -18.7901E+06    -6.63586E+06    -9.17375E+06     1.05953E+06         26.9743
             687     11.6911E-03     31.6223E-03         1.19304     854.220E-03        -2.82126     853.572E-03        -2.82061         1.19304     25.8166E-03     52.6708E-03    -26.1853E-03    -26.5230E-03    -25.7769E-03     51.9247E-03    -26.1853E-03     15.2574E-03    -10.6031E+06    -20.7215E+06    -51.3389E+06    -20.9649E+06    -51.0955E+06    -10.6031E+06     1.10135E+06         26.2737
             688     10.7171E-03     31.6073E-03         1.22045     926.740E-03        -2.91333     925.866E-03        -2.91246         1.22045    -5.45705E-03     52.7445E-03    -26.2656E-03    -26.5214E-03    -25.9071E-03     52.1302E-03    -26.2656E-03     13.8994E-03    -9.30498E+06    -19.8075E+06    -88.4669E+06    -19.9377E+06    -88.3368E+06    -9.30498E+06     1.26357E+06         25.7578
             689     9.74200E-03     31.5924E-03         1.24727     977.699E-03        -2.99164     975.826E-03        -2.98977         1.24727     50.3192E-03     52.8495E-03    -26.3442E-03    -26.5315E-03    -25.9522E-03     52.2704E-03    -26.3444E-03     13.5079E-03    -6.38868E+06    -17.0750E+06    -115.348E+06    -17.1741E+06    -115.249E+06    -6.38868E+06     534.829E+03         25.3360
             690     8.76758E-03     31.5781E-03         1.27356         1.04602        -3.08606         1.04160        -3.08165         1.27356    -49.4577E-03     52.9377E-03    -26.4196E-03    -26.5378E-03    -26.0530E-03     52.4531E-03    -26.4198E-03     12.3268E-03    -6.39236E+06    -18.6168E+06    -140.986E+06    -18.6424E+06    -140.961E+06    -6.39236E+06    -111.785E+03         24.9897
             691     7.79315E-03     31.5663E-03         1.29890         1.10522        -3.17069         1.09689        -3.16236         1.29890     61.6018E-03     52.9595E-03    -26.4402E-03    -26.5284E-03    -26.0932E-03     52.5752E-03    -26.4910E-03     11.0143E-03    -5.91511E+06    -22.1315E+06    -159.703E+06    -22.1605E+06    -159.674E+06    -5.91511E+06     74.3340E+03         24.7055
             692     6.81847E-03     31.5546E-03         1.32465         1.15531        -3.24772         1.13883        -3.23125         1.32465    -98.4538E-03     52.9706E-03    -26.4168E-03    -26.5500E-03    -26.0875E-03     52.6334E-03    -26.5421E-03     10.3037E-03    -7.99908E+06    -24.1472E+06    -171.205E+06    -24.1565E+06    -171.196E+06    -7.99908E+06     586.062E+03         24.4754
             693     5.84405E-03     31.5449E-03         1.35671         1.26066        -3.37870         1.23386        -3.34244         1.34724     175.227E-03     53.1082E-03    -26.4896E-03    -26.6170E-03    -26.2325E-03     52.8179E-03    -26.5837E-03     9.58528E-03    -13.2737E+06    -26.2747E+06    -187.232E+06    -26.2772E+06    -187.230E+06    -13.2737E+06     336.023E+03         24.2952
             694     4.87030E-03     31.5345E-03         1.43252         1.34608        -3.53430         1.32964        -3.44489         1.35955    -308.807E-03     53.2966E-03    -26.5887E-03    -26.7094E-03    -26.4468E-03     53.0623E-03    -26.6170E-03     8.61593E-03    -17.3942E+06    -28.8822E+06    -202.418E+06    -28.8846E+06    -202.415E+06    -17.3942E+06    -247.653E+03         24.1549
             695     3.89608E-03     31.5265E-03         1.57755         1.36561        -3.70037         1.33958        -3.46241         1.36561     534.592E-03     53.2956E-03    -26.5812E-03    -26.7145E-03    -26.4974E-03     53.1370E-03    -26.6397E-03     7.06028E-03    -20.2570E+06    -31.7100E+06    -212.622E+06    -31.7132E+06    -212.619E+06    -20.2570E+06     3.78708E+03         24.0432
             696     2.92192E-03     31.5201E-03         1.94880         1.37672        -4.08859         1.32861        -3.46840         1.37672    -927.561E-03     53.2417E-03    -26.5600E-03    -26.6817E-03    -26.4984E-03     53.1420E-03    -26.6435E-03     5.60670E-03    -25.9275E+06    -34.8945E+06    -217.568E+06    -34.8980E+06    -217.565E+06    -25.9275E+06    -25.3663E+03         23.9540
             697     1.94790E-03     31.5143E-03         2.93805         1.39870        -5.10447         1.34243        -3.50884         1.39870         1.79926     53.2601E-03    -26.4937E-03    -26.7662E-03    -26.5742E-03     53.2077E-03    -26.6333E-03     3.94961E-03    -31.7086E+06    -37.4657E+06    -218.547E+06    -37.4902E+06    -218.523E+06    -31.7086E+06    -377.579E+03         23.8755
             698     974.012E-06     31.5120E-03         6.05246         1.78143        -8.60422         1.04399        -3.59576         1.78143        -5.61446     53.2036E-03    -26.3753E-03    -26.8281E-03    -26.5911E-03     53.1892E-03    -26.5979E-03     1.88856E-03    -34.3547E+06    -40.4902E+06    -219.626E+06    -39.0076E+06    -219.600E+06    -35.8630E+06    -133.340E+03         23.7919
             699     16.5665E-03     30.6768E-03         1.05047     596.378E-03        -2.42749     596.102E-03        -2.42721         1.05047    -2.22752E-03     52.3221E-03    -25.3838E-03    -26.9399E-03    -24.5071E-03     50.7349E-03    -26.2295E-03     10.5780E-03     197.015E+06     103.084E+06    -6.94122E+06    -6.94027E+06     197.014E+06     103.084E+06     217.769E+03         33.0951
             700     15.5912E-03     30.6454E-03         1.07647     668.207E-03        -2.52025     667.878E-03        -2.51992         1.07647     5.38671E-03     52.5796E-03    -25.8392E-03    -26.7418E-03    -24.7528E-03     50.7829E-03    -26.0313E-03     22.3395E-03     186.033E+06     53.4401E+06    -12.4441E+06    -12.4324E+06     186.022E+06     53.4401E+06     1.29434E+06         31.1455
             701     14.6159E-03     30.6300E-03         1.10180     719.809E-03        -2.59809     719.361E-03        -2.59764         1.10180    -7.37861E-03     52.1788E-03    -25.7038E-03    -26.4820E-03    -25.0544E-03     50.9434E-03    -25.8960E-03     19.0510E-03     136.278E+06     6.61697E+06    -14.5067E+06    -14.4780E+06     136.249E+06     6.61697E+06     1.88902E+06         29.3933
             702     13.6414E-03     30.6048E-03         1.12796     747.768E-03        -2.65550     747.498E-03        -2.65523         1.12796    -34.4968E-03     52.8011E-03    -25.9533E-03    -26.8370E-03    -25.4490E-03     51.4131E-03    -25.9533E-03     20.6208E-03     55.5183E+06    -10.5598E+06    -15.3499E+06    -15.2651E+06     55.4335E+06    -10.5598E+06     1.79880E+06         27.9948
             703     12.6660E-03     30.5867E-03         1.15524     794.504E-03        -2.72897     794.265E-03        -2.72873         1.15524    -32.4547E-03     52.6833E-03    -26.0820E-03    -26.5962E-03    -25.6694E-03     51.7565E-03    -26.0820E-03     17.0273E-03     3.91604E+06    -12.6930E+06    -23.2378E+06    -16.0816E+06    -6.92673E+06    -9.00643E+06     2.36229E+06         26.9691
             704     11.6918E-03     30.5691E-03         1.18210     866.194E-03        -2.82596     865.874E-03        -2.82564         1.18210    -16.1689E-03     52.6764E-03    -26.1690E-03    -26.5421E-03    -25.7719E-03     51.9062E-03    -26.1690E-03     15.5169E-03    -9.52988E+06    -16.0516E+06    -50.0285E+06    -16.3636E+06    -49.7164E+06    -9.52988E+06     1.72526E+06         26.2665
             705     10.7167E-03     30.5540E-03         1.20729     938.782E-03        -2.91774     938.299E-03        -2.91726         1.20729    -30.9824E-03     52.7910E-03    -26.2327E-03    -26.5990E-03    -25.9479E-03     52.1400E-03    -26.2327E-03     14.3121E-03    -11.0678E+06    -17.1121E+06    -86.3524E+06    -17.1594E+06    -86.3052E+06    -11.0678E+06    -1.08602E+06         25.7509
             706     9.74294E-03     30.5395E-03         1.23122     993.925E-03        -2.99501     992.396E-03        -2.99348         1.23122     38.8399E-03     52.8703E-03    -26.3039E-03    -26.5847E-03    -25.9817E-03     52.2676E-03    -26.3041E-03     13.7815E-03    -10.5655E+06    -17.8496E+06    -116.719E+06    -17.8954E+06    -116.673E+06    -10.5655E+06    -1.12353E+06         25.3310
             707     8.76791E-03     30.5251E-03         1.25451         1.04984        -3.07596         1.04518        -3.07130         1.25451    -78.0388E-03     52.8698E-03    -26.3885E-03    -26.4870E-03    -25.9807E-03     52.3636E-03    -26.3887E-03     12.5844E-03    -7.99395E+06    -18.5981E+06    -141.301E+06    -18.6239E+06    -141.275E+06    -7.99395E+06     1.49218E+06         24.9852
             708     7.79353E-03     30.5127E-03         1.27788         1.09680        -3.14540         1.08562        -3.13422         1.27788     82.1328E-03     52.9339E-03    -26.4192E-03    -26.5199E-03    -26.0851E-03     52.5500E-03    -26.4700E-03     10.9912E-03    -5.93865E+06    -21.4993E+06    -159.205E+06    -21.5359E+06    -159.168E+06    -5.93865E+06     1.64711E+06         24.7028
             709     6.81909E-03     30.5020E-03         1.30201         1.14837        -3.21825         1.12814        -3.19802         1.30201    -80.0886E-03     52.9928E-03    -26.4229E-03    -26.5685E-03    -26.1425E-03     52.6707E-03    -26.5268E-03     10.0868E-03    -7.77238E+06    -25.1269E+06    -171.823E+06    -25.1418E+06    -171.808E+06    -7.77238E+06     760.052E+03         24.4753
             710     5.84459E-03     30.4910E-03         1.33219         1.24887        -3.34841         1.21924        -3.30931         1.32272     164.575E-03     53.1115E-03    -26.5000E-03    -26.6095E-03    -26.2754E-03     52.8343E-03    -26.5570E-03     9.36142E-03    -12.8228E+06    -27.7076E+06    -185.853E+06    -27.7100E+06    -185.850E+06    -12.8228E+06     381.161E+03         24.2939
             711     4.87009E-03     30.4815E-03         1.40055         1.32533        -3.49219         1.29560        -3.39688         1.33498    -319.940E-03     53.1547E-03    -26.5337E-03    -26.6213E-03    -26.3455E-03     52.9332E-03    -26.5881E-03     8.36940E-03    -17.6080E+06    -30.0917E+06    -202.161E+06    -30.0971E+06    -202.156E+06    -17.6080E+06    -345.476E+03         24.1512
             712     3.89599E-03     30.4728E-03         1.55045         1.34383        -3.66204         1.30294        -3.41453         1.34383     526.963E-03     53.2129E-03    -26.5695E-03    -26.6442E-03    -26.4372E-03     53.0563E-03    -26.6199E-03     7.01099E-03    -21.0747E+06    -32.0899E+06    -213.448E+06    -32.0952E+06    -213.443E+06    -21.0747E+06    -378.787E+03         24.0393
             713     2.92217E-03     30.4664E-03         1.97836         1.35347        -4.09683         1.32553        -3.44401         1.35347    -996.193E-03     53.2275E-03    -26.5775E-03    -26.6502E-03    -26.5043E-03     53.1301E-03    -26.6259E-03     5.53103E-03    -26.0692E+06    -33.3683E+06    -217.080E+06    -33.3705E+06    -217.077E+06    -26.0692E+06    -203.443E+03         23.9515
             714     1.94789E-03     30.4611E-03         3.03359         1.36320        -5.15605         1.34231        -3.46477         1.36320         1.84912     53.1346E-03    -26.4621E-03    -26.6725E-03    -26.4136E-03     53.0861E-03    -26.6725E-03     3.77488E-03    -30.0851E+06    -36.0947E+06    -217.452E+06    -36.1110E+06    -217.435E+06    -30.0851E+06    -740.941E+03         23.8750
             715     973.285E-06     30.4583E-03         6.44126         1.46353        -8.66578         1.27288        -3.49741         1.46353        -5.81274     53.3626E-03    -26.5001E-03    -26.8633E-03    -26.6887E-03     53.3499E-03    -26.6619E-03     1.79129E-03    -35.6307E+06    -42.7980E+06    -221.754E+06    -41.4866E+06    -221.722E+06    -36.9747E+06    -1.11151E+06         23.7947
             716     16.5664E-03     29.6238E-03         1.03880     606.590E-03        -2.43634     605.968E-03        -2.43572         1.03880    -6.39221E-03     52.3928E-03    -25.3246E-03    -27.0684E-03    -24.5444E-03     50.7810E-03    -26.2369E-03     10.8648E-03     196.169E+06     102.422E+06    -7.25022E+06    -7.24959E+06     196.169E+06     102.422E+06     253.721E+03         33.0958
             717     15.5910E-03     29.5919E-03         1.06394     659.885E-03        -2.51339     659.309E-03        -2.51281         1.06394    -4.88550E-03     52.7558E-03    -25.8929E-03    -26.8624E-03    -24.9047E-03     50.9360E-03    -26.0308E-03     22.4753E-03     185.416E+06     52.6396E+06    -12.0845E+06    -12.0764E+06     185.408E+06     52.6396E+06     989.914E+03         31.1456
             718     14.6163E-03     29.5768E-03         1.08915     703.491E-03        -2.57934     703.104E-03        -2.57896         1.08915     5.16935E-03     52.2367E-03    -25.7491E-03    -26.4925E-03    -25.0998E-03     50.9819E-03    -25.8870E-03     19.1643E-03      136.76E+06     5.68175E+06    -14.1400E+06    -14.1210E+06     136.741E+06     5.68175E+06     1.50365E+06         29.3921
             719     13.6404E-03     29.5522E-03         1.11464     753.252E-03        -2.65055     753.073E-03        -2.65038         1.11464    -35.0163E-03     52.7905E-03    -25.9415E-03    -26.8408E-03    -25.4181E-03     51.3678E-03    -25.9415E-03     20.8675E-03     55.4326E+06    -12.2124E+06    -14.9967E+06    -14.9177E+06     55.3536E+06    -12.2124E+06     1.64808E+06         27.9926
             720     12.6664E-03     29.5330E-03         1.13933     824.723E-03        -2.74315     824.609E-03        -2.74304         1.13933    -29.1558E-03     52.6791E-03    -26.0729E-03    -26.6065E-03    -25.6789E-03     51.7515E-03    -26.0729E-03     17.0316E-03     3.16176E+06    -12.6852E+06    -22.6553E+06    -14.5181E+06    -7.34352E+06    -10.3171E+06     1.68322E+06         26.9659
             721     11.6914E-03     29.5166E-03         1.16311     874.962E-03        -2.81396     874.664E-03        -2.81367         1.16311     11.3583E-03     52.6860E-03    -26.1660E-03    -26.5570E-03    -25.7908E-03     51.9198E-03    -26.1660E-03     15.4867E-03    -8.75267E+06    -12.8577E+06    -48.1539E+06    -12.9942E+06    -48.0174E+06    -8.75267E+06     1.04529E+06         26.2625
             722     10.7169E-03     29.5005E-03         1.18626     934.375E-03        -2.89310     933.412E-03        -2.89214         1.18626    -34.1167E-03     52.7686E-03    -26.2476E-03    -26.5643E-03    -25.9117E-03     52.1160E-03    -26.2476E-03     14.3224E-03    -7.81723E+06    -14.0291E+06    -85.0117E+06    -14.1107E+06    -84.9301E+06    -7.81723E+06     799.042E+03         25.7478
             723     9.74190E-03     29.4862E-03         1.20719         1.01317        -2.98984         1.01099        -2.98766         1.20719     35.0762E-03     52.9278E-03    -26.3227E-03    -26.6222E-03    -26.0372E-03     52.3428E-03    -26.3227E-03     13.5724E-03    -8.48462E+06    -19.1338E+06    -118.891E+06    -19.2522E+06    -118.773E+06    -8.48462E+06     1.59855E+06         25.3299
             724     8.76787E-03     29.4724E-03         1.22685         1.04776        -3.04233         1.04264        -3.03722         1.22685    -65.4982E-03     52.9068E-03    -26.3819E-03    -26.5266E-03    -26.0183E-03     52.4029E-03    -26.3863E-03     12.5824E-03    -8.60925E+06    -22.9779E+06    -141.435E+06    -23.0357E+06    -141.377E+06    -8.60925E+06     1.50780E+06         24.9857
             725     7.79315E-03     29.4595E-03         1.24727         1.08893        -3.10887         1.07804        -3.09798         1.24727     72.1256E-03     52.9373E-03    -26.4531E-03    -26.4909E-03    -26.0899E-03     52.5452E-03    -26.4620E-03     11.0933E-03    -5.09925E+06    -23.6935E+06    -158.258E+06    -23.7230E+06    -158.229E+06    -5.09925E+06     1.21774E+06         24.7052
             726     6.81899E-03     29.4487E-03         1.26562         1.17265        -3.21417         1.15115        -3.19267         1.26562    -111.458E-03     53.0976E-03    -26.5057E-03    -26.5928E-03    -26.2553E-03     52.7647E-03    -26.5102E-03     10.2784E-03    -5.76001E+06    -25.5101E+06    -171.815E+06    -25.5343E+06    -171.791E+06    -5.76001E+06     1.53814E+06         24.4775
             727     5.84495E-03     29.4378E-03         1.28135         1.22695        -3.28038         1.18555        -3.23897         1.28135     136.161E-03     53.1358E-03    -26.5108E-03    -26.6244E-03    -26.3262E-03     52.8416E-03    -26.5147E-03     9.64155E-03    -12.4529E+06    -28.6112E+06    -184.853E+06    -28.6250E+06    -184.839E+06    -12.4529E+06     583.970E+03         24.2925
             728     4.87087E-03     29.4282E-03         1.32831         1.27221        -3.36904         1.20858        -3.27495         1.29784    -298.796E-03     53.0594E-03    -26.4710E-03    -26.5900E-03    -26.3250E-03     52.8403E-03    -26.5168E-03     8.31448E-03    -20.7332E+06    -30.8347E+06    -201.329E+06    -30.8414E+06    -201.323E+06    -20.7332E+06    -769.736E+03         24.1455
             729     3.89629E-03     29.4197E-03         1.51781         1.31266        -3.59691         1.26260        -3.34171         1.31266     586.304E-03     53.0253E-03    -26.4437E-03    -26.5826E-03    -26.3181E-03     52.8673E-03    -26.5502E-03     7.05215E-03    -25.4364E+06    -32.7639E+06    -213.710E+06    -32.7759E+06    -213.698E+06    -25.4364E+06    -1.18547E+06         24.0320
             730     2.92200E-03     29.4125E-03         1.99403         1.31942        -4.08455         1.31461        -3.40513         1.31942    -999.536E-03     53.1308E-03    -26.5022E-03    -26.6291E-03    -26.4516E-03     53.0328E-03    -26.5817E-03     5.50755E-03    -27.7141E+06    -35.0689E+06    -217.535E+06    -35.0774E+06    -217.526E+06    -27.7141E+06    -852.963E+03         23.9459
             731     1.94804E-03     29.4083E-03         3.08030         1.31562        -5.16705         1.33312        -3.41988         1.31562         1.88950     53.1708E-03    -26.4995E-03    -26.6722E-03    -26.5565E-03     53.1259E-03    -26.5703E-03     3.67191E-03    -30.9070E+06    -38.5595E+06    -217.690E+06    -38.5632E+06    -217.686E+06    -30.9070E+06     129.982E+03         23.8710
             732     974.470E-06     29.4040E-03         6.74009         1.13198        -8.63672         1.48995        -3.38658         1.13198        -5.92614     53.0188E-03    -26.3628E-03    -26.6562E-03    -26.4932E-03     53.0045E-03    -26.5115E-03     1.94653E-03    -37.8830E+06    -44.6964E+06    -222.225E+06    -43.3835E+06    -222.194E+06    -39.2270E+06     285.387E+03         23.7884
             733     16.5660E-03     28.5708E-03         1.02185     616.100E-03        -2.41600     615.131E-03        -2.41503         1.02185     1.02267E-03     52.4579E-03    -25.3895E-03    -27.0672E-03    -24.6046E-03     50.8436E-03    -26.2379E-03     10.9429E-03     195.637E+06     101.551E+06    -7.09257E+06    -7.09125E+06     195.636E+06     101.551E+06     501.750E+03         33.1024
             734     15.5911E-03     28.5382E-03         1.04592     649.299E-03        -2.47982     648.465E-03        -2.47898         1.04592    -6.88418E-03     52.7152E-03    -25.8532E-03    -26.8601E-03    -24.8727E-03     50.9054E-03    -26.0307E-03     22.3240E-03     184.483E+06     51.4171E+06    -12.3077E+06    -12.3058E+06     184.481E+06     51.4171E+06     581.697E+03         31.1497
             735     14.6155E-03     28.5242E-03         1.07021     701.887E-03        -2.55817     701.467E-03        -2.55775         1.07021     27.9464E-03     52.2761E-03    -25.7149E-03    -26.5638E-03    -25.1503E-03     51.0401E-03    -25.8925E-03     18.9888E-03     136.343E+06     5.55251E+06    -15.2423E+06    -15.2201E+06     136.321E+06     5.55251E+06     1.38236E+06         29.3932
             736     13.6415E-03     28.4984E-03         1.09339     775.474E-03        -2.65144     775.351E-03        -2.65132         1.09339    -10.5201E-03     52.8085E-03    -25.9450E-03    -26.8542E-03    -25.4349E-03     51.3892E-03    -25.9450E-03     20.8541E-03     56.2396E+06    -12.0324E+06    -15.9197E+06    -15.8827E+06     56.2026E+06    -12.0324E+06     1.59243E+06         27.9923
             737     12.6660E-03     28.4804E-03         1.11481     840.360E-03        -2.73101     840.250E-03        -2.73090         1.11481    -10.1373E-03     52.6334E-03    -26.0733E-03    -26.5654E-03    -25.6209E-03     51.6889E-03    -26.0733E-03     17.1793E-03     2.61733E+06    -13.6267E+06    -22.5893E+06    -15.8908E+06    -6.45158E+06    -11.2563E+06     609.879E+03         26.9655
             738     11.6917E-03     28.4626E-03         1.13538     883.973E-03        -2.79301     883.460E-03        -2.79250         1.13538     38.9230E-03     52.7545E-03    -26.1627E-03    -26.6334E-03    -25.8603E-03     51.9814E-03    -26.1627E-03     15.5533E-03    -11.1862E+06    -17.2513E+06    -48.6943E+06    -17.3137E+06    -48.6319E+06    -11.1862E+06     1.01049E+06         26.2631
             739     10.7170E-03     28.4479E-03         1.15584     927.686E-03        -2.85790     925.953E-03        -2.85617         1.15584    -41.6712E-03     52.8336E-03    -26.2506E-03    -26.6220E-03    -25.9789E-03     52.1905E-03    -26.2506E-03     14.2350E-03    -7.96488E+06    -19.1577E+06    -86.7224E+06    -19.3266E+06    -86.5535E+06    -7.96488E+06     3.08145E+06         25.7491
             740     9.74280E-03     28.4326E-03         1.17528     988.672E-03        -2.93722     985.795E-03        -2.93435         1.17528     13.7466E-03     52.9277E-03    -26.3261E-03    -26.6208E-03    -26.0556E-03     52.3625E-03    -26.3261E-03     13.3432E-03    -5.70332E+06    -20.3739E+06    -118.154E+06    -20.5333E+06    -117.994E+06    -5.70332E+06     3.71336E+06         25.3313
             741     8.76815E-03     28.4194E-03         1.19278         1.04545        -3.00873         1.03999        -3.00327         1.19278    -64.5381E-03     52.9029E-03    -26.3685E-03    -26.5470E-03    -26.0643E-03     52.4246E-03    -26.3728E-03     12.2814E-03    -7.62178E+06    -21.7206E+06    -139.027E+06    -21.7718E+06    -138.976E+06    -7.62178E+06     1.37042E+06         24.9871
             742     7.79381E-03     28.4063E-03         1.20852         1.09384        -3.07155         1.08506        -3.06278         1.20852     26.7400E-03     52.8893E-03    -26.4245E-03    -26.4758E-03    -26.0730E-03     52.4954E-03    -26.4334E-03     11.1245E-03    -7.41609E+06    -23.8656E+06    -159.035E+06    -23.8713E+06    -159.030E+06    -7.41609E+06     269.176E+03         24.7052
             743     6.81922E-03     28.3953E-03         1.22228         1.15061        -3.14198         1.13106        -3.12243         1.22228    -152.049E-03     53.0352E-03    -26.4702E-03    -26.5624E-03    -26.2229E-03     52.7003E-03    -26.4747E-03     10.2970E-03    -8.12419E+06    -25.4132E+06    -171.453E+06    -25.4284E+06    -171.438E+06    -8.12419E+06     1.16671E+06         24.4762
             744     5.84483E-03     28.3842E-03         1.23869         1.19466        -3.19706         1.15709        -3.15559         1.23480     128.547E-03     53.1072E-03    -26.4819E-03    -26.6228E-03    -26.3306E-03     52.8150E-03    -26.4819E-03     9.61692E-03    -13.5640E+06    -27.5649E+06    -183.259E+06    -27.5809E+06    -183.243E+06    -13.5640E+06     819.262E+03         24.2912
             745     4.87060E-03     28.3747E-03         1.29173         1.23203        -3.28572         1.17612        -3.18609         1.24801    -328.210E-03     53.0860E-03    -26.4825E-03    -26.6051E-03    -26.3795E-03     52.8605E-03    -26.4825E-03     8.44384E-03    -20.9014E+06    -30.9059E+06    -200.761E+06    -30.9099E+06    -200.757E+06    -20.9014E+06     5.16626E+03         24.1427
             746     3.89676E-03     28.3666E-03         1.47880         1.26075        -3.51197         1.21278        -3.24595         1.26075     564.166E-03     53.0531E-03    -26.4192E-03    -26.6341E-03    -26.4079E-03     52.8915E-03    -26.4838E-03     7.13295E-03    -26.6377E+06    -33.5046E+06    -213.168E+06    -33.5117E+06    -213.161E+06    -26.6377E+06    -682.236E+03         24.0265
             747     2.92219E-03     28.3597E-03         1.95565         1.26878        -3.99794         1.25427        -3.29656         1.26878        -1.00856     52.9925E-03    -26.3810E-03    -26.6126E-03    -26.4118E-03     52.8956E-03    -26.4849E-03     5.46342E-03    -30.2988E+06    -36.7447E+06    -219.165E+06    -36.7514E+06    -219.159E+06    -30.2988E+06    -613.348E+03         23.9388
             748     1.94837E-03     28.3536E-03         3.06071         1.27442        -5.10661         1.26043        -3.30634         1.27442         1.90764     52.9469E-03    -26.3585E-03    -26.5893E-03    -26.4143E-03     52.9008E-03    -26.4873E-03     3.75342E-03    -31.5523E+06    -39.3327E+06    -218.769E+06    -39.3381E+06    -218.764E+06    -31.5523E+06    -283.085E+03         23.8623
             749     974.143E-06     28.3519E-03         6.93297     904.231E-03        -8.60825         1.65146        -3.32674     904.231E-03        -6.04103     52.8978E-03    -26.2204E-03    -26.6766E-03    -26.4755E-03     52.8790E-03    -26.4028E-03     2.34559E-03    -36.6530E+06    -42.7435E+06    -221.008E+06    -42.2458E+06    -220.985E+06    -37.1738E+06     950.767E+03         23.7772
             750     16.5667E-03     27.5171E-03     999.183E-03     601.979E-03        -2.38121     601.426E-03        -2.38066     999.183E-03     21.6314E-03     52.5332E-03    -25.5169E-03    -27.0155E-03    -24.6749E-03     50.9168E-03    -26.2411E-03     10.9342E-03     195.759E+06     102.477E+06    -6.49224E+06    -6.48966E+06     195.756E+06     102.477E+06     676.137E+03         33.1112
             751     15.5908E-03     27.4856E-03         1.02221     646.958E-03        -2.45009     646.463E-03        -2.44959         1.02221     17.9247E-03     52.7118E-03    -25.9072E-03    -26.8036E-03    -24.8744E-03     50.9046E-03    -26.0292E-03     22.2687E-03     184.673E+06     51.8418E+06    -11.8789E+06    -11.8687E+06     184.663E+06     51.8418E+06     1.14451E+06         31.1552
             752     14.6162E-03     27.4702E-03         1.04451     712.206E-03        -2.54005     711.344E-03        -2.53919         1.04451    -4.07346E-03     52.2594E-03    -25.7654E-03    -26.4963E-03    -25.1809E-03     51.0660E-03    -25.8873E-03     18.6780E-03     135.593E+06     5.14725E+06    -15.4839E+06    -15.4640E+06     135.573E+06     5.14725E+06     1.24787E+06         29.3948
             753     13.6405E-03     27.4458E-03         1.06503     785.902E-03        -2.63338     785.314E-03        -2.63279         1.06503    -35.9840E-03     52.7114E-03    -25.9459E-03    -26.7560E-03    -25.3731E-03     51.3285E-03    -25.9459E-03     20.5907E-03     56.4686E+06    -11.2085E+06    -16.0892E+06    -16.0586E+06     56.4381E+06    -11.2085E+06     1.09646E+06         27.9929
             754     12.6662E-03     27.4270E-03         1.08408     833.901E-03        -2.69396     833.459E-03        -2.69352         1.08408    -32.1888E-03     52.6069E-03    -26.0772E-03    -26.5290E-03    -25.5885E-03     51.6664E-03    -26.0772E-03     17.1339E-03     3.27051E+06    -13.5030E+06    -23.1985E+06    -16.7007E+06    -6.39296E+06    -10.3373E+06     1.41274E+06         26.9668
             755     11.6911E-03     27.4097E-03         1.10204     889.902E-03        -2.76346     889.138E-03        -2.76269         1.10204     3.32069E-03     52.7855E-03    -26.1595E-03    -26.6560E-03    -25.8915E-03     52.0211E-03    -26.1595E-03     15.4700E-03    -11.8895E+06    -18.4750E+06    -50.4720E+06    -18.7634E+06    -50.1837E+06    -11.8895E+06     2.59031E+06         26.2654
             756     10.7171E-03     27.3943E-03         1.11879     935.347E-03        -2.82493     933.520E-03        -2.82311         1.11879    -57.7141E-03     52.8922E-03    -26.2359E-03    -26.6911E-03    -26.0524E-03     52.2535E-03    -26.2359E-03     14.1979E-03    -10.0021E+06    -20.2319E+06    -88.0889E+06    -20.4617E+06    -87.8590E+06    -10.0021E+06     3.89921E+06         25.7516
             757     9.74250E-03     27.3798E-03         1.13559     959.831E-03        -2.86778     956.490E-03        -2.86443         1.13559     16.3012E-03     52.9033E-03    -26.2950E-03    -26.6322E-03    -26.0505E-03     52.3216E-03    -26.2950E-03     13.5468E-03    -8.69267E+06    -20.9336E+06    -115.378E+06    -21.0532E+06    -115.259E+06    -8.69267E+06     2.74445E+06         25.3332
             758     8.76830E-03     27.3657E-03         1.15141         1.02376        -2.94651         1.01739        -2.94014         1.15141    -67.8807E-03     52.8552E-03    -26.3381E-03    -26.5320E-03    -26.0339E-03     52.3571E-03    -26.3381E-03     12.5217E-03    -10.6694E+06    -21.6179E+06    -136.977E+06    -21.6306E+06    -136.965E+06    -10.6694E+06     1.02002E+06         24.9879
             759     7.79368E-03     27.3538E-03         1.16371         1.08680        -3.01785         1.07723        -3.00828         1.16371     16.2410E-03     52.9358E-03    -26.4059E-03    -26.5349E-03    -26.1158E-03     52.5167E-03    -26.4059E-03     11.5030E-03    -9.73771E+06    -23.0343E+06    -159.724E+06    -23.0421E+06    -159.716E+06    -9.73771E+06     974.988E+03         24.7039
             760     6.81937E-03     27.3418E-03         1.17388         1.12101        -3.05879         1.09956        -3.03733         1.17388    -164.016E-03     53.0452E-03    -26.4391E-03    -26.6023E-03    -26.2448E-03     52.6877E-03    -26.4391E-03     10.6372E-03    -11.4027E+06    -25.2329E+06    -171.074E+06    -25.2417E+06    -171.066E+06    -11.4027E+06     163.230E+03         24.4739
             761     5.84524E-03     27.3312E-03         1.19501         1.16462        -3.12306         1.12940        -3.07595         1.18313     145.674E-03     53.0524E-03    -26.4609E-03    -26.5914E-03    -26.3003E-03     52.7613E-03    -26.4609E-03     9.59267E-03    -13.4764E+06    -26.6766E+06    -182.920E+06    -26.6843E+06    -182.913E+06    -13.4764E+06     75.0273E+03         24.2910
             762     4.87088E-03     27.3214E-03         1.26297         1.19096        -3.21462         1.15210        -3.10375         1.19096    -326.964E-03     53.1111E-03    -26.4921E-03    -26.6197E-03    -26.3950E-03     52.8865E-03    -26.4921E-03     8.43079E-03    -14.0850E+06    -28.3153E+06    -200.336E+06    -28.3300E+06    -200.322E+06    -14.0850E+06     1.21801E+06         24.1439
             763     3.89647E-03     27.3132E-03         1.43508         1.19968        -3.39932         1.15707        -3.12130         1.19968     520.378E-03     53.1501E-03    -26.4614E-03    -26.6888E-03    -26.5286E-03     52.9899E-03    -26.4614E-03     7.10545E-03    -21.1757E+06    -32.3684E+06    -212.051E+06    -32.3833E+06    -212.036E+06    -21.1757E+06     1.08693E+06         24.0253
             764     2.92319E-03     27.3059E-03         1.90639         1.20948        -3.88580         1.18018        -3.15959         1.20948        -1.03526     52.9072E-03    -26.3640E-03    -26.5439E-03    -26.4053E-03     52.8078E-03    -26.4033E-03     5.55685E-03    -30.4845E+06    -35.7010E+06    -219.207E+06     -35.714E+06    -219.194E+06    -30.4845E+06    -400.842E+03         23.9325
             765     1.94822E-03     27.3016E-03         3.07524         1.21786        -5.05791         1.20257        -3.18524         1.21786         1.96596     52.7249E-03    -26.2890E-03    -26.4369E-03    -26.2591E-03     52.6759E-03    -26.4178E-03     3.80115E-03    -32.2211E+06    -38.1665E+06    -219.589E+06    -38.1842E+06    -219.572E+06    -32.2211E+06    -798.403E+03         23.8507
             766     973.734E-06     27.2973E-03         7.09484     684.816E-03        -8.55536         1.75793        -3.21845     684.816E-03        -6.03700     52.8202E-03    -26.2407E-03    -26.5795E-03    -26.4419E-03     52.8024E-03    -26.3604E-03     2.30872E-03    -36.0612E+06    -42.5632E+06    -221.876E+06    -42.1095E+06    -221.809E+06    -36.5820E+06    -1.17684E+06         23.7634
             767     16.5661E-03     26.4645E-03     971.546E-03     580.026E-03        -2.34169     579.748E-03        -2.34141     971.546E-03    -11.1754E-03     52.5634E-03    -25.5130E-03    -27.0510E-03    -24.7215E-03     50.9591E-03    -26.2382E-03     10.6900E-03     195.013E+06     102.568E+06    -6.71323E+06    -6.71101E+06     195.011E+06     102.568E+06     595.023E+03         33.1151
             768     15.5912E-03     26.4317E-03     993.195E-03     653.949E-03        -2.43025     653.723E-03        -2.43003     993.195E-03     2.78244E-03     52.7169E-03    -25.8775E-03    -26.8410E-03    -24.8898E-03     50.9165E-03    -26.0283E-03     22.3276E-03     184.363E+06     53.0878E+06    -11.5632E+06    -11.5528E+06     184.353E+06     53.0878E+06     1.18476E+06         31.1572
             769     14.6160E-03     26.4172E-03         1.01318     713.032E-03        -2.50619     712.334E-03        -2.50549         1.01318    -32.2652E-03     52.2277E-03    -25.7354E-03    -26.4965E-03    -25.1639E-03     51.0459E-03    -25.8862E-03     18.6595E-03     135.849E+06     7.02871E+06    -13.7826E+06    -13.7658E+06     135.832E+06     7.02871E+06     1.20188E+06         29.3945
             770     13.6416E-03     26.3929E-03         1.03192     769.943E-03        -2.57554     769.320E-03        -2.57492         1.03192    -50.5873E-03     52.7471E-03    -25.9402E-03    -26.8010E-03    -25.4433E-03     51.3893E-03    -25.9402E-03     20.4395E-03     56.1855E+06    -10.1446E+06    -15.1122E+06    -15.0394E+06     56.1127E+06    -10.1446E+06     1.39974E+06         27.9924
             771     12.6662E-03     26.3739E-03         1.04885     835.093E-03        -2.65055     834.666E-03        -2.65012         1.04885    -40.0451E-03     52.6082E-03    -26.0699E-03    -26.5396E-03    -25.6047E-03     51.6734E-03    -26.0699E-03     17.0831E-03     4.16716E+06    -12.8852E+06    -23.3390E+06    -16.2080E+06    -6.82759E+06    -9.02153E+06     2.16705E+06         26.9669
             772     11.6920E-03     26.3563E-03         1.06375     889.354E-03        -2.71573     888.620E-03        -2.71500         1.06375    -2.96362E-03     52.6952E-03    -26.1566E-03    -26.5686E-03    -25.8029E-03     51.9295E-03    -26.1566E-03     15.4747E-03    -9.87626E+06    -15.7343E+06    -51.2903E+06    -16.0376E+06     -50.987E+06    -9.87626E+06     2.63572E+06         26.2659
             773     10.7170E-03     26.3410E-03         1.07704     932.971E-03        -2.77404     931.268E-03        -2.77233         1.07704    -57.3473E-03     52.7928E-03    -26.2443E-03    -26.5885E-03    -25.9408E-03     52.1451E-03    -26.2443E-03     14.2740E-03    -6.93931E+06    -14.7586E+06    -88.3896E+06    -14.9092E+06    -88.2390E+06    -6.93931E+06     3.08684E+06         25.7522
             774     9.74284E-03     26.3265E-03         1.08927     967.606E-03        -2.82430     964.448E-03        -2.82114         1.08927     15.8218E-03     52.8757E-03    -26.3205E-03    -26.5803E-03    -25.9898E-03     52.2852E-03    -26.3205E-03     13.6428E-03    -3.95113E+06    -15.3437E+06    -113.543E+06    -15.4896E+06    -113.397E+06    -3.95113E+06     3.19562E+06         25.3340
             775     8.76794E-03     26.3129E-03         1.10088     998.945E-03        -2.86639     992.247E-03        -2.85969         1.10088    -78.3098E-03     52.9596E-03    -26.3717E-03    -26.5997E-03    -26.0942E-03     52.4541E-03    -26.3717E-03     12.6217E-03    -5.80315E+06    -18.9740E+06    -136.135E+06    -19.0750E+06    -136.034E+06    -5.80315E+06     2.72938E+06         24.9881
             776     7.79362E-03     26.3003E-03         1.11097         1.04754        -2.92129         1.03529        -2.90905         1.11097     44.6436E-03     53.0780E-03    -26.4201E-03    -26.6623E-03    -26.2475E-03     52.6632E-03    -26.4201E-03     11.4590E-03    -6.83052E+06    -22.5230E+06    -158.187E+06    -22.5531E+06    -158.157E+06    -6.83052E+06     1.16368E+06         24.7035
             777     6.81933E-03     26.2887E-03         1.11842         1.09595        -2.97590         1.07125        -2.95120         1.11842    -136.223E-03     53.0422E-03    -26.4196E-03    -26.6189E-03    -26.2514E-03     52.6898E-03    -26.4346E-03     10.5617E-03    -9.95903E+06    -24.5767E+06    -170.066E+06    -24.5861E+06    -170.057E+06    -9.95903E+06    -565.222E+03         24.4732
             778     5.84503E-03     26.2778E-03         1.14593         1.12048        -3.02774         1.09377        -2.97876         1.12366     137.188E-03     53.0563E-03    -26.4416E-03    -26.6149E-03    -26.3042E-03     52.7607E-03    -26.4567E-03     9.67410E-03    -11.9577E+06    -26.4082E+06    -184.399E+06    -26.4139E+06    -184.393E+06    -11.9577E+06    -488.237E+03         24.2906
             779     4.87086E-03     26.2684E-03         1.22707         1.12649        -3.11786         1.11706        -3.00785         1.12649    -308.244E-03     53.1614E-03    -26.4742E-03    -26.6881E-03    -26.4550E-03     52.9283E-03    -26.4742E-03     8.59256E-03    -13.4054E+06    -28.8239E+06    -201.357E+06    -28.8373E+06    -201.343E+06    -13.4054E+06     983.278E+03         24.1444
             780     3.89719E-03     26.2593E-03         1.41145         1.12797        -3.30680         1.11903        -3.01437         1.12797     573.183E-03     53.0104E-03    -26.3958E-03    -26.6130E-03    -26.3942E-03     52.8504E-03    -26.4546E-03     7.07595E-03    -18.2844E+06    -31.4854E+06    -210.795E+06    -31.5062E+06    -210.775E+06    -18.2844E+06     1.77474E+06         24.0241
             781     2.92222E-03     26.2535E-03         1.87351         1.13074        -3.77453         1.11752        -3.01854         1.13074    -987.876E-03     52.8768E-03    -26.3670E-03    -26.5090E-03    -26.3482E-03     52.7747E-03    -26.4257E-03     5.66285E-03    -26.4022E+06    -34.7348E+06    -217.149E+06    -34.7652E+06    -217.118E+06    -26.4022E+06     925.514E+03         23.9276
             782     1.94870E-03     26.2480E-03         3.07944         1.12515        -4.96936         1.15435        -3.04426         1.12515         2.02031     52.8728E-03    -26.3721E-03    -26.5018E-03    -26.4449E-03     52.8159E-03    -26.3721E-03     4.10092E-03    -33.6075E+06    -39.4185E+06    -220.740E+06    -39.4466E+06    -220.711E+06    -33.6075E+06     121.838E+03         23.8433
             783     974.841E-06     26.2451E-03         7.22756     405.591E-03        -8.38972         1.82927        -2.99143     405.591E-03        -5.98156     52.6037E-03    -26.2122E-03    -26.3928E-03    -26.3429E-03     52.5840E-03    -26.2424E-03     2.37009E-03    -38.5320E+06    -45.1876E+06    -222.054E+06    -42.9224E+06    -221.987E+06    -40.8637E+06    -2.06275E+06         23.7545
             784     16.5668E-03     25.4105E-03     939.681E-03     587.453E-03        -2.30550     587.103E-03        -2.30515     939.681E-03    -31.0432E-03     52.4685E-03    -25.4773E-03    -26.9913E-03    -24.6616E-03     50.8856E-03    -26.2242E-03     10.6035E-03     194.535E+06     101.876E+06    -6.50054E+06    -6.49973E+06     194.534E+06     101.876E+06     163.354E+03         33.1092
             785     15.5914E-03     25.3792E-03     958.740E-03     662.111E-03        -2.39670     661.644E-03        -2.39624     958.740E-03    -3.34530E-03     52.5609E-03    -25.7744E-03    -26.7880E-03    -24.7482E-03     50.7676E-03    -26.0209E-03     22.3238E-03     183.148E+06     52.2407E+06    -11.6106E+06    -11.6086E+06     183.146E+06     52.2407E+06     575.885E+03         31.1523
             786     14.6160E-03     25.3635E-03     975.959E-03     714.765E-03        -2.46581     714.397E-03        -2.46544     975.959E-03     4.19948E-03     52.1703E-03    -25.6436E-03    -26.5310E-03    -25.0633E-03     50.9491E-03    -25.8901E-03     18.9623E-03     135.339E+06     6.90065E+06    -13.8810E+06    -13.8616E+06     135.320E+06     6.90065E+06     1.36435E+06         29.3904
             787     13.6409E-03     25.3397E-03     992.175E-03     759.534E-03        -2.51785     759.365E-03        -2.51768     992.175E-03    -21.2724E-03     52.9192E-03    -25.9432E-03    -26.9700E-03    -25.5720E-03     51.5213E-03    -25.9432E-03     20.7744E-03     56.3037E+06    -9.93507E+06    -14.7574E+06    -14.6618E+06     56.2081E+06    -9.93507E+06     2.07998E+06         27.9889
             788     12.6668E-03     25.3208E-03         1.00645     829.522E-03        -2.59537     829.372E-03        -2.59522         1.00645    -19.2867E-03     52.7290E-03    -26.0636E-03    -26.6654E-03    -25.7034E-03     51.7670E-03    -26.0636E-03     17.3582E-03     4.49321E+06    -12.0374E+06    -22.7491E+06    -14.8102E+06    -6.77391E+06    -8.70918E+06     2.03909E+06         26.9637
             789     11.6915E-03     25.3034E-03         1.01824     880.836E-03        -2.65833     880.091E-03        -2.65758         1.01824     37.9339E-03     52.6426E-03    -26.1509E-03    -26.5213E-03    -25.7344E-03     51.8557E-03    -26.1509E-03     15.6763E-03    -9.53777E+06    -15.0383E+06    -51.0268E+06    -15.1890E+06    -50.8761E+06    -9.53777E+06     1.95431E+06         26.2632
             790     10.7171E-03     25.2879E-03         1.02866     911.316E-03        -2.70153     909.285E-03        -2.69950         1.02866    -34.3358E-03     52.7479E-03    -26.2406E-03    -26.5479E-03    -25.9014E-03     52.1014E-03    -26.2406E-03     14.2467E-03    -7.71147E+06    -15.7164E+06    -88.6390E+06    -15.7756E+06    -88.5797E+06    -7.71147E+06     2.02311E+06         25.7501
             791     9.74200E-03     25.2733E-03         1.03763     955.358E-03        -2.75579     952.104E-03        -2.75253         1.03763     16.9244E-03     52.8915E-03    -26.3193E-03    -26.5909E-03    -26.0346E-03     52.3353E-03    -26.3193E-03     13.2224E-03    -3.79918E+06    -16.1336E+06    -113.904E+06    -16.2474E+06    -113.791E+06    -3.79918E+06     3.08769E+06         25.3319
             792     8.76791E-03     25.2595E-03         1.04459     990.493E-03        -2.79779     983.134E-03        -2.79043         1.04459    -85.2185E-03     53.0118E-03    -26.3820E-03    -26.6372E-03    -26.1603E-03     52.5350E-03    -26.3820E-03     12.2677E-03    -1.39654E+06    -16.1316E+06    -134.643E+06    -16.2642E+06    -134.510E+06    -1.39654E+06     3.72578E+06         24.9858
             793     7.79386E-03     25.2468E-03         1.05033         1.01468        -2.82237         1.00150        -2.80919         1.05033     38.6269E-03     53.0988E-03    -26.4270E-03    -26.6823E-03    -26.2796E-03     52.6961E-03    -26.4270E-03     11.2926E-03    -1.06226E+06    -17.8882E+06    -155.953E+06    -17.9453E+06    -155.896E+06    -1.06226E+06     2.06522E+06         24.7014
             794     6.81977E-03     25.2354E-03         1.05637         1.04249        -2.84841         1.01994        -2.82468         1.05519    -111.802E-03     53.0193E-03    -26.4136E-03    -26.6034E-03    -26.2500E-03     52.6810E-03    -26.4287E-03     10.3503E-03    -6.51080E+06    -22.2293E+06    -169.023E+06    -22.2503E+06    -169.002E+06    -6.51080E+06     738.015E+03         24.4710
             795     5.84511E-03     25.2249E-03         1.08191         1.05778        -2.88744         1.03520        -2.84196         1.05901     129.120E-03     53.0462E-03    -26.4131E-03    -26.6307E-03    -26.3215E-03     52.7521E-03    -26.4281E-03     9.65613E-03    -13.4073E+06    -26.4835E+06     -184.77E+06    -26.4895E+06    -184.764E+06    -13.4073E+06     338.305E+03         24.2867
             796     4.87118E-03     25.2145E-03         1.17888         1.06016        -2.99222         1.06246        -2.87580         1.06016    -364.651E-03     53.0423E-03    -26.4054E-03    -26.6380E-03    -26.3820E-03     52.8149E-03    -26.4339E-03     8.44924E-03    -17.6564E+06    -29.6283E+06    -202.465E+06    -29.6299E+06    -202.463E+06    -17.6564E+06     308.653E+03         24.1388
             797     3.89662E-03     25.2069E-03         1.37852         1.05621        -3.20021         1.08192        -2.90361         1.05621     512.665E-03     52.8656E-03    -26.3529E-03    -26.5099E-03    -26.2562E-03     52.7113E-03    -26.4524E-03     6.95146E-03    -19.4525E+06    -31.6821E+06    -211.156E+06    -31.6907E+06    -211.147E+06    -19.4525E+06     1.10921E+06         24.0184
             798     2.92269E-03     25.2001E-03         1.84524         1.05140        -3.65738         1.05857        -2.87071         1.05140        -1.04538     52.8954E-03    -26.3951E-03    -26.4983E-03    -26.3221E-03     52.7908E-03    -26.4668E-03     5.71743E-03    -23.8944E+06    -34.1110E+06    -216.454E+06    -34.1318E+06    -216.433E+06    -23.8944E+06     1.75392E+06         23.9225
             799     1.94807E-03     25.1948E-03         2.98702         1.05381        -4.79304         1.03823        -2.84424         1.05381         1.86388     52.9418E-03    -26.3963E-03    -26.5460E-03    -26.4504E-03     52.8853E-03    -26.4355E-03     4.10670E-03    -30.2437E+06    -37.3679E+06    -219.272E+06    -37.3868E+06    -219.253E+06    -30.2437E+06     983.764E+03         23.8400
             800     974.026E-06     25.1916E-03         7.17534     241.539E-03        -8.16807         1.87394        -2.86668     241.539E-03        -6.00755     52.7381E-03    -26.2398E-03    -26.4992E-03    -26.4415E-03     52.7186E-03    -26.2781E-03     2.32894E-03    -37.3106E+06    -43.6473E+06    -221.162E+06    -41.3510E+06    -221.126E+06    -39.6423E+06     530.747E+03         23.7539
             801     16.5667E-03     24.3578E-03     901.865E-03     617.394E-03        -2.28401     616.919E-03        -2.28353     901.865E-03    -4.25865E-03     52.3857E-03    -25.4294E-03    -26.9562E-03    -24.5414E-03     50.7682E-03    -26.2267E-03     11.0381E-03     194.109E+06     101.665E+06    -6.62499E+06    -6.62223E+06     194.106E+06     101.665E+06    -110.401E+03         33.0943
             802     15.5912E-03     24.3257E-03     917.612E-03     659.960E-03        -2.35015     659.235E-03        -2.34943     917.612E-03     14.0418E-03     52.6146E-03    -25.8579E-03    -26.7580E-03    -24.7438E-03     50.7710E-03    -26.0284E-03     22.5943E-03     182.672E+06     52.1504E+06    -11.6990E+06    -11.6925E+06     182.665E+06     52.1504E+06     953.328E+03         31.1409
             803     14.6157E-03     24.3113E-03     932.287E-03     707.127E-03        -2.41028     706.584E-03        -2.40974     932.287E-03     34.6041E-03     52.2136E-03    -25.7244E-03    -26.4901E-03    -25.1041E-03     50.9982E-03    -25.8949E-03     18.9389E-03     134.748E+06     6.17444E+06    -14.4837E+06    -14.4670E+06     134.732E+06     6.17444E+06     1.41112E+06         29.3827
             804     13.6410E-03     24.2858E-03     945.409E-03     762.396E-03        -2.46825     762.312E-03        -2.46817     945.409E-03    -12.8807E-03     52.8622E-03    -25.9467E-03    -26.9034E-03    -25.5190E-03     51.4778E-03    -25.9467E-03     20.6589E-03     55.7497E+06    -11.1570E+06    -15.4408E+06    -15.3946E+06     55.7035E+06    -11.1570E+06     1.45414E+06         27.9832
             805     12.6661E-03     24.2677E-03     956.766E-03     806.969E-03        -2.52245     806.736E-03        -2.52222     956.766E-03    -33.1041E-03     52.8179E-03    -26.0661E-03    -26.7478E-03    -25.8083E-03     51.8784E-03    -26.0661E-03     17.1648E-03     3.92429E+06    -12.7241E+06    -22.8472E+06    -15.3172E+06    -6.80691E+06    -9.52297E+06     1.97090E+06         26.9595
             806     11.6920E-03     24.2504E-03     966.338E-03     855.323E-03        -2.58249     854.296E-03        -2.58147     966.338E-03     35.6894E-03     52.8173E-03    -26.1437E-03    -26.7006E-03    -25.9437E-03     52.0604E-03    -26.1437E-03     15.4127E-03    -9.64518E+06    -15.6737E+06    -50.8379E+06    -15.9482E+06    -50.5634E+06    -9.64518E+06     2.35568E+06         26.2603
             807     10.7171E-03     24.2348E-03     973.903E-03     894.269E-03        -2.62888     891.925E-03        -2.62654     973.903E-03    -29.9370E-03     52.8526E-03    -26.2131E-03    -26.6784E-03    -26.0653E-03     52.2395E-03    -26.2131E-03     13.8975E-03    -8.67931E+06    -17.5299E+06    -88.8872E+06    -17.6244E+06    -88.7927E+06    -8.67931E+06     2.52637E+06         25.7472
             808     9.74344E-03     24.2200E-03     980.067E-03     918.862E-03        -2.66080     915.030E-03        -2.65697     980.067E-03     23.4772E-03     52.8998E-03    -26.2666E-03    -26.6596E-03    -26.1364E-03     52.3767E-03    -26.2666E-03     12.8478E-03    -6.44862E+06    -19.1249E+06    -113.556E+06    -19.1903E+06    -113.490E+06    -6.44862E+06     2.06887E+06         25.3273
             809     8.76873E-03     24.2066E-03     984.813E-03     951.722E-03        -2.69792     943.626E-03        -2.68982     984.813E-03    -78.0946E-03     52.8477E-03    -26.3111E-03    -26.5504E-03    -26.0926E-03     52.3899E-03    -26.3111E-03     12.0109E-03    -5.34170E+06    -19.1285E+06    -133.719E+06    -19.1644E+06    -133.683E+06    -5.34170E+06     1.55633E+06         24.9803
             810     7.79401E-03     24.1934E-03     989.870E-03     975.071E-03        -2.72268     964.912E-03        -2.71043     987.786E-03     11.9438E-03     52.8320E-03    -26.3436E-03    -26.4937E-03    -26.0811E-03     52.4438E-03    -26.3680E-03     11.0537E-03    -4.24058E+06    -19.3013E+06    -155.485E+06    -19.3523E+06    -155.434E+06    -4.24058E+06     2.39651E+06         24.6956
             811     6.81946E-03     24.1824E-03         1.00665     983.896E-03        -2.74064     978.354E-03        -2.71775     989.298E-03    -132.957E-03     52.9529E-03    -26.3704E-03    -26.5785E-03    -26.2218E-03     52.6206E-03    -26.3948E-03     10.2539E-03    -6.60823E+06    -20.9856E+06    -167.908E+06    -21.0300E+06    -167.863E+06    -6.60823E+06     2.48068E+06         24.4645
             812     5.84566E-03     24.1714E-03         1.03435     989.776E-03        -2.76646     985.075E-03        -2.71719     989.776E-03     144.276E-03     53.0034E-03    -26.3999E-03    -26.6025E-03    -26.3051E-03     52.7076E-03    -26.4014E-03     9.68173E-03    -11.8592E+06    -24.1913E+06    -183.965E+06    -24.2254E+06    -183.931E+06    -11.8592E+06     2.02603E+06         24.2788
             813     4.87119E-03     24.1615E-03         1.09941     990.888E-03        -2.83045     976.987E-03        -2.70802     990.888E-03    -335.509E-03     52.8423E-03    -26.3551E-03    -26.4884E-03    -26.1983E-03     52.6172E-03    -26.4201E-03     8.37897E-03    -17.1368E+06    -28.0799E+06    -202.304E+06    -28.1021E+06    -202.282E+06    -17.1368E+06     1.33467E+06         24.1294
             814     3.89692E-03     24.1538E-03         1.28220     993.328E-03        -3.02111     980.532E-03        -2.71944     993.328E-03     494.054E-03     52.8492E-03    -26.3711E-03    -26.4769E-03    -26.2432E-03     52.6910E-03    -26.4467E-03     7.05773E-03    -21.9630E+06    -31.1916E+06    -211.586E+06    -31.1952E+06    -211.582E+06    -21.9630E+06     576.462E+03         24.0107
             815     2.92229E-03     24.1469E-03         1.76353     998.816E-03        -3.51318     973.254E-03        -2.72290     998.816E-03        -1.03657     52.9707E-03    -26.4461E-03    -26.5240E-03    -26.4021E-03     52.8617E-03    -26.4590E-03     5.81541E-03    -24.7652E+06    -33.4028E+06    -216.190E+06    -33.4063E+06    -216.186E+06    -24.7652E+06     576.737E+03         23.9190
             816     1.94855E-03     24.1415E-03         2.89743         1.01099        -4.65841     978.448E-03        -2.73943         1.01099         1.79792     52.8801E-03    -26.3889E-03    -26.4918E-03    -26.3741E-03     52.8306E-03    -26.4570E-03     3.79976E-03    -26.4223E+06    -35.6991E+06    -217.956E+06    -35.7060E+06    -217.949E+06    -26.4223E+06     1.02707E+06         23.8392
             817     974.114E-06     24.1384E-03         7.05630     105.026E-03        -7.91124         1.93265        -2.78758     105.026E-03        -5.84799     52.8041E-03    -26.2952E-03    -26.5077E-03    -26.3595E-03     52.7892E-03    -26.4286E-03     2.09506E-03    -34.6429E+06    -41.1567E+06    -220.227E+06    -41.1873E+06    -220.197E+06    -34.6429E+06     1.51927E+06         23.7543
             818     16.5661E-03     23.3046E-03     858.266E-03     598.845E-03        -2.22104     598.375E-03        -2.22057     858.266E-03    -25.8230E-03     52.4664E-03    -25.3771E-03    -27.0902E-03    -24.6151E-03     50.8617E-03    -26.2476E-03     11.0945E-03     193.930E+06     102.228E+06    -7.06057E+06    -7.05543E+06     193.925E+06     102.228E+06     105.227E+03         33.0758
             819     15.5907E-03     23.2730E-03     872.158E-03     649.397E-03        -2.28998     648.783E-03        -2.28937     872.158E-03    -14.4458E-03     52.8332E-03    -25.9422E-03    -26.8915E-03    -24.9682E-03     51.0167E-03    -26.0490E-03     22.4281E-03     182.026E+06     53.9444E+06    -12.7432E+06    -12.7360E+06     182.019E+06     53.9444E+06     758.944E+03         31.1264
             820     14.6161E-03     23.2571E-03     884.519E-03     694.839E-03        -2.34395     694.114E-03        -2.34323     884.519E-03    -10.7100E-03     52.3111E-03    -25.7908E-03    -26.5218E-03    -25.2326E-03     51.1287E-03    -25.8976E-03     18.6739E-03     134.608E+06     6.98799E+06    -15.3078E+06    -15.2968E+06     134.597E+06     6.98799E+06     1.23741E+06         29.3726
             821     13.6411E-03     23.2336E-03     894.992E-03     752.547E-03        -2.40321     752.024E-03        -2.40268     894.992E-03    -49.5762E-03     52.8535E-03    -25.9353E-03    -26.9076E-03    -25.5438E-03     51.4896E-03    -25.9353E-03     20.5152E-03     55.7393E+06    -11.8092E+06    -15.8798E+06    -15.8461E+06     55.7055E+06    -11.8092E+06     1.20006E+06         27.9767
             822     12.6663E-03     23.2137E-03     903.555E-03     788.446E-03        -2.44336     787.938E-03        -2.44286     903.555E-03    -61.1212E-03     52.8245E-03    -26.0474E-03    -26.7790E-03    -25.8719E-03     51.9174E-03    -26.0474E-03     16.8608E-03     1.98035E+06    -14.1026E+06    -23.9737E+06    -16.7971E+06    -7.76818E+06    -11.5307E+06     2.05026E+06         26.9557
             823     11.6919E-03     23.1972E-03     910.960E-03     819.265E-03        -2.48523     818.339E-03        -2.48430     910.960E-03    -4.57417E-03     52.9226E-03    -26.1138E-03    -26.8456E-03    -26.1222E-03     52.1992E-03    -26.1138E-03     15.1060E-03     -11.139E+06    -17.5276E+06    -51.0284E+06    -17.9161E+06    -50.6398E+06     -11.139E+06     3.01875E+06         26.2566
             824     10.7182E-03     23.1812E-03     916.369E-03     869.617E-03        -2.53973     867.686E-03        -2.53760     916.169E-03    -58.8310E-03     52.8521E-03    -26.1633E-03    -26.7299E-03    -26.1130E-03     52.2352E-03    -26.1633E-03     13.9515E-03    -9.89298E+06    -17.6636E+06    -87.7374E+06    -17.8246E+06    -87.5764E+06    -9.89298E+06     2.08922E+06         25.7409
             825     9.74320E-03     23.1671E-03     919.175E-03     893.844E-03        -2.56739     890.408E-03        -2.56376     918.975E-03     10.0724E-03     52.8313E-03    -26.2132E-03    -26.6519E-03    -26.0951E-03     52.2745E-03    -26.2132E-03     13.2542E-03    -7.57888E+06    -16.7368E+06    -112.788E+06    -16.7987E+06    -112.726E+06    -7.57888E+06     1.09307E+06         25.3199
             826     8.76916E-03     23.1532E-03     921.202E-03     899.307E-03        -2.57810     892.097E-03        -2.57089     921.202E-03    -74.2493E-03     52.8606E-03    -26.2576E-03    -26.6252E-03    -26.1469E-03     52.3823E-03    -26.2576E-03     12.2731E-03    -6.84241E+06    -18.8621E+06    -134.814E+06    -18.9185E+06    -134.758E+06    -6.84241E+06     1.90593E+06         24.9731
             827     7.79479E-03     23.1410E-03     929.542E-03     915.992E-03        -2.59625     909.567E-03        -2.58313     922.850E-03     45.3283E-03     52.7719E-03    -26.2733E-03    -26.5025E-03    -26.0938E-03     52.3876E-03    -26.2977E-03     10.9968E-03    -7.63878E+06    -22.4630E+06    -155.108E+06    -22.5245E+06    -155.047E+06    -7.63878E+06     2.28018E+06         24.6874
             828     6.82013E-03     23.1289E-03     952.051E-03     922.692E-03        -2.62301     925.931E-03        -2.59689     922.692E-03    -124.327E-03     52.7369E-03    -26.2657E-03    -26.4671E-03    -26.0738E-03     52.4107E-03    -26.3328E-03     10.1348E-03    -8.97173E+06    -24.2557E+06    -167.447E+06    -24.3004E+06    -167.402E+06    -8.97173E+06     2.35141E+06         24.4551
             829     5.84556E-03     23.1181E-03     991.179E-03     919.987E-03        -2.66242     941.324E-03        -2.61256     919.987E-03     117.861E-03     52.7093E-03    -26.2650E-03    -26.4432E-03    -26.0622E-03     52.4298E-03    -26.3665E-03     9.37240E-03    -12.5187E+06    -26.5070E+06    -183.883E+06    -26.5818E+06    -183.808E+06    -12.5187E+06     3.35977E+06         24.2697
             830     4.87115E-03     23.1088E-03         1.03825     917.166E-03        -2.70782     921.248E-03        -2.59082     917.166E-03    -308.215E-03     52.7167E-03    -26.3100E-03    -26.4072E-03    -26.0919E-03     52.4951E-03    -26.4038E-03     8.33252E-03    -18.1093E+06    -29.2650E+06    -200.249E+06    -29.3165E+06    -200.197E+06    -18.1093E+06      2.4173E+06         24.1209
             831     3.89647E-03     23.1007E-03         1.19532     920.634E-03        -2.86884     884.828E-03        -2.55835     920.634E-03     536.595E-03     52.9092E-03    -26.3899E-03    -26.5189E-03    -26.3212E-03     52.7465E-03    -26.4248E-03     7.15441E-03    -23.5616E+06    -31.2603E+06    -210.533E+06    -31.2622E+06    -210.531E+06    -23.5616E+06     288.901E+03         24.0032
             832     2.92276E-03     23.0935E-03         1.66187     929.621E-03        -3.34128     899.094E-03        -2.57850     929.621E-03    -900.544E-03     52.9368E-03    -26.3883E-03    -26.5486E-03    -26.4091E-03     52.8323E-03    -26.4232E-03     5.69291E-03    -26.0796E+06    -33.2791E+06    -216.107E+06    -33.2799E+06    -216.106E+06    -26.0796E+06    -121.223E+03         23.9134
             833     1.94836E-03     23.0882E-03         2.81163     925.074E-03        -4.48494     961.561E-03        -2.63487     925.074E-03         1.84241     52.8131E-03    -26.3502E-03    -26.4632E-03    -26.3496E-03     52.7634E-03    -26.4141E-03     3.84522E-03    -27.5106E+06    -37.5807E+06    -218.133E+06    -37.5842E+06    -218.130E+06    -27.5106E+06     378.122E+03         23.8351
             834     974.295E-06     23.0856E-03         6.91069    -86.7687E-03        -7.56017         1.91799        -2.56747    -86.7687E-03        -5.58743     52.7033E-03    -26.2425E-03    -26.4593E-03    -26.3470E-03     52.6861E-03    -26.3376E-03     2.23938E-03    -34.7965E+06    -43.0342E+06    -219.025E+06    -41.7456E+06    -219.020E+06    -36.0897E+06     7.84621E+03         23.7490
             835     16.5659E-03     22.2514E-03     810.507E-03     560.335E-03        -2.13901     559.802E-03        -2.13848     810.507E-03    -60.5952E-03     52.6421E-03    -25.4795E-03    -27.1624E-03    -24.7838E-03     51.0317E-03    -26.2477E-03     10.8442E-03     193.670E+06     101.839E+06    -7.20018E+06    -7.19669E+06     193.666E+06     101.839E+06     360.366E+03         33.0575
             836     15.5914E-03     22.2187E-03     823.091E-03     630.148E-03        -2.21434     629.564E-03        -2.21375     823.091E-03     2.78138E-03     52.8526E-03    -25.8977E-03    -26.9532E-03    -25.0246E-03     51.0648E-03    -26.0386E-03     22.1820E-03     181.151E+06     52.7493E+06    -12.4999E+06    -12.4981E+06     181.149E+06     52.7493E+06     112.111E+03         31.1114
             837     14.6160E-03     22.2047E-03     833.189E-03     680.349E-03        -2.27280     679.533E-03        -2.27199     833.189E-03     484.586E-06     52.3382E-03    -25.7472E-03    -26.5960E-03    -25.2668E-03     51.1499E-03    -25.8881E-03     18.6385E-03     134.073E+06     6.59699E+06    -15.2319E+06    -15.2124E+06     134.053E+06     6.59699E+06     1.23954E+06         29.3612
             838     13.6413E-03     22.1795E-03     841.341E-03     726.772E-03        -2.31996     726.253E-03        -2.31945     841.341E-03    -44.8295E-03     53.0089E-03    -25.9206E-03    -27.0803E-03    -25.7042E-03     51.6327E-03    -25.9206E-03     20.6070E-03     56.1555E+06    -11.3390E+06    -16.1225E+06    -16.0529E+06     56.0859E+06    -11.3390E+06     1.86244E+06         27.9694
             839     12.6671E-03     22.1611E-03     847.591E-03     764.241E-03        -2.36112     763.864E-03        -2.36075     847.591E-03    -46.5308E-03     52.8981E-03    -26.0145E-03    -26.8878E-03    -25.9689E-03     51.9792E-03    -26.0145E-03     17.0041E-03     1.29287E+06    -14.1639E+06    -25.3288E+06    -16.7901E+06    -8.81442E+06    -12.5952E+06     2.27275E+06         26.9510
             840     11.6927E-03     22.1432E-03     852.579E-03     787.493E-03        -2.38912     787.061E-03        -2.38869     852.579E-03    -9.01990E-03     52.8086E-03    -26.0761E-03    -26.7750E-03    -26.0435E-03     52.0771E-03    -26.0761E-03     15.1358E-03    -11.9882E+06    -16.0845E+06    -50.8369E+06    -16.3916E+06    -50.5298E+06    -11.9882E+06     2.37959E+06         26.2500
             841     10.7179E-03     22.1285E-03     856.256E-03     821.399E-03        -2.42508     819.887E-03        -2.42337     856.056E-03    -76.6325E-03     52.7114E-03    -26.1329E-03    -26.6199E-03    -26.0050E-03     52.0965E-03    -26.1329E-03     13.9122E-03    -10.2292E+06    -16.2088E+06    -85.3593E+06    -16.3408E+06    -85.2273E+06    -10.2292E+06     1.42147E+06         25.7312
             842     9.74370E-03     22.1139E-03     864.943E-03     849.094E-03        -2.46094     853.694E-03        -2.45761     857.011E-03     5.18373E-03     52.8012E-03    -26.1829E-03    -26.6414E-03    -26.0721E-03     52.2318E-03    -26.1829E-03     13.3919E-03    -10.4535E+06    -18.6140E+06    -114.444E+06    -18.6924E+06    -114.365E+06    -10.4535E+06     1.73048E+06         25.3102
             843     8.76898E-03     22.1000E-03     876.932E-03     852.995E-03        -2.47553     867.132E-03        -2.46845     855.714E-03    -81.9672E-03     52.8852E-03    -26.2321E-03    -26.6668E-03    -26.1924E-03     52.4108E-03    -26.2321E-03     12.2296E-03    -7.91006E+06    -20.6731E+06    -136.043E+06    -20.7733E+06    -135.943E+06    -7.91006E+06     3.35618E+06         24.9650
             844     7.79491E-03     22.0876E-03     880.550E-03     852.761E-03        -2.47445     864.819E-03        -2.45953     853.570E-03     63.4082E-03     52.8291E-03    -26.2677E-03    -26.5662E-03    -26.1707E-03     52.4336E-03    -26.2677E-03     11.1733E-03    -6.54408E+06    -22.7727E+06    -153.297E+06    -22.8817E+06    -153.188E+06    -6.54408E+06     3.42493E+06         24.6795
             845     6.82083E-03     22.0762E-03     882.999E-03     851.844E-03        -2.47664     855.105E-03        -2.44875     851.844E-03    -96.8407E-03     52.6783E-03    -26.2444E-03    -26.4300E-03    -26.0383E-03     52.3293E-03    -26.2870E-03     10.4728E-03    -10.3157E+06    -26.4537E+06    -167.913E+06    -26.5307E+06    -167.836E+06    -10.3157E+06     2.99051E+06         24.4469
             846     5.84604E-03     22.0654E-03     908.107E-03     850.364E-03        -2.50665     856.467E-03        -2.45501     850.364E-03     121.340E-03     52.5764E-03    -26.2161E-03    -26.3593E-03    -25.9774E-03     52.2945E-03    -26.3160E-03     9.37383E-03    -14.9323E+06    -29.1901E+06    -183.583E+06    -29.2542E+06    -183.519E+06    -14.9323E+06     2.79082E+06         24.2619
             847     4.87116E-03     22.0561E-03     970.616E-03     848.933E-03        -2.56766     851.889E-03        -2.44893     848.933E-03    -296.616E-03     52.6821E-03    -26.2933E-03    -26.3894E-03    -26.1174E-03     52.4675E-03    -26.3506E-03     8.21416E-03    -18.7485E+06    -30.4121E+06    -197.292E+06    -30.4460E+06    -197.258E+06    -18.7485E+06     1.78280E+06         24.1137
             848     3.89717E-03     22.0472E-03         1.14146     846.982E-03        -2.73147     856.082E-03        -2.44610     846.982E-03     452.588E-03     52.8243E-03    -26.3671E-03    -26.4577E-03    -26.2976E-03     52.6643E-03    -26.3671E-03     7.07649E-03    -22.7148E+06    -32.6081E+06    -209.014E+06    -32.6131E+06    -209.009E+06    -22.7148E+06     425.563E+03         23.9948
             849     2.92276E-03     22.0404E-03         1.59547     843.294E-03        -3.17102     855.837E-03        -2.43139     843.294E-03    -939.886E-03     52.7635E-03    -26.3203E-03    -26.4436E-03    -26.3127E-03     52.6675E-03    -26.3552E-03     5.43790E-03    -27.7269E+06    -35.1469E+06    -217.028E+06    -35.1477E+06    -217.027E+06    -27.7269E+06    -237.775E+03         23.9026
             850     1.94839E-03     22.0355E-03         2.65020     837.461E-03        -4.21869     850.968E-03        -2.41946     837.461E-03         1.66734     52.6684E-03    -26.2862E-03    -26.3812E-03    -26.2772E-03     52.6214E-03    -26.3431E-03     3.77293E-03    -30.8546E+06    -37.7649E+06    -217.623E+06    -37.7655E+06    -217.622E+06    -30.8546E+06    -107.128E+03         23.8232
             851     974.261E-06     22.0318E-03         6.59418    -176.486E-03        -7.14379         1.84469        -2.39430    -176.486E-03        -5.38609     52.5986E-03    -26.2049E-03    -26.3921E-03    -26.3530E-03     52.5815E-03    -26.2269E-03     2.14050E-03    -36.5271E+06    -43.5087E+06    -218.417E+06    -42.2177E+06    -218.415E+06    -37.8203E+06      84.561E+03         23.7384
             852     16.5668E-03     21.1980E-03     758.124E-03     573.993E-03        -2.09225     573.634E-03        -2.09190     758.124E-03    -31.8076E-03     52.5801E-03    -25.5233E-03    -27.0565E-03    -24.7465E-03     50.9745E-03    -26.2277E-03     10.9404E-03     193.515E+06     100.395E+06    -6.48074E+06    -6.47837E+06     193.513E+06     100.395E+06     571.504E+03         33.0400
             853     15.5909E-03     21.1655E-03     767.596E-03     607.827E-03        -2.12829     607.273E-03        -2.12774     767.596E-03     43.2846E-03     52.7178E-03    -25.8709E-03    -26.8450E-03    -24.9014E-03     50.9195E-03    -26.0162E-03     22.2373E-03     180.458E+06     49.8200E+06    -11.8398E+06    -11.8377E+06     180.456E+06     49.8200E+06     474.748E+03         31.0960
             854     14.6162E-03     21.1514E-03     775.539E-03     651.332E-03        -2.17947     650.778E-03        -2.17891     775.539E-03     51.1257E-03     52.4371E-03    -25.7310E-03    -26.7103E-03    -25.3558E-03     51.2279E-03    -25.8763E-03     18.8425E-03     133.343E+06     5.48562E+06    -14.7462E+06    -14.7257E+06     133.322E+06     5.48562E+06     1.24327E+06         29.3483
             855     13.6415E-03     21.1260E-03     781.842E-03     687.495E-03        -2.21854     687.471E-03        -2.21851     781.842E-03    -1.08835E-03     53.1299E-03    -25.9056E-03    -27.2136E-03    -25.8364E-03     51.7527E-03    -25.9056E-03     20.6258E-03     55.6612E+06    -11.4000E+06    -16.1561E+06    -16.0169E+06     55.5221E+06    -11.4000E+06     2.35107E+06         27.9597
             856     12.6669E-03     21.1075E-03     786.628E-03     718.538E-03        -2.25038     718.500E-03        -2.25034     786.628E-03    -11.3404E-03     52.8878E-03    -25.9934E-03    -26.8959E-03    -25.9771E-03     51.9691E-03    -25.9934E-03     17.0144E-03     1.76808E+06    -13.5112E+06    -24.4203E+06    -15.8012E+06    -8.35567E+06    -12.0065E+06     1.97557E+06         26.9433
             857     11.6927E-03     21.0898E-03     789.943E-03     748.382E-03        -2.28111     748.201E-03        -2.28093     789.943E-03     16.0137E-03     52.7263E-03    -26.0561E-03    -26.7113E-03    -25.9815E-03     51.9965E-03    -26.0561E-03     15.0892E-03    -11.6731E+06    -15.3018E+06    -50.3443E+06    -15.4608E+06    -50.1853E+06    -11.6731E+06     1.29918E+06         26.2413
             858     10.7183E-03     21.0757E-03     793.705E-03     770.559E-03        -2.30480     771.158E-03        -2.30335     791.652E-03    -61.3040E-03     52.7107E-03    -26.1279E-03    -26.6233E-03    -26.0259E-03     52.1134E-03    -26.1279E-03     13.7146E-03    -8.02522E+06    -16.5664E+06    -85.8902E+06    -16.7138E+06    -85.7428E+06    -8.02522E+06     2.80359E+06         25.7206
             859     9.74353E-03     21.0604E-03     806.644E-03     785.372E-03        -2.32923     796.787E-03        -2.32538     791.379E-03     36.1773E-03     52.8672E-03    -26.1673E-03    -26.7193E-03    -26.1682E-03     52.3160E-03    -26.1673E-03     13.1841E-03    -8.34256E+06    -19.1723E+06    -114.655E+06    -19.3334E+06    -114.493E+06    -8.34256E+06     3.75356E+06         25.2980
             860     8.76966E-03     21.0470E-03     818.934E-03     788.989E-03        -2.34264     811.114E-03        -2.33482     788.989E-03    -55.9804E-03     52.7938E-03    -26.1944E-03    -26.6120E-03    -26.1640E-03     52.3459E-03    -26.1944E-03     11.8723E-03    -8.49052E+06    -21.2458E+06    -135.978E+06    -21.3294E+06    -135.895E+06    -8.49052E+06     2.99090E+06         24.9531
             861     7.79490E-03     21.0344E-03     824.626E-03     785.340E-03        -2.34318     811.365E-03        -2.32992     785.340E-03     40.2785E-03     52.6408E-03    -26.2185E-03    -26.4309E-03    -26.0405E-03     52.2736E-03    -26.2419E-03     10.7315E-03    -5.70226E+06    -22.5748E+06    -153.456E+06    -22.6985E+06    -153.332E+06    -5.70226E+06     3.86698E+06         24.6701
             862     6.82016E-03     21.0234E-03     832.839E-03     781.251E-03        -2.34587     805.587E-03        -2.31861     781.251E-03    -124.598E-03     52.6373E-03    -26.2419E-03    -26.3929E-03    -26.0382E-03     52.3059E-03    -26.2653E-03     10.1952E-03    -8.69207E+06    -25.0397E+06    -166.853E+06    -25.1793E+06    -166.714E+06    -8.69207E+06     4.36283E+06         24.4380
             863     5.84599E-03     21.0125E-03     836.834E-03     778.581E-03        -2.34746     781.342E-03        -2.29196     778.581E-03     127.120E-03     52.7170E-03    -26.2720E-03    -26.4450E-03    -26.1659E-03     52.4379E-03    -26.2720E-03     9.34483E-03    -13.8134E+06    -28.3244E+06    -181.648E+06    -28.3834E+06    -181.589E+06    -13.8134E+06     2.60099E+06         24.2517
             864     4.87200E-03     21.0031E-03     875.018E-03     779.460E-03        -2.38767     761.618E-03        -2.27427     779.460E-03    -227.226E-03     52.6906E-03    -26.2584E-03    -26.4309E-03    -26.2157E-03     52.4754E-03    -26.2584E-03     8.23346E-03    -20.4435E+06    -30.7179E+06    -195.943E+06    -30.7344E+06    -195.926E+06    -20.4435E+06     789.829E+03         24.1024
             865     3.89731E-03     20.9942E-03         1.05114     779.411E-03        -2.55809     789.288E-03        -2.29624     779.411E-03     435.822E-03     52.6053E-03    -26.2546E-03    -26.3488E-03    -26.1896E-03     52.4460E-03    -26.2546E-03     7.03506E-03    -25.0627E+06    -32.4991E+06    -207.834E+06    -32.5106E+06    -207.822E+06    -25.0627E+06     407.971E+03         23.9824
             866     2.92303E-03     20.9875E-03         1.48662     775.975E-03        -2.98216     786.484E-03        -2.28202     775.975E-03    -900.645E-03     52.5841E-03    -26.2494E-03    -26.3353E-03    -26.2437E-03     52.4925E-03    -26.2494E-03     5.29609E-03    -28.0665E+06    -34.8623E+06    -216.886E+06    -34.8674E+06    -216.881E+06    -28.0665E+06     349.478E+03         23.8893
             867     1.94893E-03     20.9824E-03         2.48678     774.000E-03        -3.98212     773.681E-03        -2.26902     774.000E-03         1.58578     52.4791E-03    -26.1943E-03    -26.2834E-03    -26.2149E-03     52.4359E-03    -26.2195E-03     3.60617E-03    -30.4612E+06    -37.7637E+06    -217.097E+06    -37.7675E+06    -217.093E+06    -30.4612E+06     321.572E+03         23.8095
             868     974.300E-06     20.9791E-03         6.23011    -238.693E-03        -6.71388         1.78624        -2.27000    -238.693E-03        -5.02390     52.3088E-03    -26.1013E-03    -26.2070E-03    -26.1289E-03     52.2930E-03    -26.1635E-03     2.07166E-03    -38.1697E+06    -44.3480E+06    -219.726E+06    -44.2131E+06    -219.719E+06    -38.3116E+06     307.196E+03         23.7256
             869     16.5663E-03     20.1439E-03     701.851E-03     566.761E-03        -2.00747     566.487E-03        -2.00720     701.851E-03    -10.4349E-03     52.4435E-03    -25.4102E-03    -27.0338E-03    -24.6542E-03     50.8772E-03    -26.2236E-03     11.2426E-03     193.171E+06     99.6573E+06    -6.54144E+06    -6.53958E+06     193.169E+06     99.6573E+06     539.288E+03         33.0235
             870     15.5914E-03     20.1133E-03     708.883E-03     581.456E-03        -2.03036     581.009E-03        -2.02991     708.883E-03    -18.8395E-03     52.8258E-03    -25.9476E-03    -26.8778E-03    -25.0136E-03     51.0255E-03    -26.0115E-03     22.3789E-03     180.524E+06     49.3766E+06    -11.5993E+06    -11.5888E+06     180.514E+06     49.3766E+06     1.12080E+06         31.0808
             871     14.6160E-03     20.0971E-03     714.977E-03     616.225E-03        -2.07190     615.655E-03        -2.07133     714.977E-03    -27.9609E-03     52.5304E-03    -25.8006E-03    -26.7342E-03    -25.4749E-03     51.3350E-03    -25.8645E-03     18.8501E-03     132.761E+06     4.93561E+06    -14.5624E+06    -14.5445E+06     132.743E+06     4.93561E+06     1.51061E+06         29.3343
             872     13.6418E-03     20.0729E-03     719.439E-03     653.904E-03        -2.10926     653.531E-03        -2.10889     719.439E-03    -46.5052E-03     53.1079E-03    -25.8883E-03    -27.2106E-03    -25.8529E-03     51.7503E-03    -25.8883E-03     20.5209E-03     55.4067E+06    -11.5120E+06    -15.3237E+06    -15.2109E+06     55.2939E+06    -11.5120E+06     1.87933E+06         27.9462
             873     12.6675E-03     20.0538E-03     722.314E-03     678.047E-03        -2.13528     677.836E-03        -2.13506     722.314E-03    -40.2748E-03     52.8549E-03    -25.9750E-03    -26.8793E-03    -25.9743E-03     51.9500E-03    -25.9750E-03     16.8688E-03     2.38013E+06    -13.9293E+06    -23.3643E+06    -15.6099E+06    -7.62588E+06    -11.6777E+06     2.05519E+06         26.9308
             874     11.6928E-03     20.0370E-03     724.576E-03     701.419E-03        -2.16362     701.633E-03        -2.16315     723.894E-03     6.63330E-03     52.7870E-03    -26.0298E-03    -26.7920E-03    -26.0935E-03     52.0885E-03    -26.0298E-03     14.7949E-03    -12.6850E+06    -17.0456E+06    -50.7903E+06    -17.3753E+06    -50.4606E+06    -12.6850E+06     2.28884E+06         26.2294
             875     10.7185E-03     20.0221E-03     726.911E-03     715.896E-03        -2.17577     716.774E-03        -2.17392     724.176E-03    -58.4129E-03     52.8610E-03    -26.0802E-03    -26.8207E-03    -26.2567E-03     52.2970E-03    -26.0802E-03     13.3528E-03    -10.4033E+06    -19.0183E+06    -87.9803E+06    -19.2086E+06    -87.7900E+06    -10.4033E+06     3.57668E+06         25.7072
             876     9.74458E-03     20.0076E-03     731.276E-03     716.436E-03        -2.17371     720.681E-03        -2.17042     723.743E-03    -1.36641E-03     52.8310E-03    -26.1010E-03    -26.7560E-03    -26.2502E-03     52.3251E-03    -26.1010E-03     12.6369E-03    -8.91661E+06    -19.1074E+06    -113.359E+06    -19.2962E+06    -113.171E+06    -8.91661E+06     4.12524E+06         25.2812
             877     8.76987E-03     19.9936E-03     739.588E-03     719.174E-03        -2.18293     728.710E-03        -2.17560     722.720E-03    -87.6775E-03     52.6382E-03    -26.1178E-03    -26.5402E-03    -26.1321E-03     52.2301E-03    -26.1178E-03     11.3042E-03    -9.38841E+06    -20.5859E+06    -134.960E+06    -20.7070E+06    -134.839E+06    -9.38841E+06     3.53478E+06         24.9346
             878     7.79580E-03     19.9820E-03     755.870E-03     720.162E-03        -2.20441     743.762E-03        -2.19230     720.162E-03     14.4970E-03     52.4942E-03    -26.1374E-03    -26.3705E-03    -26.0223E-03     52.1693E-03    -26.1607E-03     10.0909E-03    -7.26364E+06    -23.3186E+06    -155.203E+06    -23.4404E+06    -155.081E+06    -7.26364E+06     3.85221E+06         24.6522
             879     6.82116E-03     19.9706E-03     765.309E-03     716.270E-03        -2.21699     740.541E-03        -2.19223     716.270E-03    -131.246E-03     52.4489E-03    -26.1451E-03    -26.3050E-03    -25.9883E-03     52.1555E-03    -26.1684E-03     9.59351E-03    -10.4594E+06    -25.1731E+06    -164.949E+06    -25.3274E+06    -164.795E+06    -10.4594E+06     4.60932E+06         24.4200
             880     5.84656E-03     19.9597E-03     773.823E-03     712.672E-03        -2.22227     727.535E-03        -2.17598     712.672E-03     79.4804E-03     52.5622E-03    -26.1603E-03    -26.4013E-03    -26.1470E-03     52.3079E-03    -26.1603E-03     8.92919E-03    -16.0965E+06    -26.9343E+06    -178.694E+06    -27.0204E+06    -178.608E+06    -16.0965E+06     2.97728E+06         24.2327
             881     4.87213E-03     19.9501E-03     829.697E-03     709.240E-03        -2.27532     725.455E-03        -2.17108     709.240E-03    -274.955E-03     52.6052E-03    -26.1308E-03    -26.4700E-03    -26.2749E-03     52.4101E-03    -26.1308E-03     7.81192E-03    -22.1313E+06    -29.4304E+06    -195.382E+06    -29.4796E+06    -195.333E+06    -22.1313E+06     1.57384E+06         24.0832
             882     3.89802E-03     19.9418E-03     994.287E-03     703.807E-03        -2.43712     729.782E-03        -2.17262     703.807E-03     431.187E-03     52.3787E-03    -26.0945E-03    -26.2797E-03    -26.1414E-03     52.2404E-03    -26.0945E-03     6.54458E-03    -28.0525E+06    -33.0955E+06    -207.816E+06    -33.1446E+06    -207.767E+06    -28.0525E+06     1.83726E+06         23.9638
             883     2.92345E-03     19.9344E-03         1.34556     697.572E-03        -2.76691     712.060E-03        -2.13341     697.572E-03    -695.232E-03     52.2046E-03    -26.0596E-03    -26.1455E-03    -26.0313E-03     52.1174E-03    -26.0866E-03     5.17652E-03    -31.0350E+06    -36.7178E+06    -215.563E+06    -36.7319E+06    -215.549E+06    -31.0350E+06     1.31450E+06         23.8711
             884     1.94897E-03     19.9298E-03         2.26565     685.177E-03        -3.67659     723.075E-03        -2.13402     685.177E-03         1.54716     52.1975E-03    -26.0355E-03    -26.1624E-03    -26.0892E-03     52.1547E-03    -26.0658E-03     3.53909E-03    -32.3401E+06    -41.2811E+06    -216.728E+06    -41.2894E+06    -216.720E+06    -32.3401E+06     848.604E+03         23.7903
             885     974.749E-06     19.9268E-03         5.79559    -328.819E-03        -6.20026         1.67933        -2.08400    -328.819E-03        -4.65657     51.9807E-03    -25.9115E-03    -26.0706E-03    -25.9538E-03     51.9664E-03    -26.0141E-03     2.01979E-03    -38.6584E+06    -45.9551E+06    -219.319E+06    -44.3339E+06    -219.312E+06    -40.2866E+06    -95.5269E+03         23.7048
             886     16.5663E-03     19.0916E-03     643.893E-03     509.809E-03        -1.87683     509.410E-03        -1.87644     643.893E-03    -37.1225E-03     52.5605E-03    -25.4256E-03    -27.1346E-03    -24.7565E-03     50.9789E-03    -26.2222E-03     11.1795E-03     192.107E+06     98.6184E+06    -6.95983E+06    -6.95672E+06     192.104E+06     98.6184E+06     692.545E+03         33.0105
             887     15.5908E-03     19.0589E-03     650.020E-03     549.492E-03        -1.92492     549.196E-03        -1.92462     650.020E-03    -39.4047E-03     53.0315E-03    -26.0030E-03    -27.0280E-03    -25.2294E-03     51.2329E-03    -26.0030E-03     22.3730E-03     180.196E+06     49.2296E+06    -11.6599E+06    -11.6497E+06     180.186E+06     49.2296E+06     859.700E+03         31.0670
             888     14.6170E-03     19.0440E-03     654.390E-03     580.796E-03        -1.95876     580.340E-03        -1.95831     654.390E-03    -52.1497E-03     52.5782E-03    -25.8471E-03    -26.7357E-03    -25.5668E-03     51.4092E-03    -25.8471E-03     18.6389E-03     132.679E+06     5.39865E+06    -13.5970E+06    -13.5727E+06     132.655E+06     5.39865E+06     1.41109E+06         29.3187
             889     13.6418E-03     19.0191E-03     656.892E-03     622.113E-03        -1.99772     621.572E-03        -1.99718     656.892E-03    -68.8272E-03     53.0305E-03    -25.8620E-03    -27.1593E-03    -25.8272E-03     51.6984E-03    -25.8620E-03     20.3134E-03     54.7456E+06    -12.2730E+06    -14.6327E+06    -14.4849E+06     54.5978E+06    -12.2730E+06     2.17995E+06         27.9289
             890     12.6673E-03     19.0007E-03     660.094E-03     644.287E-03        -2.02790     646.682E-03        -2.02755     657.356E-03    -57.7615E-03     52.9635E-03    -25.9433E-03    -27.0202E-03    -26.1535E-03     52.0968E-03    -25.9433E-03     16.5146E-03     2.51113E+06    -14.7409E+06    -23.3375E+06    -16.0342E+06    -7.66163E+06    -11.8714E+06     3.13567E+06         26.9128
             891     11.6933E-03     18.9835E-03     660.590E-03     643.041E-03        -2.02988     645.993E-03        -2.02941     657.170E-03    -11.2144E-03     53.0068E-03    -25.9765E-03    -27.0626E-03    -26.4205E-03     52.3646E-03    -25.9765E-03     14.2188E-03    -12.5291E+06    -16.7727E+06    -50.9602E+06    -17.3604E+06    -50.3725E+06    -12.5291E+06     3.57157E+06         26.2112
             892     10.7196E-03     18.9684E-03     658.253E-03     639.332E-03        -2.01997     637.939E-03        -2.01789     657.571E-03    -77.9601E-03     52.9325E-03    -25.9948E-03    -26.9761E-03    -26.4686E-03     52.4250E-03    -25.9948E-03     12.6848E-03    -10.6701E+06    -17.7262E+06    -88.4252E+06    -17.9208E+06    -88.2306E+06    -10.6701E+06     3.59570E+06         25.6861
             893     9.74535E-03     18.9544E-03     663.868E-03     644.886E-03        -2.02183     647.894E-03        -2.01907     658.098E-03    -27.7458E-03     52.7395E-03    -25.9863E-03    -26.7687E-03    -26.3189E-03     52.2898E-03    -25.9863E-03     11.9118E-03    -10.3488E+06    -19.1836E+06    -113.453E+06    -19.3663E+06    -113.270E+06    -10.3488E+06     4.13966E+06         25.2556
             894     8.77127E-03     18.9410E-03     676.289E-03     653.705E-03        -2.04353     666.906E-03        -2.03769     657.251E-03    -93.1036E-03     52.4641E-03    -25.9866E-03    -26.4853E-03    -26.1267E-03     52.1056E-03    -25.9866E-03     10.5754E-03    -11.1470E+06    -20.8664E+06    -134.246E+06    -21.0612E+06    -134.051E+06    -11.1470E+06     4.66159E+06         24.9053
             895     7.79644E-03     18.9291E-03     683.012E-03     654.873E-03        -2.05787     672.205E-03        -2.04706     654.873E-03     16.1106E-03     52.3426E-03    -26.0148E-03    -26.3406E-03    -26.0538E-03     52.0558E-03    -26.0148E-03     9.46969E-03    -8.69259E+06    -22.7951E+06    -155.146E+06    -22.9614E+06    -154.979E+06    -8.69259E+06     4.64873E+06         24.6215
             896     6.82220E-03     18.9181E-03     677.087E-03     652.767E-03        -2.05499     657.263E-03        -2.03517     652.767E-03    -94.6384E-03     52.2980E-03    -25.9780E-03    -26.3210E-03    -26.0552E-03     52.0322E-03    -25.9780E-03     9.11515E-03    -13.8526E+06    -24.5903E+06    -163.546E+06    -24.7136E+06    -163.422E+06    -13.8526E+06     3.84086E+06         24.3891
             897     5.84753E-03     18.9071E-03     694.304E-03     651.268E-03        -2.07682     657.570E-03        -2.04009     651.268E-03     82.0934E-03     52.2559E-03    -25.9504E-03    -26.3038E-03    -26.0812E-03     52.0333E-03    -25.9504E-03     8.30902E-03    -17.9490E+06    -26.0088E+06    -176.756E+06    -26.1163E+06    -176.648E+06    -17.9490E+06     3.15839E+06         24.2012
             898     4.87321E-03     18.8971E-03     773.241E-03     647.014E-03        -2.14592     678.608E-03        -2.05129     647.014E-03    -286.769E-03     52.1714E-03    -25.9320E-03    -26.2359E-03    -26.0765E-03     52.0120E-03    -25.9320E-03     7.03022E-03    -20.8170E+06    -29.8483E+06    -195.177E+06    -29.9801E+06    -195.045E+06    -20.8170E+06     4.04962E+06         24.0517
             899     3.89895E-03     18.8892E-03     918.801E-03     636.671E-03        -2.27046     690.542E-03        -2.04220     636.671E-03     331.956E-03     51.9821E-03    -25.8917E-03    -26.0888E-03    -25.9738E-03     51.8671E-03    -25.8917E-03     5.96830E-03    -25.6619E+06    -33.8855E+06    -206.962E+06    -33.9948E+06    -206.853E+06    -25.6619E+06     4.12818E+06         23.9319
             900     2.92414E-03     18.8829E-03         1.23525     623.689E-03        -2.56644     659.145E-03        -1.99034     623.689E-03    -715.950E-03     51.7816E-03    -25.8292E-03    -25.9529E-03    -25.8490E-03     51.7048E-03    -25.8563E-03     4.83461E-03    -30.3666E+06    -36.9227E+06    -213.326E+06    -36.9696E+06    -213.279E+06    -30.3666E+06     2.58743E+06         23.8372
             901     1.94923E-03     18.8770E-03         2.04493     608.079E-03        -3.36613     645.891E-03        -1.96709     608.079E-03         1.31710     51.6874E-03    -25.7738E-03    -25.9135E-03    -25.8284E-03     51.6510E-03    -25.8225E-03     3.20237E-03    -33.8092E+06    -40.7239E+06    -215.349E+06    -40.7338E+06    -215.339E+06    -33.8092E+06     997.845E+03         23.7553
             902     974.772E-06     18.8745E-03         5.23714    -337.568E-03        -5.62144         1.53489        -1.91919    -337.568E-03        -4.25821     51.5264E-03    -25.6029E-03    -25.9236E-03    -25.8305E-03     51.5172E-03    -25.6868E-03     1.46891E-03    -38.7914E+06    -45.3473E+06    -218.540E+06    -43.8651E+06    -218.536E+06    -40.2777E+06    -520.003E+03         23.6690
             903     16.5664E-03     18.0381E-03     584.711E-03     494.970E-03        -1.78560     494.105E-03        -1.78474     584.711E-03    -74.5808E-03     52.7887E-03    -25.5516E-03    -27.2367E-03    -24.9556E-03     51.1734E-03    -26.2173E-03     11.1646E-03     192.126E+06     99.9560E+06    -6.09238E+06    -6.08559E+06     192.119E+06     99.9560E+06     883.561E+03         33.0009
             904     15.5920E-03     18.0053E-03     588.266E-03     525.568E-03        -1.82177     525.448E-03        -1.82165     588.266E-03    -8.87014E-03     53.0834E-03    -25.9803E-03    -27.1021E-03    -25.2859E-03     51.2672E-03    -25.9803E-03     22.4496E-03     180.105E+06     48.5059E+06    -11.4067E+06    -11.4002E+06     180.099E+06     48.5059E+06     829.715E+03         31.0546
             905     14.6166E-03     17.9902E-03     590.286E-03     548.116E-03        -1.84392     548.015E-03        -1.84382     590.286E-03    -7.12234E-03     52.6395E-03    -25.8132E-03    -26.8295E-03    -25.6880E-03     51.4980E-03    -25.8132E-03     18.4486E-03     131.505E+06     3.42444E+06    -13.9183E+06    -13.9032E+06     131.490E+06     3.42444E+06     901.280E+03         29.3014
             906     13.6426E-03     17.9660E-03     591.213E-03     567.730E-03        -1.87048     567.419E-03        -1.87017     591.213E-03    -51.7405E-03     53.2911E-03    -25.8188E-03    -27.4627E-03    -26.1876E-03     52.0161E-03    -25.8188E-03     19.9121E-03     53.1891E+06    -12.5418E+06    -15.0231E+06    -14.7383E+06     52.9043E+06    -12.5418E+06     2.76004E+06         27.9071
             907     12.6683E-03     17.9469E-03     593.662E-03     584.591E-03        -1.89005     587.043E-03        -1.88976     590.924E-03    -41.5584E-03     53.1836E-03    -25.8624E-03    -27.3204E-03    -26.5400E-03     52.4031E-03    -25.8624E-03     15.7173E-03     1.62764E+06    -13.5520E+06    -23.0897E+06    -14.9085E+06    -8.09749E+06    -12.0080E+06     4.00396E+06         26.8864
             908     11.6948E-03     17.9294E-03     593.122E-03     578.488E-03        -1.88212     580.881E-03        -1.88178     590.384E-03     11.1615E-03     53.0362E-03    -25.8633E-03    -27.2077E-03    -26.6509E-03     52.4795E-03    -25.8633E-03     13.2642E-03    -11.6030E+06    -14.8555E+06    -50.1775E+06    -15.2536E+06    -49.5162E+06    -11.8662E+06     3.96202E+06         26.1791
             909     10.7209E-03     17.9153E-03     596.653E-03     574.828E-03        -1.88212     579.923E-03        -1.88084     590.278E-03    -42.9195E-03     52.8500E-03    -25.8547E-03    -27.0352E-03    -26.5944E-03     52.4091E-03    -25.8547E-03     11.8247E-03    -10.6981E+06    -16.1490E+06    -88.5904E+06    -16.3998E+06    -88.3395E+06    -10.6981E+06     4.17175E+06         25.6485
             910     9.74688E-03     17.9010E-03     605.551E-03     583.525E-03        -1.89952     597.182E-03        -1.89706     589.430E-03     24.8163E-03     52.6657E-03    -25.8145E-03    -26.8529E-03    -26.4751E-03     52.2879E-03    -25.8145E-03     10.8979E-03    -10.9015E+06    -17.5015E+06    -113.927E+06    -17.7491E+06    -113.679E+06    -10.9015E+06     4.85737E+06         25.2126
             911     8.77258E-03     17.8884E-03     602.727E-03     583.113E-03        -1.89450     593.323E-03        -1.88984     587.853E-03    -38.1665E-03     52.3432E-03    -25.7834E-03    -26.5556E-03    -26.2707E-03     52.0583E-03    -25.7834E-03     9.39942E-03    -11.2034E+06    -18.5448E+06    -133.598E+06    -18.7746E+06    -133.368E+06    -11.2034E+06     5.07115E+06         24.8582
             912     7.79842E-03     17.8766E-03     600.706E-03     581.975E-03        -1.88658     587.206E-03        -1.87782     586.715E-03     40.9945E-03     52.1051E-03    -25.7812E-03    -26.3380E-03    -26.1144E-03     51.8814E-03    -25.7812E-03     8.33192E-03    -7.36912E+06    -19.6427E+06    -154.169E+06    -19.8267E+06    -153.985E+06    -7.36912E+06     4.95733E+06         24.5740
             913     6.82369E-03     17.8654E-03     607.646E-03     585.463E-03        -1.90147     592.137E-03        -1.88597     585.463E-03    -54.9724E-03     52.0193E-03    -25.7155E-03    -26.3049E-03    -26.0984E-03     51.8128E-03    -25.7155E-03     8.00752E-03    -10.2567E+06    -22.2373E+06    -162.392E+06    -22.4354E+06    -162.194E+06    -10.2567E+06     4.74156E+06         24.3417
             914     5.84967E-03     17.8546E-03     629.293E-03     583.086E-03        -1.92489     597.315E-03        -1.89291     583.086E-03     114.104E-03     51.7958E-03    -25.6443E-03    -26.1496E-03    -25.9781E-03     51.6242E-03    -25.6443E-03     7.25878E-03    -16.1929E+06    -26.3415E+06    -176.555E+06    -26.5713E+06    -176.325E+06    -16.1929E+06     5.35573E+06         24.1514
             915     4.87496E-03     17.8453E-03     662.898E-03     580.601E-03        -1.94579     587.022E-03        -1.86991     580.601E-03    -185.791E-03     51.4509E-03    -25.6055E-03    -25.8445E-03    -25.7209E-03     51.3273E-03    -25.6055E-03     6.14553E-03    -19.4592E+06    -29.5386E+06    -194.055E+06    -29.7184E+06    -193.876E+06    -19.4592E+06     5.33264E+06         23.9984
             916     3.89960E-03     17.8372E-03     773.209E-03     579.332E-03        -2.04653     580.077E-03        -1.85339     579.332E-03     350.170E-03     51.3128E-03    -25.5720E-03    -25.7409E-03    -25.6510E-03     51.2228E-03    -25.5720E-03     5.21031E-03    -22.2498E+06    -31.4635E+06    -204.307E+06    -31.5743E+06    -204.197E+06    -22.2498E+06     4.33806E+06         23.8750
             917     2.92516E-03     17.8305E-03         1.09262     577.376E-03        -2.36371     586.424E-03        -1.85751     577.376E-03    -652.762E-03     51.2268E-03    -25.5123E-03    -25.7151E-03    -25.6558E-03     51.1675E-03    -25.5123E-03     4.22252E-03    -26.2627E+06    -34.2268E+06    -210.917E+06    -34.2999E+06    -210.844E+06    -26.2627E+06     3.44774E+06         23.7780
             918     1.95050E-03     17.8258E-03         1.84108     560.804E-03        -3.11439     620.234E-03        -1.89355     560.804E-03         1.18511     50.9539E-03    -25.4066E-03    -25.5464E-03    -25.4963E-03     50.9255E-03    -25.4282E-03     2.80849E-03    -31.2444E+06    -37.9775E+06    -213.067E+06    -38.0012E+06    -213.043E+06    -31.2444E+06     1.62642E+06         23.6956
             919     975.060E-06     17.8225E-03         4.65764    -325.452E-03        -5.06336         1.41722        -1.82294    -325.452E-03        -3.72204     50.7009E-03    -25.1913E-03    -25.5082E-03    -25.3853E-03     50.6945E-03    -25.3078E-03     1.19558E-03    -38.8583E+06    -43.3434E+06    -218.708E+06    -43.1288E+06    -218.695E+06    -39.0851E+06     573.728E+03         23.6102
             920     16.5669E-03     16.9844E-03     532.408E-03     500.046E-03        -1.74746     508.713E-03        -1.74660     522.873E-03    -25.2815E-03     52.9270E-03    -25.5822E-03    -27.3457E-03    -25.1508E-03     51.3585E-03    -26.2086E-03     11.4323E-03     191.852E+06     100.892E+06    -6.06337E+06    -6.05856E+06     191.847E+06     100.892E+06     469.981E+03         32.9938
             921     15.5916E-03     16.9517E-03     522.809E-03     502.666E-03        -1.73413     502.476E-03        -1.73392     522.792E-03     15.5303E-03     53.2587E-03    -25.9553E-03    -27.3053E-03    -25.5272E-03     51.4806E-03    -25.9553E-03     22.2491E-03     180.605E+06     49.5369E+06    -10.9265E+06    -10.9185E+06     180.597E+06     49.5369E+06     1.16619E+06         31.0436
             922     14.6175E-03     16.9367E-03     528.452E-03     509.760E-03        -1.73957     515.924E-03        -1.73950     522.214E-03     12.9348E-03     53.0061E-03    -25.7553E-03    -27.2561E-03    -26.1922E-03     51.9423E-03    -25.7553E-03     17.9617E-03     130.182E+06     2.76301E+06    -14.0210E+06    -14.0011E+06     130.169E+06     2.75664E+06     1.22477E+06         29.2833
             923     13.6433E-03     16.9115E-03     527.793E-03     500.488E-03        -1.72848     506.596E-03        -1.72835     521.556E-03    -19.4234E-03     53.7894E-03    -25.7203E-03    -28.0600E-03    -26.9332E-03     52.6626E-03    -25.7203E-03     18.7482E-03     51.8044E+06    -11.3993E+06    -14.4041E+06    -14.2255E+06     51.6321E+06    -11.4056E+06     1.92615E+06         27.8792
             924     12.6705E-03     16.8924E-03     521.659E-03     498.134E-03        -1.71973     498.011E-03        -1.71960     521.659E-03    -13.1436E-03     53.3040E-03    -25.7086E-03    -27.5917E-03    -26.9523E-03     52.6646E-03    -25.7086E-03     14.2286E-03     1.78204E+06    -10.5837E+06    -23.1374E+06    -12.7929E+06    -8.76685E+06    -10.3793E+06     3.14231E+06         26.8465
             925     11.6966E-03     16.8760E-03     534.761E-03     510.110E-03        -1.74678     523.178E-03        -1.74646     521.374E-03     37.5796E-03     52.9261E-03    -25.6780E-03    -27.2829E-03    -26.8435E-03     52.4867E-03    -25.6780E-03     11.7150E-03    -8.68596E+06    -12.0847E+06    -51.3538E+06    -12.6743E+06    -50.5010E+06    -8.94918E+06     5.24969E+06         26.1279
             926     10.7229E-03     16.8617E-03     539.353E-03     516.447E-03        -1.75930     535.162E-03        -1.75825     519.591E-03    -15.8724E-03     52.7848E-03    -25.6327E-03    -27.1958E-03    -26.8812E-03     52.4702E-03    -25.6327E-03     9.87975E-03    -7.25658E+06    -14.4501E+06    -87.8535E+06    -15.0549E+06    -87.2487E+06    -7.25658E+06     5.88477E+06         25.5893
             927     9.74920E-03     16.8479E-03     528.217E-03     511.072E-03        -1.74424     519.825E-03        -1.74264     517.865E-03     5.77882E-03     52.4354E-03    -25.5396E-03    -26.9125E-03    -26.6661E-03     52.1890E-03    -25.5396E-03     8.65777E-03    -8.55176E+06    -16.5037E+06    -112.988E+06    -16.7420E+06    -112.749E+06    -8.55176E+06     4.59498E+06         25.1465
             928     8.77549E-03     16.8354E-03     530.814E-03     507.519E-03        -1.74431     517.888E-03        -1.74074     516.881E-03    -53.7195E-03     51.9870E-03    -25.4586E-03    -26.5399E-03    -26.3599E-03     51.8069E-03    -25.4586E-03     7.38913E-03    -8.72301E+06    -16.5349E+06    -133.203E+06    -16.7181E+06    -133.020E+06    -8.72301E+06     4.46864E+06         24.7865
             929     7.80114E-03     16.8244E-03     531.283E-03     511.161E-03        -1.75056     518.388E-03        -1.74240     515.901E-03     46.4650E-03     51.7476E-03    -25.3968E-03    -26.3667E-03    -26.2228E-03     51.6037E-03    -25.3968E-03     6.62251E-03    -5.33272E+06    -17.4784E+06    -153.965E+06    -17.6761E+06    -153.768E+06    -5.33272E+06     5.17059E+06         24.4992
             930     6.82700E-03     16.8132E-03     532.946E-03     514.801E-03        -1.75614     517.677E-03        -1.74087     514.801E-03    -50.7789E-03     51.3547E-03    -25.2985E-03    -26.0545E-03    -25.9219E-03     51.2220E-03    -25.2985E-03     6.32509E-03    -5.58982E+06    -19.7106E+06    -162.696E+06    -20.0278E+06    -162.379E+06    -5.58982E+06     6.61757E+06         24.2642
             931     5.85205E-03     16.8028E-03     553.951E-03     512.754E-03        -1.77281     526.723E-03        -1.74558     512.754E-03     73.6764E-03     50.8979E-03    -25.1945E-03    -25.7002E-03    -25.5882E-03     50.7860E-03    -25.1945E-03     5.77248E-03    -12.1105E+06    -22.6452E+06    -175.476E+06    -23.0086E+06    -175.113E+06    -12.1105E+06     7.37637E+06         24.0705
             932     4.87698E-03     16.7941E-03     569.597E-03     511.212E-03        -1.77915     509.198E-03        -1.71875     511.212E-03    -159.516E-03     50.6335E-03    -25.1183E-03    -25.5157E-03    -25.4343E-03     50.5521E-03    -25.1183E-03     4.90987E-03    -16.4408E+06    -25.5880E+06    -191.659E+06    -25.8394E+06    -191.408E+06    -16.4408E+06     6.28663E+06         23.9132
             933     3.90227E-03     16.7860E-03     672.754E-03     511.475E-03        -1.87500     506.872E-03        -1.70912     511.475E-03     340.626E-03     50.3588E-03    -25.0398E-03    -25.3196E-03    -25.2623E-03     50.3015E-03    -25.0398E-03     4.11860E-03    -21.1237E+06    -29.6366E+06    -201.471E+06    -29.7970E+06    -201.311E+06    -21.1237E+06     5.05534E+06         23.7851
             934     2.92654E-03     16.7797E-03     920.706E-03     512.727E-03        -2.12300     505.746E-03        -1.70804     512.727E-03    -486.668E-03     50.0918E-03    -24.9620E-03    -25.1313E-03    -25.0917E-03     50.0540E-03    -24.9637E-03     3.30209E-03    -25.6829E+06    -33.3542E+06    -208.639E+06    -33.4429E+06    -208.550E+06    -25.6829E+06     3.78336E+06         23.6845
             935     1.95109E-03     16.7745E-03         1.54399     506.415E-03        -2.75325     534.775E-03        -1.74404     506.415E-03         1.07358     49.8477E-03    -24.8637E-03    -24.9842E-03    -24.9287E-03     49.8289E-03    -24.9005E-03     2.22021E-03    -28.5018E+06    -37.2040E+06    -211.043E+06    -37.2436E+06    -211.004E+06    -28.5018E+06     2.49119E+06         23.6008
             936     975.927E-06     16.7726E-03         4.01230    -276.219E-03        -4.44104         1.27445        -1.70319    -276.219E-03        -3.20274     49.6393E-03    -24.7039E-03    -24.9345E-03    -24.7997E-03     49.6345E-03    -24.8339E-03     1.06702E-03    -36.3574E+06    -42.8537E+06    -215.873E+06    -41.2138E+06    -215.851E+06    -38.0198E+06     1.79358E+06         23.5173
             937     16.5666E-03     15.9301E-03     486.488E-03     458.798E-03        -1.65309     486.313E-03        -1.65291     458.798E-03     16.9410E-03     53.2519E-03    -25.6671E-03    -27.5861E-03    -25.5817E-03     51.7694E-03    -26.1889E-03     11.6932E-03     190.939E+06     100.102E+06    -6.94950E+06    -6.94841E+06     190.938E+06     100.102E+06     114.654E+03         32.9941
             938     15.5930E-03     15.8980E-03     473.045E-03     455.721E-03        -1.62908     472.231E-03        -1.62891     456.361E-03     4.65357E-03     53.9553E-03    -25.9058E-03    -28.0514E-03    -26.3725E-03     52.2765E-03    -25.9058E-03     21.6712E-03     180.981E+06     51.5019E+06    -11.5308E+06    -11.5266E+06     180.977E+06     51.5019E+06     651.586E+03         31.0381
             939     14.6187E-03     15.8821E-03     468.743E-03     453.358E-03        -1.61392     467.846E-03        -1.61366     453.998E-03    -17.9974E-03     53.7363E-03    -25.6370E-03    -28.1073E-03    -27.1592E-03     52.7883E-03    -25.6370E-03     17.1086E-03     130.419E+06     4.82622E+06    -13.9662E+06    -13.5160E+06     130.403E+06     4.39134E+06     1.31122E+06         29.2674
             940     13.6470E-03     15.8563E-03     464.242E-03     442.640E-03        -1.59084     454.454E-03        -1.59051     452.106E-03    -33.2053E-03     54.0643E-03    -25.5235E-03    -28.5326E-03    -27.5760E-03     53.1078E-03    -25.5235E-03     17.2750E-03     51.0887E+06    -11.8645E+06    -14.1512E+06    -13.6907E+06     51.0631E+06    -12.2994E+06     1.19772E+06         27.8470
             941     12.6737E-03     15.8389E-03     457.974E-03     433.776E-03        -1.57922     440.122E-03        -1.57877     451.184E-03    -41.0460E-03     53.3825E-03    -25.4584E-03    -27.9202E-03    -27.4350E-03     52.8973E-03    -25.4584E-03     12.4705E-03      891.63E+03    -11.7898E+06    -24.8526E+06    -14.0294E+06    -10.5549E+06    -11.1664E+06     2.42982E+06         26.7942
             942     11.7005E-03     15.8225E-03     466.681E-03     437.201E-03        -1.60093     453.046E-03        -1.60050     450.413E-03    -2.17076E-03     53.0646E-03    -25.3652E-03    -27.7344E-03    -27.4168E-03     52.7470E-03    -25.3652E-03     9.97666E-03    -9.18848E+06    -13.5157E+06    -53.8234E+06    -14.3691E+06    -52.9700E+06    -9.18848E+06     5.28896E+06         26.0590
             943     10.7276E-03     15.8078E-03     462.661E-03     438.122E-03        -1.60346     450.672E-03        -1.60262     449.274E-03    -24.6305E-03     52.7376E-03    -25.2489E-03    -27.5343E-03    -27.3484E-03     52.5517E-03    -25.2489E-03     7.63325E-03    -4.24278E+06    -12.8794E+06    -85.9177E+06    -13.5271E+06    -85.2700E+06    -4.24278E+06     6.20470E+06         25.5094
             944     9.75442E-03     15.7948E-03     450.332E-03     438.365E-03        -1.58775     438.961E-03        -1.58688     448.867E-03    -21.6005E-03     52.0468E-03    -25.0824E-03    -27.0017E-03    -26.8826E-03     51.9277E-03    -25.0824E-03     5.99659E-03    -5.26060E+06    -13.5566E+06    -110.642E+06    -13.8405E+06    -110.358E+06    -5.26060E+06     4.95135E+06         25.0576
             945     8.78000E-03     15.7835E-03     459.895E-03     442.432E-03        -1.59484     450.907E-03        -1.59190     448.473E-03    -81.7210E-03     51.3719E-03    -24.9225E-03    -26.4779E-03    -26.3949E-03     51.2889E-03    -24.9225E-03     4.92445E-03    -8.09102E+06    -15.8599E+06    -133.661E+06    -16.0384E+06    -133.483E+06    -8.09102E+06     4.45794E+06         24.6885
             946     7.80588E-03     15.7719E-03     462.687E-03     445.726E-03        -1.59983     455.062E-03        -1.59362     447.145E-03     10.5357E-03     50.9270E-03    -24.7901E-03    -26.1509E-03    -26.0845E-03     50.8607E-03    -24.7901E-03     4.34266E-03    -6.28633E+06    -17.3861E+06    -154.508E+06    -17.6053E+06    -154.289E+06    -6.28633E+06     5.46666E+06         24.3912
             947     6.83138E-03     15.7621E-03     457.081E-03     446.151E-03        -1.59384     444.109E-03        -1.58086     446.151E-03    -76.6914E-03     50.3129E-03    -24.6432E-03    -25.6710E-03    -25.6143E-03     50.2562E-03    -24.6432E-03     3.93701E-03    -5.70032E+06    -18.9055E+06    -163.360E+06    -19.2506E+06    -163.015E+06    -5.70032E+06     6.99039E+06         24.1482
             948     5.85598E-03     15.7525E-03     460.559E-03     445.833E-03        -1.59451     434.812E-03        -1.56962     446.691E-03     51.7390E-03     49.6501E-03    -24.4972E-03    -25.1529E-03    -25.1048E-03     49.6020E-03    -24.4972E-03     3.57691E-03    -10.4984E+06    -21.0725E+06    -173.966E+06    -21.5159E+06    -173.523E+06    -10.4984E+06     8.19903E+06         23.9489
             949     4.88063E-03     15.7430E-03     486.126E-03     447.875E-03        -1.61938     432.989E-03        -1.56710     448.732E-03    -144.743E-03     49.2681E-03    -24.3776E-03    -24.8907E-03    -24.8540E-03     49.2314E-03    -24.3776E-03     3.14714E-03    -16.2244E+06    -24.0898E+06    -189.520E+06    -24.5023E+06    -189.108E+06    -16.2244E+06     8.19521E+06         23.7865
             950     3.90480E-03     15.7363E-03     578.584E-03     447.960E-03        -1.70731     463.437E-03        -1.59216     447.960E-03     202.400E-03     48.9676E-03    -24.2595E-03    -24.7085E-03    -24.6808E-03     48.9399E-03    -24.2595E-03     2.71711E-03    -20.3631E+06    -27.7012E+06    -198.573E+06    -27.9888E+06    -198.285E+06    -20.3631E+06     6.89630E+06         23.6542
             951     2.92921E-03     15.7298E-03     763.727E-03     446.193E-03        -1.88255     443.391E-03        -1.56222     446.193E-03    -480.290E-03     48.5068E-03    -24.1498E-03    -24.3574E-03    -24.3389E-03     48.4900E-03    -24.1515E-03     2.06456E-03    -23.9045E+06    -30.6866E+06    -204.720E+06    -30.8231E+06    -204.583E+06    -23.9045E+06     4.64755E+06         23.5504
             952     1.95281E-03     15.7259E-03         1.24092     452.429E-03        -2.36692     428.513E-03        -1.55451     452.429E-03     837.421E-03     48.1410E-03    -24.0219E-03    -24.1190E-03    -24.0234E-03     48.1343E-03    -24.1107E-03     1.28797E-03    -26.5465E+06    -34.6210E+06    -208.495E+06    -34.6757E+06    -208.440E+06    -26.5465E+06     3.00722E+06         23.4654
             953     975.958E-06     15.7228E-03         3.29363    -187.701E-03        -3.78615         1.10443        -1.59695    -187.701E-03        -2.70228     48.1112E-03    -23.9537E-03    -24.1573E-03    -24.0676E-03     48.1086E-03    -24.0407E-03     790.202E-06    -33.9036E+06    -42.2936E+06    -212.719E+06    -40.9011E+06    -212.676E+06    -35.3393E+06     2.47305E+06         23.3823
             954     16.5675E-03     14.8760E-03     444.251E-03     396.280E-03        -1.52841     444.004E-03        -1.52816     396.280E-03    -37.4858E-03     54.0189E-03    -25.9451E-03    -28.0745E-03    -26.4713E-03     52.6180E-03    -26.1474E-03     11.8005E-03     190.706E+06     100.371E+06    -7.29719E+06    -7.29687E+06     190.706E+06     100.371E+06     61.1959E+03         33.0075
             955     15.5938E-03     14.8425E-03     447.378E-03     392.051E-03        -1.52718     447.114E-03        -1.52692     392.051E-03    -26.5640E-03     54.9278E-03    -25.7973E-03    -29.1297E-03    -27.5515E-03     53.3496E-03    -25.7973E-03     21.1661E-03     180.666E+06     51.8913E+06    -12.3637E+06    -12.3626E+06     180.665E+06     51.8913E+06     163.221E+03         31.0420
             956     14.6229E-03     14.8265E-03     422.887E-03     387.816E-03        -1.49189     422.593E-03        -1.49159     387.816E-03    -11.8491E-03     54.4062E-03    -25.4468E-03    -28.9659E-03    -28.1194E-03     53.5597E-03    -25.4468E-03     16.3032E-03     130.478E+06     4.89081E+06    -14.8436E+06    -14.4071E+06     130.470E+06     4.46228E+06     814.559E+03         29.2558
             957     13.6498E-03     14.8015E-03     407.066E-03     384.566E-03        -1.46984     406.701E-03        -1.46947     384.566E-03    -27.0247E-03     54.3762E-03    -25.2515E-03    -29.1163E-03    -28.2959E-03     53.5558E-03    -25.2515E-03     15.9281E-03     50.6436E+06    -13.4404E+06    -15.7078E+06    -15.1736E+06     50.5379E+06    -13.8689E+06     1.64509E+06         27.8163
             958     12.6778E-03     14.7844E-03     403.051E-03     381.764E-03        -1.46338     402.554E-03        -1.46288     381.764E-03    -51.0534E-03     53.8132E-03    -25.1072E-03    -28.7041E-03    -28.3510E-03     53.4601E-03    -25.1072E-03     10.6195E-03     29.4683E+03    -13.5601E+06    -26.6026E+06    -15.5427E+06    -12.1809E+06    -12.4097E+06     2.81112E+06         26.7403
             959     11.7057E-03     14.7682E-03     385.940E-03     364.396E-03        -1.43376     369.488E-03        -1.43330     380.388E-03    -26.4473E-03     53.3549E-03    -24.8920E-03    -28.4950E-03    -28.2923E-03     53.1522E-03    -24.8920E-03     7.82111E-03    -12.0259E+06    -14.6712E+06    -54.3744E+06    -14.7176E+06    -53.9383E+06    -12.4155E+06     3.30668E+06         25.9827
             960     10.7333E-03     14.7543E-03     383.815E-03     361.019E-03        -1.43430     363.377E-03        -1.43356     380.721E-03    -34.2259E-03     52.5517E-03    -24.6657E-03    -27.9255E-03    -27.8323E-03     52.4586E-03    -24.6657E-03     5.01899E-03    -7.17155E+06    -13.5605E+06    -85.8369E+06    -13.4738E+06    -85.5340E+06    -7.56114E+06     4.61866E+06         25.4169
             961     9.76018E-03     14.7426E-03     385.340E-03     375.958E-03        -1.45436     379.588E-03        -1.45344     380.781E-03    -9.04746E-03     51.6451E-03    -24.4157E-03    -27.2593E-03    -27.2159E-03     51.6017E-03    -24.4157E-03     3.14254E-03    -5.69161E+06    -13.6390E+06    -109.365E+06    -14.0460E+06    -108.958E+06    -5.69161E+06     6.17674E+06         24.9536
             962     8.78702E-03     14.7318E-03     382.067E-03     373.225E-03        -1.43759     372.066E-03        -1.43496     380.603E-03    -58.7337E-03     50.7440E-03    -24.1601E-03    -26.6030E-03    -26.5804E-03     50.7213E-03    -24.1601E-03     2.01362E-03    -7.11404E+06    -15.4900E+06    -132.938E+06    -15.8033E+06    -132.624E+06    -7.11404E+06     5.90960E+06         24.5707
             963     7.81254E-03     14.7213E-03     389.608E-03     374.272E-03        -1.43618     378.642E-03        -1.43147     380.537E-03     2.89189E-03     49.7862E-03    -23.9306E-03    -25.8654E-03    -25.8492E-03     49.7700E-03    -23.9306E-03     1.27351E-03    -7.00554E+06    -18.1549E+06    -154.811E+06    -18.4118E+06    -154.554E+06    -7.00554E+06     5.87944E+06         24.2563
             964     6.83731E-03     14.7118E-03     396.135E-03     379.417E-03        -1.44926     388.273E-03        -1.44140     379.417E-03    -47.7093E-03     48.8802E-03    -23.7000E-03    -25.1823E-03    -25.1699E-03     48.8678E-03    -23.7000E-03     876.825E-06    -7.77121E+06    -20.5066E+06    -163.902E+06    -20.8544E+06    -163.554E+06    -7.77121E+06     7.00269E+06         23.9985
             965     5.86230E-03     14.7030E-03     388.625E-03     378.257E-03        -1.45117     368.278E-03        -1.43168     379.115E-03     80.3925E-03     48.0165E-03    -23.4824E-03    -24.5362E-03    -24.5264E-03     48.0067E-03    -23.4824E-03     794.171E-06    -11.0304E+06    -22.0850E+06    -173.494E+06    -22.5953E+06    -172.983E+06    -11.0304E+06     8.75247E+06         23.7883
             966     4.88563E-03     14.6952E-03     394.700E-03     373.381E-03        -1.46278     345.834E-03        -1.42374     383.203E-03    -78.2362E-03     47.2885E-03    -23.2917E-03    -23.9983E-03    -23.9902E-03     47.2804E-03    -23.2917E-03     847.927E-06    -17.5777E+06    -23.8365E+06    -186.696E+06    -24.3411E+06    -186.192E+06    -17.5777E+06     8.99762E+06         23.6163
             967     3.90915E-03     14.6873E-03     444.310E-03     382.619E-03        -1.51709     350.705E-03        -1.43245     391.584E-03     178.686E-03     46.8147E-03    -23.1358E-03    -23.6804E-03    -23.6739E-03     46.8082E-03    -23.1358E-03     654.451E-06    -21.2016E+06    -24.9818E+06    -195.026E+06    -25.3170E+06    -194.690E+06    -21.2016E+06     7.47197E+06         23.4774
             968     2.93228E-03     14.6824E-03     611.011E-03     401.361E-03        -1.68853     371.560E-03        -1.44908     401.361E-03    -407.794E-03     46.3168E-03    -23.0099E-03    -23.3068E-03    -23.3026E-03     46.3126E-03    -23.0099E-03     368.276E-06    -22.3267E+06    -26.9159E+06    -200.560E+06    -27.1177E+06    -200.358E+06    -22.3267E+06     5.82676E+06         23.3700
             969     1.95500E-03     14.6784E-03         1.03033     400.050E-03        -2.11037     424.433E-03        -1.50448     400.050E-03     676.141E-03     45.8886E-03    -22.8835E-03    -23.0048E-03    -22.9512E-03     45.8869E-03    -22.9354E-03     338.811E-06    -23.6176E+06    -31.6323E+06    -204.605E+06    -31.7551E+06    -204.482E+06    -23.6176E+06     4.41797E+06         23.2817
             970     977.732E-06     14.6757E-03         2.70064    -173.496E-03        -3.21198     960.992E-03        -1.47233    -173.496E-03        -2.22766     45.7058E-03    -22.7640E-03    -22.9425E-03    -22.8141E-03     45.7048E-03    -22.8914E-03     420.494E-06    -30.8374E+06    -39.5826E+06    -209.370E+06    -38.1254E+06    -209.301E+06    -32.3635E+06     2.72761E+06         23.1961
             971     16.5684E-03     13.8196E-03     423.930E-03     335.727E-03        -1.43270     423.630E-03        -1.43240     335.727E-03    -43.6771E-03     54.9978E-03    -26.0650E-03    -28.9314E-03    -27.6793E-03     53.7469E-03    -26.0662E-03     12.1881E-03     191.099E+06     101.277E+06    -6.22770E+06    -6.22633E+06     191.097E+06     101.277E+06     198.122E+03         33.0311
             972     15.5977E-03     13.7860E-03     412.760E-03     329.404E-03        -1.41546     412.547E-03        -1.41525     329.404E-03    -10.0101E-03     55.6883E-03    -25.6291E-03    -30.0592E-03    -28.6109E-03     54.2400E-03    -25.6291E-03     20.6119E-03     179.314E+06     50.1343E+06    -12.0062E+06    -12.0043E+06     179.312E+06     50.1343E+06     447.101E+03         31.0535
             973     14.6250E-03     13.7699E-03     401.773E-03     322.840E-03        -1.39142     401.689E-03        -1.39134     322.840E-03     20.5033E-03     55.0690E-03    -25.2057E-03    -29.8712E-03    -29.1414E-03     54.3392E-03    -25.2057E-03     15.3878E-03     129.324E+06     3.90746E+06    -14.8443E+06    -14.8363E+06     129.316E+06     3.90746E+06     793.508E+03         29.2492
             974     13.6549E-03     13.7460E-03     371.834E-03     316.997E-03        -1.35719     371.640E-03        -1.35700     316.997E-03    -7.09629E-03     55.2288E-03    -24.9168E-03    -30.3020E-03    -29.6582E-03     54.5849E-03    -24.9168E-03     14.1212E-03     50.4502E+06    -12.0778E+06    -15.7428E+06    -15.6010E+06     50.3084E+06    -12.0778E+06     1.96881E+06         27.7920
             975     12.6838E-03     13.7287E-03     335.766E-03     313.005E-03        -1.31724     335.556E-03        -1.31703     313.005E-03    -21.7889E-03     54.5153E-03    -24.6408E-03    -29.8717E-03    -29.6577E-03     54.3012E-03    -24.6408E-03     8.24314E-03     835.321E+03    -12.8544E+06    -25.4428E+06    -15.2476E+06    -11.5017E+06    -10.7127E+06     2.11481E+06         26.6956
             976     11.7131E-03     13.7135E-03     314.682E-03     300.765E-03        -1.28577     303.758E-03        -1.28557     311.487E-03     1.29090E-03     53.5966E-03    -24.2865E-03    -29.3415E-03    -29.2544E-03     53.5095E-03    -24.2865E-03     4.90243E-03    -11.4558E+06    -15.2938E+06    -54.5235E+06    -15.0177E+06    -54.4100E+06    -11.8454E+06     2.02149E+06         25.9151
             977     10.7415E-03     13.7008E-03     315.216E-03     291.987E-03        -1.28255     294.049E-03        -1.28117     311.779E-03    -55.0420E-03     52.4448E-03    -23.9258E-03    -28.5525E-03    -28.5297E-03     52.4220E-03    -23.9258E-03     1.65164E-03    -6.99714E+06    -15.3045E+06    -87.6954E+06    -15.1169E+06    -87.4935E+06    -7.38673E+06     3.75377E+06         25.3280
             978     9.76905E-03     13.6904E-03     315.625E-03     298.080E-03        -1.29015     299.421E-03        -1.28839     312.530E-03    -21.7943E-03     51.2257E-03    -23.5460E-03    -27.6962E-03    -27.6831E-03     51.2125E-03    -23.5460E-03    -521.610E-06    -3.15993E+06    -14.1699E+06    -108.945E+06    -14.4756E+06    -108.640E+06    -3.15993E+06     5.23687E+06         24.8460
             979     8.79559E-03     13.6804E-03     321.663E-03     302.596E-03        -1.29511     308.196E-03        -1.29187     312.820E-03    -52.6512E-03     49.9600E-03    -23.1640E-03    -26.8050E-03    -26.7803E-03     49.9353E-03    -23.1640E-03    -1.71861E-03    -2.56466E+06    -13.6752E+06    -132.251E+06    -14.0177E+06    -131.909E+06    -2.56466E+06     6.25412E+06         24.4436
             980     7.82165E-03     13.6719E-03     326.253E-03     307.422E-03        -1.29958     316.081E-03        -1.29426     312.267E-03    -2.08937E-03     48.5319E-03    -22.8051E-03    -25.7363E-03    -25.7019E-03     48.4975E-03    -22.8051E-03    -2.48422E-03    -1.61852E+06    -15.4016E+06    -153.991E+06    -15.7836E+06    -153.609E+06    -1.61852E+06     7.22665E+06         24.1061
             981     6.84656E-03     13.6633E-03     323.407E-03     301.996E-03        -1.29191     306.614E-03        -1.28499     311.873E-03    -25.6478E-03     47.0468E-03    -22.4477E-03    -24.5957E-03    -24.5637E-03     47.0148E-03    -22.4477E-03    -2.49635E-03    -5.35240E+06    -18.3809E+06    -164.079E+06    -18.7512E+06    -163.709E+06    -5.35240E+06     7.27946E+06         23.8247
             982     5.86965E-03     13.6560E-03     321.247E-03     302.865E-03        -1.30159     301.066E-03        -1.29129     312.742E-03     19.4901E-03     45.9215E-03    -22.1382E-03    -23.7803E-03    -23.7520E-03     45.8932E-03    -22.1382E-03    -2.28466E-03    -8.13080E+06    -19.9882E+06    -173.747E+06    -20.4395E+06    -173.295E+06    -8.13080E+06     8.24281E+06         23.5953
             983     4.89316E-03     13.6487E-03     323.774E-03     306.611E-03        -1.31614     292.636E-03        -1.29396     315.576E-03    -90.0734E-03     44.8870E-03    -21.8493E-03    -23.0394E-03    -23.0162E-03     44.8639E-03    -21.8493E-03    -1.93879E-03    -13.1905E+06    -20.7249E+06    -183.381E+06    -21.2465E+06    -182.859E+06    -13.1905E+06     9.14834E+06         23.4080
             984     3.91523E-03     13.6423E-03     358.579E-03     313.933E-03        -1.35358     279.310E-03        -1.28328     322.898E-03     198.994E-03     43.9088E-03    -21.6056E-03    -22.3046E-03    -22.2895E-03     43.8936E-03    -21.6056E-03    -1.61421E-03    -20.1127E+06    -22.4870E+06    -191.315E+06    -22.2259E+06    -190.925E+06    -20.7633E+06     8.01638E+06         23.2552
             985     2.93678E-03     13.6372E-03     477.802E-03     335.149E-03        -1.48912     291.991E-03        -1.30331     335.149E-03    -280.073E-03     43.3136E-03    -21.4501E-03    -21.8637E-03    -21.8506E-03     43.3005E-03    -21.4501E-03    -1.56373E-03    -20.5206E+06    -24.1537E+06    -197.249E+06    -23.7400E+06    -197.012E+06    -21.1712E+06     6.35957E+06         23.1375
             986     1.95810E-03     13.6342E-03     822.304E-03     332.116E-03        -1.83422     371.824E-03        -1.38374     332.116E-03     562.567E-03     42.8691E-03    -21.3240E-03    -21.5458E-03    -21.5376E-03     42.8610E-03    -21.3240E-03    -1.02024E-03    -18.9078E+06    -26.8516E+06    -200.182E+06    -27.0128E+06    -200.021E+06    -18.9078E+06     5.26477E+06         23.0430
             987     979.076E-06     13.6313E-03         2.14355    -150.241E-03        -2.66923     794.400E-03        -1.32009    -150.241E-03        -1.74365     42.3929E-03    -21.0456E-03    -21.3489E-03    -21.2714E-03     42.3909E-03    -21.1211E-03    -410.554E-06    -24.4415E+06    -32.5599E+06    -203.569E+06    -31.1044E+06    -203.498E+06    -25.9676E+06     2.45508E+06         22.9533
             988     16.5710E-03     12.7610E-03     424.731E-03     276.352E-03        -1.36004     424.641E-03        -1.35995     276.352E-03    -17.5906E-03     56.0386E-03    -25.9621E-03    -30.0771E-03    -28.9454E-03     54.9069E-03    -25.9621E-03     13.1393E-03     190.754E+06     101.579E+06    -6.16201E+06    -6.15911E+06     190.751E+06     101.579E+06      27.879E+03         33.0549
             989     15.5996E-03     12.7304E-03     370.603E-03     267.665E-03        -1.29072     370.553E-03        -1.29067     267.665E-03    -9.47130E-03     56.7100E-03    -25.4355E-03    -31.2764E-03    -29.9382E-03     55.3718E-03    -25.4355E-03     20.0682E-03     179.339E+06     50.5430E+06    -10.9125E+06    -10.9077E+06     179.334E+06     50.5430E+06     452.602E+03         31.0663
             990     14.6301E-03     12.7126E-03     356.904E-03     259.961E-03        -1.26925     356.804E-03        -1.26915     259.961E-03    -11.6438E-03     56.1677E-03    -24.9106E-03    -31.2649E-03    -30.6590E-03     55.5618E-03    -24.9106E-03     14.3372E-03     128.493E+06     5.41006E+06    -13.3281E+06    -13.3179E+06     128.483E+06     5.41006E+06     1.08317E+06         29.2465
             991     13.6604E-03     12.6888E-03     332.733E-03     252.772E-03        -1.24231     332.036E-03        -1.24161     252.772E-03    -52.2758E-03     56.2670E-03    -24.4987E-03    -31.7597E-03    -31.2670E-03     55.7744E-03    -24.4987E-03     12.4528E-03     50.1215E+06    -8.28446E+06    -13.7746E+06    -13.7157E+06     50.0626E+06    -8.28446E+06     1.39166E+06         27.7756
             992     12.6919E-03     12.6721E-03     295.204E-03     247.125E-03        -1.20319     294.359E-03        -1.20235     247.125E-03    -55.8565E-03     55.3637E-03    -24.0684E-03    -31.3126E-03    -31.1875E-03     55.2386E-03    -24.0684E-03     6.10102E-03     3.02393E+06    -10.8587E+06    -24.0869E+06    -14.5947E+06    -10.4168E+06    -6.91013E+06     1.81989E+06         26.6646
             993     11.7219E-03     12.6586E-03     269.583E-03     243.414E-03        -1.17857     269.224E-03        -1.17822     243.414E-03     4.79846E-03     53.9860E-03    -23.5490E-03    -30.4904E-03    -30.4613E-03     53.9569E-03    -23.5490E-03     1.96502E-03    -9.28331E+06    -15.7018E+06    -54.4049E+06    -15.8870E+06    -54.2197E+06    -9.28331E+06     2.22802E+06         25.8653
             994     10.7514E-03     12.6474E-03     249.542E-03     221.950E-03        -1.14334     228.100E-03        -1.14221     242.267E-03    -31.7918E-03     52.4152E-03    -23.0101E-03    -29.4415E-03    -29.4208E-03     52.3945E-03    -23.0101E-03    -1.41875E-03    -7.69121E+06    -15.3900E+06    -88.4809E+06    -15.4914E+06    -88.3796E+06    -7.69121E+06     2.00475E+06         25.2541
             995     9.78009E-03     12.6385E-03     243.671E-03     217.489E-03        -1.12763     216.075E-03        -1.12621     243.671E-03    -16.6169E-03     50.8262E-03    -22.4689E-03    -28.3724E-03    -28.3215E-03     50.7752E-03    -22.4689E-03    -3.69641E-03    -1.98505E+06    -13.9774E+06    -109.973E+06    -14.1180E+06    -109.832E+06    -1.98505E+06     2.95011E+06         24.7468
             996     8.80725E-03     12.6306E-03     255.416E-03     238.509E-03        -1.14837     247.047E-03        -1.14587     244.373E-03    -40.6504E-03     49.0150E-03    -21.9276E-03    -27.0952E-03    -26.9920E-03     48.9117E-03    -21.9276E-03    -5.29608E-03     283.209E+03    -13.7853E+06    -132.701E+06    -14.0172E+06    -132.469E+06     283.209E+03     5.16587E+06         24.3196
             997     7.83300E-03     12.6232E-03     255.583E-03     237.705E-03        -1.14644     245.490E-03        -1.14230     243.663E-03    -1.09697E-03     47.0053E-03    -21.4098E-03    -25.6058E-03    -25.4628E-03     46.8623E-03    -21.4098E-03    -6.17447E-03     1.58732E+06    -13.6633E+06    -153.815E+06    -13.9982E+06    -153.480E+06     1.58732E+06     6.71319E+06         23.9534
             998     6.85693E-03     12.6178E-03     245.747E-03     224.872E-03        -1.12923     220.638E-03        -1.12412     244.870E-03    -16.5628E-03     45.0884E-03    -20.9109E-03    -24.1780E-03    -24.0368E-03     44.9472E-03    -20.9109E-03    -5.95043E-03      66.711E+03    -14.3899E+06    -162.679E+06    -14.7812E+06    -162.288E+06      66.711E+03     7.50937E+06         23.6405
             999     5.88022E-03     12.6108E-03     248.865E-03     225.814E-03        -1.13477     219.692E-03        -1.12840     248.615E-03     5.05839E-03     43.3835E-03    -20.4588E-03    -22.9226E-03    -22.7991E-03     43.2600E-03    -20.4588E-03    -5.44314E-03    -4.91720E+06    -16.5202E+06    -173.968E+06    -16.9024E+06    -173.585E+06    -4.91720E+06     7.64977E+06         23.3830
            1000     4.90195E-03     12.6052E-03     264.497E-03     242.934E-03        -1.17158     241.395E-03        -1.15724     251.695E-03    -83.6399E-03     41.8540E-03    -20.0539E-03    -21.7995E-03    -21.7008E-03     41.7553E-03    -20.0539E-03    -4.76400E-03    -10.4844E+06    -17.6842E+06    -181.585E+06    -18.1094E+06    -181.160E+06    -10.4844E+06     8.24886E+06         23.1732
            1001     3.92277E-03     12.6001E-03     316.109E-03     249.663E-03        -1.23834     271.574E-03        -1.19380     249.663E-03     136.661E-03     40.5744E-03    -19.7238E-03    -20.8501E-03    -20.7805E-03     40.5048E-03    -19.7238E-03    -3.89246E-03    -14.3020E+06    -18.3172E+06    -187.041E+06    -18.0759E+06    -186.632E+06    -14.9526E+06     8.24258E+06         23.0009
            1002     2.94273E-03     12.5956E-03     385.180E-03     245.426E-03        -1.30208     252.607E-03        -1.16950     245.426E-03    -237.559E-03     39.6700E-03    -19.4661E-03    -20.2043E-03    -20.1537E-03     39.6193E-03    -19.4661E-03    -3.32624E-03    -15.1026E+06    -19.3061E+06    -193.926E+06    -18.2475E+06    -193.660E+06    -16.4269E+06     6.76534E+06         22.8659
            1003     1.96239E-03     12.5932E-03     593.646E-03     246.273E-03        -1.50751     237.054E-03        -1.15091     246.273E-03     447.003E-03     38.9196E-03    -19.2396E-03    -19.6823E-03    -19.6505E-03     38.8878E-03    -19.2396E-03    -2.53554E-03    -13.8193E+06    -20.7030E+06    -194.993E+06    -20.1748E+06    -194.848E+06    -14.4929E+06     4.88920E+06         22.7594
            1004     981.537E-06     12.5911E-03         1.58206    -93.3249E-03        -2.15565     590.262E-03        -1.16385    -93.3249E-03        -1.28106     38.1578E-03    -18.9086E-03    -19.2508E-03    -19.1909E-03     38.1478E-03    -18.9586E-03    -1.22889E-03    -18.3771E+06    -26.2478E+06    -197.655E+06    -24.5703E+06    -197.590E+06    -20.1190E+06     2.96001E+06         22.6619
            1005     16.5721E-03     11.7037E-03     412.716E-03     220.091E-03        -1.28985     412.439E-03        -1.28958     220.091E-03     15.3001E-03     57.4649E-03    -25.8607E-03    -31.6078E-03    -30.5443E-03     56.4014E-03    -25.8607E-03     14.0783E-03     190.455E+06     102.352E+06    -6.67895E+06    -6.67410E+06      190.45E+06     102.352E+06    -52.1049E+03         33.0691
            1006     15.6036E-03     11.6704E-03     352.887E-03     208.920E-03        -1.21316     352.849E-03        -1.21312     208.920E-03    -14.5146E-03     58.2159E-03    -25.2269E-03    -32.9925E-03    -31.7385E-03     56.9620E-03    -25.2269E-03     19.7126E-03     179.147E+06     52.3230E+06    -11.8276E+06    -11.8222E+06     179.142E+06     52.3230E+06     214.099E+03         31.0732
            1007     14.6352E-03     11.6539E-03     298.540E-03     199.982E-03        -1.15001     298.447E-03        -1.14992     199.982E-03    -16.1035E-03     57.5801E-03    -24.5657E-03    -33.0209E-03    -32.4963E-03     57.0555E-03    -24.5657E-03     13.6160E-03     128.874E+06     7.56948E+06    -13.4832E+06    -13.4738E+06     128.865E+06     7.56948E+06     153.433E+03         29.2435
            1008     13.6678E-03     11.6304E-03     277.256E-03     192.642E-03        -1.12214     276.697E-03        -1.12158     192.642E-03    -39.1314E-03     57.3287E-03    -24.0020E-03    -33.3208E-03    -32.9256E-03     56.9335E-03    -24.0020E-03     11.0723E-03     49.7645E+06    -6.40683E+06    -13.4643E+06    -13.4287E+06     49.7288E+06    -6.40683E+06     590.259E+03         27.7657
            1009     12.6998E-03     11.6147E-03     268.093E-03     185.616E-03        -1.10723     267.168E-03        -1.10630     185.616E-03    -64.5320E-03     56.2655E-03    -23.4150E-03    -32.8910E-03    -32.8236E-03     56.1980E-03    -23.4150E-03     3.86566E-03     4.80524E+06    -8.29804E+06    -23.9626E+06    -12.9859E+06    -11.0073E+06    -3.46212E+06     1.58015E+06         26.6484
            1010     11.7324E-03     11.6028E-03     238.989E-03     179.386E-03        -1.07892     238.401E-03        -1.07834     179.386E-03    -41.6004E-03     54.5843E-03    -22.7171E-03    -31.9522E-03    -31.9278E-03     54.5599E-03    -22.7171E-03    -1.09613E-03    -4.01264E+06    -11.7465E+06    -52.9822E+06    -11.8983E+06    -52.8303E+06    -4.01264E+06     1.61939E+06         25.8375
            1011     10.7629E-03     11.5941E-03     210.477E-03     164.125E-03        -1.03842     198.730E-03        -1.03792     175.371E-03    -32.3299E-03     52.4183E-03    -21.9910E-03    -30.4780E-03    -30.4001E-03     52.3403E-03    -21.9910E-03    -4.60839E-03    -2.98958E+06    -11.8568E+06    -87.4121E+06    -11.9003E+06    -87.3686E+06    -2.98958E+06     1.04498E+06         25.2042
            1012     9.79158E-03     11.5869E-03     186.000E-03     156.160E-03    -999.969E-03     167.197E-03    -999.236E-03     174.229E-03    -27.8320E-03     50.2855E-03    -21.2690E-03    -29.0297E-03    -28.8720E-03     50.1278E-03    -21.2690E-03    -6.76768E-03     607.394E+03     -13.198E+06    -111.584E+06    -13.2664E+06    -111.516E+06     607.394E+03     1.42974E+06         24.6692
            1013     8.81985E-03     11.5811E-03     177.289E-03     158.644E-03    -986.578E-03     159.270E-03    -985.004E-03     175.090E-03    -54.2680E-03     47.9781E-03    -20.5539E-03    -27.4267E-03    -27.1726E-03     47.7240E-03    -20.5539E-03    -8.49014E-03     3.11402E+06    -13.3318E+06    -134.345E+06    -13.4548E+06    -134.222E+06     3.11402E+06     3.26026E+06         24.2131
            1014     7.84543E-03     11.5781E-03     179.022E-03     158.324E-03    -985.307E-03     158.444E-03    -983.227E-03     176.823E-03    -6.49340E-03     45.4765E-03    -19.8572E-03    -25.6275E-03    -25.3222E-03     45.1712E-03    -19.8572E-03    -9.19265E-03     3.92601E+06    -13.4780E+06    -153.944E+06    -13.6468E+06    -153.775E+06     3.92601E+06     4.81757E+06         23.8149
            1015     6.86967E-03     11.5729E-03     181.787E-03     165.567E-03    -994.923E-03     166.065E-03    -992.240E-03     178.607E-03    -19.5384E-03     43.0461E-03    -19.1809E-03    -23.8690E-03    -23.5664E-03     42.7435E-03    -19.1809E-03    -8.87881E-03     3.71194E+06    -13.1676E+06    -161.558E+06    -13.4034E+06    -161.322E+06     3.71194E+06     5.45710E+06         23.4676
            1016     5.89189E-03     11.5695E-03     185.107E-03     167.344E-03        -1.01226     167.949E-03        -1.00803     180.269E-03     9.63398E-03     40.6537E-03    -18.5695E-03    -22.0853E-03    -21.8033E-03     40.3717E-03    -18.5695E-03    -8.26048E-03     1.22014E+06    -12.5491E+06    -172.923E+06    -12.8455E+06    -172.626E+06     1.22014E+06     6.48694E+06         23.1764
            1017     4.91212E-03     11.5652E-03     190.489E-03     170.375E-03        -1.03178     169.009E-03        -1.02229     182.362E-03    -56.5969E-03     38.5448E-03    -18.0329E-03    -20.5118E-03    -20.2800E-03     38.3130E-03    -18.0329E-03    -7.23625E-03    -3.21478E+06    -13.2435E+06    -180.290E+06    -13.5303E+06    -180.003E+06    -3.21478E+06     6.77737E+06         22.9376
            1018     3.93148E-03     11.5617E-03     232.773E-03     177.196E-03        -1.08162     204.658E-03        -1.05673     180.422E-03     88.3961E-03     36.8576E-03    -17.5946E-03    -19.2632E-03    -19.0890E-03     36.6833E-03    -17.5946E-03    -6.08448E-03    -4.58450E+06    -13.6661E+06    -183.783E+06    -13.9157E+06    -183.533E+06    -4.58450E+06     6.28857E+06         22.7415
            1019     2.94981E-03     11.5586E-03     294.090E-03     171.092E-03        -1.13335     207.849E-03        -1.04711     171.092E-03    -205.065E-03     35.4194E-03    -17.2408E-03    -18.1796E-03    -18.0702E-03     35.3101E-03    -17.2408E-03    -4.69798E-03    -6.35684E+06    -14.0102E+06    -190.261E+06    -13.5341E+06    -190.064E+06    -7.03044E+06     5.69080E+06         22.5841
            1020     1.96720E-03     11.5564E-03     425.153E-03     161.895E-03        -1.25582     173.693E-03        -1.00436     161.895E-03     318.228E-03     34.3832E-03    -16.9903E-03    -17.3945E-03    -17.3413E-03     34.3300E-03    -16.9903E-03    -3.24337E-03    -4.83047E+06    -14.3065E+06    -190.777E+06    -13.7460E+06    -190.664E+06    -5.50407E+06     4.27106E+06         22.4584
            1021     983.846E-06     11.5558E-03         1.15421    -89.5078E-03        -1.73006     407.184E-03    -983.037E-03    -89.5078E-03        -1.01641     33.6729E-03    -16.7284E-03    -16.9444E-03    -16.8769E-03     33.6553E-03    -16.7783E-03    -1.61870E-03    -9.44914E+06    -18.9062E+06    -192.569E+06    -17.2206E+06    -192.513E+06    -11.1911E+06     3.04095E+06         22.3508
            1022     16.5742E-03     10.6422E-03     382.202E-03     168.600E-03        -1.18323     381.456E-03        -1.18248     168.600E-03    -19.8279E-03     59.2683E-03    -25.7559E-03    -33.5139E-03    -32.5198E-03     58.2742E-03    -25.7559E-03     14.5687E-03     190.498E+06     104.322E+06    -6.62280E+06    -6.61933E+06     190.495E+06     104.322E+06     -60.813E+03         33.0650
            1023     15.6071E-03     10.6109E-03     349.960E-03     155.391E-03        -1.14542     349.568E-03        -1.14503     155.391E-03    -36.3807E-03     59.8145E-03    -25.0027E-03    -34.8128E-03    -33.6488E-03     58.6504E-03    -25.0027E-03     19.3307E-03     179.589E+06     56.0304E+06    -12.1525E+06    -12.1469E+06     179.583E+06     56.0304E+06    -290.858E+03         31.0665
            1024     14.6408E-03     10.5929E-03     295.228E-03     143.274E-03        -1.08325     295.150E-03        -1.08317     143.274E-03    -12.9545E-03     58.9866E-03    -24.2029E-03    -34.7902E-03    -34.3396E-03     58.5360E-03    -24.2029E-03     12.8722E-03     129.622E+06     11.7681E+06    -14.1949E+06    -14.1821E+06     129.609E+06     11.7681E+06    -1.20071E+06         29.2332
            1025     13.6751E-03     10.5711E-03     244.417E-03     133.325E-03        -1.02480     244.201E-03        -1.02458     133.325E-03    -19.9628E-03     58.5366E-03    -23.4736E-03    -35.0584E-03    -34.7428E-03     58.2210E-03    -23.4736E-03     9.89714E-03     48.9395E+06    -3.98623E+06    -14.4444E+06    -14.4140E+06     48.9090E+06    -3.98623E+06    -392.450E+03         27.7583
            1026     12.7098E-03     10.5559E-03     209.258E-03     125.377E-03    -982.633E-03     208.724E-03    -982.099E-03     125.377E-03    -25.3563E-03     57.0924E-03    -22.7149E-03    -34.4185E-03    -34.3754E-03     57.0493E-03    -22.7149E-03     2.11565E-03     5.43815E+06    -8.16922E+06    -23.1284E+06    -13.7154E+06    -11.0255E+06    -1.11856E+06     33.2185E+03         26.6447
            1027     11.7429E-03     10.5463E-03     192.165E-03     118.636E-03    -958.861E-03     191.710E-03    -958.406E-03     118.636E-03    -20.4599E-03     55.0001E-03    -21.8488E-03    -33.2445E-03    -33.1915E-03     54.9471E-03    -21.8488E-03    -3.50860E-03     98.5097E+03    -12.7260E+06    -51.7715E+06    -12.8035E+06    -51.6939E+06     98.5097E+03    -507.694E+03         25.8280
            1028     10.7749E-03     10.5410E-03     181.189E-03     112.175E-03    -942.691E-03     180.975E-03    -942.476E-03     112.175E-03    -10.9838E-03     52.4652E-03    -20.9468E-03    -31.5780E-03    -31.4282E-03     52.3155E-03    -20.9468E-03    -6.93072E-03     2.91270E+06    -11.3173E+06    -86.7659E+06    -11.3759E+06    -86.7073E+06     2.91270E+06    -469.596E+03         25.1772
            1029     9.80528E-03     10.5365E-03     145.735E-03     101.985E-03    -898.260E-03     140.171E-03    -897.919E-03     107.208E-03    -10.2189E-03     49.6149E-03    -20.0544E-03    -29.5703E-03    -29.2954E-03     49.3401E-03    -20.0544E-03    -9.17464E-03     8.11654E+06    -9.34786E+06    -111.930E+06     -9.4005E+06    -111.877E+06     8.11654E+06    -419.228E+03         24.6175
            1030     8.83223E-03     10.5341E-03     112.876E-03     88.8759E-03    -848.980E-03     94.6814E-03    -847.964E-03     106.054E-03    -34.0126E-03     46.7467E-03    -19.1875E-03    -27.5527E-03    -27.1464E-03     46.3404E-03    -19.1875E-03    -10.8862E-03     10.9571E+06    -9.01021E+06    -136.918E+06    -9.04344E+06    -136.885E+06     10.9571E+06     983.268E+03         24.1342
            1031     7.85833E-03     10.5329E-03     107.846E-03     90.0807E-03    -842.515E-03     87.7362E-03    -840.170E-03     107.846E-03     30.2996E-03     43.9315E-03    -18.3357E-03    -25.5946E-03    -25.1453E-03     43.4823E-03    -18.3357E-03    -11.1119E-03     12.9281E+06    -9.35814E+06    -153.343E+06    -9.42558E+06    -153.276E+06     12.9281E+06     2.63177E+06         23.7089
            1032     6.88199E-03     10.5318E-03     112.894E-03     99.6079E-03    -858.384E-03     100.058E-03    -855.654E-03     109.713E-03     4.17195E-03     40.9469E-03    -17.4972E-03    -23.4464E-03    -23.0062E-03     40.5067E-03    -17.4972E-03    -10.5793E-03     13.7440E+06    -10.0168E+06    -161.280E+06    -10.0757E+06    -161.221E+06     13.7440E+06     2.82103E+06         23.3324
            1033     5.90345E-03     10.5307E-03     125.534E-03     105.211E-03    -880.371E-03     119.408E-03    -878.540E-03     109.505E-03    -13.9964E-03     38.0340E-03    -16.7327E-03    -21.3023E-03    -20.8959E-03     37.6275E-03    -16.7327E-03    -9.76797E-03     12.5072E+06    -11.3067E+06    -172.802E+06    -11.4209E+06    -172.688E+06     12.5072E+06     3.35137E+06         23.0084
            1034     4.92327E-03     10.5292E-03     123.172E-03     104.541E-03    -881.894E-03     116.015E-03    -877.963E-03     107.768E-03    -44.0273E-03     35.3310E-03    -16.0461E-03    -19.2871E-03    -18.9671E-03     35.0109E-03    -16.0461E-03    -8.31939E-03     8.40610E+06    -11.1547E+06    -178.316E+06    -11.2863E+06    -178.184E+06     8.40610E+06     3.73988E+06         22.7362
            1035     3.94078E-03     10.5273E-03     125.238E-03     94.9825E-03    -877.027E-03     97.2912E-03    -862.292E-03     108.193E-03     70.1846E-03     32.9675E-03    -15.4728E-03    -17.4948E-03    -17.2590E-03     32.7317E-03    -15.4728E-03    -6.86860E-03     2.61701E+06    -11.1524E+06    -182.179E+06    -11.2257E+06    -182.106E+06     2.61701E+06     3.13463E+06         22.5122
            1036     2.95675E-03     10.5262E-03     162.042E-03     101.370E-03    -922.560E-03     99.9684E-03    -870.470E-03     111.354E-03    -146.485E-03     31.1232E-03    -15.0624E-03    -16.0614E-03    -15.9114E-03     30.9732E-03    -15.0624E-03    -5.23284E-03    -1.25165E+06    -11.1554E+06    -186.532E+06    -11.2074E+06    -186.480E+06    -1.25165E+06      2.1891E+06         22.3322
            1037     1.97117E-03     10.5253E-03     272.523E-03     105.712E-03        -1.04622     135.634E-03    -909.334E-03     105.712E-03     203.418E-03     29.9695E-03    -14.8204E-03    -15.1493E-03    -15.0763E-03     29.8965E-03    -14.8204E-03    -3.53085E-03    -1.58736E+06    -10.0753E+06    -189.080E+06    -10.1232E+06    -189.032E+06    -1.58736E+06     1.15314E+06         22.1872
            1038     985.597E-06     10.5247E-03     797.657E-03    -89.0281E-03        -1.37567     285.506E-03    -863.518E-03    -89.0281E-03    -798.158E-03     29.3958E-03    -14.6212E-03    -14.7743E-03    -14.7475E-03     29.3689E-03    -14.6212E-03    -1.97483E-03    -5.86324E+06    -11.4430E+06    -189.164E+06    -11.2322E+06    -189.124E+06    -6.11411E+06     1.36996E+06         22.0719
            1039     16.5764E-03     9.58046E-03     375.290E-03     121.691E-03        -1.11776     374.327E-03        -1.11680     121.691E-03    -47.4193E-03     61.0983E-03    -25.6290E-03    -35.4692E-03    -34.5619E-03     60.1909E-03    -25.6290E-03     14.7322E-03     190.992E+06     106.226E+06    -6.86613E+06    -6.85782E+06     190.984E+06     106.226E+06    -564.747E+03         33.0312
            1040     15.6114E-03     9.54793E-03     339.892E-03     106.189E-03        -1.07613     339.372E-03        -1.07561     106.189E-03    -21.5726E-03     61.2017E-03    -24.7466E-03    -36.4555E-03    -35.3991E-03     60.1453E-03    -24.7466E-03     18.7633E-03     181.029E+06     58.1688E+06    -11.0819E+06    -11.0673E+06     181.014E+06     58.1688E+06    -1.50101E+06         31.0369
            1041     14.6469E-03     9.53160E-03     300.219E-03     91.1030E-03        -1.02271     300.060E-03        -1.02255     91.1030E-03    -6.64778E-03     60.2070E-03    -23.8259E-03    -36.3866E-03    -35.9827E-03     59.8031E-03    -23.8259E-03     12.4065E-03     129.660E+06     14.7381E+06    -14.6949E+06    -14.6807E+06     129.646E+06     14.7381E+06    -998.029E+03         29.2078
            1042     13.6827E-03     9.50957E-03     240.541E-03     77.6399E-03    -950.615E-03     239.572E-03    -949.647E-03     77.6399E-03    -35.6667E-03     59.5337E-03    -22.9659E-03    -36.5571E-03    -36.2855E-03     59.2621E-03    -22.9659E-03     9.20743E-03     48.5704E+06     326.167E+03    -16.8629E+06    -16.7735E+06     48.4810E+06     326.167E+03    -1.03461E+06         27.7434
            1043     12.7184E-03     9.49648E-03     184.556E-03     66.8187E-03    -887.685E-03     183.570E-03    -886.700E-03     66.8187E-03    -32.4821E-03     57.6158E-03    -22.0601E-03    -35.5841E-03    -35.5421E-03     57.5738E-03    -22.0601E-03     946.172E-06     8.50669E+06    -7.31080E+06    -23.6295E+06    -16.4414E+06    -9.67762E+06     3.68538E+06    -2.30229E+06         26.6399
            1044     11.7530E-03     9.49018E-03     146.440E-03     58.3962E-03    -845.810E-03     146.116E-03    -845.486E-03     58.3962E-03    -5.02494E-03     54.9752E-03    -21.0625E-03    -33.9990E-03    -33.9244E-03     54.9006E-03    -21.0625E-03    -4.71551E-03     5.30869E+06    -15.2481E+06    -51.2792E+06    -15.7567E+06    -50.7707E+06     5.30869E+06    -3.30575E+06         25.8213
            1045     10.7857E-03     9.48724E-03     122.444E-03     51.4439E-03    -816.313E-03     121.988E-03    -815.857E-03     51.4439E-03    -18.7002E-03     52.0385E-03    -20.0282E-03    -32.0718E-03    -31.8988E-03     51.8654E-03    -20.0282E-03    -7.52843E-03     6.61174E+06    -13.8119E+06    -86.5031E+06    -14.1768E+06    -86.1383E+06     6.61174E+06    -4.57075E+06         25.1611
            1046     9.81597E-03     9.48678E-03     104.409E-03     45.3417E-03    -792.299E-03     103.808E-03    -791.697E-03     45.3417E-03    -18.0131E-03     48.8040E-03    -19.0204E-03    -29.7950E-03    -29.5028E-03     48.5118E-03    -19.0204E-03    -9.45945E-03     13.1730E+06    -11.6893E+06    -113.268E+06    -11.9603E+06    -112.997E+06     13.1730E+06    -4.27062E+06         24.5908
            1047     8.84427E-03     9.48831E-03     74.3370E-03     38.6711E-03    -754.832E-03     68.1925E-03    -751.019E-03     41.0025E-03    -58.0991E-03     45.4392E-03    -18.0417E-03    -27.3907E-03    -26.9980E-03     45.0465E-03    -18.0417E-03    -10.6104E-03     18.0060E+06    -9.54250E+06    -138.468E+06    -9.66914E+06    -138.341E+06     18.0060E+06    -2.75064E+06         24.0928
            1048     7.86918E-03     9.49000E-03     47.7891E-03     33.3075E-03    -723.100E-03     35.6973E-03    -717.560E-03     39.8588E-03    -34.6282E-03     42.1857E-03    -17.0897E-03    -25.0925E-03    -24.6665E-03     41.7597E-03    -17.0897E-03    -10.6283E-03     21.6921E+06    -7.82496E+06    -154.450E+06    -7.89959E+06    -154.375E+06     21.6921E+06    -1.63243E+06         23.6514
            1049     6.89241E-03     9.49235E-03     47.1799E-03     32.1495E-03    -719.956E-03     34.6531E-03    -715.944E-03     40.6638E-03    -43.0026E-03     38.9288E-03    -16.1704E-03    -22.7520E-03    -22.3345E-03     38.5113E-03    -16.1704E-03    -10.0788E-03     25.9278E+06    -7.75287E+06    -162.010E+06    -7.78826E+06    -161.974E+06     25.9278E+06     63.6503E+03         23.2573
            1050     5.91321E-03     9.49475E-03     58.0683E-03     35.9976E-03    -734.876E-03     51.5006E-03    -732.603E-03     40.2921E-03    -60.2538E-03     35.6760E-03    -15.3049E-03    -20.3688E-03    -20.0084E-03     35.3156E-03    -15.3049E-03    -8.90926E-03     24.1742E+06    -9.45051E+06    -171.901E+06    -9.46792E+06    -171.884E+06     24.1742E+06     58.9155E+03         22.9079
            1051     4.93142E-03     9.49631E-03     52.1926E-03     37.1920E-03    -733.610E-03     49.2843E-03    -731.886E-03     38.3760E-03    -53.6554E-03     32.5745E-03    -14.5054E-03    -18.0661E-03    -17.7987E-03     32.3071E-03    -14.5054E-03    -7.28975E-03     14.0588E+06    -11.1634E+06     -177.89E+06    -11.2079E+06    -177.846E+06     14.0588E+06    -1.05154E+06         22.6073
            1052     3.94767E-03     9.49709E-03     41.9421E-03     25.4805E-03    -711.004E-03     23.0469E-03    -706.014E-03     39.3856E-03     25.3653E-03     29.9171E-03    -13.8309E-03    -16.0832E-03    -15.8947E-03     29.7286E-03    -13.8309E-03    -5.83524E-03     2.90121E+06    -10.9810E+06    -181.375E+06    -11.0312E+06    -181.325E+06     2.90121E+06    -1.03304E+06         22.3620
            1053     2.96196E-03     9.49796E-03     61.0333E-03     34.0228E-03    -741.569E-03     15.0433E-03    -708.300E-03     46.7439E-03    -147.608E-03     27.9311E-03    -13.3297E-03    -14.6016E-03    -14.4755E-03     27.8051E-03    -13.3297E-03    -4.56879E-03    -2.71012E+06    -10.6074E+06    -184.662E+06    -10.6332E+06    -184.636E+06    -2.71012E+06    -1.34076E+06         22.1681
            1054     1.97563E-03     9.49812E-03     156.192E-03     51.6890E-03    -864.346E-03     53.1433E-03    -761.297E-03     51.6890E-03     167.557E-03     26.5045E-03    -12.9892E-03    -13.5159E-03    -13.4500E-03     26.4386E-03    -12.9892E-03    -3.12344E-03    -5.17273E+06    -11.3203E+06    -188.755E+06    -11.3508E+06    -188.724E+06    -5.17273E+06    -2.10898E+06         22.0126
            1055     988.050E-06     9.49803E-03     507.073E-03    -70.4784E-03        -1.10640     173.168E-03    -772.495E-03    -70.4784E-03    -505.940E-03     25.6501E-03    -12.7650E-03    -12.8853E-03    -12.8610E-03     25.6279E-03    -12.7671E-03    -1.65568E-03    -9.13556E+06    -14.3027E+06    -190.519E+06    -14.0803E+06    -190.490E+06    -9.38643E+06    -1.03900E+06         21.8937
            1056     16.5791E-03     8.51507E-03     384.039E-03     77.1759E-03        -1.07979     383.427E-03        -1.07918     77.1759E-03     7.04196E-03     62.8404E-03    -25.5044E-03    -37.3346E-03    -36.4555E-03     61.9613E-03    -25.5044E-03     15.0187E-03     192.293E+06     108.430E+06    -6.88363E+06    -6.87344E+06     192.283E+06     108.430E+06    -859.578E+03         32.9525
            1057     15.6158E-03     8.48519E-03     319.598E-03     59.3676E-03    -998.828E-03     319.363E-03    -998.593E-03     59.3676E-03     2.95529E-03     62.3364E-03    -24.5014E-03    -37.8347E-03    -36.7949E-03     61.2967E-03    -24.5014E-03     19.0474E-03     179.606E+06     57.0155E+06    -12.6575E+06    -12.6444E+06     179.593E+06     57.0155E+06    -1.30498E+06         30.9753
            1058     14.6520E-03     8.46770E-03     269.970E-03     42.9788E-03    -939.537E-03     269.627E-03    -939.193E-03     42.9788E-03     9.33315E-03     61.1977E-03    -23.4908E-03    -37.7125E-03    -37.2808E-03     60.7660E-03    -23.4908E-03     12.9865E-03     129.309E+06     16.6491E+06    -16.7655E+06    -16.7601E+06     129.303E+06     16.6491E+06    -284.905E+03         29.1641
            1059     13.6895E-03     8.44790E-03     229.737E-03     27.7163E-03    -890.908E-03     228.343E-03    -889.514E-03     27.7163E-03    -26.4410E-03     60.0464E-03    -22.5475E-03    -37.4934E-03    -37.2144E-03     59.7673E-03    -22.5475E-03     9.30445E-03     52.2338E+06     7.11489E+06    -18.0431E+06    -17.7684E+06     51.9591E+06     7.11489E+06    -1.97650E+06         27.7112
            1060     12.7261E-03     8.43630E-03     183.772E-03     13.7508E-03    -829.045E-03     182.621E-03    -827.893E-03     13.7508E-03    -51.0547E-03     57.3697E-03    -21.5560E-03    -35.8366E-03    -35.7986E-03     57.3317E-03    -21.5560E-03     848.188E-06     12.9707E+06    -3.52873E+06    -25.6123E+06    -17.5212E+06    -7.81561E+06     9.16651E+06    -5.30346E+06         26.6123
            1061     11.7607E-03     8.43412E-03     115.783E-03     2.52986E-03    -749.516E-03     115.420E-03    -749.153E-03     2.52986E-03    -25.1527E-03     54.1611E-03    -20.5256E-03    -33.7156E-03    -33.6656E-03     54.1111E-03    -20.5256E-03    -3.84117E-03     12.2258E+06    -13.8264E+06    -51.7910E+06    -15.8923E+06    -49.7251E+06     12.2258E+06    -7.25107E+06         25.7993
            1062     10.7928E-03     8.43486E-03     63.8483E-03    -5.15063E-03    -693.642E-03     63.1367E-03    -692.931E-03    -5.15063E-03    -46.2469E-03     50.8780E-03    -19.4866E-03    -31.4578E-03    -31.3509E-03     50.7711E-03    -19.4866E-03    -5.57828E-03     14.6181E+06    -13.4834E+06    -86.3017E+06    -14.6321E+06    -85.1530E+06     14.6181E+06    -8.73566E+06         25.1498
            1063     9.82289E-03     8.43808E-03     52.8420E-03    -11.1870E-03    -676.349E-03     52.1147E-03    -675.621E-03    -11.1870E-03    -37.0297E-03     47.5710E-03    -18.4751E-03    -29.1112E-03    -28.9459E-03     47.4057E-03    -18.4751E-03    -6.70055E-03     19.9736E+06    -13.2969E+06    -116.039E+06    -14.1527E+06    -115.183E+06     19.9736E+06    -8.93834E+06         24.5925
            1064     8.84999E-03     8.44346E-03     43.5123E-03    -17.1766E-03    -659.971E-03     39.5582E-03    -656.016E-03    -17.1766E-03    -53.5970E-03     44.1926E-03    -17.4811E-03    -26.7012E-03    -26.5077E-03     43.9991E-03    -17.4811E-03    -6.92351E-03     24.0915E+06    -12.3243E+06    -139.436E+06    -12.9256E+06    -138.834E+06     24.0915E+06    -8.27533E+06         24.1036
            1065     7.87529E-03     8.44928E-03     20.4161E-03    -23.5527E-03    -632.282E-03     14.0982E-03    -627.292E-03    -22.2253E-03    -43.9495E-03     40.7717E-03    -16.5101E-03    -24.2528E-03    -24.0571E-03     40.5760E-03    -16.5101E-03    -6.46772E-03     25.7570E+06    -10.9807E+06    -156.817E+06    -11.5049E+06    -156.292E+06     25.7570E+06    -7.90925E+06         23.6646
            1066     6.89744E-03     8.45479E-03     5.64991E-03    -27.3957E-03    -616.313E-03     1.49780E-03    -613.488E-03    -26.0683E-03    -40.0010E-03     37.4892E-03    -15.5880E-03    -21.9001E-03    -21.7126E-03     37.3017E-03    -15.5880E-03    -5.95634E-03     27.8560E+06    -9.53915E+06    -165.692E+06    -9.87958E+06    -165.351E+06     27.8560E+06    -5.91059E+06         23.2686
            1067     5.91734E-03     8.46092E-03    -14.1787E-03    -33.4572E-03    -595.004E-03    -21.2084E-03    -593.203E-03    -28.2278E-03    -44.3337E-03     34.3107E-03    -14.7216E-03    -19.5902E-03    -19.4330E-03     34.1534E-03    -14.7216E-03    -5.25013E-03     27.3605E+06    -8.80842E+06    -171.138E+06    -8.96952E+06    -170.977E+06     27.3605E+06    -4.17848E+06         22.9130
            1068     4.93506E-03     8.46568E-03    -24.9269E-03    -34.4527E-03    -578.790E-03    -32.4162E-03    -577.714E-03    -28.0393E-03    -22.4458E-03     31.3011E-03    -13.9179E-03    -17.3783E-03    -17.2638E-03     31.1866E-03    -13.9179E-03    -4.18057E-03     18.6945E+06    -10.6799E+06    -177.955E+06    -10.8572E+06    -177.778E+06     18.6945E+06    -5.01128E+06         22.6039
            1069     3.95055E-03     8.46949E-03    -3.26127E-03    -33.0117E-03    -596.684E-03    -14.9789E-03    -588.887E-03    -29.0909E-03     72.2603E-03     28.7517E-03    -13.1980E-03    -15.5501E-03    -15.4735E-03     28.6751E-03    -13.1980E-03    -3.15364E-03     4.78139E+06    -12.8292E+06    -183.062E+06    -12.9861E+06    -182.905E+06     4.78139E+06    -4.90407E+06         22.3525
            1070     2.96486E-03     8.47207E-03     12.9133E-03    -34.8529E-03    -615.260E-03    -23.0995E-03    -581.984E-03    -32.1160E-03    -87.2098E-03     26.6664E-03    -12.6049E-03    -14.0616E-03    -14.0119E-03     26.6167E-03    -12.6049E-03    -2.40556E-03    -4.38637E+06    -13.5242E+06    -185.592E+06    -13.6306E+06    -185.485E+06    -4.38637E+06    -4.08537E+06         22.1545
            1071     1.97731E-03     8.47397E-03     68.5463E-03    -33.4277E-03    -682.657E-03    -33.4389E-03    -580.672E-03    -33.4277E-03     157.149E-03     24.9956E-03    -12.1773E-03    -12.8187E-03    -12.7951E-03     24.9720E-03    -12.1773E-03    -1.54290E-03    -7.34582E+06    -16.0987E+06    -189.956E+06    -16.1838E+06    -189.871E+06    -7.34582E+06    -3.68730E+06         21.9978
            1072     988.826E-06     8.47492E-03     317.679E-03    -107.855E-03    -861.299E-03     41.2212E-03    -584.841E-03    -107.855E-03    -325.986E-03     23.9054E-03    -11.8821E-03    -12.0232E-03    -12.0096E-03     23.8983E-03    -11.8885E-03    -424.118E-06    -12.9235E+06    -21.1199E+06    -195.065E+06    -20.5404E+06    -195.016E+06    -13.5528E+06    -2.80769E+06         21.8800
            1073     16.5810E-03     7.45051E-03     368.093E-03     36.0865E-03        -1.02118     367.917E-03        -1.02100     36.0865E-03     26.6663E-03     64.4186E-03    -25.4607E-03    -38.9574E-03    -37.9610E-03     63.4221E-03    -25.4607E-03     16.1353E-03     192.114E+06     110.508E+06    -7.66169E+06    -7.64894E+06     192.101E+06     110.508E+06    -172.550E+03         32.8188
            1074     15.6178E-03     7.41964E-03     298.196E-03     17.0834E-03    -931.435E-03     297.855E-03    -931.094E-03     17.0834E-03    -21.6140E-03     63.4915E-03    -24.3882E-03    -39.1006E-03    -37.9048E-03     62.2957E-03    -24.3882E-03     20.7547E-03     179.254E+06     61.1441E+06    -14.4520E+06    -14.4417E+06     179.244E+06     61.1441E+06     170.983E+03         30.8795
            1075     14.6561E-03     7.40435E-03     248.965E-03    -493.941E-06    -870.343E-03     248.410E-03    -869.788E-03    -493.941E-06    -20.6142E-03     61.7230E-03    -23.3116E-03    -38.4108E-03    -37.8368E-03     61.1490E-03    -23.3116E-03     14.9269E-03     130.828E+06     21.2858E+06    -17.3422E+06    -17.2768E+06     130.762E+06     21.2858E+06    -1.56493E+06         29.1090
            1076     13.6936E-03     7.38449E-03     210.572E-03    -17.2277E-03    -820.909E-03     209.298E-03    -819.635E-03    -17.2277E-03    -38.9880E-03     59.5384E-03    -22.3569E-03    -37.1864E-03    -36.7702E-03     59.1221E-03    -22.3569E-03     11.5437E-03     56.5893E+06     12.9207E+06    -17.6513E+06    -17.1806E+06     56.1186E+06     12.9207E+06    -4.20269E+06         27.6752
            1077     12.7297E-03     7.37832E-03     161.300E-03    -32.8417E-03    -757.481E-03     160.194E-03    -756.374E-03    -32.8417E-03    -39.6851E-03     55.9464E-03    -21.4262E-03    -34.5568E-03    -34.4793E-03     55.8689E-03    -21.4262E-03     3.85157E-03     18.8413E+06     2.15422E+06    -26.4515E+06    -17.4097E+06    -4.14187E+06     16.0956E+06    -7.91316E+06         26.5698
            1078     11.7625E-03     7.37930E-03     107.913E-03    -46.5150E-03    -685.106E-03     107.673E-03    -684.867E-03    -46.5150E-03    -10.3364E-03     52.3375E-03    -20.5036E-03    -31.9026E-03    -31.8535E-03     52.2885E-03    -20.5036E-03     1.14389E-03     17.5354E+06    -12.3749E+06    -53.1923E+06    -17.0686E+06    -48.4986E+06     17.5354E+06    -11.6438E+06         25.7562
            1079     10.7932E-03     7.38392E-03     52.6512E-03    -57.6170E-03    -619.506E-03     52.2836E-03    -619.138E-03    -57.6170E-03    -27.6572E-03     49.2124E-03    -19.6214E-03    -29.6453E-03    -29.5709E-03     49.1379E-03    -19.6214E-03     975.790E-06     20.4474E+06    -12.8904E+06    -87.8196E+06    -15.5771E+06    -85.1329E+06     20.4474E+06    -13.3419E+06         25.1383
            1080     9.82118E-03     7.39089E-03     16.2172E-03    -66.3018E-03    -577.296E-03     15.9744E-03    -577.053E-03    -66.3018E-03    -13.8891E-03     46.3251E-03    -18.7747E-03    -27.5703E-03    -27.4731E-03     46.2278E-03    -18.7747E-03     921.650E-06     25.9660E+06    -12.3067E+06    -118.450E+06    -14.3298E+06    -116.427E+06     25.9660E+06    -14.1121E+06         24.6275
            1081     8.84766E-03     7.39991E-03     13.4392E-03    -74.7704E-03    -566.273E-03     13.1184E-03    -565.952E-03    -74.7704E-03     1.60440E-03     43.5622E-03    -17.9355E-03    -25.6116E-03    -25.4948E-03     43.4453E-03    -17.9355E-03     1.27721E-03     30.2585E+06    -10.4893E+06    -141.971E+06    -12.3759E+06    -140.084E+06     30.2585E+06    -15.1168E+06         24.1815
            1082     7.87137E-03     7.40920E-03    -557.740E-06    -84.2242E-03    -549.563E-03    -1.65942E-03    -548.461E-03    -84.2242E-03     11.3433E-03     40.8118E-03    -17.1059E-03    -23.6885E-03    -23.5731E-03     40.6963E-03    -17.1059E-03     1.75007E-03     32.2945E+06    -8.75476E+06    -160.241E+06    -10.2684E+06    -158.727E+06     32.2945E+06    -14.6194E+06         23.7783
            1083     6.89343E-03     7.41836E-03    -44.1393E-03    -92.0720E-03    -502.196E-03    -46.1795E-03    -500.156E-03    -92.0720E-03    -14.3462E-03     38.0366E-03    -16.2851E-03    -21.7531E-03    -21.6485E-03     37.9321E-03    -16.2851E-03     1.79562E-03     30.4754E+06    -9.24566E+06    -170.731E+06    -10.3020E+06    -169.674E+06     30.4754E+06    -12.6197E+06         23.4105
            1084     5.91355E-03     7.42703E-03    -77.1655E-03    -100.960E-03    -455.593E-03    -84.5340E-03    -453.454E-03    -95.7309E-03    -32.2138E-03     35.3326E-03    -15.4764E-03    -19.8615E-03    -19.7743E-03     35.2454E-03    -15.4764E-03     1.44819E-03     26.0168E+06    -10.0840E+06    -174.782E+06    -10.8302E+06    -174.036E+06     26.0168E+06    -10.4567E+06         23.0782
            1085     4.93156E-03     7.43525E-03    -81.2418E-03    -102.065E-03    -448.604E-03    -90.1638E-03    -444.911E-03    -96.8355E-03    -31.3186E-03     32.7265E-03    -14.7216E-03    -18.0044E-03    -17.9409E-03     32.6630E-03    -14.7216E-03     1.33867E-03     21.2294E+06    -11.1639E+06    -179.089E+06    -11.6121E+06    -178.640E+06     21.2294E+06    -8.45064E+06         22.7850
            1086     3.94795E-03     7.44108E-03    -56.5193E-03    -101.620E-03    -472.558E-03    -65.2902E-03    -463.787E-03    -101.620E-03     39.8398E-03     30.2919E-03    -14.0228E-03    -16.2669E-03    -16.2211E-03     30.2461E-03    -14.0228E-03     1.36207E-03     9.06699E+06    -13.6910E+06    -186.065E+06    -14.0561E+06    -185.700E+06     9.06699E+06    -7.75866E+06         22.5403
            1087     2.96252E-03     7.44623E-03    -47.3057E-03    -109.868E-03    -473.384E-03    -85.6241E-03    -435.066E-03    -109.868E-03    -80.8918E-03     28.2174E-03    -13.4204E-03    -14.7967E-03    -14.7677E-03     28.1884E-03    -13.4204E-03     1.07516E-03    -4.03680E+06    -16.7871E+06    -189.795E+06    -17.0499E+06    -189.532E+06    -4.03680E+06    -6.41645E+06         22.3438
            1088     1.97596E-03     7.44986E-03    -44.3656E-03    -112.649E-03    -476.334E-03    -120.820E-03    -401.213E-03    -111.316E-03     36.5737E-03     26.6067E-03    -12.9523E-03    -13.6548E-03    -13.6408E-03     26.5927E-03    -12.9523E-03     709.793E-06    -11.4077E+06    -21.1950E+06    -192.832E+06    -21.2995E+06    -192.727E+06    -11.4077E+06    -4.07220E+06         22.1871
            1089     988.462E-06     7.45197E-03     150.281E-03    -155.279E-03    -636.629E-03    -63.7576E-03    -423.923E-03    -153.946E-03    -332.741E-03     25.3939E-03    -12.5638E-03    -12.8296E-03    -12.7661E-03     25.3862E-03    -12.6196E-03     780.217E-06    -19.6818E+06    -26.5458E+06    -198.780E+06    -24.7167E+06    -198.732E+06    -21.5589E+06    -2.72545E+06         22.0700
            1090     16.5788E-03     6.38393E-03     356.595E-03     2.85000E-03    -970.734E-03     354.671E-03    -968.810E-03     2.85000E-03    -48.5731E-03     65.6691E-03    -25.6118E-03    -40.0587E-03    -38.7433E-03     64.3537E-03    -25.6118E-03     18.7840E-03     191.932E+06     113.529E+06    -8.46990E+06    -8.44895E+06     191.911E+06     113.529E+06     530.950E+03         32.6327
            1091     15.6179E-03     6.35367E-03     305.239E-03    -17.7867E-03    -905.073E-03     304.132E-03    -903.966E-03    -17.7867E-03    -54.0689E-03     64.2898E-03    -24.5301E-03    -39.7564E-03    -38.0654E-03     62.5988E-03    -24.5301E-03     25.1521E-03     180.339E+06     66.4342E+06    -14.5981E+06    -14.5862E+06     180.327E+06     66.4342E+06     315.216E+03         30.7600
            1092     14.6555E-03     6.33990E-03     255.199E-03    -37.8516E-03    -831.229E-03     254.073E-03    -830.103E-03    -37.8516E-03    -48.6738E-03     61.3480E-03    -23.4688E-03    -37.8799E-03    -36.8065E-03     60.2747E-03    -23.4688E-03     19.9547E-03     133.704E+06     22.1636E+06    -18.1471E+06    -18.0495E+06     133.606E+06     22.1636E+06    -2.26328E+06         29.0635
            1093     13.6914E-03     6.32392E-03     202.232E-03    -56.9604E-03    -757.923E-03     201.461E-03    -757.151E-03    -56.9604E-03    -34.1542E-03     57.7211E-03    -22.6480E-03    -35.0752E-03    -34.1451E-03     56.7909E-03    -22.6480E-03     17.4579E-03     60.6457E+06     11.7104E+06    -21.1132E+06    -20.1028E+06     59.6353E+06     11.7104E+06    -6.82087E+06         27.6722
            1094     12.7240E-03     6.32152E-03     141.173E-03    -74.3866E-03    -684.664E-03     140.321E-03    -683.812E-03    -74.3866E-03    -16.5876E-03     53.3771E-03    -21.9875E-03    -31.4075E-03    -30.8867E-03     52.8563E-03    -21.9875E-03     11.7490E-03     23.0900E+06     5.31620E+06    -28.9181E+06    -19.7919E+06     507.639E+03     18.7724E+06    -11.3381E+06         26.5683
            1095     11.7538E-03     6.32761E-03     100.236E-03    -90.2759E-03    -635.301E-03     99.6195E-03    -634.685E-03    -90.2759E-03    -6.69388E-03     50.4130E-03    -21.3926E-03    -29.0665E-03    -28.4344E-03     49.7810E-03    -21.3926E-03     11.9212E-03     20.4753E+06    -9.65251E+06    -55.2780E+06    -18.7194E+06    -46.2110E+06     20.4753E+06    -16.1678E+06         25.7379
            1096     10.7807E-03     6.33477E-03     64.0310E-03    -105.475E-03    -584.122E-03     63.5796E-03    -583.671E-03    -105.475E-03    -23.3103E-03     48.3901E-03    -20.8545E-03    -27.5737E-03    -26.8217E-03     47.6380E-03    -20.8545E-03     12.9960E-03     23.2001E+06    -12.1193E+06    -91.6253E+06    -17.3328E+06    -86.4118E+06     23.2001E+06    -19.0091E+06         25.1415
            1097     9.80688E-03     6.34512E-03     14.4706E-03    -119.310E-03    -519.172E-03     13.7398E-03    -518.441E-03    -119.310E-03    -23.1485E-03     46.6133E-03    -20.3386E-03    -26.2890E-03    -25.4801E-03     45.8044E-03    -20.3386E-03     13.4056E-03     28.7709E+06    -10.4889E+06    -120.786E+06    -14.7643E+06    -116.511E+06     28.7709E+06    -20.9889E+06         24.7000
            1098     8.83100E-03     6.35631E-03    -22.0006E-03    -131.393E-03    -475.225E-03    -22.9923E-03    -474.233E-03    -131.393E-03    -36.3727E-03     45.1672E-03    -19.8245E-03    -25.3382E-03    -24.4839E-03     44.3128E-03    -19.8245E-03     13.8408E-03     33.1842E+06    -8.72528E+06    -146.436E+06    -12.6941E+06    -142.467E+06     33.1842E+06    -22.6953E+06         24.3362
            1099     7.85494E-03     6.36809E-03    -56.9216E-03    -142.082E-03    -432.994E-03    -57.4717E-03    -432.444E-03    -142.082E-03    -23.7648E-03     43.7329E-03    -19.2608E-03    -24.4679E-03    -23.6688E-03     42.9338E-03    -19.2608E-03     13.4040E-03     34.7125E+06    -9.27150E+06    -166.726E+06    -12.1905E+06    -163.807E+06     34.7125E+06    -20.8004E+06         24.0095
            1100     6.87757E-03     6.37961E-03    -90.8019E-03    -150.798E-03    -388.858E-03    -94.2931E-03    -385.367E-03    -150.798E-03    -50.4582E-03     41.8891E-03    -18.6263E-03    -23.2654E-03    -22.5927E-03     41.2165E-03    -18.6263E-03     12.1683E-03     31.1273E+06    -10.0105E+06    -176.007E+06    -12.2057E+06    -173.811E+06     31.1273E+06    -18.6805E+06         23.7083
            1101     5.89883E-03     6.39098E-03    -105.912E-03    -158.193E-03    -363.359E-03    -110.518E-03    -358.753E-03    -158.193E-03    -46.0629E-03     39.8586E-03    -17.9481E-03    -21.9113E-03    -21.3814E-03     39.3287E-03    -17.9481E-03     10.5698E-03     22.4513E+06    -11.1234E+06    -181.458E+06    -12.7643E+06    -179.817E+06     22.4513E+06    -16.2956E+06         23.4315
            1102     4.91924E-03     6.40122E-03    -132.037E-03    -165.180E-03    -329.996E-03    -138.195E-03    -324.890E-03    -164.128E-03    -30.7327E-03     37.7421E-03    -17.2743E-03    -20.4683E-03    -20.0751E-03     37.3489E-03    -17.2743E-03     8.86711E-03     14.9066E+06    -12.6013E+06    -184.433E+06    -13.6209E+06    -183.413E+06     14.9066E+06    -12.8466E+06         23.1800
            1103     3.93780E-03     6.41040E-03    -143.073E-03    -168.500E-03    -313.832E-03    -157.068E-03    -300.889E-03    -167.448E-03    -5.70673E-03     35.5101E-03    -16.6503E-03    -18.8587E-03    -18.5848E-03     35.2362E-03    -16.6503E-03     7.24323E-03     6.63666E+06    -14.7259E+06    -189.477E+06    -15.3998E+06    -188.803E+06     6.63666E+06    -10.4837E+06         22.9574
            1104     2.95475E-03     6.41703E-03    -130.776E-03    -169.385E-03    -319.028E-03    -163.006E-03    -286.798E-03    -169.385E-03    -61.1542E-03     33.5603E-03    -16.1105E-03    -17.4479E-03    -17.2795E-03     33.3919E-03    -16.1105E-03     5.47775E-03    -4.04861E+06    -18.8530E+06    -196.324E+06    -19.2026E+06    -195.974E+06    -4.04861E+06    -7.63841E+06         22.7692
            1105     1.97068E-03     6.42220E-03    -128.453E-03    -170.239E-03    -326.828E-03    -173.861E-03    -282.753E-03    -168.906E-03    -578.932E-06     32.0263E-03    -15.6506E-03    -16.3740E-03    -16.2979E-03     31.9503E-03    -15.6506E-03     3.55773E-03    -14.3321E+06    -22.5862E+06    -197.623E+06    -22.6938E+06    -197.516E+06    -14.3321E+06    -3.56055E+06         22.6165
            1106     985.701E-06     6.42551E-03     16.6698E-03    -211.882E-03    -445.785E-03    -122.670E-03    -306.220E-03    -212.108E-03    -251.826E-03     30.8183E-03    -15.2326E-03    -15.5832E-03    -15.4340E-03     30.7902E-03    -15.3537E-03     2.14614E-03    -23.5456E+06    -27.5481E+06    -201.310E+06    -26.3121E+06    -201.298E+06    -24.7934E+06    -807.812E+03         22.5015
            1107     16.5728E-03     5.31654E-03     366.580E-03    -23.4005E-03    -942.101E-03     363.993E-03    -939.514E-03    -23.4005E-03    -64.9275E-03     65.9121E-03    -26.0610E-03    -39.8528E-03    -38.1351E-03     64.1944E-03    -26.0610E-03     22.0224E-03     192.772E+06     117.185E+06    -7.97220E+06    -7.95276E+06     192.753E+06     117.185E+06     1.10683E+06         32.4179
            1108     15.6092E-03     5.28760E-03     327.570E-03    -46.5458E-03    -884.709E-03     326.343E-03    -883.482E-03    -46.5458E-03    -32.4621E-03     63.2876E-03    -25.0957E-03    -38.1886E-03    -35.6533E-03     60.7523E-03    -25.0957E-03     31.0811E-03     179.541E+06     68.2227E+06    -15.2328E+06    -15.2181E+06     179.526E+06     68.2227E+06     748.539E+03         30.6478
            1109     14.6450E-03     5.27749E-03     269.924E-03    -69.6394E-03    -805.670E-03     268.986E-03    -804.733E-03    -69.6394E-03    -36.9929E-03     59.6100E-03    -24.2549E-03    -35.3539E-03    -33.1063E-03     57.3624E-03    -24.2549E-03     28.0821E-03     137.821E+06     20.9082E+06    -21.0727E+06    -21.0172E+06     137.766E+06     20.9082E+06    -696.424E+03         29.0662
            1110     13.6772E-03     5.26622E-03     198.009E-03    -91.2910E-03    -717.852E-03     197.742E-03    -717.585E-03    -91.2910E-03    -15.3239E-03     55.2884E-03    -23.7527E-03    -31.5385E-03    -29.3214E-03     53.0712E-03    -23.7527E-03     26.5135E-03     67.4470E+06     5.17106E+06    -26.2598E+06    -24.6914E+06     65.8786E+06     5.17106E+06    -8.08835E+06         27.7475
            1111     12.7041E-03     5.27050E-03     135.281E-03    -110.958E-03    -638.676E-03     134.888E-03    -638.283E-03    -110.958E-03    -16.5684E-03     51.2041E-03    -23.5449E-03    -27.6726E-03    -25.6596E-03     49.1911E-03    -23.5449E-03     23.6112E-03     21.8231E+06     2.38715E+06    -34.5390E+06    -25.3194E+06     4.19842E+06     10.7922E+06    -15.7039E+06         26.6734
            1112     11.7278E-03     5.27809E-03     92.1808E-03    -129.371E-03    -579.820E-03     91.5483E-03    -579.187E-03    -129.371E-03    -19.8163E-03     50.2211E-03    -23.4664E-03    -26.7916E-03    -24.3439E-03     47.7734E-03    -23.4664E-03     25.9271E-03     15.0467E+06    -7.69808E+06    -60.0489E+06    -24.2657E+06    -43.4813E+06     15.0467E+06    -21.2645E+06         25.8364
            1113     10.7525E-03     5.28683E-03     55.5204E-03    -147.443E-03    -531.293E-03     55.0126E-03    -530.785E-03    -147.443E-03    -18.8378E-03     49.9504E-03    -23.4046E-03    -26.5884E-03    -24.0347E-03     47.3967E-03    -23.4046E-03     26.7449E-03     16.7469E+06    -11.6853E+06    -96.5146E+06    -21.3375E+06    -86.8624E+06     16.7469E+06    -26.1698E+06         25.2319
            1114     9.77580E-03     5.29880E-03     11.4066E-03    -164.908E-03    -469.585E-03     8.81392E-03    -466.992E-03    -164.908E-03    -40.2174E-03     49.7606E-03    -23.3411E-03    -26.4439E-03    -23.8532E-03     47.1698E-03    -23.3411E-03     27.0175E-03     22.6597E+06    -9.63106E+06    -125.665E+06    -17.6533E+06    -117.643E+06     22.6597E+06    -28.9063E+06         24.8310
            1115     8.79985E-03     5.31075E-03    -49.2637E-03    -180.177E-03    -394.104E-03    -53.0290E-03    -390.339E-03    -180.177E-03    -67.1051E-03     49.9902E-03    -23.2574E-03    -26.7447E-03    -24.2402E-03     47.4857E-03    -23.2574E-03     26.8349E-03     29.4125E+06    -10.5812E+06    -153.752E+06    -16.6606E+06    -147.673E+06     29.4125E+06    -28.4554E+06         24.5589
            1116     7.82402E-03     5.32287E-03    -96.8545E-03    -192.466E-03    -338.925E-03    -100.117E-03    -335.663E-03    -192.466E-03    -2.10996E-03     49.8072E-03    -23.0229E-03    -26.7966E-03    -24.6208E-03     47.6314E-03    -23.0229E-03     25.1466E-03     26.7135E+06    -12.0597E+06    -174.475E+06    -16.7303E+06    -169.804E+06     26.7135E+06    -26.9788E+06         24.3375
            1117     6.84880E-03     5.33609E-03    -112.250E-03    -203.500E-03    -316.741E-03    -121.039E-03    -307.952E-03    -203.500E-03    -24.5555E-03     49.0272E-03    -22.6487E-03    -26.3864E-03    -24.5948E-03     47.2356E-03    -22.6487E-03     22.7150E-03     18.4937E+06    -12.4011E+06    -183.668E+06    -16.1079E+06    -179.962E+06     18.4937E+06    -24.6483E+06         24.1362
            1118     5.87311E-03     5.34898E-03    -130.331E-03    -205.268E-03    -296.996E-03    -138.167E-03    -279.288E-03    -215.140E-03    -39.1599E-03     47.8404E-03    -22.2123E-03    -25.6280E-03    -24.2168E-03     46.4292E-03    -22.2123E-03     19.9580E-03     10.9541E+06    -13.0597E+06    -189.894E+06    -15.6042E+06    -187.349E+06     10.9541E+06    -20.8794E+06         23.9484
            1119     4.89650E-03     5.36070E-03    -159.825E-03    -207.538E-03    -259.620E-03    -178.510E-03    -222.858E-03    -225.615E-03    -6.01078E-03     46.3717E-03    -21.7343E-03    -24.6348E-03    -23.5977E-03     45.3346E-03    -21.7343E-03     16.8438E-03     4.36463E+06    -14.7529E+06    -192.293E+06    -16.4166E+06    -190.629E+06     4.36463E+06    -16.9103E+06         23.7698
            1120     3.91930E-03     5.37215E-03    -160.777E-03    -216.313E-03    -247.197E-03    -217.435E-03    -175.402E-03    -231.450E-03     15.2879E-03     44.6968E-03    -21.2442E-03    -23.4529E-03    -22.7637E-03     44.0077E-03    -21.2442E-03     13.4911E-03    -2.93540E+06    -18.6011E+06    -196.573E+06    -19.4574E+06    -195.717E+06    -2.93540E+06    -11.9390E+06         23.5995
            1121     2.94089E-03     5.38053E-03    -147.526E-03    -215.978E-03    -261.195E-03    -215.204E-03    -173.423E-03    -236.071E-03     22.4585E-03     42.9237E-03    -20.7935E-03    -22.1284E-03    -21.7139E-03     42.5091E-03    -20.7935E-03     10.2023E-03    -11.0511E+06    -22.3163E+06    -202.400E+06    -22.6549E+06    -202.061E+06    -11.0511E+06    -7.63703E+06         23.4422
            1122     1.96127E-03     5.38713E-03    -120.079E-03    -211.520E-03    -296.334E-03    -194.011E-03    -179.974E-03    -253.946E-03     71.2396E-03     41.4782E-03    -20.4402E-03    -21.0350E-03    -20.8353E-03     41.2785E-03    -20.4402E-03     6.81306E-03    -17.8151E+06    -25.7325E+06    -203.780E+06    -25.8875E+06    -203.626E+06    -17.8151E+06    -4.60722E+06         23.3087
            1123     980.887E-06     5.39147E-03     13.4777E-03    -281.428E-03    -355.402E-03    -211.254E-03    -86.6020E-03    -325.496E-03    -44.4163E-03     40.5458E-03    -20.1352E-03    -20.4084E-03    -20.2729E-03     40.4800E-03    -20.2049E-03     3.75772E-03    -23.2858E+06    -28.0415E+06    -203.924E+06    -26.9585E+06    -203.875E+06    -24.4176E+06    -1.18906E+06         23.2058
            1124     16.5601E-03     4.24789E-03     372.486E-03    -47.6149E-03    -927.087E-03     371.593E-03    -926.194E-03    -47.6149E-03     11.2744E-03     64.9572E-03    -26.9131E-03    -38.0466E-03    -35.8831E-03     62.7937E-03    -26.9131E-03     25.6394E-03     193.147E+06     119.234E+06    -8.02209E+06    -7.99569E+06     193.121E+06     119.234E+06     2.07976E+06         32.2281
            1125     15.5935E-03     4.22719E-03     314.582E-03    -72.0804E-03    -842.970E-03     314.202E-03    -842.589E-03    -72.0804E-03     5.13274E-03     61.4119E-03    -26.1747E-03    -35.2433E-03    -31.7840E-03     57.9525E-03    -26.1747E-03     35.7416E-03     176.441E+06     65.8677E+06    -17.3170E+06    -17.1872E+06     176.311E+06     65.8677E+06     3.60969E+06         30.6046
            1126     14.6211E-03     4.21794E-03     259.434E-03    -96.1408E-03    -767.981E-03     259.285E-03    -767.832E-03    -96.1408E-03    -21.2966E-03     56.0248E-03    -24.7552E-03    -31.2788E-03    -27.3027E-03     52.9777E-03    -25.6841E-03     31.7299E-03     143.111E+06     13.0613E+06    -24.8723E+06    -24.7264E+06     142.965E+06     13.0613E+06     2.92195E+06         29.1776
            1127     13.6468E-03     4.21332E-03     198.309E-03    -119.385E-03    -684.934E-03     198.138E-03    -684.764E-03    -119.385E-03    -18.7231E-03     51.2060E-03    -23.0468E-03    -28.1660E-03    -22.0551E-03     47.7300E-03    -25.6817E-03     31.4343E-03     79.1383E+06    -12.3830E+06    -30.7878E+06    -28.9583E+06     77.3088E+06    -12.3830E+06    -7.88112E+06         27.9577
            1128     12.6679E-03     4.22343E-03     149.366E-03    -141.924E-03    -614.435E-03     149.174E-03    -614.242E-03    -141.924E-03    -16.4371E-03     50.8003E-03    -24.0218E-03    -26.7950E-03    -20.2807E-03     46.3671E-03    -26.1029E-03     34.9261E-03     22.1264E+06    -11.4293E+06    -41.0148E+06    -29.6285E+06     8.30185E+06    -8.99103E+06    -20.0535E+06         26.9387
            1129     11.6887E-03     4.22896E-03     97.6509E-03    -163.942E-03    -544.794E-03     97.5012E-03    -544.644E-03    -163.942E-03    -6.88409E-03     52.7207E-03    -25.5336E-03    -27.2103E-03    -21.4873E-03     48.0583E-03    -26.5942E-03     36.9720E-03     4.25491E+06    -9.04505E+06    -65.6563E+06    -27.2706E+06    -42.3706E+06    -805.226E+03    -26.9705E+06         26.1216
            1130     10.7101E-03     4.23831E-03     36.0401E-03    -184.677E-03    -468.433E-03     35.8631E-03    -468.256E-03    -184.677E-03     5.54099E-03     53.4049E-03    -25.7080E-03    -27.7345E-03    -22.1576E-03     49.1252E-03    -27.0052E-03     35.9052E-03    -584.759E+03    -14.0044E+06    -99.9313E+06    -25.1534E+06    -86.0399E+06    -3.32713E+06    -31.8073E+06         25.5060
            1131     9.73299E-03     4.24986E-03    -5.45133E-03    -204.242E-03    -405.579E-03    -8.07483E-03    -402.955E-03    -204.242E-03    -3.76019E-03     54.9170E-03    -26.6463E-03    -28.3033E-03    -23.3038E-03     50.6857E-03    -27.4146E-03     36.3385E-03     432.695E+03    -14.3822E+06    -132.749E+06    -24.3537E+06    -121.617E+06    -728.274E+03    -34.3334E+06         25.0937
            1132     8.75707E-03     4.25995E-03    -45.6517E-03    -223.307E-03    -344.959E-03    -50.7415E-03    -339.869E-03    -223.307E-03    -8.90361E-03     56.5911E-03    -27.5723E-03    -29.0268E-03    -25.0016E-03     52.7548E-03    -27.7612E-03     35.3219E-03     5.83832E+06    -14.1704E+06    -162.687E+06    -22.5824E+06    -154.275E+06     5.83832E+06    -33.9461E+06         24.8534
            1133     7.78330E-03     4.27165E-03    -93.0180E-03    -228.091E-03    -299.496E-03    -101.544E-03    -277.885E-03    -241.176E-03     41.6768E-03     57.4129E-03    -27.9078E-03    -29.5055E-03    -26.2900E-03     54.2297E-03    -27.9402E-03     32.5999E-03     5.29049E+06    -13.2421E+06    -182.757E+06    -19.8699E+06    -176.129E+06     5.29049E+06    -32.6405E+06         24.7151
            1134     6.80992E-03     4.28450E-03    -121.146E-03    -222.427E-03    -282.681E-03    -151.979E-03    -217.461E-03    -256.815E-03     20.5809E-03     57.7825E-03    -27.9733E-03    -29.8046E-03    -27.2145E-03     55.1923E-03    -27.9733E-03     29.6226E-03    -1.00016E+06    -13.8568E+06    -194.433E+06    -18.7167E+06    -189.573E+06    -1.00016E+06    -28.9711E+06         24.6275
            1135     5.83767E-03     4.29764E-03    -119.476E-03    -232.255E-03    -275.393E-03    -199.564E-03    -158.074E-03    -269.485E-03     7.25990E-03     57.7553E-03    -27.9061E-03    -29.8418E-03    -27.8144E-03     55.7279E-03    -27.9061E-03     26.2810E-03    -6.67605E+06    -16.3952E+06    -199.424E+06    -19.5526E+06    -196.267E+06    -6.67605E+06    -23.7175E+06         24.5567
            1136     4.86558E-03     4.31066E-03    -104.248E-03    -242.261E-03    -279.995E-03    -226.892E-03    -119.617E-03    -279.995E-03     19.5239E-03     57.3390E-03    -27.7642E-03    -29.5689E-03    -28.0673E-03     55.8374E-03    -27.7642E-03     22.5677E-03    -10.5060E+06    -19.4440E+06    -202.035E+06    -21.2810E+06    -200.198E+06    -10.5060E+06    -17.8356E+06         24.4819
            1137     3.89352E-03     4.32194E-03    -80.8438E-03    -250.377E-03    -290.410E-03    -245.061E-03    -86.1593E-03    -290.410E-03    -11.7849E-03     56.6430E-03    -27.5638E-03    -29.0809E-03    -28.0694E-03     55.6315E-03    -27.5638E-03     18.3915E-03    -13.8740E+06    -23.2201E+06    -206.057E+06    -23.9844E+06    -205.292E+06    -13.8740E+06    -11.3972E+06         24.4033
            1138     2.92120E-03     4.33290E-03    -46.2381E-03    -271.324E-03    -304.497E-03    -259.971E-03    -59.3755E-03    -302.713E-03    -58.0194E-03     55.6528E-03    -27.3176E-03    -28.3355E-03    -27.7313E-03     55.0486E-03    -27.3176E-03     14.0573E-03    -19.3564E+06    -27.1535E+06    -207.556E+06    -27.4525E+06    -207.257E+06    -19.3564E+06    -7.17724E+06         24.3196
            1139     1.94769E-03     4.33994E-03    -19.6607E-03    -279.889E-03    -327.056E-03    -262.087E-03    -39.2471E-03    -325.271E-03    -28.3732E-03     54.6674E-03    -27.1033E-03    -27.5624E-03    -27.2655E-03     54.3706E-03    -27.1033E-03     9.59063E-03    -24.3262E+06    -31.0805E+06    -208.774E+06    -31.2654E+06    -208.590E+06    -24.3262E+06    -5.71522E+06         24.2346
            1140     973.945E-06     4.34531E-03     67.1632E-03    -322.190E-03    -376.603E-03    -314.189E-03     50.2139E-03    -367.655E-03     59.0830E-03     54.0055E-03    -26.8988E-03    -27.1058E-03    -27.0092E-03     53.9089E-03    -26.8988E-03     5.22678E-03    -28.3002E+06    -35.5826E+06    -210.246E+06    -34.5496E+06    -210.147E+06    -29.4320E+06    -3.35502E+06         24.1585
            1141     16.5376E-03     3.18136E-03     362.777E-03    -68.1275E-03    -891.587E-03     362.392E-03    -891.203E-03    -68.1275E-03     2.16968E-03     62.1019E-03    -28.3788E-03    -33.7368E-03    -29.9171E-03     58.2823E-03    -28.3788E-03     33.6790E-03     191.714E+06     117.408E+06    -9.18764E+06    -9.02834E+06     191.555E+06     117.408E+06     4.84147E+06         32.1532
            1142     15.5675E-03     3.16964E-03     298.551E-03    -93.1145E-03    -805.315E-03     298.270E-03    -805.034E-03    -93.1145E-03    -25.1911E-03     61.7064E-03    -28.0884E-03    -33.6334E-03    -25.8692E-03     53.9422E-03    -28.0884E-03     49.8762E-03     174.465E+06     63.5930E+06    -18.2895E+06    -18.0255E+06     174.201E+06     63.5930E+06     6.33899E+06         30.7197
            1143     14.5961E-03     3.16044E-03     246.329E-03    -117.638E-03    -732.569E-03     246.034E-03    -732.274E-03    -117.638E-03    -3.82560E-03     57.1633E-03    -26.5040E-03    -30.6815E-03    -22.0690E-03     50.0665E-03    -28.0197E-03     45.1008E-03     148.349E+06     5.21617E+06    -26.5190E+06    -23.3731E+06     148.191E+06     2.22792E+06     4.40224E+06         29.4709
            1144     13.6115E-03     3.17344E-03     207.527E-03    -142.364E-03    -671.173E-03     207.297E-03    -670.943E-03    -142.364E-03     3.55931E-03     52.6079E-03    -24.2405E-03    -28.3833E-03    -18.5043E-03     46.8718E-03    -28.3833E-03     39.7445E-03     92.9262E+06    -23.3440E+06    -42.5594E+06    -25.8371E+06     91.3631E+06    -38.5032E+06    -6.89341E+06         28.3657
            1145     12.6219E-03     3.17529E-03     162.178E-03    -167.691E-03    -603.336E-03     162.161E-03    -603.319E-03    -167.691E-03    -3.36044E-03     53.5599E-03    -24.3995E-03    -29.1754E-03    -18.4636E-03     47.6239E-03    -29.1754E-03     41.1800E-03     30.1000E+06    -28.8213E+06    -56.5280E+06    -24.6259E+06     14.6411E+06    -45.2646E+06    -22.0439E+06         27.4185
            1146     11.6423E-03     3.17703E-03     94.8626E-03    -192.489E-03    -515.385E-03     94.7621E-03    -515.284E-03    -192.489E-03    -958.882E-06     55.1332E-03    -25.0417E-03    -30.1048E-03    -20.1349E-03     50.2263E-03    -30.1048E-03     38.2578E-03     187.325E+03    -29.4609E+06    -70.0555E+06    -22.9425E+06    -42.6534E+06    -33.7332E+06    -29.6006E+06         26.6387
            1147     10.6641E-03     3.18773E-03     30.3103E-03    -215.664E-03    -432.971E-03     29.9672E-03    -432.628E-03    -215.664E-03    -7.05128E-03     56.9338E-03    -25.9861E-03    -30.9545E-03    -21.4952E-03     52.4429E-03    -30.9545E-03     37.4878E-03    -8.52401E+06    -36.6391E+06    -100.408E+06    -23.0254E+06    -85.9069E+06    -36.6391E+06    -32.8833E+06         26.0277
            1148     9.68595E-03     3.19518E-03    -9.56511E-03    -238.084E-03    -366.579E-03    -12.4532E-03    -363.691E-03    -238.084E-03    -13.5803E-03     60.1579E-03    -28.3832E-03    -31.7811E-03    -24.0243E-03     55.7989E-03    -31.7811E-03     38.1635E-03    -11.2216E+06    -36.3209E+06    -138.190E+06    -22.5222E+06    -127.006E+06    -36.2044E+06    -35.4768E+06         25.5875
            1149     8.71172E-03     3.20285E-03    -51.1382E-03    -246.581E-03    -312.897E-03    -59.9142E-03    -290.292E-03    -260.410E-03    -13.4054E-03     62.5923E-03    -30.0577E-03    -32.5339E-03    -26.3927E-03     58.9273E-03    -32.5339E-03     35.8895E-03    -11.8742E+06    -30.7870E+06    -168.705E+06    -22.4133E+06    -159.637E+06    -29.3152E+06    -36.2783E+06         25.3123
            1150     7.73894E-03     3.21275E-03    -93.7714E-03    -229.260E-03    -291.403E-03    -119.416E-03    -213.524E-03    -281.494E-03    -10.7792E-03     64.3491E-03    -31.0894E-03    -33.2479E-03    -28.1914E-03     61.3694E-03    -33.1662E-03     32.9988E-03    -12.9014E+06    -30.0804E+06    -191.916E+06    -22.8580E+06    -184.549E+06    -27.4908E+06    -35.0490E+06         25.1793
            1151     6.76841E-03     3.22389E-03    -97.1814E-03    -219.854E-03    -300.185E-03    -176.647E-03    -140.388E-03    -300.185E-03    -41.3981E-03     65.9986E-03    -32.0128E-03    -33.9622E-03    -29.8363E-03     63.5768E-03    -33.7168E-03     30.2637E-03    -16.1047E+06    -26.5950E+06    -207.104E+06    -22.6617E+06    -202.244E+06    -24.8974E+06    -29.5353E+06         25.1483
            1152     5.79891E-03     3.23594E-03    -55.2541E-03    -249.204E-03    -315.399E-03    -234.633E-03    -69.8244E-03    -315.399E-03    -16.5864E-03     67.4208E-03    -32.8265E-03    -34.5720E-03    -31.3398E-03     65.5150E-03    -34.1530E-03     27.2414E-03    -20.9007E+06    -27.6067E+06    -209.382E+06    -24.7732E+06    -206.695E+06    -26.4207E+06    -21.7995E+06         25.1711
            1153     4.83113E-03     3.24778E-03    -9.12927E-03    -280.859E-03    -326.867E-03    -275.368E-03    -14.6203E-03    -326.867E-03     10.4480E-03     68.5288E-03    -33.5450E-03    -34.9703E-03    -32.6030E-03     67.1004E-03    -34.4840E-03     23.8277E-03    -26.5336E+06    -31.0155E+06    -211.912E+06    -29.2313E+06    -210.575E+06    -29.6548E+06    -15.0942E+06         25.2145
            1154     3.86388E-03     3.25932E-03     17.1069E-03    -292.549E-03    -337.557E-03    -289.793E-03     14.3509E-03    -337.557E-03    -7.62277E-03     69.3126E-03    -34.1259E-03    -35.1795E-03    -33.5798E-03     68.3274E-03    -34.7405E-03     19.8915E-03    -28.2529E+06    -32.3472E+06    -214.776E+06    -32.0030E+06    -214.148E+06    -29.2252E+06    -10.4750E+06         25.2580
            1155     2.89744E-03     3.26913E-03     68.5886E-03    -323.828E-03    -358.834E-03    -323.456E-03     56.4804E-03    -347.099E-03    -57.6240E-03     69.8500E-03    -34.5889E-03    -35.2596E-03    -34.3630E-03     69.2587E-03    -34.8943E-03     15.4114E-03    -27.5142E+06    -33.6769E+06    -212.950E+06    -33.9749E+06    -212.652E+06    -27.5142E+06    -7.03398E+06         25.2854
            1156     1.93203E-03     3.27773E-03     105.840E-03    -342.243E-03    -381.576E-03    -367.633E-03     94.8530E-03    -345.199E-03    -51.6686E-03     69.9805E-03    -34.8551E-03    -35.1265E-03    -34.7740E-03     69.6909E-03    -34.9181E-03     10.6921E-03    -30.3533E+06    -36.5721E+06    -213.105E+06    -36.7004E+06    -212.977E+06    -30.3533E+06    -4.43682E+06         25.2859
            1157     966.100E-06     3.28255E-03     59.1087E-03    -319.365E-03    -368.143E-03    -356.840E-03     50.7609E-03    -322.321E-03     72.1375E-03     69.7923E-03    -34.8245E-03    -34.9674E-03    -34.8329E-03     69.6924E-03    -34.8592E-03     6.00096E-03    -36.2736E+06    -44.3287E+06    -217.243E+06    -41.5004E+06    -217.178E+06    -39.1678E+06    -3.13221E+06         25.2587
            1158     16.4982E-03     2.12169E-03     345.962E-03    -81.7136E-03    -859.546E-03     344.731E-03    -858.315E-03    -81.7136E-03    -43.8678E-03     58.1045E-03    -26.9537E-03    -31.1603E-03    -22.5550E-03     53.0212E-03    -30.4757E-03     39.1777E-03     190.026E+06     112.285E+06    -9.37672E+06    -9.07353E+06     189.723E+06     112.285E+06     7.44309E+06         32.3499
            1159     15.5160E-03     2.11804E-03     312.732E-03    -107.625E-03    -811.202E-03     312.172E-03    -810.641E-03    -107.625E-03    -34.1406E-03     59.2268E-03    -26.4388E-03    -32.7832E-03    -19.7033E-03     50.4702E-03    -30.7621E-03     51.7729E-03     175.438E+06     65.8622E+06    -17.1518E+06    -16.9589E+06     175.245E+06     65.8622E+06     5.61098E+06         31.1132
            1160     14.5291E-03     2.10605E-03     264.258E-03    -134.325E-03    -735.854E-03     263.719E-03    -735.315E-03    -134.325E-03    -7.37491E-03     57.8339E-03    -25.3013E-03    -32.5262E-03    -18.7782E-03     49.9370E-03    -31.1525E-03     47.5604E-03     154.563E+06     14.4483E+06    -26.2409E+06    -15.1321E+06     154.509E+06     3.39335E+06     1.53070E+06         30.0277
            1161     13.5558E-03     2.12390E-03     208.000E-03    -160.989E-03    -656.820E-03     207.710E-03    -656.531E-03    -160.989E-03     7.81675E-03     59.2672E-03    -27.6067E-03    -31.6641E-03    -21.6891E-03     53.3129E-03    -31.6275E-03     43.1065E-03     101.357E+06    -11.8782E+06    -57.3262E+06    -10.7686E+06     100.247E+06    -57.3262E+06    -6.60962E+06         29.0364
            1162     12.5840E-03     2.12160E-03     142.133E-03    -187.012E-03    -567.701E-03     142.048E-03    -567.616E-03    -187.012E-03    -8.57131E-03     60.0114E-03    -27.6398E-03    -32.3760E-03    -22.3932E-03     54.7283E-03    -32.3394E-03     41.1045E-03     34.1580E+06    -25.2157E+06    -81.3733E+06    -12.6198E+06     21.5620E+06    -81.3733E+06    -17.2844E+06         28.1710
            1163     11.6030E-03     2.12564E-03     86.0438E-03    -212.318E-03    -484.244E-03     85.8025E-03    -484.003E-03    -212.318E-03    -13.7989E-03     57.9321E-03    -24.6021E-03    -33.3528E-03    -20.9844E-03     54.3145E-03    -33.3528E-03     33.5942E-03     1.28588E+06    -50.4349E+06    -88.1756E+06    -16.0539E+06    -41.0219E+06    -80.2488E+06    -25.2698E+06         27.4365
            1164     10.6211E-03     2.13216E-03     35.9240E-03    -237.359E-03    -409.820E-03     35.1638E-03    -409.060E-03    -237.359E-03    -35.0150E-03     60.4086E-03    -25.9571E-03    -34.4708E-03    -22.5888E-03     57.0403E-03    -34.4708E-03     33.0747E-03    -5.23075E+06    -74.3705E+06    -107.244E+06    -16.4531E+06    -87.9723E+06    -82.4200E+06    -29.3245E+06         26.8383
            1165     9.64571E-03     2.13434E-03    -16.8641E-03    -259.930E-03    -338.041E-03    -19.5018E-03    -333.255E-03    -262.078E-03    -38.0191E-03     64.2388E-03    -28.6921E-03    -35.5707E-03    -25.7731E-03     61.3198E-03    -35.5707E-03     31.6697E-03    -9.52208E+06    -80.3901E+06    -139.487E+06    -17.4230E+06    -131.586E+06    -80.3901E+06    -30.3241E+06         26.3832
            1166     8.67222E-03     2.13929E-03    -79.9524E-03    -239.950E-03    -298.209E-03    -87.7331E-03    -245.054E-03    -285.324E-03    -34.0232E-03     66.6699E-03    -30.0633E-03    -36.6503E-03    -27.8133E-03     64.4199E-03    -36.6503E-03     28.4481E-03    -13.2249E+06    -72.3968E+06    -170.570E+06    -19.6615E+06    -164.133E+06    -72.3968E+06    -30.7362E+06         26.0688
            1167     7.70091E-03     2.14633E-03    -109.031E-03    -203.066E-03    -306.149E-03    -149.787E-03    -162.310E-03    -306.149E-03    -34.4467E-03     69.2676E-03    -31.5437E-03    -37.7483E-03    -29.7185E-03     67.4424E-03    -37.7483E-03     26.2386E-03    -17.9873E+06    -62.0001E+06    -198.866E+06    -23.1920E+06    -193.662E+06    -62.0001E+06    -29.4320E+06         25.8893
            1168     6.73122E-03     2.15482E-03    -74.9336E-03    -216.474E-03    -325.272E-03    -194.710E-03    -96.6980E-03    -325.272E-03    -73.0759E-03     72.2034E-03    -33.3803E-03    -38.8249E-03    -31.8803E-03     70.7034E-03    -38.8249E-03     24.3819E-03    -25.0687E+06    -51.3471E+06    -218.482E+06    -28.3593E+06    -215.192E+06    -51.3471E+06    -24.2304E+06         25.8271
            1169     5.76419E-03     2.16381E-03    -23.4894E-03    -248.329E-03    -343.636E-03    -234.972E-03    -36.8466E-03    -343.636E-03    -44.2975E-03     75.1306E-03    -35.3190E-03    -39.8062E-03    -34.1188E-03     73.9304E-03    -39.8062E-03     22.3089E-03    -30.0159E+06    -45.2261E+06    -220.363E+06    -31.5677E+06    -218.812E+06    -45.2261E+06    -16.4087E+06         25.8613
            1170     4.79894E-03     2.17307E-03     34.6182E-03    -287.630E-03    -360.175E-03    -284.565E-03     31.5533E-03    -360.175E-03    -13.2794E-03     77.9767E-03    -37.2778E-03    -40.6937E-03    -36.3732E-03     77.0721E-03    -40.6937E-03     19.7741E-03    -33.6035E+06    -40.8461E+06    -219.592E+06    -34.2367E+06    -218.959E+06    -40.8461E+06    -10.4044E+06         25.9660
            1171     3.83637E-03     2.18254E-03     81.7445E-03    -323.234E-03    -374.396E-03    -319.822E-03     78.3322E-03    -374.396E-03    -36.1247E-03     80.5735E-03    -39.1139E-03    -41.4519E-03    -38.4858E-03     79.9455E-03    -41.4519E-03     16.7751E-03    -37.1879E+06    -40.8504E+06    -219.502E+06    -37.7057E+06    -219.118E+06    -40.7173E+06    -8.00903E+06         26.0968
            1172     2.87546E-03     2.19074E-03     129.611E-03    -355.134E-03    -395.092E-03    -360.226E-03     124.752E-03    -385.141E-03     26.8648E-03     82.7449E-03    -40.6657E-03    -42.0736E-03    -40.2821E-03     82.3613E-03    -42.0736E-03     13.2576E-03    -37.5272E+06    -41.2809E+06    -219.208E+06    -40.1372E+06    -218.968E+06    -38.9114E+06    -6.17423E+06         26.2225
            1173     1.91593E-03     2.19750E-03     177.275E-03    -373.567E-03    -428.936E-03    -420.274E-03     173.638E-03    -378.592E-03     28.6274E-03     84.4210E-03    -41.8941E-03    -42.5285E-03    -41.7058E-03     84.2306E-03    -42.5264E-03     9.32838E-03    -36.3952E+06    -42.3810E+06    -218.303E+06    -42.4553E+06    -218.229E+06    -36.3952E+06    -3.26499E+06         26.3195
            1174     957.837E-06     2.20274E-03     101.427E-03    -325.183E-03    -412.065E-03    -410.557E-03     99.9195E-03    -325.183E-03     32.3765E-06     85.3872E-03    -42.5669E-03    -42.8211E-03    -42.5007E-03     85.3189E-03    -42.8190E-03     5.42165E-03    -39.5002E+06    -48.0171E+06    -220.272E+06    -45.1425E+06    -220.252E+06    -42.3944E+06    -1.41367E+06         26.3620
            1175     16.4569E-03     1.06418E-03     365.935E-03    -91.1076E-03    -896.840E-03     362.752E-03    -893.657E-03    -91.1076E-03    -25.2608E-03     60.7991E-03    -27.9555E-03    -32.8407E-03    -23.3895E-03     56.2331E-03    -32.8407E-03     38.7737E-03     192.633E+06     114.957E+06    -5.12200E+06    -4.86440E+06     192.375E+06     114.957E+06     6.86121E+06         33.0161
            1176     15.4808E-03     1.06540E-03     314.264E-03    -118.180E-03    -816.302E-03     312.627E-03    -814.664E-03    -118.180E-03     36.5554E-03     59.0858E-03    -25.9106E-03    -33.1605E-03    -21.8217E-03     54.9969E-03    -33.1605E-03     34.8700E-03     181.286E+06     66.0762E+06    -7.27540E+06    -7.02591E+06     181.037E+06     66.0762E+06     416.835E+03         31.8947
            1177     14.4981E-03     1.05837E-03     259.114E-03    -145.450E-03    -730.250E-03     258.700E-03    -729.836E-03    -145.450E-03     3.09018E-03     56.7878E-03    -23.1801E-03    -33.5977E-03    -20.3682E-03     53.9758E-03    -33.5977E-03     25.7028E-03     155.357E+06     15.7655E+06    -24.6989E+06    -6.55689E+06     155.160E+06    -2.17930E+06    -2.41604E+06         30.9214
            1178     13.5127E-03     1.05923E-03     197.531E-03    -172.465E-03    -640.155E-03     197.377E-03    -640.000E-03    -172.465E-03     2.13246E-03     58.8983E-03    -24.6893E-03    -34.2151E-03    -22.4963E-03     56.6688E-03    -34.1785E-03     22.7055E-03     104.772E+06    -4.77018E+06    -69.0640E+06    -4.16052E+06     104.162E+06    -69.0640E+06    -1.97572E+06         30.0455
            1179     12.5401E-03     1.05699E-03     137.583E-03    -198.894E-03    -552.458E-03     137.357E-03    -552.233E-03    -198.894E-03     2.08276E-03     61.4527E-03    -26.4462E-03    -35.0032E-03    -24.1024E-03     59.0723E-03    -34.9666E-03     24.7988E-03     38.1377E+06    -13.4040E+06    -103.454E+06    -4.99822E+06     29.7320E+06    -103.454E+06    -8.14653E+06         29.2579
            1180     11.5676E-03     1.07093E-03     89.4244E-03    -225.151E-03    -477.859E-03     88.2275E-03    -476.662E-03    -225.151E-03     23.4364E-03     62.7106E-03    -26.8010E-03    -35.9362E-03    -24.9989E-03     60.9085E-03    -35.9362E-03     23.0218E-03     1.35539E+06    -48.5695E+06    -114.958E+06    -7.65418E+06    -39.5599E+06    -114.958E+06    -15.7517E+06         28.5605
            1181     10.5921E-03     1.06877E-03     35.7853E-03    -251.476E-03    -395.045E-03     34.3916E-03    -393.652E-03    -251.476E-03     3.93913E-03     65.0071E-03    -28.0720E-03    -36.9713E-03    -26.5125E-03     63.4476E-03    -36.9713E-03     21.7832E-03    -6.41281E+06    -93.0669E+06    -123.498E+06    -11.2921E+06    -91.5288E+06    -120.156E+06    -17.8814E+06         27.9772
            1182     9.61862E-03     1.06824E-03    -31.1217E-03    -262.779E-03    -318.356E-03    -31.6881E-03    -303.560E-03    -277.008E-03     1.17311E-03     66.6213E-03    -28.5629E-03    -38.1058E-03    -27.5054E-03     65.5638E-03    -38.1058E-03     17.7869E-03    -12.7948E+06    -114.475E+06    -141.721E+06    -15.9028E+06    -134.211E+06    -118.877E+06    -17.7025E+06         27.5193
            1183     8.64635E-03     1.07094E-03    -92.7113E-03    -223.690E-03    -300.955E-03    -94.9755E-03    -221.425E-03    -300.955E-03     25.1415E-03     68.7574E-03    -29.4466E-03    -39.3860E-03    -28.6786E-03     67.9894E-03    -39.3860E-03     15.4858E-03    -17.9180E+06    -112.433E+06    -170.657E+06    -20.5018E+06    -168.073E+06    -112.433E+06    -17.9235E+06         27.1857
            1184     7.67493E-03     1.07467E-03    -109.592E-03    -187.343E-03    -323.438E-03    -149.896E-03    -147.039E-03    -323.438E-03     43.0291E-03     72.0425E-03    -31.2602E-03    -40.8299E-03    -30.6319E-03     71.4142E-03    -40.8299E-03     14.4112E-03    -23.7011E+06    -93.6756E+06    -202.867E+06    -25.5688E+06    -200.999E+06    -93.6756E+06    -16.1762E+06         26.9711
            1185     6.70628E-03     1.07897E-03    -63.7089E-03    -215.195E-03    -344.218E-03    -207.049E-03    -71.8550E-03    -344.218E-03     25.5765E-03     75.9206E-03    -33.6292E-03    -42.3140E-03    -33.1099E-03     75.4014E-03    -42.3140E-03     13.4733E-03    -30.1178E+06    -73.4246E+06    -225.080E+06    -31.2750E+06    -223.923E+06    -73.4246E+06    -13.2673E+06         26.8669
            1186     5.73992E-03     1.08424E-03     1.26328E-03    -263.482E-03    -362.707E-03    -259.313E-03    -2.90620E-03    -362.707E-03     32.3813E-03     80.0166E-03    -36.3094E-03    -43.7235E-03    -35.8936E-03     79.6008E-03    -43.7235E-03     12.4069E-03    -35.4062E+06    -60.4266E+06    -229.087E+06    -36.0157E+06    -228.477E+06    -60.4266E+06    -9.63344E+06         26.8646
            1187     4.77690E-03     1.08917E-03     55.0942E-03    -298.740E-03    -379.701E-03    -296.259E-03     52.6137E-03    -379.701E-03     19.5683E-03     84.1921E-03    -39.1485E-03    -45.0531E-03    -38.8317E-03     83.8752E-03    -45.0531E-03     11.1621E-03    -37.7975E+06    -50.2823E+06    -225.252E+06     -38.017E+06    -225.033E+06    -50.2823E+06    -5.78875E+06         26.9453
            1188     3.81654E-03     1.09414E-03     115.542E-03    -340.107E-03    -395.234E-03    -337.828E-03     113.262E-03    -395.234E-03    -53.9506E-03     88.2501E-03    -42.0032E-03    -46.2500E-03    -41.7801E-03     88.0270E-03    -46.2500E-03     9.59219E-03    -39.4223E+06    -45.4004E+06    -221.685E+06    -39.5164E+06    -221.591E+06    -45.4004E+06    -3.40328E+06         27.0771
            1189     2.85934E-03     1.09928E-03     165.256E-03    -375.066E-03    -408.800E-03    -370.464E-03     160.654E-03    -408.800E-03     9.13342E-03     91.8779E-03    -44.5992E-03    -47.2758E-03    -44.4599E-03     91.7386E-03    -47.2758E-03     7.69901E-03    -41.0914E+06    -43.8699E+06    -222.228E+06    -41.9514E+06    -222.152E+06    -43.0852E+06    -3.00859E+06         27.2335
            1190     1.90442E-03     1.10297E-03     196.628E-03    -381.986E-03    -438.568E-03    -392.168E-03     191.059E-03    -422.816E-03    -10.5596E-03     94.8548E-03    -46.7662E-03    -48.0871E-03    -46.6977E-03     94.7862E-03    -48.0871E-03     5.35171E-03    -41.1381E+06    -45.4132E+06    -222.601E+06    -45.4853E+06    -222.529E+06    -41.1381E+06    -3.20446E+06         27.3822
            1191     951.571E-06     1.10574E-03     235.528E-03    -385.594E-03    -478.730E-03    -450.599E-03     231.920E-03    -410.117E-03    -77.0140E-03     96.8447E-03    -48.1126E-03    -48.7336E-03    -48.2914E-03     96.8212E-03    -48.5313E-03     2.87605E-03    -44.9088E+06    -50.5630E+06    -223.909E+06    -50.3142E+06    -223.868E+06    -45.1994E+06    -2.04607E+06         27.4792
            1192     974.362E-06     58.9002E-03         6.32002     736.929E-03        -7.48060        -5.81470     101.417E-03         5.28963        -2.73196     52.6544E-03    -26.1388E-03    -26.5154E-03    -26.3225E-03     52.6408E-03    -26.3180E-03     1.97751E-03    -36.2766E+06    -40.0834E+06    -215.906E+06    -40.0876E+06    -215.798E+06    -36.3808E+06     2.55386E+06         23.7934
            1193     1.94846E-03     58.9024E-03         1.34930    -260.912E-03        -1.51937    -254.227E-03     84.1559E-03    -260.912E-03     904.402E-03     52.8650E-03    -26.3428E-03    -26.5217E-03    -26.4284E-03     52.8275E-03    -26.3987E-03     3.35790E-03    -28.8957E+06    -35.2709E+06    -215.014E+06    -35.2820E+06    -215.003E+06    -28.8957E+06    -321.277E+03         23.8732
            1194     2.92270E-03     58.9072E-03     709.564E-03    -261.967E-03    -877.514E-03    -276.821E-03     108.871E-03    -261.967E-03    -412.899E-03     53.0891E-03    -26.4658E-03    -26.6227E-03    -26.5401E-03     53.0064E-03    -26.4658E-03     5.04923E-03    -24.4707E+06    -32.5295E+06    -217.076E+06    -32.5323E+06    -217.074E+06    -24.4707E+06     145.048E+03         23.9505
            1195     3.89617E-03     58.9130E-03     388.340E-03    -265.858E-03    -550.153E-03    -273.900E-03     112.087E-03    -265.858E-03     269.433E-03     53.1473E-03    -26.5068E-03    -26.6406E-03    -26.4944E-03     53.0011E-03    -26.5068E-03     6.77228E-03    -20.3086E+06    -30.5481E+06    -212.245E+06    -30.5501E+06    -212.243E+06    -20.3086E+06     178.685E+03         24.0407
            1196     4.87091E-03     58.9213E-03     223.679E-03    -265.002E-03    -385.394E-03    -241.172E-03     79.4566E-03    -265.002E-03    -62.7017E-03     53.1427E-03    -26.5173E-03    -26.6269E-03    -26.4243E-03     52.9401E-03    -26.5173E-03     8.01760E-03    -15.4725E+06    -27.8002E+06    -201.382E+06    -27.8102E+06    -201.372E+06    -15.4725E+06     795.413E+03         24.1596
            1197     5.84475E-03     58.9295E-03     150.048E-03    -260.422E-03    -314.387E-03    -227.176E-03     62.8375E-03    -260.422E-03     97.1824E-03     53.0975E-03    -26.4753E-03    -26.6238E-03    -26.3288E-03     52.8452E-03    -26.5179E-03     8.93810E-03    -8.55185E+06    -24.6960E+06    -183.950E+06    -24.7126E+06    -183.933E+06    -8.55185E+06     1.35499E+06         24.3096
            1198     6.81901E-03     58.9392E-03     108.338E-03    -255.408E-03    -280.384E-03    -215.217E-03     43.1707E-03    -255.408E-03     26.0284E-03     53.0018E-03    -26.4445E-03    -26.5574E-03    -26.1857E-03     52.6864E-03    -26.5008E-03     9.97845E-03    -4.52472E+06    -23.0206E+06    -171.561E+06    -23.0438E+06    -171.538E+06    -4.52472E+06     314.547E+03         24.4942
            1199     7.79363E-03     58.9503E-03     63.8159E-03    -226.269E-03    -264.150E-03    -185.289E-03     7.91111E-03    -249.225E-03     76.3548E-03     52.9838E-03    -26.4437E-03    -26.5531E-03    -26.1603E-03     52.6047E-03    -26.4575E-03     10.9454E-03    -5.49927E+06    -22.4795E+06    -161.709E+06    -22.5179E+06    -161.671E+06    -5.49927E+06    -1.54026E+06         24.7213
            1200     8.76772E-03     58.9622E-03     6.23693E-03    -190.523E-03    -240.703E-03    -146.208E-03    -38.0778E-03    -240.703E-03    -13.2561E-03     52.9605E-03    -26.3868E-03    -26.6015E-03    -26.1400E-03     52.4991E-03    -26.3868E-03     12.0552E-03    -8.06843E+06    -20.5433E+06    -139.202E+06    -20.6243E+06    -139.121E+06    -8.06843E+06    -2.48836E+06         25.0001
            1201     9.74285E-03     58.9754E-03    -42.2634E-03    -152.777E-03    -230.576E-03    -117.814E-03    -77.2268E-03    -230.576E-03     43.9128E-03     52.8427E-03    -26.3357E-03    -26.5362E-03    -25.9958E-03     52.3023E-03    -26.3357E-03     13.0442E-03    -5.36489E+06    -17.3011E+06    -114.518E+06    -17.3641E+06    -114.455E+06    -5.36489E+06    -1.61207E+06         25.3459
            1202     10.7167E-03     58.9897E-03    -71.6036E-03    -130.846E-03    -220.510E-03    -106.141E-03    -96.3090E-03    -220.510E-03     3.11215E-03     52.7565E-03    -26.2908E-03    -26.5010E-03    -25.9101E-03     52.1656E-03    -26.2908E-03     13.6317E-03    -2.96913E+06    -16.8548E+06    -91.4923E+06    -17.0804E+06    -91.2667E+06    -2.96913E+06     1.47658E+06         25.7693
            1203     11.6917E-03     59.0040E-03    -49.2605E-03    -145.789E-03    -222.974E-03    -74.3280E-03    -133.271E-03    -210.426E-03     23.2434E-03     52.7204E-03    -26.2016E-03    -26.5613E-03    -25.8239E-03     51.9831E-03    -26.2016E-03     15.1648E-03    -8.07210E+06    -18.4092E+06    -61.4904E+06    -18.7448E+06    -61.1548E+06    -8.07210E+06     2.59652E+06         26.3148
            1204     12.6662E-03     59.0218E-03     4.70379E-03    -172.558E-03    -247.635E-03    -3.45596E-03    -213.928E-03    -198.106E-03     3.57094E-03     52.6754E-03    -26.0956E-03    -26.5845E-03    -25.6589E-03     51.7498E-03    -26.0956E-03     17.0158E-03    -1.96425E+06    -14.3095E+06    -30.4526E+06    -18.0028E+06    -17.8519E+06    -10.8717E+06     383.944E+03         27.1014
            1205     13.6408E-03     59.0401E-03     58.7755E-03    -182.990E-03    -289.660E-03     56.5051E-03    -287.390E-03    -182.990E-03    -25.4367E-03     52.8010E-03    -25.9705E-03    -26.8196E-03    -25.4251E-03     51.4064E-03    -25.9705E-03     20.6655E-03     47.1552E+06    -10.8957E+06    -16.0928E+06    -16.0777E+06     47.1402E+06    -10.8957E+06    -300.282E+03         28.2351
            1206     14.6160E-03     59.0651E-03     108.245E-03    -166.307E-03    -350.135E-03     104.717E-03    -346.607E-03    -166.307E-03     17.5734E-03     52.1307E-03    -25.6636E-03    -26.4705E-03    -24.9928E-03     50.8732E-03    -25.8837E-03     19.2440E-03     134.140E+06     3.00891E+06    -14.8706E+06    -14.8667E+06     134.136E+06     3.00891E+06     391.165E+03         29.7342
            1207     15.5915E-03     59.0800E-03     161.682E-03    -148.537E-03    -418.915E-03     159.014E-03    -416.247E-03    -148.537E-03     27.7345E-03     52.5613E-03    -25.7812E-03    -26.7777E-03    -24.6888E-03     50.6925E-03    -26.0014E-03     22.7809E-03     193.295E+06     50.1577E+06    -11.9639E+06    -11.9601E+06     193.292E+06     50.1577E+06     304.018E+03         31.5787
            1208     16.5666E-03     59.1124E-03     208.013E-03    -129.674E-03    -486.815E-03     207.657E-03    -486.459E-03    -129.674E-03    -9.70730E-03     52.3920E-03    -25.3972E-03    -26.9964E-03    -24.5421E-03     50.7605E-03    -26.2200E-03     11.1115E-03     206.917E+06     104.285E+06    -6.56878E+06    -6.56858E+06     206.917E+06     104.285E+06     85.0253E+03         33.6057
            1209     974.399E-06     59.9529E-03         6.11598     715.667E-03        -7.25323        -5.70131     195.594E-03         5.08413        -2.68380     52.6919E-03    -26.1932E-03    -26.4990E-03    -26.3187E-03     52.6806E-03    -26.3622E-03     1.78167E-03    -34.0174E+06    -36.9953E+06    -213.960E+06    -36.5049E+06    -213.882E+06    -34.5858E+06     168.928E+03         23.7878
            1210     1.94847E-03     59.9561E-03         1.33632    -314.133E-03        -1.44411    -334.466E-03     226.676E-03    -314.133E-03     871.240E-03     52.8459E-03    -26.3535E-03    -26.4913E-03    -26.4067E-03     52.8071E-03    -26.3992E-03     3.36668E-03    -29.6679E+06    -34.5313E+06    -216.032E+06    -34.5438E+06    -216.020E+06    -29.6679E+06     67.3247E+03         23.8663
            1211     2.92234E-03     59.9602E-03     761.220E-03    -324.225E-03    -854.045E-03    -352.558E-03     259.734E-03    -324.225E-03    -360.170E-03     52.9956E-03    -26.4396E-03    -26.5551E-03    -26.4695E-03     52.9099E-03    -26.4396E-03     5.15020E-03    -27.0686E+06    -33.0730E+06    -217.407E+06    -33.0774E+06    -217.402E+06    -27.0686E+06     859.071E+03         23.9444
            1212     3.89700E-03     59.9667E-03     486.854E-03    -331.501E-03    -572.095E-03    -349.001E-03     263.760E-03    -331.501E-03     269.679E-03     53.0448E-03    -26.4694E-03    -26.5765E-03    -26.4302E-03     52.8985E-03    -26.4694E-03     6.77028E-03    -22.1400E+06    -30.8236E+06    -212.281E+06    -30.8257E+06    -212.279E+06    -22.1400E+06     259.170E+03         24.0373
            1213     4.87065E-03     59.9741E-03     332.893E-03    -331.459E-03    -413.595E-03    -304.720E-03     224.018E-03    -331.459E-03    -60.7635E-03     52.9766E-03    -26.4544E-03    -26.5236E-03    -26.3025E-03     52.7755E-03    -26.4744E-03     7.97567E-03    -16.0917E+06    -28.0990E+06    -202.300E+06    -28.0997E+06    -202.300E+06    -16.0917E+06     39.4469E+03         24.1586
            1214     5.84536E-03     59.9831E-03     259.270E-03    -318.601E-03    -354.629E-03    -285.786E-03     197.784E-03    -325.958E-03     112.739E-03     53.0385E-03    -26.4479E-03    -26.5906E-03    -26.3087E-03     52.7765E-03    -26.4678E-03     9.09073E-03    -9.76851E+06    -25.2356E+06    -184.459E+06    -25.2428E+06    -184.452E+06    -9.76851E+06     826.349E+03         24.3107
            1215     6.81935E-03     59.9925E-03     209.468E-03    -299.601E-03    -326.212E-03    -266.868E-03     169.954E-03    -319.430E-03     26.6815E-03     53.1495E-03    -26.4803E-03    -26.6691E-03    -26.3509E-03     52.8313E-03    -26.4803E-03     10.0526E-03    -1.90764E+06    -21.7990E+06    -170.707E+06    -21.8107E+06    -170.695E+06    -1.90764E+06     1.26681E+06         24.4970
            1216     7.79349E-03     60.0034E-03     150.301E-03    -253.069E-03    -314.179E-03    -221.670E-03     115.445E-03    -310.722E-03     69.6172E-03     53.0936E-03    -26.4674E-03    -26.6407E-03    -26.2519E-03     52.7048E-03    -26.4674E-03     11.0784E-03     15.4321E+03    -19.7286E+06    -160.032E+06    -19.7594E+06    -160.002E+06     15.4321E+03     615.760E+03         24.7224
            1217     8.76811E-03     60.0155E-03     96.4885E-03    -212.651E-03    -299.840E-03    -192.419E-03     76.2558E-03    -299.840E-03    -289.112E-06     53.0214E-03    -26.3955E-03    -26.6454E-03    -26.1821E-03     52.5580E-03    -26.3955E-03     12.1122E-03    -5.47918E+06    -20.8993E+06    -137.043E+06    -20.9901E+06    -136.952E+06    -5.47918E+06    -1.59356E+06         24.9980
            1218     9.74175E-03     60.0286E-03     54.4822E-03    -180.377E-03    -288.377E-03    -164.641E-03     38.7463E-03    -288.377E-03     36.8025E-03     52.8866E-03    -26.3418E-03    -26.5603E-03    -26.0352E-03     52.3614E-03    -26.3418E-03     12.8631E-03    -7.12771E+06    -22.5109E+06    -117.464E+06    -22.5804E+06    -117.395E+06    -7.12771E+06    -1.30890E+06         25.3420
            1219     10.7171E-03     60.0426E-03    -5.91242E-03    -128.844E-03    -275.687E-03    -116.674E-03    -18.0825E-03    -275.687E-03    -11.7943E-03     52.7624E-03    -26.2958E-03    -26.4992E-03    -25.9007E-03     52.1639E-03    -26.2958E-03     13.7159E-03    -5.46866E+06    -20.5600E+06    -95.1915E+06    -20.7923E+06    -94.9592E+06    -5.46866E+06     1.84386E+06         25.7654
            1220     11.6911E-03     60.0576E-03    -36.1895E-03    -108.284E-03    -261.323E-03    -72.4328E-03    -72.0404E-03    -261.323E-03     9.20155E-03     52.7375E-03    -26.1966E-03    -26.5823E-03    -25.8381E-03     51.9934E-03    -26.1966E-03     15.2439E-03    -7.73586E+06    -16.0065E+06    -59.0702E+06    -16.2357E+06    -58.8409E+06    -7.73586E+06     1.59562E+06         26.3147
            1221     12.6658E-03     60.0745E-03    -5.44498E-03    -148.379E-03    -248.886E-03    -16.7787E-03    -140.544E-03    -245.388E-03     884.503E-06     52.6198E-03    -26.0853E-03    -26.5369E-03    -25.5904E-03     51.6732E-03    -26.0853E-03     17.1846E-03    -2.10071E+06    -12.1060E+06    -26.7759E+06    -14.0319E+06    -16.2835E+06    -10.6673E+06    -30.2693E+03         27.1107
            1222     13.6410E-03     60.0935E-03     54.6610E-03    -198.773E-03    -253.686E-03     47.8290E-03    -218.091E-03    -227.537E-03     3.04907E-03     52.6986E-03    -25.9626E-03    -26.7249E-03    -25.3070E-03     51.2807E-03    -25.9626E-03     20.8373E-03     46.0622E+06    -11.0851E+06    -14.8658E+06    -14.7010E+06     46.0466E+06    -11.2343E+06    -32.2288E+03         28.2559
            1223     14.6160E-03     60.1176E-03     108.739E-03    -204.046E-03    -297.751E-03     106.631E-03    -291.701E-03    -207.989E-03     17.4860E-03     52.1286E-03    -25.7005E-03    -26.4320E-03    -25.0000E-03     50.8686E-03    -25.8726E-03     19.2579E-03     134.431E+06     3.00015E+06    -14.3887E+06    -14.3883E+06     134.431E+06     3.00015E+06    -36.9945E+03         29.7669
            1224     15.5913E-03     60.1335E-03     160.261E-03    -187.440E-03    -364.931E-03     158.811E-03    -363.481E-03    -187.440E-03     34.7116E-03     52.6694E-03    -25.8187E-03    -26.8499E-03    -24.8178E-03     50.8093E-03    -25.9907E-03     22.7777E-03     193.472E+06     49.1013E+06    -12.0837E+06    -12.0830E+06     193.471E+06     49.1013E+06     99.0233E+03         31.6250
            1225     16.5667E-03     60.1654E-03     219.144E-03    -165.887E-03    -441.639E-03     218.520E-03    -441.015E-03    -165.887E-03    -13.3122E-03     52.4666E-03    -25.3934E-03    -27.0752E-03    -24.6201E-03     50.8341E-03    -26.2160E-03     10.9255E-03     206.756E+06     103.277E+06    -6.98982E+06    -6.98936E+06     206.755E+06     103.277E+06     190.149E+03         33.6632
            1226     973.793E-06     61.0064E-03         5.86866     688.520E-03        -6.96941        -5.60939     379.497E-03         4.81766        -2.59993     52.7244E-03    -26.2721E-03    -26.4527E-03    -26.3891E-03     52.7104E-03    -26.3217E-03     1.76657E-03    -36.0571E+06    -39.9841E+06    -214.335E+06    -39.5530E+06    -214.302E+06    -36.5213E+06    -924.109E+03         23.7801
            1227     1.94834E-03     61.0088E-03         1.34216    -400.684E-03        -1.34987    -419.699E-03     411.990E-03    -400.684E-03     761.783E-03     52.7670E-03    -26.3492E-03    -26.4176E-03    -26.3243E-03     52.7234E-03    -26.3988E-03     3.60258E-03    -30.8840E+06    -36.1322E+06    -216.171E+06    -36.1392E+06    -216.164E+06    -30.8840E+06     838.133E+03         23.8582
            1228     2.92285E-03     61.0138E-03     805.905E-03    -404.863E-03    -804.599E-03    -398.672E-03     399.977E-03    -404.863E-03    -414.054E-03     52.8988E-03    -26.4137E-03    -26.4845E-03    -26.3955E-03     52.8098E-03    -26.4137E-03     5.24549E-03    -27.3847E+06    -32.9189E+06    -218.129E+06    -32.9220E+06    -218.125E+06    -27.3847E+06     184.236E+03         23.9377
            1229     3.89648E-03     61.0196E-03     563.414E-03    -402.512E-03    -563.761E-03    -387.797E-03     387.449E-03    -402.512E-03     149.291E-03     52.9519E-03    -26.4344E-03    -26.5172E-03    -26.3718E-03     52.8065E-03    -26.4344E-03     6.75523E-03    -22.0976E+06    -30.6070E+06    -211.871E+06    -30.6084E+06    -211.869E+06    -22.0976E+06    -179.121E+03         24.0340
            1230     4.87125E-03     61.0276E-03     446.169E-03    -394.322E-03    -454.194E-03    -360.844E-03     356.037E-03    -397.540E-03    -132.561E-03     52.9505E-03    -26.4256E-03    -26.5247E-03    -26.3104E-03     52.7562E-03    -26.4456E-03     7.83840E-03    -15.5975E+06    -28.3994E+06    -202.762E+06    -28.4002E+06    -202.761E+06    -15.5975E+06     27.9935E+03         24.1570
            1231     5.84537E-03     61.0356E-03     363.052E-03    -365.473E-03    -399.323E-03    -335.947E-03     324.135E-03    -389.932E-03     74.0818E-03     52.9699E-03    -26.4181E-03    -26.5483E-03    -26.2690E-03     52.7116E-03    -26.4392E-03     9.01239E-03    -9.65948E+06    -25.9179E+06    -185.225E+06    -25.9246E+06    -185.219E+06    -9.65948E+06     814.444E+03         24.3093
            1232     6.81976E-03     61.0467E-03     295.471E-03    -320.240E-03    -380.245E-03    -299.359E-03     274.589E-03    -380.245E-03    -28.8913E-03     53.1166E-03    -26.4443E-03    -26.6692E-03    -26.3555E-03     52.8040E-03    -26.4454E-03     9.96559E-03    -3.43528E+06    -23.3576E+06    -170.729E+06    -23.3657E+06    -170.721E+06    -3.43528E+06     810.402E+03         24.4967
            1233     7.79382E-03     61.0562E-03     235.129E-03    -272.031E-03    -368.044E-03    -255.591E-03     218.690E-03    -368.044E-03     15.3752E-03     53.1965E-03    -26.4495E-03    -26.7628E-03    -26.3850E-03     52.8187E-03    -26.4495E-03     10.9333E-03    -55.5642E+03    -20.0181E+06    -159.769E+06    -20.0340E+06    -159.753E+06    -55.5642E+03     975.718E+03         24.7222
            1234     8.76786E-03     61.0693E-03     193.541E-03    -239.457E-03    -354.403E-03    -224.195E-03     178.278E-03    -354.403E-03     1.45990E-03     52.9867E-03    -26.3575E-03    -26.6399E-03    -26.1423E-03     52.5265E-03    -26.3949E-03     12.0606E-03    -2.60493E+06    -18.1708E+06    -136.046E+06    -18.2565E+06    -135.960E+06    -2.60493E+06     1.78031E+06         24.9958
            1235     9.74274E-03     61.0817E-03     147.964E-03    -206.986E-03    -340.543E-03    -195.571E-03     136.550E-03    -340.543E-03     37.4103E-03     52.8909E-03    -26.3012E-03    -26.5975E-03    -26.0161E-03     52.3469E-03    -26.3386E-03     13.0858E-03    -4.54578E+06    -18.6719E+06    -118.409E+06    -18.7504E+06    -118.330E+06    -4.54578E+06     1.07208E+06         25.3386
            1236     10.7165E-03     61.0958E-03     67.2278E-03    -139.906E-03    -324.909E-03    -127.027E-03     54.3496E-03    -324.909E-03    -1.82355E-03     52.8200E-03    -26.2711E-03    -26.5855E-03    -25.9493E-03     52.1839E-03    -26.2711E-03     14.1504E-03    -7.06071E+06    -17.5431E+06    -95.7222E+06    -17.5634E+06    -95.7019E+06    -7.06071E+06    -543.910E+03         25.7616
            1237     11.6917E-03     61.1107E-03     3.61635E-03    -91.4131E-03    -305.736E-03    -47.0337E-03    -40.7631E-03    -305.736E-03     30.8698E-03     52.6914E-03    -26.1692E-03    -26.5662E-03    -25.7883E-03     51.9135E-03    -26.1692E-03     15.5888E-03    -10.2123E+06    -15.7783E+06    -57.8706E+06    -15.7946E+06    -57.8543E+06    -10.2123E+06    -632.403E+03         26.3143
            1238     12.6663E-03     61.1277E-03    -1.18559E-03    -105.295E-03    -284.930E-03    -8.80857E-03    -97.6724E-03    -284.930E-03     27.4476E-03     52.5908E-03    -26.0651E-03    -26.5296E-03    -25.5823E-03     51.6434E-03    -26.0651E-03     17.1977E-03    -3.04732E+06    -14.3409E+06    -26.3615E+06    -15.1401E+06    -16.3847E+06    -12.2248E+06    -31.7185E+03         27.1206
            1239     13.6413E-03     61.1459E-03     30.3729E-03    -154.847E-03    -264.700E-03     22.1545E-03    -146.628E-03    -264.700E-03     22.2403E-03     52.7408E-03    -25.9446E-03    -26.7865E-03    -25.3642E-03     51.3186E-03    -25.9446E-03     20.8528E-03     45.8589E+06    -12.2583E+06    -14.5479E+06    -14.3842E+06     45.8444E+06    -12.4075E+06     184.901E+03         28.2789
            1240     14.6163E-03     61.1713E-03     95.2071E-03    -208.506E-03    -271.974E-03     92.0148E-03    -233.382E-03    -243.906E-03    -2.45461E-03     52.2844E-03    -25.7935E-03    -26.4962E-03    -25.1518E-03     51.0184E-03    -25.8719E-03     19.2899E-03     135.245E+06     3.91383E+06    -14.0823E+06    -14.0805E+06     135.243E+06     3.91383E+06     295.996E+03         29.8033
            1241     15.5913E-03     61.1863E-03     167.701E-03    -221.248E-03    -327.919E-03     166.421E-03    -326.638E-03    -221.248E-03     22.3765E-03     52.7235E-03    -25.9147E-03    -26.8081E-03    -24.8622E-03     50.8560E-03    -25.9931E-03     22.7562E-03     193.627E+06     48.9686E+06    -12.4722E+06    -12.4718E+06     193.626E+06     48.9686E+06     262.591E+03         31.6769
            1242     16.5664E-03     61.2194E-03     217.835E-03    -197.442E-03    -393.565E-03     216.732E-03    -392.462E-03    -197.442E-03    -24.7440E-03     52.4083E-03    -25.3812E-03    -27.0281E-03    -24.5423E-03     50.7544E-03    -26.2132E-03     10.9352E-03     206.492E+06     102.231E+06    -7.22089E+06    -7.22046E+06     206.492E+06     102.231E+06     174.288E+03         33.7281
            1243     974.692E-06     62.0588E-03         5.57145     694.543E-03        -6.66524        -5.46909     603.865E-03         4.46597        -2.42560     52.5094E-03    -26.1605E-03    -26.3498E-03    -26.2311E-03     52.4939E-03    -26.2637E-03     1.75072E-03    -37.2149E+06    -41.9827E+06    -214.976E+06    -42.0136E+06    -214.945E+06    -37.2149E+06    -513.191E+03         23.7696
            1244     1.94859E-03     62.0624E-03         1.36364    -499.449E-03        -1.25932    -489.496E-03     593.821E-03    -499.449E-03     758.051E-03     52.7231E-03    -26.3176E-03    -26.4075E-03    -26.3574E-03     52.6770E-03    -26.3216E-03     3.75728E-03    -30.9314E+06    -36.0949E+06    -215.667E+06    -36.1231E+06    -215.639E+06    -30.9314E+06    -1.14930E+06         23.8489
            1245     2.92251E-03     62.0664E-03     856.612E-03    -491.120E-03    -755.675E-03    -453.938E-03     554.875E-03    -491.120E-03    -368.849E-03     52.8181E-03    -26.3679E-03    -26.4508E-03    -26.3566E-03     52.7239E-03    -26.3679E-03     5.37921E-03    -27.0170E+06    -32.4990E+06    -218.729E+06    -32.5147E+06    -218.713E+06    -27.0170E+06    -604.649E+03         23.9306
            1246     3.89728E-03     62.0733E-03     634.664E-03    -473.851E-03    -550.392E-03    -417.293E-03     505.500E-03    -477.786E-03     145.477E-03     52.9011E-03    -26.3981E-03    -26.5030E-03    -26.3565E-03     52.7547E-03    -26.3981E-03     6.79683E-03    -21.0220E+06    -31.1978E+06    -212.206E+06    -31.2084E+06    -212.195E+06    -21.0220E+06     753.222E+03         24.0299
            1247     4.87109E-03     62.0802E-03     535.097E-03    -443.372E-03    -481.760E-03    -399.720E-03     473.928E-03    -464.243E-03    -121.587E-03     52.9898E-03    -26.4176E-03    -26.5734E-03    -26.3766E-03     52.7930E-03    -26.4176E-03     7.87337E-03    -15.6605E+06    -29.5820E+06    -202.602E+06    -29.5892E+06    -202.595E+06    -15.6605E+06     722.406E+03         24.1539
            1248     5.84522E-03     62.0896E-03     448.649E-03    -386.514E-03    -450.831E-03    -361.339E-03     423.474E-03    -450.831E-03     51.8300E-03     52.9950E-03    -26.4193E-03    -26.5715E-03    -26.3116E-03     52.7363E-03    -26.4204E-03     9.03752E-03    -11.3190E+06    -27.5563E+06    -185.987E+06    -27.5621E+06    -185.981E+06    -11.3190E+06     715.885E+03         24.3047
            1249     6.81967E-03     62.0989E-03     381.155E-03    -337.822E-03    -435.617E-03    -319.986E-03     363.320E-03    -435.617E-03    -11.4323E-03     53.0399E-03    -26.4202E-03    -26.6154E-03    -26.2899E-03     52.7155E-03    -26.4213E-03     10.1257E-03    -5.97451E+06    -24.8117E+06    -170.235E+06    -24.8192E+06    -170.228E+06    -5.97451E+06     713.967E+03         24.4906
            1250     7.79377E-03     62.1109E-03     336.144E-03    -305.677E-03    -419.909E-03    -292.683E-03     323.149E-03    -419.909E-03     31.5268E-03     53.0990E-03    -26.4161E-03    -26.6950E-03    -26.3118E-03     52.7157E-03    -26.4161E-03     11.0221E-03    -2.82059E+06    -22.0503E+06    -160.266E+06    -22.0531E+06    -160.263E+06    -2.82059E+06     348.038E+03         24.7171
            1251     8.76800E-03     62.1217E-03     270.828E-03    -252.709E-03    -403.457E-03    -241.168E-03     259.288E-03    -403.457E-03     5.87900E-03     52.9321E-03    -26.3257E-03    -26.6162E-03    -26.1235E-03     52.4769E-03    -26.3631E-03     11.9795E-03    -4.32880E+06    -18.4340E+06    -137.788E+06    -18.5036E+06    -137.719E+06    -4.32880E+06     1.23037E+06         24.9930
            1252     9.74268E-03     62.1351E-03     182.218E-03    -181.153E-03    -384.381E-03    -173.083E-03     174.148E-03    -384.381E-03     53.6272E-03     52.8295E-03    -26.2839E-03    -26.5588E-03    -25.9833E-03     52.2915E-03    -26.3214E-03     13.0110E-03    -1.94085E+06    -14.5208E+06    -116.551E+06    -14.6043E+06    -116.468E+06    -1.94085E+06     1.38423E+06         25.3375
            1253     10.7176E-03     62.1490E-03     105.050E-03    -124.903E-03    -363.030E-03    -115.669E-03     95.8152E-03    -363.030E-03     28.1290E-03     52.7883E-03    -26.2567E-03    -26.5709E-03    -25.9559E-03     52.1733E-03    -26.2567E-03     13.9046E-03    -4.39583E+06    -14.4709E+06    -94.6489E+06    -14.5026E+06    -94.6172E+06    -4.39583E+06     360.361E+03         25.7606
            1254     11.6917E-03     62.1637E-03     52.6270E-03    -95.9510E-03    -340.766E-03    -65.7447E-03     22.4208E-03    -340.766E-03     54.6350E-03     52.6856E-03    -26.1611E-03    -26.5719E-03    -25.8126E-03     51.9262E-03    -26.1611E-03     15.4017E-03    -9.41217E+06    -16.3309E+06    -58.5023E+06    -16.3497E+06    -58.4834E+06    -9.41217E+06    -14.2576E+03         26.3158
            1255     12.6665E-03     62.1810E-03     22.0450E-03    -86.5438E-03    -318.289E-03    -19.3373E-03    -45.1615E-03    -318.289E-03     34.6365E-03     52.6339E-03    -26.0647E-03    -26.5776E-03    -25.6581E-03     51.7144E-03    -26.0647E-03     16.9610E-03    -1.60484E+06    -15.0022E+06    -27.0892E+06    -16.5323E+06    -16.0092E+06    -11.1547E+06    -269.436E+03         27.1311
            1256     13.6412E-03     62.1989E-03     32.5730E-03    -115.420E-03    -295.932E-03     23.4277E-03    -106.275E-03    -295.932E-03     12.1965E-03     52.8944E-03    -25.9409E-03    -26.9460E-03    -25.5388E-03     51.4872E-03    -25.9409E-03     20.7616E-03     45.5384E+06    -13.1350E+06    -16.0611E+06    -16.0494E+06     45.5267E+06    -13.1350E+06    -260.745E+03         28.3020
            1257     14.6161E-03     62.2244E-03     82.5110E-03    -180.126E-03    -276.606E-03     78.6758E-03    -179.570E-03    -273.327E-03    -6.93746E-03     52.3266E-03    -25.7462E-03    -26.5841E-03    -25.1914E-03     51.0586E-03    -25.8708E-03     19.3219E-03     134.334E+06     2.39883E+06    -14.4657E+06    -14.4599E+06     134.328E+06     2.39883E+06     248.395E+03         29.8400
            1258     15.5909E-03     62.2400E-03     154.555E-03    -228.094E-03    -296.006E-03     152.731E-03    -272.734E-03    -249.542E-03     17.2872E-03     52.5951E-03    -25.8674E-03    -26.7246E-03    -24.7355E-03     50.7305E-03    -25.9920E-03     22.7015E-03     193.816E+06     48.7829E+06    -11.8206E+06    -11.8190E+06     193.815E+06     48.7829E+06     434.085E+03         31.7295
            1259     16.5669E-03     62.2717E-03     211.429E-03    -224.562E-03    -349.167E-03     210.718E-03    -348.456E-03    -224.562E-03    -5.56367E-03     52.2711E-03    -25.3312E-03    -26.9419E-03    -24.4216E-03     50.6289E-03    -26.2093E-03     11.0376E-03     206.792E+06     102.706E+06    -7.04588E+06    -7.04537E+06     206.792E+06     102.706E+06     41.1692E+03         33.7941
            1260     974.285E-06     63.1124E-03         5.32253     657.905E-03        -6.37445        -5.30503     737.160E-03         4.17386        -2.22500     52.3996E-03    -26.0727E-03    -26.3281E-03    -26.1873E-03     52.3854E-03    -26.1993E-03     1.93200E-03    -35.0295E+06    -41.5510E+06    -213.404E+06    -39.2533E+06    -213.355E+06    -37.3761E+06    -1.30065E+06         23.7600
            1261     1.94864E-03     63.1150E-03         1.37316    -559.569E-03        -1.19953    -536.724E-03     710.361E-03    -559.569E-03     771.374E-03     52.6032E-03    -26.2426E-03    -26.3623E-03    -26.2902E-03     52.5585E-03    -26.2700E-03     3.62874E-03    -29.8415E+06    -37.2570E+06    -214.521E+06    -37.2822E+06    -214.496E+06    -29.8415E+06    -1.46726E+06         23.8429
            1262     2.92320E-03     63.1198E-03     900.366E-03    -544.013E-03    -738.486E-03    -484.049E-03     645.930E-03    -544.013E-03    -284.542E-03     52.7638E-03    -26.3225E-03    -26.4412E-03    -26.3488E-03     52.6714E-03    -26.3225E-03     5.35318E-03    -27.3266E+06    -35.2223E+06    -219.040E+06    -35.2422E+06    -219.020E+06    -27.3266E+06    -949.507E+03         23.9267
            1263     3.89694E-03     63.1260E-03     716.921E-03    -521.689E-03    -578.657E-03    -475.143E-03     619.362E-03    -527.645E-03     238.412E-03     52.8809E-03    -26.3671E-03    -26.5133E-03    -26.3678E-03     52.7354E-03    -26.3671E-03     6.75347E-03    -21.0450E+06    -31.6244E+06    -213.589E+06    -31.6389E+06    -213.575E+06    -21.0450E+06     575.002E+03         24.0252
            1264     4.87141E-03     63.1339E-03     610.013E-03    -477.789E-03    -514.449E-03    -445.551E-03     577.776E-03    -514.449E-03    -44.7627E-03     52.9343E-03    -26.3928E-03    -26.5410E-03    -26.3399E-03     52.7333E-03    -26.3928E-03     7.95685E-03    -14.3393E+06    -28.1899E+06    -202.884E+06    -28.2010E+06    -202.873E+06    -14.3393E+06     1.16510E+06         24.1482
            1265     5.84570E-03     63.1424E-03     520.405E-03    -403.355E-03    -498.352E-03    -384.036E-03     501.087E-03    -498.352E-03     57.5873E-03     52.9700E-03    -26.3934E-03    -26.5704E-03    -26.3007E-03     52.7003E-03    -26.3934E-03     9.21385E-03    -9.73613E+06    -25.0638E+06    -185.918E+06    -25.0690E+06    -185.913E+06    -9.73613E+06     794.491E+03         24.2981
            1266     6.81967E-03     63.1527E-03     460.643E-03    -361.566E-03    -479.507E-03    -343.952E-03     443.030E-03    -479.507E-03     30.4396E-03     53.0183E-03    -26.3930E-03    -26.6199E-03    -26.2721E-03     52.6705E-03    -26.3930E-03     10.4849E-03    -5.30044E+06    -22.8646E+06    -170.740E+06    -22.8744E+06    -170.730E+06    -5.30044E+06     1.03742E+06         24.4827
            1267     7.79424E-03     63.1636E-03     418.959E-03    -335.218E-03    -461.404E-03    -320.552E-03     404.293E-03    -461.404E-03     63.7994E-03     52.9872E-03    -26.3822E-03    -26.6133E-03    -26.2226E-03     52.5965E-03    -26.3822E-03     11.1246E-03    -3.15069E+06    -21.2660E+06    -160.002E+06    -21.2748E+06    -159.993E+06    -3.15069E+06     798.005E+03         24.7109
            1268     8.76875E-03     63.1753E-03     325.426E-03    -256.613E-03    -442.195E-03    -248.068E-03     316.880E-03    -442.195E-03    -714.909E-06     52.9748E-03    -26.3255E-03    -26.6640E-03    -26.2094E-03     52.5201E-03    -26.3255E-03     11.9747E-03    -6.35361E+06    -19.8983E+06    -137.890E+06    -19.9014E+06    -137.887E+06    -6.35361E+06    -244.813E+03         24.9914
            1269     9.74267E-03     63.1881E-03     210.151E-03    -162.726E-03    -418.596E-03    -154.844E-03     202.269E-03    -418.596E-03     33.1486E-03     52.9046E-03    -26.3034E-03    -26.6248E-03    -26.0961E-03     52.3758E-03    -26.3034E-03     12.9242E-03    -4.01401E+06    -18.8492E+06    -117.504E+06    -18.8721E+06    -117.481E+06    -4.01401E+06     684.102E+03         25.3384
            1270     10.7170E-03     63.2020E-03     137.251E-03    -116.083E-03    -392.812E-03    -107.505E-03     128.673E-03    -392.812E-03     8.55700E-03     52.7299E-03    -26.2517E-03    -26.5247E-03    -25.9229E-03     52.1281E-03    -26.2517E-03     13.7411E-03    -4.48513E+06    -17.2803E+06    -94.0076E+06    -17.3135E+06    -93.9744E+06    -4.48513E+06     1.57539E+06         25.7606
            1271     11.6920E-03     63.2171E-03     97.5826E-03    -102.264E-03    -368.733E-03    -93.0092E-03     88.3273E-03    -368.733E-03     37.1754E-03     52.6823E-03    -26.1519E-03    -26.5799E-03    -25.8360E-03     51.9383E-03    -26.1519E-03     15.2564E-03    -9.18576E+06    -16.1589E+06    -57.7257E+06    -16.1766E+06    -57.7080E+06    -9.18576E+06     802.067E+03         26.3174
            1272     12.6665E-03     63.2337E-03     46.0239E-03    -73.2928E-03    -345.922E-03    -41.2652E-03     13.9963E-03    -345.922E-03     22.1101E-03     52.7399E-03    -26.0650E-03    -26.6772E-03    -25.7611E-03     51.8238E-03    -26.0650E-03     16.9408E-03    -73.1639E+03    -13.9835E+06    -27.5740E+06    -15.8803E+06    -15.5549E+06    -10.1955E+06     173.002E+03         27.1409
            1273     13.6413E-03     63.2526E-03     50.7046E-03    -97.6596E-03    -321.641E-03     42.1336E-03    -89.0886E-03    -321.641E-03     9.02037E-03     52.9832E-03    -25.9489E-03    -27.0265E-03    -25.6227E-03     51.5794E-03    -25.9489E-03     20.7910E-03     46.1104E+06    -12.1490E+06    -15.9239E+06    -15.9207E+06     46.1071E+06    -12.1490E+06    -385.752E+03         28.3234
            1274     14.6157E-03     63.2776E-03     95.2459E-03    -163.563E-03    -296.117E-03     92.1324E-03    -160.450E-03    -296.117E-03     7.83884E-03     52.2551E-03    -25.6720E-03    -26.5887E-03    -25.1193E-03     50.9943E-03    -25.8807E-03     19.3008E-03     133.049E+06     2.74795E+06    -15.1710E+06    -15.1662E+06     133.044E+06     2.74795E+06    -216.223E+03         29.8737
            1275     15.5916E-03     63.2929E-03     129.957E-03    -212.743E-03    -281.116E-03     128.078E-03    -220.907E-03    -271.074E-03     25.4531E-03     52.4456E-03    -25.7821E-03    -26.6605E-03    -24.6191E-03     50.6129E-03    -25.9908E-03     22.5555E-03     193.289E+06     48.4736E+06    -12.0923E+06    -12.0905E+06     193.288E+06     48.4736E+06     294.455E+03         31.7776
            1276     16.5667E-03     63.3250E-03     196.782E-03    -236.162E-03    -323.738E-03     196.409E-03    -313.670E-03    -245.858E-03     14.9898E-03     52.1816E-03    -25.3153E-03    -26.8719E-03    -24.3889E-03     50.5856E-03    -26.2022E-03     10.8882E-03     207.221E+06     102.685E+06    -6.59467E+06    -6.59398E+06     207.220E+06     102.685E+06    -98.1098E+03         33.8539
            1277     974.340E-06     64.1654E-03         5.05525     537.729E-03        -5.97826        -5.10803     773.692E-03         3.94905        -1.93010     52.4031E-03    -26.1344E-03    -26.2693E-03    -26.2273E-03     52.3884E-03    -26.1618E-03     2.12097E-03    -33.8823E+06    -42.6758E+06    -212.959E+06    -40.3653E+06    -212.923E+06    -36.2289E+06    -1.35009E+06         23.7516
            1278     1.94882E-03     64.1677E-03         1.31695    -578.493E-03        -1.11835    -575.483E-03     774.080E-03    -578.493E-03     671.284E-03     52.5872E-03    -26.2530E-03    -26.3352E-03    -26.2629E-03     52.5422E-03    -26.2804E-03     3.59483E-03    -27.6016E+06    -38.2047E+06    -213.937E+06    -38.2119E+06    -213.930E+06    -27.6016E+06     628.832E+03         23.8386
            1279     2.92276E-03     64.1730E-03     922.840E-03    -570.501E-03    -732.843E-03    -526.528E-03     716.525E-03    -570.501E-03    -269.552E-03     52.7578E-03    -26.3262E-03    -26.4309E-03    -26.3397E-03     52.6695E-03    -26.3292E-03     5.25781E-03    -24.6464E+06    -34.9493E+06    -218.294E+06    -34.9609E+06    -218.283E+06    -24.6464E+06    -274.277E+03         23.9226
            1280     3.89730E-03     64.1790E-03     772.662E-03    -544.214E-03    -605.515E-03    -517.777E-03     698.988E-03    -558.279E-03     199.723E-03     52.7785E-03    -26.3445E-03    -26.4318E-03    -26.2836E-03     52.6333E-03    -26.3475E-03     6.71201E-03    -22.6183E+06    -32.3189E+06    -214.945E+06    -32.3247E+06    -214.939E+06    -22.6183E+06    -689.895E+03         24.0191
            1281     4.87146E-03     64.1869E-03     666.692E-03    -497.124E-03    -545.904E-03    -470.791E-03     640.359E-03    -545.904E-03    -50.8839E-03     52.7983E-03    -26.3526E-03    -26.4447E-03    -26.2409E-03     52.5945E-03    -26.3526E-03     8.01617E-03    -16.8152E+06    -29.2855E+06    -203.511E+06    -29.2899E+06    -203.507E+06    -16.8152E+06     295.528E+03         24.1410
            1282     5.84574E-03     64.1956E-03     609.336E-03    -452.409E-03    -530.815E-03    -437.202E-03     594.129E-03    -530.815E-03     46.6570E-03     52.8814E-03    -26.3533E-03    -26.5212E-03    -26.2530E-03     52.6133E-03    -26.3533E-03     9.17566E-03    -10.1209E+06    -25.5016E+06    -185.618E+06    -25.5069E+06    -185.612E+06    -10.1209E+06     352.632E+03         24.2908
            1283     6.82047E-03     64.2057E-03     543.801E-03    -401.791E-03    -514.396E-03    -389.722E-03     531.732E-03    -514.396E-03     6.44852E-03     52.9622E-03    -26.3556E-03    -26.5996E-03    -26.2614E-03     52.6241E-03    -26.3556E-03     10.3410E-03    -5.07718E+06    -21.6382E+06    -171.648E+06    -21.6469E+06    -171.640E+06    -5.07718E+06     386.686E+03         24.4760
            1284     7.79441E-03     64.2170E-03     446.893E-03    -320.736E-03    -494.211E-03    -308.587E-03     434.743E-03    -494.211E-03     23.9797E-03     52.9869E-03    -26.3551E-03    -26.6410E-03    -26.2602E-03     52.6061E-03    -26.3551E-03     10.9811E-03    -2.17804E+06    -18.6132E+06    -159.605E+06    -18.6316E+06    -159.586E+06    -2.17804E+06     990.488E+03         24.7062
            1285     8.76853E-03     64.2284E-03     353.569E-03    -247.959E-03    -470.114E-03    -239.890E-03     345.500E-03    -470.114E-03    -30.6436E-03     52.9642E-03    -26.3176E-03    -26.6685E-03    -26.2155E-03     52.5113E-03    -26.3176E-03     11.9545E-03    -4.13849E+06    -18.2461E+06    -138.220E+06    -18.3007E+06    -138.165E+06    -4.13849E+06     1.72181E+06         24.9897
            1286     9.74312E-03     64.2418E-03     278.311E-03    -195.878E-03    -444.797E-03    -188.634E-03     271.067E-03    -444.797E-03    -7.66146E-03     52.9410E-03    -26.2872E-03    -26.6871E-03    -26.1584E-03     52.4123E-03    -26.2872E-03     12.9314E-03    -4.11632E+06    -18.8894E+06    -118.666E+06    -18.9405E+06    -118.615E+06    -4.11632E+06     1.57740E+06         25.3377
            1287     10.7175E-03     64.2548E-03     199.628E-03    -141.667E-03    -419.429E-03    -136.124E-03     194.085E-03    -419.429E-03    -35.0571E-03     52.8098E-03    -26.2315E-03    -26.6332E-03    -26.0233E-03     52.1998E-03    -26.2315E-03     13.8492E-03    -5.83656E+06    -17.5779E+06    -92.9931E+06    -17.5903E+06    -92.9807E+06    -5.83656E+06     574.252E+03         25.7590
            1288     11.6919E-03     64.2702E-03     119.719E-03    -84.6458E-03    -393.777E-03    -78.7926E-03     113.866E-03    -393.777E-03    -9.36279E-03     52.7036E-03    -26.1387E-03    -26.6161E-03    -25.8599E-03     51.9474E-03    -26.1387E-03     15.3865E-03    -10.2463E+06    -15.6551E+06    -57.2280E+06    -15.6655E+06    -57.2176E+06    -10.2463E+06     161.215E+03         26.3178
            1289     12.6665E-03     64.2870E-03     53.1550E-03    -40.4532E-03    -367.436E-03    -15.1799E-03     27.8818E-03    -367.436E-03    -13.8154E-03     52.8119E-03    -26.0523E-03    -26.7581E-03    -25.8127E-03     51.8665E-03    -26.0523E-03     17.2144E-03    -878.160E+03    -13.5588E+06    -27.0385E+06    -14.7292E+06    -15.4325E+06    -11.3137E+06    -5.89637E+03         27.1491
            1290     13.6408E-03     64.3060E-03     50.6743E-03    -65.7730E-03    -340.439E-03     44.6463E-03    -59.7449E-03    -340.439E-03     1.93038E-03     52.9952E-03    -25.9448E-03    -27.0427E-03    -25.6280E-03     51.5804E-03    -25.9448E-03     20.9096E-03     46.4918E+06    -11.9545E+06    -14.5423E+06    -14.4606E+06     46.4893E+06    -12.0337E+06    -26.5034E+03         28.3419
            1291     14.6162E-03     64.3305E-03     101.753E-03    -142.539E-03    -313.266E-03     97.7398E-03    -138.526E-03    -313.266E-03     16.2086E-03     52.2385E-03    -25.7050E-03    -26.5434E-03    -25.1208E-03     50.9885E-03    -25.8775E-03     19.2262E-03     133.222E+06     2.77601E+06    -14.0981E+06    -14.0961E+06     133.220E+06     2.77601E+06    -157.837E+03         29.9022
            1292     15.5908E-03     64.3461E-03     131.802E-03    -197.182E-03    -286.835E-03     129.055E-03    -194.435E-03    -286.835E-03     27.3873E-03     52.4759E-03    -25.8152E-03    -26.6600E-03    -24.6741E-03     50.6625E-03    -25.9877E-03     22.4702E-03     193.188E+06     47.8241E+06    -11.5828E+06    -11.5821E+06     193.187E+06     47.8241E+06    -208.681E+03         31.8162
            1293     16.5670E-03     64.3775E-03     176.634E-03    -231.879E-03    -296.701E-03     175.423E-03    -266.186E-03    -261.183E-03    -19.2362E-03     52.1557E-03    -25.2877E-03    -26.8729E-03    -24.3843E-03     50.5800E-03    -26.2006E-03     10.8028E-03     207.005E+06     102.014E+06    -6.37757E+06    -6.37663E+06     207.004E+06     102.014E+06     41.4884E+03         33.9005
            1294     974.501E-06     65.2178E-03         4.64249     454.981E-03        -5.46947        -4.85505     834.136E-03         3.64891        -1.68650     52.3974E-03    -26.1470E-03    -26.2521E-03    -26.2359E-03     52.3813E-03    -26.1470E-03     2.06410E-03    -34.2837E+06    -40.8748E+06    -214.299E+06    -40.9032E+06    -214.271E+06    -34.2837E+06     1.11198E+06         23.7441
            1295     1.94853E-03     65.2209E-03         1.19265    -601.765E-03    -961.621E-03    -596.246E-03     827.271E-03    -601.765E-03     465.091E-03     52.6408E-03    -26.2816E-03    -26.3605E-03    -26.3129E-03     52.5933E-03    -26.2817E-03     3.75523E-03    -27.4208E+06    -36.4037E+06    -214.944E+06    -36.4224E+06    -214.926E+06    -27.4208E+06     1.64152E+06         23.8323
            1296     2.92296E-03     65.2259E-03     941.859E-03    -597.798E-03    -714.433E-03    -581.299E-03     808.726E-03    -597.798E-03    -254.807E-03     52.7000E-03    -26.3283E-03    -26.3719E-03    -26.2774E-03     52.6086E-03    -26.3314E-03     5.32399E-03    -23.5895E+06    -33.7665E+06    -217.313E+06    -33.7865E+06    -217.293E+06    -23.5895E+06     1.37929E+06         23.9161
            1297     3.89708E-03     65.2319E-03     805.005E-03    -554.893E-03    -616.053E-03    -531.474E-03     753.679E-03    -588.146E-03     95.2681E-03     52.7034E-03    -26.3341E-03    -26.3686E-03    -26.2217E-03     52.5594E-03    -26.3371E-03     6.70091E-03    -21.1145E+06    -32.3188E+06    -214.820E+06    -32.3308E+06    -214.808E+06    -21.1145E+06     200.255E+03         24.0144
            1298     4.87171E-03     65.2398E-03     703.090E-03    -496.220E-03    -571.318E-03    -471.923E-03     678.793E-03    -571.318E-03    -91.4296E-03     52.7316E-03    -26.3195E-03    -26.4114E-03    -26.2058E-03     52.5260E-03    -26.3195E-03     8.03204E-03    -18.9303E+06    -30.3529E+06    -203.728E+06    -30.3540E+06    -203.727E+06    -18.9303E+06    -309.968E+03         24.1365
            1299     5.84611E-03     65.2486E-03     661.276E-03    -470.158E-03    -553.906E-03    -462.007E-03     653.125E-03    -553.906E-03     55.5961E-03     52.8310E-03    -26.3139E-03    -26.5116E-03    -26.2410E-03     52.5604E-03    -26.3139E-03     9.23402E-03    -13.8784E+06    -27.6944E+06    -185.164E+06    -27.7027E+06    -185.155E+06    -13.8784E+06    -702.494E+03         24.2847
            1300     6.81991E-03     65.2590E-03     589.796E-03    -416.768E-03    -537.385E-03    -411.115E-03     584.143E-03    -537.385E-03     19.6344E-03     52.8627E-03    -26.3178E-03    -26.5441E-03    -26.2070E-03     52.5256E-03    -26.3178E-03     10.3084E-03    -8.99800E+06    -24.7360E+06    -171.829E+06    -24.7461E+06    -171.819E+06    -8.99800E+06    -1.04570E+06         24.4696
            1301     7.79464E-03     65.2700E-03     469.777E-03    -315.420E-03    -515.510E-03    -307.594E-03     461.951E-03    -515.510E-03     14.1626E-03     52.8545E-03    -26.3073E-03    -26.5582E-03    -26.1626E-03     52.4589E-03    -26.3073E-03     11.1729E-03    -6.52234E+06    -21.8264E+06    -161.403E+06    -21.8419E+06    -161.387E+06    -6.52234E+06     526.973E+03         24.7009
            1302     8.76904E-03     65.2819E-03     380.518E-03    -248.871E-03    -488.983E-03    -242.621E-03     374.268E-03    -488.983E-03    -18.0343E-03     52.8971E-03    -26.2671E-03    -26.6408E-03    -26.1722E-03     52.4286E-03    -26.2671E-03     12.1573E-03    -6.68079E+06    -18.7950E+06    -139.585E+06    -18.8567E+06    -139.524E+06    -6.68079E+06     2.34132E+06         24.9854
            1303     9.74329E-03     65.2945E-03     333.339E-03    -222.997E-03    -463.242E-03    -218.710E-03     329.052E-03    -463.242E-03     6.74585E-03     52.9212E-03    -26.2403E-03    -26.7046E-03    -26.1632E-03     52.3799E-03    -26.2403E-03     13.0815E-03    -4.86284E+06    -16.3762E+06    -116.847E+06    -16.4261E+06    -116.797E+06    -4.86284E+06     1.70066E+06         25.3333
            1304     10.7176E-03     65.3087E-03     254.144E-03    -166.245E-03    -438.614E-03    -161.933E-03     249.832E-03    -438.614E-03    -6.06817E-03     52.8742E-03    -26.1970E-03    -26.7304E-03    -26.1212E-03     52.2650E-03    -26.1970E-03     13.8636E-03    -6.03625E+06    -15.1393E+06    -91.9051E+06    -15.1421E+06    -91.9023E+06    -6.03625E+06     109.870E+03         25.7548
            1305     11.6920E-03     65.3229E-03     133.074E-03    -68.5790E-03    -411.613E-03    -61.3224E-03     125.817E-03    -411.613E-03     9.74654E-03     52.8217E-03    -26.1218E-03    -26.7509E-03    -25.9827E-03     52.0536E-03    -26.1218E-03     15.5153E-03    -10.7284E+06    -14.3121E+06    -57.3972E+06    -14.3263E+06    -57.3831E+06    -10.7284E+06    -497.730E+03         26.3171
            1306     12.6668E-03     65.3406E-03     59.3491E-03    -19.2572E-03    -381.817E-03     17.7681E-03     22.3237E-03    -381.817E-03     2.26404E-03     52.8317E-03    -26.0422E-03    -26.7882E-03    -25.8275E-03     51.8710E-03    -26.0422E-03     17.3702E-03    -2.07747E+06    -12.7414E+06    -26.2434E+06    -13.8141E+06    -15.4315E+06    -11.8166E+06    -437.657E+03         27.1557
            1307     13.6415E-03     65.3592E-03     51.0297E-03    -40.7095E-03    -352.573E-03     40.7312E-03    -30.4111E-03    -352.573E-03     12.6902E-03     52.9499E-03    -25.9323E-03    -27.0084E-03    -25.6064E-03     51.5480E-03    -25.9323E-03     20.8041E-03     46.1742E+06    -12.5115E+06    -13.7432E+06    -13.6615E+06     46.1716E+06    -12.5907E+06     203.200E+03         28.3566
            1308     14.6159E-03     65.3839E-03     80.8195E-03    -95.0058E-03    -325.381E-03     74.0663E-03    -88.2527E-03    -325.381E-03     1.35967E-03     52.2564E-03    -25.7294E-03    -26.5372E-03    -25.1529E-03     51.0089E-03    -25.8661E-03     19.2313E-03     133.559E+06     2.29618E+06    -13.8153E+06    -13.8132E+06     133.557E+06     2.29618E+06     313.575E+03         29.9242
            1309     15.5917E-03     65.3990E-03     132.612E-03    -169.424E-03    -298.876E-03     129.233E-03    -166.045E-03    -298.876E-03     6.98917E-03     52.5288E-03    -25.8492E-03    -26.6797E-03    -24.7220E-03     50.7079E-03    -25.9860E-03     22.5475E-03     193.537E+06     48.5562E+06    -11.5240E+06    -11.5233E+06     193.536E+06     48.5562E+06    -130.381E+03         31.8440
            1310     16.5664E-03     65.4309E-03     175.828E-03    -228.576E-03    -277.465E-03     173.117E-03    -230.791E-03    -272.539E-03    -57.3032E-03     52.1547E-03    -25.2668E-03    -26.8898E-03    -24.3873E-03     50.5814E-03    -26.1961E-03     10.9179E-03     206.750E+06     101.630E+06    -6.62542E+06    -6.62452E+06     206.750E+06     101.630E+06     96.2441E+03         33.9328
            1311     974.402E-06     66.2705E-03         4.31635     335.726E-03        -4.99461        -4.62723     918.543E-03         3.36616        -1.28408     52.4080E-03    -26.1077E-03    -26.3012E-03    -26.1690E-03     52.3907E-03    -26.2226E-03     2.00399E-03    -36.6533E+06    -41.5472E+06    -217.249E+06    -40.6031E+06    -217.223E+06    -37.6235E+06     1.30279E+06         23.7416
            1312     1.94874E-03     66.2743E-03         1.11736    -626.144E-03    -842.176E-03    -632.338E-03     912.399E-03    -631.025E-03     370.773E-03     52.5295E-03    -26.2088E-03    -26.3208E-03    -26.2203E-03     52.4806E-03    -26.2605E-03     3.86528E-03    -29.1353E+06    -36.7011E+06    -216.387E+06    -36.7269E+06    -216.362E+06    -29.1353E+06     1.93602E+06         23.8278
            1313     2.92296E-03     66.2784E-03     914.315E-03    -603.473E-03    -664.852E-03    -578.465E-03     848.333E-03    -623.877E-03    -201.488E-03     52.6376E-03    -26.2965E-03    -26.3408E-03    -26.2480E-03     52.5449E-03    -26.2966E-03     5.34729E-03    -23.7790E+06    -33.8827E+06    -217.313E+06    -33.9125E+06    -217.283E+06    -23.7790E+06     2.24070E+06         23.9117
            1314     3.89750E-03     66.2852E-03     812.528E-03    -549.242E-03    -614.303E-03    -533.475E-03     789.626E-03    -607.167E-03     47.7017E-03     52.7385E-03    -26.3203E-03    -26.4194E-03    -26.2760E-03     52.5951E-03    -26.3203E-03     6.70821E-03    -18.8684E+06    -30.6218E+06    -213.236E+06    -30.6389E+06    -213.219E+06    -18.8684E+06     1.28777E+06         24.0109
            1315     4.87158E-03     66.2923E-03     734.329E-03    -497.736E-03    -587.651E-03    -484.038E-03     720.630E-03    -587.651E-03    -46.0337E-03     52.7464E-03    -26.3105E-03    -26.4367E-03    -26.2343E-03     52.5440E-03    -26.3105E-03     7.96537E-03    -17.6395E+06    -28.1020E+06    -202.954E+06    -28.1091E+06    -202.947E+06    -17.6395E+06    -180.264E+03         24.1342
            1316     5.84592E-03     66.3020E-03     654.231E-03    -439.189E-03    -566.378E-03    -434.796E-03     649.838E-03    -566.378E-03     63.7728E-03     52.7015E-03    -26.2857E-03    -26.4110E-03    -26.1261E-03     52.4230E-03    -26.2921E-03     9.34593E-03    -14.2071E+06    -26.1035E+06    -184.725E+06    -26.1151E+06    -184.713E+06    -14.2071E+06    -790.889E+03         24.2825
            1317     6.82070E-03     66.3119E-03     573.949E-03    -383.110E-03    -543.758E-03    -380.418E-03     571.257E-03    -543.758E-03     29.3672E-03     52.7607E-03    -26.2808E-03    -26.4805E-03    -26.1281E-03     52.4148E-03    -26.2872E-03     10.4373E-03    -9.24363E+06    -24.6119E+06    -172.149E+06    -24.6214E+06    -172.140E+06    -9.24363E+06    -753.709E+03         24.4674
            1318     7.79492E-03     66.3230E-03     509.650E-03    -344.097E-03    -520.799E-03    -340.467E-03     506.020E-03    -520.799E-03     13.3175E-03     52.8073E-03    -26.2701E-03    -26.5538E-03    -26.1550E-03     52.4086E-03    -26.2701E-03     11.2140E-03    -8.83199E+06    -23.3505E+06    -163.490E+06     -23.357E+06    -163.483E+06    -8.83199E+06    -327.297E+03         24.6980
            1319     8.76941E-03     66.3348E-03     428.959E-03    -282.594E-03    -497.384E-03    -278.705E-03     425.070E-03    -497.384E-03     6.87150E-03     52.8270E-03    -26.2230E-03    -26.6278E-03    -26.1642E-03     52.3634E-03    -26.2230E-03     12.0918E-03    -10.0384E+06    -20.5486E+06    -140.347E+06    -20.5602E+06    -140.336E+06    -10.0384E+06     123.162E+03         24.9808
            1320     9.74375E-03     66.3482E-03     340.934E-03    -213.610E-03    -472.190E-03    -210.476E-03     337.800E-03    -472.190E-03     29.3783E-03     52.8620E-03    -26.2056E-03    -26.6874E-03    -26.1537E-03     52.3283E-03    -26.2056E-03     12.9800E-03    -5.85170E+06    -17.4591E+06    -115.563E+06    -17.4690E+06    -115.554E+06    -5.85170E+06     495.540E+03         25.3282
            1321     10.7181E-03     66.3616E-03     250.990E-03    -146.349E-03    -445.421E-03    -143.766E-03     248.407E-03    -445.421E-03     7.41565E-03     52.8440E-03    -26.1698E-03    -26.7280E-03    -26.1249E-03     52.2409E-03    -26.1698E-03     13.7927E-03    -6.12290E+06    -15.6295E+06    -90.9026E+06    -15.6412E+06    -90.8909E+06    -6.12290E+06     5.64980E+03         25.7513
            1322     11.6924E-03     66.3765E-03     158.004E-03    -77.0182E-03    -417.340E-03    -72.3681E-03     153.354E-03    -417.340E-03     10.3359E-03     52.8982E-03    -26.1002E-03    -26.8538E-03    -26.0880E-03     52.1323E-03    -26.1002E-03     15.5032E-03    -10.8192E+06    -14.6058E+06    -57.0967E+06    -14.6269E+06    -57.0756E+06    -10.8192E+06    -703.924E+03         26.3170
            1323     12.6666E-03     66.3936E-03     84.0206E-03    -29.7714E-03    -388.375E-03    -8.34061E-03     62.5898E-03    -388.375E-03     1.14270E-03     52.8738E-03    -26.0369E-03    -26.8390E-03    -25.8805E-03     51.9153E-03    -26.0369E-03     17.3628E-03    -2.36701E+06    -12.4137E+06    -26.8702E+06    -14.6192E+06    -15.9636E+06    -11.0682E+06    -159.612E+03         27.1610
            1324     13.6411E-03     66.4126E-03     52.8032E-03    -27.8654E-03    -359.918E-03     29.7740E-03    -4.83622E-03    -359.918E-03     11.2020E-03     52.8550E-03    -25.9260E-03    -26.9184E-03    -25.5221E-03     51.4587E-03    -25.9260E-03     20.7316E-03     45.2723E+06    -12.5754E+06    -14.8443E+06    -14.8367E+06     45.2647E+06    -12.5754E+06     389.454E+03         28.3676
            1325     14.6165E-03     66.4368E-03     67.9140E-03    -66.3932E-03    -332.893E-03     63.1639E-03    -61.6432E-03    -332.893E-03    -15.3349E-03     52.1776E-03    -25.7139E-03    -26.4711E-03    -25.0729E-03     50.9151E-03    -25.8495E-03     19.3605E-03     133.760E+06     1.97191E+06    -13.9805E+06    -13.9784E+06     133.758E+06     1.97191E+06     536.896E+03         29.9400
            1326     15.5911E-03     66.4526E-03     126.654E-03    -151.799E-03    -306.283E-03     125.224E-03    -150.370E-03    -306.283E-03    -2.66228E-03     52.5379E-03    -25.8317E-03    -26.7055E-03    -24.7368E-03     50.7048E-03    -25.9673E-03     22.6928E-03     193.689E+06     47.9402E+06    -11.9590E+06    -11.9576E+06     193.688E+06     47.9402E+06     165.385E+03         31.8630
            1327     16.5674E-03     66.4833E-03     185.798E-03    -231.895E-03    -279.238E-03     183.237E-03    -229.334E-03    -279.238E-03    -9.14133E-03     52.2863E-03    -25.3632E-03    -26.9243E-03    -24.5315E-03     50.7164E-03    -26.1861E-03     10.9005E-03     206.692E+06     101.550E+06    -7.13107E+06    -7.13061E+06     206.692E+06     101.550E+06    -21.4212E+03         33.9538
            1328     974.155E-06     67.3236E-03         4.03624     163.117E-03        -4.53238        -4.37402     892.378E-03         3.14861    -752.922E-03     52.4526E-03    -26.0674E-03    -26.3859E-03    -26.2413E-03     52.4365E-03    -26.1959E-03     2.08029E-03    -36.0719E+06    -43.3570E+06    -217.841E+06    -42.4026E+06    -217.826E+06    -37.0421E+06     685.085E+03         23.7425
            1329     1.94882E-03     67.3265E-03         1.02662    -610.822E-03    -757.245E-03    -664.767E-03     945.950E-03    -622.630E-03     272.380E-03     52.4385E-03    -26.1540E-03    -26.2846E-03    -26.1279E-03     52.3915E-03    -26.2638E-03     3.73593E-03    -29.3129E+06    -37.0251E+06    -218.280E+06    -37.0389E+06    -218.266E+06    -29.3129E+06     1.12952E+06         23.8235
            1330     2.92321E-03     67.3318E-03     862.496E-03    -584.969E-03    -623.536E-03    -566.455E-03     843.982E-03    -623.536E-03    -109.729E-03     52.5457E-03    -26.2182E-03    -26.3289E-03    -26.1914E-03     52.4528E-03    -26.2628E-03     5.35830E-03    -24.2190E+06    -31.8723E+06    -218.047E+06    -31.8910E+06    -218.028E+06    -24.2190E+06     1.61959E+06         23.9050
            1331     3.89733E-03     67.3376E-03     806.086E-03    -543.542E-03    -605.543E-03    -538.416E-03     800.960E-03    -605.543E-03     28.3641E-03     52.7061E-03    -26.2812E-03    -26.4270E-03    -26.2745E-03     52.5536E-03    -26.2812E-03     6.88908E-03    -19.0747E+06    -28.7054E+06    -212.326E+06    -28.7152E+06    -212.316E+06    -19.0747E+06     1.32415E+06         24.0033
            1332     4.87164E-03     67.3460E-03     749.995E-03    -503.460E-03    -588.260E-03    -499.921E-03     746.455E-03    -588.260E-03    -30.1953E-03     52.7528E-03    -26.2913E-03    -26.4636E-03    -26.2547E-03     52.5440E-03    -26.2913E-03     8.10557E-03    -15.3916E+06    -26.7618E+06    -201.534E+06    -26.7699E+06    -201.525E+06    -15.3916E+06     219.577E+03         24.1304
            1333     5.84622E-03     67.3540E-03     648.936E-03    -419.501E-03    -566.830E-03    -416.226E-03     645.661E-03    -566.830E-03    -16.4890E-03     52.6871E-03    -26.2774E-03    -26.4052E-03    -26.1242E-03     52.4125E-03    -26.2838E-03     9.27205E-03    -11.5553E+06    -25.1195E+06    -184.637E+06    -25.1263E+06    -184.630E+06    -11.5553E+06    -617.388E+03         24.2843
            1334     6.82071E-03     67.3651E-03     556.093E-03    -355.726E-03    -540.862E-03    -353.677E-03     554.044E-03    -540.862E-03    -3.15957E-03     52.7545E-03    -26.2787E-03    -26.4713E-03    -26.1301E-03     52.4197E-03    -26.2851E-03     10.2744E-03    -5.49123E+06    -22.5454E+06    -172.560E+06    -22.5486E+06    -172.557E+06    -5.49123E+06    -297.274E+03         24.4707
            1335     7.79509E-03     67.3759E-03     519.801E-03    -347.355E-03    -516.678E-03    -344.571E-03     517.018E-03    -516.678E-03    -16.2479E-03     52.8430E-03    -26.2836E-03    -26.5803E-03    -26.1987E-03     52.4614E-03    -26.2836E-03     10.9745E-03    -3.48223E+06    -19.9345E+06    -163.285E+06    -19.9378E+06    -163.282E+06    -3.48223E+06    -522.453E+03         24.6987
            1336     8.76923E-03     67.3882E-03     452.709E-03    -301.961E-03    -494.930E-03    -298.489E-03     449.237E-03    -494.930E-03    -10.2658E-03     52.8262E-03    -26.2291E-03    -26.6268E-03    -26.1621E-03     52.3615E-03    -26.2291E-03     12.0947E-03    -7.28848E+06    -18.6588E+06    -140.272E+06    -18.6648E+06    -140.266E+06    -7.28848E+06    -823.121E+03         24.9780
            1337     9.74366E-03     67.4010E-03     341.217E-03    -209.253E-03    -470.717E-03    -206.499E-03     338.462E-03    -470.717E-03     14.1749E-03     52.8196E-03    -26.1959E-03    -26.6535E-03    -26.1243E-03     52.2904E-03    -26.1959E-03     12.9235E-03    -5.32758E+06    -17.0774E+06    -115.993E+06    -17.0913E+06    -115.980E+06    -5.32758E+06    -663.979E+03         25.3255
            1338     10.7181E-03     67.4151E-03     238.853E-03    -128.768E-03    -443.068E-03    -127.218E-03     237.302E-03    -443.068E-03    -23.6347E-03     52.7912E-03    -26.1583E-03    -26.6849E-03    -26.0872E-03     52.1936E-03    -26.1583E-03     13.7149E-03    -5.49768E+06    -15.4054E+06    -90.5289E+06    -15.4290E+06    -90.5053E+06    -5.49768E+06    -394.757E+03         25.7509
            1339     11.6924E-03     67.4297E-03     178.804E-03    -92.2779E-03    -415.120E-03    -90.6106E-03     177.137E-03    -415.120E-03    -16.5625E-03     52.8387E-03    -26.0864E-03    -26.8071E-03    -26.0338E-03     52.0653E-03    -26.0864E-03     15.5716E-03    -10.3447E+06    -15.4925E+06    -57.0871E+06    -15.5060E+06    -57.0735E+06    -10.3447E+06    -202.095E+03         26.3184
            1340     12.6670E-03     67.4473E-03     120.575E-03    -57.0502E-03    -388.671E-03    -53.9751E-03     117.500E-03    -388.671E-03    -22.1129E-03     52.8275E-03    -26.0216E-03    -26.8143E-03    -25.8491E-03     51.8623E-03    -26.0216E-03     17.4147E-03    -2.45513E+06    -13.4269E+06    -27.7299E+06    -15.5802E+06    -16.8721E+06    -11.1596E+06     104.630E+03         27.1651
            1341     13.6418E-03     67.4654E-03     67.5197E-03    -33.6072E-03    -362.365E-03     12.8254E-03     21.0870E-03    -362.365E-03     2.65968E-03     52.8454E-03    -25.9101E-03    -26.9280E-03    -25.5316E-03     51.4490E-03    -25.9101E-03     20.7447E-03     45.4144E+06    -12.4981E+06    -14.7806E+06    -14.7732E+06     45.4071E+06    -12.4981E+06     183.543E+03         28.3754
            1342     14.6164E-03     67.4900E-03     86.2639E-03    -79.0122E-03    -334.927E-03     85.2458E-03    -77.9941E-03    -334.927E-03    -2.37526E-03     52.1056E-03    -25.6489E-03    -26.4632E-03    -25.0378E-03     50.8550E-03    -25.8236E-03     19.2480E-03     133.249E+06     294.451E+03    -13.5671E+06    -13.5655E+06     133.247E+06     294.451E+03     155.956E+03         29.9506
            1343     15.5925E-03     67.5054E-03     135.018E-03    -156.388E-03    -307.076E-03     133.959E-03    -155.329E-03    -307.076E-03     859.380E-06     52.5776E-03    -25.7734E-03    -26.8042E-03    -24.7988E-03     50.7470E-03    -25.9482E-03     22.6786E-03     193.541E+06     47.3208E+06    -11.3440E+06    -11.3410E+06     193.538E+06     47.3208E+06     411.635E+03         31.8750
            1344     16.5668E-03     67.5371E-03     181.732E-03    -227.045E-03    -280.838E-03     180.718E-03    -227.187E-03    -279.682E-03     21.6457E-03     52.4532E-03    -25.4159E-03    -27.0392E-03    -24.6860E-03     50.8674E-03    -26.1833E-03     10.7508E-03     207.496E+06     102.912E+06    -6.68495E+06    -6.68272E+06     207.493E+06     102.912E+06     281.330E+03         33.9665
            1345     974.480E-06     68.3767E-03         3.64225     109.967E-03        -4.08004        -4.04612     844.034E-03         2.87427    -173.981E-03     52.4294E-03    -26.0901E-03    -26.3401E-03    -26.2836E-03     52.4145E-03    -26.1317E-03     1.96539E-03    -35.4081E+06    -41.2586E+06    -217.202E+06    -41.0177E+06    -217.176E+06    -35.6758E+06     1.58150E+06         23.7368
            1346     1.94843E-03     68.3793E-03     875.033E-03    -571.930E-03    -639.985E-03    -600.759E-03     852.162E-03    -588.284E-03     70.7742E-03     52.4477E-03    -26.1803E-03    -26.2665E-03    -26.1524E-03     52.4014E-03    -26.2481E-03     3.69694E-03    -30.8095E+06    -36.2780E+06    -219.506E+06    -36.2787E+06    -219.505E+06    -30.8095E+06     291.322E+03         23.8166
            1347     2.92317E-03     68.3842E-03     830.879E-03    -561.345E-03    -612.800E-03    -575.450E-03     821.118E-03    -588.935E-03     9.84259E-03     52.4134E-03    -26.1511E-03    -26.2637E-03    -26.0830E-03     52.3161E-03    -26.2345E-03     5.46232E-03    -26.8278E+06    -32.9132E+06    -218.963E+06    -32.9185E+06    -218.957E+06    -26.8278E+06     879.642E+03         23.8978
            1348     3.89776E-03     68.3909E-03     813.515E-03    -542.731E-03    -607.766E-03    -563.436E-03     810.355E-03    -583.900E-03     9.26826E-03     52.5636E-03    -26.2080E-03    -26.3573E-03    -26.1700E-03     52.4055E-03    -26.2372E-03     7.01517E-03    -20.2644E+06    -30.4428E+06    -212.199E+06    -30.4493E+06    -212.192E+06    -20.2644E+06     852.848E+03         23.9962
            1349     4.87221E-03     68.3985E-03     728.669E-03    -487.858E-03    -572.419E-03    -485.243E-03     726.054E-03    -572.419E-03    -1.38289E-03     52.7068E-03    -26.2549E-03    -26.4523E-03    -26.2428E-03     52.4973E-03    -26.2549E-03     8.12029E-03    -14.2038E+06    -27.6678E+06    -201.086E+06    -27.6700E+06    -201.084E+06    -14.2038E+06     329.730E+03         24.1264
            1350     5.84617E-03     68.4075E-03     644.968E-03    -419.609E-03    -552.277E-03    -417.731E-03     643.090E-03    -552.277E-03    -41.4403E-03     52.8151E-03    -26.2685E-03    -26.5434E-03    -26.2663E-03     52.5381E-03    -26.2685E-03     9.32471E-03    -9.46041E+06    -25.5794E+06    -184.236E+06    -25.5859E+06    -184.229E+06    -9.46041E+06     167.974E+03         24.2854
            1351     6.82046E-03     68.4176E-03     564.480E-03    -366.370E-03    -529.058E-03    -363.855E-03     561.965E-03    -529.058E-03     33.9442E-03     52.8445E-03    -26.2829E-03    -26.5592E-03    -26.2148E-03     52.5001E-03    -26.2829E-03     10.4301E-03    -5.09244E+06    -23.6767E+06    -171.961E+06    -23.6908E+06    -171.947E+06    -5.09244E+06    -481.924E+03         24.4721
            1352     7.79487E-03     68.4294E-03     495.399E-03    -324.340E-03    -505.591E-03    -321.900E-03     492.959E-03    -505.591E-03     233.859E-06     52.7925E-03    -26.2841E-03    -26.5321E-03    -26.1445E-03     52.4050E-03    -26.2841E-03     11.0554E-03    -3.25719E+06    -20.4466E+06    -162.859E+06    -20.4607E+06    -162.845E+06    -3.25719E+06    -1.10700E+06         24.6973
            1353     8.76952E-03     68.4406E-03     425.932E-03    -276.408E-03    -482.351E-03    -274.247E-03     423.771E-03    -482.351E-03    -11.6516E-03     52.8128E-03    -26.2185E-03    -26.6148E-03    -26.1429E-03     52.3408E-03    -26.2185E-03     12.1830E-03    -7.49398E+06    -17.4414E+06    -139.902E+06    -17.4618E+06    -139.881E+06    -7.49398E+06    -1.33357E+06         24.9759
            1354     9.74387E-03     68.4548E-03     344.038E-03    -214.665E-03    -458.285E-03    -212.701E-03     342.074E-03    -458.285E-03    -927.947E-06     52.7934E-03    -26.1819E-03    -26.6293E-03    -26.0948E-03     52.2589E-03    -26.1819E-03     12.9869E-03    -5.96315E+06    -15.6501E+06    -116.373E+06    -15.6740E+06    -116.349E+06    -5.96315E+06    -1.29201E+06         25.3244
            1355     10.7182E-03     68.4677E-03     256.025E-03    -150.435E-03    -432.852E-03    -148.235E-03     253.825E-03    -432.852E-03    -14.8814E-03     52.7578E-03    -26.1498E-03    -26.6541E-03    -26.0448E-03     52.1484E-03    -26.1498E-03     13.8344E-03    -5.20681E+06    -14.6605E+06    -91.3782E+06    -14.6743E+06    -91.3644E+06    -5.20681E+06    -312.757E+03         25.7507
            1356     11.6928E-03     68.4833E-03     190.727E-03    -108.947E-03    -407.201E-03    -106.624E-03     188.404E-03    -407.201E-03     11.5474E-03     52.7665E-03    -26.0788E-03    -26.7344E-03    -25.9648E-03     51.9969E-03    -26.0788E-03     15.5410E-03    -9.22833E+06    -14.3101E+06    -57.5533E+06    -14.3457E+06    -57.5177E+06    -9.22833E+06     699.429E+03         26.3190
            1357     12.6673E-03     68.5000E-03     126.601E-03    -67.7391E-03    -382.333E-03    -66.0155E-03     124.877E-03    -382.333E-03    -9.68952E-03     52.7085E-03    -26.0022E-03    -26.7118E-03    -25.7677E-03     51.7644E-03    -26.0022E-03     17.1941E-03    -1.22302E+06    -13.3480E+06    -27.7053E+06    -14.4327E+06    -16.7831E+06    -11.0605E+06     466.816E+03         27.1677
            1358     13.6418E-03     68.5190E-03     66.9811E-03    -36.3196E-03    -357.138E-03     2.27542E-03     28.3861E-03    -357.138E-03    -4.98271E-03     52.8665E-03    -25.8873E-03    -26.9717E-03    -25.5904E-03     51.4853E-03    -25.8873E-03     20.6517E-03     45.8057E+06    -12.9295E+06    -14.4439E+06    -14.4424E+06     45.8042E+06    -12.9295E+06    -268.005E+03         28.3805
            1359     14.6169E-03     68.5427E-03     83.0318E-03    -76.5058E-03    -330.360E-03     82.2841E-03    -75.7580E-03    -330.360E-03    -7.16050E-03     52.3094E-03    -25.7136E-03    -26.6034E-03    -25.2815E-03     51.0961E-03    -25.8222E-03     18.9623E-03     133.206E+06     1.26414E+06    -13.9539E+06    -13.9513E+06     133.203E+06     1.26414E+06    -77.3749E+03         29.9572
            1360     15.5915E-03     68.5584E-03     128.879E-03    -147.665E-03    -302.988E-03     127.908E-03    -146.694E-03    -302.988E-03    -24.5157E-03     52.5987E-03    -25.8423E-03    -26.7585E-03    -24.8488E-03     50.7976E-03    -25.9508E-03     22.3849E-03     193.347E+06     47.0472E+06    -11.7650E+06    -11.7615E+06     193.344E+06     47.0472E+06     670.994E+03         31.8815
            1361     16.5674E-03     68.5909E-03     175.486E-03    -218.369E-03    -277.814E-03     173.850E-03    -218.366E-03    -276.181E-03    -38.4284E-03     52.3038E-03    -25.3871E-03    -26.9208E-03    -24.5391E-03     50.7121E-03    -26.1771E-03     10.5226E-03     207.562E+06     101.679E+06    -6.63444E+06    -6.63183E+06     207.559E+06     101.679E+06     396.363E+03         33.9732
            1362     974.391E-06     69.4294E-03         3.40836     185.881E-03        -3.90326        -3.72155     806.212E-03         2.60632     453.815E-03     52.2687E-03    -26.0204E-03    -26.2476E-03    -26.0239E-03     52.2538E-03    -26.2292E-03     1.94503E-03    -35.3498E+06    -40.3738E+06    -218.649E+06    -38.7352E+06    -218.625E+06    -37.0133E+06     807.117E+03         23.7268
            1363     1.94900E-03     69.4323E-03     911.289E-03    -546.534E-03    -690.103E-03    -547.004E-03     777.617E-03    -555.961E-03    -205.304E-03     52.3958E-03    -26.1304E-03    -26.2639E-03    -26.1612E-03     52.3485E-03    -26.1858E-03     3.73885E-03    -30.6072E+06    -36.9054E+06    -220.133E+06    -36.9121E+06    -220.127E+06    -30.6072E+06     719.333E+03         23.8122
            1364     2.92319E-03     69.4367E-03     817.479E-03    -542.769E-03    -612.862E-03    -543.738E-03     757.781E-03    -552.196E-03     87.6156E-03     52.5062E-03    -26.1796E-03    -26.3264E-03    -26.1922E-03     52.4109E-03    -26.2184E-03     5.42387E-03    -26.3452E+06    -34.4550E+06    -219.691E+06    -34.4590E+06    -219.687E+06    -26.3452E+06     380.707E+03         23.8961
            1365     3.89776E-03     69.4435E-03     776.206E-03    -512.692E-03    -594.911E-03    -531.727E-03     748.802E-03    -548.472E-03    -89.1113E-03     52.5084E-03    -26.1753E-03    -26.3325E-03    -26.1247E-03     52.3588E-03    -26.2334E-03     6.82611E-03    -20.7615E+06    -31.6958E+06    -211.868E+06    -31.7057E+06    -211.858E+06    -20.7615E+06     635.585E+03         23.9946
            1366     4.87197E-03     69.4516E-03     677.698E-03    -462.570E-03    -537.546E-03    -452.449E-03     667.577E-03    -537.546E-03     36.5165E-03     52.5926E-03    -26.2055E-03    -26.3870E-03    -26.1535E-03     52.3880E-03    -26.2344E-03     8.01041E-03    -15.7605E+06    -29.3536E+06    -200.765E+06    -29.3605E+06    -200.759E+06    -15.7605E+06     633.837E+03         24.1238
            1367     5.84670E-03     69.4603E-03     633.784E-03    -432.500E-03    -520.929E-03    -427.866E-03     629.150E-03    -520.929E-03    -47.3982E-03     52.7650E-03    -26.2417E-03    -26.5206E-03    -26.2392E-03     52.4836E-03    -26.2417E-03     9.39275E-03    -10.9078E+06    -26.6773E+06    -183.950E+06    -26.6813E+06    -183.946E+06    -10.9078E+06     526.460E+03         24.2825
            1368     6.82071E-03     69.4712E-03     565.004E-03    -384.469E-03    -504.145E-03    -382.348E-03     562.883E-03    -504.145E-03     30.8093E-03     52.8353E-03    -26.2574E-03    -26.5762E-03    -26.2281E-03     52.4872E-03    -26.2574E-03     10.4886E-03    -6.29463E+06    -23.9706E+06    -170.655E+06    -23.9824E+06    -170.643E+06    -6.29463E+06    -313.303E+03         24.4688
            1369     7.79513E-03     69.4816E-03     468.594E-03    -311.969E-03    -484.252E-03    -309.963E-03     466.587E-03    -484.252E-03    -24.0399E-03     52.8367E-03    -26.2590E-03    -26.5976E-03    -26.1956E-03     52.4348E-03    -26.2590E-03     11.2580E-03    -5.30547E+06    -21.7165E+06    -162.051E+06    -21.7561E+06    -162.011E+06    -5.30547E+06    -1.99859E+06         24.6942
            1370     8.76932E-03     69.4944E-03     381.713E-03    -246.969E-03    -461.125E-03    -246.220E-03     380.965E-03    -461.125E-03    -22.7752E-03     52.8162E-03    -26.2015E-03    -26.6319E-03    -26.1514E-03     52.3356E-03    -26.2015E-03     12.3073E-03    -9.50992E+06    -19.3126E+06    -139.425E+06    -19.3749E+06    -139.362E+06    -9.50992E+06    -2.63296E+06         24.9739
            1371     9.74374E-03     69.5073E-03     323.724E-03    -207.820E-03    -437.341E-03    -206.520E-03     322.425E-03    -437.341E-03    -29.6001E-03     52.7608E-03    -26.1719E-03    -26.6060E-03    -26.0728E-03     52.2275E-03    -26.1719E-03     12.9658E-03    -7.34582E+06    -16.9478E+06    -116.826E+06    -17.0046E+06    -116.770E+06    -7.34582E+06    -2.12601E+06         25.3227
            1372     10.7185E-03     69.5212E-03     268.376E-03    -173.600E-03    -414.452E-03    -171.461E-03     266.237E-03    -414.452E-03    -17.8472E-03     52.7633E-03    -26.1420E-03    -26.6642E-03    -26.0585E-03     52.1576E-03    -26.1420E-03     13.8011E-03    -6.12346E+06    -15.1415E+06    -93.2227E+06    -15.1712E+06    -93.1930E+06    -6.12346E+06    -606.394E+03         25.7491
            1373     11.6926E-03     69.5363E-03     192.035E-03    -120.052E-03    -391.724E-03    -118.519E-03     190.502E-03    -391.724E-03     22.0707E-03     52.7614E-03    -26.0745E-03    -26.7315E-03    -25.9838E-03     52.0138E-03    -26.0745E-03     15.3222E-03    -9.05441E+06    -14.0650E+06    -58.5321E+06    -14.1109E+06    -58.4862E+06    -9.05441E+06     962.256E+03         26.3179
            1374     12.6673E-03     69.5534E-03     104.447E-03    -56.2029E-03    -367.991E-03    -54.8993E-03     103.144E-03    -367.991E-03     4.83774E-03     52.6628E-03    -25.9979E-03    -26.6716E-03    -25.7630E-03     51.7541E-03    -25.9979E-03     16.8616E-03    -576.862E+03    -12.8463E+06    -26.8968E+06    -13.9696E+06    -15.9695E+06    -10.3808E+06     908.578E+03         27.1684
            1375     13.6423E-03     69.5717E-03     44.1878E-03    -22.9765E-03    -343.468E-03    -3.57925E-03     24.7906E-03    -343.468E-03    -8.54303E-03     52.8665E-03    -25.8895E-03    -26.9714E-03    -25.6111E-03     51.5063E-03    -25.8895E-03     20.4666E-03     45.9228E+06    -11.9965E+06    -14.6505E+06    -14.6413E+06     45.9135E+06    -11.9965E+06     196.582E+03         28.3835
            1376     14.6167E-03     69.5966E-03     46.4485E-03    -50.6404E-03    -318.915E-03     43.5483E-03    -47.7402E-03    -318.915E-03     5.04840E-03     52.4617E-03    -25.8313E-03    -26.6397E-03    -25.4252E-03     51.2472E-03    -25.8313E-03     19.0044E-03     133.262E+06     1.98811E+06    -14.8510E+06    -14.8460E+06     133.257E+06     1.98811E+06     500.281E+03         29.9613
            1377     15.5914E-03     69.6119E-03     102.814E-03    -127.874E-03    -294.162E-03     102.066E-03    -127.126E-03    -294.162E-03    -2.03078E-03     52.5826E-03    -25.9573E-03    -26.6270E-03    -24.8593E-03     50.8149E-03    -25.9573E-03     22.1900E-03     193.519E+06     46.4259E+06    -12.6015E+06    -12.5985E+06     193.516E+06     46.4259E+06     546.212E+03         31.8852
            1378     16.5670E-03     69.6430E-03     162.551E-03    -206.758E-03    -269.396E-03     161.076E-03    -205.760E-03    -268.919E-03    -35.6110E-03     52.0851E-03    -25.3064E-03    -26.7823E-03    -24.3713E-03     50.5452E-03    -26.1776E-03     10.6281E-03     207.529E+06     100.763E+06    -7.21433E+06    -7.21360E+06     207.528E+06     100.763E+06    -67.4275E+03         33.9770
            1379     974.433E-06     70.4819E-03         3.35724     408.242E-03        -4.07827        -3.40133     692.006E-03         2.39653         1.22335     52.1314E-03    -25.9043E-03    -26.2261E-03    -26.0299E-03     52.1161E-03    -26.0852E-03     2.03044E-03    -35.7851E+06    -42.2061E+06    -221.198E+06    -40.8324E+06    -221.176E+06    -37.1808E+06    -54.6785E+03         23.7192
            1380     1.94905E-03     70.4846E-03         1.19249    -513.908E-03        -1.00144    -559.571E-03     750.621E-03    -513.908E-03    -434.366E-03     52.3895E-03    -26.1006E-03    -26.2886E-03    -26.1963E-03     52.3429E-03    -26.1463E-03     3.71439E-03    -29.0631E+06    -37.1640E+06    -219.515E+06    -37.1753E+06    -219.503E+06    -29.0631E+06     1.25020E+06         23.8101
            1381     2.92329E-03     70.4900E-03     885.760E-03    -517.932E-03    -695.892E-03    -474.924E-03     664.793E-03    -517.932E-03     244.376E-03     52.5813E-03    -26.2121E-03    -26.3686E-03    -26.2742E-03     52.4869E-03    -26.2121E-03     5.39854E-03    -25.7471E+06    -34.2791E+06    -219.902E+06    -34.2830E+06    -219.898E+06    -25.7471E+06     443.629E+03         23.8972
            1382     3.89722E-03     70.4959E-03     720.975E-03    -484.183E-03    -562.754E-03    -452.989E-03     631.105E-03    -504.079E-03    -186.084E-03     52.5786E-03    -26.2112E-03    -26.3652E-03    -26.1838E-03     52.4261E-03    -26.2401E-03     6.89162E-03    -22.1587E+06    -32.1052E+06    -213.024E+06    -32.1188E+06    -213.010E+06    -22.1587E+06     1.11561E+06         23.9964
            1383     4.87227E-03     70.5041E-03     639.703E-03    -460.819E-03    -499.335E-03    -432.684E-03     603.678E-03    -491.444E-03     60.4956E-03     52.6040E-03    -26.2161E-03    -26.3876E-03    -26.1494E-03     52.3946E-03    -26.2449E-03     8.10665E-03    -16.4193E+06    -29.7396E+06    -199.920E+06    -29.7508E+06    -199.909E+06    -16.4193E+06     1.16492E+06         24.1224
            1384     5.84623E-03     70.5135E-03     599.940E-03    -431.531E-03    -482.571E-03    -418.675E-03     584.565E-03    -480.052E-03    -82.6108E-03     52.6911E-03    -26.2488E-03    -26.4398E-03    -26.1679E-03     52.4192E-03    -26.2488E-03     9.23674E-03    -11.2802E+06    -26.7100E+06    -183.438E+06    -26.7141E+06    -183.433E+06    -11.2802E+06    -171.330E+03         24.2782
            1385     6.82101E-03     70.5238E-03     521.613E-03    -372.473E-03    -467.357E-03    -367.187E-03     516.327E-03    -467.357E-03     33.4632E-03     52.7632E-03    -26.2592E-03    -26.5019E-03    -26.1733E-03     52.4345E-03    -26.2592E-03     10.1803E-03    -5.53723E+06    -23.0489E+06    -169.425E+06    -23.0591E+06    -169.415E+06    -5.53723E+06    -971.557E+03         24.4665
            1386     7.79524E-03     70.5351E-03     441.999E-03    -311.113E-03    -450.922E-03    -309.522E-03     440.408E-03    -450.922E-03    -29.7565E-03     52.8541E-03    -26.2633E-03    -26.6089E-03    -26.2204E-03     52.4657E-03    -26.2633E-03     11.0654E-03    -1.93487E+06    -19.9661E+06    -159.484E+06    -20.0092E+06    -159.440E+06    -1.93487E+06    -2.10637E+06         24.6947
            1387     8.76958E-03     70.5472E-03     360.775E-03    -249.744E-03    -431.494E-03    -248.590E-03     359.621E-03    -431.494E-03    -15.8476E-03     52.8233E-03    -26.2047E-03    -26.6348E-03    -26.1659E-03     52.3544E-03    -26.2047E-03     12.1561E-03    -7.32774E+06    -18.1534E+06    -139.026E+06    -18.2648E+06    -138.915E+06    -7.32774E+06    -3.46311E+06         24.9741
            1388     9.74405E-03     70.5606E-03     301.208E-03    -207.880E-03    -410.736E-03    -206.706E-03     300.033E-03    -410.736E-03    -33.1826E-03     52.7672E-03    -26.1706E-03    -26.6168E-03    -26.0859E-03     52.2363E-03    -26.1706E-03     12.9364E-03    -7.87188E+06    -17.2257E+06    -118.267E+06    -17.3292E+06    -118.164E+06    -7.87188E+06    -2.97101E+06         25.3215
            1389     10.7181E-03     70.5744E-03     249.396E-03    -174.575E-03    -390.288E-03    -173.036E-03     247.857E-03    -390.288E-03    -33.0899E-03     52.7583E-03    -26.1428E-03    -26.6625E-03    -26.0462E-03     52.1421E-03    -26.1428E-03     13.9172E-03    -6.69904E+06    -16.4510E+06    -95.2139E+06    -16.4944E+06    -95.1705E+06    -6.69904E+06    -1.19281E+06         25.7471
            1390     11.6927E-03     70.5896E-03     170.324E-03    -116.725E-03    -369.465E-03    -115.740E-03     169.340E-03    -369.465E-03    -19.1459E-03     52.7712E-03    -26.0691E-03    -26.7470E-03    -25.9842E-03     52.0083E-03    -26.0691E-03     15.4766E-03    -9.84031E+06    -14.9385E+06    -59.8568E+06    -14.9657E+06    -59.8296E+06    -9.84031E+06     176.596E+03         26.3164
            1391     12.6671E-03     70.6065E-03     86.8209E-03    -53.3393E-03    -347.028E-03    -48.7273E-03     82.2090E-03    -347.028E-03    -20.0575E-03     52.7902E-03    -26.0003E-03    -26.7999E-03    -25.8856E-03     51.8759E-03    -26.0003E-03     16.9474E-03    -575.783E+03    -11.8190E+06    -26.9077E+06    -13.9948E+06    -15.3838E+06    -9.92391E+06     1.15725E+06         27.1686
            1392     13.6415E-03     70.6250E-03     35.8794E-03    -25.6360E-03    -323.729E-03    -4.55862E-03     14.8020E-03    -323.729E-03    -24.0888E-03     52.9530E-03    -25.9035E-03    -27.0491E-03    -25.6824E-03     51.5864E-03    -25.9035E-03     20.5202E-03     46.0889E+06    -11.2491E+06    -14.7436E+06    -14.5615E+06     46.0062E+06    -11.3486E+06     1.51597E+06         28.3852
            1393     14.6165E-03     70.6501E-03     35.1261E-03    -51.0093E-03    -300.858E-03     30.2908E-03    -46.1739E-03    -300.858E-03     17.7139E-03     52.2433E-03    -25.6978E-03    -26.5542E-03    -25.1886E-03     51.0099E-03    -25.8299E-03     19.1207E-03     132.477E+06     778.609E+03    -14.8915E+06    -14.7775E+06     132.463E+06     679.097E+03     1.12865E+06         29.9642
            1394     15.5916E-03     70.6653E-03     86.3788E-03    -120.325E-03    -278.041E-03     84.9989E-03    -118.945E-03    -278.041E-03     23.0509E-03     52.4988E-03    -25.8188E-03    -26.6790E-03    -24.7827E-03     50.7346E-03    -25.9509E-03     22.2303E-03     193.829E+06     46.6205E+06    -12.2366E+06    -12.2340E+06     193.827E+06     46.6205E+06     174.022E+03         31.8892
            1395     16.5671E-03     70.6956E-03     142.304E-03    -194.158E-03    -257.513E-03     141.722E-03    -196.393E-03    -254.696E-03     16.9332E-03     52.2294E-03    -25.3240E-03    -26.9076E-03    -24.5368E-03     50.7152E-03    -26.1805E-03     10.8177E-03     208.221E+06     102.233E+06    -6.78832E+06    -6.78755E+06     208.220E+06     102.233E+06    -370.505E+03         33.9819
            1396     974.883E-06     71.5342E-03         3.34422     923.614E-03        -4.59440        -3.05966     541.382E-03         2.19171         2.14628     52.2052E-03    -25.9126E-03    -26.2918E-03    -26.2566E-03     52.1914E-03    -25.9340E-03     1.86419E-03    -36.0091E+06    -40.9099E+06    -221.688E+06    -40.9349E+06    -221.663E+06    -36.0091E+06    -324.240E+03         23.7155
            1397     1.94872E-03     71.5377E-03         1.52773    -448.134E-03        -1.40420    -509.445E-03     632.971E-03    -448.134E-03    -667.684E-03     52.3649E-03    -26.1271E-03    -26.2381E-03    -26.1610E-03     52.3162E-03    -26.1555E-03     3.77826E-03    -30.5753E+06    -35.6949E+06    -220.349E+06    -35.7234E+06    -220.321E+06    -30.5753E+06     735.281E+03         23.8074
            1398     2.92320E-03     71.5424E-03         1.03114    -459.006E-03    -900.958E-03    -434.468E-03     564.651E-03    -459.006E-03     389.514E-03     52.4635E-03    -26.1850E-03    -26.2780E-03    -26.1720E-03     52.3645E-03    -26.1920E-03     5.52541E-03    -27.0503E+06    -33.9460E+06    -221.139E+06    -33.9728E+06    -221.112E+06    -27.0503E+06     2.00088E+06         23.8948
            1399     3.89804E-03     71.5490E-03     755.415E-03    -450.681E-03    -627.545E-03    -419.928E-03     547.798E-03    -450.681E-03    -268.918E-03     52.6501E-03    -26.2266E-03    -26.4232E-03    -26.2658E-03     52.4927E-03    -26.2266E-03     7.01130E-03    -21.4878E+06    -32.1098E+06    -213.489E+06    -32.1267E+06    -213.472E+06    -21.4878E+06     1.35112E+06         23.9951
            1400     4.87159E-03     71.5569E-03     605.742E-03    -441.375E-03    -482.873E-03    -390.902E-03     513.770E-03    -441.375E-03     116.498E-03     52.7645E-03    -26.2528E-03    -26.5129E-03    -26.2937E-03     52.5452E-03    -26.2528E-03     8.30646E-03    -15.9590E+06    -28.5343E+06    -199.379E+06    -28.5395E+06    -199.374E+06    -15.9590E+06     554.166E+03         24.1216
            1401     5.84639E-03     71.5665E-03     524.332E-03    -398.659E-03    -440.893E-03    -366.495E-03     481.785E-03    -430.509E-03    -95.5487E-03     52.7668E-03    -26.2687E-03    -26.4999E-03    -26.2255E-03     52.4924E-03    -26.2687E-03     9.30093E-03    -11.3234E+06    -26.2141E+06    -182.532E+06    -26.2210E+06    -182.525E+06    -11.3234E+06     183.955E+03         24.2777
            1402     6.82038E-03     71.5767E-03     453.037E-03    -350.484E-03    -418.598E-03    -334.152E-03     436.705E-03    -418.598E-03     67.8721E-03     52.7781E-03    -26.2735E-03    -26.5100E-03    -26.1814E-03     52.4495E-03    -26.2735E-03     10.1764E-03    -7.39458E+06    -24.9767E+06    -167.268E+06    -24.9966E+06    -167.248E+06    -7.39458E+06    -1.00463E+06         24.4679
            1403     7.79492E-03     71.5882E-03     402.946E-03    -314.049E-03    -405.942E-03    -308.893E-03     397.790E-03    -405.942E-03    -39.7661E-03     52.8076E-03    -26.2712E-03    -26.5584E-03    -26.1768E-03     52.4260E-03    -26.2712E-03     10.9727E-03    -4.38196E+06    -22.6393E+06    -157.162E+06    -22.7237E+06    -157.078E+06    -4.38196E+06    -2.93582E+06         24.6971
            1404     8.76929E-03     71.6003E-03     344.042E-03    -269.988E-03    -392.437E-03    -268.220E-03     342.275E-03    -392.437E-03    -7.23613E-03     52.7719E-03    -26.2190E-03    -26.5759E-03    -26.1246E-03     52.3206E-03    -26.2190E-03     11.9176E-03    -8.00433E+06    -19.8780E+06    -138.585E+06    -20.0326E+06    -138.430E+06    -8.00433E+06    -4.05692E+06         24.9752
            1405     9.74362E-03     71.6137E-03     284.165E-03    -220.888E-03    -377.142E-03    -219.355E-03     282.632E-03    -377.142E-03    -17.4051E-03     52.7282E-03    -26.1844E-03    -26.5725E-03    -26.0523E-03     52.2080E-03    -26.1844E-03     12.7997E-03    -8.52931E+06    -17.9791E+06    -119.851E+06    -18.0934E+06    -119.736E+06    -8.52931E+06    -3.16918E+06         25.3202
            1406     10.7185E-03     71.6274E-03     212.976E-03    -163.008E-03    -359.688E-03    -159.951E-03     209.919E-03    -359.688E-03    -20.8882E-03     52.7189E-03    -26.1519E-03    -26.6179E-03    -26.0134E-03     52.1145E-03    -26.1519E-03     13.7756E-03    -6.91598E+06    -16.1879E+06    -96.2522E+06    -16.2362E+06    -96.2039E+06    -6.91598E+06    -1.82364E+06         25.7447
            1407     11.6928E-03     71.6428E-03     137.798E-03    -108.391E-03    -340.284E-03    -104.468E-03     133.875E-03    -340.284E-03    -20.5255E-03     52.7738E-03    -26.0722E-03    -26.7477E-03    -26.0013E-03     52.0274E-03    -26.0722E-03     15.3087E-03    -10.8577E+06    -15.2154E+06    -60.8657E+06    -15.2365E+06    -60.8445E+06    -10.8577E+06    -749.681E+03         26.3150
            1408     12.6675E-03     71.6599E-03     70.2650E-03    -64.1904E-03    -319.873E-03    -58.1608E-03     64.2354E-03    -319.873E-03    -7.74270E-03     52.8289E-03    -26.0050E-03    -26.8328E-03    -25.9299E-03     51.9261E-03    -26.0050E-03     16.8450E-03    -2.10914E+06    -12.3298E+06    -28.1645E+06    -14.3949E+06    -17.1615E+06    -11.0470E+06     826.188E+03         27.1686
            1409     13.6418E-03     71.6787E-03     30.0831E-03    -42.5736E-03    -298.975E-03    -10.9194E-03    -1.57109E-03    -298.975E-03    -19.1103E-03     52.8946E-03    -25.9146E-03    -26.9785E-03    -25.6136E-03     51.5298E-03    -25.9146E-03     20.4833E-03     45.8505E+06    -10.2731E+06    -14.1302E+06    -13.9317E+06     45.7515E+06    -10.3726E+06     1.96475E+06         28.3863
            1410     14.6164E-03     71.7029E-03     38.9963E-03    -68.6978E-03    -277.697E-03     36.1497E-03    -65.8512E-03    -277.697E-03     8.59445E-03     52.0794E-03    -25.6240E-03    -26.4618E-03    -25.0273E-03     50.8499E-03    -25.8289E-03     19.0394E-03     133.008E+06     1.44844E+06    -13.5968E+06    -13.4702E+06     132.981E+06     1.34893E+06     1.36018E+06         29.9667
            1411     15.5924E-03     71.7182E-03     85.4177E-03    -131.234E-03    -256.108E-03     83.3935E-03    -129.210E-03    -256.108E-03    -1.54890E-03     52.4615E-03    -25.7369E-03    -26.7223E-03    -24.7504E-03     50.6945E-03    -25.9419E-03     22.2257E-03     194.655E+06     47.0031E+06    -11.1486E+06    -11.1466E+06     194.653E+06     47.0031E+06    -155.229E+03         31.8931
            1412     16.5673E-03     71.7496E-03     146.683E-03    -192.701E-03    -255.917E-03     145.584E-03    -213.579E-03    -233.940E-03    -1.21258E-03     52.3971E-03    -25.4403E-03    -26.9594E-03    -24.6854E-03     50.8618E-03    -26.1790E-03     10.5967E-03     208.642E+06     103.029E+06    -6.35990E+06    -6.35535E+06     208.637E+06     103.029E+06    -57.4441E+03         33.9871
            1413     973.875E-06     72.5873E-03         3.51006         1.54402        -5.37754        -2.71915     442.111E-03         1.95356         3.09186     52.2639E-03    -25.9260E-03    -26.3371E-03    -26.1482E-03     52.2476E-03    -26.0987E-03     2.09462E-03    -34.9775E+06    -40.9344E+06    -221.387E+06    -39.4026E+06    -221.344E+06    -36.5518E+06     499.013E+03         23.7161
            1414     1.94898E-03     72.5899E-03         1.93015    -391.908E-03        -1.85797    -429.788E-03     501.972E-03    -391.908E-03        -1.04110     52.3512E-03    -26.1478E-03    -26.2028E-03    -26.1270E-03     52.3038E-03    -26.1762E-03     3.74643E-03    -30.6306E+06    -37.6417E+06    -222.005E+06    -37.6917E+06    -221.955E+06    -30.6306E+06     993.326E+03         23.8081
            1415     2.92357E-03     72.5951E-03         1.21981    -398.482E-03        -1.14688    -382.428E-03     455.349E-03    -398.482E-03     433.485E-03     52.4719E-03    -26.1928E-03    -26.2791E-03    -26.1760E-03     52.3758E-03    -26.1998E-03     5.42954E-03    -27.0832E+06    -34.4387E+06    -222.493E+06    -34.4638E+06    -222.467E+06    -27.0832E+06     1.44252E+06         23.8932
            1416     3.89744E-03     72.6018E-03     850.567E-03    -393.479E-03    -777.412E-03    -377.686E-03     450.840E-03    -393.479E-03    -375.848E-03     52.6729E-03    -26.2313E-03    -26.4427E-03    -26.2875E-03     52.5177E-03    -26.2313E-03     6.96703E-03    -21.2617E+06    -30.6986E+06    -212.630E+06    -30.7109E+06    -212.617E+06    -21.2617E+06     1.00245E+06         23.9926
            1417     4.87230E-03     72.6101E-03     599.703E-03    -385.444E-03    -530.961E-03    -329.441E-03     398.182E-03    -385.444E-03     162.308E-03     52.8028E-03    -26.2640E-03    -26.5416E-03    -26.3249E-03     52.5861E-03    -26.2640E-03     8.25895E-03    -15.5378E+06    -28.1579E+06    -198.834E+06    -28.1604E+06    -198.831E+06    -15.5378E+06     116.552E+03         24.1219
            1418     5.84596E-03     72.6193E-03     474.820E-03    -362.517E-03    -426.517E-03    -321.337E-03     381.994E-03    -374.871E-03    -157.398E-03     52.8381E-03    -26.2836E-03    -26.5604E-03    -26.2803E-03     52.5580E-03    -26.2836E-03     9.39627E-03    -10.3043E+06    -24.9915E+06    -182.374E+06    -24.9974E+06    -182.368E+06    -10.3043E+06    -32.5085E+03         24.2805
            1419     6.82057E-03     72.6300E-03     404.516E-03    -342.785E-03    -373.325E-03    -308.985E-03     363.216E-03    -365.824E-03     33.9236E-03     52.8766E-03    -26.2937E-03    -26.5925E-03    -26.2521E-03     52.5362E-03    -26.2937E-03     10.3709E-03    -5.30304E+06    -21.9226E+06    -165.790E+06    -21.9350E+06    -165.777E+06    -5.30304E+06    -419.735E+03         24.4705
            1420     7.79470E-03     72.6412E-03     344.942E-03    -301.121E-03    -357.105E-03    -282.889E-03     326.224E-03    -356.619E-03    -114.122E-03     52.8812E-03    -26.2965E-03    -26.6064E-03    -26.2164E-03     52.4912E-03    -26.2965E-03     11.1044E-03    -2.66854E+06    -20.5617E+06    -154.519E+06    -20.6342E+06    -154.446E+06    -2.66854E+06    -2.21231E+06         24.6987
            1421     8.76906E-03     72.6534E-03     286.639E-03    -258.069E-03    -346.394E-03    -255.468E-03     284.038E-03    -346.394E-03     490.285E-06     52.7724E-03    -26.2483E-03    -26.5532E-03    -26.0992E-03     52.3183E-03    -26.2483E-03     11.9557E-03    -6.75883E+06    -20.0659E+06    -137.025E+06    -20.2377E+06    -136.853E+06    -6.75883E+06    -4.06997E+06         24.9756
            1422     9.74372E-03     72.6664E-03     240.617E-03    -217.607E-03    -334.784E-03    -215.536E-03     238.546E-03    -334.784E-03    -8.58817E-03     52.7455E-03    -26.2039E-03    -26.5759E-03    -26.0477E-03     52.2173E-03    -26.2039E-03     12.8954E-03    -9.18717E+06    -18.6472E+06    -120.930E+06    -18.8223E+06    -120.755E+06    -9.18717E+06    -4.12739E+06         25.3187
            1423     10.7178E-03     72.6807E-03     167.217E-03    -152.163E-03    -320.395E-03    -148.457E-03     163.512E-03    -320.395E-03    -10.8342E-03     52.8034E-03    -26.1644E-03    -26.6889E-03    -26.0818E-03     52.1962E-03    -26.1644E-03     13.8282E-03    -9.07389E+06    -17.1277E+06    -97.9787E+06    -17.2057E+06    -97.9007E+06    -9.07389E+06    -2.36503E+06         25.7421
            1424     11.6924E-03     72.6959E-03     101.228E-03    -105.183E-03    -303.519E-03    -100.896E-03     96.9420E-03    -303.519E-03    -15.8660E-03     52.8122E-03    -26.0922E-03    -26.7669E-03    -26.0213E-03     52.0665E-03    -26.0922E-03     15.2996E-03    -11.8175E+06    -16.4268E+06    -61.2453E+06    -16.4556E+06    -61.2164E+06    -11.8175E+06    -993.427E+03         26.3132
            1425     12.6665E-03     72.7134E-03     48.6346E-03    -73.9258E-03    -286.154E-03    -70.3404E-03     45.0492E-03    -286.154E-03     2.43184E-03     52.6934E-03    -26.0149E-03    -26.6863E-03    -25.7800E-03     51.7872E-03    -26.0149E-03     16.8467E-03    -4.67652E+06    -14.7870E+06    -29.1202E+06    -15.8345E+06    -19.5050E+06    -13.2441E+06    -260.292E+03         27.1679
            1426     13.6415E-03     72.7315E-03     13.2933E-03    -53.1254E-03    -268.606E-03    -27.8603E-03    -11.9719E-03    -268.606E-03    -19.5840E-03     52.7294E-03    -25.9167E-03    -26.8123E-03    -25.4630E-03     51.3800E-03    -25.9167E-03     20.3370E-03     44.8512E+06    -10.8695E+06    -13.9916E+06    -13.9644E+06     44.8240E+06    -10.8695E+06     1.07242E+06         28.3870
            1427     14.6169E-03     72.7560E-03     31.1307E-03    -84.4633E-03    -250.058E-03     29.5871E-03    -82.9198E-03    -250.058E-03     1.56662E-03     52.1133E-03    -25.7020E-03    -26.4232E-03    -25.0867E-03     50.9089E-03    -25.8341E-03     18.8347E-03     134.815E+06     3.11835E+06    -12.5574E+06    -12.5388E+06     134.797E+06     3.11835E+06     1.10323E+06         29.9686
            1428     15.5915E-03     72.7712E-03     90.6388E-03    -156.889E-03    -234.633E-03     88.6621E-03    -159.383E-03    -230.162E-03    -14.2347E-03     52.4849E-03    -25.8112E-03    -26.6754E-03    -24.7514E-03     50.6930E-03    -25.9434E-03     22.2850E-03     195.204E+06     47.1145E+06    -11.2211E+06    -11.2105E+06     195.194E+06     47.1145E+06     705.262E+03         31.8962
            1429     16.5672E-03     72.8030E-03     155.008E-03    -194.368E-03    -257.564E-03     153.315E-03    -241.173E-03    -209.066E-03    -49.5982E-03     52.3337E-03    -25.4342E-03    -26.9036E-03    -24.5923E-03     50.7598E-03    -26.1715E-03     10.7227E-03     208.372E+06     101.944E+06    -6.95788E+06    -6.94446E+06     208.359E+06     101.944E+06     725.008E+03         33.9916
            1430     975.194E-06     73.6397E-03         4.29590         1.71927        -6.32785        -2.38214     350.190E-03         1.71927         4.11623     52.2553E-03    -26.0095E-03    -26.2460E-03    -26.0771E-03     52.2377E-03    -26.1608E-03     2.27607E-03    -36.0374E+06    -43.4644E+06    -223.789E+06    -41.9216E+06    -223.758E+06    -37.6117E+06     1.28090E+06         23.7179
            1431     1.94873E-03     73.6429E-03         2.43710    -339.423E-03        -2.42083    -371.037E-03     387.307E-03    -339.423E-03        -1.31765     52.5147E-03    -26.2183E-03    -26.2963E-03    -26.2522E-03     52.4706E-03    -26.2183E-03     3.63052E-03    -28.0143E+06    -38.6621E+06    -222.590E+06    -38.6980E+06    -222.554E+06    -28.0143E+06     1.72771E+06         23.8098
            1432     2.92287E-03     73.6476E-03         1.46826    -339.947E-03        -1.45351    -297.754E-03     312.501E-03    -339.947E-03     633.853E-03     52.6487E-03    -26.2702E-03    -26.3783E-03    -26.2824E-03     52.5528E-03    -26.2702E-03     5.41401E-03    -24.9513E+06    -34.0153E+06    -221.787E+06    -34.0252E+06    -221.777E+06    -24.9513E+06     501.477E+03         23.8953
            1433     3.89770E-03     73.6548E-03     950.553E-03    -329.393E-03    -934.887E-03    -304.968E-03     320.634E-03    -329.393E-03    -438.319E-03     52.7469E-03    -26.2931E-03    -26.4539E-03    -26.3002E-03     52.5933E-03    -26.2931E-03     6.94855E-03    -21.0999E+06    -30.3634E+06    -212.210E+06    -30.3686E+06    -212.204E+06    -21.0999E+06    -18.7222E+03         23.9947
            1434     4.87139E-03     73.6630E-03     644.280E-03    -323.050E-03    -634.213E-03    -295.465E-03     305.532E-03    -323.050E-03     216.312E-03     52.7761E-03    -26.3128E-03    -26.4651E-03    -26.2586E-03     52.5695E-03    -26.3128E-03     8.06103E-03    -14.1595E+06    -26.9794E+06    -198.077E+06    -26.9849E+06    -198.071E+06    -14.1595E+06    -362.230E+03         24.1234
            1435     5.84633E-03     73.6725E-03     473.177E-03    -317.884E-03    -466.638E-03    -295.556E-03     302.095E-03    -317.884E-03    -188.901E-03     52.7722E-03    -26.3082E-03    -26.4668E-03    -26.1918E-03     52.4973E-03    -26.3082E-03     9.29372E-03    -9.29999E+06    -24.1155E+06    -182.013E+06    -24.1239E+06    -182.005E+06    -9.29999E+06    -1.00628E+06         24.2810
            1436     6.82027E-03     73.6830E-03     358.893E-03    -312.307E-03    -357.993E-03    -268.304E-03     269.204E-03    -312.307E-03     59.8734E-03     52.8599E-03    -26.3059E-03    -26.5619E-03    -26.2134E-03     52.5115E-03    -26.3059E-03     10.4845E-03    -4.98044E+06    -20.7949E+06    -166.174E+06    -20.8138E+06    -166.155E+06    -4.98044E+06    -1.31133E+06         24.4688
            1437     7.79465E-03     73.6946E-03     273.442E-03    -270.649E-03    -316.144E-03    -241.151E-03     232.395E-03    -304.595E-03    -134.637E-03     52.9338E-03    -26.3154E-03    -26.6417E-03    -26.2429E-03     52.5350E-03    -26.3154E-03     11.2345E-03     446.354E+03    -17.0752E+06    -151.997E+06    -17.0981E+06    -151.974E+06     446.354E+03    -1.43175E+06         24.6968
            1438     8.76899E-03     73.7063E-03     204.016E-03    -222.678E-03    -295.459E-03    -213.653E-03     194.991E-03    -295.459E-03     21.8916E-03     52.8577E-03    -26.2795E-03    -26.6062E-03    -26.1535E-03     52.4050E-03    -26.2795E-03     11.9506E-03    -1.21153E+06    -15.3387E+06    -134.564E+06    -15.4362E+06    -134.466E+06    -1.21153E+06    -2.73417E+06         24.9768
            1439     9.74334E-03     73.7196E-03     165.309E-03    -188.308E-03    -285.199E-03    -184.088E-03     161.089E-03    -285.199E-03    -22.7949E-03     52.8556E-03    -26.2397E-03    -26.6476E-03    -26.1096E-03     52.3175E-03    -26.2397E-03     13.0240E-03    -5.57166E+06    -16.4394E+06    -121.681E+06    -16.5732E+06    -121.547E+06    -5.57166E+06    -3.30361E+06         25.3212
            1440     10.7181E-03     73.7338E-03     121.840E-03    -152.108E-03    -273.747E-03    -148.186E-03     117.918E-03    -273.747E-03    -16.3090E-03     52.8802E-03    -26.1877E-03    -26.7428E-03    -26.1179E-03     52.2553E-03    -26.1877E-03     14.0446E-03    -8.81727E+06    -17.3004E+06    -99.4278E+06    -17.3688E+06    -99.3593E+06    -8.81727E+06    -2.17969E+06         25.7425
            1441     11.6921E-03     73.7494E-03     75.9097E-03    -121.530E-03    -261.383E-03    -118.063E-03     72.4428E-03    -261.383E-03    -31.7753E-03     52.7388E-03    -26.1044E-03    -26.6804E-03    -25.9123E-03     51.9707E-03    -26.1044E-03     15.5071E-03    -11.9662E+06    -16.4613E+06    -62.1275E+06    -16.5130E+06    -62.0758E+06    -11.9662E+06    -1.40348E+06         26.3113
            1442     12.6671E-03     73.7662E-03     27.1163E-03    -85.9923E-03    -248.182E-03    -77.6601E-03     18.7841E-03    -248.182E-03    -20.0942E-03     52.6112E-03    -26.0140E-03    -26.5996E-03    -25.6617E-03     51.6733E-03    -26.0140E-03     17.1244E-03    -5.15526E+06    -15.6176E+06    -29.2877E+06    -15.7975E+06    -20.4046E+06    -13.8584E+06    -989.034E+03         27.1666
            1443     13.6419E-03     73.7847E-03     3.73793E-03    -72.6945E-03    -233.563E-03    -27.8427E-03    -41.1138E-03    -233.563E-03    -39.7885E-03     52.7790E-03    -25.9045E-03    -26.8724E-03    -25.5007E-03     51.4073E-03    -25.9045E-03     20.5340E-03     43.4652E+06    -13.5508E+06    -15.1880E+06    -15.1591E+06     43.4364E+06    -13.5508E+06    -89.8808E+03         28.3873
            1444     14.6162E-03     73.8091E-03     34.7301E-03    -116.541E-03    -217.178E-03     32.3967E-03    -114.207E-03    -217.178E-03    -3.09836E-03     52.1344E-03    -25.6715E-03    -26.4796E-03    -25.1047E-03     50.9166E-03    -25.8287E-03     18.9534E-03     134.496E+06     1.53866E+06    -13.9735E+06    -13.9603E+06     134.483E+06     1.53866E+06     1.11716E+06         29.9702
            1445     15.5921E-03     73.8244E-03     99.6001E-03    -173.148E-03    -222.911E-03     98.4036E-03    -196.028E-03    -198.835E-03    -4.13632E-03     52.4996E-03    -25.7848E-03    -26.7199E-03    -24.7492E-03     50.6860E-03    -25.9419E-03     22.4346E-03     195.698E+06     46.7690E+06    -11.4266E+06    -11.4069E+06     195.678E+06     46.7690E+06     1.66246E+06         31.8987
            1446     16.5675E-03     73.8558E-03     146.198E-03    -179.429E-03    -265.582E-03     144.816E-03    -264.200E-03    -179.429E-03    -28.5688E-03     52.3440E-03    -25.4000E-03    -26.9467E-03    -24.5826E-03     50.7485E-03    -26.1686E-03     10.7384E-03     209.112E+06     101.722E+06    -6.54366E+06    -6.53390E+06     209.103E+06     101.722E+06     725.397E+03         33.9954
            1447     973.783E-06     74.6923E-03         5.50025         1.54417        -7.36822        -2.01657     148.606E-03         1.54417         5.15833     52.4644E-03    -26.1748E-03    -26.2895E-03    -26.2483E-03     52.4473E-03    -26.1988E-03     2.13944E-03    -38.8335E+06    -42.6531E+06    -226.288E+06    -42.3600E+06    -226.268E+06    -39.1464E+06    -117.907E+03         23.7229
            1448     1.94879E-03     74.6959E-03         2.94213    -244.642E-03        -3.02195    -280.519E-03     200.701E-03    -244.642E-03        -1.55710     52.6781E-03    -26.2773E-03    -26.4009E-03    -26.3317E-03     52.6329E-03    -26.3014E-03     3.68945E-03    -30.5883E+06    -37.2054E+06    -223.749E+06    -37.2157E+06    -223.739E+06    -30.5883E+06     1.08447E+06         23.8107
            1449     2.92308E-03     74.7007E-03         1.73250    -253.361E-03        -1.80821    -255.089E-03     179.386E-03    -253.361E-03     879.367E-03     52.8454E-03    -26.3580E-03    -26.4878E-03    -26.3945E-03     52.7521E-03    -26.3580E-03     5.35863E-03    -24.8940E+06    -33.1684E+06    -219.893E+06    -33.1771E+06    -219.884E+06    -24.8940E+06     549.383E+03         23.8948
            1450     3.89674E-03     74.7078E-03         1.06007    -256.309E-03        -1.11552    -281.977E-03     226.523E-03    -256.309E-03    -511.694E-03     52.7940E-03    -26.3358E-03    -26.4580E-03    -26.2650E-03     52.6386E-03    -26.3735E-03     6.96979E-03    -21.0288E+06    -30.7806E+06    -211.598E+06    -30.7849E+06    -211.594E+06    -21.0288E+06    -725.859E+03         23.9955
            1451     4.87158E-03     74.7161E-03     696.191E-03    -259.239E-03    -745.369E-03    -261.734E-03     212.556E-03    -259.239E-03     249.542E-03     52.7406E-03    -26.3136E-03    -26.4279E-03    -26.1756E-03     52.5259E-03    -26.3513E-03     8.21395E-03    -17.2985E+06    -28.2173E+06    -197.904E+06    -28.2247E+06    -197.897E+06    -17.2985E+06    -1.06828E+06         24.1235
            1452     5.84551E-03     74.7253E-03     463.008E-03    -257.182E-03    -514.784E-03    -236.302E-03     184.525E-03    -257.182E-03    -230.135E-03     52.7421E-03    -26.3293E-03    -26.4155E-03    -26.1363E-03     52.4630E-03    -26.3293E-03     9.36326E-03    -11.9548E+06    -25.6178E+06    -180.994E+06    -25.6313E+06    -180.981E+06    -11.9548E+06    -1.34325E+06         24.2778
            1453     6.82045E-03     74.7361E-03     289.706E-03    -251.183E-03    -349.318E-03    -200.758E-03     141.146E-03    -251.183E-03     113.633E-03     52.7792E-03    -26.3184E-03    -26.4631E-03    -26.1134E-03     52.4295E-03    -26.3184E-03     10.4916E-03    -7.52580E+06    -23.3882E+06    -165.562E+06    -23.4179E+06    -165.532E+06    -7.52580E+06    -2.01729E+06         24.4628
            1454     7.79478E-03     74.7476E-03     207.987E-03    -233.417E-03    -288.793E-03    -209.236E-03     139.664E-03    -244.652E-03    -91.4874E-03     52.8291E-03    -26.3015E-03    -26.5422E-03    -26.1417E-03     52.4286E-03    -26.3015E-03     11.2437E-03    -4.14963E+06    -21.0507E+06    -151.161E+06    -21.0952E+06    -151.116E+06    -4.14963E+06    -2.35026E+06         24.6921
            1455     8.76901E-03     74.7599E-03     151.943E-03    -208.907E-03    -257.845E-03    -197.284E-03     121.862E-03    -239.388E-03     34.6231E-03     52.8871E-03    -26.2783E-03    -26.6357E-03    -26.1819E-03     52.4334E-03    -26.2783E-03     11.9700E-03    -2.11651E+06    -18.5242E+06    -134.123E+06    -18.5570E+06    -134.091E+06    -2.11651E+06    -1.82016E+06         24.9783
            1456     9.74347E-03     74.7724E-03     94.5462E-03    -169.235E-03    -234.460E-03    -158.638E-03     82.1436E-03    -232.654E-03    -65.2209E-03     52.9870E-03    -26.2687E-03    -26.7519E-03    -26.2091E-03     52.4442E-03    -26.2687E-03     13.0968E-03    -2.76629E+06    -16.9817E+06    -121.356E+06    -17.0010E+06    -121.337E+06    -2.76629E+06    -1.38163E+06         25.3269
            1457     10.7174E-03     74.7875E-03     65.8432E-03    -145.359E-03    -224.206E-03    -135.020E-03     55.5035E-03    -224.206E-03    -40.6695E-03     52.8545E-03    -26.2045E-03    -26.6967E-03    -26.0769E-03     52.2347E-03    -26.2045E-03     13.9856E-03    -8.01994E+06    -16.3136E+06    -99.4466E+06    -16.3706E+06    -99.3896E+06    -8.01994E+06    -1.97785E+06         25.7446
            1458     11.6924E-03     74.8021E-03     43.7980E-03    -132.160E-03    -215.349E-03    -117.225E-03     28.8633E-03    -215.349E-03    -35.4485E-03     52.6248E-03    -26.1073E-03    -26.5579E-03    -25.8172E-03     51.8841E-03    -26.1073E-03     15.2097E-03    -11.9763E+06    -15.8529E+06    -62.9416E+06    -15.9279E+06    -62.8667E+06    -11.9763E+06    -1.85847E+06         26.3092
            1459     12.6670E-03     74.8193E-03    -1.60340E-03    -100.500E-03    -205.521E-03    -75.9470E-03    -26.1565E-03    -205.521E-03    -6.47755E-03     52.5436E-03    -26.0200E-03    -26.5219E-03    -25.6069E-03     51.6286E-03    -26.0200E-03     16.8945E-03    -4.84522E+06    -14.5323E+06    -29.5019E+06    -15.5752E+06    -20.8425E+06    -12.4617E+06    -1.14376E+06         27.1649
            1460     13.6416E-03     74.8379E-03    -1.82036E-03    -110.717E-03    -193.408E-03    -17.2159E-03    -95.3217E-03    -193.408E-03    -27.1903E-03     52.7476E-03    -25.9070E-03    -26.8352E-03    -25.4545E-03     51.3669E-03    -25.9070E-03     20.5742E-03     42.2074E+06    -12.6335E+06    -15.4503E+06    -15.4175E+06     42.1747E+06    -12.6335E+06    -535.293E+03         28.3876
            1461     14.6169E-03     74.8623E-03     47.7354E-03    -149.219E-03    -199.466E-03     44.7981E-03    -166.921E-03    -178.827E-03    -14.1871E-03     52.1700E-03    -25.7122E-03    -26.4722E-03    -25.1406E-03     50.9473E-03    -25.8211E-03     18.9553E-03     133.137E+06     491.507E+03    -14.3281E+06    -14.3179E+06     133.127E+06     491.507E+03     770.380E+03         29.9717
            1462     15.5918E-03     74.8772E-03     110.965E-03    -158.607E-03    -250.205E-03     110.318E-03    -246.137E-03    -162.028E-03    -25.4471E-03     52.6136E-03    -25.8275E-03    -26.7899E-03    -24.8625E-03     50.7951E-03    -25.9364E-03     22.4434E-03     196.092E+06     45.9173E+06    -10.9917E+06    -10.9784E+06     196.079E+06     45.9173E+06     1.30672E+06         31.9007
            1463     16.5669E-03     74.9097E-03     159.361E-03    -143.961E-03    -312.584E-03     159.011E-03    -312.234E-03    -143.961E-03     3.65786E-03     52.3831E-03    -25.3593E-03    -27.0261E-03    -24.5919E-03     50.7622E-03    -26.1726E-03     10.6545E-03     209.955E+06     101.895E+06    -6.28431E+06    -6.28074E+06     209.951E+06     101.895E+06     705.974E+03         33.9981
            1464     974.638E-06     75.7454E-03         6.74632         1.34328        -8.40947        -1.63179    -31.3621E-03         1.34328         6.03519     52.8781E-03    -26.3922E-03    -26.4844E-03    -26.4050E-03     52.8639E-03    -26.4574E-03     1.90256E-03    -38.9539E+06    -42.7516E+06    -226.126E+06    -42.4653E+06    -226.100E+06    -39.2668E+06    -1.60618E+06         23.7316
            1465     1.94835E-03     75.7486E-03         3.44446    -154.567E-03        -3.60732    -196.463E-03     33.6092E-03    -154.567E-03        -1.97136     52.8160E-03    -26.3208E-03    -26.4944E-03    -26.3224E-03     52.7696E-03    -26.4463E-03     3.67116E-03    -35.0660E+06    -38.8149E+06    -224.164E+06    -38.8236E+06    -224.155E+06    -35.0660E+06    -484.084E+03         23.8157
            1466     2.92221E-03     75.7542E-03         1.96907    -170.167E-03        -2.12268    -202.849E-03     49.2446E-03    -170.167E-03         1.00175     52.8301E-03    -26.3403E-03    -26.4899E-03    -26.3065E-03     52.7327E-03    -26.4263E-03     5.48153E-03    -30.0863E+06    -35.7155E+06    -219.141E+06    -35.7158E+06    -219.141E+06    -30.0863E+06    -107.387E+03         23.8963
            1467     3.89696E-03     75.7605E-03         1.19245    -182.561E-03        -1.32185    -241.773E-03     112.364E-03    -182.561E-03    -587.787E-03     52.7949E-03    -26.3616E-03    -26.4324E-03    -26.2253E-03     52.6377E-03    -26.4116E-03     7.00907E-03    -24.2101E+06    -33.1065E+06    -210.275E+06    -33.1167E+06    -210.265E+06    -24.2101E+06    -901.502E+03         23.9963
            1468     4.87118E-03     75.7690E-03     738.100E-03    -189.702E-03    -856.315E-03    -192.998E-03     74.7830E-03    -189.702E-03     331.452E-03     52.7492E-03    -26.3324E-03    -26.4165E-03    -26.1518E-03     52.5307E-03    -26.3787E-03     8.28223E-03    -19.4325E+06    -29.8178E+06    -197.086E+06    -29.8493E+06    -197.055E+06    -19.4325E+06    -2.05086E+06         24.1236
            1469     5.84595E-03     75.7784E-03     454.481E-03    -187.343E-03    -575.264E-03    -163.419E-03     42.6361E-03    -187.343E-03    -230.524E-03     52.8333E-03    -26.3530E-03    -26.4815E-03    -26.1935E-03     52.5540E-03    -26.3617E-03     9.38136E-03    -13.3030E+06    -26.4476E+06    -180.790E+06    -26.4788E+06    -180.758E+06    -13.3030E+06    -2.05486E+06         24.2759
            1470     6.81988E-03     75.7889E-03     264.685E-03    -182.994E-03    -392.161E-03    -160.349E-03     32.8728E-03    -182.994E-03     152.698E-03     52.8458E-03    -26.3597E-03    -26.4840E-03    -26.1465E-03     52.5084E-03    -26.3597E-03     10.3155E-03    -6.67794E+06    -23.6462E+06    -164.611E+06    -23.6688E+06    -164.588E+06    -6.67794E+06    -1.77358E+06         24.4600
            1471     7.79446E-03     75.8009E-03     155.507E-03    -180.680E-03    -286.896E-03    -181.183E-03     49.7943E-03    -180.680E-03    -98.3498E-03     52.7765E-03    -26.3317E-03    -26.4533E-03    -26.0688E-03     52.3920E-03    -26.3317E-03     11.0084E-03    -3.92969E+06    -22.0849E+06    -150.485E+06    -22.1280E+06    -150.442E+06    -3.92969E+06    -2.27078E+06         24.6902
            1472     8.76918E-03     75.8127E-03     102.700E-03    -179.906E-03    -236.234E-03    -178.365E-03     44.8308E-03    -179.906E-03     21.4933E-03     52.8679E-03    -26.2983E-03    -26.6041E-03    -26.1642E-03     52.4280E-03    -26.2983E-03     11.7820E-03    -3.79970E+06    -20.4744E+06    -135.331E+06    -20.5160E+06    -135.289E+06    -3.79970E+06    -2.07352E+06         24.9790
            1473     9.74311E-03     75.8264E-03     47.6741E-03    -159.262E-03    -201.063E-03    -146.454E-03     11.3314E-03    -177.529E-03    -72.7183E-03     52.9457E-03    -26.2806E-03    -26.7073E-03    -26.1813E-03     52.4197E-03    -26.2806E-03     12.8857E-03    -3.72191E+06    -18.0273E+06    -120.882E+06    -18.0538E+06    -120.855E+06    -3.72191E+06    -1.57050E+06         25.3288
            1474     10.7177E-03     75.8403E-03     2.94212E-03    -137.911E-03    -173.472E-03    -105.311E-03    -30.9454E-03    -172.184E-03    -14.8558E-03     52.7825E-03    -26.2043E-03    -26.6211E-03    -26.0127E-03     52.1741E-03    -26.2043E-03     13.8412E-03    -8.92635E+06    -16.7336E+06    -98.8060E+06    -16.4163E+06    -98.7530E+06    -9.29654E+06    -1.93491E+06         25.7443
            1475     11.6920E-03     75.8553E-03    -8.26339E-03    -130.330E-03    -167.702E-03    -79.7888E-03    -61.6845E-03    -164.822E-03    -15.3127E-03     52.6349E-03    -26.1094E-03    -26.5607E-03    -25.8211E-03     51.8954E-03    -26.1094E-03     15.1980E-03    -13.4162E+06    -16.3129E+06    -63.4217E+06    -16.0303E+06    -63.3342E+06    -13.7864E+06    -1.90439E+06         26.3072
            1476     12.6666E-03     75.8722E-03    -24.0233E-03    -118.392E-03    -166.771E-03    -57.1713E-03    -95.4028E-03    -156.612E-03     7.30659E-03     52.5489E-03    -26.0253E-03    -26.5238E-03    -25.6098E-03     51.6350E-03    -26.0253E-03     16.8865E-03    -5.46214E+06    -14.3795E+06    -30.3230E+06    -15.3189E+06    -21.0777E+06    -13.7681E+06    -1.45939E+06         27.1639
            1477     13.6420E-03     75.8907E-03    -3.93979E-03    -126.143E-03    -178.928E-03    -11.6038E-03    -150.405E-03    -147.002E-03    -23.4591E-03     52.7080E-03    -25.9055E-03    -26.8036E-03    -25.4377E-03     51.3421E-03    -25.9055E-03     20.4645E-03     41.4452E+06    -12.7979E+06    -15.9624E+06    -14.4541E+06     41.3784E+06    -14.2395E+06    -936.342E+03         28.3881
            1478     14.6167E-03     75.9155E-03     53.9904E-03    -133.851E-03    -225.791E-03     52.1745E-03    -222.852E-03    -134.974E-03    -12.5978E-03     52.2055E-03    -25.7613E-03    -26.4576E-03    -25.2051E-03     51.0096E-03    -25.8178E-03     18.7299E-03     132.200E+06    -1.08967E+06    -14.1078E+06    -13.5870E+06     132.196E+06    -1.60711E+06    -187.346E+03         29.9729
            1479     15.5917E-03     75.9306E-03     109.494E-03    -120.636E-03    -289.352E-03     108.610E-03    -288.468E-03    -120.636E-03    -33.1129E-03     52.5600E-03    -25.8741E-03    -26.6869E-03    -24.8215E-03     50.7512E-03    -25.9306E-03     22.2891E-03     194.914E+06     42.9690E+06    -11.7370E+06    -11.7255E+06     194.902E+06     42.9690E+06     1.17845E+06         31.9025
            1480     16.5673E-03     75.9627E-03     168.785E-03    -104.753E-03    -355.273E-03     167.291E-03    -353.779E-03    -104.753E-03    -31.5235E-03     52.2394E-03    -25.3206E-03    -26.9201E-03    -24.4522E-03     50.6148E-03    -26.1638E-03     10.6431E-03     210.168E+06     100.356E+06    -6.86700E+06    -6.85551E+06     210.157E+06     100.356E+06     1.21324E+06         34.0009
            1481     973.326E-06     76.7989E-03         8.00113         1.08591        -9.39016        -1.30309    -85.9388E-03         1.08591         6.89793     53.1190E-03    -26.4225E-03    -26.6957E-03    -26.6017E-03     53.1035E-03    -26.5009E-03     2.05590E-03    -38.5254E+06    -46.6632E+06    -225.902E+06    -46.7621E+06    -225.803E+06    -38.5254E+06     1.40448E+06         23.7358
            1482     1.94773E-03     76.8021E-03         3.95303    -115.778E-03        -4.15372    -145.514E-03    -55.1766E-03    -115.778E-03        -2.33750     52.9505E-03    -26.3823E-03    -26.5680E-03    -26.3341E-03     52.9024E-03    -26.5680E-03     3.74384E-03    -32.7910E+06    -41.4185E+06    -222.626E+06    -41.4466E+06    -222.597E+06    -32.7910E+06    -1.20245E+06         23.8207
            1483     2.92280E-03     76.8068E-03         2.22195    -119.225E-03        -2.43188    -96.3127E-03    -113.613E-03    -119.225E-03         1.11712     52.7769E-03    -26.2963E-03    -26.4803E-03    -26.1965E-03     52.6771E-03    -26.4803E-03     5.54853E-03    -32.1372E+06    -37.5539E+06    -219.697E+06    -37.5786E+06    -219.672E+06    -32.1372E+06    -1.57345E+06         23.9017
            1484     3.89669E-03     76.8140E-03         1.32532    -114.618E-03        -1.53181    -111.245E-03    -95.2377E-03    -114.618E-03    -683.487E-03     52.8377E-03    -26.3707E-03    -26.4659E-03    -26.2466E-03     52.6819E-03    -26.4341E-03     6.99439E-03    -25.9816E+06    -34.3334E+06    -208.592E+06    -34.3610E+06    -208.564E+06    -25.9816E+06    -1.88220E+06         24.0000
            1485     4.87110E-03     76.8217E-03     805.975E-03    -112.958E-03        -1.00828    -106.259E-03    -96.0492E-03    -112.958E-03     357.076E-03     52.9182E-03    -26.4042E-03    -26.5118E-03    -26.2887E-03     52.7037E-03    -26.4128E-03     8.22019E-03    -21.0495E+06    -31.8202E+06    -195.244E+06    -31.8760E+06    -195.189E+06    -21.0495E+06    -2.97721E+06         24.1250
            1486     5.84523E-03     76.8315E-03     486.013E-03    -113.014E-03    -685.294E-03    -129.796E-03    -69.4847E-03    -113.014E-03    -283.211E-03     52.8922E-03    -26.3468E-03    -26.5374E-03    -26.2063E-03     52.6186E-03    -26.4042E-03     9.29208E-03    -15.7441E+06    -28.7286E+06    -180.753E+06    -28.8132E+06    -180.668E+06    -15.7441E+06     -3.3591E+06         24.2765
            1487     6.81970E-03     76.8424E-03     276.647E-03    -116.531E-03    -475.496E-03    -155.598E-03    -43.2513E-03    -116.531E-03     145.808E-03     52.8725E-03    -26.3432E-03    -26.5188E-03    -26.1335E-03     52.5361E-03    -26.3920E-03     10.2965E-03    -9.58895E+06    -25.0564E+06    -165.065E+06    -25.1190E+06    -165.002E+06    -9.58895E+06    -2.63113E+06         24.4600
            1488     7.79410E-03     76.8534E-03     130.249E-03    -120.073E-03    -322.177E-03    -142.626E-03    -49.3023E-03    -120.073E-03    -162.748E-03     52.9045E-03    -26.3655E-03    -26.5399E-03    -26.1468E-03     52.5115E-03    -26.3655E-03     11.1416E-03    -5.51897E+06    -22.2962E+06    -149.965E+06    -22.3279E+06    -149.934E+06    -5.51897E+06    -1.98040E+06         24.6895
            1489     8.76818E-03     76.8663E-03     49.1566E-03    -120.329E-03    -238.218E-03    -112.006E-03    -77.0559E-03    -120.329E-03     6.52843E-03     52.8576E-03    -26.3309E-03    -26.5461E-03    -26.0983E-03     52.4098E-03    -26.3309E-03     11.8809E-03    -5.30374E+06    -20.5397E+06    -135.075E+06    -20.5855E+06    -135.029E+06    -5.30374E+06    -2.23435E+06         24.9768
            1490     9.74291E-03     76.8792E-03     5.13413E-03    -118.455E-03    -196.796E-03    -105.345E-03    -86.3166E-03    -118.455E-03    -76.8085E-03     52.7990E-03    -26.2932E-03    -26.5391E-03    -26.0113E-03     52.2711E-03    -26.2932E-03     12.8843E-03    -5.29719E+06    -18.5052E+06    -121.020E+06    -18.5645E+06    -120.961E+06    -5.29719E+06    -2.42581E+06         25.3251
            1491     10.7173E-03     76.8936E-03    -35.8774E-03    -112.801E-03    -160.433E-03    -82.0169E-03    -111.618E-03    -115.477E-03    -2.89600E-03     52.6983E-03    -26.2048E-03    -26.5413E-03    -25.9406E-03     52.0977E-03    -26.2048E-03     13.7409E-03    -9.85374E+06    -16.8574E+06    -98.5242E+06    -16.5603E+06    -98.4511E+06    -10.2239E+06    -2.34962E+06         25.7419
            1492     11.6922E-03     76.9083E-03    -27.1743E-03    -107.791E-03    -173.021E-03    -46.5814E-03    -150.938E-03    -110.467E-03    -25.8159E-03     52.6164E-03    -26.1099E-03    -26.5447E-03    -25.8076E-03     51.8793E-03    -26.1099E-03     15.1617E-03    -14.3887E+06    -16.1855E+06    -63.5960E+06    -15.4837E+06    -63.4745E+06    -15.2120E+06    -2.21742E+06         26.3073
            1493     12.6670E-03     76.9253E-03    -11.0817E-03    -103.682E-03    -196.726E-03    -19.3915E-03    -188.416E-03    -103.682E-03    -965.595E-06     52.6663E-03    -26.0272E-03    -26.6371E-03    -25.7291E-03     51.7583E-03    -26.0272E-03     16.8642E-03    -5.56888E+06    -15.5245E+06    -30.8795E+06    -15.0326E+06    -21.2039E+06    -15.7364E+06    -2.09414E+06         27.1647
            1494     13.6411E-03     76.9438E-03     19.1173E-03    -95.4978E-03    -235.062E-03     14.5232E-03    -230.468E-03    -95.4978E-03    -35.1691E-03     52.8268E-03    -25.9104E-03    -26.9168E-03    -25.5612E-03     51.4712E-03    -25.9104E-03     20.3997E-03     40.9727E+06    -14.8802E+06    -16.8645E+06    -14.7544E+06     40.8469E+06    -16.8645E+06    -1.59522E+06         28.3889
            1495     14.6162E-03     76.9688E-03     60.9129E-03    -85.6643E-03    -278.782E-03     60.0101E-03    -277.879E-03    -85.6643E-03    -1.94958E-03     52.1432E-03    -25.6880E-03    -26.4669E-03    -25.1157E-03     50.9318E-03    -25.8278E-03     18.8791E-03     130.654E+06    -2.84066E+06    -15.6943E+06    -14.6673E+06     130.645E+06    -3.85847E+06    -274.264E+03         29.9743
            1496     15.5914E-03     76.9838E-03     95.0571E-03    -74.5070E-03    -315.228E-03     94.0079E-03    -314.179E-03    -74.5070E-03    -9.58399E-03     52.3725E-03    -25.7906E-03    -26.5819E-03    -24.6619E-03     50.5923E-03    -25.9304E-03     22.1737E-03     193.998E+06     40.8058E+06    -12.4841E+06    -12.4739E+06     193.988E+06     40.8058E+06     1.04320E+06         31.9046
            1497     16.5671E-03     77.0153E-03     140.529E-03    -62.5261E-03    -373.868E-03     138.861E-03    -372.201E-03    -62.5261E-03    -51.8921E-03     52.0968E-03    -25.2895E-03    -26.8071E-03    -24.3719E-03     50.5277E-03    -26.1556E-03     10.5821E-03     210.770E+06     98.9253E+06    -6.71718E+06    -6.70849E+06     210.761E+06     98.9253E+06     898.500E+03         34.0039
            1498     974.666E-06     77.8530E-03         9.07457     879.333E-03        -10.2593    -976.085E-03    -208.656E-03     879.333E-03         7.81729     52.8396E-03    -26.2119E-03    -26.6279E-03    -26.4224E-03     52.8219E-03    -26.3998E-03     2.20283E-03    -41.5460E+06    -48.3953E+06    -226.509E+06    -47.6537E+06    -226.410E+06    -42.3868E+06     1.69032E+06         23.7321
            1499     1.94836E-03     77.8551E-03         4.38276    -57.0771E-03        -4.63530    -93.3625E-03    -159.172E-03    -57.0771E-03        -2.47896     53.0499E-03    -26.4217E-03    -26.6283E-03    -26.4936E-03     52.9994E-03    -26.5059E-03     3.89586E-03    -30.3478E+06    -41.5609E+06    -221.181E+06    -41.5896E+06    -221.152E+06    -30.3478E+06     172.697E+03         23.8188
            1500     2.92181E-03     77.8600E-03         2.48522    -60.2340E-03        -2.75154    -27.1435E-03    -239.175E-03    -60.2340E-03         1.30425     52.9841E-03    -26.3886E-03    -26.5959E-03    -26.3818E-03     52.8882E-03    -26.5068E-03     5.46577E-03    -29.9798E+06    -38.7836E+06    -217.862E+06    -38.8486E+06    -217.797E+06    -29.9798E+06    -2.01239E+06         23.9028
            1501     3.89678E-03     77.8668E-03         1.45648    -49.3821E-03        -1.72980    -10.3312E-03    -262.987E-03    -49.3821E-03    -754.518E-03     52.8743E-03    -26.3834E-03    -26.4907E-03    -26.2504E-03     52.7148E-03    -26.4641E-03     7.04843E-03    -28.6235E+06    -36.4995E+06    -207.536E+06    -36.5607E+06    -207.475E+06    -28.6235E+06    -3.09882E+06         24.0013
            1502     4.87081E-03     77.8753E-03     887.379E-03    -43.4911E-03        -1.16162    -38.4623E-03    -235.783E-03    -43.4911E-03     381.946E-03     52.9976E-03    -26.4305E-03    -26.5663E-03    -26.3304E-03     52.7712E-03    -26.4399E-03     8.45862E-03    -23.6611E+06    -34.0089E+06    -193.555E+06    -34.0909E+06    -193.473E+06    -23.6611E+06    -3.43988E+06         24.1245
            1503     5.84484E-03     77.8848E-03     527.008E-03    -47.3518E-03    -796.606E-03    -106.257E-03    -163.341E-03    -47.3518E-03    -334.643E-03     52.9345E-03    -26.3798E-03    -26.5501E-03    -26.2215E-03     52.6548E-03    -26.4286E-03     9.40044E-03    -18.8004E+06    -30.5016E+06    -178.983E+06    -30.6806E+06    -178.804E+06    -18.8004E+06    -4.98401E+06         24.2758
            1504     6.81957E-03     77.8950E-03     292.258E-03    -55.3866E-03    -554.897E-03    -107.515E-03    -155.125E-03    -55.3866E-03     150.851E-03     52.8803E-03    -26.3586E-03    -26.5079E-03    -26.1076E-03     52.5288E-03    -26.4074E-03     10.5150E-03    -14.4980E+06    -26.6515E+06    -166.033E+06    -26.8486E+06    -165.836E+06    -14.4980E+06    -4.97395E+06         24.4588
            1505     7.79382E-03     77.9072E-03     142.297E-03    -59.4213E-03    -397.840E-03    -75.3184E-03    -180.225E-03    -59.4213E-03    -171.364E-03     52.9199E-03    -26.3777E-03    -26.5357E-03    -26.1238E-03     52.5080E-03    -26.3777E-03     11.4081E-03    -8.86308E+06    -22.4903E+06    -151.303E+06    -22.5774E+06    -151.216E+06    -8.86308E+06    -2.80644E+06         24.6861
            1506     8.76831E-03     77.9192E-03     44.1491E-03    -59.3172E-03    -296.914E-03    -52.9312E-03    -199.833E-03    -59.3172E-03     38.4752E-03     52.8060E-03    -26.3397E-03    -26.4827E-03    -26.0153E-03     52.3387E-03    -26.3397E-03     12.1257E-03    -6.10664E+06    -20.0048E+06    -133.914E+06    -20.0438E+06    -133.875E+06    -6.10664E+06    -1.97206E+06         24.9717
            1507     9.74280E-03     77.9323E-03    -4.86505E-03    -57.8714E-03    -248.244E-03    -51.4897E-03    -201.619E-03    -57.8714E-03    -88.6615E-03     52.7667E-03    -26.2910E-03    -26.5038E-03    -25.9510E-03     52.2139E-03    -26.2910E-03     13.1823E-03    -7.00439E+06    -18.7045E+06    -120.274E+06    -18.8104E+06    -120.168E+06    -7.00439E+06    -3.11744E+06         25.3202
            1508     10.7174E-03     77.9466E-03    -28.3442E-03    -56.3437E-03    -225.372E-03    -47.3613E-03    -206.355E-03    -56.3437E-03    -20.2335E-03     52.6933E-03    -26.1937E-03    -26.5470E-03    -25.9357E-03     52.0820E-03    -26.1937E-03     13.8647E-03    -11.8502E+06    -18.3691E+06    -98.6690E+06    -17.3269E+06    -98.4732E+06    -13.0881E+06    -3.79168E+06         25.7396
            1509     11.6919E-03     77.9611E-03    -4.93733E-03    -53.5755E-03    -248.864E-03    -17.3480E-03    -236.454E-03    -53.5755E-03    -48.8448E-03     52.6936E-03    -26.1052E-03    -26.6338E-03    -25.8891E-03     51.9489E-03    -26.1052E-03     15.2486E-03    -15.1055E+06    -17.2858E+06    -63.4428E+06    -15.6088E+06    -63.1585E+06    -17.0668E+06    -3.44001E+06         26.3077
            1510     12.6664E-03     77.9786E-03     30.3495E-03    -48.1760E-03    -292.787E-03     28.8155E-03    -291.253E-03    -48.1760E-03    -11.2154E-03     52.7225E-03    -26.0329E-03    -26.6885E-03    -25.7683E-03     51.8023E-03    -26.0329E-03     16.9874E-03    -6.77260E+06    -15.2729E+06    -30.9789E+06    -14.5603E+06    -21.8411E+06    -16.6230E+06    -2.56146E+06         27.1660
            1511     13.6413E-03     77.9972E-03     57.6598E-03    -40.6834E-03    -328.388E-03     56.4361E-03    -327.164E-03    -40.6834E-03    -37.9677E-03     52.8206E-03    -25.9162E-03    -26.9017E-03    -25.5134E-03     51.4324E-03    -25.9162E-03     20.6197E-03     39.5932E+06    -14.7714E+06    -17.8025E+06    -14.6131E+06     39.4349E+06    -17.8025E+06    -1.24408E+06         28.3905
            1512     14.6161E-03     78.0215E-03     70.6986E-03    -32.7049E-03    -343.996E-03     69.8775E-03    -343.175E-03    -32.7049E-03    -2.36990E-03     52.1553E-03    -25.6848E-03    -26.4807E-03    -25.0895E-03     50.9058E-03    -25.8266E-03     19.1689E-03     129.678E+06    -3.68829E+06    -16.1711E+06    -14.4829E+06     129.671E+06    -5.36930E+06    -26.9330E+03         29.9765
            1513     15.5917E-03     78.0371E-03     105.482E-03    -24.1612E-03    -382.654E-03     104.714E-03    -381.885E-03    -24.1612E-03    -2.63847E-03     52.3516E-03    -25.7881E-03    -26.5634E-03    -24.6609E-03     50.5909E-03    -25.9299E-03     22.1198E-03     194.099E+06     40.2006E+06    -11.7305E+06    -11.7258E+06     194.094E+06     40.2006E+06    -126.097E+03         31.9072
            1514     16.5671E-03     78.0680E-03     147.452E-03    -14.5429E-03    -437.050E-03     146.659E-03    -436.256E-03    -14.5429E-03    -4.41106E-03     52.0896E-03    -25.2987E-03    -26.7937E-03    -24.4040E-03     50.5615E-03    -26.1602E-03     10.6408E-03     210.966E+06     98.5849E+06    -6.66430E+06    -6.66017E+06     210.962E+06     98.5849E+06     126.891E+03         34.0074
            1515     974.021E-06     78.9052E-03         10.0695     659.963E-03        -11.0401    -584.679E-03    -385.976E-03     659.963E-03         8.50737     52.7225E-03    -26.2060E-03    -26.5168E-03    -26.3150E-03     52.7086E-03    -26.3940E-03     1.87283E-03    -41.7900E+06    -46.7491E+06    -225.900E+06    -45.9346E+06    -225.874E+06    -42.6309E+06     419.827E+03         23.7285
            1516     1.94855E-03     78.9090E-03         4.75169     28.7417E-03        -5.09403    -7.04706E-03    -335.291E-03     28.7417E-03        -2.76069     52.8896E-03    -26.3457E-03    -26.5442E-03    -26.4203E-03     52.8418E-03    -26.4217E-03     3.75917E-03    -35.1443E+06    -43.1058E+06    -221.616E+06    -43.1195E+06    -221.603E+06    -35.1443E+06     561.202E+03         23.8146
            1517     2.92263E-03     78.9136E-03         2.67576     19.3734E-03        -3.02064     14.6256E-03    -359.508E-03     19.3734E-03         1.39216     53.0462E-03    -26.4028E-03    -26.6436E-03    -26.4851E-03     52.9467E-03    -26.4618E-03     5.56219E-03    -30.6068E+06    -40.2851E+06    -214.646E+06    -40.3298E+06    -214.602E+06    -30.6068E+06    -724.018E+03         23.9000
            1518     3.89615E-03     78.9195E-03         1.56844     17.2180E-03        -1.90586     2.72182E-03    -340.144E-03     17.2180E-03    -836.949E-03     53.0517E-03    -26.4398E-03    -26.6117E-03    -26.4107E-03     52.8803E-03    -26.4695E-03     7.31553E-03    -28.6456E+06    -37.6000E+06    -205.133E+06    -37.7171E+06    -205.016E+06    -28.6456E+06    -3.35397E+06         23.9998
            1519     4.87080E-03     78.9286E-03     933.428E-03     15.2165E-03        -1.26543     8.62579E-03    -340.625E-03     15.2165E-03     449.103E-03     52.8996E-03    -26.3784E-03    -26.5219E-03    -26.2252E-03     52.6642E-03    -26.4398E-03     8.62223E-03    -26.2606E+06    -34.2236E+06    -191.818E+06    -34.3998E+06    -191.641E+06    -26.2606E+06    -5.03012E+06         24.1224
            1520     5.84523E-03     78.9379E-03     562.019E-03     12.1064E-03    -890.443E-03    -23.5758E-03    -304.848E-03     12.1064E-03    -302.294E-03     52.8865E-03    -26.3606E-03    -26.5257E-03    -26.1830E-03     52.5958E-03    -26.4126E-03     9.56957E-03    -21.4786E+06    -31.9173E+06    -176.764E+06    -32.1584E+06    -176.523E+06    -21.4786E+06    -5.83854E+06         24.2733
            1521     6.81916E-03     78.9481E-03     329.608E-03     7.94469E-03    -655.956E-03    -17.6730E-03    -308.675E-03     7.94469E-03     182.370E-03     52.9432E-03    -26.3974E-03    -26.5420E-03    -26.1675E-03     52.5687E-03    -26.3974E-03     10.8598E-03    -17.0593E+06    -28.9811E+06    -165.241E+06    -29.3971E+06    -164.825E+06    -17.0593E+06    -7.30195E+06         24.4563
            1522     7.79379E-03     78.9601E-03     175.070E-03     6.08332E-03    -499.943E-03    -6.31350E-03    -318.559E-03     6.08332E-03    -158.352E-03     52.8206E-03    -26.3656E-03    -26.4630E-03    -26.0326E-03     52.3902E-03    -26.3656E-03     11.6493E-03    -13.5171E+06    -24.3943E+06    -154.433E+06    -24.7607E+06    -154.066E+06    -13.5171E+06    -6.13371E+06         24.6819
            1523     8.76839E-03     78.9722E-03     72.2645E-03     4.96535E-03    -393.072E-03    -15.3054E-03    -305.502E-03     4.96535E-03     72.6103E-03     52.8175E-03    -26.3272E-03    -26.5216E-03    -26.0480E-03     52.3440E-03    -26.3272E-03     12.2116E-03    -8.77570E+06    -19.6606E+06    -134.379E+06    -19.7905E+06    -134.249E+06    -8.77570E+06    -3.27195E+06         24.9670
            1524     9.74293E-03     78.9855E-03     27.5786E-03     3.90856E-03    -344.176E-03    -10.7799E-03    -305.818E-03     3.90856E-03    -76.2542E-03     52.8127E-03    -26.2902E-03    -26.5613E-03    -26.0255E-03     52.2769E-03    -26.2902E-03     12.9907E-03    -6.74975E+06    -16.6050E+06    -117.787E+06    -16.7736E+06    -117.619E+06    -6.74975E+06    -3.82672E+06         25.3177
            1525     10.7175E-03     78.9995E-03     24.5633E-03     4.29269E-03    -339.421E-03     10.5330E-03    -325.391E-03     4.29269E-03    -2.85421E-03     52.6862E-03    -26.1927E-03    -26.5432E-03    -25.9397E-03     52.0826E-03    -26.1927E-03     13.7666E-03    -10.7599E+06    -17.6161E+06    -97.9797E+06    -15.0503E+06    -97.6180E+06    -13.6874E+06    -5.33954E+06         25.7385
            1526     11.6920E-03     79.0145E-03     38.3155E-03     6.48023E-03    -356.779E-03     30.5069E-03    -348.971E-03     6.48023E-03    -48.7248E-03     52.7068E-03    -26.1004E-03    -26.6510E-03    -25.8852E-03     51.9409E-03    -26.1004E-03     15.4667E-03    -13.6256E+06    -18.3462E+06    -64.4814E+06    -14.0864E+06    -64.0206E+06    -18.3462E+06    -4.70381E+06         26.3075
            1527     12.6665E-03     79.0319E-03     64.2928E-03     10.4382E-03    -385.532E-03     61.6844E-03    -382.924E-03     10.4382E-03    -21.9439E-03     52.6764E-03    -26.0242E-03    -26.6521E-03    -25.7070E-03     51.7313E-03    -26.0242E-03     17.2048E-03    -6.93445E+06    -15.7009E+06    -32.6428E+06    -13.9988E+06    -23.0577E+06    -18.2216E+06    -2.92026E+06         27.1674
            1528     13.6414E-03     79.0498E-03     84.8659E-03     15.8808E-03    -411.300E-03     82.4071E-03    -408.841E-03     15.8808E-03    -39.8848E-03     52.8096E-03    -25.9066E-03    -26.9031E-03    -25.5131E-03     51.4195E-03    -25.9066E-03     20.6622E-03     38.0389E+06    -14.3551E+06    -19.2812E+06    -14.2031E+06     37.8869E+06    -19.2812E+06    -1.18532E+06         28.3931
            1529     14.6164E-03     79.0751E-03     99.2412E-03     21.9156E-03    -435.161E-03     98.5090E-03    -434.429E-03     21.9156E-03    -12.1746E-03     52.1500E-03    -25.6687E-03    -26.4934E-03    -25.1090E-03     50.9117E-03    -25.8147E-03     19.1002E-03     128.681E+06    -4.59389E+06    -15.9895E+06    -13.5779E+06     128.674E+06    -6.99925E+06    -460.861E+03         29.9795
            1530     15.5912E-03     79.0898E-03     149.526E-03     29.3465E-03    -489.839E-03     149.097E-03    -489.410E-03     29.3465E-03    -31.7818E-03     52.4336E-03    -25.7785E-03    -26.6546E-03    -24.7353E-03     50.6603E-03    -25.9246E-03     22.2210E-03     194.042E+06     39.6601E+06    -11.3290E+06    -11.3259E+06     194.039E+06     39.6601E+06    -638.057E+03         31.9108
            1531     16.5669E-03     79.1212E-03     198.795E-03     38.6757E-03    -540.743E-03     198.142E-03    -540.089E-03     38.6757E-03     3.10966E-03     52.1894E-03    -25.2958E-03    -26.8962E-03    -24.4841E-03     50.6476E-03    -26.1662E-03     10.7110E-03     211.201E+06     99.1229E+06    -6.83255E+06    -6.82876E+06     211.197E+06     99.1229E+06    -35.6014E+03         34.0117
            1532     974.150E-06     79.9587E-03         10.9388     408.892E-03        -11.6734    -239.116E-03    -495.506E-03     408.892E-03         9.06953     52.8411E-03    -26.2897E-03    -26.5510E-03    -26.4371E-03     52.8271E-03    -26.3897E-03     1.69107E-03    -43.0554E+06    -48.7464E+06    -226.534E+06    -48.7648E+06    -226.516E+06    -43.0554E+06     1.32778E+06         23.7265
            1533     1.94804E-03     79.9618E-03         5.07179     89.1132E-03        -5.48068     105.215E-03    -514.105E-03     89.1132E-03        -3.00731     52.7114E-03    -26.2853E-03    -26.4267E-03    -26.2382E-03     52.6617E-03    -26.4240E-03     3.85000E-03    -37.2732E+06    -43.1928E+06    -220.816E+06    -43.2038E+06    -220.805E+06    -37.2732E+06    -162.930E+03         23.8115
            1534     2.92273E-03     79.9668E-03         2.81542     91.3628E-03        -3.23352     78.8940E-03    -496.992E-03     91.3628E-03         1.50156     52.9108E-03    -26.3611E-03    -26.5508E-03    -26.4097E-03     52.8085E-03    -26.3999E-03     5.63064E-03    -33.7329E+06    -39.2331E+06    -213.155E+06    -39.2709E+06    -213.118E+06    -33.7329E+06    -1.70824E+06         23.8954
            1535     3.89693E-03     79.9737E-03         1.62799     81.6811E-03        -2.03678     17.5791E-03    -426.365E-03     81.6811E-03    -884.241E-03     53.0827E-03    -26.4246E-03    -26.6590E-03    -26.4918E-03     52.9155E-03    -26.4246E-03     7.25063E-03    -29.1018E+06    -36.2765E+06    -200.978E+06    -36.3920E+06    -200.862E+06    -29.1018E+06    -3.30140E+06         23.9947
            1536     4.87052E-03     79.9815E-03     967.679E-03     71.8944E-03        -1.36048     49.5359E-03    -442.336E-03     71.8944E-03     480.187E-03     52.8634E-03    -26.3614E-03    -26.5038E-03    -26.2170E-03     52.6328E-03    -26.4178E-03     8.51688E-03    -26.5439E+06    -34.6833E+06    -189.485E+06    -34.8952E+06    -189.273E+06    -26.5439E+06    -5.46120E+06         24.1188
            1537     5.84526E-03     79.9908E-03     597.739E-03     71.2668E-03    -986.548E-03     84.3093E-03    -473.119E-03     71.2668E-03    -319.710E-03     52.7534E-03    -26.3077E-03    -26.4391E-03    -26.0605E-03     52.4473E-03    -26.3803E-03     9.79267E-03    -22.4414E+06    -32.5050E+06    -174.928E+06    -32.8097E+06    -174.623E+06    -22.4414E+06    -6.50218E+06         24.2706
            1538     6.81984E-03     80.0017E-03     364.061E-03     72.8741E-03    -756.329E-03     71.5395E-03    -463.807E-03     72.8741E-03     173.155E-03     52.8860E-03    -26.3380E-03    -26.5431E-03    -26.1434E-03     52.5026E-03    -26.3542E-03     10.9995E-03    -17.6715E+06    -29.9552E+06    -161.801E+06    -30.4798E+06    -161.276E+06    -17.6715E+06    -8.16756E+06         24.4545
            1539     7.79404E-03     80.0128E-03     201.440E-03     71.6162E-03    -591.563E-03     41.9167E-03    -432.039E-03     71.6162E-03    -181.595E-03     52.9080E-03    -26.3319E-03    -26.5938E-03    -26.1613E-03     52.4755E-03    -26.3319E-03     11.6913E-03    -17.6174E+06    -27.5871E+06    -155.635E+06    -28.2945E+06    -154.928E+06    -17.6174E+06    -9.34912E+06         24.6803
            1540     8.76850E-03     80.0255E-03     112.772E-03     69.0229E-03    -499.046E-03     42.3694E-03    -428.643E-03     69.0229E-03     61.0191E-03     52.8615E-03    -26.2959E-03    -26.6031E-03    -26.1125E-03     52.3709E-03    -26.2959E-03     12.4356E-03    -16.1158E+06    -23.0806E+06    -136.866E+06    -23.7330E+06    -136.213E+06    -16.1158E+06    -7.92136E+06         24.9647
            1541     9.74253E-03     80.0388E-03     83.6743E-03     66.2580E-03    -466.076E-03     50.4394E-03    -434.069E-03     67.4857E-03    -80.5482E-03     52.8203E-03    -26.2758E-03    -26.5889E-03    -26.0462E-03     52.2776E-03    -26.2758E-03     13.0793E-03    -9.34707E+06    -17.4133E+06    -115.910E+06    -17.9761E+06    -115.348E+06    -9.34707E+06    -6.79863E+06         25.3173
            1542     10.7172E-03     80.0523E-03     81.7158E-03     66.2958E-03    -461.817E-03     68.2670E-03    -449.596E-03     67.5235E-03     1.30511E-03     52.7332E-03    -26.1936E-03    -26.5914E-03    -25.9736E-03     52.1154E-03    -26.1936E-03     13.9249E-03    -9.79877E+06    -18.2703E+06    -97.6360E+06    -14.6416E+06    -97.0746E+06    -13.9890E+06    -6.71594E+06         25.7407
            1543     11.6919E-03     80.0679E-03     89.0401E-03     69.0599E-03    -470.724E-03     82.8331E-03    -464.517E-03     69.0599E-03    -53.3899E-03     52.6693E-03    -26.1019E-03    -26.6054E-03    -25.8485E-03     51.9124E-03    -26.1019E-03     15.3936E-03    -13.0965E+06    -18.8452E+06    -66.7695E+06    -13.6536E+06    -66.2125E+06    -18.8452E+06    -5.35297E+06         26.3103
            1544     12.6670E-03     80.0845E-03     90.0889E-03     71.2345E-03    -473.644E-03     86.7733E-03    -470.328E-03     71.2345E-03    -30.2759E-03     52.6354E-03    -26.0276E-03    -26.6023E-03    -25.6866E-03     51.7197E-03    -26.0276E-03     16.9178E-03    -7.14710E+06    -15.3987E+06    -33.2518E+06    -13.7850E+06    -24.2255E+06    -17.7870E+06    -3.36586E+06         27.1701
            1545     13.6413E-03     80.1036E-03     112.906E-03     74.2372E-03    -497.229E-03     109.879E-03    -494.202E-03     74.2372E-03    -34.3397E-03     52.7920E-03    -25.9062E-03    -26.8860E-03    -25.5076E-03     51.4136E-03    -25.9062E-03     20.5748E-03     37.0811E+06    -14.3251E+06    -19.5346E+06    -13.9953E+06     36.7512E+06    -19.5346E+06    -1.88347E+06         28.3961
            1546     14.6160E-03     80.1276E-03     152.266E-03     79.0934E-03    -540.734E-03     151.553E-03    -540.021E-03     79.0934E-03    -1.70282E-03     52.1073E-03    -25.6558E-03    -26.4652E-03    -25.0769E-03     50.8800E-03    -25.8167E-03     19.0103E-03     128.141E+06    -3.71929E+06    -16.6462E+06    -13.8153E+06     128.131E+06    -6.54044E+06    -938.772E+03         29.9832
            1547     15.5921E-03     80.1430E-03     183.161E-03     85.7376E-03    -579.412E-03     182.609E-03    -578.861E-03     85.7376E-03    -39.9451E-03     52.4574E-03    -25.7599E-03    -26.6996E-03    -24.7445E-03     50.6632E-03    -25.9209E-03     22.3291E-03     193.385E+06     38.9841E+06    -12.1894E+06    -12.1880E+06     193.383E+06     38.9841E+06    -233.920E+03         31.9150
            1548     16.5668E-03     80.1747E-03     207.503E-03     93.0490E-03    -608.133E-03     206.612E-03    -607.242E-03     93.0490E-03    -40.2942E-03     52.2085E-03    -25.2760E-03    -26.9357E-03    -24.4824E-03     50.6361E-03    -26.1570E-03     10.7063E-03     210.827E+06     97.6903E+06    -7.14423E+06    -7.14375E+06     210.826E+06     97.6903E+06     89.7602E+03         34.0168
            1549     973.912E-06     81.0120E-03         11.4958     209.263E-03        -12.0261     104.723E-03    -635.059E-03     209.263E-03         9.43257     52.5976E-03    -26.1510E-03    -26.4465E-03    -26.3680E-03     52.5818E-03    -26.2137E-03     1.95166E-03    -45.7126E+06    -51.6839E+06    -226.811E+06    -49.5708E+06    -226.758E+06    -47.8784E+06     431.330E+03         23.7205
            1550     1.94875E-03     81.0146E-03         5.26753     156.690E-03        -5.75202     154.454E-03    -638.939E-03     156.690E-03        -3.08548     52.7890E-03    -26.2765E-03    -26.5127E-03    -26.3971E-03     52.7360E-03    -26.3392E-03     3.96713E-03    -42.3636E+06    -47.2696E+06    -218.446E+06    -46.3626E+06    -218.409E+06    -43.3072E+06    -1.60824E+06         23.8071
            1551     2.92250E-03     81.0199E-03         2.91904     152.195E-03        -3.40071     126.668E-03    -608.340E-03     152.195E-03         1.62664     52.8321E-03    -26.3484E-03    -26.4855E-03    -26.3648E-03     52.7246E-03    -26.3615E-03     5.77902E-03    -39.8036E+06    -44.0479E+06    -210.292E+06    -43.1923E+06    -210.204E+06    -40.7472E+06    -3.47138E+06         23.8910
            1552     3.89653E-03     81.0269E-03         1.67014     141.241E-03        -2.13759     84.7004E-03    -552.155E-03     141.241E-03    -899.441E-03     52.7993E-03    -26.3408E-03    -26.4608E-03    -26.2665E-03     52.6329E-03    -26.3687E-03     7.22098E-03    -34.2425E+06    -40.0780E+06    -199.210E+06    -40.2365E+06    -199.052E+06    -34.2425E+06    -4.78405E+06         23.9892
            1553     4.87126E-03     81.0348E-03         1.00706     131.248E-03        -1.46450     97.4728E-03    -554.913E-03     131.248E-03     471.901E-03     52.8098E-03    -26.3477E-03    -26.4637E-03    -26.2153E-03     52.5806E-03    -26.3669E-03     8.48690E-03    -26.4770E+06    -36.2572E+06    -185.968E+06    -36.5078E+06    -185.717E+06    -26.4770E+06    -5.80073E+06         24.1150
            1554     5.84532E-03     81.0437E-03     625.725E-03     129.189E-03        -1.08054     138.785E-03    -593.596E-03     129.189E-03    -381.686E-03     52.8172E-03    -26.3248E-03    -26.4841E-03    -26.1568E-03     52.5105E-03    -26.3454E-03     9.81531E-03    -22.1837E+06    -32.3324E+06    -172.205E+06    -32.8184E+06    -171.719E+06    -22.1837E+06    -8.01202E+06         24.2699
            1555     6.81998E-03     81.0546E-03     391.089E-03     131.842E-03    -846.417E-03     149.827E-03    -605.155E-03     131.842E-03     170.909E-03     52.8778E-03    -26.3147E-03    -26.5573E-03    -26.1692E-03     52.5060E-03    -26.3310E-03     10.8381E-03    -16.9827E+06    -28.5489E+06    -158.895E+06    -29.2077E+06    -158.236E+06    -16.9827E+06    -9.15803E+06         24.4550
            1556     7.79424E-03     81.0664E-03     242.344E-03     132.910E-03    -697.825E-03     119.313E-03    -574.793E-03     132.910E-03    -187.306E-03     52.9485E-03    -26.3304E-03    -26.6278E-03    -26.2128E-03     52.5335E-03    -26.3304E-03     11.4587E-03    -13.9461E+06    -25.0217E+06    -152.741E+06    -25.9926E+06    -151.770E+06    -13.9461E+06    -10.9329E+06         24.6808
            1557     8.76820E-03     81.0784E-03     166.326E-03     131.989E-03    -621.075E-03     117.692E-03    -572.441E-03     131.989E-03     55.9545E-03     52.8250E-03    -26.2768E-03    -26.5778E-03    -26.0818E-03     52.3290E-03    -26.2768E-03     12.4887E-03    -16.7201E+06    -22.8288E+06    -137.802E+06    -22.8848E+06    -136.428E+06    -18.0375E+06    -12.4473E+06         24.9643
            1558     9.74332E-03     81.0919E-03     152.012E-03     130.639E-03    -605.415E-03     129.206E-03    -583.837E-03     131.867E-03    -77.1957E-03     52.7624E-03    -26.2372E-03    -26.5674E-03    -26.0095E-03     52.2045E-03    -26.2372E-03     13.2577E-03    -13.4661E+06    -19.6369E+06    -117.694E+06    -19.5213E+06    -116.492E+06    -14.7835E+06    -10.7589E+06         25.3180
            1559     10.7175E-03     81.1056E-03     140.640E-03     125.550E-03    -586.201E-03     125.292E-03    -577.586E-03     132.283E-03     4.70978E-03     52.8067E-03    -26.1759E-03    -26.6840E-03    -26.0606E-03     52.1834E-03    -26.1759E-03     14.0037E-03    -12.8083E+06    -20.6313E+06    -98.2107E+06    -17.5030E+06    -97.4064E+06    -16.7409E+06    -8.03132E+06         25.7447
            1560     11.6920E-03     81.1207E-03     137.849E-03     123.738E-03    -578.664E-03     124.451E-03    -574.091E-03     132.563E-03    -52.0069E-03     52.7917E-03    -26.0947E-03    -26.7382E-03    -25.9753E-03     52.0289E-03    -26.0947E-03     15.4791E-03    -15.4445E+06    -22.2971E+06    -68.4386E+06    -16.4353E+06    -67.4477E+06    -22.2971E+06    -6.71401E+06         26.3149
            1561     12.6660E-03     81.1379E-03     137.564E-03     129.877E-03    -585.590E-03     132.043E-03    -583.390E-03     133.198E-03    -21.7162E-03     52.6881E-03    -26.0289E-03    -26.6490E-03    -25.7324E-03     51.7715E-03    -26.0289E-03     16.9378E-03    -8.36071E+06    -17.0387E+06    -35.2155E+06    -14.1910E+06    -26.3705E+06    -20.0535E+06    -4.99400E+06         27.1734
            1562     13.6414E-03     81.1563E-03     162.082E-03     135.213E-03    -615.113E-03     160.141E-03    -613.173E-03     135.213E-03    -45.3069E-03     52.7424E-03    -25.9113E-03    -26.8227E-03    -25.4638E-03     51.3834E-03    -25.9113E-03     20.4244E-03     35.7707E+06    -13.7071E+06    -20.2286E+06    -13.1201E+06     35.1838E+06    -20.2286E+06    -2.48310E+06         28.3991
            1563     14.6167E-03     81.1809E-03     197.591E-03     139.251E-03    -655.518E-03     197.249E-03    -655.176E-03     139.251E-03    -18.3719E-03     52.0955E-03    -25.6840E-03    -26.4231E-03    -25.0913E-03     50.8973E-03    -25.8176E-03     18.7630E-03     127.276E+06    -4.07662E+06    -16.5671E+06    -13.0449E+06     127.261E+06    -7.58343E+06    -850.856E+03         29.9868
            1564     15.5910E-03     81.1960E-03     199.145E-03     144.127E-03    -663.021E-03     198.872E-03    -662.748E-03     144.127E-03    -28.2905E-03     52.3479E-03    -25.7832E-03    -26.5683E-03    -24.6548E-03     50.5681E-03    -25.9168E-03     22.1439E-03     192.835E+06     37.0924E+06    -11.9490E+06    -11.9465E+06     192.833E+06     37.0924E+06    -209.829E+03         31.9198
            1565     16.5673E-03     81.2277E-03     189.094E-03     147.979E-03    -661.849E-03     188.352E-03    -661.108E-03     147.979E-03    -34.2690E-03     52.1484E-03    -25.3495E-03    -26.8027E-03    -24.4273E-03     50.5748E-03    -26.1512E-03     10.5839E-03     210.596E+06     96.4518E+06    -7.23710E+06    -7.23573E+06     210.595E+06     96.4518E+06    -198.127E+03         34.0233
            1566     975.214E-06     82.0650E-03         11.8341     44.1897E-03        -12.2017     433.632E-03    -801.232E-03     44.1897E-03         9.62839     52.5023E-03    -26.1395E-03    -26.3626E-03    -26.3486E-03     52.4883E-03    -26.1395E-03     1.95214E-03    -46.1485E+06    -51.0111E+06    -226.085E+06    -49.0158E+06    -225.915E+06    -48.3143E+06    -1.87901E+06         23.7134
            1567     1.94820E-03     82.0678E-03         5.33932     220.750E-03        -5.88502     147.755E-03    -693.457E-03     220.750E-03        -3.18404     52.7946E-03    -26.2855E-03    -26.5097E-03    -26.4392E-03     52.7442E-03    -26.3056E-03     3.81871E-03    -42.9595E+06    -48.1714E+06    -214.783E+06    -47.3145E+06    -214.697E+06    -43.9031E+06    -2.81042E+06         23.8017
            1568     2.92251E-03     82.0732E-03         2.96747     197.754E-03        -3.49225     168.215E-03    -692.993E-03     197.754E-03         1.61032     52.6939E-03    -26.2910E-03    -26.4035E-03    -26.2469E-03     52.5840E-03    -26.3378E-03     5.82561E-03    -39.4561E+06    -45.3429E+06    -205.560E+06    -44.5767E+06    -205.382E+06    -40.3997E+06    -5.09651E+06         23.8871
            1569     3.89717E-03     82.0796E-03         1.72594     193.206E-03        -2.24581     193.972E-03    -713.834E-03     193.206E-03    -928.421E-03     52.6356E-03    -26.2835E-03    -26.3535E-03    -26.1420E-03     52.4656E-03    -26.3250E-03     7.29217E-03    -34.0903E+06    -40.6364E+06    -197.364E+06    -40.9522E+06    -197.048E+06    -34.0903E+06    -6.87746E+06         23.9880
            1570     4.87138E-03     82.0878E-03         1.04007     192.897E-03        -1.55596     184.414E-03    -700.304E-03     192.897E-03     495.958E-03     52.7708E-03    -26.2888E-03    -26.4829E-03    -26.2384E-03     52.5411E-03    -26.3036E-03     8.49864E-03    -29.3938E+06    -37.2144E+06    -182.981E+06    -37.7328E+06    -182.462E+06    -29.3938E+06    -8.44135E+06         24.1156
            1571     5.84572E-03     82.0970E-03     643.554E-03     191.151E-03        -1.15999     173.353E-03    -689.793E-03     191.151E-03    -366.984E-03     52.9761E-03    -26.3119E-03    -26.6615E-03    -26.3634E-03     52.6780E-03    -26.3119E-03     9.70653E-03    -24.1397E+06    -32.7733E+06    -168.675E+06    -33.5897E+06    -167.859E+06    -24.1397E+06    -10.2694E+06         24.2717
            1572     6.81950E-03     82.1079E-03     420.372E-03     190.987E-03    -938.257E-03     200.267E-03    -718.153E-03     190.987E-03     219.481E-03     52.9388E-03    -26.3268E-03    -26.6139E-03    -26.2443E-03     52.5692E-03    -26.3268E-03     10.8047E-03    -19.0623E+06    -28.6800E+06    -156.983E+06    -29.7378E+06    -155.925E+06    -19.0623E+06    -11.4886E+06         24.4564
            1573     7.79396E-03     82.1197E-03     310.056E-03     193.638E-03    -828.994E-03     214.435E-03    -733.374E-03     193.638E-03    -144.568E-03     52.8015E-03    -26.3255E-03    -26.4902E-03    -26.0746E-03     52.3860E-03    -26.3255E-03     11.4471E-03    -14.5352E+06    -24.6272E+06    -149.454E+06    -25.9800E+06    -148.101E+06    -14.5352E+06    -12.7675E+06         24.6818
            1574     8.76884E-03     82.1315E-03     243.842E-03     195.872E-03    -764.559E-03     199.284E-03    -720.001E-03     195.872E-03     64.5820E-03     52.8141E-03    -26.2614E-03    -26.5722E-03    -26.0871E-03     52.3290E-03    -26.2614E-03     12.3514E-03    -16.3310E+06    -23.1360E+06    -135.599E+06    -23.2214E+06    -133.613E+06    -18.2315E+06    -14.7142E+06         24.9659
            1575     9.74276E-03     82.1450E-03     216.367E-03     196.822E-03    -738.907E-03     195.722E-03    -718.262E-03     196.822E-03    -79.5537E-03     52.8254E-03    -26.2209E-03    -26.6307E-03    -26.0941E-03     52.2887E-03    -26.2209E-03     13.0153E-03    -16.3074E+06    -21.0254E+06    -121.114E+06    -20.9488E+06    -119.290E+06    -18.2079E+06    -13.3086E+06         25.3198
            1576     10.7176E-03     82.1589E-03     203.851E-03     191.847E-03    -720.855E-03     191.055E-03    -713.564E-03     197.352E-03     26.1224E-03     52.7688E-03    -26.1790E-03    -26.6422E-03    -26.0454E-03     52.1720E-03    -26.1790E-03     13.6949E-03    -14.1180E+06    -20.6780E+06    -100.276E+06    -18.1650E+06    -99.0465E+06    -17.8605E+06    -9.94455E+06         25.7465
            1577     11.6918E-03     82.1741E-03     197.861E-03     188.651E-03    -711.805E-03     185.709E-03    -708.531E-03     197.529E-03    -32.8309E-03     52.7647E-03    -26.0981E-03    -26.7156E-03    -25.9595E-03     52.0086E-03    -26.0981E-03     15.3996E-03    -14.8081E+06    -22.6661E+06    -68.3747E+06    -16.4574E+06    -66.7254E+06    -22.6661E+06    -8.81830E+06         26.3169
            1578     12.6668E-03     82.1910E-03     201.713E-03     194.712E-03    -723.684E-03     197.458E-03    -722.802E-03     198.085E-03     20.6513E-03     52.7593E-03    -26.0234E-03    -26.7337E-03    -25.8143E-03     51.8399E-03    -26.0234E-03     16.9836E-03    -8.79309E+06    -20.1808E+06    -38.8465E+06    -15.3109E+06    -29.2383E+06    -23.2711E+06    -7.35080E+06         27.1759
            1579     13.6410E-03     82.2093E-03     212.901E-03     197.685E-03    -737.251E-03     210.584E-03    -736.947E-03     199.697E-03    -18.1778E-03     52.8545E-03    -25.9164E-03    -26.9320E-03    -25.5753E-03     51.4978E-03    -25.9164E-03     20.4346E-03     34.0304E+06    -15.5011E+06    -22.3761E+06    -13.6769E+06     32.2063E+06    -22.3761E+06    -3.76312E+06         28.4020
            1580     14.6156E-03     82.2339E-03     223.168E-03     193.734E-03    -742.482E-03     214.806E-03    -742.185E-03     201.799E-03     1.57353E-03     52.0241E-03    -25.5816E-03    -26.4570E-03    -25.0164E-03     50.8239E-03    -25.8220E-03     18.7789E-03     125.208E+06    -5.68064E+06    -16.6818E+06    -12.8788E+06     125.190E+06    -9.46531E+06    -967.509E+03         29.9902
            1581     15.5917E-03     82.2491E-03     222.134E-03     197.827E-03    -746.013E-03     215.818E-03    -745.749E-03     203.879E-03     7.54260E-03     52.3370E-03    -25.6804E-03    -26.6607E-03    -24.6304E-03     50.5471E-03    -25.9207E-03     22.2278E-03     192.948E+06     36.7344E+06    -10.7367E+06    -10.7341E+06     192.945E+06     36.7344E+06    -401.081E+03         31.9246
            1582     16.5669E-03     82.2802E-03     217.415E-03     205.574E-03    -752.933E-03     217.306E-03    -752.824E-03     205.574E-03     9.63897E-03     52.2389E-03    -25.3383E-03    -26.9022E-03    -24.4940E-03     50.6547E-03    -26.1623E-03     10.6021E-03     211.115E+06     97.4708E+06    -6.27586E+06    -6.27478E+06     211.114E+06     97.4708E+06    -316.210E+03         34.0298
            1583     973.404E-06     83.1179E-03         11.9534    -168.776E-03        -12.1186     667.143E-03    -832.372E-03    -168.776E-03         9.70621     52.7594E-03    -26.2302E-03    -26.5286E-03    -26.2779E-03     52.7449E-03    -26.4664E-03     1.96785E-03    -44.9917E+06    -50.3076E+06    -223.245E+06    -50.4637E+06    -223.087E+06    -44.9938E+06    -2.76435E+06         23.7064
            1584     1.94856E-03     83.1214E-03         5.30517     241.856E-03        -5.87219     212.409E-03    -779.423E-03     241.856E-03        -3.18981     52.6036E-03    -26.1979E-03    -26.4065E-03    -26.1820E-03     52.5545E-03    -26.3734E-03     3.77941E-03    -38.7069E+06    -45.9198E+06    -210.353E+06    -45.7298E+06    -210.215E+06    -39.0346E+06    -3.79628E+06         23.7929
            1585     2.92289E-03     83.1258E-03         2.94961     236.540E-03        -3.51388     247.774E-03    -812.039E-03     236.540E-03         1.57405     52.5770E-03    -26.2606E-03    -26.3148E-03    -26.1636E-03     52.4744E-03    -26.3092E-03     5.62347E-03    -37.2576E+06    -42.2831E+06    -201.085E+06    -42.2371E+06    -200.803E+06    -37.5853E+06    -6.58427E+06         23.8798
            1586     3.89706E-03     83.1328E-03         1.74433     245.226E-03        -2.31467     297.013E-03    -867.348E-03     245.226E-03    -914.518E-03     52.6342E-03    -26.2716E-03    -26.3609E-03    -26.1824E-03     52.4694E-03    -26.2852E-03     7.16864E-03    -34.2694E+06    -39.3165E+06    -193.008E+06    -39.8165E+06    -192.508E+06    -34.2694E+06    -8.57936E+06         23.9862
            1587     4.87147E-03     83.1407E-03         1.06479     255.731E-03        -1.64211     291.248E-03    -868.566E-03     255.731E-03     527.796E-03     52.8183E-03    -26.2784E-03    -26.5434E-03    -26.3058E-03     52.5807E-03    -26.2784E-03     8.64243E-03    -30.0619E+06    -35.4022E+06    -179.373E+06    -36.2547E+06    -178.520E+06    -30.0619E+06    -10.8912E+06         24.1179
            1588     5.84543E-03     83.1507E-03     669.767E-03     259.285E-03        -1.25538     251.973E-03    -837.585E-03     259.285E-03    -331.043E-03     52.9818E-03    -26.3020E-03    -26.6825E-03    -26.3766E-03     52.6759E-03    -26.3020E-03     9.84208E-03    -24.5077E+06    -31.6473E+06    -165.488E+06    -32.8736E+06    -164.262E+06    -24.5077E+06    -12.6579E+06         24.2746
            1589     6.81970E-03     83.1610E-03     445.422E-03     257.999E-03        -1.03163     238.581E-03    -824.786E-03     257.999E-03     238.936E-03     52.9432E-03    -26.3244E-03    -26.6224E-03    -26.2565E-03     52.5773E-03    -26.3244E-03     10.7530E-03    -19.3719E+06    -28.4044E+06    -155.155E+06    -29.8225E+06    -153.737E+06    -19.3719E+06    -13.3018E+06         24.4595
            1590     7.79421E-03     83.1725E-03     356.847E-03     258.042E-03    -939.577E-03     269.000E-03    -851.730E-03     258.042E-03    -127.865E-03     52.8528E-03    -26.3251E-03    -26.5525E-03    -26.1391E-03     52.4394E-03    -26.3251E-03     11.4240E-03    -15.1497E+06    -24.8840E+06    -145.508E+06    -26.8586E+06    -143.533E+06    -15.1497E+06    -14.9958E+06         24.6863
            1591     8.76833E-03     83.1847E-03     314.530E-03     260.254E-03    -901.585E-03     273.907E-03    -860.963E-03     260.254E-03     83.5965E-03     52.8794E-03    -26.2809E-03    -26.6348E-03    -26.1545E-03     52.3991E-03    -26.2809E-03     12.3056E-03    -16.1964E+06    -21.9322E+06    -133.228E+06    -23.6897E+06    -130.600E+06    -17.0676E+06    -16.8140E+06         24.9713
            1592     9.74287E-03     83.1985E-03     275.536E-03     256.553E-03    -862.412E-03     253.583E-03    -845.334E-03     261.428E-03    -87.9638E-03     52.8992E-03    -26.2386E-03    -26.6888E-03    -26.1505E-03     52.3609E-03    -26.2386E-03     13.0433E-03    -17.4223E+06    -20.8505E+06    -123.855E+06    -21.2456E+06    -121.531E+06    -19.3510E+06    -15.3344E+06         25.3230
            1593     10.7168E-03     83.2118E-03     271.288E-03     256.966E-03    -859.451E-03     260.785E-03    -853.823E-03     261.841E-03     12.0187E-03     52.7737E-03    -26.1865E-03    -26.6332E-03    -26.0294E-03     52.1698E-03    -26.1865E-03     13.7777E-03    -15.4475E+06    -21.9319E+06    -102.549E+06    -19.0123E+06    -100.483E+06    -20.4323E+06    -12.8814E+06         25.7474
            1594     11.6919E-03     83.2272E-03     272.068E-03     262.943E-03    -864.397E-03     269.355E-03    -861.736E-03     262.996E-03    -43.2024E-03     52.7139E-03    -26.1084E-03    -26.6552E-03    -25.9052E-03     51.9640E-03    -26.1084E-03     15.3297E-03    -13.9362E+06    -22.4145E+06    -69.2170E+06    -16.4263E+06    -66.7270E+06    -22.4145E+06    -11.1856E+06         26.3181
            1595     12.6661E-03     83.2442E-03     267.521E-03     264.310E-03    -859.695E-03     265.718E-03    -857.946E-03     264.363E-03    -11.6346E-03     52.7388E-03    -26.0284E-03    -26.7147E-03    -25.8083E-03     51.8325E-03    -26.0284E-03     16.8619E-03    -8.93651E+06    -21.6518E+06    -40.3322E+06    -15.4898E+06    -31.2884E+06    -24.1423E+06    -9.07883E+06         27.1777
            1596     13.6411E-03     83.2628E-03     267.678E-03     255.144E-03    -849.827E-03     256.193E-03    -848.494E-03     265.296E-03    -36.0376E-03     52.7940E-03    -25.9184E-03    -26.8741E-03    -25.5155E-03     51.4354E-03    -25.9184E-03     20.4135E-03     30.8245E+06    -17.7536E+06    -24.8847E+06    -14.6467E+06     27.7176E+06    -24.8847E+06    -5.80233E+06         28.4043
            1597     14.6162E-03     83.2869E-03     265.093E-03     232.086E-03    -822.366E-03     231.690E-03    -821.971E-03     265.093E-03     1.75886E-03     52.0346E-03    -25.6475E-03    -26.4022E-03    -25.0196E-03     50.8260E-03    -25.8215E-03     18.8269E-03     123.309E+06    -6.16065E+06    -17.5134E+06    -12.7466E+06     123.183E+06    -10.8012E+06    -2.32914E+06         29.9931
            1598     15.5913E-03     83.3014E-03     265.314E-03     233.215E-03    -823.379E-03     233.466E-03    -822.588E-03     264.272E-03    -17.8715E-03     52.4626E-03    -25.7487E-03    -26.7168E-03    -24.7240E-03     50.6439E-03    -25.9227E-03     22.3979E-03     192.896E+06     36.3431E+06    -10.1946E+06    -10.1904E+06     192.892E+06     36.3431E+06    -171.695E+03         31.9282
            1599     16.5666E-03     83.3346E-03     270.147E-03     251.649E-03    -843.393E-03     256.947E-03    -842.617E-03     264.073E-03    -25.8711E-03     52.1972E-03    -25.2417E-03    -26.9583E-03    -24.4146E-03     50.5761E-03    -26.1643E-03     10.6708E-03     210.653E+06     96.7091E+06    -6.14352E+06    -6.14122E+06     210.650E+06     96.7091E+06     111.567E+03         34.0345
            1600     974.329E-06     84.1714E-03         11.8738    -392.663E-03        -11.8007     916.329E-03    -843.257E-03    -392.663E-03         9.67576     52.6753E-03    -26.2005E-03    -26.4750E-03    -26.2196E-03     52.6580E-03    -26.4385E-03     2.12511E-03    -44.8940E+06    -51.7627E+06    -220.316E+06    -51.9028E+06    -220.174E+06    -44.8961E+06     524.373E+03         23.6992
            1601     1.94827E-03     84.1736E-03         5.16907     272.782E-03        -5.77050     315.669E-03    -917.100E-03     272.782E-03        -3.06801     52.5577E-03    -26.1742E-03    -26.3851E-03    -26.1766E-03     52.5045E-03    -26.3295E-03     3.98134E-03    -40.9367E+06    -48.0746E+06    -204.441E+06    -47.9313E+06    -204.257E+06    -41.2643E+06    -5.06797E+06         23.7861
            1602     2.92267E-03     84.1792E-03         2.88784     290.878E-03        -3.50760     333.256E-03    -953.008E-03     290.878E-03         1.54271     52.6027E-03    -26.2670E-03    -26.3352E-03    -26.2214E-03     52.5038E-03    -26.2819E-03     5.54164E-03    -40.8714E+06    -44.5694E+06    -196.212E+06    -44.6728E+06    -195.781E+06    -41.1991E+06    -7.85658E+06         23.8769
            1603     3.89716E-03     84.1852E-03         1.70884     305.297E-03        -2.33712     360.837E-03    -989.112E-03     305.297E-03    -910.454E-03     52.6828E-03    -26.2824E-03    -26.3997E-03    -26.2368E-03     52.5199E-03    -26.2824E-03     7.11207E-03    -36.0069E+06    -39.8281E+06    -187.354E+06    -40.6900E+06    -186.492E+06    -36.0069E+06    -10.9143E+06         23.9868
            1604     4.87137E-03     84.1942E-03         1.05565     317.011E-03        -1.69984     359.840E-03        -1.00402     317.011E-03     510.868E-03     52.7915E-03    -26.2811E-03    -26.5140E-03    -26.2713E-03     52.5487E-03    -26.2811E-03     8.73512E-03    -31.4183E+06    -35.5756E+06    -174.822E+06    -36.8993E+06    -173.498E+06    -31.4183E+06    -13.3103E+06         24.1200
            1605     5.84562E-03     84.2037E-03     687.294E-03     323.003E-03        -1.34094     337.026E-03    -990.670E-03     323.003E-03    -351.299E-03     52.8899E-03    -26.3032E-03    -26.5901E-03    -26.2851E-03     52.5849E-03    -26.3032E-03     9.81997E-03    -25.1875E+06    -32.5181E+06    -163.141E+06    -34.1295E+06    -161.530E+06    -25.1875E+06    -14.3567E+06         24.2779
            1606     6.81988E-03     84.2144E-03     480.758E-03     323.611E-03        -1.13467     307.381E-03    -961.294E-03     323.611E-03     177.052E-03     52.9689E-03    -26.3254E-03    -26.6415E-03    -26.2873E-03     52.6147E-03    -26.3254E-03     10.5886E-03    -19.0974E+06    -28.3829E+06    -152.578E+06    -30.4115E+06    -150.549E+06    -19.0974E+06    -15.4775E+06         24.4643
            1607     7.79383E-03     84.2257E-03     395.642E-03     322.783E-03        -1.04576     317.332E-03    -967.455E-03     322.783E-03    -188.947E-03     52.9901E-03    -26.3240E-03    -26.6785E-03    -26.2686E-03     52.5801E-03    -26.3240E-03     11.3915E-03    -15.3010E+06    -23.1405E+06    -140.892E+06    -25.8964E+06    -138.137E+06    -15.3010E+06    -17.5137E+06         24.6924
            1608     8.76823E-03     84.2381E-03     356.961E-03     323.599E-03        -1.01050     331.190E-03    -984.731E-03     323.599E-03     75.5602E-03     52.9470E-03    -26.3032E-03    -26.6711E-03    -26.1887E-03     52.4645E-03    -26.3032E-03     12.3459E-03    -15.6929E+06    -20.7091E+06    -131.566E+06    -23.4694E+06    -128.517E+06    -15.9810E+06    -18.1278E+06         24.9775
            1609     9.74254E-03     84.2512E-03     335.612E-03     319.793E-03    -990.415E-03     321.937E-03    -981.615E-03     324.668E-03    -87.2000E-03     52.8885E-03    -26.2619E-03    -26.6544E-03    -26.1203E-03     52.3543E-03    -26.2619E-03     12.9900E-03    -17.3282E+06    -20.7606E+06    -125.093E+06    -21.7588E+06    -122.039E+06    -19.3834E+06    -17.6433E+06         25.3262
            1610     10.7174E-03     84.2653E-03     337.548E-03     320.667E-03    -993.234E-03     329.340E-03    -989.901E-03     325.542E-03    -20.5335E-03     52.8355E-03    -26.1922E-03    -26.6899E-03    -26.0920E-03     52.2375E-03    -26.1922E-03     13.7235E-03    -14.8991E+06    -22.6905E+06    -104.206E+06    -18.2823E+06    -100.823E+06    -22.6905E+06    -16.8431E+06         25.7478
            1611     11.6912E-03     84.2799E-03     337.949E-03     326.990E-03    -997.994E-03     335.548E-03    -995.593E-03     326.990E-03    -45.4785E-03     52.7843E-03    -26.1245E-03    -26.7058E-03    -25.9616E-03     52.0401E-03    -26.1245E-03     15.2788E-03    -11.5390E+06    -23.2687E+06    -72.1374E+06    -15.1494E+06    -68.5270E+06    -23.2687E+06    -14.1983E+06         26.3187
            1612     12.6663E-03     84.2976E-03     329.968E-03     321.194E-03    -979.975E-03     320.798E-03    -977.683E-03     328.072E-03    -40.7332E-03     52.6263E-03    -26.0419E-03    -26.5889E-03    -25.6829E-03     51.7203E-03    -26.0419E-03     16.8314E-03    -7.14945E+06    -22.4262E+06    -41.8354E+06    -13.3812E+06    -33.4528E+06    -24.5772E+06    -10.7631E+06         27.1789
            1613     13.6408E-03     84.3155E-03     328.672E-03     299.821E-03    -959.673E-03     298.613E-03    -957.674E-03     327.881E-03    -61.1773E-03     52.6945E-03    -25.9184E-03    -26.7740E-03    -25.4390E-03     51.3595E-03    -25.9184E-03     20.2385E-03     29.1496E+06    -18.4634E+06    -26.7366E+06    -13.1231E+06     23.8093E+06    -26.7366E+06    -7.20193E+06         28.4055
            1614     14.6161E-03     84.3397E-03     326.295E-03     275.270E-03    -935.915E-03     275.016E-03    -935.660E-03     326.295E-03    -6.58004E-03     52.1536E-03    -25.7523E-03    -26.4123E-03    -25.1589E-03     50.9678E-03    -25.8201E-03     18.7042E-03     120.436E+06    -7.18215E+06    -19.6093E+06    -13.2960E+06     120.245E+06    -13.3044E+06    -3.31615E+06         29.9948
            1615     15.5910E-03     84.3554E-03     323.861E-03     262.468E-03    -916.975E-03     261.858E-03    -916.364E-03     323.861E-03    -40.2742E-03     52.3588E-03    -25.8488E-03    -26.5125E-03    -24.6567E-03     50.5707E-03    -25.9166E-03     22.1899E-03     191.513E+06     32.6686E+06    -11.5064E+06    -11.4987E+06     191.505E+06     32.6686E+06    -445.281E+03         31.9301
            1616     16.5671E-03     84.3865E-03     320.823E-03     251.562E-03    -900.273E-03     250.838E-03    -899.549E-03     320.823E-03    -49.2935E-03     51.9860E-03    -25.2393E-03    -26.7516E-03    -24.2537E-03     50.4044E-03    -26.1556E-03     10.5579E-03     210.028E+06     94.0631E+06    -6.61889E+06    -6.61654E+06     210.026E+06     94.0631E+06     100.405E+03         34.0373
            1617     974.451E-06     85.2239E-03         11.5385    -513.577E-03        -11.3515         1.19712        -1.01010    -513.577E-03         9.34221     52.4371E-03    -26.1600E-03    -26.2768E-03    -26.2617E-03     52.4239E-03    -26.1619E-03     1.67478E-03    -46.3247E+06    -53.1802E+06    -216.769E+06    -50.6481E+06    -216.651E+06    -48.9749E+06     180.031E+03         23.6944
            1618     1.94875E-03     85.2273E-03         4.96119     350.602E-03        -5.63617     385.169E-03        -1.06015     350.602E-03        -2.94647     52.5986E-03    -26.2510E-03    -26.3483E-03    -26.2960E-03     52.5463E-03    -26.2510E-03     3.90164E-03    -42.7633E+06    -47.1818E+06    -198.059E+06    -47.4055E+06    -197.835E+06    -42.7633E+06    -5.07189E+06         23.7847
            1619     2.92278E-03     85.2318E-03         2.77821     362.992E-03        -3.46256     383.058E-03        -1.06740     362.992E-03         1.49118     52.6932E-03    -26.2742E-03    -26.4205E-03    -26.3179E-03     52.5906E-03    -26.2742E-03     5.65307E-03    -41.1608E+06    -43.9800E+06    -189.072E+06    -44.6427E+06    -188.409E+06    -41.1608E+06    -9.55045E+06         23.8802
            1620     3.89677E-03     85.2389E-03         1.64258     370.843E-03        -2.33912     403.210E-03        -1.09975     370.843E-03    -891.404E-03     52.7954E-03    -26.2907E-03    -26.5067E-03    -26.3393E-03     52.6281E-03    -26.2907E-03     7.21932E-03    -39.0558E+06    -41.7224E+06    -181.267E+06    -42.9684E+06    -180.021E+06    -39.0558E+06    -12.9088E+06         23.9920
            1621     4.87105E-03     85.2469E-03         1.01784     377.052E-03        -1.72158     393.621E-03        -1.09737     377.052E-03     500.064E-03     52.8070E-03    -26.3013E-03    -26.5076E-03    -26.2691E-03     52.5685E-03    -26.3013E-03     8.66744E-03    -34.7924E+06    -39.0251E+06    -170.013E+06    -40.9151E+06    -168.123E+06    -34.7924E+06    -15.5012E+06         24.1237
            1622     5.84541E-03     85.2572E-03     689.441E-03     380.069E-03        -1.40157     389.925E-03        -1.10205     380.069E-03    -335.450E-03     52.8187E-03    -26.3149E-03    -26.5083E-03    -26.2102E-03     52.5206E-03    -26.3149E-03     9.69426E-03    -28.6278E+06    -34.3453E+06    -160.622E+06    -36.7345E+06    -158.233E+06    -28.6278E+06    -17.0202E+06         24.2804
            1623     6.81953E-03     85.2676E-03     537.586E-03     382.450E-03        -1.25107     396.164E-03        -1.10965     382.450E-03     158.172E-03     52.9246E-03    -26.3193E-03    -26.6035E-03    -26.2465E-03     52.5677E-03    -26.3193E-03     10.6223E-03    -23.2636E+06    -28.9049E+06    -148.222E+06    -31.9990E+06    -145.127E+06    -23.2636E+06    -18.7353E+06         24.4668
            1624     7.79392E-03     85.2794E-03     455.769E-03     384.704E-03        -1.17112     394.717E-03        -1.11007     384.704E-03    -207.896E-03     52.9774E-03    -26.3081E-03    -26.6728E-03    -26.2600E-03     52.5646E-03    -26.3081E-03     11.4324E-03    -20.0413E+06    -25.2634E+06    -138.778E+06    -28.7972E+06    -135.244E+06    -20.0413E+06    -19.6742E+06         24.6958
            1625     8.76807E-03     85.2911E-03     408.752E-03     386.387E-03        -1.12833     392.294E-03        -1.11187     386.387E-03     71.7525E-03     53.0062E-03    -26.2952E-03    -26.7269E-03    -26.2453E-03     52.5245E-03    -26.2952E-03     12.3454E-03    -18.7083E+06    -22.5294E+06    -130.630E+06    -25.9368E+06    -127.134E+06    -18.7969E+06    -19.0983E+06         24.9817
            1626     9.74239E-03     85.3049E-03     406.192E-03     388.134E-03        -1.13014     400.537E-03        -1.12449     388.134E-03    -63.7015E-03     52.9524E-03    -26.2669E-03    -26.7112E-03    -26.1846E-03     52.4259E-03    -26.2669E-03     12.9095E-03    -16.9467E+06    -22.4371E+06    -122.103E+06    -22.8622E+06    -117.564E+06    -21.0599E+06    -20.9186E+06         25.3274
            1627     10.7164E-03     85.3181E-03     397.632E-03     384.351E-03        -1.12128     389.957E-03        -1.11888     389.626E-03    -12.5812E-03     52.8305E-03    -26.1929E-03    -26.6856E-03    -26.0837E-03     52.2286E-03    -26.1929E-03     13.7559E-03    -13.7301E+06    -26.8138E+06    -106.493E+06    -19.2643E+06    -100.959E+06    -26.8138E+06    -21.7333E+06         25.7451
            1628     11.6913E-03     85.3339E-03     392.477E-03     382.479E-03        -1.11392     382.903E-03        -1.11212     390.259E-03    -34.8472E-03     52.7475E-03    -26.1294E-03    -26.6646E-03    -25.9178E-03     52.0007E-03    -26.1294E-03     15.3077E-03    -10.5084E+06    -27.1659E+06    -77.6345E+06    -15.7241E+06    -72.4189E+06    -27.1659E+06    -17.7991E+06         26.3164
            1629     12.6656E-03     85.3499E-03     390.392E-03     367.754E-03        -1.09385     367.059E-03        -1.09283     390.063E-03    -6.92591E-03     52.6125E-03    -26.0538E-03    -26.5698E-03    -25.6773E-03     51.7200E-03    -26.0538E-03     16.7026E-03    -7.09327E+06    -25.4810E+06    -44.7139E+06    -13.7755E+06    -36.6928E+06    -26.8198E+06    -12.7381E+06         27.1783
            1630     13.6412E-03     85.3687E-03     388.410E-03     336.075E-03        -1.05939     335.325E-03        -1.05864     388.410E-03    -36.4537E-03     52.7611E-03    -25.9298E-03    -26.8340E-03    -25.5122E-03     51.4392E-03    -25.9298E-03     20.1572E-03     26.2171E+06    -20.0613E+06    -29.0072E+06    -13.2940E+06     19.4497E+06    -29.0072E+06    -7.90731E+06         28.4057
            1631     14.6154E-03     85.3929E-03     385.563E-03     322.272E-03        -1.04379     322.187E-03        -1.04370     385.563E-03    -3.16200E-03     52.1032E-03    -25.6615E-03    -26.4553E-03    -25.1054E-03     50.9122E-03    -25.8203E-03     18.7857E-03     116.577E+06    -9.62309E+06    -21.1476E+06    -13.3193E+06     116.356E+06    -17.2301E+06    -3.63085E+06         29.9952
            1632     15.5909E-03     85.4083E-03     381.955E-03     296.823E-03        -1.01643     296.439E-03        -1.01605     381.955E-03    -30.4349E-03     52.2112E-03    -25.7530E-03    -26.4624E-03    -24.5585E-03     50.4661E-03    -25.9119E-03     22.0136E-03     190.259E+06     29.6151E+06    -11.5355E+06    -11.5207E+06     190.244E+06     29.6151E+06    -1.55184E+06         31.9308
            1633     16.5666E-03     85.4388E-03     376.183E-03     240.351E-03    -960.947E-03     239.851E-03    -960.447E-03     376.183E-03    -20.0896E-03     51.9121E-03    -25.2078E-03    -26.7072E-03    -24.2532E-03     50.4070E-03    -26.1567E-03     10.6128E-03     209.990E+06     93.1438E+06    -6.38658E+06    -6.38152E+06     209.985E+06     93.1438E+06    -600.040E+03         34.0387
            1634     974.208E-06     86.2771E-03         10.9407    -601.387E-03        -10.6753         1.45273        -1.18733    -601.387E-03         8.73514     52.5246E-03    -26.1628E-03    -26.3615E-03    -26.3483E-03     52.5114E-03    -26.1628E-03     1.80471E-03    -50.8916E+06    -57.3672E+06    -211.801E+06    -54.8545E+06    -211.664E+06    -53.5419E+06    -3.14298E+06         23.6973
            1635     1.94840E-03     86.2799E-03         4.64090     433.405E-03        -5.40715     464.505E-03        -1.23076     433.405E-03        -2.81954     52.5515E-03    -26.2527E-03    -26.2980E-03    -26.2488E-03     52.5028E-03    -26.2531E-03     3.73826E-03    -48.3831E+06    -51.4463E+06    -190.041E+06    -50.4908E+06    -189.632E+06    -49.7476E+06    -6.86467E+06         23.7893
            1636     2.92273E-03     86.2856E-03         2.58574     439.276E-03        -3.35622     425.669E-03        -1.19615     439.276E-03         1.37995     52.6662E-03    -26.2608E-03    -26.4047E-03    -26.3024E-03     52.5643E-03    -26.2612E-03     5.62768E-03    -46.1866E+06    -49.3012E+06    -181.661E+06    -48.7671E+06    -180.830E+06    -47.5512E+06    -10.3272E+06         23.8838
            1637     3.89693E-03     86.2916E-03         1.54102     437.542E-03        -2.30647     438.232E-03        -1.20369     437.542E-03    -854.417E-03     52.9021E-03    -26.3015E-03    -26.5957E-03    -26.4233E-03     52.7297E-03    -26.3015E-03     7.33118E-03    -42.9512E+06    -45.3788E+06    -174.505E+06    -47.0537E+06    -172.831E+06    -42.9512E+06    -14.2082E+06         23.9949
            1638     4.87083E-03     86.3008E-03     973.439E-03     437.721E-03        -1.74432     433.641E-03        -1.20452     437.721E-03     466.791E-03     52.9334E-03    -26.3297E-03    -26.5993E-03    -26.3663E-03     52.7004E-03    -26.3297E-03     8.59007E-03    -37.8037E+06    -40.8961E+06    -163.996E+06    -43.4438E+06    -161.287E+06    -37.9655E+06    -17.8555E+06         24.1270
            1639     5.84494E-03     86.3098E-03     709.372E-03     439.327E-03        -1.48415     456.678E-03        -1.23145     439.327E-03    -298.329E-03     52.8147E-03    -26.3377E-03    -26.4838E-03    -26.1861E-03     52.5170E-03    -26.3377E-03     9.66500E-03    -32.6940E+06    -35.7699E+06    -156.570E+06    -39.3415E+06    -152.837E+06    -32.8558E+06    -20.6850E+06         24.2826
            1640     6.81955E-03     86.3212E-03     584.616E-03     443.354E-03        -1.35981     470.359E-03        -1.24555     443.354E-03     182.129E-03     52.8606E-03    -26.3331E-03    -26.5274E-03    -26.1684E-03     52.5016E-03    -26.3331E-03     10.6509E-03    -27.2318E+06    -30.6618E+06    -145.315E+06    -35.1868E+06    -140.790E+06    -27.2318E+06    -22.1529E+06         24.4683
            1641     7.79369E-03     86.3323E-03     515.846E-03     447.382E-03        -1.29631     469.611E-03        -1.25008     447.382E-03    -164.077E-03     52.9786E-03    -26.3279E-03    -26.6493E-03    -26.2493E-03     52.5786E-03    -26.3279E-03     11.2504E-03    -21.4954E+06    -26.0241E+06    -137.415E+06    -30.7713E+06    -132.668E+06    -21.4954E+06    -22.4012E+06         24.6986
            1642     8.76799E-03     86.3449E-03     481.354E-03     450.383E-03        -1.26747     465.703E-03        -1.25182     450.383E-03     65.8562E-03     53.0420E-03    -26.3152E-03    -26.7581E-03    -26.2862E-03     52.5702E-03    -26.3152E-03     12.2232E-03    -18.7302E+06    -22.1583E+06    -129.724E+06    -25.9158E+06    -124.568E+06    -20.1287E+06    -22.9013E+06         24.9843
            1643     9.74205E-03     86.3580E-03     471.917E-03     452.700E-03        -1.26329     465.884E-03        -1.25726     452.700E-03    -60.4195E-03     52.9650E-03    -26.2895E-03    -26.7203E-03    -26.2069E-03     52.4516E-03    -26.2895E-03     12.7480E-03    -16.0269E+06    -21.1739E+06    -118.530E+06    -21.9841E+06    -112.572E+06    -21.1739E+06    -23.7847E+06         25.3276
            1644     10.7167E-03     86.3716E-03     457.946E-03     440.252E-03        -1.24042     441.998E-03        -1.23789     453.668E-03     1.92149E-03     52.7734E-03    -26.2097E-03    -26.6131E-03    -26.0163E-03     52.1767E-03    -26.2097E-03     13.6740E-03    -13.8574E+06    -27.7329E+06    -106.484E+06    -20.8994E+06    -99.4416E+06    -27.7329E+06    -24.4278E+06         25.7432
            1645     11.6910E-03     86.3866E-03     452.864E-03     426.097E-03        -1.22093     424.754E-03        -1.21958     452.864E-03    -48.4513E-03     52.6586E-03    -26.1296E-03    -26.5772E-03    -25.8344E-03     51.9158E-03    -26.1296E-03     15.2552E-03    -12.7170E+06    -32.5331E+06    -84.5070E+06    -20.2087E+06    -77.0153E+06    -32.5331E+06    -21.7762E+06         26.3141
            1646     12.6661E-03     86.4035E-03     451.214E-03     413.767E-03        -1.20479     413.621E-03        -1.20465     451.214E-03     11.2117E-03     52.6664E-03    -26.0580E-03    -26.6129E-03    -25.7150E-03     51.7685E-03    -26.0580E-03     16.7531E-03    -8.60609E+06    -30.7720E+06    -50.5414E+06    -17.6644E+06    -41.0558E+06    -31.1994E+06    -15.8698E+06         27.1770
            1647     13.6399E-03     86.4214E-03     448.326E-03     377.238E-03        -1.16650     377.122E-03        -1.16639     448.326E-03    -3.68528E-03     52.7796E-03    -25.9382E-03    -26.8399E-03    -25.4891E-03     51.4288E-03    -25.9382E-03     20.3743E-03     22.2167E+06    -22.2713E+06    -32.7264E+06    -14.7658E+06     14.0777E+06    -32.0929E+06    -10.1928E+06         28.4050
            1648     14.6157E-03     86.4460E-03     443.520E-03     341.782E-03        -1.12507     341.695E-03        -1.12498     443.520E-03    -7.49250E-03     51.9720E-03    -25.6050E-03    -26.3818E-03    -24.9611E-03     50.7595E-03    -25.8131E-03     18.9168E-03     112.154E+06    -11.7759E+06    -22.6988E+06    -12.8200E+06     111.670E+06    -21.1701E+06    -4.97210E+06         29.9948
            1649     15.5911E-03     86.4610E-03     437.379E-03     314.144E-03        -1.09148     313.766E-03        -1.09110     437.379E-03    -31.7872E-03     52.2329E-03    -25.6916E-03    -26.5449E-03    -24.5743E-03     50.4703E-03    -25.8997E-03     22.1524E-03     189.794E+06     27.3988E+06    -10.5437E+06    -10.5158E+06     189.766E+06     27.3988E+06    -2.31538E+06         31.9305
            1650     16.5666E-03     86.4922E-03     429.817E-03     276.038E-03        -1.04976     275.484E-03        -1.04921     429.817E-03    -756.681E-06     51.9608E-03    -25.1653E-03    -26.7981E-03    -24.2945E-03     50.4448E-03    -26.1529E-03     10.7282E-03     209.429E+06     91.9912E+06    -6.36870E+06    -6.35764E+06     209.418E+06     91.9912E+06    -1.07984E+06         34.0388
            1651     974.150E-06     87.3304E-03         10.1288    -706.310E-03        -9.76345         1.67545        -1.31011    -706.310E-03         7.96598     52.6881E-03    -26.2316E-03    -26.4565E-03    -26.4219E-03     52.6737E-03    -26.2517E-03     1.87118E-03    -53.1221E+06    -56.1388E+06    -202.997E+06    -56.3928E+06    -202.685E+06    -53.1797E+06    -5.44749E+06         23.7099
            1652     1.94826E-03     87.3332E-03         4.23296     497.893E-03        -5.06603     551.315E-03        -1.38439     497.893E-03        -2.61089     52.6314E-03    -26.2934E-03    -26.3386E-03    -26.2675E-03     52.5809E-03    -26.3140E-03     3.82848E-03    -51.2272E+06    -53.3913E+06    -182.154E+06    -52.6970E+06    -181.484E+06    -52.5917E+06    -9.23362E+06         23.7997
            1653     2.92252E-03     87.3382E-03         2.34840     508.808E-03        -3.18873     492.187E-03        -1.33252     508.808E-03         1.27162     52.7605E-03    -26.3148E-03    -26.4451E-03    -26.3392E-03     52.6550E-03    -26.3152E-03     5.72436E-03    -48.1571E+06    -50.9182E+06    -174.525E+06    -50.7734E+06    -173.305E+06    -49.5216E+06     -11.953E+06         23.8889
            1654     3.89654E-03     87.3455E-03         1.40973     503.936E-03        -2.25034     483.487E-03        -1.32410     503.936E-03    -769.138E-03     52.9397E-03    -26.3529E-03    -26.5819E-03    -26.4105E-03     52.7683E-03    -26.3529E-03     7.32691E-03    -42.6848E+06    -44.9312E+06    -166.523E+06    -47.2332E+06    -164.221E+06    -42.6848E+06    -16.2156E+06         23.9970
            1655     4.87052E-03     87.3541E-03     932.427E-03     500.464E-03        -1.76874     486.030E-03        -1.32234     500.464E-03     415.969E-03     52.9718E-03    -26.3689E-03    -26.5988E-03    -26.3687E-03     52.7417E-03    -26.3689E-03     8.53431E-03    -37.9401E+06    -40.5733E+06    -157.313E+06    -44.2065E+06    -153.518E+06    -38.1019E+06    -20.4931E+06         24.1303
            1656     5.84476E-03     87.3632E-03     719.387E-03     501.235E-03        -1.55758     520.946E-03        -1.35914     501.235E-03    -305.064E-03     52.9683E-03    -26.3882E-03    -26.5875E-03    -26.2950E-03     52.6758E-03    -26.3882E-03     9.60082E-03    -32.0186E+06    -36.0402E+06    -151.191E+06    -40.8831E+06    -146.187E+06    -32.1804E+06    -23.3809E+06         24.2858
            1657     6.81886E-03     87.3742E-03     622.001E-03     505.520E-03        -1.46209     533.851E-03        -1.37394     505.520E-03     124.262E-03     52.9473E-03    -26.3906E-03    -26.5615E-03    -26.2075E-03     52.5933E-03    -26.3906E-03     10.5784E-03    -27.0665E+06    -31.7940E+06    -142.357E+06    -37.7866E+06    -136.365E+06    -27.0665E+06    -24.9137E+06         24.4697
            1658     7.79321E-03     87.3860E-03     581.154E-03     510.207E-03        -1.42255     542.060E-03        -1.38346     510.207E-03    -172.663E-03     52.9995E-03    -26.3787E-03    -26.6231E-03    -26.2234E-03     52.5997E-03    -26.3787E-03     11.2479E-03    -22.3767E+06    -25.9298E+06    -135.295E+06    -33.0221E+06    -128.203E+06    -22.3767E+06    -26.7124E+06         24.6987
            1659     8.76732E-03     87.3981E-03     542.937E-03     513.788E-03        -1.39213     529.279E-03        -1.37847     513.788E-03     35.3601E-03     53.0471E-03    -26.3692E-03    -26.7157E-03    -26.2476E-03     52.5790E-03    -26.3692E-03     12.1719E-03    -18.2565E+06    -21.3610E+06    -128.470E+06    -27.3890E+06    -120.638E+06    -20.0604E+06    -27.9541E+06         24.9832
            1660     9.74174E-03     87.4118E-03     523.824E-03     511.350E-03        -1.37669     513.520E-03        -1.37035     515.318E-03    -85.2125E-03     52.9001E-03    -26.3335E-03    -26.6199E-03    -26.1213E-03     52.4014E-03    -26.3335E-03     12.5538E-03    -14.5268E+06    -20.6301E+06    -118.156E+06    -22.4934E+06    -110.189E+06    -20.6301E+06    -27.4680E+06         25.3271
            1661     10.7160E-03     87.4245E-03     515.379E-03     496.232E-03        -1.35389     494.463E-03        -1.35180     515.066E-03    -7.85151E-03     52.7075E-03    -26.2514E-03    -26.5028E-03    -25.9288E-03     52.1335E-03    -26.2514E-03     13.3971E-03    -11.9726E+06    -24.3405E+06    -105.714E+06    -19.6519E+06    -98.0349E+06    -24.3405E+06    -25.5563E+06         25.7441
            1662     11.6909E-03     87.4398E-03     513.009E-03     467.231E-03        -1.32214     466.045E-03        -1.32096     513.009E-03    -60.1293E-03     52.6703E-03    -26.1584E-03    -26.5520E-03    -25.8098E-03     51.9282E-03    -26.1584E-03     15.2381E-03    -10.2154E+06    -30.9906E+06    -86.8749E+06    -18.8462E+06    -78.2441E+06    -30.9906E+06    -23.9249E+06         26.3143
            1663     12.6652E-03     87.4561E-03     509.352E-03     442.150E-03        -1.29249     441.704E-03        -1.29205     509.352E-03    -18.3812E-03     52.5750E-03    -26.0645E-03    -26.5105E-03    -25.6100E-03     51.6745E-03    -26.0645E-03     16.7599E-03    -5.07448E+06    -33.6451E+06    -57.4426E+06    -16.8301E+06    -45.6869E+06    -33.6451E+06    -20.9520E+06         27.1760
            1664     13.6410E-03     87.4750E-03     504.623E-03     417.867E-03        -1.26209     417.262E-03        -1.26149     504.623E-03    -31.6857E-03     52.6738E-03    -25.9343E-03    -26.7354E-03    -25.3698E-03     51.3082E-03    -25.9343E-03     20.4346E-03     20.3068E+06    -24.0291E+06    -38.7409E+06    -14.1588E+06     6.92511E+06    -35.2294E+06    -14.1405E+06         28.4041
            1665     14.6155E-03     87.4982E-03     498.331E-03     372.932E-03        -1.21104     372.714E-03        -1.21082     498.331E-03    -19.6728E-03     52.0047E-03    -25.6213E-03    -26.3936E-03    -25.0002E-03     50.7827E-03    -25.7928E-03     18.9441E-03     107.545E+06    -11.9419E+06    -27.2102E+06    -12.2089E+06     106.597E+06    -25.9954E+06    -7.00250E+06         29.9940
            1666     15.5910E-03     87.5142E-03     490.023E-03     324.655E-03        -1.15729     324.602E-03        -1.15724     490.023E-03    -15.6140E-03     52.2477E-03    -25.7018E-03    -26.5479E-03    -24.5964E-03     50.4676E-03    -25.8733E-03     22.1829E-03     187.955E+06     24.7592E+06    -13.2907E+06    -10.3772E+06     187.895E+06     21.9060E+06    -2.91889E+06         31.9292
            1667     16.5667E-03     87.5448E-03     480.385E-03     301.318E-03        -1.12171     300.703E-03        -1.12110     480.385E-03    -19.7900E-03     51.9799E-03    -25.1697E-03    -26.8139E-03    -24.2809E-03     50.4165E-03    -26.1392E-03     10.5696E-03     208.219E+06      89.046E+06    -6.51662E+06    -6.50906E+06     208.211E+06      89.046E+06    -948.487E+03         34.0377
            1668     974.001E-06     88.3834E-03         9.14059    -767.619E-03        -8.72816         1.86538        -1.45295    -767.619E-03         7.10295     52.8705E-03    -26.3567E-03    -26.5145E-03    -26.4470E-03     52.8577E-03    -26.4113E-03     1.69869E-03    -48.4554E+06    -52.6757E+06    -191.723E+06    -51.0469E+06    -191.436E+06    -50.3719E+06    -5.84729E+06         23.7238
            1669     1.94827E-03     88.3866E-03         3.75754     562.621E-03        -4.65936     616.800E-03        -1.51863     562.621E-03        -2.32165     52.8802E-03    -26.4079E-03    -26.4756E-03    -26.4027E-03     52.8350E-03    -26.4356E-03     3.66344E-03    -46.7146E+06    -50.3117E+06    -173.342E+06    -51.1499E+06    -172.504E+06    -46.7146E+06    -9.72271E+06         23.8115
            1670     2.92220E-03     88.3918E-03         2.09372     574.285E-03        -2.99869     560.942E-03        -1.46591     574.285E-03         1.16768     52.9526E-03    -26.4279E-03    -26.5261E-03    -26.4106E-03     52.8447E-03    -26.4354E-03     5.73867E-03    -45.1773E+06    -46.9647E+06    -166.294E+06    -48.6600E+06    -164.598E+06    -45.1773E+06    -13.8819E+06         23.8985
            1671     3.89608E-03     88.3992E-03         1.27575     569.976E-03        -2.18938     549.724E-03        -1.46335     569.976E-03    -676.836E-03     52.9709E-03    -26.4308E-03    -26.5408E-03    -26.3717E-03     52.8018E-03    -26.4308E-03     7.31018E-03    -42.3381E+06    -43.8616E+06    -158.011E+06    -47.0348E+06    -154.837E+06    -42.3381E+06    -18.3404E+06         24.0037
            1672     4.87051E-03     88.4073E-03     890.118E-03     565.825E-03        -1.79753     544.346E-03        -1.45175     565.825E-03     349.562E-03     52.9804E-03    -26.4370E-03    -26.5457E-03    -26.3214E-03     52.7561E-03    -26.4370E-03     8.40668E-03    -34.9498E+06    -39.2973E+06    -149.949E+06    -43.9741E+06    -145.272E+06    -34.9498E+06    -22.0846E+06         24.1340
            1673     5.84438E-03     88.4172E-03     721.600E-03     564.460E-03        -1.62986     566.708E-03        -1.47497     564.460E-03    -279.166E-03     53.0884E-03    -26.4511E-03    -26.6422E-03    -26.3510E-03     52.7971E-03    -26.4511E-03     9.60591E-03    -29.2702E+06    -35.7926E+06    -145.352E+06    -41.6573E+06    -139.487E+06    -29.2702E+06    -24.5376E+06         24.2877
            1674     6.81838E-03     88.4276E-03     655.950E-03     566.838E-03        -1.55561     588.477E-03        -1.48814     566.838E-03     109.894E-03     53.0642E-03    -26.4417E-03    -26.6288E-03    -26.2727E-03     52.7081E-03    -26.4417E-03     10.6195E-03    -25.4350E+06    -30.5659E+06    -137.075E+06    -37.5745E+06    -129.200E+06    -26.3016E+06    -27.7129E+06         24.4681
            1675     7.79272E-03     88.4393E-03     632.482E-03     571.053E-03        -1.53032     602.909E-03        -1.50075     571.053E-03    -168.638E-03     52.9916E-03    -26.4151E-03    -26.5869E-03    -26.1644E-03     52.5691E-03    -26.4151E-03     11.5545E-03    -22.2479E+06    -25.7366E+06    -132.076E+06    -33.1617E+06    -122.755E+06    -24.1437E+06    -30.2976E+06         24.6929
            1676     8.76699E-03     88.4518E-03     588.833E-03     573.346E-03        -1.49554     578.301E-03        -1.48565     573.986E-03     17.6334E-03     52.9918E-03    -26.3816E-03    -26.6351E-03    -26.1448E-03     52.5015E-03    -26.3816E-03     12.4478E-03    -18.6550E+06    -24.5535E+06    -126.692E+06    -29.7707E+06    -116.109E+06    -24.0208E+06    -31.7438E+06         24.9776
            1677     9.74123E-03     88.4649E-03     574.820E-03     560.662E-03        -1.47392     556.781E-03        -1.46928     574.069E-03    -102.926E-03     52.8625E-03    -26.3243E-03    -26.5691E-03    -26.0565E-03     52.3499E-03    -26.3243E-03     12.7196E-03    -14.9490E+06    -26.7034E+06    -119.048E+06    -26.1794E+06    -107.818E+06    -26.7034E+06    -32.0891E+06         25.3256
            1678     10.7160E-03     88.4779E-03     572.581E-03     544.279E-03        -1.46019     543.087E-03        -1.45899     572.581E-03    -28.3352E-03     52.6983E-03    -26.2495E-03    -26.4904E-03    -25.9164E-03     52.1243E-03    -26.2495E-03     13.4054E-03    -11.2994E+06    -29.6089E+06    -108.841E+06    -21.6010E+06    -98.5398E+06    -29.6089E+06    -29.7694E+06         25.7450
            1679     11.6906E-03     88.4923E-03     569.434E-03     508.519E-03        -1.42032     507.562E-03        -1.41937     569.434E-03    -44.4652E-03     52.6200E-03    -26.1608E-03    -26.4999E-03    -25.7463E-03     51.8663E-03    -26.1608E-03     15.3305E-03    -5.14724E+06    -32.8557E+06    -87.9778E+06    -16.3280E+06    -76.7970E+06    -32.8557E+06    -27.8536E+06         26.3141
            1680     12.6656E-03     88.5098E-03     563.460E-03     454.067E-03        -1.35774     453.520E-03        -1.35719     563.460E-03    -20.6348E-03     52.5173E-03    -26.0603E-03    -26.4613E-03    -25.5668E-03     51.6228E-03    -26.0603E-03     16.7111E-03    -190.102E+03    -36.2547E+06    -62.7765E+06    -13.5230E+06    -49.4436E+06    -36.2547E+06    -25.1682E+06         27.1747
            1681     13.6401E-03     88.5264E-03     555.989E-03     440.069E-03        -1.33627     439.417E-03        -1.33562     555.989E-03    -60.3448E-03     52.6602E-03    -25.9309E-03    -26.7276E-03    -25.3786E-03     51.3112E-03    -25.9309E-03     20.2662E-03     18.5255E+06    -26.6860E+06    -45.0730E+06    -12.6477E+06    -1.42956E+06    -39.1562E+06    -17.8021E+06         28.4027
            1682     14.6158E-03     88.5524E-03     548.425E-03     418.657E-03        -1.31333     418.366E-03        -1.31304     548.425E-03    -23.6122E-03     51.9953E-03    -25.6344E-03    -26.3703E-03    -25.0160E-03     50.7839E-03    -25.7773E-03     18.8014E-03     101.923E+06    -13.8236E+06    -31.7901E+06    -11.8531E+06     99.9527E+06    -31.7901E+06    -9.42269E+06         29.9926
            1683     15.5909E-03     88.5658E-03     539.114E-03     349.730E-03        -1.24110     349.521E-03        -1.24089     539.114E-03    -13.1412E-03     52.1866E-03    -25.7066E-03    -26.4822E-03    -24.5528E-03     50.4000E-03    -25.8495E-03     22.0955E-03     184.277E+06     20.9131E+06    -16.2606E+06    -10.6706E+06     184.183E+06     15.4169E+06    -3.23959E+06         31.9276
            1684     16.5666E-03     88.5988E-03     526.625E-03     279.037E-03        -1.15406     278.396E-03        -1.15342     526.625E-03    -38.7897E-03     51.8681E-03    -25.1157E-03    -26.7552E-03    -24.1548E-03     50.2745E-03    -26.1225E-03     10.5812E-03     206.856E+06     85.7818E+06    -6.69544E+06    -6.69154E+06     206.852E+06     85.7818E+06    -852.651E+03         34.0365
            1685     974.093E-06     89.4373E-03         8.05377    -748.638E-03        -7.65510         2.03005        -1.63138    -748.638E-03         6.26292     53.1093E-03    -26.4592E-03    -26.6507E-03    -26.5953E-03     53.0963E-03    -26.5016E-03     1.83266E-03    -47.6162E+06    -53.4922E+06    -183.019E+06    -51.8646E+06    -182.788E+06    -49.4751E+06    -5.32875E+06         23.7332
            1686     1.94756E-03     89.4403E-03         3.21259     642.104E-03        -4.18632     647.409E-03        -1.62113     642.104E-03        -1.97424     53.1799E-03    -26.5563E-03    -26.6262E-03    -26.5643E-03     53.1335E-03    -26.5718E-03     3.70853E-03    -44.3018E+06    -49.5875E+06    -162.540E+06    -50.3451E+06    -161.782E+06    -44.3018E+06    -8.66995E+06         23.8249
            1687     2.92163E-03     89.4452E-03         1.82962     637.096E-03        -2.79760     597.061E-03        -1.56504     637.096E-03         1.01022     53.1471E-03    -26.5397E-03    -26.6082E-03    -26.4786E-03     53.0446E-03    -26.5668E-03     5.62501E-03    -43.9179E+06    -46.8545E+06    -156.863E+06    -48.8166E+06    -154.901E+06    -43.9179E+06    -14.1715E+06         23.9115
            1688     3.89595E-03     89.4528E-03         1.17707     631.347E-03        -2.14683     635.561E-03        -1.60532     631.347E-03    -619.109E-03     53.0363E-03    -26.4694E-03    -26.5652E-03    -26.3375E-03     52.8750E-03    -26.5358E-03     7.12347E-03    -41.0053E+06    -43.3726E+06    -147.674E+06    -47.1250E+06    -143.922E+06    -41.0053E+06    -19.0966E+06         24.0111
            1689     4.86959E-03     89.4609E-03     864.385E-03     631.881E-03        -1.83740     626.874E-03        -1.59989     631.881E-03     297.637E-03     53.0346E-03    -26.4683E-03    -26.5649E-03    -26.2969E-03     52.8133E-03    -26.5151E-03     8.35248E-03    -35.6974E+06    -39.7950E+06    -143.025E+06    -45.2737E+06    -137.546E+06    -35.6974E+06    -23.0218E+06         24.1357
            1690     5.84408E-03     89.4706E-03     738.605E-03     631.913E-03        -1.71119     630.799E-03        -1.60339     631.913E-03    -224.205E-03     53.0292E-03    -26.4524E-03    -26.5759E-03    -26.2424E-03     52.7368E-03    -26.4935E-03     9.60877E-03    -30.4410E+06    -35.0417E+06    -138.972E+06    -41.4524E+06    -131.636E+06    -31.3664E+06    -26.5076E+06         24.2864
            1691     6.81823E-03     89.4814E-03     680.307E-03     632.577E-03        -1.64591     633.410E-03        -1.59901     632.577E-03     116.117E-03     53.0115E-03    -26.4137E-03    -26.5912E-03    -26.1898E-03     52.6512E-03    -26.4548E-03     10.6741E-03    -26.2262E+06    -30.9090E+06    -130.469E+06    -37.8073E+06    -120.375E+06    -29.4219E+06    -30.3904E+06         24.4647
            1692     7.79241E-03     89.4925E-03     657.059E-03     622.961E-03        -1.61128     627.770E-03        -1.59205     633.026E-03    -121.999E-03     53.0085E-03    -26.4237E-03    -26.5933E-03    -26.1632E-03     52.5784E-03    -26.4237E-03     11.6582E-03    -22.0570E+06    -27.7034E+06    -128.731E+06    -34.1131E+06    -116.675E+06    -27.7034E+06    -33.5536E+06         24.6875
            1693     8.76697E-03     89.5052E-03     635.740E-03     613.511E-03        -1.58173     609.747E-03        -1.57439     632.162E-03     26.2274E-03     52.9078E-03    -26.3778E-03    -26.5513E-03    -26.0640E-03     52.4206E-03    -26.3778E-03     12.4005E-03    -16.2848E+06    -27.2023E+06    -124.041E+06    -29.7165E+06    -110.609E+06    -27.2023E+06    -35.3349E+06         24.9728
            1694     9.74146E-03     89.5182E-03     629.811E-03     597.049E-03        -1.56342     594.004E-03        -1.56037     629.811E-03    -102.305E-03     52.8072E-03    -26.3184E-03    -26.5093E-03    -26.0054E-03     52.3033E-03    -26.3184E-03     12.6012E-03    -11.9545E+06    -28.8433E+06    -118.820E+06    -25.9965E+06    -104.778E+06    -28.8433E+06    -36.0469E+06         25.3243
            1695     10.7157E-03     89.5309E-03     626.087E-03     569.974E-03        -1.53820     568.895E-03        -1.53712     626.087E-03    -56.5230E-03     52.7280E-03    -26.2437E-03    -26.5287E-03    -25.9589E-03     52.1582E-03    -26.2437E-03     13.3681E-03    -7.84319E+06    -33.6330E+06    -111.753E+06    -22.2556E+06    -97.3406E+06    -33.6330E+06    -35.7735E+06         25.7454
            1696     11.6902E-03     89.5456E-03     620.958E-03     544.911E-03        -1.50590     543.733E-03        -1.50472     620.958E-03    -44.7172E-03     52.5367E-03    -26.1567E-03    -26.4271E-03    -25.6928E-03     51.8024E-03    -26.1567E-03     15.1221E-03    -3.99916E+06    -37.5863E+06    -92.0221E+06    -19.4041E+06    -76.6171E+06    -37.5863E+06    -33.2924E+06         26.3133
            1697     12.6654E-03     89.5619E-03     614.211E-03     502.845E-03        -1.45443     502.660E-03        -1.45424     614.211E-03     4.69117E-03     52.5389E-03    -26.0586E-03    -26.4846E-03    -25.5865E-03     51.6408E-03    -26.0586E-03     16.7409E-03    -668.956E+03    -40.7816E+06    -69.1256E+06    -17.0725E+06    -52.7221E+06    -40.7816E+06    -28.9107E+06         27.1732
            1698     13.6403E-03     89.5804E-03     605.310E-03     451.482E-03        -1.39751     451.261E-03        -1.39728     605.310E-03    -39.3077E-03     52.7659E-03    -25.9341E-03    -26.8273E-03    -25.5119E-03     51.4506E-03    -25.9341E-03     20.0982E-03     15.7498E+06    -32.5524E+06    -50.9297E+06    -14.2683E+06    -9.08210E+06    -44.3819E+06    -22.2824E+06         28.4009
            1699     14.6151E-03     89.6038E-03     594.507E-03     408.704E-03        -1.34939     408.476E-03        -1.34917     594.507E-03    -18.6955E-03     51.8879E-03    -25.5633E-03    -26.3370E-03    -24.9382E-03     50.7030E-03    -25.7774E-03     18.6834E-03     94.2755E+06    -16.6074E+06    -38.0242E+06    -12.5719E+06     90.2400E+06    -38.0242E+06    -12.3742E+06         29.9904
            1700     15.5909E-03     89.6200E-03     582.312E-03     364.170E-03        -1.29693     363.731E-03        -1.29649     582.312E-03    -28.9839E-03     51.9399E-03    -25.6117E-03    -26.3328E-03    -24.3729E-03     50.1940E-03    -25.8258E-03     21.9414E-03     178.912E+06     17.5972E+06    -20.3467E+06    -10.6095E+06     178.762E+06     8.00981E+06    -4.25247E+06         31.9261
            1701     16.5669E-03     89.6497E-03     567.907E-03     290.798E-03        -1.20621     289.994E-03        -1.20541     567.907E-03    -4.56920E-03     51.6538E-03    -25.0466E-03    -26.6097E-03    -24.0416E-03     50.1418E-03    -26.1027E-03     10.4898E-03     205.942E+06     82.4797E+06    -6.02529E+06    -6.01304E+06     205.929E+06     82.4797E+06    -1.23773E+06         34.0362
            1702     973.606E-06     90.4913E-03         6.88506    -754.741E-03        -6.46544         2.17680        -1.75718    -754.741E-03         5.23262     53.2204E-03    -26.4776E-03    -26.7427E-03    -26.6201E-03     53.2047E-03    -26.5846E-03     2.01594E-03    -48.5767E+06    -52.3100E+06    -174.427E+06    -52.0760E+06    -174.187E+06    -49.0499E+06     -4.7963E+06         23.7366
            1703     1.94788E-03     90.4941E-03         2.68631     710.290E-03        -3.71441     706.922E-03        -1.73502     710.290E-03        -1.61156     53.3583E-03    -26.6222E-03    -26.7358E-03    -26.6734E-03     53.3037E-03    -26.6301E-03     4.03785E-03    -44.5193E+06    -48.1457E+06    -152.602E+06    -49.0583E+06    -151.690E+06    -44.5193E+06    -9.01830E+06         23.8311
            1704     2.92125E-03     90.4996E-03         1.58798     700.005E-03        -2.60367     641.446E-03        -1.65713     700.005E-03     840.551E-03     53.3933E-03    -26.6361E-03    -26.7562E-03    -26.6314E-03     53.2880E-03    -26.6557E-03     5.76363E-03    -40.9701E+06    -43.5471E+06    -145.895E+06    -45.7296E+06    -143.712E+06    -40.9701E+06    -14.4274E+06         23.9153
            1705     3.89493E-03     90.5061E-03         1.10050     692.956E-03        -2.12695     711.163E-03        -1.73761     692.956E-03    -552.469E-03     53.1760E-03    -26.5203E-03    -26.6536E-03    -26.3799E-03     53.0131E-03    -26.6311E-03     7.15384E-03    -37.4034E+06    -40.0342E+06    -138.293E+06    -43.4487E+06    -134.457E+06    -37.8250E+06    -18.8632E+06         24.0121
            1706     4.86973E-03     90.5149E-03     870.514E-03     697.414E-03        -1.90530     714.054E-03        -1.74884     697.414E-03     250.403E-03     53.0463E-03    -26.4434E-03    -26.5996E-03    -26.2336E-03     52.8158E-03    -26.5789E-03     8.52537E-03    -34.2593E+06    -36.1642E+06    -133.886E+06    -41.8053E+06    -127.823E+06    -34.6809E+06    -23.4990E+06         24.1361
            1707     5.84338E-03     90.5241E-03     769.171E-03     697.296E-03        -1.80627     699.576E-03        -1.73904     699.662E-03    -203.919E-03     52.9856E-03    -26.4384E-03    -26.5453E-03    -26.1633E-03     52.6890E-03    -26.5238E-03     9.67532E-03    -29.6643E+06    -32.1920E+06    -130.992E+06    -39.3571E+06    -121.574E+06    -31.9171E+06    -29.0838E+06         24.2862
            1708     6.81813E-03     90.5347E-03     709.826E-03     693.030E-03        -1.73930     675.905E-03        -1.71103     698.674E-03     76.6012E-03     52.9943E-03    -26.4382E-03    -26.5447E-03    -26.1392E-03     52.6298E-03    -26.4792E-03     10.7288E-03    -23.7384E+06    -28.7416E+06    -124.599E+06    -35.8216E+06    -112.516E+06    -28.7416E+06    -32.6512E+06         24.4644
            1709     7.79235E-03     90.5462E-03     697.798E-03     664.593E-03        -1.69444     653.606E-03        -1.68078     695.129E-03    -93.2712E-03     53.0459E-03    -26.4509E-03    -26.6022E-03    -26.1817E-03     52.6254E-03    -26.4509E-03     11.5396E-03    -19.6358E+06    -26.2855E+06    -122.646E+06    -33.9256E+06    -108.356E+06    -26.2855E+06    -35.5495E+06         24.6876
            1710     8.76631E-03     90.5585E-03     689.883E-03     635.465E-03        -1.65552     629.843E-03        -1.64990     689.883E-03     29.2307E-03     52.8852E-03    -26.3973E-03    -26.5188E-03    -26.0436E-03     52.4100E-03    -26.3973E-03     12.2345E-03    -14.2806E+06    -27.6874E+06    -121.232E+06    -31.7919E+06    -103.721E+06    -27.6874E+06    -39.2925E+06         24.9728
            1711     9.74091E-03     90.5714E-03     683.576E-03     612.950E-03        -1.63197     610.881E-03        -1.62990     683.576E-03    -87.2712E-03     52.7569E-03    -26.3418E-03    -26.4481E-03    -25.9454E-03     52.2542E-03    -26.3418E-03     12.5759E-03    -8.82841E+06    -28.7874E+06    -118.912E+06    -27.1533E+06    -100.588E+06    -28.7874E+06    -40.7016E+06         25.3246
            1712     10.7156E-03     90.5844E-03     676.207E-03     581.004E-03        -1.59512     580.128E-03        -1.59424     676.207E-03    -47.3166E-03     52.6816E-03    -26.2634E-03    -26.4626E-03    -25.9035E-03     52.1224E-03    -26.2634E-03     13.2352E-03    -5.40074E+06    -33.3852E+06    -112.889E+06    -23.6242E+06    -94.6654E+06    -33.3852E+06    -40.2113E+06         25.7463
            1713     11.6903E-03     90.5984E-03     668.397E-03     571.189E-03        -1.57345     570.301E-03        -1.57256     668.397E-03    -46.1206E-03     52.6273E-03    -26.1765E-03    -26.4941E-03    -25.7840E-03     51.9172E-03    -26.1765E-03     14.8934E-03    -970.713E+03    -37.7453E+06    -96.4783E+06    -20.3862E+06    -77.0628E+06    -37.7453E+06    -38.3308E+06         26.3137
            1714     12.6651E-03     90.6148E-03     660.826E-03     552.308E-03        -1.54919     552.234E-03        -1.54912     660.826E-03    -2.41796E-03     52.5791E-03    -26.0815E-03    -26.5035E-03    -25.6109E-03     51.6865E-03    -26.0815E-03     16.6834E-03     3.02266E+06    -41.9695E+06    -75.4900E+06    -16.9349E+06    -55.5324E+06    -41.9695E+06    -33.9832E+06         27.1719
            1715     13.6397E-03     90.6334E-03     651.031E-03     472.084E-03        -1.45967     471.939E-03        -1.45953     651.031E-03    -22.0065E-03     52.6886E-03    -25.9462E-03    -26.7361E-03    -25.4137E-03     51.3663E-03    -25.9462E-03     20.1535E-03     14.4986E+06    -37.6779E+06    -56.6704E+06    -14.9684E+06    -16.8473E+06    -48.0339E+06    -27.0601E+06         28.3983
            1716     14.6148E-03     90.6567E-03     637.074E-03     386.863E-03        -1.36102     386.746E-03        -1.36091     637.074E-03    -14.2787E-03     51.8773E-03    -25.5528E-03    -26.3365E-03    -24.9178E-03     50.6845E-03    -25.7788E-03     18.7835E-03     86.1241E+06    -19.7968E+06    -43.1524E+06    -12.4934E+06     78.8207E+06    -43.1524E+06    -16.5415E+06         29.9876
            1717     15.5908E-03     90.6722E-03     620.984E-03     349.168E-03        -1.31877     348.835E-03        -1.31844     620.984E-03    -14.9569E-03     51.8837E-03    -25.5856E-03    -26.3034E-03    -24.3258E-03     50.1320E-03    -25.8116E-03     22.0233E-03     172.425E+06     15.3980E+06    -22.6734E+06    -9.31427E+06     172.066E+06     2.39839E+06    -6.28963E+06         31.9240
            1718     16.5666E-03     90.7028E-03     604.865E-03     327.783E-03        -1.28658     327.010E-03        -1.28580     604.865E-03     21.9017E-03     51.5370E-03    -24.9627E-03    -26.5775E-03    -23.9483E-03     50.0308E-03    -26.0857E-03     10.4427E-03     204.189E+06     78.5327E+06    -5.70748E+06    -5.69108E+06     204.172E+06     78.5327E+06    -1.50333E+06         34.0356
            1719     974.239E-06     91.5450E-03         5.70102    -771.279E-03        -5.24799         2.22137        -1.76834    -771.279E-03         4.17917     53.2313E-03    -26.5238E-03    -26.7083E-03    -26.5891E-03     53.2112E-03    -26.6229E-03     2.30169E-03    -45.8644E+06    -48.8093E+06    -164.211E+06    -48.7274E+06    -163.820E+06    -46.3376E+06    -5.15732E+06         23.7385
            1720     1.94741E-03     91.5486E-03         2.20313     743.440E-03        -3.26095     816.353E-03        -1.87418     743.440E-03        -1.28317     53.3883E-03    -26.6345E-03    -26.7535E-03    -26.6944E-03     53.3300E-03    -26.6352E-03     4.22921E-03    -40.9504E+06    -42.5058E+06    -142.438E+06    -43.8516E+06    -141.092E+06    -40.9504E+06    -11.0716E+06         23.8297
            1721     2.92142E-03     91.5537E-03         1.39123     761.738E-03        -2.46850     760.663E-03        -1.83793     761.738E-03     648.512E-03     53.3699E-03    -26.6505E-03    -26.7175E-03    -26.6032E-03     53.2580E-03    -26.6528E-03     5.92664E-03    -38.2302E+06    -39.4708E+06    -135.873E+06    -41.5691E+06    -133.351E+06    -38.6537E+06    -15.2668E+06         23.9121
            1722     3.89534E-03     91.5604E-03         1.02731     762.928E-03        -2.11310     770.302E-03        -1.85609     762.928E-03    -463.836E-03     53.2902E-03    -26.5838E-03    -26.7062E-03    -26.4866E-03     53.1166E-03    -26.6298E-03     7.41095E-03    -34.0465E+06    -36.6117E+06    -129.202E+06    -39.3862E+06    -124.462E+06    -36.0125E+06    -20.0949E+06         24.0103
            1723     4.86888E-03     91.5681E-03     857.395E-03     764.012E-03        -1.95025     760.188E-03        -1.85305     764.012E-03     206.906E-03     53.1167E-03    -26.4665E-03    -26.6508E-03    -26.2822E-03     52.8784E-03    -26.5969E-03     8.67530E-03    -29.0652E+06    -30.9067E+06    -124.205E+06    -36.3219E+06    -117.247E+06    -30.6076E+06    -24.6103E+06         24.1374
            1724     5.84386E-03     91.5781E-03     800.089E-03     745.370E-03        -1.88400     742.533E-03        -1.84360     762.530E-03    -161.216E-03     53.0584E-03    -26.4701E-03    -26.5913E-03    -26.2019E-03     52.7549E-03    -26.5561E-03     9.79583E-03    -23.8648E+06    -25.7722E+06    -120.381E+06    -34.6730E+06    -109.872E+06    -25.4731E+06    -29.5882E+06         24.2897
            1725     6.81759E-03     91.5879E-03     757.753E-03     725.603E-03        -1.81731     706.228E-03        -1.79794     757.753E-03     28.6331E-03     53.1310E-03    -26.5239E-03    -26.6080E-03    -26.2397E-03     52.7626E-03    -26.5239E-03     10.8032E-03    -18.5859E+06    -23.3072E+06    -118.572E+06    -32.7569E+06    -104.401E+06    -23.3072E+06    -34.8244E+06         24.4688
            1726     7.79186E-03     91.6003E-03     751.016E-03     702.881E-03        -1.78752     692.990E-03        -1.77763     751.016E-03    -119.521E-03     53.0176E-03    -26.4568E-03    -26.5745E-03    -26.1179E-03     52.6000E-03    -26.4957E-03     11.4947E-03    -13.8713E+06    -20.8021E+06    -116.242E+06    -29.3280E+06    -100.785E+06    -20.8021E+06    -36.5909E+06         24.6913
            1727     8.76645E-03     91.6117E-03     743.607E-03     668.424E-03        -1.74548     665.141E-03        -1.74220     743.607E-03    -2.26181E-03     52.8385E-03    -26.3861E-03    -26.4850E-03    -25.9701E-03     52.3650E-03    -26.4275E-03     12.2027E-03    -10.3777E+06    -22.7282E+06    -112.995E+06    -28.9730E+06    -94.3995E+06    -22.7282E+06    -39.3989E+06         24.9752
            1728     9.74085E-03     91.6248E-03     734.565E-03     630.876E-03        -1.69581     629.137E-03        -1.69407     734.565E-03    -76.5771E-03     52.7705E-03    -26.3568E-03    -26.4501E-03    -25.9251E-03     52.2480E-03    -26.3593E-03     12.8172E-03    -7.98800E+06    -28.2541E+06    -116.767E+06    -29.9728E+06    -94.7819E+06    -28.2541E+06    -43.5714E+06         25.3261
            1729     10.7152E-03     91.6374E-03     724.366E-03     603.211E-03        -1.66034     602.816E-03        -1.65995     724.366E-03    -29.7583E-03     52.7255E-03    -26.2702E-03    -26.4981E-03    -25.9344E-03     52.1618E-03    -26.2702E-03     13.3082E-03    -1.59888E+06    -34.3803E+06    -114.155E+06    -26.0882E+06    -89.6660E+06    -34.3803E+06    -46.2158E+06         25.7473
            1730     11.6900E-03     91.6516E-03     713.923E-03     581.370E-03        -1.62957     580.993E-03        -1.62919     713.923E-03    -34.9785E-03     52.7229E-03    -26.1835E-03    -26.5808E-03    -25.8645E-03     52.0066E-03    -26.1835E-03     14.9465E-03     5.75069E+06    -38.7911E+06    -101.987E+06    -19.4944E+06    -76.7423E+06    -38.7911E+06    -45.5259E+06         26.3135
            1731     12.6643E-03     91.6680E-03     702.651E-03     537.148E-03        -1.57486     537.134E-03        -1.57485     702.651E-03     764.705E-06     52.5715E-03    -26.1003E-03    -26.4736E-03    -25.5831E-03     51.6810E-03    -26.1003E-03     16.6699E-03     8.35390E+06    -42.5521E+06    -83.0148E+06    -14.7577E+06    -59.9032E+06    -42.5521E+06    -39.6554E+06         27.1696
            1732     13.6400E-03     91.6854E-03     689.578E-03     483.635E-03        -1.50998     483.578E-03        -1.50992     689.578E-03    -10.8870E-03     52.5562E-03    -25.9644E-03    -26.5806E-03    -25.2364E-03     51.2120E-03    -25.9644E-03     20.2173E-03     15.7460E+06    -39.1953E+06    -60.4174E+06    -12.0852E+06    -23.9576E+06    -47.8239E+06    -31.0813E+06         28.3944
            1733     14.6153E-03     91.7100E-03     674.095E-03     411.748E-03        -1.42953     411.423E-03        -1.42921     674.095E-03    -27.8094E-03     51.8624E-03    -25.6046E-03    -26.2638E-03    -24.8704E-03     50.6527E-03    -25.7883E-03     18.7963E-03     78.2596E+06    -22.6229E+06    -44.4414E+06    -11.2647E+06     66.9014E+06    -44.4414E+06    -20.3749E+06         29.9834
            1734     15.5906E-03     91.7240E-03     656.147E-03     342.300E-03        -1.34821     341.621E-03        -1.34753     656.147E-03    -35.0063E-03     51.9664E-03    -25.6141E-03    -26.3532E-03    -24.3772E-03     50.1741E-03    -25.7978E-03     22.1169E-03     163.451E+06     10.2486E+06    -24.0353E+06    -10.1016E+06     162.708E+06    -2.94134E+06    -8.67267E+06         31.9201
            1735     16.5667E-03     91.7558E-03     637.097E-03     307.538E-03        -1.29740     306.796E-03        -1.29666     637.097E-03    -27.9153E-03     51.4573E-03    -24.8470E-03    -26.6127E-03    -23.8152E-03     49.8701E-03    -26.0573E-03     10.5604E-03     201.146E+06     72.8558E+06    -6.14441E+06    -6.11648E+06     201.118E+06     72.8558E+06    -1.96395E+06         34.0330
            1736     973.618E-06     92.5991E-03         4.57435    -699.844E-03        -4.18257         2.22077        -1.82899    -699.844E-03         3.18794     53.3883E-03    -26.5844E-03    -26.8045E-03    -26.7164E-03     53.3687E-03    -26.6529E-03     2.32065E-03    -35.5936E+06    -39.4832E+06    -150.249E+06    -38.2646E+06    -149.535E+06    -37.5257E+06    -7.95395E+06         23.7400
            1737     1.94777E-03     92.6030E-03         1.76682     786.828E-03        -2.86188     892.251E-03        -1.98731     786.828E-03    -968.391E-03     53.2495E-03    -26.5419E-03    -26.7077E-03    -26.5340E-03     53.1933E-03    -26.6593E-03     4.12721E-03    -33.4753E+06    -35.2334E+06    -132.631E+06    -36.0110E+06    -130.982E+06    -34.3464E+06    -12.4130E+06         23.8261
            1738     2.92150E-03     92.6077E-03         1.23274     821.799E-03        -2.36373     871.594E-03        -2.00258     821.799E-03     497.589E-03     53.2096E-03    -26.5642E-03    -26.6445E-03    -26.4800E-03     53.0956E-03    -26.6147E-03     5.95905E-03     -29.992E+06    -31.4399E+06    -126.047E+06    -33.1710E+06    -122.932E+06    -31.3761E+06    -16.7709E+06         23.9092
            1739     3.89552E-03     92.6144E-03     985.703E-03     827.138E-03        -2.12460     842.353E-03        -1.98593     831.817E-03    -375.372E-03     53.2550E-03    -26.5843E-03    -26.6702E-03    -26.4919E-03     53.0783E-03    -26.5859E-03     7.48259E-03    -25.5549E+06    -27.7168E+06    -118.430E+06    -31.1757E+06    -112.809E+06    -27.7168E+06    -21.8060E+06         24.0096
            1740     4.86967E-03     92.6224E-03     851.402E-03     812.921E-03        -1.98189     784.049E-03        -1.93072     829.102E-03     126.873E-03     53.2269E-03    -26.5362E-03    -26.6909E-03    -26.4106E-03     52.9881E-03    -26.5779E-03     8.69817E-03    -21.5897E+06    -23.6154E+06    -115.560E+06    -29.7265E+06    -107.800E+06    -23.2385E+06    -25.7842E+06         24.1381
            1741     5.84325E-03     92.6311E-03     830.002E-03     777.448E-03        -1.93479     764.155E-03        -1.91192     820.422E-03    -109.661E-03     53.2203E-03    -26.5272E-03    -26.6973E-03    -26.3273E-03     52.8920E-03    -26.5689E-03     10.1743E-03    -16.4943E+06    -17.3269E+06    -109.718E+06    -27.6543E+06    -99.1096E+06    -16.7753E+06    -29.1504E+06         24.2929
            1742     6.81764E-03     92.6427E-03     810.779E-03     746.154E-03        -1.88578     733.982E-03        -1.87361     810.779E-03     25.8447E-03     53.2241E-03    -26.5499E-03    -26.6822E-03    -26.2949E-03     52.8369E-03    -26.5499E-03     11.0895E-03    -12.3186E+06    -14.7162E+06    -108.228E+06    -27.2081E+06    -93.6891E+06    -14.3658E+06    -34.3146E+06         24.4738
            1743     7.79173E-03     92.6529E-03     800.463E-03     720.851E-03        -1.85307     714.768E-03        -1.84699     800.463E-03    -109.031E-03     53.0488E-03    -26.4675E-03    -26.5973E-03    -26.1341E-03     52.6245E-03    -26.5064E-03     11.5817E-03    -8.64671E+06    -16.7589E+06    -111.854E+06    -26.2245E+06    -94.4515E+06    -16.5833E+06    -38.5169E+06         24.6948
            1744     8.76624E-03     92.6657E-03     790.463E-03     699.315E-03        -1.81983     697.707E-03        -1.81822     790.463E-03    -19.5621E-03     52.8605E-03    -26.4080E-03    -26.4828E-03    -25.9703E-03     52.3894E-03    -26.4494E-03     12.1854E-03    -4.06028E+06    -16.0026E+06    -105.632E+06    -22.8311E+06    -86.8615E+06    -16.0026E+06    -39.3715E+06         24.9760
            1745     9.74086E-03     92.6774E-03     780.339E-03     671.859E-03        -1.78070     670.773E-03        -1.77962     780.339E-03    -76.6539E-03     52.8208E-03    -26.3870E-03    -26.4697E-03    -25.9537E-03     52.3074E-03    -26.3895E-03     12.7119E-03     2.27276E+06    -18.3627E+06    -106.279E+06    -20.3507E+06    -83.6554E+06    -18.3627E+06    -44.0122E+06         25.3252
            1746     10.7155E-03     92.6913E-03     768.823E-03     625.134E-03        -1.72474     624.608E-03        -1.72421     768.823E-03    -51.3195E-03     52.7688E-03    -26.2818E-03    -26.5276E-03    -25.9517E-03     52.1930E-03    -26.2818E-03     13.4581E-03     8.62256E+06    -29.2472E+06    -109.928E+06    -19.9645E+06    -81.3412E+06    -29.2472E+06    -50.6649E+06         25.7453
            1747     11.6895E-03     92.7044E-03     754.861E-03     565.176E-03        -1.65328     564.680E-03        -1.65278     754.861E-03    -50.6977E-03     52.6836E-03    -26.1913E-03    -26.5323E-03    -25.7964E-03     51.9477E-03    -26.1913E-03     15.1376E-03     9.80159E+06    -37.8147E+06    -106.403E+06    -19.9659E+06    -76.6355E+06    -37.8147E+06    -50.6905E+06         26.3105
            1748     12.6650E-03     92.7211E-03     738.521E-03     506.738E-03        -1.58043     506.574E-03        -1.58027     738.521E-03    -22.0996E-03     52.5497E-03    -26.1003E-03    -26.4457E-03    -25.5404E-03     51.6445E-03    -26.1003E-03     16.8084E-03     10.3580E+06    -44.0599E+06    -92.2380E+06    -17.5123E+06    -64.3676E+06    -44.0599E+06    -45.5690E+06         27.1651
            1749     13.6393E-03     92.7379E-03     721.299E-03     474.542E-03        -1.53407     474.336E-03        -1.53386     721.299E-03    -34.5093E-03     52.6297E-03    -25.9716E-03    -26.6418E-03    -25.2971E-03     51.2849E-03    -25.9716E-03     20.2424E-03     16.9049E+06    -44.7042E+06    -65.6662E+06    -13.4913E+06    -31.2895E+06    -48.6847E+06    -37.0850E+06         28.3882
            1750     14.6150E-03     92.7621E-03     703.879E-03     431.233E-03        -1.48117     430.885E-03        -1.48082     703.879E-03    -38.0396E-03     51.8674E-03    -25.5705E-03    -26.3018E-03    -24.8571E-03     50.6587E-03    -25.8065E-03     18.7919E-03     69.0427E+06    -26.4564E+06    -44.8144E+06    -10.4370E+06     53.0233E+06    -44.8144E+06    -24.0055E+06         29.9765
            1751     15.5909E-03     92.7768E-03     685.034E-03     358.357E-03        -1.39009     357.708E-03        -1.38944     685.034E-03    -52.1214E-03     51.7781E-03    -25.5465E-03    -26.2314E-03    -24.2353E-03     50.0179E-03    -25.7825E-03     21.8920E-03     152.050E+06     6.46229E+06    -24.6902E+06    -9.17593E+06     150.914E+06    -7.91519E+06    -10.6063E+06         31.9137
            1752     16.5670E-03     92.8074E-03     663.528E-03     268.850E-03        -1.27507     267.998E-03        -1.27422     663.528E-03    -37.1366E-03     51.1845E-03    -24.7250E-03    -26.4618E-03    -23.6290E-03     49.6396E-03    -26.0129E-03     10.5358E-03     197.955E+06     66.4177E+06    -6.01799E+06    -5.95204E+06     197.889E+06     66.4177E+06    -2.90636E+06         34.0282
            1753     973.598E-06     93.6542E-03         3.60419    -604.596E-03        -3.31390         2.30671        -2.01642    -604.596E-03         2.11311     53.5053E-03    -26.6294E-03    -26.8748E-03    -26.7434E-03     53.4877E-03    -26.7432E-03     2.33557E-03    -23.0445E+06    -26.9689E+06    -137.281E+06    -25.7036E+06    -136.614E+06    -24.9767E+06    -8.31963E+06         23.7361
            1754     1.94739E-03     93.6564E-03         1.42463     871.587E-03        -2.60157     952.958E-03        -2.12990     871.587E-03    -663.801E-03     53.1617E-03    -26.4825E-03    -26.6783E-03    -26.4302E-03     53.1094E-03    -26.6783E-03     3.91479E-03    -23.7411E+06    -26.3632E+06    -119.171E+06    -27.2974E+06    -117.366E+06    -24.6121E+06    -11.8674E+06         23.8209
            1755     2.92191E-03     93.6618E-03         1.08086     892.231E-03        -2.27662     891.575E-03        -2.08734     892.231E-03     381.590E-03     53.0718E-03    -26.4592E-03    -26.6131E-03    -26.3767E-03     52.9595E-03    -26.5832E-03     5.91127E-03    -22.0014E+06    -24.4934E+06    -115.302E+06    -26.4989E+06    -111.128E+06    -24.1692E+06    -18.9056E+06         23.9041
            1756     3.89571E-03     93.6685E-03     965.123E-03     870.225E-03        -2.14670     880.688E-03        -2.08324     891.203E-03    -257.378E-03     53.0757E-03    -26.4981E-03    -26.5773E-03    -26.3593E-03     52.8997E-03    -26.5401E-03     7.44564E-03    -16.7454E+06    -19.3476E+06    -109.056E+06    -23.1836E+06    -102.618E+06    -19.3476E+06    -23.3214E+06         24.0055
            1757     4.86974E-03     93.6762E-03     882.879E-03     833.959E-03        -2.03779     809.090E-03        -2.01292     882.879E-03     44.6241E-03     53.2018E-03    -26.5353E-03    -26.6663E-03    -26.4235E-03     52.9590E-03    -26.5353E-03     8.77017E-03    -12.7111E+06    -14.4066E+06    -107.147E+06    -20.8606E+06    -99.3877E+06    -14.0166E+06    -25.8357E+06         24.1344
            1758     5.84403E-03     93.6855E-03     869.966E-03     812.358E-03        -2.00989     798.847E-03        -1.99638     869.966E-03    -129.598E-03     53.2934E-03    -26.5287E-03    -26.7673E-03    -26.4310E-03     52.9571E-03    -26.5287E-03     10.3107E-03    -9.00057E+06    -11.1735E+06    -100.403E+06    -20.1545E+06    -89.8141E+06    -10.6088E+06    -28.6431E+06         24.2906
            1759     6.81796E-03     93.6961E-03     859.046E-03     787.732E-03        -1.97102     782.958E-03        -1.96624     859.046E-03     18.6421E-03     53.1941E-03    -26.5200E-03    -26.6775E-03    -26.2813E-03     52.8028E-03    -26.5250E-03     11.1479E-03    -4.79011E+06    -6.80477E+06    -96.5301E+06    -19.2092E+06    -82.5175E+06    -6.39831E+06    -32.8922E+06         24.4733
            1760     7.79212E-03     93.7073E-03     846.826E-03     732.601E-03        -1.90653     730.755E-03        -1.90468     846.826E-03    -66.7624E-03     53.0462E-03    -26.4743E-03    -26.5751E-03    -26.1388E-03     52.6149E-03    -26.4793E-03     11.6721E-03    -1.28642E+06    -9.03258E+06    -102.761E+06    -18.9615E+06    -85.3172E+06    -8.80088E+06    -38.1171E+06         24.6933
            1761     8.76633E-03     93.7185E-03     832.868E-03     704.548E-03        -1.86550     703.714E-03        -1.86466     832.868E-03    -28.1829E-03     52.9730E-03    -26.4067E-03    -26.5784E-03    -26.0637E-03     52.4583E-03    -26.4067E-03     12.7337E-03     4.59915E+06    -13.7373E+06    -101.322E+06    -17.3886E+06    -79.3339E+06    -13.7373E+06    -42.8509E+06         24.9710
            1762     9.74064E-03     93.7316E-03     819.677E-03     691.210E-03        -1.84025     690.389E-03        -1.83943     819.677E-03    -81.3806E-03     52.8939E-03    -26.3694E-03    -26.5457E-03    -25.9947E-03     52.3430E-03    -26.3694E-03     13.1701E-03     11.3381E+06    -12.9956E+06    -97.9460E+06    -14.0154E+06    -72.5924E+06    -12.9956E+06    -46.0143E+06         25.3183
            1763     10.7151E-03     93.7439E-03     805.418E-03     625.381E-03        -1.76231     624.934E-03        -1.76186     805.418E-03    -61.9762E-03     52.7192E-03    -26.2868E-03    -26.4637E-03    -25.8648E-03     52.1202E-03    -26.2868E-03     13.7043E-03     13.0088E+06    -20.5200E+06    -100.550E+06    -14.8090E+06    -72.7318E+06    -20.5200E+06    -48.8017E+06         25.7391
            1764     11.6904E-03     93.7581E-03     787.546E-03     546.555E-03        -1.65942     546.224E-03        -1.65909     787.546E-03    -46.4079E-03     52.6449E-03    -26.1899E-03    -26.4876E-03    -25.7482E-03     51.9054E-03    -26.1899E-03     15.1980E-03     12.5316E+06    -32.0574E+06    -103.635E+06    -17.7851E+06    -73.3183E+06    -32.0574E+06    -50.9845E+06         26.3050
            1765     12.6646E-03     93.7734E-03     767.600E-03     500.600E-03        -1.59314     500.305E-03        -1.59285     767.600E-03    -43.9758E-03     52.5906E-03    -26.0849E-03    -26.4993E-03    -25.5896E-03     51.6809E-03    -26.0849E-03     16.8488E-03     14.0789E+06    -43.1410E+06    -97.4057E+06    -18.0767E+06    -65.2501E+06    -43.1410E+06    -50.4646E+06         27.1576
            1766     13.6403E-03     93.7912E-03     747.773E-03     468.922E-03        -1.54788     468.626E-03        -1.54759     747.773E-03    -42.9636E-03     52.7481E-03    -25.9624E-03    -26.7754E-03    -25.4183E-03     51.3910E-03    -25.9624E-03     20.4088E-03     18.1457E+06    -50.9436E+06    -74.5684E+06    -15.9619E+06    -40.1691E+06    -51.2352E+06    -43.8518E+06         28.3783
            1767     14.6150E-03     93.8141E-03     728.044E-03     422.900E-03        -1.48679     422.804E-03        -1.48669     728.044E-03    -19.6273E-03     51.8876E-03    -25.5032E-03    -26.3964E-03    -24.8698E-03     50.6719E-03    -25.8141E-03     18.9125E-03     59.5719E+06    -33.9651E+06    -49.4462E+06    -13.5083E+06     37.0097E+06    -47.3409E+06    -28.9206E+06         29.9658
            1768     15.5907E-03     93.8293E-03     707.496E-03     363.482E-03        -1.41245     363.365E-03        -1.41234     707.496E-03    -22.8181E-03     51.5618E-03    -25.4392E-03    -26.1260E-03    -24.0489E-03     49.7955E-03    -25.7501E-03     21.9480E-03     140.315E+06    -2.05786E+06    -25.0596E+06    -10.0283E+06     138.368E+06    -15.1420E+06    -13.4997E+06         31.9040
            1769     16.5675E-03     93.8590E-03     685.023E-03     278.778E-03        -1.31209     278.034E-03        -1.31134     685.023E-03     30.8792E-03     50.9235E-03    -24.6082E-03    -26.3180E-03    -23.4584E-03     49.3977E-03    -25.9420E-03     10.5882E-03     193.330E+06     56.5607E+06    -5.68338E+06    -5.53043E+06     193.177E+06     56.5607E+06    -4.20471E+06         34.0205
            1770     973.801E-06     94.7082E-03         2.81158    -434.017E-03        -2.69732         2.32025        -2.20599    -434.017E-03         1.10358     53.1840E-03    -26.5006E-03    -26.6826E-03    -26.5697E-03     53.1642E-03    -26.5937E-03     2.34833E-03    -15.1787E+06    -18.0480E+06    -126.834E+06    -18.6684E+06    -126.214E+06    -15.1787E+06    -7.77571E+06         23.7256
            1771     1.94788E-03     94.7108E-03         1.18178     948.306E-03        -2.43762     995.285E-03        -2.25661     953.790E-03    -417.758E-03     53.2106E-03    -26.5061E-03    -26.7028E-03    -26.5665E-03     53.1534E-03    -26.5853E-03     4.13948E-03    -10.5258E+06    -13.5882E+06    -104.809E+06    -14.3160E+06    -103.104E+06    -11.5031E+06    -11.4492E+06         23.8145
            1772     2.92143E-03     94.7156E-03     990.122E-03     949.509E-03        -2.24307     912.376E-03        -2.17280     956.985E-03     193.247E-03     53.0238E-03    -26.4090E-03    -26.6136E-03    -26.3644E-03     52.9129E-03    -26.5472E-03     5.88619E-03    -8.67748E+06    -11.9430E+06    -100.478E+06    -13.2428E+06    -96.2374E+06    -11.6187E+06    -18.8156E+06         23.8972
            1773     3.89610E-03     94.7221E-03     958.626E-03     901.263E-03        -2.16454     890.940E-03        -2.13890     943.315E-03    -136.009E-03     52.8708E-03    -26.3778E-03    -26.4914E-03    -26.2027E-03     52.6888E-03    -26.4845E-03     7.53082E-03    -8.49748E+06    -11.9698E+06    -100.548E+06    -14.8096E+06    -94.2357E+06    -11.9698E+06    -23.1299E+06         23.9969
            1774     4.87036E-03     94.7302E-03     928.643E-03     855.929E-03        -2.09959     843.808E-03        -2.08747     928.643E-03     45.9854E-03     53.0863E-03    -26.4568E-03    -26.6291E-03    -26.3662E-03     52.8258E-03    -26.4592E-03     9.07798E-03    -7.49338E+06    -9.31114E+06    -99.5085E+06    -15.5646E+06    -91.7293E+06    -9.01905E+06    -25.3622E+06         24.1241
            1775     5.84405E-03     94.7393E-03     913.854E-03     838.868E-03        -2.07835     833.412E-03        -2.07289     913.854E-03    -92.7703E-03     53.2115E-03    -26.4490E-03    -26.7641E-03    -26.4197E-03     52.8670E-03    -26.4490E-03     10.4419E-03    -219.186E+03    -5.90509E+06    -90.9928E+06    -12.5607E+06    -78.9434E+06    -5.61300E+06    -30.1294E+06         24.2789
            1776     6.81816E-03     94.7502E-03     901.182E-03     813.082E-03        -2.03719     811.982E-03        -2.03609     901.182E-03     17.9463E-03     53.0708E-03    -26.4515E-03    -26.6171E-03    -26.2151E-03     52.6738E-03    -26.4565E-03     11.2157E-03     5.76808E+06    -277.258E+03    -88.1818E+06    -8.69627E+06    -73.7735E+06    -221.202E+03    -33.6924E+06         24.4632
            1777     7.79271E-03     94.7606E-03     887.620E-03     766.926E-03        -1.97881     766.378E-03        -1.97827     887.620E-03    -36.6856E-03     52.9452E-03    -26.4231E-03    -26.5216E-03    -26.0716E-03     52.5001E-03    -26.4281E-03     11.8452E-03     10.0576E+06     1.59004E+06    -91.2407E+06    -6.47402E+06    -74.7651E+06     1.64609E+06    -37.1183E+06         24.6847
            1778     8.76731E-03     94.7723E-03     871.771E-03     715.895E-03        -1.90669     715.657E-03        -1.90646     871.771E-03    -29.3405E-03     52.9183E-03    -26.3444E-03    -26.5704E-03    -26.0306E-03     52.3785E-03    -26.3444E-03     13.0382E-03     15.0001E+06    -4.45295E+06    -90.4594E+06    -6.88781E+06    -68.5714E+06    -4.45295E+06    -42.6613E+06         24.9611
            1779     9.74167E-03     94.7850E-03     853.958E-03     663.485E-03        -1.83634     663.185E-03        -1.83604     853.958E-03    -47.4880E-03     52.8634E-03    -26.2997E-03    -26.5593E-03    -25.9743E-03     52.2784E-03    -26.2997E-03     13.5797E-03     14.4308E+06    -8.60691E+06    -92.0962E+06    -10.6034E+06    -67.0620E+06    -8.60691E+06    -45.0595E+06         25.3074
            1780     10.7163E-03     94.7973E-03     834.120E-03     600.170E-03        -1.76090     600.001E-03        -1.76073     834.120E-03    -28.3186E-03     52.7838E-03    -26.2429E-03    -26.5616E-03    -25.9356E-03     52.1579E-03    -26.2429E-03     14.0291E-03     13.6137E+06    -14.1633E+06    -91.8921E+06    -13.7676E+06    -64.5108E+06    -14.1633E+06    -46.1761E+06         25.7300
            1781     11.6904E-03     94.8109E-03     812.981E-03     553.806E-03        -1.69108     553.731E-03        -1.69101     812.981E-03    -18.4648E-03     52.6649E-03    -26.1538E-03    -26.5388E-03    -25.7847E-03     51.9108E-03    -26.1538E-03     15.3587E-03     17.0257E+06    -25.3445E+06    -96.4510E+06    -14.5879E+06    -64.8374E+06    -25.3445E+06    -50.8086E+06         26.2960
            1782     12.6658E-03     94.8266E-03     791.643E-03     509.746E-03        -1.62360     509.510E-03        -1.62337     791.643E-03    -36.3072E-03     52.6176E-03    -26.0520E-03    -26.5606E-03    -25.6171E-03     51.6741E-03    -26.0520E-03     17.1526E-03     17.6487E+06    -39.3928E+06    -97.6099E+06    -15.7707E+06    -64.1906E+06    -39.3928E+06    -52.2477E+06         27.1448
            1783     13.6399E-03     94.8434E-03     770.065E-03     460.173E-03        -1.55588     459.917E-03        -1.55563     770.065E-03    -26.2872E-03     52.7597E-03    -25.9394E-03    -26.8168E-03    -25.4053E-03     51.3482E-03    -25.9394E-03     20.8246E-03     16.7344E+06    -50.4139E+06    -81.9097E+06    -17.7682E+06    -47.4071E+06    -50.4139E+06    -46.5374E+06         28.3626
            1784     14.6156E-03     94.8671E-03     747.828E-03     403.384E-03        -1.48185     403.292E-03        -1.48176     747.828E-03    -7.48567E-03     51.7934E-03    -25.4725E-03    -26.3330E-03    -24.7670E-03     50.5341E-03    -25.7793E-03     19.2419E-03     50.6865E+06    -38.1391E+06    -57.8332E+06    -16.0932E+06     21.6410E+06    -50.8337E+06    -34.9459E+06         29.9506
            1785     15.5917E-03     94.8806E-03     724.775E-03     345.997E-03        -1.40602     345.913E-03        -1.40593     724.775E-03    -17.2063E-03     51.5999E-03    -25.3665E-03    -26.2354E-03    -24.0857E-03     49.7569E-03    -25.6732E-03     22.4614E-03     128.190E+06    -13.0982E+06    -28.8054E+06    -11.6019E+06     123.681E+06    -25.7927E+06    -19.1801E+06         31.8908
            1786     16.5680E-03     94.9110E-03     701.500E-03     307.681E-03        -1.35467     307.096E-03        -1.35408     701.500E-03     15.2643E-03     50.8573E-03    -24.4548E-03    -26.4040E-03    -23.4274E-03     49.2678E-03    -25.8419E-03     10.8189E-03     186.485E+06     43.7614E+06    -6.60431E+06    -6.24238E+06     186.123E+06     43.7614E+06    -6.59679E+06         34.0096
            1787     974.566E-06     95.7617E-03         2.32308    -176.317E-03        -2.46911         2.21992        -2.36770    -174.559E-03     397.635E-03     52.7422E-03    -26.2420E-03    -26.5005E-03    -26.2732E-03     52.7222E-03    -26.4493E-03     2.15825E-03    -2.13377E+06    -4.75835E+06    -112.935E+06    -5.44262E+06    -112.251E+06    -2.13377E+06    -6.55165E+06         23.7091
            1788     1.94821E-03     95.7653E-03         1.06192     970.512E-03        -2.33376     981.872E-03        -2.29806         1.01486    -125.235E-03     52.8581E-03    -26.3644E-03    -26.4927E-03    -26.4284E-03     52.7945E-03    -26.3651E-03     4.38895E-03    -320.677E+03    -5.35687E+06    -93.2766E+06    -4.34939E+06    -91.2593E+06    -3.34545E+06    -12.8640E+06         23.8022
            1789     2.92227E-03     95.7697E-03     996.660E-03     949.454E-03        -2.24427     935.992E-03        -2.23081     996.660E-03     41.3622E-03     52.8711E-03    -26.3108E-03    -26.5588E-03    -26.3755E-03     52.7501E-03    -26.3731E-03     6.13689E-03     350.563E+03    -3.63617E+06    -85.8568E+06    -3.86206E+06    -81.8494E+06    -3.43096E+06    -17.7657E+06         23.8872
            1790     3.89638E-03     95.7753E-03     981.049E-03     942.577E-03        -2.22567     935.724E-03        -2.21881     981.049E-03    -95.4511E-03     52.9125E-03    -26.3416E-03    -26.5695E-03    -26.3115E-03     52.7194E-03    -26.4063E-03     7.77685E-03     4.67665E+06     1.08057E+06    -91.1273E+06    -2.70343E+06    -85.8558E+06     3.18912E+06    -21.5270E+06         23.9843
            1791     4.87072E-03     95.7840E-03     968.794E-03     902.917E-03        -2.17996     900.469E-03        -2.17751     968.794E-03    -14.5992E-03     52.9569E-03    -26.3927E-03    -26.5596E-03    -26.2761E-03     52.6759E-03    -26.3951E-03     9.40136E-03     10.2646E+06     4.26483E+06    -89.1770E+06      19.076E+03    -80.8348E+06     6.16817E+06    -26.6028E+06         24.1033
            1792     5.84496E-03     95.7933E-03     953.929E-03     855.167E-03        -2.12273     853.779E-03        -2.12134     953.929E-03    -55.0192E-03     52.9192E-03    -26.3527E-03    -26.5628E-03    -26.1948E-03     52.5512E-03    -26.3527E-03     10.7716E-03     15.3722E+06     6.59037E+06    -80.5894E+06     2.73093E+06    -67.9481E+06     6.59037E+06    -32.2018E+06         24.2519
            1793     6.81934E-03     95.8037E-03     936.834E-03     810.391E-03        -2.05901     809.807E-03        -2.05842     936.834E-03     22.4095E-06     52.8911E-03    -26.3486E-03    -26.5403E-03    -26.1131E-03     52.4638E-03    -26.3486E-03     11.6114E-03     18.2959E+06     10.7794E+06    -81.3899E+06     4.21466E+06    -67.3086E+06     10.7794E+06    -34.4627E+06         24.4381
            1794     7.79363E-03     95.8140E-03     920.145E-03     793.534E-03        -2.02113     793.398E-03        -2.02099     920.145E-03    -24.4677E-03     52.9522E-03    -26.3395E-03    -26.6165E-03    -26.1352E-03     52.4709E-03    -26.3395E-03     12.3259E-03     20.7223E+06     14.2526E+06    -81.0262E+06     4.78768E+06    -65.0916E+06     14.2526E+06    -36.7654E+06         24.6648
            1795     8.76789E-03     95.8259E-03     902.897E-03     729.935E-03        -1.93775     729.791E-03        -1.93761     902.897E-03    -29.4311E-03     52.8364E-03    -26.2908E-03    -26.5496E-03    -26.0096E-03     52.2964E-03    -26.2908E-03     13.0465E-03     20.7284E+06     10.7022E+06    -78.9724E+06     2.63848E+06    -60.8826E+06     10.7022E+06    -38.3272E+06         24.9430
            1796     9.74273E-03     95.8381E-03     881.334E-03     637.211E-03        -1.82943     636.996E-03        -1.82922     881.334E-03    -39.0880E-03     52.7592E-03    -26.2436E-03    -26.5081E-03    -25.9138E-03     52.1649E-03    -26.2436E-03     13.6670E-03     19.4660E+06     5.48738E+06    -80.9518E+06    -826.398E+03    -60.6593E+06     5.48738E+06    -40.2487E+06         25.2879
            1797     10.7171E-03     95.8510E-03     856.901E-03     582.817E-03        -1.75726     582.674E-03        -1.75711     856.901E-03    -25.8576E-03     52.7766E-03    -26.1926E-03    -26.5983E-03    -25.9533E-03     52.1315E-03    -26.1926E-03     14.2470E-03     21.6203E+06    -226.587E+03    -81.3410E+06    -3.35856E+06    -56.3621E+06    -226.587E+03    -43.9289E+06         25.7102
            1798     11.6918E-03     95.8641E-03     833.286E-03     560.138E-03        -1.71383     560.044E-03        -1.71374     833.286E-03    -5.78642E-03     52.6489E-03    -26.1200E-03    -26.5641E-03    -25.7909E-03     51.8757E-03    -26.1200E-03     15.5355E-03     22.8156E+06    -11.1499E+06    -84.6684E+06    -7.31591E+06    -54.5369E+06    -11.1499E+06    -48.2185E+06         26.2754
            1799     12.6663E-03     95.8789E-03     810.656E-03     512.498E-03        -1.64533     512.222E-03        -1.64505     810.656E-03    -25.0768E-03     52.5879E-03    -26.0176E-03    -26.5776E-03    -25.5902E-03     51.6006E-03    -26.0176E-03     17.5446E-03     18.2653E+06    -29.8936E+06    -93.2824E+06    -12.8752E+06    -62.1419E+06    -29.8936E+06    -50.0162E+06         27.1208
            1800     13.6419E-03     95.8967E-03     787.126E-03     443.354E-03        -1.55172     443.081E-03        -1.55145     787.126E-03    -20.9754E-03     52.6649E-03    -25.8910E-03    -26.7766E-03    -25.3315E-03     51.2199E-03    -25.8910E-03     21.0692E-03     18.5725E+06    -44.3494E+06    -83.7751E+06    -15.5009E+06    -49.7017E+06    -44.3494E+06    -47.6118E+06         28.3382
            1801     14.6170E-03     95.9184E-03     762.172E-03     376.225E-03        -1.46113     376.067E-03        -1.46098     762.172E-03    -5.26719E-03     51.7927E-03    -25.5247E-03    -26.2791E-03    -24.8134E-03     50.5271E-03    -25.7248E-03     19.2643E-03     46.1925E+06    -38.3981E+06    -59.9080E+06    -14.2318E+06     10.4868E+06    -48.3687E+06    -41.0038E+06         29.9296
            1802     15.5930E-03     95.9329E-03     736.644E-03     326.819E-03        -1.39160     326.573E-03        -1.39135     736.644E-03    -29.6012E-03     51.6187E-03    -25.3780E-03    -26.2413E-03    -24.1713E-03     49.7488E-03    -25.5781E-03     22.5747E-03     114.083E+06    -18.9487E+06    -35.6455E+06    -10.6785E+06     105.202E+06    -35.0344E+06    -25.9940E+06         31.8736
            1803     16.5691E-03     95.9626E-03     711.908E-03     304.335E-03        -1.35327     303.610E-03        -1.35254     711.908E-03    -51.9285E-03     50.6749E-03    -24.3051E-03    -26.3705E-03    -23.3372E-03     49.0438E-03    -25.7073E-03     10.8383E-03     176.147E+06     34.9674E+06    -12.5421E+06    -5.58854E+06     175.308E+06     28.8523E+06    -9.81742E+06         33.9959
            1804     973.971E-06     96.8155E-03         2.15820    -899.985E-06        -2.46787         2.13108        -2.44251     857.756E-06    -123.545E-03     52.4326E-03    -26.0248E-03    -26.4086E-03    -26.1676E-03     52.4126E-03    -26.2458E-03     2.23773E-03     9.29127E+06     5.77940E+06    -97.7100E+06     6.78330E+06    -97.0956E+06     7.67291E+06    -5.17886E+06         23.6831
            1805     1.94883E-03     96.8185E-03         1.06990     987.000E-03        -2.36150     996.207E-03        -2.35289         1.05208     102.705E-03     52.2908E-03    -26.1031E-03    -26.1881E-03    -26.0534E-03     52.2310E-03    -26.1781E-03     4.22405E-03     11.7958E+06     7.67554E+06    -80.3981E+06     7.53474E+06    -78.2098E+06     9.74831E+06    -13.4227E+06         23.7816
            1806     2.92348E-03     96.8230E-03         1.02446     944.895E-03        -2.27188     941.831E-03        -2.26881         1.02446    -31.9449E-03     52.4857E-03    -26.1444E-03    -26.3407E-03    -26.2007E-03     52.3585E-03    -26.1571E-03     6.23585E-03     12.9781E+06     10.0363E+06    -75.3716E+06     8.39376E+06    -71.2419E+06     10.4909E+06    -18.2646E+06         23.8701
            1807     3.89726E-03     96.8298E-03         1.00574     966.061E-03        -2.27225     964.967E-03        -2.27115         1.00574    -43.1574E-03     52.7695E-03    -26.2238E-03    -26.5460E-03    -26.3331E-03     52.5566E-03    -26.2238E-03     8.16082E-03     18.9818E+06     15.6102E+06    -80.4484E+06     11.0742E+06    -74.6494E+06     17.7188E+06    -22.9472E+06         23.9630
            1808     4.87120E-03     96.8371E-03     994.742E-03     935.292E-03        -2.23068     934.275E-03        -2.22966     994.742E-03    -72.8071E-03     52.6692E-03    -26.2273E-03    -26.4390E-03    -26.1171E-03     52.3474E-03    -26.2273E-03     10.0033E-03     26.5221E+06     17.8641E+06    -77.3726E+06     15.2547E+06    -68.0086E+06     19.7674E+06    -28.6309E+06         24.0714
            1809     5.84600E-03     96.8471E-03     980.122E-03     876.067E-03        -2.15626     875.487E-03        -2.15568     980.122E-03    -46.9605E-03     52.5116E-03    -26.1829E-03    -26.3232E-03    -25.9189E-03     52.1072E-03    -26.1829E-03     11.2491E-03     26.7740E+06     18.9650E+06    -71.8397E+06     15.4835E+06    -60.5492E+06     18.9650E+06    -31.2611E+06         24.2105
            1810     6.82071E-03     96.8567E-03     961.774E-03     825.015E-03        -2.08423     824.701E-03        -2.08391     961.774E-03    -57.2986E-03     52.6160E-03    -26.1683E-03    -26.4460E-03    -25.9744E-03     52.1444E-03    -26.1683E-03     12.1501E-03     26.0902E+06     21.6053E+06    -72.8686E+06     13.3583E+06    -60.1367E+06     21.6053E+06    -32.7722E+06         24.3927
            1811     7.79518E-03     96.8680E-03     942.532E-03     788.828E-03        -2.02804     788.551E-03        -2.02777     942.532E-03    -45.6391E-03     52.7259E-03    -26.1633E-03    -26.5665E-03    -26.0226E-03     52.1819E-03    -26.1633E-03     13.0781E-03     26.1185E+06     22.2865E+06    -72.0517E+06     11.0334E+06    -58.0113E+06     23.3312E+06    -34.0010E+06         24.6198
            1812     8.76942E-03     96.8791E-03     921.666E-03     716.708E-03        -1.93968     716.612E-03        -1.93959     921.666E-03    -25.1306E-03     52.6987E-03    -26.1343E-03    -26.5753E-03    -25.9546E-03     52.0780E-03    -26.1343E-03     13.9351E-03     25.9298E+06     19.0311E+06    -71.2198E+06     9.70741E+06    -56.0421E+06     20.0758E+06    -34.7227E+06         24.8970
            1813     9.74388E-03     96.8910E-03     897.601E-03     641.909E-03        -1.84435     641.665E-03        -1.84411     897.601E-03    -46.4540E-03     52.6869E-03    -26.0839E-03    -26.6060E-03    -25.8896E-03     51.9705E-03    -26.0839E-03     14.9631E-03     28.3859E+06     14.9785E+06    -69.5422E+06     9.84156E+06    -50.9978E+06     14.9785E+06    -38.3541E+06         25.2369
            1814     10.7186E-03     96.9045E-03     872.372E-03     596.523E-03        -1.77316     596.104E-03        -1.77274     872.372E-03    -61.8292E-03     52.6577E-03    -26.0421E-03    -26.6231E-03    -25.8669E-03     51.9015E-03    -26.0421E-03     15.3825E-03     29.7641E+06     9.26817E+06    -71.5869E+06     9.04462E+06    -50.8674E+06     9.26817E+06    -40.7523E+06         25.6564
            1815     11.6933E-03     96.9168E-03     847.591E-03     551.314E-03        -1.70561     551.051E-03        -1.70535     847.591E-03    -21.9969E-03     52.6043E-03    -25.9988E-03    -26.6308E-03    -25.7700E-03     51.7434E-03    -25.9988E-03     16.3780E-03     27.0973E+06     2.46341E+06    -69.8678E+06     4.10248E+06    -46.8729E+06     2.46341E+06    -41.0913E+06         26.2247
            1816     12.6683E-03     96.9322E-03     822.556E-03     490.199E-03        -1.62535     489.782E-03        -1.62494     822.556E-03    -29.5306E-03     52.6605E-03    -25.9094E-03    -26.7564E-03    -25.6766E-03     51.5807E-03    -25.9094E-03     18.3563E-03     23.6506E+06    -16.3303E+06    -81.0091E+06    -2.55681E+06    -54.8017E+06    -16.3303E+06    -45.2534E+06         27.0770
            1817     13.6429E-03     96.9484E-03     796.607E-03     426.161E-03        -1.53537     425.741E-03        -1.53495     796.607E-03    -28.1751E-03     52.8341E-03    -25.7841E-03    -27.0405E-03    -25.5315E-03     51.3251E-03    -25.7841E-03     21.6175E-03     26.0933E+06    -35.5190E+06    -80.3137E+06    -6.54803E+06    -47.6723E+06    -35.5190E+06    -48.5148E+06         28.3029
            1818     14.6184E-03     96.9715E-03     769.914E-03     364.762E-03        -1.44716     364.538E-03        -1.44693     769.914E-03    -14.0910E-03     51.9898E-03    -25.5814E-03    -26.4048E-03    -25.0360E-03     50.7000E-03    -25.6603E-03     19.5100E-03     46.3911E+06    -34.3459E+06    -55.6371E+06    -8.17353E+06     3.84393E+06    -39.2623E+06    -44.1186E+06         29.9028
            1819     15.5938E-03     96.9840E-03     743.329E-03     323.819E-03        -1.38332     323.494E-03        -1.38299     743.329E-03    -44.8962E-03     51.5629E-03    -25.4278E-03    -26.1328E-03    -24.1516E-03     49.6607E-03    -25.5067E-03     22.7530E-03     99.8677E+06    -20.6790E+06    -33.8904E+06    -7.60173E+06     86.7904E+06    -33.8904E+06    -31.1624E+06         31.8530
            1820     16.5711E-03     97.0141E-03     717.040E-03     269.395E-03        -1.30454     268.689E-03        -1.30384     717.040E-03    -51.3299E-03     50.3818E-03    -24.1893E-03    -26.1923E-03    -23.1635E-03     48.7300E-03    -25.5663E-03     10.9455E-03     161.009E+06     25.6185E+06    -14.3628E+06    -4.16532E+06     159.106E+06     17.3235E+06    -13.4435E+06         33.9798
            1821     974.627E-06     97.8687E-03         2.13442     73.6553E-03        -2.49901         1.98916        -2.35375     73.6553E-03    -598.967E-03     51.8791E-03    -25.7387E-03    -26.1416E-03    -26.0579E-03     51.8570E-03    -25.8003E-03     2.34231E-03     18.3194E+06     14.0146E+06    -84.5034E+06     15.3795E+06    -83.4267E+06     15.8779E+06    -8.99596E+06         23.6378
            1822     1.94905E-03     97.8714E-03         1.11924         1.00966        -2.43250         1.05545        -2.39492         1.03588     205.453E-03     51.8285E-03    -25.8497E-03    -25.9800E-03    -25.8363E-03     51.7590E-03    -25.9239E-03     4.49829E-03     23.8912E+06     21.7505E+06    -66.0034E+06     20.4816E+06    -63.7033E+06     22.8600E+06    -13.6865E+06         23.7397
            1823     2.92356E-03     97.8763E-03         1.05395     994.330E-03        -2.34160         1.00297        -2.33160         1.03532    -134.589E-03     51.8669E-03    -25.8751E-03    -25.9915E-03    -25.8254E-03     51.7174E-03    -25.8916E-03     6.68963E-03     25.7178E+06     22.1729E+06    -64.9111E+06     21.3181E+06    -60.7608E+06     22.4223E+06    -18.6434E+06         23.8269
            1824     3.89859E-03     97.8830E-03         1.02323     972.782E-03        -2.28573     969.307E-03        -2.28225         1.02323    -12.8678E-03     51.9583E-03    -25.8748E-03    -26.0834E-03    -25.8301E-03     51.7088E-03    -25.8786E-03     8.75180E-03     27.6094E+06     22.5641E+06    -68.1285E+06     20.9096E+06    -61.4287E+06     22.5641E+06    -24.2640E+06         23.9151
            1825     4.87333E-03     97.8905E-03         1.00854     930.504E-03        -2.22825     928.186E-03        -2.22593         1.00854    -66.1476E-03     52.0315E-03    -25.8699E-03    -26.1626E-03    -25.7950E-03     51.6639E-03    -25.8699E-03     10.6451E-03     29.2778E+06     24.1654E+06    -67.3890E+06     19.9744E+06    -58.0856E+06     24.1654E+06    -28.2182E+06         24.0181
            1826     5.84795E-03     97.8996E-03     992.215E-03     892.815E-03        -2.17815     891.904E-03        -2.17724     992.215E-03    -5.71463E-03     52.0075E-03    -25.8573E-03    -26.1489E-03    -25.6706E-03     51.5292E-03    -25.8573E-03     12.1604E-03     30.0971E+06     25.7482E+06    -64.7055E+06     19.6896E+06    -54.2981E+06     25.7482E+06    -29.4446E+06         24.1491
            1827     6.82267E-03     97.9099E-03     974.046E-03     836.460E-03        -2.10368     835.771E-03        -2.10299     974.046E-03    -60.1075E-03     52.0765E-03    -25.8409E-03    -26.2343E-03    -25.6409E-03     51.4832E-03    -25.8409E-03     13.5147E-03     30.2457E+06     27.1295E+06    -64.7662E+06     19.1817E+06    -53.7021E+06     27.1295E+06    -30.1412E+06         24.3218
            1828     7.79736E-03     97.9210E-03     952.231E-03     760.873E-03        -2.00273     760.497E-03        -2.00235     952.231E-03    -46.0853E-03     52.1504E-03    -25.8245E-03    -26.3273E-03    -25.6506E-03     51.4736E-03    -25.8245E-03     14.4710E-03     30.9708E+06     26.8212E+06    -64.4488E+06     18.3832E+06    -52.9059E+06     27.8659E+06    -30.6687E+06         24.5421
            1829     8.77265E-03     97.9319E-03     928.090E-03     709.192E-03        -1.92628     708.923E-03        -1.92601     928.090E-03    -37.0374E-03     52.2436E-03    -25.7894E-03    -26.4527E-03    -25.6738E-03     51.4647E-03    -25.7894E-03     15.5263E-03     34.6792E+06     24.0663E+06    -62.7277E+06     18.7914E+06    -47.8847E+06     25.1110E+06    -34.4056E+06         24.8126
            1830     9.74734E-03     97.9446E-03     904.205E-03     669.687E-03        -1.86567     669.559E-03        -1.86554     904.205E-03    -22.1766E-03     52.4045E-03    -25.7587E-03    -26.6476E-03    -25.7472E-03     51.5041E-03    -25.7587E-03     16.7530E-03     34.4978E+06     20.8180E+06    -61.5530E+06     17.8239E+06    -44.8792E+06     20.8180E+06    -36.1975E+06         25.1445
            1831     10.7221E-03     97.9568E-03     879.701E-03     598.161E-03        -1.77527     597.800E-03        -1.77491     879.701E-03    -52.4686E-03     52.4854E-03    -25.7400E-03    -26.7522E-03    -25.8014E-03     51.5346E-03    -25.7400E-03     17.2278E-03     30.6762E+06     14.7313E+06    -63.6366E+06     13.3352E+06    -46.2956E+06     14.7313E+06    -36.2332E+06         25.5600
            1832     11.6967E-03     97.9705E-03     853.390E-03     529.021E-03        -1.68346     528.734E-03        -1.68317     853.390E-03    -40.8103E-03     52.5535E-03    -25.7282E-03    -26.8360E-03    -25.7791E-03     51.4966E-03    -25.7282E-03     18.1522E-03     31.8338E+06     10.8045E+06    -61.9410E+06     11.5693E+06    -41.6765E+06     10.8045E+06    -38.5648E+06         26.1367
            1833     12.6715E-03     97.9844E-03     826.082E-03     468.041E-03        -1.59752     467.718E-03        -1.59720     826.082E-03    -39.0052E-03     52.8224E-03    -25.6758E-03    -27.1461E-03    -25.8555E-03     51.5317E-03    -25.6758E-03     20.0981E-03     31.6832E+06    -3.02884E+06    -67.2636E+06     10.3085E+06    -45.8889E+06    -3.02884E+06    -40.6868E+06         27.0099
            1834     13.6463E-03     98.0021E-03     798.547E-03     414.276E-03        -1.51668     413.949E-03        -1.51635     798.547E-03    -19.5908E-03     53.2244E-03    -25.5890E-03    -27.6097E-03    -25.8672E-03     51.4818E-03    -25.5890E-03     23.3723E-03     30.7660E+06    -22.7622E+06    -69.1583E+06     3.28689E+06    -41.6793E+06    -22.7622E+06    -44.0108E+06         28.2580
            1835     14.6206E-03     98.0231E-03     771.544E-03     374.438E-03        -1.45148     374.252E-03        -1.45130     771.544E-03    -10.6868E-03     52.2441E-03    -25.4914E-03    -26.7367E-03    -25.2451E-03     50.7752E-03    -25.5141E-03     20.9336E-03     47.4457E+06    -26.1598E+06    -50.4912E+06    -2.01511E+06     768.729E+03    -27.9589E+06    -44.7544E+06         29.8745
            1836     15.5968E-03     98.0363E-03     745.042E-03     322.350E-03        -1.37663     322.011E-03        -1.37629     745.042E-03    -44.8928E-03     51.7898E-03    -25.3880E-03    -26.4033E-03    -24.3210E-03     49.7303E-03    -25.4107E-03     23.9126E-03     87.0240E+06    -16.1252E+06    -24.2506E+06    -1.85152E+06     70.1400E+06    -21.6403E+06    -33.7681E+06         31.8352
            1837     16.5730E-03     98.0639E-03     718.055E-03     252.692E-03        -1.28170     252.018E-03        -1.28103     718.055E-03     3.13758E-03     50.3952E-03    -24.0962E-03    -26.2996E-03    -23.2558E-03     48.6644E-03    -25.4091E-03     11.6400E-03     142.566E+06     17.1952E+06    -7.67126E+06    -1.17776E+06     139.788E+06     13.4792E+06    -14.8211E+06         33.9681
            1838     975.062E-06     98.9210E-03         2.14907     190.122E-03        -2.61793         1.81958        -2.28844     190.122E-03    -911.546E-03     50.8790E-03    -25.3088E-03    -25.5720E-03    -25.4742E-03     50.8543E-03    -25.3819E-03     2.44876E-03     34.1548E+06     31.4742E+06    -67.3667E+06     31.1128E+06    -66.1821E+06     33.3316E+06    -9.68924E+06         23.5647
            1839     1.95020E-03     98.9240E-03         1.15737         1.01711        -2.45951         1.06655        -2.36869         1.01711     383.807E-03     50.8768E-03    -25.3954E-03    -25.4829E-03    -25.3897E-03     50.7837E-03    -25.3954E-03     5.11189E-03     32.6290E+06     27.6703E+06    -53.4830E+06     29.7162E+06    -51.0727E+06     28.1728E+06    -13.7949E+06         23.6643
            1840     2.92521E-03     98.9285E-03         1.06832         1.03036        -2.38224         1.04380        -2.35888         1.03152    -130.559E-03     50.8925E-03    -25.3688E-03    -25.5237E-03    -25.3240E-03     50.6966E-03    -25.3726E-03     7.64031E-03     33.2092E+06     26.5061E+06    -53.2450E+06     28.8647E+06    -48.9005E+06     26.5061E+06    -18.6944E+06         23.7456
            1841     3.90043E-03     98.9350E-03         1.03558     985.073E-03        -2.30204     981.653E-03        -2.29081         1.02778     42.0121E-03     50.9458E-03    -25.3668E-03    -25.5788E-03    -25.2651E-03     50.6360E-03    -25.3707E-03     9.65185E-03     35.8611E+06     30.8077E+06    -55.3897E+06     29.0967E+06    -48.6254E+06     30.8077E+06    -23.7732E+06         23.8268
            1842     4.87571E-03     98.9430E-03         1.01315     930.047E-03        -2.22195     924.685E-03        -2.21658         1.01315    -80.7419E-03     51.0067E-03    -25.3669E-03    -25.6400E-03    -25.1996E-03     50.5663E-03    -25.3669E-03     11.5206E-03     38.5357E+06     35.2395E+06    -58.7284E+06     29.9857E+06    -50.1784E+06     35.2395E+06    -27.5216E+06         23.9243
            1843     5.85092E-03     98.9518E-03     995.466E-03     891.393E-03        -2.16644     889.538E-03        -2.16459     995.466E-03     16.8199E-03     51.0533E-03    -25.3363E-03    -25.7164E-03    -25.1196E-03     50.4565E-03    -25.3363E-03     13.4124E-03     39.6260E+06     35.3304E+06    -57.9166E+06     30.5516E+06    -48.8422E+06     35.3304E+06    -28.1484E+06         24.0481
            1844     6.82647E-03     98.9619E-03     975.168E-03     816.217E-03        -2.07113     815.081E-03        -2.06999     975.168E-03    -25.9050E-03     51.1110E-03    -25.3012E-03    -25.8095E-03    -25.0376E-03     50.3391E-03    -25.3012E-03     15.2751E-03     38.7165E+06     34.8710E+06    -57.7414E+06     29.8442E+06    -48.8691E+06     34.8710E+06    -27.6799E+06         24.2101
            1845     7.80210E-03     98.9732E-03     950.781E-03     745.264E-03        -1.97601     744.480E-03        -1.97522     950.781E-03    -6.64169E-03     51.2949E-03    -25.2734E-03    -26.0209E-03    -25.1052E-03     50.3792E-03    -25.2734E-03     16.6582E-03     40.7887E+06     36.2266E+06    -56.5287E+06     30.1006E+06    -45.8406E+06     36.2266E+06    -30.1971E+06         24.4203
            1846     8.77687E-03     98.9841E-03     926.047E-03     714.384E-03        -1.92071     713.992E-03        -1.92032     926.047E-03    -45.1633E-03     51.5514E-03    -25.2515E-03    -26.2943E-03    -25.2398E-03     50.4969E-03    -25.2515E-03     17.9036E-03     42.9786E+06     32.7663E+06    -53.7011E+06     28.3149E+06    -41.0624E+06     34.7913E+06    -31.7245E+06         24.6836
            1847     9.75239E-03     98.9966E-03     902.843E-03     675.682E-03        -1.86204     675.592E-03        -1.86195     902.843E-03    -16.8482E-03     51.8372E-03    -25.2511E-03    -26.5903E-03    -25.3676E-03     50.6144E-03    -25.2511E-03     19.3206E-03     38.3078E+06     29.0058E+06    -55.1987E+06     23.5308E+06    -42.4467E+06     31.0309E+06    -31.1547E+06         25.0090
            1848     10.7272E-03     99.0096E-03     878.295E-03     589.882E-03        -1.76162     589.707E-03        -1.76145     878.295E-03    -35.2085E-03     52.1229E-03    -25.2387E-03    -26.8968E-03    -25.5775E-03     50.8036E-03    -25.2387E-03     20.1370E-03     36.2481E+06     24.0696E+06    -54.3166E+06     21.3784E+06    -39.4468E+06     24.0696E+06    -33.1761E+06         25.4233
            1849     11.7021E-03     99.0224E-03     850.903E-03     510.036E-03        -1.65686     509.902E-03        -1.65673     850.903E-03    -23.3633E-03     52.5474E-03    -25.2571E-03    -27.2969E-03    -25.8469E-03     51.0974E-03    -25.2571E-03     21.2139E-03     36.6869E+06     18.6568E+06    -54.2833E+06     18.0266E+06    -35.6229E+06     18.6568E+06    -36.3816E+06         26.0166
            1850     12.6768E-03     99.0373E-03     822.557E-03     456.809E-03        -1.57126     456.720E-03        -1.57117     822.557E-03    -13.5044E-03     53.0296E-03    -25.2585E-03    -27.7663E-03    -26.0841E-03     51.3475E-03    -25.2585E-03     22.9883E-03     32.0831E+06     4.67328E+06    -60.5439E+06     13.1688E+06    -41.6296E+06     4.67328E+06    -37.2111E+06         26.9248
            1851     13.6511E-03     99.0543E-03     794.745E-03     412.439E-03        -1.50190     412.344E-03        -1.50180     794.745E-03    -12.1639E-03     53.4438E-03    -25.2393E-03    -28.1852E-03    -26.0405E-03     51.2991E-03    -25.2393E-03     25.9774E-03     31.1513E+06    -9.57793E+06    -57.6893E+06     8.79160E+06    -35.3296E+06    -9.57793E+06     -37.749E+06         28.2091
            1852     14.6261E-03     99.0760E-03     767.841E-03     373.380E-03        -1.43945     373.235E-03        -1.43930     767.841E-03    -20.7796E-03     52.5856E-03    -25.2205E-03    -27.3518E-03    -25.5805E-03     50.8143E-03    -25.2205E-03     23.0266E-03     47.9738E+06    -12.8128E+06    -40.3051E+06     2.52156E+06     5.14716E+06    -12.8128E+06    -41.4245E+06         29.8527
            1853     15.6012E-03     99.0870E-03     741.273E-03     315.925E-03        -1.35724     315.632E-03        -1.35694     741.273E-03    -28.0681E-03     52.4305E-03    -25.1849E-03    -27.2451E-03    -24.9272E-03     50.1127E-03    -25.1849E-03     25.6854E-03     72.3181E+06    -9.10059E+06    -22.0172E+06    -1.51877E+06     53.3558E+06    -10.6367E+06    -34.3425E+06         31.8307
            1854     16.5775E-03     99.1163E-03     714.850E-03     273.387E-03        -1.29257     272.544E-03        -1.29173     714.850E-03    -207.813E-06     50.9541E-03    -24.2854E-03    -26.6698E-03    -23.8609E-03     49.0255E-03    -25.1657E-03     12.3339E-03     122.706E+06     11.1093E+06    -6.89411E+06    -1.50919E+06     118.857E+06     9.57321E+06    -14.9345E+06         33.9733
            1855     975.895E-06     99.9730E-03         2.15856     376.966E-03        -2.79281         1.68034        -2.31459     376.966E-03        -1.15901     49.2680E-03    -24.5453E-03    -24.7240E-03    -24.5861E-03     49.2303E-03    -24.6456E-03     3.16823E-03     51.0921E+06     49.0575E+06    -52.7373E+06     49.3529E+06    -52.1446E+06     50.2041E+06    -4.11942E+06         23.4504
            1856     1.95158E-03     99.9748E-03         1.16213         1.03000        -2.46194         1.03488        -2.33469         1.03000     420.259E-03     49.3752E-03    -24.6053E-03    -24.7707E-03    -24.6560E-03     49.2604E-03    -24.6053E-03     5.60442E-03     49.0291E+06     43.7483E+06    -40.0211E+06     45.3260E+06    -38.1738E+06     45.6041E+06    -11.9930E+06         23.5462
            1857     2.92784E-03     99.9798E-03         1.05882         1.02257        -2.35215         1.01163        -2.31081         1.02842    -123.450E-03     49.4371E-03    -24.6055E-03    -24.8319E-03    -24.5882E-03     49.1934E-03    -24.6055E-03     8.38676E-03     47.5590E+06     41.6607E+06    -41.1572E+06     42.9806E+06    -37.6399E+06     42.7217E+06    -16.9534E+06         23.6191
            1858     3.90336E-03     99.9861E-03         1.02715     981.902E-03        -2.27925     969.706E-03        -2.25925         1.01935     107.955E-03     49.4309E-03    -24.5773E-03    -24.8537E-03    -24.4437E-03     49.0210E-03    -24.5773E-03     10.8854E-03     45.6364E+06     40.5758E+06    -42.8774E+06     39.5308E+06    -36.7718E+06     40.5758E+06    -22.0157E+06         23.6897
            1859     4.87932E-03     99.9938E-03         1.00452     926.855E-03        -2.19812     919.494E-03        -2.19076         1.00452    -105.565E-03     49.4058E-03    -24.5346E-03    -24.8712E-03    -24.2554E-03     48.7900E-03    -24.5346E-03     13.3397E-03     44.5866E+06     38.8994E+06    -49.3970E+06     36.8266E+06    -41.6369E+06     38.8994E+06    -25.7686E+06         23.7787
            1860     5.85581E-03     100.002E-03     985.627E-03     865.235E-03        -2.11309     862.741E-03        -2.11059     985.627E-03     13.5963E-03     49.4951E-03    -24.4780E-03    -25.0172E-03    -24.1828E-03     48.6607E-03    -24.4780E-03     15.5608E-03     41.6368E+06     35.9520E+06    -53.2477E+06     33.6903E+06    -45.3012E+06     35.9520E+06    -26.0899E+06         23.8922
            1861     6.83199E-03     100.012E-03     963.921E-03     807.622E-03        -2.03629     805.881E-03        -2.03454     963.921E-03    -20.3480E-03     49.6462E-03    -24.4257E-03    -25.2192E-03    -24.1452E-03     48.5722E-03    -24.4257E-03     17.6667E-03     42.0511E+06     35.3221E+06    -51.5540E+06     33.2251E+06    -42.7280E+06     35.3221E+06    -27.1772E+06         24.0378
            1862     7.80827E-03     100.023E-03     941.377E-03     764.694E-03        -1.97399     763.867E-03        -1.97316     941.377E-03     20.1387E-03     49.8784E-03    -24.3946E-03    -25.4824E-03    -24.1669E-03     48.5629E-03    -24.3946E-03     19.6067E-03     42.3765E+06     35.8974E+06    -49.7818E+06     31.8289E+06    -40.1139E+06     36.7771E+06    -27.8747E+06         24.2334
            1863     8.78493E-03     100.035E-03     917.900E-03     697.768E-03        -1.88715     697.445E-03        -1.88682     917.900E-03    -25.7412E-03     50.3515E-03    -24.3795E-03    -25.9720E-03    -24.4248E-03     48.8043E-03    -24.3795E-03     21.3725E-03     39.8051E+06     32.2381E+06    -48.5479E+06     27.7540E+06    -39.4016E+06     35.1429E+06    -26.1525E+06         24.4926
            1864     9.76032E-03     100.047E-03     892.448E-03     631.688E-03        -1.80069     631.401E-03        -1.80041     892.448E-03    -21.3971E-03     50.9627E-03    -24.3885E-03    -26.5740E-03    -24.7709E-03     49.1596E-03    -24.3885E-03     23.2335E-03     39.5495E+06     30.8953E+06    -47.2112E+06     26.2661E+06    -35.9529E+06     32.9204E+06    -28.3090E+06         24.8201
            1865     10.7363E-03     100.061E-03     866.459E-03     586.283E-03        -1.73203     586.018E-03        -1.73176     866.459E-03    -46.1195E-03     51.5706E-03    -24.4142E-03    -27.1590E-03    -25.2252E-03     49.6367E-03    -24.4142E-03     24.2658E-03     36.5886E+06     26.3073E+06    -47.8602E+06     23.7058E+06    -35.0755E+06     26.4055E+06    -30.1826E+06         25.2442
            1866     11.7113E-03     100.074E-03     840.123E-03     518.594E-03        -1.63957     518.529E-03        -1.63951     840.123E-03    -14.5154E-03     52.3983E-03    -24.4965E-03    -27.8966E-03    -25.8046E-03     50.3063E-03    -24.4965E-03     25.4611E-03     33.2531E+06     23.6399E+06    -44.5782E+06     18.5124E+06    -29.9357E+06     23.7380E+06    -29.8284E+06         25.8715
            1867     12.6855E-03     100.090E-03     812.638E-03     451.034E-03        -1.54651     450.780E-03        -1.54625     812.638E-03    -20.2449E-03     53.2145E-03    -24.5715E-03    -28.6273E-03    -26.2933E-03     50.8805E-03    -24.5715E-03     27.1474E-03     29.9992E+06     10.9357E+06    -53.5316E+06     13.2516E+06    -36.7839E+06     10.9357E+06    -33.1106E+06         26.8319
            1868     13.6598E-03     100.107E-03     785.177E-03     411.126E-03        -1.48144     410.845E-03        -1.48116     785.177E-03    -30.5979E-03     53.8754E-03    -24.6323E-03    -29.2327E-03    -26.4640E-03     51.1067E-03    -24.6323E-03     29.7095E-03     27.1723E+06    -3.87695E+06    -53.0046E+06     7.92550E+06    -33.7579E+06    -3.87695E+06    -33.0799E+06         28.1645
            1869     14.6342E-03     100.129E-03     758.442E-03     362.602E-03        -1.40899     362.526E-03        -1.40892     758.442E-03    -21.2801E-03     53.2546E-03    -24.7284E-03    -28.5185E-03    -26.3036E-03     51.0396E-03    -24.7284E-03     25.9592E-03     42.8020E+06     371.055E+03    -30.1614E+06     65.3172E+03     12.5752E+06     371.055E+03    -32.2144E+06         29.8463
            1870     15.6085E-03     100.139E-03     731.927E-03     311.190E-03        -1.32810     311.119E-03        -1.32803     731.927E-03    -10.0376E-03     53.5300E-03    -24.7952E-03    -28.7312E-03    -26.1344E-03     50.9331E-03    -24.7952E-03     27.8317E-03     59.1075E+06    -2.37542E+06    -23.3913E+06    -7.53290E+06     43.2492E+06    -2.37542E+06    -31.4333E+06         31.8525
            1871     16.5832E-03     100.167E-03     705.767E-03     268.859E-03        -1.25846     267.196E-03        -1.25680     705.767E-03    -60.1027E-03     52.1860E-03    -24.5484E-03    -27.6382E-03    -25.2711E-03     50.0790E-03    -24.8085E-03     12.7998E-03     104.447E+06     1.18695E+06    -13.2704E+06    -6.92978E+06     98.1060E+06     1.18695E+06    -18.6042E+06         34.0125
            1872     977.310E-06     101.021E-03         2.03017     556.310E-03        -2.82108         1.51874        -2.30965     556.310E-03        -1.20389     46.8914E-03    -23.3649E-03    -23.5265E-03    -23.4455E-03     46.8376E-03    -23.3921E-03     3.64804E-03     56.0010E+06     53.5497E+06    -45.4082E+06     54.1625E+06    -45.1330E+06     55.1130E+06    -2.45804E+06         23.2767
            1873     1.95416E-03     101.024E-03         1.12538         1.02725        -2.39594     987.497E-03        -2.25834         1.02754     384.026E-03     47.1458E-03    -23.4520E-03    -23.6935E-03    -23.5388E-03     46.9911E-03    -23.4520E-03     6.40999E-03     58.3636E+06     54.6877E+06    -26.4772E+06     53.7407E+06    -25.5302E+06     58.3636E+06    -7.92678E+06         23.3635
            1874     2.93046E-03     101.029E-03         1.02173     997.329E-03        -2.26849     962.138E-03        -2.22107         1.00950    -169.474E-03     47.1130E-03    -23.4438E-03    -23.6694E-03    -23.3352E-03     46.7788E-03    -23.4438E-03     9.49820E-03     54.2635E+06     49.6277E+06    -29.9423E+06     49.8351E+06    -27.7843E+06     51.8981E+06    -12.4449E+06         23.4244
            1875     3.90815E-03     101.035E-03     994.018E-03     956.764E-03        -2.20519     934.999E-03        -2.18342     994.018E-03     80.6242E-03     46.9366E-03    -23.3384E-03    -23.5973E-03    -23.0264E-03     46.3657E-03    -23.3384E-03     12.4936E-03     49.4016E+06     42.1437E+06    -29.9160E+06     45.0304E+06    -25.5448E+06     42.1437E+06    -17.5642E+06         23.4850
            1876     4.88583E-03     101.042E-03     977.728E-03     900.534E-03        -2.13119     891.272E-03        -2.12193     977.728E-03    -123.494E-03     47.0355E-03    -23.2611E-03    -23.7734E-03    -22.9160E-03     46.1781E-03    -23.2611E-03     15.3610E-03     44.4617E+06     38.2222E+06    -40.3035E+06     38.9812E+06    -34.8230E+06     38.2222E+06    -20.5421E+06         23.5667
            1877     5.86309E-03     101.051E-03     958.919E-03     843.559E-03        -2.05394     840.593E-03        -2.05097     958.919E-03     6.19128E-03     47.2196E-03    -23.1916E-03    -24.0289E-03    -22.8256E-03     46.0162E-03    -23.1916E-03     18.2101E-03     39.7841E+06     34.9014E+06    -46.6644E+06     33.5463E+06    -40.4266E+06     34.9014E+06    -22.0022E+06         23.6707
            1878     6.84069E-03     101.061E-03     939.611E-03     813.392E-03        -2.00291     811.728E-03        -2.00124     939.611E-03    -51.8440E-03     47.5271E-03    -23.1122E-03    -24.4156E-03    -22.8239E-03     45.9354E-03    -23.1122E-03     20.9923E-03     35.8963E+06     29.1315E+06    -44.4067E+06     27.6629E+06    -36.3797E+06     29.3378E+06    -23.8742E+06         23.8046
            1879     7.81831E-03     101.072E-03     920.539E-03     767.589E-03        -1.94092     766.560E-03        -1.93989     920.539E-03    -20.6023E-03     47.9652E-03    -23.0852E-03    -24.8801E-03    -22.9319E-03     46.0170E-03    -23.0852E-03     23.3498E-03     31.8604E+06     27.0683E+06    -46.4075E+06     22.9048E+06    -38.5379E+06     28.1544E+06    -23.3139E+06         23.9901
            1880     8.79555E-03     101.084E-03     898.469E-03     681.053E-03        -1.83955     680.198E-03        -1.83869     898.469E-03    -39.4445E-03     48.6856E-03    -23.0897E-03    -25.5956E-03    -23.2778E-03     46.3678E-03    -23.0897E-03     25.6494E-03     32.1661E+06     27.6115E+06    -44.3865E+06     21.6084E+06    -35.5540E+06     29.3368E+06    -23.8793E+06         24.2479
            1881     9.77290E-03     101.097E-03     872.343E-03     599.212E-03        -1.73569     598.616E-03        -1.73509     872.343E-03    -29.3800E-03     49.7613E-03    -23.1497E-03    -26.6059E-03    -23.9806E-03     47.1360E-03    -23.1497E-03     27.6875E-03     34.7058E+06     24.3642E+06    -41.3286E+06     18.3982E+06    -31.2975E+06     30.6407E+06    -24.3018E+06         24.5862
            1882     10.7486E-03     101.111E-03     845.331E-03     559.410E-03        -1.67154     558.792E-03        -1.67092     845.331E-03    -67.5853E-03     50.8836E-03    -23.2673E-03    -27.6129E-03    -24.8189E-03     48.0895E-03    -23.2673E-03     28.9513E-03     30.5640E+06     21.0650E+06    -42.9900E+06     12.7846E+06    -32.7906E+06     28.6450E+06    -23.6352E+06         25.0385
            1883     11.7239E-03     101.126E-03     819.702E-03     524.657E-03        -1.61232     524.539E-03        -1.61221     819.702E-03    -19.4465E-03     52.0596E-03    -23.4148E-03    -28.6405E-03    -25.6628E-03     49.0819E-03    -23.4148E-03     30.3013E-03     26.8997E+06     23.4219E+06    -38.9003E+06     10.1900E+06    -24.3397E+06     25.5710E+06    -26.1197E+06         25.7198
            1884     12.6988E-03     101.141E-03     794.527E-03     468.170E-03        -1.53336     467.524E-03        -1.53272     794.527E-03    -47.4814E-03     53.3817E-03    -23.6063E-03    -29.7681E-03    -26.6596E-03     50.2733E-03    -23.6063E-03     31.4886E-03     23.5021E+06     13.5408E+06    -47.8632E+06     6.90290E+06    -33.7216E+06     15.9985E+06    -26.7755E+06         26.7436
            1885     13.6724E-03     101.159E-03     768.938E-03     413.141E-03        -1.45501     412.493E-03        -1.45436     768.938E-03    -45.2743E-03     54.6703E-03    -23.7903E-03    -30.8801E-03    -27.5234E-03     51.3136E-03    -23.7903E-03     33.1902E-03     20.1610E+06    -2.21505E+06    -49.5107E+06     234.164E+03    -32.0416E+06     242.619E+03    -27.0276E+06         28.1305
            1886     14.6454E-03     101.181E-03     742.952E-03     352.489E-03        -1.37211     352.356E-03        -1.37198     742.952E-03    -14.6265E-03     54.3325E-03    -24.0429E-03    -30.2936E-03    -27.7329E-03     51.7717E-03    -24.0429E-03     28.4221E-03     38.7014E+06     9.24544E+06    -25.3100E+06    -2.61115E+06     16.0025E+06     9.24544E+06    -27.4815E+06         29.8595
            1887     15.6184E-03     101.193E-03     716.734E-03     301.706E-03        -1.29510     301.564E-03        -1.29495     716.734E-03    -27.8278E-03     55.0628E-03    -24.2524E-03    -30.8085E-03    -28.0225E-03     52.2768E-03    -24.2524E-03     29.6988E-03     55.6705E+06     7.06764E+06    -16.5367E+06    -2.75242E+06     42.9000E+06     6.05380E+06    -27.1921E+06         31.9102
            1888     16.5905E-03     101.221E-03     690.216E-03     235.286E-03        -1.20132     233.769E-03        -1.19980     690.216E-03    -48.4690E-03     54.3945E-03    -24.4214E-03    -29.9690E-03    -27.7322E-03     52.1577E-03    -24.4214E-03     12.6157E-03     89.9629E+06     5.34062E+06    -12.0237E+06    -3.59358E+06     82.5466E+06     4.32678E+06    -21.0649E+06         34.1012
            1889     978.350E-06     102.067E-03         1.84743     644.818E-03        -2.70334         1.36879        -2.22469     644.818E-03        -1.11321     43.8717E-03    -21.8566E-03    -22.0144E-03    -21.8547E-03     43.8024E-03    -21.9470E-03     3.84140E-03     59.0227E+06     56.0303E+06    -36.8912E+06     56.7142E+06    -36.7133E+06     58.1609E+06    -2.76104E+06         23.0361
            1890     1.95702E-03     102.071E-03         1.05749     990.186E-03        -2.27377     925.780E-03        -2.14234     990.470E-03     354.294E-03     43.7071E-03    -21.7606E-03    -21.9468E-03    -21.6518E-03     43.4908E-03    -21.8393E-03     7.29255E-03     59.6742E+06     54.7008E+06    -20.3843E+06     56.9844E+06    -20.0170E+06     57.0233E+06    -5.31286E+06         23.1073
            1891     2.93606E-03     102.075E-03     968.016E-03     954.332E-03        -2.15998     912.952E-03        -2.11592     965.338E-03    -189.866E-03     43.6874E-03    -21.7124E-03    -21.9753E-03    -21.4973E-03     43.2308E-03    -21.7338E-03     10.7207E-03     57.4847E+06     51.9471E+06    -19.9308E+06     55.1611E+06    -18.8165E+06     53.1565E+06    -8.31911E+06         23.1586
            1892     3.91487E-03     102.080E-03     950.092E-03     918.283E-03        -2.10849     900.277E-03        -2.09049     950.092E-03     62.5224E-03     43.7043E-03    -21.6200E-03    -22.0827E-03    -21.2885E-03     42.9101E-03    -21.6200E-03     14.1907E-03     50.4888E+06     45.6903E+06    -20.4760E+06     48.4562E+06    -18.6097E+06     45.8566E+06    -10.3845E+06         23.2135
            1893     4.89380E-03     102.088E-03     936.862E-03     879.369E-03        -2.05444     870.084E-03        -2.04515     936.862E-03    -79.5256E-03     43.8632E-03    -21.5287E-03    -22.3328E-03    -21.1307E-03     42.6611E-03    -21.5287E-03     17.4902E-03     41.0778E+06     38.5379E+06    -32.3771E+06     38.6692E+06    -30.1348E+06     38.7041E+06    -11.5778E+06         23.2884
            1894     5.87335E-03     102.096E-03     922.543E-03     838.222E-03        -1.99421     834.833E-03        -1.99082     922.543E-03     48.4804E-03     44.1433E-03    -21.4356E-03    -22.7079E-03    -21.0273E-03     42.4628E-03    -21.4356E-03     20.7609E-03     34.2150E+06     30.6935E+06    -37.0623E+06     29.5232E+06    -33.7031E+06     32.0261E+06    -14.6230E+06         23.3877
            1895     6.85293E-03     102.106E-03     906.209E-03     786.177E-03        -1.92525     784.836E-03        -1.92391     906.209E-03    -26.8080E-03     44.6763E-03    -21.3608E-03    -23.3164E-03    -21.0919E-03     42.4517E-03    -21.3608E-03     24.0431E-03     27.0684E+06     22.6973E+06    -38.2565E+06     20.6318E+06    -34.2827E+06     25.1601E+06    -14.6762E+06         23.5232
            1896     7.83189E-03     102.117E-03     886.720E-03     721.396E-03        -1.84940     720.118E-03        -1.84812     886.720E-03    -16.7531E-03     45.5085E-03    -21.3489E-03    -24.1603E-03    -21.4228E-03     42.7710E-03    -21.3489E-03     26.9376E-03     22.7390E+06     15.6787E+06    -40.0848E+06     10.9094E+06    -34.6321E+06     22.0557E+06    -15.5393E+06         23.7143
            1897     8.81080E-03     102.130E-03     864.968E-03     670.064E-03        -1.78391     669.178E-03        -1.78303     864.968E-03    -46.5418E-03     46.7365E-03    -21.4061E-03    -25.3262E-03    -22.0412E-03     43.4515E-03    -21.4061E-03     29.9182E-03     23.3288E+06     8.87678E+06    -39.3954E+06     1.40054E+06    -31.2358E+06     22.6454E+06    -17.7557E+06         23.9813
            1898     9.78840E-03     102.144E-03     841.954E-03     609.244E-03        -1.70327     608.760E-03        -1.70279     841.954E-03    -25.7505E-03     48.3291E-03    -21.5504E-03    -26.7705E-03    -23.0696E-03     44.6282E-03    -21.5504E-03     32.3794E-03     24.9908E+06     4.26250E+06    -40.0071E+06    -4.98263E+06    -30.7620E+06     24.9908E+06    -17.1642E+06         24.3377
            1899     10.7654E-03     102.159E-03     817.276E-03     540.875E-03        -1.60827     540.327E-03        -1.60772     817.276E-03    -61.5234E-03     50.0749E-03    -21.7701E-03    -28.3030E-03    -24.4521E-03     46.2240E-03    -21.7701E-03     33.7819E-03     27.3602E+06     8.48460E+06    -40.2465E+06    -5.42960E+06    -26.3323E+06     27.3602E+06    -20.2110E+06         24.8320
            1900     11.7410E-03     102.175E-03     792.611E-03     512.140E-03        -1.55472     511.958E-03        -1.55453     792.611E-03    -5.93042E-03     51.9406E-03    -22.0547E-03    -29.8873E-03    -26.0210E-03     48.0743E-03    -22.0547E-03     34.6799E-03     25.4603E+06     9.90785E+06    -37.9592E+06    -6.09755E+06    -21.5427E+06     25.0492E+06    -22.1274E+06         25.5801
            1901     12.7147E-03     102.193E-03     769.424E-03     480.790E-03        -1.50636     480.235E-03        -1.50581     769.424E-03    -25.4858E-03     53.9258E-03    -22.4306E-03    -31.4975E-03    -27.7352E-03     50.1635E-03    -22.4306E-03     35.0339E-03     18.5005E+06     3.77013E+06    -46.5608E+06    -8.68293E+06    -33.6967E+06     18.0895E+06    -21.0899E+06         26.6681
            1902     13.6868E-03     102.213E-03     745.950E-03     411.121E-03        -1.41936     410.614E-03        -1.41886     745.950E-03    -37.5154E-03     55.7732E-03    -22.8124E-03    -32.9681E-03    -29.2088E-03     52.0139E-03    -22.8124E-03     35.7425E-03     19.2802E+06     2.94756E+06    -44.7350E+06    -7.50854E+06    -23.7936E+06     8.79485E+06    -25.4412E+06         28.1069
            1903     14.6578E-03     102.235E-03     721.022E-03     342.005E-03        -1.33168     341.854E-03        -1.33153     721.022E-03    -16.5141E-03     55.9455E-03    -23.2717E-03    -32.6756E-03    -29.9792E-03     53.2491E-03    -23.2717E-03     29.7507E-03     38.9637E+06     19.1235E+06    -25.2084E+06    -4.02414E+06     17.7795E+06     19.1235E+06    -28.6525E+06         29.8868
            1904     15.6284E-03     102.247E-03     695.533E-03     293.435E-03        -1.25887     293.169E-03        -1.25861     695.533E-03    -38.3151E-03     56.9940E-03    -23.6919E-03    -33.2944E-03    -30.5447E-03     54.2443E-03    -23.6919E-03     30.3341E-03     56.6622E+06     19.4926E+06    -14.7781E+06    -1.20375E+06     44.1017E+06     18.4788E+06    -26.7905E+06         31.9966
            1905     16.5985E-03     102.278E-03     669.979E-03     233.937E-03        -1.17352     232.952E-03        -1.17254     669.979E-03     21.3420E-03     57.3938E-03    -24.1151E-03    -33.2743E-03    -31.0158E-03     55.1353E-03    -24.1151E-03     11.6127E-03     77.3024E+06     24.1985E+06    -6.56775E+06     1.11604E+06     70.6324E+06     23.1847E+06    -20.2435E+06         34.2327
            1906     980.185E-06     103.111E-03         1.66109     640.688E-03        -2.49913         1.21371        -2.05175     640.688E-03        -1.00516     39.8077E-03    -19.7875E-03    -20.0198E-03    -19.8104E-03     39.7178E-03    -19.9071E-03     4.19506E-03     66.7648E+06     62.8651E+06    -30.9491E+06     65.8204E+06    -30.8644E+06     63.7248E+06    -283.401E+03         22.7235
            1907     1.96115E-03     103.113E-03         1.00297     917.312E-03        -2.13851     878.813E-03        -2.01436     917.312E-03     312.198E-03     39.3467E-03    -19.5973E-03    -19.7502E-03    -19.3500E-03     39.0543E-03    -19.7051E-03     8.00234E-03     59.0747E+06     53.9139E+06    -17.6691E+06     58.8873E+06    -17.4817E+06     53.9139E+06    -2.44010E+06         22.7842
            1908     2.94240E-03     103.117E-03     926.298E-03     898.740E-03        -2.03966     879.616E-03        -1.99766     903.422E-03    -207.894E-03     39.3135E-03    -19.4967E-03    -19.8177E-03    -19.1871E-03     38.7043E-03    -19.5181E-03     11.7337E-03     50.8585E+06     45.9993E+06    -15.2014E+06     50.3967E+06    -14.7397E+06     45.9993E+06    -2.57574E+06         22.8297
            1909     3.92350E-03     103.122E-03     902.102E-03     877.156E-03        -1.99613     869.047E-03        -1.98171     895.790E-03     60.2423E-03     39.4991E-03    -19.3985E-03    -20.1003E-03    -19.0467E-03     38.4455E-03    -19.3985E-03     15.5086E-03     41.6719E+06     39.4751E+06    -18.5768E+06     41.0610E+06    -18.1321E+06     39.6413E+06    -1.15304E+06         22.8813
            1910     4.90509E-03     103.129E-03     887.491E-03     848.702E-03        -1.95423     841.627E-03        -1.94716     887.491E-03    -71.6396E-03     39.8519E-03    -19.2982E-03    -20.5527E-03    -18.9115E-03     38.2106E-03    -19.2982E-03     19.4603E-03     31.8594E+06     30.5049E+06    -27.4157E+06     30.6928E+06    -26.9364E+06     31.1922E+06    -919.433E+03         22.9551
            1911     5.88628E-03     103.138E-03     876.601E-03     809.924E-03        -1.90200     806.236E-03        -1.89831     876.601E-03     5.24892E-03     40.4920E-03    -19.2245E-03    -21.2661E-03    -18.9775E-03     38.2034E-03    -19.2245E-03     23.1642E-03     22.9922E+06     18.7402E+06    -34.0542E+06     16.5062E+06    -31.5888E+06     22.7608E+06     -53.321E+03         23.0600
            1912     6.86729E-03     103.147E-03     862.326E-03     753.975E-03        -1.83663     751.685E-03        -1.83434     862.326E-03    -44.9129E-03     41.4006E-03    -19.2014E-03    -22.1995E-03    -19.2041E-03     38.4053E-03    -19.2014E-03     26.7767E-03     16.3581E+06     3.89910E+06    -34.6673E+06     936.557E+03    -31.7048E+06     16.3581E+06    -1.34621E+06         23.2102
            1913     7.84868E-03     103.159E-03     844.197E-03     690.152E-03        -1.75931     689.269E-03        -1.75843     844.197E-03     7.29078E-03     42.6840E-03    -19.2595E-03    -23.4251E-03    -19.7793E-03     39.0382E-03    -19.2595E-03     30.0584E-03     15.5199E+06    -7.46110E+06    -34.3282E+06    -10.3201E+06    -31.4692E+06     15.5199E+06    -3.33416E+06         23.4248
            1914     8.82854E-03     103.172E-03     823.835E-03     642.151E-03        -1.69567     641.660E-03        -1.69517     823.835E-03    -18.8297E-03     44.5489E-03    -19.4172E-03    -25.1276E-03    -20.8438E-03     40.2651E-03    -19.4172E-03     33.3743E-03     19.6220E+06    -12.8485E+06    -34.1139E+06    -19.0578E+06    -27.9046E+06     19.6220E+06    -4.54572E+06         23.7227
            1915     9.80776E-03     103.188E-03     803.394E-03     609.091E-03        -1.64337     608.836E-03        -1.64312     803.394E-03    -1.52498E-03     46.8297E-03    -19.6747E-03    -27.1474E-03    -22.3888E-03     42.0711E-03    -19.6747E-03     36.2410E-03     22.8394E+06    -12.6368E+06    -36.9214E+06    -24.3123E+06    -25.2459E+06     22.8394E+06    -10.6268E+06         24.1173
            1916     10.7848E-03     103.205E-03     782.915E-03     559.479E-03        -1.57314     559.282E-03        -1.57294     782.915E-03    -38.2048E-03     49.3817E-03    -20.0412E-03    -29.3345E-03    -24.5087E-03     44.5560E-03    -20.0412E-03     37.7194E-03     24.7185E+06    -4.87653E+06    -41.9423E+06    -27.4117E+06    -19.4072E+06     24.7185E+06    -15.8582E+06         24.6624
            1917     11.7594E-03     103.224E-03     761.516E-03     504.627E-03        -1.50262     504.444E-03        -1.50243     761.516E-03    -14.1509E-03     52.2034E-03    -20.5369E-03    -31.6617E-03    -27.0190E-03     47.5607E-03    -20.5369E-03     38.3071E-03     24.2240E+06    -2.61883E+06    -44.9114E+06     -27.875E+06    -19.6552E+06     24.2240E+06    -18.3275E+06         25.4686
            1918     12.7316E-03     103.244E-03     739.401E-03     455.674E-03        -1.43947     455.438E-03        -1.43923     739.401E-03    -9.41290E-03     55.0631E-03    -21.1357E-03    -33.9305E-03    -29.5710E-03     50.7036E-03    -21.1357E-03     38.3827E-03     19.9183E+06     862.492E+03    -48.8704E+06    -20.3491E+06    -27.6588E+06     19.9183E+06    -23.9378E+06         26.6076
            1919     13.7017E-03     103.267E-03     716.536E-03     395.992E-03        -1.36471     395.804E-03        -1.36452     716.536E-03    -22.1111E-03     57.3763E-03    -21.7674E-03    -35.6162E-03    -31.5762E-03     53.3363E-03    -21.7674E-03     37.8866E-03     22.4763E+06     10.5189E+06    -43.1984E+06    -11.2717E+06    -14.2310E+06     15.2995E+06    -29.6991E+06         28.0891
            1920     14.6704E-03     103.292E-03     692.987E-03     342.511E-03        -1.29337     342.390E-03        -1.29325     692.987E-03    -18.9324E-03     58.0017E-03    -22.4862E-03    -35.5052E-03    -32.7696E-03     55.2661E-03    -22.4862E-03     30.8046E-03     38.9495E+06     26.5909E+06    -27.8879E+06    -6.77212E+06     17.8338E+06     26.5909E+06    -29.9532E+06         29.9109
            1921     15.6373E-03     103.305E-03     669.084E-03     289.253E-03        -1.21950     289.040E-03        -1.21929     669.084E-03    -27.4486E-03     59.6030E-03    -23.1585E-03    -36.4329E-03    -33.7896E-03     56.9596E-03    -23.1585E-03     30.8648E-03     56.7340E+06     28.1045E+06    -16.8102E+06    -3.99219E+06     43.9160E+06     28.1045E+06    -27.6872E+06         32.0804
            1922     16.6041E-03     103.336E-03     645.431E-03     250.712E-03        -1.16290     249.720E-03        -1.16190     645.431E-03     13.7036E-03     60.8372E-03    -23.8509E-03    -36.9864E-03    -34.8681E-03     58.7189E-03    -23.8509E-03     11.4310E-03     64.1813E+06     33.7228E+06    -8.69439E+06    -2.01324E+06     57.5002E+06     33.7228E+06    -19.6827E+06         34.3747
            1923     983.198E-06     104.148E-03         1.45577     647.896E-03        -2.28837         1.03914        -1.87175     647.896E-03    -855.613E-03     34.2459E-03    -16.9642E-03    -17.2824E-03    -17.1367E-03     34.1293E-03    -16.9933E-03     4.50203E-03     54.1735E+06     49.5159E+06    -35.0999E+06     51.3955E+06    -34.8013E+06     51.9954E+06     2.72118E+06         22.3375
            1924     1.96649E-03     104.150E-03     960.303E-03     844.624E-03        -1.99492     849.567E-03        -1.88419     844.624E-03     365.806E-03     34.2768E-03    -16.9727E-03    -17.3047E-03    -16.8941E-03     33.8953E-03    -17.0018E-03     8.51143E-03     48.4518E+06     44.3459E+06    -17.2440E+06     45.8348E+06    -16.2231E+06     45.9420E+06     5.25109E+06         22.4004
            1925     2.94993E-03     104.154E-03     878.099E-03     835.752E-03        -1.90587     837.032E-03        -1.87349     844.443E-03    -120.567E-03     34.2946E-03    -16.8923E-03    -17.4027E-03    -16.6019E-03     33.4939E-03    -16.8923E-03     12.5618E-03     37.8006E+06     33.7654E+06    -21.1017E+06     35.0517E+06    -19.1978E+06     34.6104E+06     7.86277E+06         22.4451
            1926     3.93387E-03     104.159E-03     844.775E-03     810.648E-03        -1.85297     802.732E-03        -1.83874     838.464E-03     77.0367E-03     34.5412E-03    -16.7502E-03    -17.7909E-03    -16.4355E-03     33.1858E-03    -16.7502E-03     16.4290E-03     26.4260E+06     19.6448E+06    -27.2882E+06     21.2305E+06    -22.0927E+06     19.6448E+06     11.5296E+06         22.4992
            1927     4.91763E-03     104.165E-03     828.400E-03     782.057E-03        -1.81252     776.515E-03        -1.80698     828.400E-03    -75.7356E-03     35.1899E-03    -16.6660E-03    -18.5236E-03    -16.4424E-03     33.1088E-03    -16.6660E-03     20.5563E-03     14.1832E+06     8.16039E+06    -37.0759E+06     4.36547E+06    -27.7791E+06     8.68142E+06     13.7697E+06         22.5870
            1928     5.90159E-03     104.174E-03     817.182E-03     754.113E-03        -1.77749     751.234E-03        -1.77461     817.182E-03    -15.5529E-03     36.3091E-03    -16.6766E-03    -19.6316E-03    -16.7142E-03     33.3917E-03    -16.6766E-03     24.7396E-03     7.20144E+06     874.731E+03    -44.7968E+06    -8.65930E+06    -34.8274E+06     6.76606E+06     15.1162E+06         22.7159
            1929     6.88500E-03     104.184E-03     805.260E-03     726.259E-03        -1.74013     724.280E-03        -1.73815     805.260E-03    -58.0532E-03     37.8895E-03    -16.7716E-03    -21.1182E-03    -17.3460E-03     34.1173E-03    -16.7716E-03     28.7698E-03     11.9854E+06    -6.24146E+06    -40.2077E+06    -17.8327E+06    -28.6164E+06     11.9854E+06     14.4978E+06         22.8962
            1930     7.86698E-03     104.197E-03     792.100E-03     686.373E-03        -1.68733     685.683E-03        -1.68664     792.100E-03    -13.7565E-03     39.9189E-03    -16.9715E-03    -22.9480E-03    -18.3866E-03     35.3575E-03    -16.9715E-03     32.5417E-03     18.1289E+06    -15.4156E+06    -39.0507E+06    -26.3394E+06    -28.1269E+06     18.1289E+06     9.37437E+06         23.1490
            1931     8.84854E-03     104.212E-03     776.263E-03     625.455E-03        -1.60998     624.892E-03        -1.60942     776.263E-03    -27.4468E-03     42.5323E-03    -17.2701E-03    -25.2625E-03    -19.9861E-03     37.2559E-03    -17.2701E-03     36.2611E-03     24.8409E+06    -17.5838E+06    -32.9701E+06    -27.5503E+06    -23.0036E+06     24.8409E+06     3.18970E+06         23.4951
            1932     9.82769E-03     104.230E-03     758.434E-03     587.205E-03        -1.55728     586.332E-03        -1.55641     758.434E-03    -32.4408E-03     45.6737E-03    -17.7035E-03    -27.9694E-03    -22.2707E-03     39.9750E-03    -17.7035E-03     39.3099E-03     31.7431E+06    -13.5101E+06    -30.4262E+06    -27.2373E+06    -16.6990E+06     31.7431E+06    -2.35198E+06         23.9484
            1933     10.8047E-03     104.250E-03     741.055E-03     567.424E-03        -1.52813     566.606E-03        -1.52731     741.055E-03    -63.1568E-03     49.1284E-03    -18.2714E-03    -30.8534E-03    -25.1568E-03     43.4318E-03    -18.2714E-03     41.0983E-03     32.7711E+06    -8.26757E+06    -34.9493E+06    -28.7905E+06    -14.4264E+06     32.7711E+06    -8.19656E+06         24.5488
            1934     11.7785E-03     104.273E-03     723.104E-03     502.797E-03        -1.45268     502.509E-03        -1.45239     723.104E-03    -40.9499E-03     52.7624E-03    -18.9805E-03    -33.7777E-03    -28.3844E-03     47.3691E-03    -18.9805E-03     41.7878E-03     32.0700E+06     4.38544E+06    -38.6372E+06    -26.2447E+06    -8.00703E+06     32.0700E+06    -18.0164E+06         25.3920
            1935     12.7492E-03     104.297E-03     702.562E-03     427.922E-03        -1.36210     427.540E-03        -1.36172     702.562E-03    -38.8632E-03     56.5170E-03    -19.8094E-03    -36.7102E-03    -31.7354E-03     51.5423E-03    -19.8094E-03     41.8663E-03     23.9067E+06     12.2786E+06    -49.6970E+06    -20.7631E+06    -16.5805E+06     23.8318E+06    -29.9674E+06         26.5608
            1936     13.7162E-03     104.324E-03     680.659E-03     384.044E-03        -1.29872     383.664E-03        -1.29834     680.659E-03    -37.3113E-03     59.5123E-03    -20.7105E-03    -38.8064E-03    -34.4438E-03     55.1497E-03    -20.7105E-03     40.4162E-03     24.6445E+06     15.4077E+06    -47.2799E+06    -14.4239E+06    -9.60247E+06     16.7987E+06    -34.4047E+06         28.0725
            1937     14.6815E-03     104.349E-03     658.942E-03     343.094E-03        -1.23921     342.720E-03        -1.23884     658.942E-03    -39.0276E-03     60.6091E-03    -21.7103E-03    -38.8872E-03    -36.0829E-03     57.8047E-03    -21.7103E-03     32.1961E-03     40.5858E+06     29.0891E+06    -31.3545E+06    -8.02304E+06     17.2543E+06     29.0891E+06    -33.2688E+06         29.9187
            1938     15.6464E-03     104.366E-03     636.953E-03     286.167E-03        -1.16854     285.828E-03        -1.16820     636.953E-03    -34.4887E-03     62.8175E-03    -22.6482E-03    -40.1563E-03    -37.5700E-03     60.2311E-03    -22.6482E-03     31.7738E-03     55.4174E+06     30.2541E+06    -17.8940E+06    -3.12803E+06     40.6515E+06     30.2541E+06    -28.3164E+06         32.1366
            1939     16.6084E-03     104.399E-03     614.640E-03     237.020E-03        -1.10348     235.923E-03        -1.10238     614.640E-03    -53.7584E-03     64.3580E-03    -23.6125E-03    -40.7441E-03    -38.7494E-03     62.3634E-03    -23.6125E-03     11.9665E-03     57.5776E+06     29.9182E+06    -8.55350E+06    -1.72355E+06     44.7339E+06     35.9319E+06    -18.1025E+06         34.5012
            1940     986.834E-06     105.180E-03         1.22416     666.737E-03        -2.06473     906.692E-03        -1.74726     666.737E-03    -747.579E-03     27.9798E-03    -13.7790E-03    -14.2011E-03    -13.9100E-03     27.8361E-03    -13.9264E-03     4.50023E-03     26.6273E+06     19.4711E+06    -44.9231E+06     23.3653E+06    -44.1406E+06     21.9506E+06     4.78614E+06         21.9064
            1941     1.97254E-03     105.182E-03     872.669E-03     789.597E-03        -1.84016     801.523E-03        -1.76901     789.597E-03     291.623E-03     28.3902E-03    -13.9107E-03    -14.4793E-03    -14.0222E-03     27.9331E-03    -13.9107E-03     8.52534E-03     24.2262E+06     15.2832E+06    -32.6522E+06     16.8690E+06    -26.8911E+06     16.8794E+06     14.0968E+06         21.9752
            1942     2.95881E-03     105.185E-03     815.005E-03     763.155E-03        -1.75254     768.811E-03        -1.73220     789.016E-03    -73.6940E-03     28.7500E-03    -13.9152E-03    -14.8345E-03    -13.8626E-03     27.7782E-03    -13.9152E-03     12.6608E-03     19.1713E+06     7.92295E+06    -40.8162E+06     6.07521E+06    -28.5651E+06     8.76797E+06     21.2741E+06         22.0341
            1943     3.94518E-03     105.189E-03     777.674E-03     727.010E-03        -1.68532     716.361E-03        -1.67467     777.674E-03     64.2029E-03     29.3694E-03    -13.8711E-03    -15.4982E-03    -13.8263E-03     27.6975E-03    -13.8711E-03     16.8185E-03     11.4100E+06    -3.48441E+06    -51.2761E+06    -7.65876E+06    -32.2074E+06    -3.48441E+06     26.8928E+06         22.1081
            1944     4.93146E-03     105.196E-03     764.065E-03     713.106E-03        -1.66364     708.957E-03        -1.65949     764.065E-03    -49.2536E-03     30.4940E-03    -13.8980E-03    -16.5960E-03    -14.0644E-03     27.9625E-03    -13.8980E-03     21.0980E-03     4.93639E+06    -6.02573E+06    -56.4864E+06    -19.0767E+06    -32.4733E+06    -6.02573E+06     29.8815E+06         22.2217
            1945     5.91727E-03     105.205E-03     753.046E-03     695.554E-03        -1.64064     693.727E-03        -1.63882     753.046E-03     13.5204E-03     32.1993E-03    -14.0425E-03    -18.1568E-03    -14.6499E-03     28.6924E-03    -14.0425E-03     25.5251E-03     2.91309E+06    -6.31118E+06    -59.1266E+06    -27.2682E+06    -36.3322E+06     1.07571E+06     26.9205E+06         22.3845
            1946     6.90240E-03     105.217E-03     742.438E-03     673.972E-03        -1.61371     673.047E-03        -1.61279     742.438E-03    -28.5376E-03     34.3625E-03    -14.2700E-03    -20.0930E-03    -15.6389E-03     29.9084E-03    -14.2700E-03     29.7711E-03     11.6068E+06    -5.15348E+06    -54.4791E+06    -29.8515E+06    -29.7810E+06     11.6068E+06     23.8918E+06         22.6057
            1947     7.88667E-03     105.231E-03     731.375E-03     648.038E-03        -1.57483     647.566E-03        -1.57436     731.375E-03    -3.59359E-03     37.2030E-03    -14.6149E-03    -22.5887E-03    -17.2308E-03     31.8451E-03    -14.6149E-03     34.1010E-03     24.9338E+06    -4.34874E+06    -42.7917E+06    -27.4567E+06    -19.6838E+06     24.9338E+06     17.8041E+06         22.9073
            1948     8.86830E-03     105.248E-03     719.457E-03     618.206E-03        -1.53317     617.819E-03        -1.53278     719.457E-03    -40.7247E-03     40.7964E-03    -15.0964E-03    -25.7005E-03    -19.5341E-03     34.6300E-03    -15.0964E-03     38.5447E-03     33.4933E+06    -11.0298E+06    -32.8820E+06    -27.1446E+06    -16.7672E+06     33.4933E+06     8.30907E+06         23.3104
            1949     9.84808E-03     105.270E-03     706.226E-03     578.435E-03        -1.48857     577.318E-03        -1.48745     706.226E-03    -70.3992E-03     44.8605E-03    -15.7219E-03    -29.1382E-03    -22.4872E-03     38.2095E-03    -15.7219E-03     42.2921E-03     38.6547E+06    -10.5187E+06    -25.4929E+06    -24.6097E+06    -11.4020E+06     38.6547E+06     2.79897E+06         23.8229
            1950     10.8241E-03     105.295E-03     691.527E-03     537.189E-03        -1.43425     536.005E-03        -1.43307     691.527E-03    -87.0758E-03     49.2423E-03    -16.5050E-03    -32.7365E-03    -26.0675E-03     42.5733E-03    -16.5050E-03     44.7612E-03     41.1794E+06    -563.094E+03    -22.5248E+06    -18.7672E+06    -4.32068E+06     41.1794E+06    -5.28800E+06         24.4700
            1951     11.7967E-03     105.322E-03     675.427E-03     487.827E-03        -1.37182     487.469E-03        -1.37146     675.427E-03    -41.9692E-03     53.6338E-03    -17.4538E-03    -36.1821E-03    -29.9082E-03     47.3599E-03    -17.4538E-03     45.7115E-03     43.6391E+06     19.4137E+06    -24.2455E+06    -13.3975E+06     8.56574E+06     43.6391E+06    -18.4526E+06         25.3377
            1952     12.7654E-03     105.351E-03     657.587E-03     428.166E-03        -1.30010     427.591E-03        -1.29952     657.587E-03    -52.9702E-03     58.1512E-03    -18.5285E-03    -39.6247E-03    -33.8936E-03     52.4201E-03    -18.5285E-03     45.8610E-03     33.4551E+06     23.9804E+06    -39.5537E+06    -10.9088E+06    -4.58956E+06     33.3803E+06    -29.3337E+06         26.5237
            1953     13.7309E-03     105.381E-03     638.574E-03     383.794E-03        -1.23693     383.227E-03        -1.23636     638.574E-03    -53.8244E-03     62.0143E-03    -19.6963E-03    -42.3181E-03    -37.4885E-03     57.1847E-03    -19.6963E-03     43.6951E-03     31.1386E+06     19.6826E+06    -45.4876E+06    -11.3430E+06    -5.36369E+06     22.0403E+06    -35.2934E+06         28.0542
            1954     14.6930E-03     105.411E-03     619.277E-03     337.847E-03        -1.17521     337.548E-03        -1.17491     619.277E-03    -32.4441E-03     63.8333E-03    -20.9799E-03    -42.8517E-03    -39.8895E-03     60.8711E-03    -20.9799E-03     34.2007E-03     41.0345E+06     29.2852E+06    -34.6802E+06    -10.9171E+06     16.5619E+06     29.9947E+06    -34.8849E+06         29.9133
            1955     15.6523E-03     105.429E-03     599.298E-03     280.929E-03        -1.10177     280.535E-03        -1.10137     599.298E-03    -17.1754E-03     66.1958E-03    -22.1918E-03    -43.9999E-03    -41.3058E-03     63.5017E-03    -22.1918E-03     33.5298E-03     50.7953E+06     27.2651E+06    -24.7725E+06    -8.94109E+06     34.2544E+06     27.9746E+06    -29.2174E+06         32.1720
            1956     16.6116E-03     105.467E-03     578.022E-03     204.288E-03        -1.00629     203.013E-03        -1.00502     578.022E-03    -24.3889E-03     67.5819E-03    -23.3935E-03    -44.1859E-03    -42.1464E-03     65.5424E-03    -23.3935E-03     13.3735E-03     54.1888E+06     19.2799E+06    -12.8002E+06    -3.94903E+06     31.2331E+06     33.3844E+06    -18.8679E+06         34.6049
            1957     988.927E-06     106.204E-03     968.931E-03     644.759E-03        -1.77643     774.102E-03        -1.58407     647.225E-03    -638.064E-03     21.9996E-03    -10.8337E-03    -11.1658E-03    -10.8556E-03     21.8368E-03    -10.9811E-03     4.16951E-03    -8.85629E+06    -18.9813E+06    -63.3214E+06    -15.5314E+06    -58.3205E+06    -17.3071E+06     10.0984E+06         21.4775
            1958     1.97874E-03     106.207E-03     742.358E-03     707.181E-03        -1.61065     706.275E-03        -1.57704     709.647E-03     132.301E-03     22.2548E-03    -10.8627E-03    -11.3914E-03    -10.8866E-03     21.7500E-03    -10.8627E-03     7.95679E-03    -10.2046E+06    -29.2376E+06    -64.6163E+06    -26.4104E+06    -48.4105E+06    -29.2376E+06     22.3263E+06         21.5504
            1959     2.96774E-03     106.210E-03     738.495E-03     691.483E-03        -1.58201     709.745E-03        -1.57043     708.653E-03    -83.1242E-03     23.0695E-03    -10.9016E-03    -12.1680E-03    -11.0767E-03     21.9782E-03    -10.9016E-03     12.0078E-03    -6.22512E+06    -30.1970E+06    -70.9727E+06    -33.8569E+06    -43.3408E+06    -30.1970E+06     31.5401E+06         21.6333
            1960     3.95659E-03     106.215E-03     715.777E-03     669.645E-03        -1.54366     675.270E-03        -1.53823     704.719E-03     11.9545E-03     24.3218E-03    -11.0374E-03    -13.2846E-03    -11.3875E-03     22.4247E-03    -11.0374E-03     16.3334E-03    -3.81561E+06    -21.6926E+06    -74.4795E+06    -34.6409E+06    -43.6542E+06    -21.6926E+06     34.8566E+06         21.7393
            1961     4.94522E-03     106.221E-03     696.130E-03     655.472E-03        -1.51776     652.435E-03        -1.51472     696.130E-03    -54.5553E-03     26.0615E-03    -11.2275E-03    -14.8335E-03    -11.9577E-03     23.1857E-03    -11.2275E-03     20.8119E-03     1.00309E+06    -9.68962E+06    -71.3979E+06    -30.2799E+06    -40.1149E+06    -9.68962E+06     35.7476E+06         21.8834
            1962     5.93299E-03     106.232E-03     686.493E-03     632.892E-03        -1.49344     631.564E-03        -1.49211     686.493E-03    -6.60379E-03     28.3955E-03    -11.5064E-03    -16.8892E-03    -12.9062E-03     24.4125E-03    -11.5064E-03     25.5817E-03     8.35208E+06    -1.01103E+06    -67.6358E+06    -26.8170E+06    -37.5880E+06     4.11033E+06     34.7978E+06         22.0813
            1963     6.91947E-03     106.244E-03     676.187E-03     609.191E-03        -1.46660     608.346E-03        -1.46575     676.187E-03    -39.3051E-03     31.2096E-03    -11.8707E-03    -19.3394E-03    -14.2587E-03     26.1289E-03    -11.8707E-03     30.3493E-03     16.5372E+06     2.86506E+06    -56.5644E+06    -25.5019E+06    -28.1975E+06     16.5372E+06     28.6670E+06         22.3483
            1964     7.90446E-03     106.261E-03     666.036E-03     598.879E-03        -1.44306     598.654E-03        -1.44283     666.036E-03    -6.23883E-03     34.7716E-03    -12.3508E-03    -22.4208E-03    -16.2772E-03     28.6280E-03    -12.3508E-03     35.3763E-03     28.1419E+06     3.92346E+06    -41.6118E+06    -23.8937E+06    -13.7946E+06     28.1419E+06     21.5442E+06         22.7032
            1965     8.88750E-03     106.282E-03     657.210E-03     597.683E-03        -1.43462     597.451E-03        -1.43439     657.210E-03    -41.9531E-03     39.2330E-03    -13.0076E-03    -26.2248E-03    -19.1488E-03     32.1570E-03    -13.0076E-03     40.6079E-03     39.7693E+06     1.59120E+06    -30.1245E+06    -20.2653E+06    -8.26797E+06     39.7693E+06     14.2210E+06         23.1596
            1966     9.86665E-03     106.307E-03     648.323E-03     566.655E-03        -1.40043     566.212E-03        -1.39999     648.323E-03    -50.6436E-03     44.2602E-03    -13.8255E-03    -30.4338E-03    -22.7312E-03     36.5576E-03    -13.8255E-03     45.3891E-03     46.5453E+06     2.21878E+06    -18.5768E+06    -14.0439E+06    -2.31407E+06     46.5453E+06     1.94167E+06         23.7212
            1967     10.8430E-03     106.337E-03     636.661E-03     505.188E-03        -1.33116     504.595E-03        -1.33057     636.661E-03    -61.1914E-03     49.4896E-03    -14.8130E-03    -34.6763E-03    -26.8532E-03     41.6665E-03    -14.8130E-03     48.8083E-03     50.6868E+06     13.5834E+06    -10.7448E+06    -4.17472E+06     7.01331E+06     50.6868E+06    -8.88363E+06         24.4051
            1968     11.8143E-03     106.371E-03     622.488E-03     464.251E-03        -1.27811     463.862E-03        -1.27772     622.488E-03    -14.6743E-03     54.6643E-03    -15.9823E-03    -38.6835E-03    -31.2789E-03     47.2598E-03    -15.9823E-03     50.3621E-03     55.0537E+06     31.5487E+06    -8.11498E+06     2.01712E+06     21.4166E+06     55.0537E+06    -16.3612E+06         25.2921
            1969     12.7820E-03     106.405E-03     607.655E-03     433.840E-03        -1.23694     433.342E-03        -1.23644     607.655E-03    -18.0005E-03     60.0938E-03    -17.3062E-03    -42.7873E-03    -36.0249E-03     53.3314E-03    -17.3062E-03     50.8962E-03     46.7240E+06     31.9555E+06    -23.0765E+06     1.46001E+06     7.41901E+06     46.7240E+06    -24.8727E+06         26.4895
            1970     13.7443E-03     106.442E-03     592.102E-03     383.869E-03        -1.17717     383.473E-03        -1.17677     592.102E-03    -28.7459E-03     64.8323E-03    -18.7431E-03    -46.0890E-03    -40.4766E-03     59.2200E-03    -18.7431E-03     48.3903E-03     40.5037E+06     29.0333E+06    -31.6505E+06     52.4830E+03     2.24978E+06     35.5842E+06    -31.4693E+06         28.0323
            1971     14.7027E-03     106.476E-03     575.290E-03     326.173E-03        -1.10266     326.106E-03        -1.10260     575.290E-03    -2.59466E-03     67.0526E-03    -20.2889E-03    -46.7670E-03    -43.3611E-03     63.6468E-03    -20.2889E-03     37.8621E-03     43.5961E+06     34.8168E+06    -26.3585E+06    -876.867E+03     14.2547E+06     38.6766E+06    -31.5744E+06         29.9034
            1972     15.6596E-03     106.498E-03     557.067E-03     266.356E-03        -1.02441     266.201E-03        -1.02426     557.067E-03     766.546E-06     69.6494E-03    -21.7418E-03    -47.9089E-03    -44.8622E-03     66.6028E-03    -21.7418E-03     36.8688E-03     52.0144E+06     29.3518E+06    -19.2525E+06    -1.57723E+06     30.4794E+06     33.2116E+06    -27.1425E+06         32.1929
            1973     16.6160E-03     106.535E-03     537.629E-03     201.649E-03    -938.895E-03     200.788E-03    -938.034E-03     537.629E-03     45.1271E-03     71.2186E-03    -23.1757E-03    -48.0415E-03    -45.8500E-03     69.0271E-03    -23.1757E-03     15.8513E-03     52.8613E+06     15.2655E+06    -19.7629E+06    -3.15025E+06     17.4556E+06     34.0585E+06    -19.4380E+06         34.6718
            1974     991.890E-06     107.224E-03     777.649E-03     577.345E-03        -1.47867     639.242E-03        -1.34438     581.458E-03    -498.382E-03     16.3835E-03    -8.03803E-03    -8.34523E-03    -8.16612E-03     16.2043E-03    -8.03803E-03     3.86470E-03    -60.6839E+06    -83.6228E+06    -105.840E+06    -85.4609E+06    -82.3436E+06    -82.3424E+06     15.1061E+06         21.0894
            1975     1.98355E-03     107.225E-03     623.849E-03     603.439E-03        -1.35472     597.221E-03        -1.33221     607.553E-03     79.4238E-03     16.9736E-03    -8.16256E-03    -8.81061E-03    -8.25246E-03     16.4154E-03    -8.16256E-03     7.27535E-03    -48.1218E+06    -74.9044E+06    -100.617E+06    -79.4762E+06    -69.2625E+06    -74.9044E+06     23.5817E+06         21.1712
            1976     2.97554E-03     107.229E-03     650.192E-03     609.914E-03        -1.39098     641.914E-03        -1.38270     609.914E-03    -87.8574E-03     18.0671E-03    -8.29221E-03    -9.77499E-03    -8.61503E-03     16.9071E-03    -8.29221E-03     10.9936E-03    -35.2600E+06    -62.7889E+06    -94.4609E+06    -68.6560E+06    -61.0649E+06    -62.7889E+06     28.8839E+06         21.2756
            1977     3.96669E-03     107.234E-03     654.917E-03     611.637E-03        -1.40321     644.610E-03        -1.39929     618.016E-03    -23.2383E-03     19.7433E-03    -8.50892E-03    -11.2330E-03    -9.24034E-03     17.7506E-03    -8.50892E-03     15.0965E-03    -22.3199E+06    -46.4815E+06    -87.9707E+06    -58.0664E+06    -52.2243E+06    -46.4815E+06     32.2016E+06         21.4099
            1978     4.95693E-03     107.243E-03     632.836E-03     602.455E-03        -1.38173     612.785E-03        -1.37914     619.916E-03    -73.8456E-03     21.9835E-03    -8.81425E-03    -13.1677E-03    -10.0954E-03     18.9112E-03    -8.81425E-03     19.7767E-03    -15.9829E+06    -29.6357E+06    -80.6498E+06    -48.8842E+06    -47.7485E+06    -29.6357E+06     31.8648E+06         21.5857
            1979     5.94647E-03     107.254E-03     615.058E-03     576.286E-03        -1.34761     575.657E-03        -1.34698     615.058E-03    -3.61290E-03     24.7303E-03    -9.20319E-03    -15.5277E-03    -11.2579E-03     20.4605E-03    -9.20319E-03     24.7425E-03    -6.40810E+06    -11.6932E+06    -69.4184E+06    -36.0176E+06    -40.9459E+06    -10.5562E+06     30.4743E+06         21.8191
            1980     6.93486E-03     107.269E-03     606.921E-03     553.998E-03        -1.32201     553.477E-03        -1.32149     606.921E-03    -15.1925E-03     28.2059E-03    -9.70114E-03    -18.5056E-03    -12.9577E-03     22.6580E-03    -9.70114E-03     30.1857E-03     12.2787E+06     4.25903E+06    -52.7595E+06    -22.6916E+06    -25.8089E+06     12.2787E+06     28.0258E+06         22.1272
            1981     7.92099E-03     107.288E-03     599.274E-03     558.509E-03        -1.32108     558.352E-03        -1.32092     599.274E-03    -3.74734E-03     32.6189E-03    -10.3407E-03    -22.2784E-03    -15.4313E-03     25.7717E-03    -10.3407E-03     36.2509E-03     33.5100E+06     11.9860E+06    -35.3020E+06    -13.3199E+06    -9.99617E+06     33.5100E+06     22.8563E+06         22.5251
            1982     8.90420E-03     107.313E-03     593.137E-03     557.434E-03        -1.31328     556.989E-03        -1.31284     593.137E-03    -46.8298E-03     37.8174E-03    -11.1331E-03    -26.6841E-03    -18.6627E-03     29.7959E-03    -11.1331E-03     42.5432E-03     47.8498E+06     12.8148E+06    -16.9803E+06    -4.91300E+06     747.531E+03     47.8498E+06     13.7033E+06         23.0221
            1983     9.88460E-03     107.344E-03     586.619E-03     534.078E-03        -1.28804     533.646E-03        -1.28760     586.619E-03    -46.0232E-03     43.6263E-03    -12.0938E-03    -31.5326E-03    -22.6044E-03     34.6981E-03    -12.0938E-03     48.5837E-03     56.7098E+06     17.7067E+06    -3.07563E+06     2.07648E+06     12.5546E+06     56.7098E+06     1.57036E+06         23.6241
            1984     10.8597E-03     107.379E-03     578.062E-03     493.001E-03        -1.24453     492.810E-03        -1.24434     578.062E-03    -30.9579E-03     49.6623E-03    -13.2444E-03    -36.4178E-03    -27.1447E-03     40.3892E-03    -13.2444E-03     53.2872E-03     59.4072E+06     23.0498E+06    -3.03270E+06     3.95673E+06     16.0604E+06     59.4072E+06    -9.21685E+06         24.3423
            1985     11.8316E-03     107.419E-03     567.140E-03     447.453E-03        -1.18821     447.197E-03        -1.18795     567.140E-03    -3.58412E-03     55.6979E-03    -14.5814E-03    -41.1152E-03    -32.1972E-03     46.7798E-03    -14.5814E-03     55.8586E-03     60.0044E+06     32.1487E+06    -4.68876E+06     2.05556E+06     25.4044E+06     60.0044E+06    -10.4660E+06         25.2452
            1986     12.7972E-03     107.460E-03     554.629E-03     412.398E-03        -1.14403     411.823E-03        -1.14345     554.629E-03    -22.8381E-03     62.0140E-03    -16.1062E-03    -45.9023E-03    -37.6120E-03     53.7236E-03    -16.1062E-03     57.3363E-03     56.4659E+06     38.0455E+06    -15.1939E+06    -1.46783E+06     24.3194E+06     56.4659E+06    -17.7557E+06         26.4481
            1987     13.7581E-03     107.504E-03     540.901E-03     365.161E-03        -1.08672     364.665E-03        -1.08623     540.901E-03    -34.5025E-03     67.6077E-03    -17.7544E-03    -49.8509E-03    -42.8259E-03     60.5827E-03    -17.7544E-03     55.3944E-03      42.982E+06     33.6127E+06    -27.6898E+06    -2.34947E+06     9.32919E+06     41.9252E+06    -29.1716E+06         28.0020
            1988     14.7145E-03     107.545E-03     525.594E-03     301.544E-03        -1.01012     301.251E-03        -1.00983     525.594E-03    -22.0675E-03     70.2943E-03    -19.5319E-03    -50.7657E-03    -46.5833E-03     66.1120E-03    -19.5319E-03     42.9335E-03     41.6600E+06     31.8882E+06    -24.6358E+06    -1.71802E+06     10.0273E+06     40.6032E+06    -26.7450E+06         29.8916
            1989     15.6687E-03     107.567E-03     508.917E-03     252.917E-03    -947.987E-03     252.587E-03    -947.657E-03     508.917E-03    -35.6381E-03     73.3414E-03    -21.2474E-03    -52.0954E-03    -48.7354E-03     69.9813E-03    -21.2474E-03     40.0912E-03     56.1934E+06     29.1429E+06    -17.6412E+06    -2.60649E+06     32.4437E+06     37.8578E+06    -24.7551E+06         32.2007
            1990     16.6201E-03     107.611E-03     492.156E-03     219.129E-03    -902.342E-03     218.379E-03    -901.592E-03     492.156E-03     18.1320E-03     75.3089E-03    -22.9451E-03    -52.3640E-03    -50.0434E-03     72.9883E-03    -22.9451E-03     18.0508E-03     54.7004E+06     16.7654E+06    -31.9376E+06    -78.3159E+03     3.24164E+06     36.3648E+06    -19.4836E+06         34.6927
            1991     994.499E-06     108.237E-03     654.441E-03     511.378E-03        -1.25384     548.610E-03        -1.15996     523.333E-03    -295.398E-03     11.7060E-03    -5.67646E-03    -6.02933E-03    -5.83406E-03     11.5244E-03    -5.69014E-03     3.36200E-03    -102.524E+06    -166.515E+06    -172.891E+06    -167.884E+06    -105.821E+06    -168.224E+06     8.24965E+06         20.7857
            1992     1.98798E-03     108.239E-03     538.952E-03     515.228E-03        -1.16400     501.213E-03        -1.13994     528.909E-03     115.599E-03     12.7467E-03    -5.90821E-03    -6.83837E-03    -6.26405E-03     12.1724E-03    -5.90821E-03     6.42702E-03    -74.6929E+06    -144.605E+06    -157.192E+06    -149.388E+06    -80.2059E+06    -146.897E+06     10.2864E+06         20.8724
            1993     2.98108E-03     108.244E-03     557.758E-03     523.823E-03        -1.18926     548.719E-03        -1.18195     525.549E-03    -57.1548E-03     14.0930E-03    -6.17490E-03    -7.91803E-03    -6.72410E-03     12.8991E-03    -6.17490E-03     9.87263E-03    -63.2298E+06    -122.369E+06    -135.863E+06    -126.364E+06    -71.7530E+06    -123.345E+06     11.7100E+06         20.9889
            1994     3.97398E-03     108.250E-03     574.248E-03     533.568E-03        -1.22357     570.887E-03        -1.22021     533.568E-03     22.5237E-03     15.9596E-03    -6.46456E-03    -9.49380E-03    -7.43792E-03     13.9038E-03    -6.46456E-03     13.7845E-03    -48.4535E+06    -95.0015E+06    -113.016E+06    -99.1247E+06    -59.6715E+06    -97.6745E+06     13.6538E+06         21.1411
            1995     4.96627E-03     108.260E-03     562.910E-03     538.713E-03        -1.22259     560.604E-03        -1.22114     539.574E-03    -47.9548E-03     18.5144E-03    -6.85822E-03    -11.6554E-03    -8.52206E-03     15.3811E-03    -6.85822E-03     18.3668E-03    -39.7583E+06    -63.5929E+06    -87.2454E+06    -70.8534E+06    -52.8214E+06    -66.9217E+06     15.0257E+06         21.3401
            1996     5.95707E-03     108.273E-03     554.043E-03     528.290E-03        -1.21454     541.544E-03        -1.21448     540.733E-03    -1.13657E-03     21.6008E-03    -7.35645E-03    -14.2451E-03    -9.86070E-03     17.2164E-03    -7.35645E-03     23.4585E-03    -27.8973E+06    -34.9903E+06    -61.7408E+06    -47.2049E+06    -43.4988E+06    -33.9246E+06     14.8073E+06         21.6021
            1997     6.94656E-03     108.290E-03     546.836E-03     512.876E-03        -1.20418     521.258E-03        -1.20407     538.347E-03     8.64155E-03     25.5621E-03    -7.95832E-03    -17.6046E-03    -11.7723E-03     19.7299E-03    -7.95832E-03     29.4943E-03    -748.538E+03    -10.0863E+06    -44.0200E+06    -25.5300E+06    -28.5764E+06    -748.538E+03     15.3996E+06         21.9382
            1998     7.93410E-03     108.313E-03     533.649E-03     502.014E-03        -1.18029     501.919E-03        -1.18020     533.649E-03     5.74013E-03     30.4652E-03    -8.69211E-03    -21.7736E-03    -14.4427E-03     23.1344E-03    -8.69211E-03     36.2703E-03     29.7794E+06     11.1235E+06    -26.2107E+06    -6.69072E+06    -8.39649E+06     29.7794E+06     16.1315E+06         22.3600
            1999     8.91855E-03     108.342E-03     527.758E-03     491.172E-03        -1.16341     490.740E-03        -1.16298     527.758E-03    -43.1449E-03     36.1931E-03    -9.56485E-03    -26.6282E-03    -17.7720E-03     27.3369E-03    -9.56485E-03     43.6915E-03     50.0844E+06     19.8095E+06    -5.48025E+06     4.33451E+06     9.99472E+06     50.0844E+06     11.0036E+06         22.8817
            2000     9.89896E-03     108.378E-03     521.598E-03     485.425E-03        -1.15311     484.753E-03        -1.15244     521.598E-03    -62.1848E-03     42.5968E-03    -10.5991E-03    -31.9969E-03    -21.8028E-03     32.4027E-03    -10.5991E-03     51.1979E-03     61.6880E+06     25.7302E+06     7.25860E+06     9.42851E+06     23.5603E+06     61.6880E+06     2.70275E+06         23.5119
            2001     10.8766E-03     108.420E-03     515.021E-03     468.661E-03        -1.13177     468.237E-03        -1.13135     515.021E-03    -44.0306E-03     49.4998E-03    -11.8434E-03    -37.6547E-03    -26.8309E-03     38.6760E-03    -11.8434E-03     57.4053E-03     68.5417E+06     30.2153E+06     6.96278E+06     12.4859E+06     24.6922E+06     68.5417E+06    -3.69621E+06         24.2556
            2002     11.8472E-03     108.466E-03     506.945E-03     431.205E-03        -1.09150     430.857E-03        -1.09116     506.945E-03    -35.8123E-03     56.3782E-03    -13.2921E-03    -43.0848E-03    -32.4426E-03     45.7361E-03    -13.2921E-03     61.3799E-03     69.2545E+06     33.9532E+06     1.34351E+06     14.4162E+06     20.8805E+06     69.2545E+06    -4.20634E+06         25.1713
            2003     12.8135E-03     108.515E-03     496.569E-03     382.130E-03        -1.03460     381.566E-03        -1.03403     496.569E-03    -48.4117E-03     63.4371E-03    -14.9372E-03    -48.4961E-03    -38.2731E-03     53.2141E-03    -14.9372E-03     64.3724E-03     73.5925E+06     53.3653E+06     2.19142E+06     12.6941E+06     42.8627E+06     73.5925E+06    -7.38080E+06         26.3815
            2004     13.7736E-03     108.567E-03     483.911E-03     327.452E-03    -969.492E-03     326.993E-03    -969.033E-03     483.911E-03    -28.6059E-03     70.1669E-03    -16.7313E-03    -53.4337E-03    -44.6788E-03     61.4120E-03    -16.7313E-03     63.0359E-03     54.3586E+06     42.9656E+06    -18.3375E+06     4.68696E+06     20.6907E+06     53.6090E+06    -19.6762E+06         27.9521
            2005     14.7276E-03     108.615E-03     469.918E-03     281.073E-03    -913.443E-03     280.799E-03    -913.169E-03     469.918E-03    -14.3177E-03     74.0142E-03    -18.7186E-03    -55.2989E-03    -50.1546E-03     68.8700E-03    -18.7186E-03     48.9955E-03     42.6102E+06     29.3001E+06    -26.5747E+06    -648.812E+03     4.12384E+06     41.8606E+06    -23.3920E+06         29.8692
            2006     15.6758E-03     108.643E-03     455.363E-03     241.664E-03    -862.598E-03     241.349E-03    -862.283E-03     455.363E-03    -30.5858E-03     77.4045E-03    -20.7112E-03    -56.6970E-03    -52.9680E-03     73.6755E-03    -20.7112E-03     43.8021E-03     57.8848E+06     33.7001E+06    -11.4609E+06    -459.122E+03     38.4362E+06     42.1470E+06    -22.7883E+06         32.1929
            2007     16.6246E-03     108.688E-03     440.433E-03     191.235E-03    -810.276E-03     191.067E-03    -810.108E-03     440.433E-03    -13.6632E-03     79.5108E-03    -22.6886E-03    -56.8236E-03    -54.4530E-03     77.1402E-03    -22.6886E-03     21.1543E-03     50.0794E+06     13.1010E+06    -42.5299E+06    -2.41189E+06    -11.2792E+06     34.3416E+06    -17.6138E+06         34.6703
            2008     994.861E-06     109.246E-03     543.515E-03     449.329E-03        -1.07762     454.824E-03        -1.02589     486.293E-03    -198.971E-03     9.50569E-03    -4.65882E-03    -4.84670E-03    -4.69477E-03     9.36744E-03    -4.67250E-03     2.52753E-03    -106.052E+06    -188.993E+06    -192.718E+06    -188.040E+06    -107.353E+06    -192.370E+06    -5.90302E+06         20.6261
            2009     1.99028E-03     109.250E-03     481.189E-03     455.491E-03        -1.02478     456.293E-03        -1.01192     467.524E-03     71.5944E-03     10.1080E-03    -4.72523E-03    -5.38273E-03    -4.92696E-03     9.65222E-03    -4.72523E-03     5.09122E-03    -78.5894E+06    -176.941E+06    -180.467E+06    -175.841E+06    -80.1806E+06    -179.976E+06    -8.05741E+06         20.7042
            2010     2.98460E-03     109.255E-03     479.007E-03     446.803E-03        -1.02009     457.998E-03        -1.01577     463.495E-03    -26.0182E-03     11.3926E-03    -4.90927E-03    -6.48338E-03    -5.42069E-03     10.3299E-03    -4.90927E-03     8.34698E-03    -66.8724E+06    -160.395E+06    -162.788E+06    -158.722E+06    -69.9629E+06    -161.371E+06    -11.5575E+06         20.8149
            2011     3.97874E-03     109.262E-03     476.207E-03     443.461E-03        -1.01325     455.860E-03        -1.01082     461.370E-03     32.2298E-03     13.3465E-03    -5.16605E-03    -8.18070E-03    -6.21673E-03     11.3825E-03    -5.16605E-03     12.3460E-03    -56.7162E+06    -138.454E+06    -142.907E+06    -135.229E+06    -60.8677E+06    -141.980E+06    -14.7820E+06         20.9631
            2012     4.97161E-03     109.274E-03     477.850E-03     458.190E-03        -1.03471     474.035E-03        -1.03383     461.133E-03    -47.8863E-03     15.7892E-03    -5.50881E-03    -10.2813E-03    -7.23921E-03     12.7472E-03    -5.50881E-03     16.7091E-03    -48.1352E+06    -114.373E+06    -120.952E+06    -108.620E+06    -53.8881E+06    -120.952E+06    -14.7872E+06         21.1621
            2013     5.96394E-03     109.288E-03     492.790E-03     463.608E-03        -1.06610     492.229E-03        -1.06554     463.608E-03    -47.8717E-03     19.1671E-03    -6.04710E-03    -13.1205E-03    -8.74535E-03     14.7920E-03    -6.04710E-03     22.0813E-03    -34.8304E+06    -77.0182E+06    -88.5708E+06    -77.0934E+06    -44.7774E+06    -78.5486E+06    -13.0034E+06         21.4315
            2014     6.95453E-03     109.308E-03     491.123E-03     460.553E-03        -1.06791     485.471E-03        -1.06752     465.806E-03    -32.2431E-03     23.5074E-03    -6.74741E-03    -16.7598E-03    -10.8811E-03     17.6286E-03    -6.74741E-03     28.4306E-03    -10.1748E+06    -34.4650E+06    -58.3043E+06    -43.1983E+06    -31.5353E+06    -28.2106E+06    -10.5646E+06         21.7770
            2015     7.94258E-03     109.334E-03     473.342E-03     449.012E-03        -1.04209     457.029E-03        -1.04154     464.769E-03    -33.8376E-03     28.4803E-03    -7.52729E-03    -20.9532E-03    -13.4118E-03     20.9389E-03    -7.52729E-03     35.5396E-03     17.2910E+06     51.8236E+03    -34.3381E+06    -11.7323E+06    -15.3819E+06     10.1189E+06    -3.67652E+06         22.2045
            2016     8.92837E-03     109.368E-03     462.037E-03     437.206E-03        -1.02103     437.810E-03        -1.02032     460.722E-03    -53.7535E-03     34.2920E-03    -8.42180E-03    -25.8705E-03    -16.5078E-03     24.9294E-03    -8.42180E-03     43.6081E-03     42.0058E+06     24.7420E+06    -5.13965E+06     9.02847E+06     10.5738E+06     42.0058E+06     5.39762E+06         22.7313
            2017     9.91134E-03     109.409E-03     455.237E-03     424.663E-03        -1.00132     424.153E-03        -1.00081     455.237E-03    -52.9229E-03     41.1858E-03    -9.48824E-03    -31.6967E-03    -20.6618E-03     30.1509E-03    -9.48824E-03     52.2307E-03     65.6246E+06     33.5239E+06     11.9208E+06     15.4514E+06     29.9933E+06     65.6246E+06       6.119E+06         23.3671
            2018     10.8885E-03     109.457E-03     448.664E-03     406.137E-03    -983.490E-03     405.640E-03    -982.993E-03     448.664E-03    -43.2288E-03     48.6200E-03    -10.7495E-03    -37.8717E-03    -25.7897E-03     36.5380E-03    -10.7495E-03     59.9042E-03     76.8245E+06     37.8313E+06     10.2180E+06     16.1153E+06     31.9340E+06     76.8245E+06     146.753E+03         24.1157
            2019     11.8615E-03     109.512E-03     441.155E-03     390.406E-03    -962.572E-03     389.601E-03    -961.767E-03     441.155E-03    -52.6857E-03     56.0153E-03    -12.2081E-03    -43.8093E-03    -31.5675E-03     43.7735E-03    -12.2081E-03     65.3729E-03     79.1158E+06     39.2011E+06     5.75580E+06     23.4816E+06     21.4753E+06     79.1158E+06    -6.55176E+06         25.0422
            2020     12.8282E-03     109.568E-03     432.560E-03     359.647E-03    -920.982E-03     358.823E-03    -920.157E-03     432.560E-03    -60.1072E-03     64.0502E-03    -13.8832E-03    -50.1670E-03    -38.0707E-03     51.9539E-03    -13.8832E-03     70.1858E-03     85.8061E+06     57.2297E+06     11.8480E+06     29.8387E+06     39.2390E+06     85.8061E+06     1.32342E+06         26.2717
            2021     13.7886E-03     109.632E-03     422.121E-03     308.803E-03    -864.675E-03     308.450E-03    -864.322E-03     422.121E-03    -24.5316E-03     72.2532E-03    -15.7728E-03    -56.4804E-03    -45.7648E-03     61.5376E-03    -15.7728E-03     70.6910E-03     75.1734E+06     58.3964E+06     4.03251E+06     21.1803E+06     41.2487E+06     75.1734E+06     294.428E+03         27.8647
            2022     14.7399E-03     109.688E-03     410.366E-03     265.694E-03    -814.242E-03     265.444E-03    -813.992E-03     410.366E-03    -13.0116E-03     77.5874E-03    -17.9114E-03    -59.6767E-03    -53.1508E-03     71.0615E-03    -17.9114E-03     56.6231E-03     51.9315E+06     33.2247E+06    -15.9062E+06     9.22356E+06     8.09495E+06     51.9315E+06    -15.6555E+06         29.8136
            2023     15.6862E-03     109.724E-03     397.615E-03     211.126E-03    -750.604E-03     210.843E-03    -750.321E-03     397.615E-03    -25.9641E-03     81.2478E-03    -20.1375E-03    -61.1130E-03    -56.9433E-03     77.0781E-03    -20.1375E-03     47.9333E-03     61.0130E+06     35.3342E+06    -14.0967E+06    -22.2488E+03     37.5255E+06     44.7472E+06    -14.9866E+06         32.1487
            2024     16.6300E-03     109.769E-03     383.241E-03     134.994E-03    -668.785E-03     134.764E-03    -668.555E-03     383.241E-03    -17.8661E-03     83.8964E-03    -22.4107E-03    -61.4874E-03    -59.1390E-03     81.5480E-03    -22.4107E-03     25.9633E-03     54.9887E+06     20.5999E+06    -57.4102E+06    -5.04568E+06    -15.4988E+06     38.7228E+06    -13.2846E+06         34.5868
            2025     995.063E-06     110.256E-03     435.025E-03     381.502E-03    -899.119E-03     392.885E-03    -883.636E-03     408.159E-03    -94.6952E-03     9.88081E-03    -4.89116E-03    -4.98948E-03    -4.89388E-03     9.81575E-03    -4.92171E-03     1.71574E-03    -85.0432E+06    -140.845E+06    -149.923E+06    -144.357E+06    -88.5480E+06    -142.907E+06    -13.8511E+06         20.6283
            2026     1.98960E-03     110.259E-03     417.661E-03     396.905E-03    -891.162E-03     408.891E-03    -887.475E-03     401.988E-03     32.2416E-03     9.88335E-03    -4.83955E-03    -5.04371E-03    -4.76761E-03     9.65391E-03    -4.88622E-03     3.33636E-03    -63.4783E+06    -135.836E+06    -144.945E+06    -137.411E+06    -70.2690E+06    -136.580E+06    -20.6736E+06         20.6952
            2027     2.98547E-03     110.264E-03     404.545E-03     363.353E-03    -841.198E-03     368.260E-03    -839.836E-03     398.275E-03    -30.4726E-03     10.5607E-03    -4.87838E-03    -5.68243E-03    -5.02406E-03     9.91842E-03    -4.89450E-03     6.01838E-03    -49.6376E+06    -128.725E+06    -137.967E+06    -128.662E+06    -58.9431E+06    -128.725E+06    -26.1239E+06         20.7876
            2028     3.97974E-03     110.273E-03     393.553E-03     356.161E-03    -819.752E-03     359.693E-03    -818.673E-03     388.942E-03    -29.3512E-03     11.9781E-03    -5.00556E-03    -6.97281E-03    -5.62376E-03     10.6291E-03    -5.00556E-03     9.53056E-03    -39.6094E+06    -121.851E+06    -136.212E+06    -122.857E+06    -52.1105E+06    -122.704E+06    -31.0831E+06         20.9142
            2029     4.97380E-03     110.285E-03     397.743E-03     382.262E-03    -850.504E-03     393.672E-03    -849.375E-03     385.205E-03    -61.0896E-03     14.1575E-03    -5.23262E-03    -8.92549E-03    -6.52735E-03     11.7594E-03    -5.23262E-03     13.9451E-03    -28.8588E+06    -110.381E+06    -133.750E+06    -113.513E+06    -45.8458E+06    -113.631E+06    -36.8047E+06         21.0906
            2030     5.96666E-03     110.302E-03     407.032E-03     386.404E-03    -868.627E-03     406.107E-03    -867.703E-03     386.404E-03    -57.3628E-03     17.5513E-03    -5.65201E-03    -11.8995E-03    -8.07973E-03     13.7316E-03    -5.65201E-03     19.7303E-03    -20.2756E+06    -87.8429E+06    -121.238E+06    -97.4217E+06    -41.6947E+06    -90.2397E+06    -39.9041E+06         21.3379
            2031     6.95728E-03     110.325E-03     427.850E-03     389.006E-03    -895.795E-03     427.026E-03    -894.971E-03     389.006E-03    -39.6487E-03     21.7405E-03    -6.22817E-03    -15.5117E-03    -10.0474E-03     16.2762E-03    -6.22817E-03     26.3407E-03    -7.18730E+06    -60.3922E+06    -98.4808E+06    -75.3483E+06    -30.3198E+06    -60.3922E+06    -39.5524E+06         21.6637
            2032     7.94635E-03     110.354E-03     426.478E-03     391.656E-03    -909.261E-03     425.860E-03    -908.644E-03     391.656E-03    -26.8690E-03     26.6843E-03    -6.92546E-03    -19.7583E-03    -12.4191E-03     19.3451E-03    -6.92546E-03     33.8764E-03     9.13945E+06    -33.3606E+06    -77.4237E+06    -45.9053E+06    -23.6442E+06    -32.0954E+06    -34.8829E+06         22.0724
            2033     8.93319E-03     110.391E-03     401.952E-03     389.258E-03    -893.103E-03     398.847E-03    -892.301E-03     391.561E-03    -56.6706E-03     32.6658E-03    -7.82674E-03    -24.8400E-03    -15.5075E-03     23.3334E-03    -7.82674E-03     42.4061E-03     27.1711E+06     4.31930E+06    -36.0135E+06    -10.5170E+06    -6.60192E+06     12.5957E+06    -17.8604E+06         22.5787
            2034     9.91661E-03     110.437E-03     389.572E-03     366.868E-03    -864.188E-03     368.011E-03    -863.619E-03     387.860E-03    -52.4552E-03     39.6222E-03    -8.90435E-03    -30.7186E-03    -19.4990E-03     28.4026E-03    -8.90435E-03     51.5043E-03     58.2369E+06     32.1778E+06     7.10076E+06     15.1994E+06     24.0792E+06     58.2369E+06     2.58301E+06         23.1915
            2035     10.8962E-03     110.493E-03     381.370E-03     339.127E-03    -831.968E-03     338.703E-03    -831.544E-03     381.370E-03    -34.9929E-03     46.9250E-03    -10.1220E-03    -36.8049E-03    -24.2076E-03     34.3276E-03    -10.1220E-03     59.8477E-03     80.9023E+06     45.5080E+06     13.7084E+06     21.0502E+06     38.1662E+06     80.9023E+06     7.48319E+06         23.9267
            2036     11.8708E-03     110.554E-03     373.444E-03     324.229E-03    -807.889E-03     323.626E-03    -807.286E-03     373.444E-03    -36.3595E-03     54.6033E-03    -11.5114E-03    -43.0942E-03    -29.8989E-03     41.4079E-03    -11.5114E-03     66.7244E-03     82.8511E+06     42.5651E+06     2.01506E+06     12.0995E+06     32.4806E+06     82.8511E+06    -1.25885E+06         24.8662
            2037     12.8394E-03     110.621E-03     365.064E-03     312.112E-03    -787.246E-03     311.462E-03    -786.597E-03     365.064E-03    -46.0161E-03     63.5744E-03    -13.1357E-03    -50.4386E-03    -37.0350E-03     50.1708E-03    -13.1357E-03     73.3670E-03     78.6356E+06     33.5164E+06    -4.78350E+06     10.4312E+06     18.3017E+06     78.6356E+06     1.01102E+06         26.1178
            2038     13.8008E-03     110.693E-03     356.229E-03     290.899E-03    -757.188E-03     290.595E-03    -756.884E-03     356.229E-03    -32.7928E-03     72.6073E-03    -15.0323E-03    -57.5752E-03    -45.1231E-03     60.1552E-03    -15.0323E-03     76.3104E-03     90.1629E+06     60.5040E+06     7.25981E+06     18.2784E+06     52.7845E+06     86.8638E+06     10.1403E+06         27.7208
            2039     14.7533E-03     110.765E-03     346.359E-03     236.987E-03    -698.663E-03     236.762E-03    -698.438E-03     346.359E-03    -26.2140E-03     79.4465E-03    -17.2030E-03    -62.2431E-03    -54.0885E-03     71.2919E-03    -17.2030E-03     64.0899E-03     69.2590E+06     47.4099E+06    -9.81804E+06     13.3231E+06     27.5678E+06     65.9599E+06     456.668E+03         29.6812
            2040     15.6952E-03     110.806E-03     334.557E-03     165.184E-03    -623.944E-03     164.918E-03    -623.677E-03     334.557E-03    -25.2149E-03     84.8241E-03    -19.5734E-03    -65.2513E-03    -60.6147E-03     80.1875E-03    -19.5734E-03     51.7890E-03     68.6718E+06     35.5006E+06    -12.8542E+06     9.27375E+06     33.1741E+06     48.8704E+06    -8.89466E+06         32.0043
            2041     16.6364E-03     110.855E-03     321.460E-03     115.058E-03    -568.049E-03     114.819E-03    -567.810E-03     321.460E-03    -4.47528E-03     88.2050E-03    -22.1265E-03    -66.0796E-03    -63.8297E-03     85.9551E-03    -22.1265E-03     29.6395E-03     69.5185E+06     36.4085E+06    -59.9268E+06     10.9427E+06    -14.6594E+06     49.7171E+06    -8.79133E+06         34.3824
            2042     993.754E-06     111.267E-03     352.608E-03     314.887E-03    -747.231E-03     329.995E-03    -742.868E-03     333.137E-03    -42.1810E-03     11.8092E-03    -5.83058E-03    -5.97860E-03    -5.87553E-03     11.7860E-03    -5.91037E-03     1.21075E-03    -57.4022E+06    -84.6177E+06    -100.410E+06    -91.7049E+06    -66.1074E+06    -84.6177E+06    -11.1386E+06         20.7572
            2043     1.98828E-03     111.269E-03     326.843E-03     298.994E-03    -695.601E-03     299.161E-03    -693.759E-03     324.835E-03     2.29385E-03     11.9648E-03    -5.89283E-03    -6.07188E-03    -5.96556E-03     11.9051E-03    -5.93950E-03     1.71178E-03    -38.8833E+06    -81.0434E+06    -101.716E+06    -90.2663E+06    -50.3334E+06    -81.0434E+06    -23.7298E+06         20.8245
            2044     2.98187E-03     111.275E-03     336.010E-03     290.177E-03    -676.081E-03     309.176E-03    -675.720E-03     316.651E-03    -13.8766E-03     12.0594E-03    -5.86637E-03    -6.19320E-03    -5.88487E-03     11.8428E-03    -5.95810E-03     3.42553E-03    -28.1307E+06    -79.6447E+06    -103.024E+06    -86.4210E+06    -44.7334E+06    -79.6447E+06    -30.3004E+06         20.9043
            2045     3.97643E-03     111.284E-03     339.403E-03     297.547E-03    -680.057E-03     321.118E-03    -679.659E-03     315.433E-03    -17.6520E-03     12.5844E-03    -5.92866E-03    -6.65575E-03    -6.02605E-03     12.0303E-03    -6.00427E-03     5.92068E-03    -15.6352E+06    -69.3367E+06    -101.737E+06    -80.2327E+06    -37.1390E+06    -69.3367E+06    -36.4037E+06         21.0078
            2046     4.97052E-03     111.296E-03     321.221E-03     306.519E-03    -669.065E-03     312.422E-03    -668.731E-03     314.983E-03    -25.3079E-03     14.2348E-03    -6.15598E-03    -8.07871E-03    -6.82884E-03     12.9850E-03    -6.15598E-03     9.77337E-03    -9.03998E+06    -56.6581E+06    -100.922E+06    -76.0650E+06    -33.8973E+06    -56.6581E+06    -40.5571E+06         21.1512
            2047     5.96292E-03     111.316E-03     329.446E-03     308.721E-03    -679.060E-03     322.852E-03    -677.917E-03     314.171E-03    -48.3352E-03     16.8459E-03    -6.39666E-03    -10.4488E-03    -7.99893E-03     14.3960E-03    -6.39666E-03     15.2594E-03    -2.52489E+06    -53.6696E+06    -105.315E+06    -77.2944E+06    -30.5454E+06    -53.6696E+06    -45.5576E+06         21.3568
            2048     6.95463E-03     111.340E-03     361.101E-03     316.275E-03    -726.072E-03     359.895E-03    -724.866E-03     316.275E-03    -41.5834E-03     20.3423E-03    -6.74169E-03    -13.5980E-03    -9.48701E-03     16.2314E-03    -6.74169E-03     21.9593E-03     8.09418E+06    -52.3344E+06    -108.092E+06    -77.0418E+06    -22.9555E+06    -52.3344E+06    -51.3079E+06         21.6382
            2049     7.94436E-03     111.373E-03     366.967E-03     320.057E-03    -750.380E-03     366.878E-03    -750.290E-03     320.057E-03     1.49613E-03     25.0648E-03    -7.26960E-03    -17.7929E-03    -11.7049E-03     18.9768E-03    -7.26960E-03     29.8263E-03     11.6316E+06    -42.4429E+06    -106.438E+06    -72.5239E+06    -22.2822E+06    -42.4429E+06    -53.2136E+06         22.0019
            2050     8.93141E-03     111.413E-03     338.225E-03     317.138E-03    -733.286E-03     333.351E-03    -732.054E-03     320.781E-03    -48.7130E-03     31.1686E-03    -8.02122E-03    -23.1455E-03    -14.7474E-03     22.7705E-03    -8.02122E-03     39.2330E-03     10.3269E+06    -22.6161E+06    -91.1779E+06    -58.9393E+06    -24.6965E+06    -19.8314E+06    -46.1212E+06         22.4591
            2051     9.91528E-03     111.465E-03     319.047E-03     306.619E-03    -711.222E-03     306.547E-03    -709.438E-03     317.335E-03    -76.9967E-03     37.9546E-03    -8.96671E-03    -28.9859E-03    -18.3249E-03     27.2936E-03    -8.96671E-03     48.9857E-03     33.1212E+06     9.96899E+06    -46.6860E+06    -26.1019E+06     2.24227E+06     20.2639E+06    -26.3471E+06         23.0220
            2052     10.8960E-03     111.525E-03     311.596E-03     291.263E-03    -694.910E-03     289.989E-03    -693.635E-03     311.596E-03    -66.8579E-03     45.0290E-03    -10.1102E-03    -34.9186E-03    -22.6699E-03     32.7803E-03    -10.1102E-03     57.5790E-03     69.6704E+06     36.1968E+06     1.31894E+06     12.4070E+06     29.4697E+06     65.3095E+06    -3.75352E+06         23.7345
            2053     11.8723E-03     111.594E-03     304.583E-03     272.303E-03    -670.733E-03     271.383E-03    -669.814E-03     304.583E-03    -50.8329E-03     52.9986E-03    -11.4543E-03    -41.5442E-03    -28.4367E-03     39.8912E-03    -11.4543E-03     65.2984E-03     93.5677E+06     52.1024E+06     13.2922E+06     30.7568E+06     34.6379E+06     93.5677E+06     10.9592E+06         24.6828
            2054     12.8425E-03     111.669E-03     296.609E-03     255.642E-03    -644.389E-03     254.873E-03    -643.619E-03     296.609E-03    -42.0811E-03     62.3519E-03    -12.9882E-03    -49.3636E-03    -35.6583E-03     48.6465E-03    -12.9882E-03     73.2567E-03     90.5595E+06     42.9133E+06    -4.07575E+03     27.0890E+06     15.8202E+06     90.5595E+06     8.84191E+06         25.9346
            2055     13.8047E-03     111.754E-03     287.803E-03     232.821E-03    -612.299E-03     232.190E-03    -611.669E-03     287.803E-03    -22.2372E-03     70.9343E-03    -14.7579E-03    -56.1770E-03    -42.8545E-03     57.6118E-03    -14.7579E-03     77.7231E-03     93.0130E+06     55.6089E+06    -1.29834E+06     19.6528E+06     37.9568E+06     89.7139E+06     15.4786E+06         27.5127
            2056     14.7609E-03     111.835E-03     278.084E-03     192.731E-03    -560.773E-03     192.642E-03    -560.684E-03     278.084E-03    -1.99719E-03     78.9690E-03    -16.8416E-03    -62.1271E-03    -52.2731E-03     69.1150E-03    -16.8416E-03     70.5440E-03     88.3468E+06     66.7697E+06    -11.5330E+06     10.6983E+06     47.8375E+06     85.0477E+06     20.3008E+06         29.4286
            2057     15.7050E-03     111.897E-03     267.500E-03     143.636E-03    -513.794E-03     143.556E-03    -513.714E-03     267.500E-03    -1.57231E-03     87.9216E-03    -19.2042E-03    -68.7173E-03    -63.1894E-03     82.3938E-03    -19.2042E-03     56.7303E-03     80.6030E+06     45.3697E+06    -18.2891E+06    -1.23219E+06     51.5896E+06     57.3262E+06    -2.59809E+06         31.6810
            2058     16.6386E-03     111.944E-03     257.351E-03     123.065E-03    -494.569E-03     122.950E-03    -494.454E-03     257.351E-03     10.4087E-03     91.6107E-03    -21.9167E-03    -69.6942E-03    -67.6571E-03     89.5736E-03    -21.9167E-03     29.4225E-03     63.9495E+06     20.9958E+06    -73.8294E+06    -4.40114E+06    -25.1557E+06     40.6728E+06    -8.26586E+06         33.9855
            2059     993.295E-06     112.280E-03     244.612E-03     211.139E-03    -523.781E-03     212.099E-03    -518.843E-03     238.715E-03    -30.9457E-03     15.5078E-03    -7.65893E-03    -7.84886E-03    -7.71168E-03     15.4940E-03    -7.78238E-03     50.5328E-06    -26.1011E+06    -38.4947E+06    -59.3074E+06    -42.2199E+06    -45.7315E+06    -35.9518E+06    -6.27984E+06         21.0050
            2060     1.98482E-03     112.283E-03     248.887E-03     204.339E-03    -499.288E-03     225.604E-03    -496.762E-03     225.097E-03    -12.5166E-03     15.7217E-03    -7.76239E-03    -7.95945E-03    -7.88913E-03     15.7059E-03    -7.81683E-03    -123.599E-06    -10.4881E+06    -28.9367E+06    -55.8543E+06    -39.3308E+06    -27.0117E+06    -28.9367E+06    -20.2515E+06         21.0777
            2061     2.97683E-03     112.288E-03     283.261E-03     225.561E-03    -541.834E-03     276.250E-03    -541.341E-03     232.080E-03    -29.2170E-03     15.7142E-03    -7.72831E-03    -7.98595E-03    -7.81742E-03     15.6757E-03    -7.85836E-03     922.088E-06    -3.28172E+06    -31.3810E+06    -65.2113E+06    -39.9139E+06    -28.5791E+06    -31.3810E+06    -29.2465E+06         21.1531
            2062     3.96931E-03     112.297E-03     285.778E-03     240.595E-03    -539.133E-03     282.683E-03    -539.052E-03     243.609E-03    -12.3112E-03     15.9738E-03    -7.80814E-03    -8.16565E-03    -7.95767E-03     15.8414E-03    -7.88375E-03     2.82078E-03     1.68757E+06    -32.5063E+06    -69.0448E+06    -43.6783E+06    -23.6790E+06    -32.5063E+06    -33.6898E+06         21.2368
            2063     4.96105E-03     112.311E-03     270.048E-03     240.331E-03    -519.600E-03     261.489E-03    -519.505E-03     248.796E-03    -15.7379E-03     16.8411E-03    -8.00102E-03    -8.84014E-03    -8.44384E-03     16.4448E-03    -8.00102E-03     5.53320E-03     1.20321E+06    -28.8380E+06    -73.9585E+06    -48.2455E+06    -24.5098E+06    -28.8380E+06    -35.5939E+06         21.3506
            2064     5.95294E-03     112.330E-03     276.057E-03     245.000E-03    -535.233E-03     269.501E-03    -534.128E-03     250.451E-03    -16.1646E-03     18.2646E-03    -8.18825E-03    -10.0762E-03    -9.07224E-03     17.2606E-03    -8.18825E-03     9.53158E-03     7.58443E+06    -22.7785E+06    -75.8650E+06    -50.6416E+06    -17.6391E+06    -22.7785E+06    -38.1428E+06         21.5164
            2065     6.94375E-03     112.357E-03     277.141E-03     243.418E-03    -539.968E-03     267.846E-03    -538.869E-03     251.613E-03    -14.9135E-03     20.6443E-03    -8.45981E-03    -12.1822E-03    -10.1324E-03     18.5945E-03    -8.45981E-03     15.0286E-03     16.6447E+06    -16.4738E+06    -82.2427E+06    -55.7089E+06    -9.88918E+06    -16.4738E+06    -43.7549E+06         21.7478
            2066     7.93335E-03     112.391E-03     271.941E-03     242.829E-03    -548.347E-03     263.477E-03    -548.334E-03     251.280E-03    -5.40736E-03     24.3883E-03    -8.86438E-03    -15.5227E-03    -11.9391E-03     20.8046E-03    -8.86438E-03     22.1672E-03     14.2262E+06    -11.9045E+06    -91.7266E+06    -61.9664E+06    -15.5341E+06    -11.9045E+06    -47.5583E+06         22.0538
            2067     8.92061E-03     112.436E-03     262.217E-03     245.515E-03    -559.234E-03     257.252E-03    -558.168E-03     249.414E-03    -33.7479E-03     29.5104E-03    -9.40855E-03    -20.1003E-03    -14.3326E-03     23.7427E-03    -9.40855E-03     31.3595E-03     9.42952E+06    -8.91832E+06    -99.7170E+06    -66.5353E+06    -23.7522E+06    -8.91832E+06    -50.1937E+06         22.4390
            2068     9.90530E-03     112.490E-03     250.288E-03     238.782E-03    -551.194E-03     241.759E-03    -549.737E-03     245.854E-03    -52.8129E-03     35.5296E-03    -10.0768E-03    -25.4475E-03    -17.1183E-03     27.2004E-03    -10.0768E-03     41.6644E-03     18.0623E+06    -2.15038E+06    -94.6070E+06    -64.4262E+06    -12.1184E+06    -2.15038E+06    -49.5585E+06         22.9325
            2069     10.8867E-03     112.557E-03     240.599E-03     228.082E-03    -541.748E-03     227.100E-03    -540.766E-03     240.599E-03    -44.3081E-03     42.5606E-03    -10.9740E-03    -31.5854E-03    -20.9774E-03     31.9526E-03    -10.9740E-03     51.8704E-03     33.6645E+06     8.48406E+06    -65.3050E+06    -49.8377E+06     4.50646E+06     22.1748E+06    -31.9324E+06         23.6073
            2070     11.8640E-03     112.631E-03     234.209E-03     218.584E-03    -527.818E-03     217.729E-03    -526.962E-03     234.209E-03    -43.3826E-03     51.0300E-03    -12.1740E-03    -38.8574E-03    -26.5963E-03     38.7689E-03    -12.1740E-03     61.6736E-03     64.2226E+06     36.6743E+06    -37.7594E+06    -19.0384E+06     17.9534E+06     64.2226E+06    -9.64928E+06         24.5330
            2071     12.8348E-03     112.717E-03     226.962E-03     204.957E-03    -502.031E-03     204.031E-03    -501.105E-03     226.962E-03    -48.3951E-03     60.4640E-03    -13.6094E-03    -46.8544E-03    -33.4138E-03     47.0233E-03    -13.6094E-03     71.0176E-03     94.4368E+06     46.5254E+06    -13.5438E+06     15.7339E+06     17.2477E+06     94.4368E+06     2.98390E+06         25.7434
            2072     13.8000E-03     112.808E-03     218.397E-03     172.163E-03    -463.392E-03     170.434E-03    -461.663E-03     218.397E-03     45.8658E-06     68.9958E-03    -15.2375E-03    -53.7581E-03    -40.7323E-03     55.9699E-03    -15.2375E-03     75.3959E-03     103.866E+06     54.4270E+06     611.146E+03     39.3271E+06     15.7111E+06     103.866E+06     14.3392E+06         27.2528
            2073     14.7604E-03     112.899E-03     208.839E-03     146.833E-03    -429.027E-03     145.049E-03    -427.242E-03     208.839E-03     44.7517E-03     76.6092E-03    -17.1401E-03    -59.4682E-03    -49.2414E-03     66.3824E-03    -17.1401E-03     71.1482E-03     116.592E+06     91.3688E+06    -6.81921E+06     50.5947E+06     38.6753E+06     111.871E+06     35.0699E+06         29.0628
            2074     15.7071E-03     112.986E-03     199.735E-03     133.086E-03    -408.770E-03     132.266E-03    -407.950E-03     199.735E-03     26.2583E-03     86.0466E-03    -19.2376E-03    -66.8089E-03    -59.8235E-03     79.0612E-03    -19.2376E-03     62.6674E-03     133.814E+06     82.5655E+06    -6.30106E+06     33.4057E+06     88.9899E+06     87.6831E+06     33.7962E+06         31.1789
            2075     16.6374E-03     113.045E-03     192.091E-03     108.355E-03    -379.745E-03     108.249E-03    -379.640E-03     192.091E-03     10.9652E-03     92.8066E-03    -21.8052E-03    -71.0018E-03    -68.1154E-03     89.9202E-03    -21.8052E-03     34.1344E-03     87.8448E+06     24.7543E+06    -79.1206E+06     2.15078E+06    -15.1065E+06     46.4341E+06     4.47487E+06         33.3706
            2076     988.951E-06     113.297E-03     161.147E-03     125.876E-03    -314.120E-03     135.462E-03    -300.889E-03     138.330E-03     72.3776E-03     21.2634E-03    -10.1967E-03    -11.0669E-03    -10.1678E-03     21.2242E-03    -11.0567E-03    -2.01263E-03     12.5039E+06    -7.15804E+06    -33.7351E+06     4.07729E+06    -27.8513E+06    -4.61520E+06    -10.3097E+06         21.3615
            2077     1.97941E-03     113.301E-03     190.422E-03     145.558E-03    -357.037E-03     181.278E-03    -347.893E-03     145.558E-03     61.1828E-03     20.4940E-03    -10.0169E-03    -10.4774E-03    -10.0032E-03     20.4701E-03    -10.4671E-03    -1.67789E-03     12.2251E+06    -1.16378E+06    -22.2521E+06    -587.379E+03    -9.43957E+06    -1.16378E+06    -15.2514E+06         21.4273
            2078     2.96984E-03     113.306E-03     201.188E-03     160.539E-03    -360.071E-03     199.078E-03    -357.960E-03     160.539E-03    -2.63218E-03     20.9974E-03    -10.3094E-03    -10.6883E-03    -10.5564E-03     20.9845E-03    -10.4283E-03    -1.02718E-03     11.2327E+06    -1.39595E+06    -31.7009E+06    -8.63802E+06    -13.8563E+06     630.157E+03    -20.0035E+06         21.5056
            2079     3.95891E-03     113.315E-03     222.009E-03     172.316E-03    -376.010E-03     220.479E-03    -374.479E-03     172.316E-03     14.2148E-03     21.7312E-03    -10.5556E-03    -11.1759E-03    -11.1552E-03     21.7105E-03    -10.5556E-03    -21.7758E-06     10.7593E+06    -5.54225E+06    -39.0440E+06    -16.8444E+06    -13.4664E+06    -3.51614E+06    -23.3637E+06         21.5902
            2080     4.94794E-03     113.329E-03     246.603E-03     183.635E-03    -408.238E-03     246.271E-03    -407.905E-03     183.635E-03    -23.7567E-03     22.4094E-03    -10.7657E-03    -11.6440E-03    -11.5819E-03     22.3473E-03    -10.7657E-03     1.53493E-03     9.78681E+06    -5.59038E+06    -47.3373E+06    -23.6527E+06    -14.5937E+06    -4.89445E+06    -27.5812E+06         21.6985
            2081     5.93613E-03     113.350E-03     226.179E-03     191.457E-03    -399.959E-03     225.249E-03    -399.029E-03     191.457E-03    -11.0747E-03     23.4054E-03    -11.0413E-03    -12.3643E-03    -12.1669E-03     23.2079E-03    -11.0413E-03     3.82430E-03     14.5002E+06     2.16027E+06    -50.6126E+06    -27.7058E+06    -9.10262E+06     2.85619E+06    -30.1484E+06         21.8461
            2082     6.92410E-03     113.377E-03     193.990E-03     168.567E-03    -354.703E-03     170.610E-03    -353.900E-03     191.143E-03     9.05787E-03     24.9404E-03    -11.3758E-03    -13.5647E-03    -13.0400E-03     24.4157E-03    -11.3758E-03     7.19167E-03     21.5707E+06     7.46537E+06    -49.7217E+06    -31.4471E+06    -1.48924E+06     12.2508E+06    -29.6161E+06         22.0420
            2083     7.91078E-03     113.413E-03     185.550E-03     155.823E-03    -343.436E-03     155.448E-03    -343.061E-03     185.550E-03    -4.40355E-03     27.2594E-03    -11.7869E-03    -15.4730E-03    -14.2950E-03     26.0814E-03    -11.7869E-03     12.0111E-03     22.2109E+06     5.87689E+06    -59.3851E+06    -40.0337E+06    -7.35565E+06     16.0921E+06    -31.6356E+06         22.2940
            2084     8.89633E-03     113.459E-03     185.820E-03     173.420E-03    -375.397E-03     178.353E-03    -375.080E-03     180.570E-03    -17.1484E-03     30.1936E-03    -12.2585E-03    -17.9355E-03    -15.6522E-03     27.9103E-03    -12.2585E-03     18.3605E-03     19.5528E+06     7.16893E+06    -71.6722E+06    -48.5331E+06    -13.2053E+06     16.7880E+06    -36.7095E+06         22.6025
            2085     9.88059E-03     113.517E-03     181.740E-03     168.746E-03    -384.808E-03     173.141E-03    -383.953E-03     176.491E-03    -26.4919E-03     33.9692E-03    -12.7719E-03    -21.1952E-03    -17.2840E-03     30.0580E-03    -12.7719E-03     26.2441E-03     21.0914E+06     3.58371E+06    -81.8641E+06    -60.0871E+06    -10.8379E+06     13.7361E+06    -38.3953E+06         23.0046
            2086     10.8637E-03     113.585E-03     170.836E-03     153.978E-03    -370.654E-03     151.907E-03    -368.584E-03     170.836E-03    -43.3349E-03     39.1505E-03    -13.4052E-03    -25.7459E-03    -19.8653E-03     33.2698E-03    -13.4052E-03     35.5662E-03     21.3956E+06     731.803E+03    -87.2021E+06    -69.0185E+06    -10.3230E+06     14.2667E+06    -35.2763E+06         23.5913
            2087     11.8423E-03     113.668E-03     163.876E-03     149.738E-03    -364.463E-03     148.029E-03    -362.754E-03     163.876E-03    -42.3571E-03     45.8193E-03    -14.2341E-03    -31.5866E-03    -23.3702E-03     37.6029E-03    -14.2341E-03     46.8000E-03     33.6207E+06     19.6671E+06    -79.3077E+06    -65.7357E+06     6.51151E+06     33.2043E+06    -31.3295E+06         24.4402
            2088     12.8163E-03     113.760E-03     156.377E-03     140.344E-03    -345.614E-03     139.637E-03    -344.907E-03     156.377E-03    -34.2973E-03     54.7619E-03    -15.2738E-03    -39.4906E-03    -28.7642E-03     44.0355E-03    -15.2738E-03     59.6533E-03     52.5139E+06     18.2835E+06    -64.9063E+06    -51.3879E+06     5.18147E+06     52.0975E+06    -23.2049E+06         25.5713
            2089     13.7842E-03     113.861E-03     147.940E-03     119.602E-03    -317.752E-03     118.170E-03    -316.320E-03     147.940E-03     94.0412E-06     64.8043E-03    -16.5570E-03    -48.2531E-03    -36.3476E-03     52.8988E-03    -16.5570E-03     69.2320E-03     66.4744E+06     28.0185E+06    -58.0566E+06    -28.1337E+06    -360.499E+03     64.9304E+06    -11.7633E+06         26.9730
            2090     14.7389E-03     113.966E-03     139.645E-03     109.181E-03    -301.180E-03     106.965E-03    -298.440E-03     139.120E-03     17.1292E-03     72.2105E-03    -18.1026E-03    -54.1104E-03    -43.1611E-03     61.2611E-03    -18.1026E-03     70.5985E-03     86.1729E+06     49.3473E+06    -50.5826E+06     4.49350E+06     535.468E+03     79.9086E+06     10.5320E+06         28.6427
            2091     15.6959E-03     114.057E-03     131.442E-03     99.0335E-03    -277.360E-03     96.9417E-03    -274.743E-03     130.917E-03    -8.84949E-03     79.5888E-03    -19.7758E-03    -59.8148E-03    -50.5101E-03     70.2841E-03    -19.7758E-03     68.9669E-03     153.045E+06     78.8084E+06    -5.29625E+06     38.6020E+06     87.6484E+06     100.306E+06     40.5018E+06         30.5750
            2092     16.6504E-03     114.142E-03     123.777E-03     67.9757E-03    -242.578E-03     65.4849E-03    -240.087E-03     123.777E-03    -28.1730E-03     90.0719E-03    -21.8777E-03    -68.1958E-03    -63.7230E-03     85.5991E-03    -21.8777E-03     41.9767E-03     142.339E+06     68.3066E+06    -60.8894E+06     49.8583E+06     22.0598E+06     77.8384E+06     36.9416E+06         32.5695
            2093     985.476E-06     114.322E-03     126.933E-03     90.3586E-03    -216.979E-03     94.0528E-03    -203.753E-03     110.013E-03     111.638E-03     27.2717E-03    -12.9846E-03    -14.2872E-03    -13.4494E-03     27.2195E-03    -13.7703E-03    -2.75946E-03     42.6361E+06     21.3825E+06    -14.0363E+06     34.2000E+06    -9.60060E+06     25.3830E+06    -13.3876E+06         21.7115
            2094     1.97377E-03     114.323E-03     122.282E-03     89.0120E-03    -189.635E-03     98.2610E-03    -177.811E-03     101.208E-03     59.4689E-03     26.7003E-03    -13.0617E-03    -13.6386E-03    -13.2210E-03     26.6785E-03    -13.4574E-03    -1.76433E-03     25.3808E+06     14.7027E+06    -7.51789E+06     21.1065E+06    -3.24359E+06     14.7027E+06    -8.62483E+06         21.7697
            2095     2.96051E-03     114.331E-03     126.404E-03     100.839E-03    -193.443E-03     121.587E-03    -190.960E-03     103.172E-03     13.0958E-03     27.7674E-03    -13.4987E-03    -14.2688E-03    -14.1873E-03     27.7504E-03    -13.5633E-03    -1.66349E-03     22.0523E+06     15.1107E+06    -9.83482E+06     11.3459E+06    -3.81099E+06     19.7932E+06    -9.35489E+06         21.8610
            2096     3.94583E-03     114.340E-03     163.429E-03     111.861E-03    -232.934E-03     161.486E-03    -230.991E-03     111.861E-03     33.1765E-03     29.2202E-03    -13.9282E-03    -15.2923E-03    -15.2740E-03     29.2018E-03    -13.9282E-03    -1.79409E-03     27.5862E+06     13.4498E+06    -14.7265E+06     5.88621E+06    -5.16682E+06     25.5901E+06    -12.4036E+06         21.9696
            2097     4.93035E-03     114.356E-03     174.225E-03     121.386E-03    -246.892E-03     172.930E-03    -246.439E-03     122.229E-03    -12.8793E-03     30.6601E-03    -14.3687E-03    -16.2913E-03    -16.2733E-03     30.6420E-03    -14.3687E-03    -1.51820E-03     28.1280E+06     12.0427E+06    -19.5285E+06    -281.483E+03    -5.20832E+06     26.1320E+06    -15.7644E+06         22.0971
            2098     5.91401E-03     114.377E-03     150.368E-03     126.802E-03    -230.544E-03     148.744E-03    -229.763E-03     127.645E-03    -32.3995E-03     32.2645E-03    -14.8675E-03    -17.3969E-03    -17.3753E-03     32.2428E-03    -14.8675E-03    -823.628E-06     27.7183E+06     10.8056E+06    -26.1797E+06    -8.89436E+06    -5.01882E+06     26.2574E+06    -18.3033E+06         22.2501
            2099     6.89610E-03     114.405E-03     131.492E-03     112.292E-03    -205.494E-03     115.821E-03    -204.206E-03     126.674E-03    -1.08977E-03     34.0648E-03    -15.4385E-03    -18.6250E-03    -18.5721E-03     34.0120E-03    -15.4385E-03     239.362E-06     32.6935E+06     10.5396E+06    -28.0425E+06    -16.4945E+06     452.496E+03     31.2326E+06    -16.8581E+06         22.4349
            2100     7.87711E-03     114.443E-03     123.268E-03     94.6514E-03    -185.879E-03     92.6645E-03    -182.292E-03     121.668E-03    -11.7025E-03     35.8583E-03    -16.0714E-03    -19.7872E-03    -19.6499E-03     35.7210E-03    -16.0714E-03     1.99708E-03     38.4255E+06     7.39550E+06    -30.3076E+06    -21.9082E+06    -1.00386E+06     38.4255E+06    -15.1434E+06         22.6575
            2101     8.85665E-03     114.490E-03     116.189E-03     90.1361E-03    -188.526E-03     88.0590E-03    -185.633E-03     115.374E-03    -35.0915E-03     37.7461E-03    -16.7174E-03    -21.0297E-03    -20.7066E-03     37.4229E-03    -16.7174E-03     4.26805E-03     41.0143E+06     4.25530E+06    -40.7567E+06    -31.2877E+06    -5.21375E+06     41.0143E+06    -17.3514E+06         22.9176
            2102     9.83589E-03     114.547E-03     109.891E-03     88.8235E-03    -199.738E-03     87.8622E-03    -197.962E-03     109.075E-03    -9.93009E-03     39.7447E-03    -17.3629E-03    -22.3820E-03    -21.7209E-03     39.0835E-03    -17.3629E-03     6.96797E-03     40.0954E+06     2.22804E+06    -49.3620E+06    -39.3583E+06    -7.77573E+06     40.0954E+06    -18.6100E+06         23.2258
            2103     10.8128E-03     114.619E-03     102.527E-03     85.4831E-03    -201.634E-03     81.6565E-03    -197.808E-03     102.527E-03    -16.9012E-03     41.2527E-03    -17.9835E-03    -23.2717E-03    -22.0342E-03     40.0153E-03    -17.9835E-03     11.0395E-03     38.7487E+06     6.38013E+06    -55.7106E+06    -43.4592E+06    -5.87121E+06     38.7487E+06    -21.7900E+06         23.6741
            2104     11.7907E-03     114.701E-03     95.0602E-03     70.0124E-03    -190.331E-03     67.5297E-03    -187.848E-03     95.0602E-03    -22.5492E-03     43.6137E-03    -18.5717E-03    -25.0403E-03    -22.6541E-03     41.2276E-03    -18.5717E-03     17.3722E-03     38.0939E+06     12.3047E+06    -60.0964E+06    -50.3532E+06     2.97803E+06     37.6774E+06    -21.3974E+06         24.4027
            2105     12.7705E-03     114.797E-03     86.3766E-03     55.0458E-03    -173.892E-03     54.4352E-03    -173.282E-03     86.3766E-03    -15.0238E-03     47.9809E-03    -19.1953E-03    -28.7861E-03    -24.6940E-03     43.8888E-03    -19.1953E-03     25.5866E-03     30.5833E+06     7.81580E+06    -70.7357E+06    -63.7131E+06     1.20968E+06     30.1668E+06    -18.3832E+06         25.4450
            2106     13.7441E-03     114.909E-03     76.9880E-03     49.0798E-03    -156.787E-03     46.5613E-03    -154.269E-03     76.9880E-03     539.035E-06     51.5926E-03    -18.3464E-03    -33.2522E-03    -26.0369E-03     45.8782E-03    -19.8474E-03     34.6313E-03     20.6030E+06    -1.20699E+06    -84.7806E+06    -77.3298E+06    -7.11395E+06     19.0590E+06    -17.2821E+06         26.7324
            2107     14.7191E-03     115.022E-03     68.6039E-03     54.4019E-03    -149.241E-03     51.6968E-03    -146.011E-03     68.0790E-03    -14.5639E-03     56.6148E-03    -19.0723E-03    -37.5461E-03    -29.6045E-03     50.1742E-03    -20.5732E-03     42.4948E-03     26.5794E+06    -13.0148E+06    -83.0442E+06    -73.9023E+06    -15.2451E+06     19.6679E+06    -18.9131E+06         28.2713
            2108     15.6839E-03     115.120E-03     61.7292E-03     49.1274E-03    -141.806E-03     46.6473E-03    -137.699E-03     60.1021E-03    -19.3551E-03     66.8904E-03    -21.6009E-03    -45.2914E-03    -39.3150E-03     60.9139E-03    -21.6009E-03     46.4047E-03     74.5165E+06     19.0888E+06    -58.4792E+06    -48.7352E+06     35.6948E+06     48.1664E+06     1.12924E+06         30.0426
            2109     16.6344E-03     115.222E-03     54.4169E-03     31.4398E-03    -118.789E-03     24.1671E-03    -110.414E-03     53.3147E-03    -7.97582E-03     74.2452E-03    -22.9164E-03    -51.3299E-03    -48.4193E-03     71.3347E-03    -22.9164E-03     25.3053E-03     90.4615E+06     32.9130E+06    -76.4944E+06    -13.8818E+06     20.2692E+06     40.4927E+06     33.9339E+06         31.8138


