********************************************************************************
Field Output Report, written Tue May  6 11:36:49 2025

Source 1
---------

   ODB: D:/AISI_1020/Vel_20/1020_2a_32_rd_500_cal_50_v_20_f_0100.odb
   Step: Step-1
   Frame: Increment   4867170: Step Time =   0.6069

Loc 1 : Nodal values from source 1

Output sorted by column "Node Label".

Field Output reported at nodes for region: DIE_2A_32_D0_36-1.Region_1
   Computation algorithm: EXTRAPOLATE_COMPUTE_AVERAGE
   Averaged at nodes
   Averaging regions: ODB_REGIONS

      Node Label     COORD.COOR1     COORD.COOR2
                          @Loc 1          @Loc 1
-------------------------------------------------
               1     21.8134E-03     174.107E-03


Field Output reported at nodes for region: DIE_2A_32_D0_36-1.Region_2
   Computation algorithm: EXTRAPOLATE_COMPUTE_AVERAGE
   Averaged at nodes
   Averaging regions: ODB_REGIONS

      Node Label     COORD.COOR1     COORD.COOR2
                          @Loc 1          @Loc 1
-------------------------------------------------
               1     21.8134E-03     174.107E-03


Field Output reported at nodes for part: WIRE_1-1
   Computation algorithm: EXTRAPOLATE_COMPUTE_AVERAGE
   Averaged at nodes
   Averaging regions: ODB_REGIONS

      Node Label     COORD.COOR1     COORD.COOR2    ER.Max. Prin    ER.Mid. Prin    ER.Min. Prin         ER.ER11         ER.ER22         ER.ER33         ER.ER12    PE.Max. Prin    PE.Mid. Prin    PE.Min. Prin         PE.PE11         PE.PE22         PE.PE33         PE.PE12     S.Max. Prin     S.Mid. Prin     S.Min. Prin           S.S11           S.S22           S.S33           S.S12            TEMP
                          @Loc 1          @Loc 1          @Loc 1          @Loc 1          @Loc 1          @Loc 1          @Loc 1          @Loc 1          @Loc 1          @Loc 1          @Loc 1          @Loc 1          @Loc 1          @Loc 1          @Loc 1          @Loc 1          @Loc 1          @Loc 1          @Loc 1          @Loc 1          @Loc 1          @Loc 1          @Loc 1          @Loc 1
-----------------------------------------------------------------------------------------------------------------------------------------------------------------------------------------------------------------------------------------------------------------------------------------------------------------------------------------------------------------------------------------------------------------
               1     16.9658E-03     62.8697E-03         2.59294    -744.233E-03    -760.094E-03    -759.810E-03         2.59265    -744.233E-03     55.5054E-03     171.408E-03    -60.2494E-03    -111.201E-03    -63.2416E-03     123.449E-03    -60.2494E-03     212.167E-03     152.475E+06     146.984E+06    -4.69955E+06    -4.68651E+06     152.462E+06     146.984E+06      838.27E+03         65.6679
               2     1.06861E-06     61.9180E-03         6.25926        -1.37856        -3.77481         2.23396         2.64673        -3.77481        -7.62664     120.460E-03    -59.8624E-03    -60.6000E-03    -60.5989E-03     120.459E-03    -59.8624E-03    -899.801E-06    -76.9161E+06    -78.8582E+06    -279.684E+06    -77.8306E+06    -279.678E+06    -77.9500E+06     665.436E+03         29.2929
               3     478.908E-09     59.6046E-09         3.53652    -859.613E-03        -1.06069        -1.06069         3.53652    -859.613E-03     4.63578E-03     265.153E-03    -132.261E-03    -132.898E-03    -132.898E-03     265.152E-03    -132.261E-03     465.753E-06    -66.0249E+06    -67.9683E+06    -269.927E+06    -66.2608E+06    -269.691E+06    -67.9683E+06    -6.93079E+06         40.6567
               4     16.5193E-03     59.6046E-09         4.30484        -1.03233        -1.26461        -1.25843         4.29866        -1.03233     370.797E-03     339.342E-03    -78.0525E-03    -261.919E-03    -229.010E-03     306.432E-03    -78.0525E-03     273.527E-03     154.981E+06     154.234E+06     15.9272E+06     29.5976E+06     141.311E+06     154.234E+06     41.4010E+06         55.4902
               5     16.2503E-03     125.801E-03     34.4985E-03    -479.981E-06    -58.9793E-03    -297.904E-06     34.3165E-03    -58.9793E-03     5.03413E-03     43.5733E-03     41.1518E-03    -84.7281E-03     42.3398E-03     42.3853E-03    -84.7281E-03     2.42109E-03     36.8148E+06    -30.0452E+06    -48.7014E+06     33.7051E+06    -26.9355E+06    -48.7014E+06     14.0801E+06         57.8801
               6     3.19561E-06     122.312E-03     48.5358E-03    -24.0549E-03    -126.315E-03    -91.9354E-03     14.1564E-03    -24.0549E-03    -138.987E-03     53.1268E-03    -25.8436E-03    -27.2842E-03    -27.2736E-03     53.1162E-03    -25.8436E-03    -1.84798E-03     88.9064E+06     80.8182E+06     4.98611E+06     79.4009E+06     6.40337E+06     88.9064E+06    -10.2696E+06         23.3701
               7     16.0200E-03     62.6266E-03         2.59138    -739.803E-03    -760.578E-03    -755.015E-03         2.59119    -745.174E-03     9.54596E-03     184.349E-03    -60.2473E-03    -124.186E-03    -66.0342E-03     126.196E-03    -60.2473E-03     240.945E-03     139.207E+06     134.834E+06    -9.65641E+06    -9.64752E+06     139.198E+06     134.834E+06     222.217E+03         63.9197
               8     15.0774E-03     62.3134E-03         2.58936    -739.848E-03    -757.331E-03    -749.936E-03         2.58920    -747.077E-03     8.53557E-03     174.778E-03    -60.2132E-03    -114.619E-03    -65.2013E-03     125.360E-03    -60.2132E-03     215.602E-03     115.884E+06     110.664E+06    -17.1509E+06    -17.0965E+06     115.829E+06     110.664E+06    -1.83971E+06         59.5949
               9     14.1355E-03     62.1356E-03         2.59625    -744.557E-03    -758.373E-03    -754.301E-03         2.59598    -748.362E-03    -5.05173E-03     138.993E-03    -60.0701E-03    -78.9298E-03    -59.7539E-03     119.817E-03    -60.0701E-03     118.739E-03     101.080E+06     76.9530E+06    -24.8992E+06    -24.8004E+06     100.981E+06     76.9530E+06    -2.23603E+06         54.2845
              10     13.1900E-03     62.0527E-03         2.60496    -746.169E-03    -761.889E-03    -759.272E-03         2.60477    -748.602E-03    -16.6131E-03     124.091E-03    -59.9100E-03    -64.2440E-03    -58.3268E-03     118.173E-03    -59.9100E-03     64.8219E-03     94.3494E+06     37.3283E+06    -31.5308E+06    -31.4102E+06     94.2288E+06     37.3283E+06    -692.073E+03         49.1170
              11     12.2481E-03     61.9920E-03         2.60007    -744.769E-03    -757.517E-03    -753.755E-03         2.60003    -748.496E-03     17.4765E-03     120.784E-03    -59.6121E-03    -61.2258E-03    -58.5794E-03     118.308E-03    -59.7820E-03     40.0182E-03     88.9466E+06     3.33456E+06    -32.8372E+06    -32.7622E+06     88.8716E+06     3.33456E+06     141.983E+03         44.5583
              12     11.3051E-03     61.9651E-03         2.59336    -740.860E-03    -753.073E-03    -745.237E-03         2.59335    -748.693E-03     293.201E-06     119.049E-03    -59.2528E-03    -59.8167E-03    -58.6093E-03     118.379E-03    -59.7896E-03     21.2022E-03     44.7050E+06    -9.94625E+06    -33.6038E+06    -33.5636E+06     44.6647E+06    -9.94625E+06     740.753E+03         40.6268
              13     10.3626E-03     61.9479E-03         2.59910    -744.138E-03    -754.667E-03    -749.767E-03         2.59900    -748.942E-03    -14.3240E-03     119.167E-03    -59.2725E-03    -59.9228E-03    -58.8990E-03     118.794E-03    -59.9228E-03     16.3092E-03     -4.4141E+06    -21.3337E+06    -45.3686E+06    -35.0539E+06    -26.1231E+06    -9.93948E+06    -30.9442E+03         37.3475
              14     9.42049E-03     61.9312E-03         2.60278    -748.531E-03    -755.427E-03    -754.458E-03         2.60202    -748.742E-03     46.9514E-03     119.382E-03    -59.4094E-03    -60.0027E-03    -59.1532E-03     119.126E-03    -60.0027E-03     13.0384E-03    -15.0425E+06    -38.0248E+06    -80.4769E+06    -38.1331E+06    -80.3686E+06    -15.0425E+06    -172.480E+03         34.7535
              15     8.47746E-03     61.9209E-03         2.59879    -746.310E-03    -752.784E-03    -748.797E-03         2.59702    -748.536E-03    -26.4061E-03     119.425E-03    -59.3645E-03    -60.0944E-03    -59.2748E-03     119.335E-03    -60.0944E-03     7.82067E-03    -16.2547E+06    -42.4616E+06    -121.422E+06    -42.4741E+06    -121.410E+06    -16.2547E+06     722.531E+03         32.8885
              16     7.53543E-03     61.9158E-03         2.59696    -743.585E-03    -752.325E-03    -744.392E-03         2.59430    -748.855E-03     16.5471E-03     119.542E-03    -59.3674E-03    -60.2025E-03    -59.3288E-03     119.504E-03    -60.2025E-03     5.13301E-03    -17.7126E+06    -46.3789E+06    -157.477E+06    -46.3846E+06    -157.471E+06    -17.7126E+06     123.913E+03         31.6888
              17     6.59273E-03     61.9121E-03         2.59882    -743.078E-03    -753.903E-03    -743.290E-03         2.59474    -749.613E-03    -27.4138E-03     119.917E-03    -59.6506E-03    -60.2898E-03    -59.6367E-03     119.903E-03    -60.2898E-03     2.87590E-03    -21.6535E+06    -51.1090E+06    -196.888E+06    -51.1236E+06    -196.873E+06    -21.6535E+06     567.360E+03         30.9331
              18     5.65064E-03     61.9110E-03         2.61288    -746.348E-03    -764.505E-03    -752.660E-03         2.60453    -749.840E-03     69.2236E-03     120.257E-03    -59.9482E-03    -60.3302E-03    -59.9460E-03     120.255E-03    -60.3302E-03     1.05720E-03    -27.6608E+06    -56.4026E+06    -223.297E+06    -56.4268E+06    -223.273E+06    -27.6608E+06     1.74126E+06         30.4222
              19     4.70903E-03     61.9108E-03         2.62144    -748.920E-03    -775.883E-03    -755.772E-03         2.60133    -748.920E-03    -110.937E-03     120.347E-03    -60.0482E-03    -60.3242E-03    -60.0479E-03     120.346E-03    -60.3242E-03     4.47692E-06    -37.4789E+06    -61.5508E+06    -241.913E+06    -61.5626E+06    -241.901E+06    -37.4789E+06     1.26109E+06         30.0453
              20     3.76730E-03     61.9119E-03         2.64305    -747.895E-03    -804.238E-03    -750.564E-03         2.58937    -747.895E-03     209.248E-03     120.312E-03    -60.0085E-03    -60.3338E-03    -60.0078E-03     120.311E-03    -60.3338E-03    -676.955E-06    -47.5468E+06    -65.8967E+06    -258.825E+06    -65.8982E+06    -258.823E+06    -47.5468E+06     400.856E+03         29.7550
              21     2.82482E-03     61.9134E-03         2.72678    -747.832E-03    -891.009E-03    -746.135E-03         2.58191    -747.832E-03    -341.717E-03     120.408E-03    -60.0659E-03    -60.3596E-03    -60.0649E-03     120.406E-03    -60.3593E-03    -970.810E-06    -58.2533E+06    -69.5634E+06    -267.748E+06    -69.5668E+06    -267.745E+06    -58.2533E+06     450.600E+03         29.5456
              22     1.88337E-03     61.9151E-03         2.99951    -752.630E-03        -1.15677    -734.493E-03         2.57723    -752.630E-03     719.562E-03     120.674E-03    -60.2676E-03    -60.4129E-03    -60.3255E-03     120.673E-03    -60.3538E-03    -904.184E-06    -66.7259E+06    -72.2756E+06    -273.503E+06    -72.2849E+06    -273.493E+06    -66.7259E+06     925.899E+03         29.4063
              23     941.673E-06     61.9154E-03         4.73632        -1.06786        -2.56830     752.897E-03         2.61325        -2.26598        -2.23299     120.628E-03    -60.1016E-03    -60.5292E-03    -60.5281E-03     120.627E-03    -60.1016E-03    -834.440E-06    -73.1506E+06    -75.9729E+06    -277.324E+06    -75.4652E+06    -277.315E+06    -73.6676E+06     881.470E+03         29.3225
              24    -976.065E-09     60.7896E-03         6.49330        -1.30686        -4.06862         2.51673         2.66971        -4.06862        -7.79353     120.609E-03    -60.1286E-03    -60.4801E-03    -60.4776E-03     120.606E-03    -60.1286E-03    -1.24954E-03    -73.5105E+06    -75.3936E+06    -275.225E+06    -74.3674E+06    -275.218E+06    -74.5445E+06     1.19627E+06         29.2914
              25     1.53368E-06     59.6637E-03         6.66294        -1.25542        -4.28167         2.81544         2.59209        -4.28167        -7.91470     120.585E-03    -59.8943E-03    -60.6905E-03    -60.6880E-03     120.583E-03    -59.8943E-03    -1.24039E-03    -75.8855E+06    -79.4951E+06    -276.851E+06    -76.7682E+06    -276.818E+06    -78.6461E+06     2.19999E+06         29.2878
              26    -626.770E-09     58.5359E-03         6.86742        -1.17880        -4.54089         3.02853         2.66009        -4.54089        -8.03761     120.480E-03    -59.9365E-03    -60.5452E-03    -60.5436E-03     120.478E-03    -59.9365E-03    -1.02872E-03    -76.9580E+06    -83.1200E+06    -278.046E+06    -80.3919E+06    -278.013E+06    -79.7185E+06     1.57562E+06         29.2900
              27     873.582E-09     57.4099E-03         7.08140        -1.11633        -4.79300         3.23583         2.72924        -4.79300        -8.18170     120.484E-03    -60.0743E-03    -60.4137E-03    -60.4125E-03     120.482E-03    -60.0743E-03    -720.129E-06    -74.5297E+06    -78.8981E+06    -274.449E+06    -78.0061E+06    -274.375E+06    -75.4966E+06    -2.94188E+06         29.2907
              28    -446.852E-09     56.2811E-03         7.21109        -1.04620        -4.97937         3.36791         2.79698        -4.97937        -8.23751     120.390E-03    -59.9770E-03    -60.4174E-03    -60.4173E-03     120.389E-03    -59.9770E-03    -182.107E-06    -73.9154E+06    -76.3538E+06    -272.972E+06    -73.9898E+06    -272.898E+06    -76.3538E+06    -2.76179E+06         29.2833
              29     808.949E-09     55.1556E-03         7.21406    -910.079E-03        -5.10346         3.48534         2.81863        -5.10346        -8.09581     120.251E-03    -59.8482E-03    -60.4051E-03    -60.4046E-03     120.251E-03    -59.8482E-03    -527.367E-06    -74.6145E+06    -77.2027E+06    -274.153E+06    -75.7738E+06    -274.110E+06    -76.0860E+06     2.01442E+06         29.2718
              30    -129.420E-09     54.0294E-03         7.10593    -730.199E-03        -5.16238         3.56281         2.81292        -5.16238        -7.80015     120.001E-03    -59.7821E-03    -60.2180E-03    -60.1296E-03     119.999E-03    -59.8687E-03    -1.10779E-03    -76.5180E+06    -79.4793E+06    -275.823E+06    -77.6855E+06    -275.773E+06    -78.3626E+06     1.15492E+06         29.2608
              31    -64.8186E-09     52.9034E-03         6.93914    -495.594E-03        -5.21238         3.52665         2.91689        -5.21238        -7.40910     120.066E-03    -59.8168E-03    -60.2496E-03    -60.1611E-03     120.064E-03    -59.9034E-03    -1.16289E-03    -76.3239E+06    -79.5859E+06    -275.863E+06    -77.7583E+06    -275.846E+06    -78.1684E+06     34.8259E+03         29.2543
              32     735.355E-09     51.7765E-03         6.72067    -301.356E-03        -5.17371         3.51304         2.90627        -5.17371        -6.99464     120.434E-03    -59.8099E-03    -60.6269E-03    -60.6250E-03     120.432E-03    -59.8099E-03    -1.12491E-03    -75.6891E+06    -78.6479E+06    -276.137E+06    -77.1157E+06    -276.127E+06    -77.2304E+06     1.12878E+06         29.2509
              33     121.752E-09     50.6498E-03         6.34769    -27.0591E-03        -5.07132         3.47126         2.84937        -5.07132        -6.34415     120.028E-03    -59.7080E-03    -60.3259E-03    -60.3237E-03     120.025E-03    -59.7080E-03    -1.26430E-03    -75.3521E+06    -77.9372E+06    -274.554E+06    -76.3968E+06    -274.553E+06    -76.8934E+06     424.976E+03         29.2439
              34     167.231E-09     49.5235E-03         5.91827     366.944E-03        -5.01958         3.21930         3.06591        -5.01958        -5.53682     119.783E-03    -59.7732E-03    -60.0188E-03    -60.0178E-03     119.782E-03    -59.7732E-03    -545.517E-06    -76.1415E+06    -78.3666E+06    -274.382E+06    -78.4185E+06    -274.330E+06    -76.1415E+06    -2.01224E+06         29.2390
              35     30.6342E-09     48.3970E-03         5.41961     715.819E-03        -4.85655         2.97076         3.16467        -4.85655        -4.69976     120.379E-03    -59.8756E-03    -60.5066E-03    -60.5060E-03     120.379E-03    -59.8756E-03    -421.816E-06    -72.9094E+06    -76.1598E+06    -272.604E+06    -74.1438E+06    -272.551E+06    -74.9785E+06    -2.65547E+06         29.2419
              36     934.299E-09     47.2699E-03         4.79269         1.07637        -4.58841         2.82790         3.04115        -4.58841        -3.70917     120.291E-03    -59.7032E-03    -60.5860E-03    -60.5840E-03     120.289E-03    -59.7032E-03    -1.18505E-03    -76.0972E+06    -79.2091E+06    -278.904E+06    -77.1798E+06    -278.864E+06    -78.1663E+06     1.55038E+06         29.2429
              37    -266.189E-09     46.1452E-03         4.15250         1.49662        -4.36848         2.52916         3.11996        -4.36848        -2.54879     120.131E-03    -59.7167E-03    -60.4128E-03    -60.4113E-03     120.129E-03    -59.7167E-03    -923.540E-06    -79.2998E+06    -80.7308E+06    -281.818E+06    -80.7815E+06    -281.768E+06    -79.2998E+06     842.429E+03         29.2441
              38     911.881E-09     45.0163E-03         3.60218         1.77049        -4.07131         2.18995         3.18272        -4.07131        -1.50518     120.627E-03    -59.9618E-03    -60.6679E-03    -60.6676E-03     120.627E-03    -59.9618E-03    -482.202E-06    -75.5136E+06    -76.7345E+06    -276.486E+06    -75.9176E+06    -276.471E+06    -76.3463E+06    -550.587E+03         29.2497
              39    -243.829E-09     43.8908E-03         3.26254         1.80152        -3.73101         1.91102         3.15304        -3.73101    -436.692E-03     120.312E-03    -59.9451E-03    -60.3710E-03    -60.3048E-03     120.312E-03    -60.0108E-03    -645.451E-06    -76.6278E+06    -78.0455E+06    -276.219E+06    -77.2162E+06    -276.216E+06    -77.4605E+06     692.127E+03         29.2460
              40     113.093E-09     42.7626E-03         3.43036         1.39772        -3.47777         1.54095         3.28712        -3.47777     901.591E-03     119.572E-03    -59.5975E-03    -59.9791E-03    -59.9126E-03     119.571E-03    -59.6632E-03    -798.249E-06    -78.3444E+06    -79.4455E+06    -276.732E+06    -78.9363E+06    -276.725E+06    -78.8605E+06     941.315E+03         29.2350
              41     483.082E-09     41.6393E-03         3.82054     651.953E-03        -3.10424         1.13548         3.33701        -3.10424         2.25146     119.754E-03    -59.6605E-03    -60.0970E-03    -60.0965E-03     119.753E-03    -59.6605E-03    -477.157E-06    -78.1975E+06    -80.2038E+06    -278.276E+06    -79.7076E+06    -278.257E+06    -78.7136E+06    -318.486E+03         29.2368
              42    -234.958E-09     40.5110E-03         4.20160    -117.761E-03        -2.72227     734.127E-03         3.34971        -2.72227         3.43563     120.327E-03    -60.0538E-03    -60.2754E-03    -60.2750E-03     120.327E-03    -60.0538E-03    -452.251E-06    -75.0782E+06    -78.3091E+06    -274.529E+06    -76.6234E+06    -274.474E+06    -76.8188E+06    -3.17121E+06         29.2547
              43     400.400E-09     39.3851E-03         4.64627    -866.963E-03        -2.42283     317.431E-03         3.46188        -2.42283         4.52732     120.645E-03    -60.0279E-03    -60.6177E-03    -60.6170E-03     120.644E-03    -60.0279E-03    -692.524E-06    -74.9887E+06    -77.0098E+06    -273.902E+06    -75.0336E+06    -273.857E+06    -77.0098E+06    -1.48113E+06         29.2740
              44     516.797E-09     38.2579E-03         4.91469        -1.44464        -2.10852    -19.1593E-03         3.33139        -1.95069         5.58198     121.019E-03    -60.1240E-03    -60.8950E-03    -60.8944E-03     121.019E-03    -60.1240E-03    -661.637E-06    -76.2359E+06    -76.5796E+06    -274.761E+06    -76.2799E+06    -274.717E+06    -76.5796E+06     2.55817E+06         29.2826
              45     10.6310E-09     37.1298E-03         5.15453        -1.49684        -2.29022    -405.868E-03         3.27018        -1.49684         6.47256     120.843E-03    -60.2795E-03    -60.5621E-03    -60.5613E-03     120.842E-03    -60.2795E-03    -803.674E-06    -74.3368E+06    -75.1751E+06    -271.663E+06    -75.1722E+06    -271.603E+06    -74.3999E+06     628.093E+03         29.2812
              46    -7.94958E-09     36.0033E-03         5.51544        -1.23472        -2.89920    -855.778E-03         3.47201        -1.23472         7.21616     120.150E-03    -59.8630E-03    -60.2870E-03    -60.2855E-03     120.148E-03    -59.8630E-03    -1.01466E-03    -75.9200E+06    -78.1718E+06    -274.472E+06    -76.7145E+06    -274.452E+06    -77.3966E+06    -1.33023E+06         29.2755
              47     778.163E-09     34.8775E-03         5.74913    -914.670E-03        -3.43963        -1.24390         3.55340    -914.670E-03         7.83700     120.337E-03    -59.6217E-03    -60.7141E-03    -60.7130E-03     120.335E-03    -59.6217E-03    -770.267E-06    -77.3203E+06    -79.6201E+06    -276.177E+06    -78.1978E+06    -276.122E+06    -78.7969E+06     2.35867E+06         29.2678
              48     487.968E-09     33.7497E-03         5.83898    -546.315E-03        -3.87958        -1.55683         3.51623    -546.315E-03         8.28939     120.742E-03    -59.9855E-03    -60.7573E-03    -60.7562E-03     120.741E-03    -59.9855E-03    -793.937E-06    -76.7038E+06    -78.9359E+06    -275.597E+06    -78.9902E+06    -275.542E+06    -76.7038E+06     2.23853E+06         29.2609
              49    -282.535E-09     32.6231E-03         5.96766    -295.095E-03        -4.22681        -1.75988         3.50073    -295.095E-03         8.73218     120.289E-03    -60.0940E-03    -60.1985E-03    -60.1967E-03     120.287E-03    -60.0940E-03    -1.14894E-03    -75.0282E+06    -77.7006E+06    -275.123E+06    -76.4443E+06    -275.116E+06    -76.2918E+06    -924.338E+03         29.2543
              50     260.691E-09     31.4967E-03         6.01920    -47.9560E-03        -4.55029        -2.01701         3.48591    -47.9560E-03         9.02339     119.799E-03    -59.8085E-03    -59.9923E-03    -59.9906E-03     119.797E-03    -59.8085E-03    -1.11749E-03    -73.7793E+06    -76.0132E+06    -273.276E+06    -73.7877E+06    -273.268E+06    -76.0132E+06    -512.420E+03         29.2499
              51     62.4527E-09     30.3710E-03         6.00957     149.487E-03        -4.73512        -2.26561         3.54006     149.487E-03         9.03998     119.958E-03    -59.5273E-03    -60.4302E-03    -60.4279E-03     119.955E-03    -59.5273E-03    -1.28834E-03    -74.9904E+06    -78.2858E+06    -274.215E+06    -77.3253E+06    -274.206E+06    -75.9607E+06     1.25950E+06         29.2468
              52     1.32138E-06     29.2449E-03         5.91197     278.652E-03        -4.74586        -2.39220         3.55831     278.652E-03         8.84158     120.272E-03    -59.7496E-03    -60.5259E-03    -60.4687E-03     120.270E-03    -59.8054E-03    -787.318E-06    -76.3235E+06    -80.1020E+06    -276.203E+06    -78.6815E+06    -276.171E+06    -77.7768E+06    -635.594E+03         29.2387
              53    -1.45026E-06     28.1170E-03         5.82918     401.227E-03        -4.79092        -2.48665         3.52491     401.227E-03         8.75487     120.080E-03    -59.9681E-03    -60.1164E-03    -60.0589E-03     120.078E-03    -60.0239E-03    -852.267E-06    -77.7520E+06    -79.9102E+06    -275.949E+06    -78.4854E+06    -275.920E+06    -79.2054E+06    -908.160E+03         29.2289
              54     1.62621E-06     26.9922E-03         5.79470     444.346E-03        -4.76980        -2.58840         3.61331     444.346E-03         8.54851     119.748E-03    -59.5625E-03    -60.1900E-03    -60.1882E-03     119.746E-03    -59.5625E-03    -595.647E-06    -77.9846E+06    -80.1734E+06    -275.030E+06    -78.6940E+06    -275.026E+06    -79.4686E+06     800.840E+03         29.2250
              55    -650.239E-09     25.8647E-03         5.55011     501.496E-03        -4.57706        -2.62265         3.59571     501.496E-03         7.99278     119.896E-03    -59.6101E-03    -60.2935E-03    -60.1450E-03     119.896E-03    -59.7585E-03     149.251E-06    -74.0450E+06    -76.8535E+06    -270.535E+06    -75.3729E+06    -270.532E+06    -75.5290E+06    -397.578E+03         29.2273
              56     386.948E-09     24.7390E-03         5.28423     507.553E-03        -4.33598        -2.59498         3.54323     507.553E-03         7.40418     120.086E-03    -59.5785E-03    -60.5074E-03    -60.3573E-03     120.084E-03    -59.7269E-03    -812.807E-06    -75.9601E+06    -78.5265E+06    -272.478E+06    -77.2931E+06    -272.470E+06     -77.202E+06    -1.27640E+06         29.2249
              57     1.06014E-06     23.6121E-03         5.12956     401.617E-03        -4.06735        -2.59298         3.65518     401.617E-03         6.74203     119.251E-03    -59.0363E-03    -60.2088E-03    -60.2068E-03     119.249E-03    -59.0363E-03    -1.14327E-03    -80.4637E+06    -84.1057E+06    -276.852E+06    -82.8696E+06    -276.846E+06    -81.7056E+06    -498.005E+03         29.2025
              58    -291.571E-09     22.4879E-03         4.93259     276.093E-03        -3.73109        -2.48348         3.68498     276.093E-03         6.08260     118.495E-03    -59.0022E-03    -59.4924E-03    -59.3939E-03     118.495E-03    -59.1003E-03    -391.525E-06    -80.3002E+06    -85.1516E+06    -277.094E+06    -82.7009E+06    -277.094E+06    -82.7514E+06     298.430E+03         29.1696
              59     65.3507E-09     21.3630E-03         4.69342     163.637E-03        -3.36448        -2.28960         3.61855     163.637E-03         5.47731     118.530E-03    -59.1595E-03    -59.3723E-03    -59.2714E-03     118.527E-03    -59.2576E-03    -1.02720E-03    -80.3372E+06    -82.9800E+06    -275.927E+06    -80.3499E+06    -275.914E+06    -82.9800E+06     1.17439E+06         29.1350
              60     137.596E-09     20.2396E-03         4.47183     69.9782E-03        -3.05177        -2.14794         3.56801     69.9782E-03         4.88944     117.956E-03    -58.7410E-03    -59.2209E-03    -59.2148E-03     117.950E-03    -58.7410E-03    -2.08833E-03    -78.2766E+06    -79.0547E+06    -272.849E+06    -78.8900E+06    -272.823E+06    -78.4681E+06    -73.7504E+03         29.0695
              61     548.035E-09     19.1159E-03         4.36466    -118.485E-03        -2.76188        -2.06002         3.66280    -118.485E-03         4.23222     116.664E-03    -58.1297E-03    -58.5423E-03    -58.4899E-03     116.659E-03    -58.1771E-03    -1.84639E-03    -78.8766E+06    -79.8807E+06    -273.550E+06    -79.4802E+06    -273.533E+06    -79.2941E+06    -655.188E+03         28.9493
              62    -646.669E-09     17.9931E-03         4.27776    -357.293E-03        -2.41913        -1.90923         3.76786    -357.293E-03         3.54705     114.972E-03    -57.2823E-03    -57.6886E-03    -57.6363E-03     114.967E-03    -57.3297E-03    -1.82263E-03    -80.4528E+06    -81.1584E+06    -274.190E+06    -80.7439E+06    -274.187E+06    -80.8704E+06     364.702E+03         28.7695
              63     1.31006E-06     16.8747E-03         4.08072    -477.236E-03        -2.10131        -1.68763         3.66705    -477.236E-03         3.08932     112.034E-03    -55.6308E-03    -56.3996E-03    -56.3923E-03     112.027E-03    -55.6308E-03    -2.21397E-03    -81.7342E+06    -83.4599E+06    -275.473E+06    -83.4633E+06    -275.470E+06    -81.7342E+06     394.254E+03         28.5124
              64    -518.974E-09     15.7581E-03         3.94385    -538.432E-03        -1.90422        -1.57408         3.61372    -538.432E-03         2.68902     107.443E-03    -53.5004E-03    -53.9459E-03    -53.9033E-03     107.436E-03    -53.5361E-03    -2.12706E-03    -79.4669E+06    -81.3043E+06    -272.148E+06    -80.9116E+06    -272.141E+06    -79.8665E+06     -47.712E+03         28.1527
              65     426.848E-09     14.6495E-03         3.86162    -668.079E-03        -1.69613        -1.49293         3.65843    -668.079E-03         2.06086     101.708E-03    -50.6486E-03    -51.0611E-03    -51.0129E-03     101.695E-03    -50.6843E-03    -2.66645E-03    -78.0236E+06    -78.8338E+06    -268.347E+06    -78.0330E+06    -268.338E+06    -78.8338E+06    -1.32739E+06         27.6759
              66     264.254E-09     13.5465E-03         3.79897    -800.445E-03        -1.47840        -1.38723         3.70780    -800.445E-03         1.33026     94.0391E-03    -46.7779E-03    -47.2575E-03    -47.2329E-03     94.0145E-03    -46.7779E-03    -3.69389E-03    -76.9116E+06    -78.1563E+06    -265.966E+06    -76.9185E+06    -265.959E+06    -78.1563E+06    -1.08498E+06         27.0886
              67    -114.526E-09     12.4549E-03         3.76210    -917.388E-03        -1.30143        -1.25794         3.71861    -917.388E-03     934.448E-03     84.8238E-03    -42.2054E-03    -42.6134E-03    -42.5769E-03     84.7873E-03    -42.2054E-03    -4.28637E-03    -72.2909E+06    -73.1811E+06    -260.421E+06    -72.4438E+06    -260.268E+06    -73.1811E+06     3.40404E+06         26.4578
              68     650.400E-09     11.3717E-03         3.72045    -990.936E-03        -1.18806        -1.15818         3.69057    -990.936E-03     749.182E-03     75.3560E-03    -37.4546E-03    -37.8938E-03    -37.7192E-03     75.3154E-03    -37.5886E-03    -4.28723E-03    -73.2574E+06    -74.8537E+06    -258.918E+06    -74.9520E+06    -258.764E+06    -73.3136E+06     3.25466E+06         25.9686
              69    -932.794E-09     10.3003E-03         3.70132    -965.634E-03        -1.19744        -1.18414         3.68802    -965.634E-03     499.715E-03     66.7753E-03    -33.2466E-03    -33.5435E-03    -33.3693E-03     66.7352E-03    -33.3806E-03    -4.00490E-03    -63.4932E+06    -69.1527E+06    -251.974E+06    -65.1529E+06    -251.855E+06    -67.6126E+06     2.84419E+06         25.8106
              70     1.17231E-06     9.23631E-03         3.67643    -983.417E-03        -1.13913        -1.13501         3.67232    -983.417E-03     200.533E-03     61.1065E-03    -30.3181E-03    -30.8079E-03    -30.7780E-03     61.0766E-03    -30.3181E-03    -3.25476E-03    -48.6735E+06    -57.9977E+06    -242.776E+06    -53.9963E+06    -242.658E+06    -52.7929E+06     3.01632E+06         26.0285
              71    -500.716E-09     8.17789E-03         3.62677    -990.084E-03        -1.09114        -1.09068         3.62631    -990.084E-03     64.7225E-03     60.4954E-03    -30.0760E-03    -30.4226E-03    -30.4120E-03     60.4848E-03    -30.0760E-03    -1.80313E-03    -40.5160E+06    -48.0868E+06    -234.919E+06    -45.7233E+06    -234.916E+06    -42.8819E+06     14.7110E+03         26.6056
              72     499.230E-09     7.11577E-03         3.68064    -954.602E-03        -1.16901        -1.16784         3.67947    -954.602E-03    -19.4632E-03     68.1970E-03    -34.0138E-03    -34.1843E-03    -34.1802E-03     68.1929E-03    -34.0138E-03     214.331E-06    -40.3044E+06    -44.6373E+06    -234.977E+06    -42.2730E+06    -234.976E+06    -42.6703E+06     170.448E+03         27.5625
              73    -175.889E-09     6.04045E-03         3.69620    -962.817E-03        -1.19819        -1.19410         3.69211    -962.817E-03    -264.910E-03     87.6811E-03    -43.6056E-03    -44.0769E-03    -44.0610E-03     87.6652E-03    -43.6056E-03     2.76425E-03    -48.1774E+06    -50.3796E+06    -242.780E+06    -50.1901E+06    -242.734E+06    -48.4126E+06    -2.26989E+06         28.9587
              74     811.434E-09     4.93725E-03         3.67033    -945.976E-03        -1.16410        -1.16012         3.66634    -945.976E-03    -257.643E-03     121.597E-03    -60.5208E-03    -61.0764E-03    -60.7651E-03     121.521E-03    -60.7560E-03     7.18874E-03    -56.5089E+06    -57.5556E+06    -249.239E+06    -56.5546E+06    -249.193E+06    -57.5556E+06    -1.91492E+06         30.8957
              75    -1.27644E-06     3.78401E-03         3.69225    -939.286E-03        -1.15402        -1.15282         3.69105    -939.286E-03    -3.01225E-03     166.869E-03    -83.2618E-03    -83.6105E-03    -83.1631E-03     166.770E-03    -83.6105E-03     9.71298E-03    -62.5027E+06    -65.6233E+06    -256.108E+06    -62.5049E+06    -256.106E+06    -65.6233E+06    -251.374E+03         33.5519
              76     1.03950E-06     2.57568E-03         3.71088    -921.546E-03        -1.20573        -1.20469         3.70985    -921.546E-03     6.63586E-03     214.713E-03    -107.017E-03    -107.702E-03    -107.519E-03     214.643E-03    -107.131E-03     9.44026E-03    -64.6254E+06    -69.5978E+06    -261.056E+06    -67.3154E+06    -261.029E+06    -66.9345E+06     1.12043E+06         36.6710
              77    -4.43298E-09     1.30660E-03         3.63903    -872.698E-03        -1.15242        -1.15196         3.63856    -872.698E-03    -65.6164E-03     251.648E-03    -125.381E-03    -126.271E-03    -126.237E-03     251.614E-03    -125.381E-03     5.13742E-03    -65.3943E+06    -69.0293E+06    -266.426E+06    -68.2004E+06    -266.283E+06    -66.3660E+06    -1.91660E+06         39.4548
              78     874.407E-06     59.6046E-09         3.55399    -919.233E-03        -1.03876        -1.03869         3.55392    -919.233E-03    -23.7084E-03     262.287E-03    -130.301E-03    -131.993E-03    -130.607E-03     262.274E-03    -131.674E-03     3.40773E-03    -66.6220E+06    -68.1430E+06    -262.450E+06    -66.7463E+06    -262.326E+06    -68.1430E+06    -2.69635E+06         40.5153
              79     1.74953E-03     59.6046E-09         3.61954    -993.116E-03        -1.05110        -1.05085         3.61929    -993.116E-03    -66.9492E-03     254.398E-03    -124.595E-03    -129.778E-03    -124.542E-03     254.346E-03    -129.778E-03     8.58861E-03    -65.4839E+06    -67.6484E+06    -255.462E+06    -65.5439E+06    -255.402E+06    -67.6484E+06    -1.50204E+06         40.0831
              80     2.63399E-03     59.6046E-09         3.67195        -1.01656        -1.07293        -1.07225         3.67127        -1.01656    -110.192E-03     242.546E-03    -115.811E-03    -126.668E-03    -115.708E-03     242.444E-03    -126.668E-03     12.0066E-03    -63.7919E+06    -66.4086E+06    -257.713E+06    -64.8870E+06    -257.619E+06    -65.4071E+06    -306.675E+03         39.3595
              81     3.52825E-03     59.6046E-09         3.66126        -1.02807        -1.04754        -1.04703         3.66075        -1.02807    -71.7011E-03     228.129E-03    -105.347E-03    -122.689E-03    -105.195E-03     227.977E-03    -122.689E-03     14.1309E-03    -60.5588E+06    -64.0844E+06    -257.522E+06    -64.2309E+06    -257.375E+06    -60.5588E+06    -1.24266E+06         38.4120
              82     4.43240E-03     59.6046E-09         3.64593        -1.02555        -1.03226        -1.02760         3.64589        -1.03017     16.9222E-03     212.693E-03    -94.5152E-03    -118.118E-03    -94.3088E-03     212.486E-03    -118.118E-03     15.8516E-03    -57.7049E+06    -61.2380E+06    -257.230E+06    -60.3362E+06    -257.123E+06    -58.7139E+06    -3.46653E+06         37.3616
              83     5.34686E-03     59.6046E-09         3.63773        -1.01493        -1.02877        -1.01483         3.63763        -1.02877     43.4693E-03     197.231E-03    -83.9851E-03    -113.200E-03    -83.7262E-03     196.972E-03    -113.200E-03     17.0180E-03    -53.6969E+06    -64.9793E+06    -255.407E+06    -54.1786E+06    -254.925E+06    -64.9793E+06    -7.22409E+06         36.3783
              84     6.27165E-03     59.6046E-09         3.63469        -1.01727        -1.02693        -1.01704         3.63447        -1.02693     63.0101E-03     182.571E-03    -74.4101E-03    -108.122E-03    -74.1206E-03     182.281E-03    -108.122E-03     17.2333E-03    -45.6379E+06    -77.7635E+06    -234.685E+06    -46.2022E+06    -234.121E+06    -77.7635E+06    -9.66625E+06         35.6955
              85     7.20536E-03     59.6046E-09         3.64459        -1.02632        -1.03499        -1.03437         3.64441        -1.02676     52.7750E-03     169.274E-03    -66.2183E-03    -103.095E-03    -65.8929E-03     168.949E-03    -103.095E-03     17.4564E-03    -36.7093E+06    -94.1832E+06    -192.742E+06    -37.7147E+06    -191.737E+06    -94.1832E+06    -10.5847E+06         35.4883
              86     8.14458E-03     59.6046E-09         3.65261        -1.02740        -1.03597        -1.03557         3.65256        -1.02774     32.5399E-03     157.766E-03    -59.5670E-03    -98.2726E-03    -59.1458E-03     157.345E-03    -98.2726E-03     19.0242E-03    -25.6357E+06    -103.501E+06    -144.468E+06    -27.1055E+06    -134.723E+06    -111.776E+06    -12.6620E+06         35.8238
              87     9.08963E-03     59.6046E-09         3.66311        -1.02748        -1.02817        -1.02742         3.66305        -1.02817     33.6774E-03     147.721E-03    -54.0254E-03    -93.7864E-03    -53.5625E-03     147.259E-03    -93.7864E-03     19.3038E-03    -12.1871E+06    -72.2626E+06    -117.586E+06    -16.8293E+06    -67.6204E+06    -117.586E+06    -12.2787E+06         36.7171
              88     10.0421E-03     59.6046E-09         3.66715        -1.01713        -1.02764        -1.01710         3.66712        -1.02764     19.3163E-03     138.477E-03    -48.7908E-03    -89.7548E-03    -48.3076E-03     137.994E-03    -89.7548E-03     18.9566E-03     22.0144E+06    -27.8242E+06    -98.3411E+06    -13.7136E+06     7.90377E+06    -98.3411E+06    -4.06184E+06         38.1513
              89     10.9948E-03     59.6046E-09         3.66743    -995.899E-03        -1.02584    -995.895E-03         3.66743        -1.02584     625.063E-06     130.023E-03    -43.9076E-03    -86.1391E-03    -43.3353E-03     129.451E-03    -86.1391E-03     19.8888E-03     65.2856E+06    -14.7742E+06    -54.4076E+06    -13.6969E+06     64.2083E+06    -54.4076E+06    -2.33419E+06         40.0903
              90     11.9572E-03     59.6046E-09         3.68557    -997.377E-03        -1.02348    -997.264E-03         3.68546        -1.02348    -36.1291E-03     122.792E-03    -39.8676E-03    -82.9489E-03    -39.2286E-03     122.153E-03    -82.9489E-03     20.3384E-03     98.5781E+06     14.1491E+06    -16.8514E+06    -9.81958E+06     97.7109E+06     7.98447E+06    -2.61219E+06         42.4863
              91     12.9180E-03     59.6046E-09         3.70979        -1.01540        -1.02215        -1.01502         3.70940        -1.02215    -83.5234E-03     119.701E-03    -39.6385E-03    -80.0741E-03    -38.8599E-03     118.922E-03    -80.0741E-03     22.1677E-03     105.204E+06     60.7927E+06    -6.86746E+06    -6.70226E+06     105.039E+06     60.7927E+06     2.87065E+06         45.2635
              92     13.8826E-03     59.6046E-09         3.75849        -1.02172        -1.03000        -1.02928         3.75820        -1.02214    -65.0141E-03     122.108E-03    -44.4961E-03    -77.5287E-03    -42.8275E-03     120.439E-03    -77.5287E-03     32.3310E-03     110.784E+06     98.7352E+06    -2.60474E+06    -2.06611E+06     110.246E+06     98.7352E+06     5.48042E+06         48.3101
              93     14.8162E-03     59.6046E-09         3.85120        -1.02323        -1.04925        -1.04892         3.85087        -1.02323    -69.7795E-03     127.137E-03    -51.2543E-03    -75.6760E-03    -48.6815E-03     124.565E-03    -75.6760E-03     42.5353E-03     129.600E+06     111.264E+06    -63.5581E+03     3.38914E+06     111.826E+06     125.586E+06    -6.29203E+06         51.5002
              94     15.7873E-03     59.6046E-09         4.10495        -1.02820        -1.16250        -1.15910         4.10154        -1.02820     129.565E-03     234.623E-03    -66.3687E-03    -168.442E-03    -140.496E-03     216.817E-03    -76.5082E-03     158.937E-03     143.948E+06     129.252E+06     7.28654E+06     17.0374E+06     119.875E+06     143.574E+06     8.63882E+06         54.3029
              95     16.6868E-03     1.58319E-03         4.09613        -1.04080        -1.22290        -1.20858         4.08181        -1.04080     522.057E-03     298.216E-03    -76.1209E-03    -222.428E-03    -167.431E-03     243.219E-03    -76.1209E-03     304.027E-03     129.704E+06     128.988E+06    -27.6319E+06    -20.7957E+06     122.526E+06     129.330E+06     20.9924E+06         55.3180
              96     16.7552E-03     2.68468E-03         3.81058        -1.05475        -1.13289        -1.11560         3.79329        -1.05475     577.906E-03     229.863E-03    -72.4756E-03    -157.488E-03    -87.2367E-03     159.612E-03    -72.4756E-03     298.422E-03     136.842E+06     129.592E+06    -11.6983E+06    -11.4646E+06     129.358E+06     136.842E+06     3.82396E+06         55.2930
              97     16.8257E-03     3.76775E-03         3.68636        -1.06473        -1.08011        -1.07135         3.67759        -1.06473     400.949E-03     192.723E-03    -68.3994E-03    -124.238E-03    -80.8189E-03     149.304E-03    -68.3994E-03     211.531E-03     151.837E+06     143.482E+06     6.95131E+06     7.73634E+06     144.143E+06     150.391E+06     10.3267E+06         55.7265
              98     16.8745E-03     4.92588E-03         3.61971        -1.05109        -1.07477        -1.04741         3.61281        -1.07155     356.715E-03     187.270E-03    -64.5181E-03    -122.597E-03    -103.136E-03     167.808E-03    -64.5181E-03     149.134E-03     140.794E+06     135.454E+06    -8.96397E+06    -8.33433E+06     136.270E+06     139.349E+06     8.97891E+06         56.3293
              99     16.9107E-03     6.14803E-03         3.58226        -1.01639        -1.07472        -1.01138         3.57724        -1.07472     283.572E-03     194.149E-03    -62.0613E-03    -132.346E-03    -114.952E-03     176.755E-03    -62.0613E-03     146.482E-03     145.591E+06     139.620E+06    -1.12547E+06    -848.135E+03     141.419E+06     143.515E+06     6.20616E+06         56.9699
             100     16.9356E-03     7.35788E-03         3.57370        -1.03553        -1.07717        -1.03424         3.57241        -1.07717     152.886E-03     196.862E-03    -60.5874E-03    -136.302E-03    -115.830E-03     176.391E-03    -60.5874E-03     159.945E-03     147.221E+06     144.340E+06    -6.71686E+06    -6.49635E+06     147.001E+06     144.340E+06     5.24626E+06         57.6150
             101     16.9483E-03     8.55973E-03         3.58738        -1.04154        -1.07883        -1.04093         3.58677        -1.07883     101.814E-03     195.039E-03    -59.8419E-03    -134.791E-03    -112.284E-03     172.531E-03    -59.8419E-03     166.276E-03     149.102E+06     146.593E+06    -2.76520E+06    -2.73094E+06     149.067E+06     146.593E+06     2.26406E+06         58.2415
             102     16.9556E-03     9.74270E-03         3.60188        -1.03093        -1.07831        -1.03076         3.60171        -1.07831     53.5220E-03     189.607E-03    -59.5711E-03    -129.629E-03    -105.285E-03     165.262E-03    -59.5711E-03     169.364E-03     150.173E+06     147.768E+06    -5.55777E+06    -5.54317E+06     150.158E+06     147.768E+06     1.30635E+06         58.8317
             103     16.9612E-03     10.9149E-03         3.61716        -1.04877        -1.07774        -1.04873         3.61712        -1.07774     13.1053E-03     185.424E-03    -59.4728E-03    -125.688E-03    -98.8898E-03     158.626E-03    -59.4728E-03     174.484E-03     150.532E+06     148.560E+06    -3.34433E+06    -3.32607E+06     150.514E+06     148.560E+06    -890.098E+03         59.3772
             104     16.9618E-03     12.0886E-03         3.61911        -1.03014        -1.07740        -1.03005         3.61902        -1.07740     23.6376E-03     182.976E-03    -59.5436E-03    -123.253E-03    -93.1545E-03     152.878E-03    -59.5436E-03     182.187E-03     150.781E+06     148.816E+06    -4.06756E+06    -4.04328E+06     150.063E+06     149.510E+06    -1.88785E+06         59.8716
             105     16.9631E-03     13.2494E-03         3.60944        -1.03141        -1.07637        -1.03129         3.60932        -1.07637     12.0011E-03     179.303E-03    -59.7746E-03    -119.439E-03    -84.4278E-03     144.292E-03    -59.7746E-03     191.863E-03     152.347E+06     150.311E+06    -2.85618E+06    -2.84271E+06     151.640E+06     151.004E+06    -1.44241E+06         60.3138
             106     16.9637E-03     14.3953E-03         3.62073        -1.04868        -1.07554        -1.04865         3.62070        -1.07554    -21.2184E-03     178.133E-03    -59.9672E-03    -118.101E-03    -77.4068E-03     137.439E-03    -59.9672E-03     203.833E-03     151.197E+06     148.885E+06    -4.48756E+06    -4.48040E+06     150.220E+06     149.855E+06    -489.056E+03         60.7128
             107     16.9629E-03     15.5412E-03         3.61834        -1.02983        -1.07491        -1.02982         3.61832        -1.07491     6.56898E-03     178.587E-03    -60.0871E-03    -118.313E-03    -73.5616E-03     133.835E-03    -60.0871E-03     212.407E-03     151.388E+06     150.352E+06    -3.97424E+06    -3.97350E+06     150.417E+06     151.323E+06     307.577E+03         61.0768
             108     16.9644E-03     16.6724E-03         3.61829        -1.03320        -1.07364        -1.03318         3.61827        -1.07364     18.9115E-03     177.111E-03    -60.1514E-03    -117.004E-03    -69.8112E-03     129.918E-03    -60.1514E-03     215.870E-03     151.397E+06     150.519E+06    -4.31380E+06    -4.31288E+06     151.396E+06     150.519E+06     340.118E+03         61.4199
             109     16.9640E-03     17.8043E-03         3.61109        -1.03899        -1.07274        -1.03894         3.61104        -1.07274    -12.8154E-03     176.298E-03    -60.2056E-03    -116.175E-03    -67.4413E-03     127.564E-03    -60.2056E-03     217.970E-03     151.633E+06     150.302E+06    -4.52838E+06    -4.52676E+06     151.114E+06     150.820E+06     7.76213E+03         61.7673
             110     16.9641E-03     18.9321E-03         3.59165        -1.02469        -1.07190        -1.02464         3.59160        -1.07190    -17.1415E-03     175.410E-03    -60.2644E-03    -115.073E-03    -66.4707E-03     126.808E-03    -60.2644E-03     216.848E-03     151.641E+06     149.824E+06    -4.40415E+06    -4.40200E+06     151.121E+06     150.342E+06    -573.883E+03         62.1973
             111     16.9636E-03     20.0546E-03         3.60489        -1.03562        -1.06986        -1.03552         3.60479        -1.06986    -27.4306E-03     174.884E-03    -60.2999E-03    -114.565E-03    -66.8598E-03     127.179E-03    -60.2999E-03     214.775E-03     149.098E+06     147.513E+06    -7.37281E+06      -7.369E+06     149.094E+06     147.513E+06    -763.992E+03         62.6995
             112     16.9624E-03     21.1897E-03         3.60552        -1.04428        -1.06760        -1.04416         3.60540        -1.06760    -17.9675E-03     174.729E-03    -60.3098E-03    -114.497E-03    -66.7250E-03     126.957E-03    -60.3098E-03     214.795E-03     149.677E+06     148.334E+06    -3.40283E+06    -3.37585E+06     148.594E+06     149.391E+06     909.269E+03         63.1038
             113     16.9647E-03     22.3109E-03         3.57497        -1.02323        -1.06538        -1.02321         3.57495        -1.06538     19.8857E-03     172.891E-03    -60.2743E-03    -112.690E-03    -64.1984E-03     124.399E-03    -60.2743E-03     214.435E-03     152.419E+06     150.323E+06    -555.478E+03    -529.267E+03     151.337E+06     151.379E+06     1.70905E+06         63.3746
             114     16.9677E-03     23.4355E-03         3.55494        -1.02216        -1.06272        -1.02208         3.55486        -1.06272    -19.2072E-03     173.039E-03    -60.1818E-03    -112.828E-03    -64.6517E-03     124.863E-03    -60.1818E-03     213.997E-03     152.421E+06     151.114E+06    -3.84304E+06    -3.81011E+06     152.388E+06     151.114E+06    -1.20088E+06         63.5997
             115     16.9647E-03     24.5672E-03         3.56331        -1.03587        -1.05957        -1.03567         3.56311        -1.05957    -59.3506E-03     174.715E-03    -60.1287E-03    -114.349E-03    -66.9089E-03     127.275E-03    -60.1287E-03     214.128E-03     150.850E+06     150.074E+06    -5.55554E+06    -5.52418E+06     150.818E+06     150.074E+06    -1.65860E+06         63.8257
             116     16.9663E-03     25.6967E-03         3.54011        -1.00304        -1.05551        -1.00289         3.53996        -1.05551    -17.6116E-03     176.157E-03    -60.1930E-03    -115.785E-03    -66.4667E-03     126.839E-03    -60.1930E-03     218.740E-03     150.528E+06     148.588E+06    -5.29663E+06    -5.29013E+06     149.089E+06     150.020E+06     603.083E+03         64.1201
             117     16.9650E-03     26.8292E-03         3.50801    -992.582E-03        -1.05071    -992.510E-03         3.50794        -1.05071    -4.94631E-03     176.919E-03    -60.2428E-03    -116.592E-03    -65.4699E-03     125.797E-03    -60.2428E-03     222.634E-03     150.547E+06     148.659E+06    -4.24583E+06    -4.23435E+06     149.104E+06     150.091E+06     1.32430E+06         64.5689
             118     16.9652E-03     27.9494E-03         3.50571        -1.02059        -1.04569        -1.02053         3.50565        -1.04569    -31.7885E-03     174.943E-03    -60.2412E-03    -114.543E-03    -64.6057E-03     125.006E-03    -60.2412E-03     218.740E-03     150.613E+06     150.051E+06    -4.15533E+06    -4.14754E+06     150.605E+06     150.051E+06     1.08374E+06         65.0873
             119     16.9658E-03     29.0682E-03         3.49047        -1.00357        -1.04026        -1.00356         3.49046        -1.04026    -11.5770E-03     172.570E-03    -60.2039E-03    -112.341E-03    -64.9942E-03     125.224E-03    -60.2039E-03     212.085E-03     151.098E+06     149.313E+06    -4.98975E+06    -4.97619E+06     151.085E+06     149.313E+06    -465.387E+03         65.4684
             120     16.9657E-03     30.1983E-03         3.46714    -989.846E-03        -1.03397    -989.846E-03         3.46714        -1.03397     278.715E-06     173.165E-03    -60.1651E-03    -112.863E-03    -66.1620E-03     126.464E-03    -60.1651E-03     211.438E-03     152.416E+06     149.002E+06    -3.71452E+06    -3.70113E+06     152.403E+06     149.002E+06    -480.722E+03         65.6771
             121     16.9663E-03     31.3309E-03         3.44246    -993.198E-03        -1.02668    -993.185E-03         3.44244        -1.02668    -10.2760E-03     174.805E-03    -60.1805E-03    -114.344E-03    -65.5225E-03     125.983E-03    -60.1805E-03     216.617E-03     152.614E+06     148.838E+06    -3.48529E+06    -3.48030E+06     152.609E+06     148.838E+06     2.15409E+03         65.7864
             122     16.9661E-03     32.4596E-03         3.41070    -976.324E-03        -1.01850    -976.285E-03         3.41066        -1.01850    -25.8957E-03     175.590E-03    -60.2159E-03    -115.185E-03    -64.9188E-03     125.323E-03    -60.2159E-03     219.905E-03     151.363E+06     147.844E+06    -3.97985E+06    -3.97257E+06     151.356E+06     147.844E+06     168.435E+03         65.8395
             123     16.9650E-03     33.5804E-03         3.40327    -976.795E-03        -1.01090    -976.577E-03         3.40305        -1.01090    -56.1948E-03     175.316E-03    -60.2316E-03    -115.015E-03    -65.6698E-03     125.971E-03    -60.2316E-03     218.085E-03     151.439E+06     147.015E+06    -4.61544E+06    -4.61062E+06     151.434E+06     147.015E+06     609.066E+03         65.8676
             124     16.9654E-03     34.7100E-03         3.40388    -989.110E-03        -1.00413    -988.817E-03         3.40359        -1.00413    -11.2691E-03     174.855E-03    -60.2481E-03    -114.666E-03    -65.9988E-03     126.187E-03    -60.2481E-03     216.532E-03     151.798E+06     146.418E+06    -4.47802E+06    -4.47241E+06     151.793E+06     146.418E+06     657.982E+03         65.8858
             125     16.9644E-03     35.8370E-03         3.35924    -970.759E-03    -995.579E-03    -970.640E-03         3.35912    -995.579E-03     42.1049E-03     173.156E-03    -60.2837E-03    -112.887E-03    -64.4683E-03     124.737E-03    -60.2837E-03     214.527E-03     151.509E+06     147.581E+06    -4.31587E+06    -4.30742E+06     151.500E+06     147.581E+06     183.452E+03         65.8999
             126     16.9664E-03     36.9546E-03         3.31366    -945.332E-03    -984.983E-03    -945.123E-03         3.31345    -984.983E-03    -27.9759E-03     171.653E-03    -60.2773E-03    -111.270E-03    -63.4996E-03     123.882E-03    -60.2773E-03     211.974E-03     150.177E+06     147.984E+06    -3.74323E+06    -3.73550E+06     150.169E+06     147.984E+06     131.324E+03         65.9150
             127     16.9654E-03     38.0846E-03         3.31298    -951.025E-03    -974.777E-03    -950.777E-03         3.31273    -974.777E-03    -62.3978E-03     172.512E-03    -60.2223E-03    -112.139E-03    -64.3308E-03     124.704E-03    -60.2223E-03     212.818E-03     151.237E+06     147.611E+06    -3.60294E+06    -3.59688E+06     151.231E+06     147.611E+06     298.461E+03         65.9309
             128     16.9670E-03     39.2120E-03         3.28915    -950.810E-03    -964.778E-03    -950.502E-03         3.28884    -964.778E-03     23.9021E-03     173.021E-03    -60.2030E-03    -112.758E-03    -65.0722E-03     125.335E-03    -60.2030E-03     213.105E-03     152.130E+06     146.810E+06    -4.61367E+06    -4.61247E+06     152.128E+06     146.810E+06    -347.078E+03         65.9448
             129     16.9643E-03     40.3351E-03         3.23073    -924.364E-03    -954.055E-03    -924.029E-03         3.23040    -954.055E-03     19.7494E-03     172.938E-03    -60.2064E-03    -112.739E-03    -65.6613E-03     125.861E-03    -60.2064E-03     211.967E-03     152.550E+06     147.698E+06    -4.54086E+06    -4.54083E+06     152.550E+06     147.698E+06    -19.3045E+03         65.9583
             130     16.9670E-03     41.4660E-03         3.19799    -922.385E-03    -944.589E-03    -921.840E-03         3.19745    -944.589E-03    -88.0059E-03     172.791E-03    -60.1943E-03    -112.538E-03    -65.3035E-03     125.556E-03    -60.1943E-03     212.092E-03     152.992E+06     147.466E+06    -4.46903E+06    -4.46884E+06     152.991E+06     147.466E+06    -98.8571E+03         65.9720
             131     16.9659E-03     42.5902E-03         3.20298    -934.546E-03    -945.480E-03    -944.281E-03         3.20249    -935.261E-03    -75.7163E-03     172.845E-03    -60.1885E-03    -112.586E-03    -65.1370E-03     125.396E-03    -60.1885E-03     212.525E-03     153.066E+06     147.796E+06    -4.09092E+06    -4.08922E+06     153.065E+06     147.796E+06    -467.490E+03         65.9853
             132     16.9665E-03     43.7186E-03         3.18172    -914.092E-03    -933.368E-03    -924.282E-03         3.18169    -923.148E-03    -20.5315E-03     173.807E-03    -60.1813E-03    -113.541E-03    -66.1608E-03     126.426E-03    -60.1813E-03     213.258E-03     153.997E+06     149.921E+06    -4.65158E+06    -4.64952E+06     153.995E+06     149.921E+06    -140.799E+03         65.9981
             133     16.9652E-03     44.8495E-03         3.12024    -889.472E-03    -910.212E-03    -889.410E-03         3.12017    -910.212E-03    -27.8033E-03     175.472E-03    -60.1837E-03    -115.138E-03    -66.6205E-03     126.955E-03    -60.1837E-03     216.749E-03     153.590E+06     149.302E+06    -4.94845E+06    -4.94601E+06     153.588E+06     149.302E+06    -181.304E+03         66.0098
             134     16.9668E-03     45.9797E-03         3.08547    -887.162E-03    -905.972E-03    -893.974E-03         3.08515    -898.846E-03    -66.5817E-03     176.393E-03    -60.2404E-03    -116.040E-03    -65.8055E-03     126.159E-03    -60.2404E-03     220.595E-03     154.118E+06     150.766E+06    -3.40304E+06    -3.40007E+06     153.179E+06     151.702E+06    -100.576E+03         66.0184
             135     16.9645E-03     47.1077E-03         3.07630    -888.192E-03    -899.691E-03    -899.433E-03         3.07605    -888.192E-03    -42.7121E-03     174.520E-03    -60.2814E-03    -114.199E-03    -64.0934E-03     124.414E-03    -60.2814E-03     218.684E-03     154.548E+06     149.512E+06    -3.24796E+06    -3.24579E+06     153.611E+06     150.447E+06     582.619E+03         66.0232
             136     16.9664E-03     48.2192E-03         3.03357    -872.031E-03    -881.283E-03    -876.390E-03         3.03355    -876.911E-03     12.3189E-03     171.612E-03    -60.2501E-03    -111.334E-03    -63.5249E-03     123.803E-03    -60.2501E-03     212.037E-03     153.256E+06     146.582E+06    -5.56722E+06    -5.56589E+06     153.254E+06     146.582E+06     158.395E+03         66.0272
             137     16.9659E-03     49.3488E-03         2.99501    -860.495E-03    -878.760E-03    -873.790E-03         2.99492    -865.374E-03    -15.0911E-03     173.103E-03    -60.1897E-03    -112.721E-03    -65.2644E-03     125.646E-03    -60.1897E-03     212.717E-03     154.736E+06     149.357E+06    -3.86362E+06    -3.86331E+06     154.736E+06     149.357E+06    -213.467E+03         66.0269
             138     16.9666E-03     50.4860E-03         2.97702    -854.556E-03    -877.648E-03    -877.522E-03         2.97689    -854.556E-03    -43.7751E-03     176.243E-03    -60.1743E-03    -115.692E-03    -66.4762E-03     127.027E-03    -60.1743E-03     218.586E-03     156.350E+06     150.661E+06    -4.38205E+06    -4.37965E+06     156.348E+06     150.661E+06    -511.415E+03         66.0160
             139     16.9649E-03     51.6094E-03         2.93951    -844.051E-03    -855.546E-03    -855.470E-03         2.93943    -844.051E-03    -4.28130E-03     176.358E-03    -60.2248E-03    -115.899E-03    -66.3040E-03     126.764E-03    -60.2248E-03     219.406E-03     154.401E+06     149.138E+06    -4.43529E+06    -4.42230E+06     154.388E+06     149.138E+06     475.075E+03         65.9947
             140     16.9645E-03     52.7376E-03         2.89469    -833.122E-03    -837.408E-03    -837.379E-03         2.89466    -833.122E-03     14.2334E-03     175.658E-03    -60.2711E-03    -115.346E-03    -65.5061E-03     125.818E-03    -60.2711E-03     219.260E-03     154.725E+06     148.424E+06    -4.09296E+06    -4.06961E+06     154.702E+06     148.424E+06     1.92450E+06         65.9658
             141     16.9660E-03     53.8628E-03         2.86078    -822.440E-03    -827.374E-03    -827.348E-03         2.86075    -822.440E-03     13.4775E-03     174.324E-03    -60.2552E-03    -114.033E-03    -64.5120E-03     124.803E-03    -60.2552E-03     217.502E-03     156.004E+06     148.533E+06    -4.84968E+06    -4.82984E+06     155.985E+06     148.533E+06     260.505E+03         65.9308
             142     16.9657E-03     54.9824E-03         2.83987    -811.845E-03    -826.319E-03    -826.238E-03         2.83978    -811.845E-03     33.9478E-03     172.821E-03    -60.2093E-03    -112.522E-03    -65.0856E-03     125.385E-03    -60.2093E-03     212.448E-03     154.704E+06     148.065E+06    -4.09020E+06    -4.08020E+06     154.694E+06     148.065E+06    -1.23024E+06         65.8897
             143     16.9651E-03     56.1117E-03         2.81237    -800.904E-03    -822.799E-03    -822.740E-03         2.81231    -800.904E-03     25.1994E-03     173.708E-03    -60.2009E-03    -113.417E-03    -65.6581E-03     125.949E-03    -60.2009E-03     213.822E-03     156.080E+06     149.309E+06    -2.94378E+06    -2.91760E+06     156.054E+06     149.309E+06     888.993E+03         65.8429
             144     16.9667E-03     57.2469E-03         2.75415    -784.235E-03    -801.188E-03    -794.088E-03         2.75414    -791.331E-03     3.04342E-03     174.718E-03    -60.2263E-03    -114.392E-03    -64.7788E-03     125.105E-03    -60.2263E-03     218.008E-03     154.094E+06     147.622E+06    -4.96396E+06    -4.90469E+06     154.034E+06     147.622E+06    -321.546E+03         65.7949
             145     16.9649E-03     58.3633E-03         2.71730    -775.929E-03    -796.413E-03    -789.132E-03         2.71712    -783.024E-03     33.9242E-03     172.467E-03    -60.2491E-03    -112.148E-03    -63.8649E-03     124.184E-03    -60.2491E-03     213.624E-03     149.530E+06     144.502E+06    -5.29606E+06    -5.25947E+06     149.493E+06     144.502E+06    -1.46639E+06         65.7525
             146     16.9663E-03     59.4849E-03         2.70192    -773.764E-03    -797.729E-03    -797.475E-03         2.70166    -773.764E-03     57.9617E-03     172.274E-03    -60.2332E-03    -111.982E-03    -64.4943E-03     124.786E-03    -60.2332E-03     212.070E-03     150.249E+06     147.117E+06    -3.41798E+06    -3.41491E+06     150.246E+06     147.117E+06    -215.398E+03         65.7198
             147     16.9656E-03     60.6227E-03         2.64872    -756.829E-03    -774.593E-03    -767.263E-03         2.64858    -764.018E-03     43.9695E-03     175.717E-03    -60.1915E-03    -115.534E-03    -66.4555E-03     126.639E-03    -60.1915E-03     218.040E-03     151.320E+06     148.163E+06    -3.72172E+06    -3.71615E+06     151.315E+06     148.163E+06     56.5835E+03         65.6958
             148     16.9654E-03     61.7494E-03         2.60588    -747.078E-03    -755.015E-03    -747.500E-03         2.60555    -754.267E-03     63.2601E-03     175.276E-03    -60.1956E-03    -115.112E-03    -66.0150E-03     126.179E-03    -60.1956E-03     217.685E-03     150.618E+06     145.968E+06    -5.01670E+06    -5.00086E+06     150.602E+06     145.968E+06     1.49111E+06         65.6782
             149     16.9668E-03     63.9905E-03         2.56317    -735.445E-03    -754.004E-03    -753.953E-03         2.56312    -735.445E-03     26.0345E-03     170.517E-03    -60.2272E-03    -110.352E-03    -63.3826E-03     123.547E-03    -60.2272E-03     209.618E-03     153.390E+06     146.977E+06    -2.95228E+06    -2.93487E+06     153.373E+06     146.977E+06    -1.31294E+06         65.6661
             150     16.9657E-03     65.1181E-03         2.51449    -722.652E-03    -730.878E-03    -725.829E-03         2.51423    -727.431E-03     51.5944E-03     173.255E-03    -60.1407E-03    -113.107E-03    -66.4786E-03     126.627E-03    -60.1407E-03     211.452E-03     152.765E+06     146.518E+06    -4.20558E+06    -4.18741E+06     152.746E+06     146.518E+06    -1.44602E+06         65.6688
             151     16.9662E-03     66.2561E-03         2.47597    -713.477E-03    -724.047E-03    -718.668E-03         2.47537    -718.256E-03     87.1996E-03     176.033E-03    -60.1285E-03    -115.960E-03    -67.4253E-03     127.498E-03    -60.1285E-03     217.370E-03     153.312E+06     146.615E+06    -3.99720E+06    -3.97633E+06     153.291E+06     146.615E+06     948.910E+03         65.6691
             152     16.9657E-03     67.3856E-03         2.43391    -698.266E-03    -714.795E-03    -703.518E-03         2.43337    -709.004E-03     81.3726E-03     176.374E-03    -60.2133E-03    -116.159E-03    -65.7162E-03     125.931E-03    -60.2133E-03     221.011E-03     152.419E+06     146.009E+06    -4.84001E+06    -4.82005E+06     152.399E+06     146.009E+06     1.12371E+06         65.6677
             153     16.9660E-03     68.5056E-03         2.39189    -685.621E-03    -700.954E-03    -685.360E-03         2.39162    -700.954E-03     55.2596E-03     173.932E-03    -60.2656E-03    -113.546E-03    -64.1967E-03     124.582E-03    -60.2656E-03     216.803E-03     151.533E+06     147.008E+06    -3.76435E+06    -3.76417E+06     151.533E+06     147.008E+06    -114.804E+03         65.6688
             154     16.9658E-03     69.6267E-03         2.36282    -687.991E-03    -695.725E-03    -690.789E-03         2.36248    -692.586E-03     61.5540E-03     171.887E-03    -60.2265E-03    -111.576E-03    -64.0191E-03     124.330E-03    -60.2265E-03     211.835E-03     151.809E+06     145.283E+06    -3.89031E+06    -3.88191E+06     151.801E+06     145.283E+06     821.909E+03         65.6728
             155     16.9664E-03     70.7529E-03         2.32223    -668.685E-03    -685.530E-03    -671.021E-03         2.32142    -682.391E-03     96.5308E-03     172.344E-03    -60.1844E-03    -112.114E-03    -65.0017E-03     125.231E-03    -60.1844E-03     211.489E-03     152.699E+06     145.664E+06    -5.14375E+06    -5.12743E+06     152.683E+06     145.664E+06     29.9003E+03         65.6781
             156     16.9658E-03     71.8834E-03         2.27530    -646.085E-03    -671.710E-03    -645.547E-03         2.27476    -671.710E-03     59.6849E-03     173.500E-03    -60.1719E-03    -113.225E-03    -65.4918E-03     125.767E-03    -60.1719E-03     213.612E-03     151.976E+06     147.281E+06    -3.85361E+06    -3.84554E+06     151.967E+06     147.281E+06    -895.024E+03         65.6821
             157     16.9662E-03     73.0109E-03         2.24314    -648.586E-03    -662.478E-03    -648.559E-03         2.24312    -662.478E-03     15.5134E-03     174.338E-03    -60.1869E-03    -114.134E-03    -65.5264E-03     125.731E-03    -60.1869E-03     215.956E-03     152.104E+06     146.666E+06    -4.12805E+06    -4.12328E+06     152.099E+06     146.666E+06     496.342E+03         65.6850
             158     16.9650E-03     74.1385E-03         2.21225    -642.035E-03    -653.799E-03    -641.684E-03         2.21190    -653.799E-03     54.8411E-03     173.878E-03    -60.2143E-03    -113.688E-03    -64.9783E-03     125.168E-03    -60.2143E-03     215.729E-03     153.678E+06     146.234E+06    -4.87228E+06    -4.86239E+06     153.668E+06     146.234E+06     1.25183E+06         65.6883
             159     16.9666E-03     75.2610E-03         2.16628    -620.996E-03    -643.721E-03    -620.391E-03         2.16568    -643.721E-03     82.1074E-03     173.453E-03    -60.2045E-03    -113.148E-03    -64.5851E-03     124.890E-03    -60.2045E-03     215.034E-03     154.706E+06     147.023E+06    -4.05129E+06    -4.04510E+06     154.700E+06     147.023E+06     377.653E+03         65.6939
             160     16.9659E-03     76.3884E-03         2.11570    -608.361E-03    -632.090E-03    -608.071E-03         2.11541    -632.090E-03     46.4597E-03     173.740E-03    -60.1760E-03    -113.470E-03    -65.4097E-03     125.680E-03    -60.1760E-03     214.410E-03     155.494E+06     149.157E+06    -2.53398E+06    -2.53245E+06     155.493E+06     149.157E+06    -52.1220E+03         65.7010
             161     16.9666E-03     77.5158E-03         2.07573    -593.373E-03    -621.068E-03    -593.299E-03         2.07565    -621.068E-03     25.6603E-03     173.271E-03    -60.1728E-03    -113.003E-03    -65.4284E-03     125.696E-03    -60.1728E-03     213.128E-03     154.495E+06     147.194E+06    -5.12478E+06    -5.11913E+06     154.489E+06     147.194E+06    -418.290E+03         65.7066
             162     16.9657E-03     78.6406E-03         2.03442    -582.169E-03    -610.218E-03    -581.108E-03         2.03336    -610.218E-03     90.2810E-03     171.981E-03    -60.1937E-03    -111.675E-03    -64.3004E-03     124.607E-03    -60.1937E-03     211.601E-03     154.509E+06     146.703E+06    -4.70982E+06    -4.69945E+06     154.498E+06     146.703E+06      11.248E+03         65.7118
             163     16.9670E-03     79.7646E-03         1.99492    -578.159E-03    -597.167E-03    -577.111E-03         1.99387    -597.167E-03     88.1089E-03     172.304E-03    -60.1780E-03    -112.158E-03    -64.7244E-03     124.871E-03    -60.1780E-03     212.067E-03     155.977E+06     148.419E+06    -4.04625E+06    -4.04009E+06     155.970E+06     148.419E+06     388.268E+03         65.7200
             164     16.9662E-03     80.8940E-03         1.94859    -555.573E-03    -584.578E-03    -555.514E-03         1.94853    -584.578E-03     22.1747E-03     174.546E-03    -60.1346E-03    -114.565E-03    -66.7433E-03     126.725E-03    -60.1346E-03     214.836E-03     158.543E+06     148.921E+06    -4.18647E+06    -4.15835E+06     158.515E+06     148.921E+06     1.23109E+06         65.7294
             165     16.9666E-03     82.0296E-03         1.89193    -531.693E-03    -573.505E-03    -530.769E-03         1.89100    -573.505E-03     72.1254E-03     174.012E-03    -60.1816E-03    -113.850E-03    -65.5001E-03     125.662E-03    -60.1816E-03     215.205E-03     159.973E+06     149.101E+06    -4.36884E+06    -4.34112E+06     159.945E+06     149.101E+06     1.30447E+06         65.7343
             166     16.9660E-03     83.1450E-03         1.86146    -536.828E-03    -560.305E-03    -535.566E-03         1.86020    -560.305E-03     106.973E-03     173.012E-03    -60.2192E-03    -112.705E-03    -64.0550E-03     124.361E-03    -60.2192E-03     214.784E-03     160.526E+06     148.231E+06    -4.84023E+06    -4.83640E+06     160.522E+06     148.231E+06     343.128E+03         65.7400
             167     16.9668E-03     84.2744E-03         1.83107    -530.874E-03    -545.021E-03    -530.475E-03         1.83067    -545.021E-03     56.5084E-03     173.512E-03    -60.1646E-03    -113.360E-03    -66.0425E-03     126.194E-03    -60.1646E-03     212.913E-03     163.800E+06     149.610E+06    -3.99160E+06    -3.98762E+06     163.796E+06     149.610E+06     306.500E+03         65.7504
             168     16.9659E-03     85.4026E-03         1.76560    -495.517E-03    -530.108E-03    -495.139E-03         1.76523    -530.108E-03     53.5598E-03     172.457E-03    -60.1634E-03    -112.264E-03    -66.0289E-03     126.222E-03    -60.1634E-03     210.012E-03     164.548E+06     150.887E+06    -5.05372E+06    -5.05303E+06     164.547E+06     150.887E+06    -316.813E+03         65.7579
             169     16.9669E-03     86.5270E-03         1.70413    -479.533E-03    -515.865E-03    -479.145E-03         1.70374    -515.865E-03     54.2606E-03     172.198E-03    -60.1937E-03    -111.899E-03    -64.6413E-03     124.940E-03    -60.1937E-03     211.579E-03     164.669E+06     152.810E+06    -4.18189E+06    -4.17321E+06     164.660E+06     152.810E+06     757.739E+03         65.7634
             170     16.9673E-03     87.6582E-03         1.66233    -479.931E-03    -501.257E-03    -479.860E-03         1.66226    -501.257E-03     22.3100E-03     175.363E-03    -60.1815E-03    -115.174E-03    -65.5430E-03     125.732E-03    -60.1815E-03     218.685E-03     168.130E+06     156.097E+06    -3.68099E+06    -3.66936E+06     168.119E+06     156.097E+06     1.36761E+06         65.7683
             171     16.9667E-03     88.7933E-03         1.62440    -468.363E-03    -485.413E-03    -468.298E-03         1.62434    -485.413E-03     21.0588E-03     176.029E-03    -60.2013E-03    -115.802E-03    -64.9095E-03     125.137E-03    -60.2013E-03     221.463E-03     167.719E+06     155.501E+06    -4.31534E+06    -4.31159E+06     167.716E+06     155.501E+06     759.535E+03         65.7679
             172     16.9668E-03     89.9065E-03         1.58511    -449.280E-03    -469.194E-03    -449.200E-03         1.58503    -469.194E-03     24.9157E-03     172.788E-03    -60.2256E-03    -112.492E-03    -63.3793E-03     123.675E-03    -60.2256E-03     215.374E-03     166.558E+06     155.556E+06    -5.35549E+06    -5.35344E+06     166.556E+06     155.556E+06      586.95E+03         65.7673
             173     16.9673E-03     91.0249E-03         1.53100    -442.009E-03    -453.423E-03    -441.959E-03         1.53095    -453.423E-03     19.8054E-03     169.844E-03    -60.1758E-03    -109.591E-03    -63.9525E-03     124.206E-03    -60.1758E-03     206.561E-03     170.242E+06     158.666E+06    -5.22490E+06    -5.21310E+06     170.230E+06     158.666E+06     1.30388E+06         65.7703
             174     16.9681E-03     92.1557E-03         1.49621    -436.762E-03    -445.671E-03    -445.294E-03         1.49614    -437.062E-03    -3.90588E-03     170.847E-03    -60.1211E-03    -110.673E-03    -64.8540E-03     125.029E-03    -60.1211E-03     207.817E-03     174.818E+06     161.809E+06    -4.77974E+06    -4.76412E+06     174.802E+06     161.809E+06     273.088E+03         65.7703
             175     16.9689E-03     93.2871E-03         1.44141    -411.315E-03    -427.398E-03    -419.364E-03         1.44085    -418.789E-03     28.5973E-03     172.996E-03    -60.0943E-03    -112.905E-03    -65.0978E-03     125.189E-03    -60.0943E-03     213.378E-03     177.126E+06     163.555E+06    -3.55165E+06    -3.51434E+06     177.089E+06     163.555E+06     1.00741E+06         65.7634
             176     16.9697E-03     94.4141E-03         1.35372    -378.764E-03    -399.981E-03    -378.238E-03         1.35320    -399.981E-03     35.2172E-03     173.348E-03    -60.0688E-03    -113.242E-03    -64.1429E-03     124.249E-03    -60.0688E-03     215.949E-03     180.405E+06     164.782E+06    -5.52457E+06    -5.48766E+06     180.368E+06     164.782E+06     2.37351E+06         65.7369
             177     16.9713E-03     95.5382E-03         1.31044    -369.352E-03    -402.415E-03    -388.280E-03         1.31005    -383.094E-03    -43.3533E-03     172.818E-03    -60.0305E-03    -112.728E-03    -63.1485E-03     123.239E-03    -60.0305E-03     216.321E-03     184.767E+06     168.228E+06    -6.26822E+06    -6.26272E+06     184.761E+06     168.228E+06     417.452E+03         65.6631
             178     16.9726E-03     96.6602E-03         1.27924    -362.514E-03    -385.895E-03    -381.431E-03         1.27884    -366.574E-03    -45.3517E-03     171.874E-03    -59.9734E-03    -111.881E-03    -62.1334E-03     122.126E-03    -59.9734E-03     215.777E-03     187.691E+06     173.485E+06    -2.37114E+06    -2.32317E+06     187.643E+06     173.485E+06     1.86309E+06         65.5009
             179     16.9768E-03     97.7853E-03         1.22496    -339.309E-03    -348.997E-03    -339.143E-03         1.22480    -348.997E-03     11.1394E-03     171.343E-03    -59.8506E-03    -111.510E-03    -59.9961E-03     119.829E-03    -59.8506E-03     218.314E-03     190.003E+06     176.844E+06    -5.26542E+06    -5.21074E+06     189.948E+06     176.844E+06     2.98460E+06         65.1992
             180     16.9808E-03     98.9039E-03         1.18245    -325.683E-03    -357.853E-03    -352.084E-03         1.18231    -331.310E-03     23.9102E-03     171.211E-03    -59.6219E-03    -111.591E-03    -59.0472E-03     118.667E-03    -59.6219E-03     219.987E-03     192.845E+06     180.340E+06    -5.90559E+06    -5.87828E+06     192.818E+06     180.340E+06     2.26357E+06         64.7606
             181     16.9858E-03     100.021E-03         1.15216    -314.196E-03    -355.578E-03    -355.425E-03         1.15201    -314.196E-03    -17.5764E-03     170.374E-03    -59.2931E-03    -111.064E-03    -59.3954E-03     118.705E-03    -59.2931E-03     217.911E-03     196.412E+06     184.372E+06    -5.60694E+06    -5.57665E+06     196.381E+06     184.372E+06     2.43816E+06         64.2863
             182     16.9943E-03     101.139E-03         1.08569    -295.986E-03    -312.433E-03    -310.556E-03         1.08542    -297.594E-03    -3.20661E-03     166.432E-03    -58.8630E-03    -107.565E-03    -56.5922E-03     115.459E-03    -58.8630E-03     213.217E-03     199.047E+06     186.772E+06    -5.47599E+06    -5.46470E+06     199.035E+06     186.772E+06     1.33608E+06         63.8955
             183     17.0061E-03     102.249E-03         1.01833    -278.184E-03    -293.181E-03    -290.942E-03         1.01770    -279.793E-03     54.1866E-03     163.547E-03    -58.2287E-03    -105.405E-03    -53.1353E-03     111.277E-03    -58.2287E-03     212.834E-03     196.881E+06     185.228E+06    -4.59609E+06    -4.58536E+06     196.870E+06     185.228E+06    -689.962E+03         63.6524
             184     17.0209E-03     103.361E-03     954.260E-03    -261.538E-03    -285.528E-03    -284.918E-03     953.651E-03    -261.538E-03     21.2992E-03     166.355E-03    -57.2716E-03    -109.276E-03    -54.0529E-03     111.132E-03    -57.2716E-03     220.643E-03     192.245E+06     182.044E+06    -5.61076E+06    -5.58258E+06     192.217E+06     182.044E+06     349.219E+03         63.5774
             185     17.0416E-03     104.487E-03     908.459E-03    -245.038E-03    -267.228E-03    -266.967E-03     908.198E-03    -245.038E-03     4.42363E-03     169.276E-03    -56.0644E-03    -113.390E-03    -54.9182E-03     110.804E-03    -56.0644E-03     228.971E-03     187.523E+06     178.886E+06    -5.46983E+06    -5.45117E+06     187.505E+06     178.886E+06     1.51318E+06         63.6965
             186     17.0649E-03     105.593E-03     865.509E-03    -229.665E-03    -249.401E-03    -248.663E-03     864.771E-03    -229.665E-03     54.4561E-03     166.344E-03    -54.7334E-03    -111.689E-03    -54.4368E-03     109.092E-03    -54.7334E-03     224.830E-03     184.736E+06     177.135E+06    -4.19596E+06    -4.18815E+06     181.089E+06     180.775E+06     995.159E+03         64.0560
             187     17.0867E-03     106.695E-03     795.841E-03    -214.605E-03    -237.558E-03    -236.804E-03     795.087E-03    -214.605E-03     53.8891E-03     165.578E-03    -53.3233E-03    -112.190E-03    -61.9914E-03     115.379E-03    -53.3233E-03     213.293E-03     182.828E+06     176.060E+06    -2.29428E+06    -2.26388E+06     176.030E+06     182.828E+06     2.24332E+06         64.6452
             188     17.0981E-03     107.830E-03     759.241E-03    -199.025E-03    -233.029E-03    -232.841E-03     759.052E-03    -199.025E-03     23.2079E-03     170.730E-03    -52.1749E-03    -118.806E-03    -76.8437E-03     128.767E-03    -52.1749E-03     203.422E-03     183.500E+06     173.987E+06    -7.27689E+06    -7.24825E+06     173.959E+06     183.500E+06     691.141E+03         65.3579
             189     17.1031E-03     108.975E-03     710.105E-03    -182.765E-03    -213.518E-03    -212.916E-03     709.503E-03    -182.765E-03     36.2924E-03     177.995E-03    -51.4966E-03    -126.926E-03    -90.5307E-03     141.600E-03    -51.4966E-03     197.510E-03     185.418E+06     166.178E+06    -7.67502E+06    -7.38226E+06     165.885E+06     185.418E+06    -5.53488E+06         66.1886
             190     17.1031E-03     110.131E-03     640.944E-03    -167.212E-03    -183.063E-03    -182.256E-03     640.136E-03    -167.212E-03     50.3661E-03     184.908E-03    -51.0941E-03    -133.963E-03    -101.186E-03     152.131E-03    -51.0941E-03     193.530E-03     181.492E+06     155.175E+06    -2.57789E+06    -2.28870E+06     154.886E+06     181.492E+06    -5.21260E+06         67.2494
             191     17.1046E-03     111.301E-03     598.268E-03    -152.420E-03    -179.226E-03    -178.704E-03     597.746E-03    -152.420E-03     40.1014E-03     189.206E-03    -50.8432E-03    -138.448E-03    -108.619E-03     159.376E-03    -50.8432E-03     188.433E-03     177.018E+06     147.537E+06    -5.73150E+06    -5.57778E+06     147.383E+06     177.018E+06    -3.80349E+06         68.4283
             192     17.1046E-03     112.462E-03     572.033E-03    -137.748E-03    -186.801E-03    -186.420E-03     571.652E-03    -137.748E-03     32.2843E-03     193.602E-03    -50.5527E-03    -143.081E-03    -117.440E-03     167.961E-03    -50.5527E-03     178.156E-03     173.968E+06     136.753E+06    -4.54625E+06    -4.31489E+06     136.522E+06     173.968E+06    -5.67310E+06         69.4162
             193     17.1056E-03     113.642E-03     525.663E-03    -123.644E-03    -169.683E-03    -169.599E-03     525.579E-03    -123.644E-03     6.92900E-03     204.715E-03    -50.0984E-03    -154.593E-03    -133.642E-03     183.763E-03    -50.0984E-03     167.986E-03     173.212E+06     123.942E+06    -3.89417E+06    -3.55858E+06     123.607E+06     173.212E+06    -6.27624E+06         70.1214
             194     17.1055E-03     114.855E-03     463.435E-03    -110.030E-03    -143.042E-03    -142.980E-03     463.374E-03    -110.030E-03     4.11385E-03     221.051E-03    -49.5095E-03    -171.527E-03    -154.450E-03     203.974E-03    -49.5095E-03     159.551E-03     167.198E+06     108.749E+06    -5.59763E+06    -5.26712E+06     108.419E+06     167.198E+06    -5.96061E+06         70.6355
             195     17.1079E-03     116.085E-03     410.922E-03    -97.7079E-03    -121.292E-03    -121.056E-03     410.686E-03    -97.7079E-03    -5.91221E-03     238.933E-03    -48.8988E-03    -190.046E-03    -176.646E-03     225.533E-03    -48.8988E-03     148.714E-03     158.308E+06     84.6233E+06    -10.8088E+06    -9.91601E+06     83.7305E+06     158.308E+06    -7.89563E+06         70.9183
             196     17.1073E-03     117.347E-03     364.529E-03    -87.1460E-03    -109.730E-03    -109.319E-03     364.118E-03    -87.1460E-03     684.332E-06     260.044E-03    -48.3110E-03    -211.783E-03    -200.726E-03     248.988E-03    -48.3110E-03     142.488E-03     167.195E+06     71.3892E+06    -3.05733E+06    -549.697E+03     68.8816E+06     167.195E+06     1.05268E+06         70.7592
             197     17.1094E-03     118.653E-03     312.232E-03    -76.9109E-03    -95.4865E-03    -95.2052E-03     311.950E-03    -76.9109E-03     20.5750E-03     278.553E-03    -47.8322E-03    -230.786E-03    -220.530E-03     268.296E-03    -47.8322E-03     143.077E-03     174.842E+06     57.8677E+06    -11.2008E+06     -8.6305E+06     55.2973E+06     174.842E+06     1.23170E+06         70.0238
             198     17.1103E-03     119.971E-03     249.563E-03    -65.6441E-03    -73.9599E-03    -71.5736E-03     249.432E-03    -67.8995E-03    -148.412E-06     297.296E-03    -47.4953E-03    -249.811E-03    -236.248E-03     283.732E-03    -47.4953E-03     169.194E-03     190.556E+06     51.9963E+06    -4.15998E+06     4.33660E+06     43.4997E+06     190.556E+06     2.99503E+06         68.5170
             199     17.1117E-03     121.367E-03     203.534E-03    -57.7012E-03    -61.6162E-03    -57.6205E-03     203.453E-03    -61.6162E-03    -7.93261E-03     313.952E-03    -47.4897E-03    -266.443E-03    -240.271E-03     287.780E-03    -47.4897E-03     236.961E-03     197.386E+06     52.6813E+06    -16.6057E+06    -7.44158E+06     43.5172E+06     197.386E+06     -54.545E+03         66.1403
             200     17.1131E-03     122.750E-03     163.613E-03    -55.8053E-03    -58.1834E-03    -55.7824E-03     163.590E-03    -58.1834E-03    -4.12614E-03     284.637E-03    -48.7281E-03    -235.897E-03    -183.677E-03     232.417E-03    -48.7281E-03     302.524E-03     146.395E+06     29.5995E+06    -40.4343E+06    -30.9774E+06     20.1426E+06     146.395E+06    -17.9205E+06         63.5349
             201     17.1177E-03     123.885E-03     110.338E-03    -38.8359E-03    -57.2265E-03    -38.8007E-03     110.303E-03    -57.2265E-03    -794.265E-06     184.359E-03    -53.8897E-03    -130.531E-03    -68.4690E-03     123.659E-03    -55.2518E-03     242.888E-03     100.951E+06     9.86528E+06    -23.3646E+06    -7.46430E+06    -6.03500E+06     100.951E+06    -1.73202E+06         61.1155
             202     16.8101E-03     124.854E-03     59.8349E-03    -11.1919E-03    -58.1137E-03    -11.0843E-03     59.7274E-03    -58.1137E-03     4.39651E-03     81.0357E-03    -8.40707E-03    -72.7091E-03     18.3914E-03     54.2372E-03    -72.7091E-03     81.8431E-03     65.1717E+06    -13.1728E+06    -37.3148E+06     11.8802E+06    -19.6096E+06     22.4135E+06     14.4239E+06         58.9004
             203     15.3843E-03     125.231E-03     45.3670E-03    -2.39046E-03    -60.2295E-03    -1.92540E-03     44.9019E-03    -60.2295E-03    -4.17051E-03     51.1162E-03     33.4659E-03    -84.5901E-03     36.4925E-03     48.0895E-03    -84.5901E-03     12.8851E-03     61.3902E+06     25.8472E+06    -28.6603E+06     12.7752E+06     27.1698E+06     18.6321E+06     10.2712E+06         56.2642
             204     14.4644E-03     124.750E-03     57.3396E-03    -10.3509E-03    -62.2645E-03    -8.29535E-03     55.2841E-03    -62.2645E-03    -22.1921E-03     90.6677E-03    -8.16754E-03    -82.5776E-03    -2.00839E-03     84.5085E-03    -82.5776E-03    -22.5693E-03     93.8894E+06     33.0681E+06    -26.3372E+06    -12.9881E+06     19.7190E+06     93.8894E+06    -583.086E+03         52.3565
             205     13.6558E-03     124.261E-03     56.6179E-03    -16.2604E-03    -63.7347E-03    -13.7965E-03     54.1540E-03    -63.7347E-03    -5.08781E-03     125.947E-03    -48.6123E-03    -77.4039E-03    -39.2875E-03     116.622E-03    -77.4039E-03    -78.2719E-03     98.9856E+06     11.1484E+06    -33.6902E+06    -9.22782E+06    -13.3141E+06     98.9856E+06    -18.5992E+06         47.5040
             206     12.8519E-03     123.846E-03     57.6581E-03    -10.9191E-03    -65.7529E-03    -7.44961E-03     54.1886E-03    -65.7529E-03     28.5033E-03     132.946E-03    -61.6203E-03    -71.3229E-03    -50.6222E-03     121.948E-03    -71.3229E-03    -89.8013E-03     89.4956E+06     16.8097E+06    -32.2107E+06    -3.13035E+06    -12.2706E+06     89.4956E+06    -11.3301E+06         42.5575
             207     12.0043E-03     123.518E-03     64.9254E-03    -14.9855E-03    -68.3038E-03    -12.2266E-03     62.1664E-03    -68.3038E-03     21.7497E-03     145.695E-03    -65.4994E-03    -80.2067E-03    -68.3905E-03     134.084E-03    -65.7045E-03    -99.7078E-03     97.1880E+06     14.8971E+06    -20.7891E+06    -341.788E+03    -5.55017E+06     97.1880E+06    -2.83086E+06         38.3007
             208     11.1620E-03     123.244E-03     57.1971E-03    -16.6368E-03    -70.9329E-03    -14.4146E-03     54.9749E-03    -70.9329E-03    -10.9700E-03     153.303E-03    -59.8053E-03    -93.5709E-03    -82.5184E-03     142.250E-03    -59.8053E-03    -101.886E-03     105.100E+06     29.8122E+06    -14.9730E+06     14.3637E+06     475.463E+03     105.100E+06    -11.1332E+06         34.9305
             209     10.3187E-03     123.018E-03     43.2348E-03    -10.1123E-03    -74.7105E-03    -5.34635E-03     38.4689E-03    -74.7105E-03    -30.3754E-03     144.807E-03    -54.0351E-03    -90.7338E-03    -83.0512E-03     137.125E-03    -54.0351E-03    -83.1684E-03     107.089E+06      28.194E+06    -13.7217E+06     26.6636E+06    -12.1913E+06     107.089E+06    -7.83321E+06         32.1737
             210     9.44206E-03     122.845E-03     73.0091E-03    -42.4867E-03    -78.4199E-03    -36.3826E-03     66.9050E-03    -78.4199E-03    -50.3245E-03     131.366E-03    -48.9819E-03    -82.2880E-03    -77.7233E-03     126.801E-03    -48.9819E-03    -61.4676E-03     110.722E+06     34.0906E+06    -5.01863E+06     33.3859E+06    -4.31389E+06     110.722E+06    -1.80097E+06         29.9618
             211     8.54729E-03     122.708E-03     107.418E-03    -76.1897E-03    -86.0785E-03    -79.4234E-03     103.760E-03    -79.1863E-03    -42.8718E-03     118.439E-03    -44.5251E-03    -73.9004E-03    -71.1290E-03     115.667E-03    -44.5251E-03    -45.6319E-03     102.966E+06     33.2549E+06    -1.59241E+06     33.1622E+06    -1.49970E+06     102.966E+06     583.398E+03         28.2401
             212     7.63534E-03     122.602E-03     87.4130E-03    -76.6724E-03    -84.8394E-03    -83.1584E-03     87.0069E-03    -77.9472E-03    -16.3901E-03     105.783E-03    -40.5201E-03    -65.2437E-03    -63.5532E-03     104.092E-03    -40.5201E-03    -33.6946E-03     90.9868E+06     29.8212E+06     2.19788E+06     29.6821E+06     2.33697E+06     90.9868E+06    -1.94116E+06         26.9092
             213     6.70940E-03     122.518E-03     69.5924E-03    -63.3203E-03    -78.1487E-03    -62.9573E-03     69.2294E-03    -78.1487E-03    -13.7571E-03     93.7562E-03    -37.0073E-03    -56.8023E-03    -55.7653E-03     92.7192E-03    -37.0073E-03    -24.8087E-03     80.3508E+06     34.3389E+06     238.977E+03     32.7715E+06     1.80643E+06     80.3508E+06    -6.05104E+06         25.9489
             214     5.77246E-03     122.453E-03     78.1492E-03    -56.0348E-03    -80.9191E-03    -55.6661E-03     77.7805E-03    -80.9191E-03    -13.9281E-03     82.8317E-03    -34.0140E-03    -48.8737E-03    -48.2326E-03     82.1906E-03    -34.0140E-03    -18.2690E-03     75.7189E+06     42.5423E+06    -3.98063E+06     40.8250E+06    -2.26334E+06     75.7189E+06    -7.45078E+06         25.2544
             215     4.82571E-03     122.406E-03     76.3948E-03    -62.0683E-03    -84.9614E-03    -61.3829E-03     75.7094E-03    -84.9614E-03    -19.1803E-03     73.2395E-03    -31.4891E-03    -41.7129E-03    -41.3296E-03     72.8562E-03    -31.4891E-03    -13.1723E-03     75.7683E+06     50.0672E+06    -1.01615E+06     49.5532E+06    -502.115E+03     75.7683E+06    -5.07587E+06         24.7092
             216     3.86890E-03     122.368E-03     79.2197E-03    -63.6681E-03    -90.3507E-03    -63.1331E-03     78.6847E-03    -90.3507E-03    -16.1584E-03     65.4110E-03    -29.4826E-03    -35.8953E-03    -35.6631E-03     65.1787E-03    -29.4826E-03    -9.67082E-03     77.0222E+06     55.4933E+06     478.728E+03     54.8682E+06     1.10384E+06     77.0222E+06    -5.82770E+06         24.2538
             217     2.90647E-03     122.343E-03     107.449E-03    -80.6045E-03    -103.056E-03    -82.5647E-03     102.078E-03    -95.7248E-03     43.9765E-03     59.6168E-03    -27.9285E-03    -31.6905E-03    -31.5499E-03     59.4762E-03    -27.9285E-03    -7.07122E-03     74.2084E+06     60.8173E+06    -2.66042E+06     60.3317E+06    -2.17489E+06     74.2084E+06    -5.38376E+06         23.8820
             218     1.94030E-03     122.323E-03     122.319E-03    -90.7849E-03    -136.455E-03    -118.113E-03     103.977E-03    -90.7849E-03    -31.8103E-03     55.0172E-03    -26.8387E-03    -28.1758E-03    -28.1060E-03     54.9474E-03    -26.8387E-03    -4.77613E-03     69.5971E+06     59.0925E+06    -1.77622E+06     64.7065E+06    -1.54053E+06     63.7474E+06    -3.94867E+06         23.6042
             219     970.035E-06     122.313E-03     82.8223E-03    -53.8896E-03    -143.358E-03    -113.107E-03     52.5713E-03    -53.8896E-03    -150.530E-03     53.0584E-03    -26.1452E-03    -26.9134E-03    -26.8835E-03     53.0285E-03    -26.1452E-03    -2.90069E-03     77.4453E+06     67.5515E+06    -1.58619E+06     72.5782E+06    -763.147E+03     71.5956E+06    -7.19114E+06         23.4303
             220    -1.76053E-06     121.256E-03     89.8415E-03    -27.6409E-03    -152.177E-03    -23.8407E-03     34.9113E-03    -101.047E-03    -150.480E-03     45.0516E-03    -21.8832E-03    -23.1683E-03    -22.5862E-03     45.0343E-03    -22.4480E-03    -2.06950E-03     56.4264E+06     46.5994E+06    -17.9668E+06     51.3085E+06    -16.8930E+06     50.6435E+06    -8.55655E+06         23.0417
             221     547.647E-09     120.219E-03     162.811E-03    -50.4478E-03    -168.416E-03    -57.1893E-03     124.990E-03    -123.854E-03    -88.5015E-03     30.1974E-03    -14.7081E-03    -15.4886E-03    -14.9037E-03     30.1772E-03    -15.2729E-03    -1.90693E-03    -6.07689E+06    -13.4574E+06    -43.0594E+06    -10.2585E+06    -38.8778E+06    -13.4574E+06    -5.09428E+06         22.2844
             222    -114.920E-09     119.197E-03     159.371E-03    -56.5259E-03    -128.343E-03    -98.7406E-03     157.023E-03    -83.7806E-03    -34.7120E-03     18.6596E-03    -9.18213E-03    -9.47740E-03    -9.38259E-03     18.6443E-03    -9.26162E-03    -1.30478E-03    -50.4508E+06    -64.7667E+06    -69.4382E+06    -65.7387E+06    -52.4306E+06    -66.4864E+06    -5.45447E+06         21.5081
             223    -102.656E-09     118.182E-03     220.057E-03    -72.5838E-03    -122.667E-03    -84.0865E-03     208.731E-03    -99.8385E-03    -117.003E-03     11.0264E-03    -5.45913E-03    -5.56749E-03    -5.47637E-03     11.0148E-03    -5.53862E-03    -876.149E-06    -73.8636E+06    -114.307E+06    -119.652E+06    -116.364E+06    -75.4319E+06    -116.027E+06    -6.94033E+06         20.9053
             224     191.905E-09     117.175E-03     317.031E-03    -108.277E-03    -156.410E-03    -146.320E-03     306.941E-03    -108.277E-03    -121.318E-03     6.26364E-03    -3.08323E-03    -3.18048E-03    -3.10707E-03     6.25861E-03    -3.15160E-03    -414.236E-06    -93.9497E+06    -161.321E+06    -167.513E+06    -164.388E+06    -94.5077E+06    -163.888E+06    -6.21098E+06         20.4928
             225    -369.345E-09     116.169E-03     323.112E-03    -97.4070E-03    -132.774E-03    -103.019E-03     293.357E-03    -97.4070E-03    -177.449E-03     3.28645E-03    -1.60696E-03    -1.67942E-03    -1.60479E-03     3.28428E-03    -1.67942E-03     23.0756E-06    -109.860E+06    -208.459E+06    -212.389E+06    -209.566E+06    -110.117E+06    -211.026E+06    -1.95724E+06         20.2867
             226     377.282E-09     115.169E-03     332.788E-03    -90.0431E-03    -107.077E-03    -71.1899E-03     303.873E-03    -97.0156E-03    -133.009E-03     2.29956E-03    -1.14506E-03    -1.15446E-03    -1.14557E-03     2.29474E-03    -1.14914E-03     255.185E-06    -101.051E+06    -179.774E+06    -183.370E+06    -177.489E+06    -104.699E+06    -182.006E+06     8.74785E+06         20.2753
             227    -452.651E-09     114.165E-03     353.502E-03    -100.892E-03    -118.109E-03    -104.518E-03     346.884E-03    -107.865E-03    -65.5247E-03     3.16821E-03    -1.57068E-03    -1.59747E-03    -1.56605E-03     3.15825E-03    -1.59215E-03     433.302E-06    -48.7583E+06    -110.991E+06    -119.226E+06    -108.113E+06    -57.6385E+06    -113.224E+06     22.7179E+06         20.4331
             228     407.816E-09     113.162E-03     337.162E-03    -74.9819E-03    -103.965E-03    -96.8394E-03     330.036E-03    -74.9819E-03    -101.771E-03     6.45066E-03    -3.16705E-03    -3.28346E-03    -3.20767E-03     6.39634E-03    -3.18852E-03     1.41310E-03     14.1531E+06    -70.4416E+06    -84.6691E+06    -79.2494E+06     8.73337E+06    -70.4416E+06     17.9637E+06         20.7564
             229    -202.745E-09     112.151E-03     405.465E-03    -98.8659E-03    -127.367E-03    -105.370E-03     393.230E-03    -108.627E-03    -144.121E-03     13.5305E-03    -6.64259E-03    -6.88803E-03    -6.78841E-03     13.4309E-03    -6.64259E-03     2.81380E-03     45.7992E+06    -23.7550E+06    -36.4274E+06    -31.7948E+06     45.6131E+06    -28.2015E+06     3.61547E+06         21.2584
             230     344.321E-09     111.135E-03     538.364E-03    -138.922E-03    -178.072E-03    -126.966E-03     526.408E-03    -178.072E-03    -145.015E-03     24.8561E-03    -12.2997E-03    -12.5573E-03    -12.4758E-03     24.7745E-03    -12.2997E-03     3.35635E-03     51.3329E+06     17.2637E+06     8.77673E+06     13.3247E+06     51.2314E+06     12.8171E+06    -219.265E+03         21.9905
             231    -126.675E-09     110.102E-03     574.772E-03    -135.777E-03    -174.081E-03    -135.269E-03     574.264E-03    -174.081E-03    -35.4988E-03     39.5098E-03    -19.6614E-03    -19.8499E-03    -19.7899E-03     39.4498E-03    -19.6614E-03     3.75514E-03     58.6270E+06     48.7679E+06     35.6238E+06     46.0421E+06     48.2087E+06     48.7679E+06    -5.46148E+06         22.9794
             232     221.922E-09     109.054E-03     580.847E-03    -137.965E-03    -163.877E-03    -154.733E-03     580.619E-03    -146.881E-03    -25.7824E-03     55.0852E-03    -27.4224E-03    -27.6676E-03    -27.6191E-03     55.0367E-03    -27.4224E-03     3.92532E-03     68.5029E+06     63.9938E+06     27.3375E+06     66.0943E+06     29.7461E+06     63.9938E+06    -8.01089E+06         24.1324
             233     52.4267E-09     107.989E-03     642.318E-03    -149.161E-03    -192.045E-03    -190.676E-03     640.948E-03    -149.161E-03     32.9785E-03     70.1718E-03    -34.8386E-03    -35.3321E-03    -35.3019E-03     70.1415E-03    -34.8386E-03     3.53191E-03     69.7574E+06     67.3390E+06     724.355E+03     67.9830E+06     1.37661E+06     68.4611E+06    -6.44006E+06         25.2956
             234     559.484E-09     106.909E-03     771.018E-03    -169.581E-03    -264.355E-03    -258.215E-03     764.878E-03    -169.581E-03     153.368E-03     83.9792E-03    -41.8187E-03    -42.1545E-03    -42.1333E-03     83.9581E-03    -41.8187E-03     3.24441E-03     66.5239E+06     64.8041E+06    -21.8395E+06     63.6964E+06    -20.7318E+06     66.5239E+06    -9.37568E+06         26.3565
             235    -536.913E-09     105.814E-03     840.661E-03    -146.243E-03    -332.614E-03    -297.874E-03     805.921E-03    -146.243E-03     366.150E-03     95.6436E-03    -47.4964E-03    -48.1474E-03    -48.1360E-03     95.6321E-03    -47.4964E-03     2.43040E-03     64.0393E+06     59.0307E+06    -47.9172E+06     62.5105E+06    -46.9861E+06     59.6285E+06    -8.17169E+06         27.2546
             236     1.71789E-06     104.709E-03     853.894E-03    -71.8838E-03    -393.762E-03    -346.970E-03     807.102E-03    -71.8838E-03     467.527E-03     104.602E-03    -51.7601E-03    -52.8453E-03    -52.8424E-03     104.599E-03    -51.7601E-03     1.21631E-03     55.5547E+06     46.2027E+06    -70.1997E+06     50.4703E+06    -70.0564E+06     51.1438E+06    -4.07839E+06         27.9581
             237    -811.639E-09     103.596E-03     873.299E-03    -26.8409E-03    -460.597E-03    -420.197E-03     832.899E-03    -26.8409E-03     456.074E-03     110.963E-03    -55.0882E-03    -55.8778E-03    -55.8770E-03     110.963E-03    -55.0882E-03    -52.0979E-06     39.8011E+06     29.7202E+06    -86.1247E+06     34.7345E+06    -85.9992E+06     34.6614E+06    -3.72018E+06         28.4707
             238     1.40288E-06     102.475E-03     976.823E-03    -21.4140E-03    -547.309E-03    -496.279E-03     925.793E-03    -21.4140E-03     548.318E-03     115.265E-03    -57.2469E-03    -58.0198E-03    -58.0192E-03     115.264E-03    -57.2469E-03    -143.506E-06     18.0465E+06     9.98236E+06    -104.624E+06     14.9471E+06    -104.449E+06     12.9068E+06    -4.22976E+06         28.8219
             239    -565.068E-09     101.350E-03         1.08722     58.9303E-03    -715.563E-03    -682.550E-03         1.05420     58.9303E-03     443.563E-03     117.938E-03    -58.6007E-03    -59.3396E-03    -59.0241E-03     117.938E-03    -58.9161E-03     143.656E-06     4.71775E+06     374.893E+03    -118.572E+06     1.54314E+06    -118.322E+06     3.29932E+06    -5.44548E+06         29.0465
             240    -43.7893E-09     100.227E-03         1.11450     135.199E-03    -793.048E-03    -787.274E-03         1.10872     135.199E-03     180.592E-03     119.552E-03    -59.3655E-03    -60.1881E-03    -59.8693E-03     119.548E-03    -59.6808E-03    -1.22381E-03    -17.2596E+06    -18.7709E+06    -139.751E+06    -17.6277E+06    -139.383E+06    -18.7709E+06    -6.49871E+06         29.1743
             241     989.437E-09     99.0991E-03         1.05432     255.733E-03    -824.046E-03    -812.947E-03         1.04322     255.733E-03    -162.575E-03     120.331E-03    -59.7335E-03    -60.5975E-03    -60.5940E-03     120.327E-03    -59.7335E-03    -1.18869E-03    -36.1769E+06    -37.2206E+06    -165.549E+06    -36.5379E+06    -165.188E+06    -37.2206E+06    -6.54080E+06         29.2326
             242    -329.047E-09     97.9704E-03         1.09259     373.725E-03    -979.217E-03    -947.752E-03         1.06113     373.725E-03    -503.496E-03     120.450E-03    -59.8986E-03    -60.5529E-03    -60.5527E-03     120.450E-03    -59.8986E-03    -388.548E-06    -50.4813E+06    -51.9431E+06    -179.181E+06    -51.1210E+06    -179.052E+06    -51.4321E+06    -3.96356E+06         29.2550
             243     898.561E-09     96.8428E-03         1.35643     357.806E-03        -1.19232        -1.07481         1.23891     357.806E-03        -1.01747     120.399E-03    -59.8929E-03    -60.5060E-03    -60.5057E-03     120.398E-03    -59.8929E-03    -457.265E-06    -69.7365E+06    -71.8080E+06    -194.983E+06    -71.9735E+06    -194.817E+06    -69.7365E+06    -4.30623E+06         29.2629
             244    -277.952E-09     95.7174E-03         1.51642     424.013E-03        -1.38994        -1.19816         1.32464     424.013E-03        -1.44275     120.636E-03    -59.9646E-03    -60.6689E-03    -60.6684E-03     120.636E-03    -59.9646E-03    -524.762E-06    -78.1276E+06    -82.6811E+06    -214.753E+06    -79.9156E+06    -214.525E+06    -81.1205E+06    -5.50780E+06         29.2687
             245     970.614E-09     94.5877E-03         1.66045     548.973E-03        -1.64843        -1.29558         1.30760     548.973E-03        -1.99603     120.665E-03    -59.8033E-03    -60.8597E-03    -60.8585E-03     120.664E-03    -59.8033E-03    -899.598E-06    -84.6663E+06    -88.6883E+06    -231.812E+06    -85.8102E+06    -231.698E+06    -87.6592E+06    -3.83443E+06         29.2761
             246     297.822E-09     93.4634E-03         1.96129     605.423E-03        -1.98004        -1.35194         1.33319     605.423E-03        -2.88011     120.262E-03    -59.7834E-03    -60.4793E-03    -60.4486E-03     120.259E-03    -59.8117E-03    -1.30515E-03    -87.3229E+06    -88.6322E+06    -245.297E+06    -88.4239E+06    -245.225E+06    -87.6031E+06    -3.30105E+06         29.2784
             247    -354.769E-09     92.3358E-03         2.31352     587.571E-03        -2.29045        -1.44154         1.46461     587.571E-03        -3.56898     120.490E-03    -60.0554E-03    -60.4347E-03    -60.4043E-03     120.488E-03    -60.0837E-03    -1.15342E-03    -93.0327E+06    -93.9874E+06    -255.903E+06    -93.1029E+06    -255.833E+06    -93.9874E+06    -3.29512E+06         29.2778
             248     1.00295E-06     91.2067E-03         2.60313     600.817E-03        -2.56949        -1.54337         1.57700     600.817E-03        -4.12498     120.978E-03    -60.1713E-03    -60.8037E-03    -60.8028E-03     120.977E-03    -60.1713E-03    -809.066E-06    -96.0416E+06    -97.9149E+06    -267.258E+06    -97.3454E+06    -267.153E+06    -96.7161E+06    -4.01394E+06         29.2782
             249    -447.393E-09     90.0814E-03         2.86117     695.966E-03        -2.91507        -1.62694         1.57305     695.966E-03        -4.80176     120.699E-03    -60.1333E-03    -60.5656E-03    -60.5640E-03     120.698E-03    -60.1333E-03    -1.05211E-03    -97.8909E+06    -100.473E+06    -280.269E+06    -99.1743E+06    -280.185E+06    -99.2738E+06    -2.84321E+06         29.2742
             250     708.097E-09     88.9521E-03         3.19460     741.771E-03        -3.27946        -1.65547         1.57061     741.771E-03        -5.61110     120.295E-03    -59.8363E-03    -60.4589E-03    -60.4577E-03     120.293E-03    -59.8363E-03    -840.081E-06    -91.9539E+06    -96.0229E+06    -283.755E+06    -94.6429E+06    -283.753E+06    -93.3368E+06     352.907E+03         29.2659
             251     221.680E-09     87.8277E-03         3.54485     746.371E-03        -3.60972        -1.69236         1.62749     746.371E-03        -6.33657     120.318E-03    -59.7399E-03    -60.5778E-03    -60.5770E-03     120.317E-03    -59.7399E-03    -712.828E-06    -86.4405E+06    -93.1048E+06    -285.768E+06    -89.1606E+06    -285.734E+06    -90.4187E+06    -1.29334E+06         29.2587
             252     407.263E-09     86.6997E-03         3.86262     719.543E-03        -3.89194        -1.75527         1.72594     719.543E-03        -6.92924     120.299E-03    -59.9433E-03    -60.3542E-03    -60.3529E-03     120.297E-03    -59.9433E-03    -949.746E-06    -85.9156E+06    -92.1714E+06    -289.688E+06    -88.2364E+06    -289.645E+06    -89.8937E+06    -705.779E+03         29.2538
             253    -291.681E-09     85.5739E-03         4.21162     655.447E-03        -4.13217        -1.78350         1.86296     655.447E-03        -7.50418     119.935E-03    -59.8749E-03    -60.0578E-03    -60.0564E-03     119.934E-03    -59.8749E-03    -1.00008E-03    -85.3473E+06    -88.2754E+06    -290.198E+06    -87.6369E+06    -290.186E+06    -85.9977E+06     996.188E+03         29.2514
             254     544.512E-09     84.4475E-03         4.47030     628.877E-03        -4.35847        -1.76348         1.87531     628.877E-03        -8.04278     119.934E-03    -59.7110E-03    -60.2195E-03    -60.2183E-03     119.933E-03    -59.7110E-03    -893.613E-06    -84.4223E+06    -85.1135E+06    -290.119E+06    -84.4224E+06    -290.119E+06    -85.1135E+06    -97.4330E+03         29.2528
             255     148.689E-09     83.3221E-03         4.65915     585.602E-03        -4.50668        -1.67845         1.83092     585.602E-03        -8.46615     119.923E-03    -59.7665E-03    -60.1501E-03    -60.1476E-03     119.920E-03    -59.7665E-03    -1.23866E-03    -84.5556E+06    -85.3549E+06    -289.246E+06    -85.3171E+06    -289.243E+06    -84.5964E+06    -558.707E+03         29.2585
             256    -110.958E-09     82.1952E-03         4.82385     472.102E-03        -4.51448        -1.65172         1.96109     472.102E-03        -8.60916     119.947E-03    -59.6662E-03    -60.2769E-03    -60.2748E-03     119.945E-03    -59.6662E-03    -892.212E-06    -82.7732E+06    -85.0737E+06    -288.628E+06    -83.5490E+06    -288.610E+06    -84.3152E+06     672.322E+03         29.2665
             257     1.21501E-06     81.0686E-03         4.94611     415.685E-03        -4.55637        -1.65071         2.04045     415.685E-03        -8.75463     120.224E-03    -59.7324E-03    -60.4925E-03    -60.4925E-03     120.224E-03    -59.7324E-03     36.1135E-06    -78.6825E+06    -80.9074E+06    -285.417E+06    -79.3853E+06    -285.397E+06    -80.2245E+06     1.97249E+06         29.2740
             258    -901.575E-09     79.9413E-03         5.01193     374.073E-03        -4.56789        -1.52828         1.97233     374.073E-03        -8.91704     120.175E-03    -59.8512E-03    -60.3248E-03    -60.3245E-03     120.174E-03    -59.8512E-03    -306.546E-06    -78.5148E+06    -79.8761E+06    -285.201E+06    -79.2110E+06    -285.187E+06    -79.1932E+06     1.65030E+06         29.2804
             259     1.48002E-06     78.8170E-03         5.05950     188.285E-03        -4.40696        -1.42629         2.07883     188.285E-03        -8.79280     120.235E-03    -59.7167E-03    -60.5160E-03    -60.5131E-03     120.232E-03    -59.7167E-03    -1.30913E-03    -78.4111E+06    -79.6651E+06    -283.810E+06    -78.9946E+06    -283.802E+06    -79.0895E+06     797.074E+03         29.2889
             260    -560.907E-09     77.6903E-03         5.05651     29.3753E-03        -4.23155        -1.32870         2.15367     29.3753E-03        -8.61021     120.318E-03    -59.8416E-03    -60.4725E-03    -60.3266E-03     120.315E-03    -59.9842E-03    -1.49009E-03    -78.9259E+06    -79.6149E+06    -284.069E+06    -79.5087E+06    -284.062E+06    -79.0392E+06     752.721E+03         29.2993
             261     290.178E-09     76.5628E-03         4.97502    -103.427E-03        -4.00720        -1.12451         2.09234    -103.427E-03        -8.38593     120.608E-03    -59.9847E-03    -60.6230E-03    -60.4790E-03     120.607E-03    -60.1273E-03    -1.00319E-03    -77.4692E+06    -78.7527E+06    -283.015E+06    -78.6996E+06    -282.955E+06    -77.5825E+06    -1.46275E+06         29.3045
             262     654.883E-09     75.4355E-03         4.93969    -375.382E-03        -3.66288    -940.713E-03         2.21752    -375.382E-03        -7.99991     120.425E-03    -59.8327E-03    -60.5923E-03    -60.5913E-03     120.424E-03    -59.8327E-03    -856.477E-06    -72.1578E+06    -77.5170E+06    -278.823E+06    -73.4178E+06    -278.733E+06    -76.3468E+06    -358.748E+03         29.2977
             263    -216.324E-09     74.3090E-03         4.84584    -631.358E-03        -3.29497    -779.719E-03         2.33059    -631.358E-03        -7.52309     119.904E-03    -59.6967E-03    -60.2074E-03    -60.2068E-03     119.903E-03    -59.6967E-03    -613.415E-06    -73.1044E+06    -81.5422E+06    -282.506E+06    -77.4265E+06    -282.433E+06    -77.2934E+06     3.87806E+06         29.2866
             264     740.662E-09     73.1832E-03         4.74341    -833.682E-03        -2.98434    -533.791E-03         2.29287    -833.682E-03        -7.19158     120.262E-03    -59.7107E-03    -60.5522E-03    -60.5515E-03     120.261E-03    -59.7107E-03    -667.908E-06    -74.1513E+06    -79.5514E+06    -281.408E+06    -78.5264E+06    -281.282E+06    -75.3026E+06    -1.10882E+06         29.2858
             265     366.966E-09     72.0567E-03         4.71712        -1.10127        -2.66615    -256.786E-03         2.30776        -1.10127        -6.92336     120.532E-03    -59.8171E-03    -60.7110E-03    -60.7092E-03     120.530E-03    -59.8171E-03    -1.11052E-03    -72.9222E+06    -75.8176E+06    -277.975E+06    -73.0321E+06    -277.865E+06    -75.8176E+06    -1.59206E+06         29.2885
             266     167.221E-09     70.9296E-03         4.74132        -1.35790        -2.41702     4.49289E-03         2.31980        -1.35790        -6.77228     120.200E-03    -59.8872E-03    -60.3117E-03    -60.3092E-03     120.198E-03    -59.8872E-03    -1.33388E-03    -74.2132E+06    -78.7004E+06    -279.868E+06    -76.9812E+06    -279.844E+06    -75.9572E+06     2.11227E+06         29.2835
             267     104.485E-09     69.8034E-03         4.82082        -1.61490        -2.21468     249.824E-03         2.35632        -1.61490        -6.71257     120.054E-03    -59.7965E-03    -60.2608E-03    -60.2592E-03     120.053E-03    -59.7965E-03    -1.00025E-03    -72.9306E+06    -77.7541E+06    -277.101E+06    -75.7506E+06    -277.024E+06    -75.0108E+06    -2.02688E+06         29.2755
             268     507.160E-09     68.6765E-03         4.94263        -1.87182        -2.07519     502.846E-03         2.39604        -1.90327        -6.72307     119.917E-03    -59.7127E-03    -60.2031E-03    -60.2016E-03     119.916E-03    -59.7127E-03    -991.316E-06    -75.0268E+06    -78.1481E+06    -278.681E+06    -76.1510E+06    -278.598E+06    -77.1071E+06    -1.64914E+06         29.2700
             269    -208.132E-09     67.5511E-03         5.04661        -1.87397        -2.16949     787.904E-03         2.38474        -2.16949        -6.73257     120.016E-03    -59.9275E-03    -60.0863E-03    -60.0777E-03     120.015E-03    -59.9349E-03    -664.371E-06    -75.9739E+06     -79.008E+06    -281.171E+06    -77.0869E+06    -281.099E+06    -77.9670E+06     3.55627E+06         29.2726
             270     168.644E-09     66.4238E-03         5.27216        -1.73730        -2.50966         1.02747         2.50739        -2.50966        -6.85145     120.530E-03    -59.9981E-03    -60.5313E-03    -60.5225E-03     120.528E-03    -60.0055E-03    -700.522E-06    -73.3913E+06    -77.2818E+06    -277.785E+06    -75.3584E+06    -277.715E+06    -75.3844E+06     3.43250E+06         29.2801
             271     846.511E-09     65.2966E-03         5.55090        -1.62995        -2.87796         1.32055         2.60041        -2.87796        -7.06209     120.446E-03    -59.7914E-03    -60.6591E-03    -60.6575E-03     120.445E-03    -59.7914E-03    -450.066E-06    -77.0083E+06    -78.9369E+06    -279.085E+06    -78.9375E+06    -279.053E+06    -77.0394E+06    -595.787E+03         29.2796
             272    -202.690E-09     64.1701E-03         5.73598        -1.56031        -3.12085         1.74095         2.43473        -3.12085        -7.25358     120.326E-03    -59.9850E-03    -60.3472E-03    -60.3470E-03     120.326E-03    -59.9850E-03     132.473E-06    -77.2020E+06     -78.144E+06    -279.614E+06    -77.2349E+06    -279.581E+06     -78.144E+06    -2.52413E+06         29.2765
             273     224.735E-09     63.0427E-03         5.94824        -1.47580        -3.39155         2.05654         2.41590        -3.39155        -7.41528     120.435E-03    -59.8687E-03    -60.5692E-03    -60.5684E-03     120.435E-03    -59.8687E-03    -654.824E-06    -75.5434E+06    -77.3625E+06    -278.638E+06    -76.4616E+06    -278.628E+06    -76.4543E+06    -1.12523E+06         29.2841
             274     16.0224E-03     61.4954E-03         2.62371    -751.731E-03    -766.222E-03    -762.440E-03         2.62352    -755.325E-03     22.9598E-03     184.944E-03    -60.1871E-03    -124.756E-03    -66.4179E-03     126.607E-03    -60.1871E-03     241.760E-03     141.534E+06     136.211E+06    -7.17190E+06    -7.16361E+06     141.526E+06     136.211E+06     743.501E+03         63.9328
             275     15.0793E-03     61.1905E-03         2.64164    -756.846E-03    -778.004E-03    -777.883E-03         2.64152    -756.846E-03     4.73576E-03     173.346E-03    -60.1812E-03    -113.130E-03    -63.5454E-03     123.761E-03    -60.1812E-03     214.819E-03     117.472E+06     110.669E+06    -15.9241E+06    -15.8712E+06     117.419E+06     110.669E+06    -693.361E+03         59.6088
             276     14.1312E-03     61.0082E-03         2.63134    -754.969E-03    -768.265E-03    -765.425E-03         2.63116    -757.631E-03    -6.11059E-03     139.566E-03    -60.0929E-03    -79.4629E-03    -59.7948E-03     119.898E-03    -60.0929E-03     119.890E-03     100.062E+06     76.3691E+06    -25.3297E+06    -25.2239E+06     99.9563E+06     76.3691E+06    -1.36857E+06         54.2966
             277     13.1922E-03     60.9243E-03         2.63308    -755.408E-03    -765.906E-03    -763.119E-03         2.63296    -758.070E-03    -2.79645E-03     124.616E-03    -59.9252E-03    -64.7402E-03    -58.9368E-03     118.812E-03    -59.9252E-03     64.4076E-03     94.6153E+06     38.2523E+06    -30.7282E+06    -30.6348E+06     94.5219E+06     38.2523E+06    -1.83473E+06         49.1308
             278     12.2484E-03     60.8668E-03         2.64566    -757.658E-03    -776.286E-03    -776.245E-03         2.64561    -757.658E-03     18.0308E-03     120.475E-03    -59.4603E-03    -61.0624E-03    -58.3009E-03     118.032E-03    -59.7788E-03     39.8694E-03     87.3507E+06     1.74414E+06    -34.5359E+06    -34.4774E+06     87.2921E+06     1.74414E+06    -1.70613E+06         44.5726
             279     11.3050E-03     60.8375E-03         2.63716    -752.210E-03    -771.430E-03    -766.835E-03         2.63716    -756.801E-03    -3.54800E-03     118.885E-03    -59.1242E-03    -59.7884E-03    -58.4362E-03     118.197E-03    -59.7884E-03     21.3627E-03     44.6618E+06    -13.7445E+06    -35.3836E+06    -35.3373E+06     44.6155E+06    -13.7445E+06    -1.19896E+06         40.6390
             280     10.3624E-03     60.8217E-03         2.62575    -750.572E-03    -760.464E-03    -754.310E-03         2.62565    -756.628E-03    -26.7357E-03     119.195E-03    -59.3032E-03    -59.9409E-03    -58.9376E-03     118.830E-03    -59.9409E-03     16.1352E-03    -2.38840E+06    -24.9061E+06    -47.7434E+06    -36.3146E+06    -27.0599E+06    -11.6635E+06     266.124E+03         37.3579
             281     9.41944E-03     60.8042E-03         2.62298    -751.811E-03    -757.567E-03    -752.006E-03         2.62269    -757.077E-03     14.2642E-03     119.373E-03    -59.3748E-03    -60.0337E-03    -59.1179E-03     119.116E-03    -60.0337E-03     13.1276E-03    -14.6019E+06    -39.2353E+06    -81.3333E+06    -39.3471E+06    -81.2215E+06    -14.6019E+06     1.64995E+06         34.7622
             282     8.47767E-03     60.7948E-03         2.62776    -753.255E-03    -759.928E-03    -754.540E-03         2.62668    -757.564E-03    -40.0526E-03     119.432E-03    -59.3474E-03    -60.1162E-03    -59.2572E-03     119.342E-03    -60.1162E-03     7.75766E-03    -16.7732E+06    -41.9542E+06    -120.232E+06    -41.9853E+06    -120.201E+06    -16.7732E+06     588.511E+03         32.8955
             283     7.53459E-03     60.7893E-03         2.63764    -757.068E-03    -763.552E-03    -760.778E-03         2.63537    -757.576E-03     20.9143E-03     119.715E-03    -59.5138E-03    -60.2347E-03    -59.4793E-03     119.680E-03    -60.2347E-03     4.88602E-03    -16.0558E+06    -45.2751E+06    -158.500E+06    -45.3601E+06    -158.415E+06    -16.0558E+06     1.22764E+06         31.6942
             284     6.59278E-03     60.7852E-03         2.63479    -754.051E-03    -763.000E-03    -755.602E-03         2.63089    -757.543E-03    -33.2683E-03     120.042E-03    -59.7559E-03    -60.3127E-03    -59.7425E-03     120.028E-03    -60.3127E-03     2.79469E-03    -19.6403E+06    -50.7523E+06    -196.802E+06    -50.8376E+06    -196.717E+06    -19.6403E+06     2.20502E+06         30.9373
             285     5.65107E-03     60.7839E-03         2.63278    -753.941E-03    -764.688E-03    -751.687E-03         2.62408    -758.241E-03     74.3944E-03     120.238E-03    -59.9177E-03    -60.3433E-03    -59.9157E-03     120.236E-03    -60.3433E-03     1.07180E-03    -26.5537E+06    -55.5646E+06    -222.461E+06    -55.5817E+06    -222.444E+06    -26.5537E+06     1.25693E+06         30.4256
             286     4.70890E-03     60.7840E-03         2.65375    -757.457E-03    -786.682E-03    -763.490E-03         2.63137    -758.264E-03    -129.111E-03     120.294E-03    -59.9620E-03    -60.3534E-03    -59.9614E-03     120.294E-03    -60.3534E-03     33.4566E-06    -35.3560E+06    -59.1948E+06    -241.397E+06    -59.2000E+06    -241.391E+06    -35.3560E+06     842.108E+03         30.0491
             287     3.76677E-03     60.7852E-03         2.69183    -755.350E-03    -832.101E-03    -774.436E-03         2.63416    -755.350E-03     204.209E-03     120.418E-03    -60.0587E-03    -60.3858E-03    -60.0750E-03     120.417E-03    -60.3686E-03    -755.280E-06    -45.9639E+06    -64.4404E+06    -258.432E+06    -64.4440E+06    -258.428E+06    -45.9639E+06     660.178E+03         29.7601
             288     2.82522E-03     60.7869E-03         2.77256    -752.348E-03    -920.233E-03    -756.014E-03         2.60834    -752.348E-03    -397.487E-03     120.601E-03    -60.2437E-03    -60.3760E-03    -60.2597E-03     120.599E-03    -60.3585E-03    -1.04343E-03    -57.1528E+06    -70.0496E+06    -267.712E+06    -70.0538E+06    -267.708E+06    -57.1528E+06     574.146E+03         29.5497
             289     1.88343E-03     60.7873E-03         3.04421    -757.248E-03        -1.18496    -735.222E-03         2.59447    -757.248E-03     680.318E-03     120.572E-03    -60.2643E-03    -60.3154E-03    -60.2653E-03     120.571E-03    -60.3129E-03    -1.00902E-03    -67.5957E+06    -74.0448E+06    -273.635E+06    -74.0472E+06    -273.626E+06    -67.6021E+06     779.557E+03         29.4068
             290     941.804E-06     60.7892E-03         4.87561        -1.03481        -2.72894     890.716E-03         2.63683        -2.41569        -2.28087     120.556E-03    -60.1696E-03    -60.3876E-03    -60.3456E-03     120.554E-03    -60.2097E-03    -1.06922E-03    -73.1046E+06    -75.5643E+06    -275.593E+06    -75.0512E+06    -275.583E+06    -73.6281E+06     1.04618E+06         29.3210
             291     16.0241E-03     60.3655E-03         2.65264    -760.141E-03    -773.374E-03    -768.405E-03         2.65257    -765.037E-03     25.4697E-03     184.862E-03    -60.1877E-03    -124.602E-03    -65.9058E-03     126.166E-03    -60.1877E-03     242.127E-03     140.997E+06     136.933E+06    -8.62127E+06    -8.60946E+06     140.985E+06     136.933E+06     515.096E+03         63.9510
             292     15.0770E-03     60.0703E-03         2.66443    -765.461E-03    -778.512E-03    -777.202E-03         2.66442    -766.763E-03     880.672E-06     174.048E-03    -60.1818E-03    -113.806E-03    -63.8664E-03     124.108E-03    -60.1818E-03     215.754E-03     118.652E+06     111.774E+06    -17.4106E+06    -17.3767E+06     118.618E+06     111.774E+06     220.230E+03         59.6287
             293     14.1348E-03     59.8792E-03         2.67433    -766.833E-03    -784.655E-03    -783.917E-03         2.67430    -767.547E-03    -13.1501E-03     139.804E-03    -60.0754E-03    -79.7608E-03    -60.1842E-03     120.227E-03    -60.0754E-03     119.958E-03     101.744E+06     77.0870E+06    -24.1658E+06    -24.0958E+06     101.674E+06     77.0870E+06    -1.50725E+06         54.3186
             294     13.1901E-03     59.7967E-03         2.67397    -766.791E-03    -779.979E-03    -779.208E-03         2.67391    -767.505E-03     5.90927E-03     123.781E-03    -59.9160E-03    -63.9235E-03    -58.2189E-03     118.076E-03    -59.9160E-03     63.5749E-03     93.6057E+06     35.1515E+06    -29.4505E+06    -29.3855E+06     93.5407E+06     35.1515E+06    -2.04687E+06         49.1516
             295     12.2480E-03     59.7406E-03         2.67488    -767.005E-03    -781.429E-03    -781.387E-03         2.67484    -767.005E-03     14.8661E-03     120.582E-03    -59.6443E-03    -61.0002E-03    -58.4170E-03     118.147E-03    -59.7929E-03     39.8949E-03     87.1094E+06    -380.723E+03    -33.2195E+06    -33.1821E+06     87.0720E+06    -380.723E+03    -1.56044E+06         44.5900
             296     11.3049E-03     59.7111E-03         2.67677    -765.990E-03    -783.585E-03    -783.582E-03         2.67676    -765.990E-03    -3.84032E-03     118.950E-03    -59.1766E-03    -59.8169E-03    -58.4816E-03     118.251E-03    -59.8133E-03     21.5113E-03     43.5417E+06    -12.9849E+06    -37.2671E+06    -37.1897E+06     43.4643E+06    -12.9849E+06    -711.115E+03         40.6546
             297     10.3621E-03     59.6947E-03         2.66502    -763.557E-03    -772.414E-03    -770.783E-03         2.66501    -765.177E-03    -10.1150E-03     119.074E-03    -59.1623E-03    -59.9676E-03    -58.8025E-03     118.714E-03    -59.9676E-03     15.9994E-03    -5.22955E+06    -26.9334E+06    -51.5859E+06    -41.3362E+06    -29.9569E+06    -12.4559E+06     596.093E+03         37.3709
             298     9.42001E-03     59.6779E-03         2.65513    -759.832E-03    -767.130E-03    -761.367E-03         2.65479    -765.253E-03     39.6595E-03     119.366E-03    -59.3576E-03    -60.0552E-03    -59.1079E-03     119.116E-03    -60.0552E-03     12.9345E-03    -15.6085E+06    -42.6791E+06    -80.0843E+06    -42.7992E+06    -79.9642E+06    -15.6085E+06     524.849E+03         34.7724
             299     8.47665E-03     59.6679E-03         2.66149    -761.269E-03    -770.292E-03    -764.833E-03         2.66034    -765.578E-03    -26.7861E-03     119.575E-03    -59.4856E-03    -60.1260E-03    -59.3991E-03     119.488E-03    -60.1260E-03     7.59656E-03    -18.2095E+06    -44.6240E+06    -119.848E+06    -44.6852E+06    -119.786E+06    -18.2095E+06     335.440E+03         32.9030
             300     7.53546E-03     59.6624E-03         2.66881    -764.900E-03    -771.944E-03    -769.486E-03         2.66686    -765.408E-03     13.8814E-03     119.851E-03    -59.6602E-03    -60.2261E-03    -59.6284E-03     119.820E-03    -60.2261E-03     4.69446E-03    -18.1856E+06    -47.9783E+06    -160.680E+06    -48.0946E+06    -160.563E+06    -18.1856E+06     1.44881E+06         31.6988
             301     6.59299E-03     59.6584E-03         2.66776    -765.040E-03    -771.208E-03    -766.951E-03         2.66351    -765.040E-03    -57.7203E-03     119.951E-03    -59.6773E-03    -60.3055E-03    -59.6647E-03     119.939E-03    -60.3055E-03     2.82631E-03    -18.9051E+06    -50.3194E+06    -195.223E+06    -50.4027E+06     -195.14E+06    -18.9051E+06     1.66905E+06         30.9389
             302     5.65054E-03     59.6571E-03         2.66556    -764.434E-03    -771.954E-03    -761.310E-03         2.65573    -765.242E-03     68.5052E-03     120.122E-03    -59.7979E-03    -60.3531E-03    -59.7953E-03     120.120E-03    -60.3531E-03     1.15996E-03    -25.3408E+06    -54.0407E+06    -221.533E+06    -54.0475E+06    -221.526E+06    -25.3408E+06     784.845E+03         30.4258
             303     4.70874E-03     59.6571E-03         2.68257    -764.685E-03    -790.267E-03    -766.267E-03         2.65938    -765.492E-03    -123.894E-03     120.352E-03    -60.0000E-03    -60.3746E-03    -59.9995E-03     120.352E-03    -60.3746E-03    -80.8668E-06    -34.5350E+06    -59.4013E+06    -241.737E+06    -59.4043E+06    -241.734E+06    -34.5350E+06     671.611E+03         30.0504
             304     3.76687E-03     59.6584E-03         2.72457    -763.958E-03    -834.450E-03    -775.566E-03         2.66568    -763.958E-03     208.640E-03     120.555E-03    -60.1879E-03    -60.3924E-03    -60.2042E-03     120.554E-03    -60.3752E-03    -812.536E-06    -44.3198E+06    -64.7754E+06    -257.738E+06    -64.7877E+06    -257.725E+06    -44.3198E+06     1.39358E+06         29.7631
             305     2.82533E-03     59.6590E-03         2.82249    -759.896E-03    -941.914E-03    -775.472E-03         2.65605    -759.896E-03    -406.839E-03     120.577E-03    -60.2362E-03    -60.3584E-03    -60.2519E-03     120.575E-03    -60.3412E-03    -1.02589E-03    -56.0777E+06    -69.9077E+06    -266.881E+06    -69.9202E+06    -266.868E+06    -56.0777E+06     1.31731E+06         29.5516
             306     1.88369E-03     59.6614E-03         3.12014    -752.163E-03        -1.24725    -772.643E-03         2.64554    -752.163E-03     745.143E-03     120.497E-03    -60.2033E-03    -60.3029E-03    -60.2022E-03     120.495E-03    -60.3029E-03    -838.554E-06    -66.7350E+06    -73.8083E+06    -272.721E+06    -73.8053E+06    -272.717E+06    -66.7415E+06     109.297E+03         29.4051
             307     941.545E-06     59.6616E-03         5.00403        -1.00123        -2.87738         1.02174         2.61803        -2.51435        -2.25842     120.546E-03    -60.0554E-03    -60.4937E-03    -60.4519E-03     120.544E-03    -60.0956E-03    -917.498E-06    -73.5672E+06    -77.4615E+06    -275.889E+06    -76.0924E+06    -275.872E+06    -74.9539E+06     815.016E+03         29.3174
             308     16.0202E-03     59.2492E-03         2.69521    -773.270E-03    -789.640E-03    -788.175E-03         2.69505    -774.572E-03     21.0953E-03     184.402E-03    -60.2219E-03    -124.063E-03    -65.8569E-03     126.196E-03    -60.2219E-03     240.857E-03     139.654E+06     137.294E+06    -7.24423E+06    -7.22967E+06     139.535E+06     137.398E+06     86.7098E+03         63.9762
             309     15.0765E-03     58.9358E-03         2.69447    -774.867E-03    -785.094E-03    -783.728E-03         2.69440    -776.169E-03     3.55465E-03     175.081E-03    -60.1662E-03    -114.852E-03    -65.1555E-03     125.384E-03    -60.1662E-03     216.083E-03     120.733E+06     113.886E+06    -14.4586E+06    -14.4051E+06     120.575E+06     113.990E+06     317.608E+03         59.6583
             310     14.1363E-03     58.7551E-03         2.71090    -776.806E-03    -796.802E-03    -796.459E-03         2.71056    -776.806E-03    -28.5044E-03     139.191E-03    -60.0210E-03    -79.2219E-03    -60.0506E-03     120.019E-03    -60.0210E-03     119.088E-03     104.090E+06     77.2053E+06    -21.7578E+06    -21.7149E+06     104.047E+06     77.2053E+06    -194.167E+03         54.3505
             311     13.1914E-03     58.6713E-03         2.71228    -776.267E-03    -794.538E-03    -794.196E-03         2.71194    -776.267E-03    -25.9108E-03     123.261E-03    -59.8977E-03    -63.4464E-03    -57.5520E-03     117.366E-03    -59.8977E-03     64.3585E-03     92.8621E+06     33.7573E+06    -28.5896E+06    -28.5674E+06     92.8399E+06     33.7573E+06    -1.10224E+06         49.1789
             312     12.2473E-03     58.6127E-03         2.69781    -773.901E-03    -782.513E-03    -780.510E-03         2.69777    -775.867E-03     6.71052E-03     120.539E-03    -59.7607E-03    -60.8742E-03    -58.3829E-03     118.091E-03    -59.8031E-03     39.7497E-03     85.8062E+06    -1.98715E+06    -33.8922E+06    -33.8714E+06     85.7854E+06    -1.98715E+06    -657.529E+03         44.6121
             313     11.3052E-03     58.5851E-03         2.69266    -770.070E-03    -781.881E-03    -775.990E-03         2.69264    -775.950E-03    -4.34871E-03     119.035E-03    -59.2588E-03    -59.8317E-03    -58.5914E-03     118.364E-03    -59.8281E-03     21.2079E-03     41.7137E+06    -12.7197E+06    -37.3171E+06    -37.2403E+06     41.6369E+06    -12.7197E+06     1.35458E+06         40.6732
             314     10.3621E-03     58.5681E-03         2.69979    -771.612E-03    -785.386E-03    -781.081E-03         2.69977    -775.893E-03    -8.15040E-03     119.068E-03    -59.1331E-03    -59.9777E-03    -58.7668E-03     118.702E-03    -59.9777E-03     16.1398E-03    -6.08797E+06    -24.9495E+06    -48.9980E+06    -40.0460E+06    -28.9878E+06    -11.0017E+06     1.28946E+06         37.3861
             315     9.41914E-03     58.5512E-03         2.71089    -774.618E-03    -792.168E-03    -791.332E-03         2.71042    -774.985E-03     44.9050E-03     119.458E-03    -59.4512E-03    -60.0505E-03    -59.2013E-03     119.208E-03    -60.0505E-03     12.9268E-03    -17.1287E+06    -44.5536E+06    -79.2709E+06    -44.6080E+06    -79.2166E+06    -17.1287E+06     155.912E+03         34.7840
             316     8.47774E-03     58.5412E-03         2.70793    -773.466E-03    -789.305E-03    -787.703E-03         2.70633    -773.466E-03    -33.4694E-03     119.591E-03    -59.4988E-03    -60.1248E-03    -59.4112E-03     119.503E-03    -60.1248E-03     7.69093E-03    -19.7950E+06    -48.2578E+06    -121.002E+06    -48.3236E+06    -120.936E+06    -19.7950E+06     624.983E+03         32.9108
             317     7.53490E-03     58.5354E-03         2.69619    -771.220E-03    -778.546E-03    -774.403E-03         2.69344    -772.605E-03     13.9843E-03     119.811E-03    -59.6208E-03    -60.2153E-03    -59.5854E-03     119.775E-03    -60.2153E-03     4.94879E-03    -20.8999E+06    -50.4586E+06    -159.720E+06    -50.5014E+06    -159.677E+06    -20.8999E+06    -183.005E+03         31.7026
             318     6.59296E-03     58.5323E-03         2.69701    -771.038E-03    -780.255E-03    -773.749E-03         2.69189    -772.423E-03    -52.9456E-03     120.029E-03    -59.7730E-03    -60.2868E-03    -59.7594E-03     120.016E-03    -60.2868E-03     2.89074E-03    -21.8577E+06    -53.0226E+06    -194.991E+06    -53.0481E+06    -194.965E+06    -21.8577E+06    -895.862E+03         30.9394
             319     5.65092E-03     58.5303E-03         2.70267    -771.965E-03    -786.973E-03    -776.477E-03         2.69217    -771.965E-03     63.8981E-03     120.113E-03    -59.8013E-03    -60.3386E-03    -59.7993E-03     120.111E-03    -60.3386E-03     933.595E-06    -25.7010E+06    -55.8839E+06    -221.916E+06    -55.9021E+06    -221.898E+06    -25.7010E+06     160.521E+03         30.4245
             320     4.70867E-03     58.5306E-03         2.70371    -771.206E-03    -787.572E-03    -762.479E-03         2.68001    -772.603E-03    -119.486E-03     120.297E-03    -59.9590E-03    -60.3637E-03    -59.9588E-03     120.297E-03    -60.3637E-03    -85.6796E-06    -34.2698E+06    -60.2408E+06    -241.970E+06    -60.2447E+06    -241.966E+06    -34.2698E+06     831.350E+03         30.0480
             321     3.76724E-03     58.5308E-03         2.74043    -774.729E-03    -819.896E-03    -755.984E-03         2.67791    -776.126E-03     229.134E-03     120.489E-03    -60.1457E-03    -60.3720E-03    -60.1448E-03     120.488E-03    -60.3720E-03    -666.664E-06    -43.8604E+06    -65.1297E+06    -257.967E+06    -65.1415E+06    -257.955E+06    -43.8604E+06     903.732E+03         29.7607
             322     2.82518E-03     58.5329E-03         2.86858    -778.265E-03    -945.236E-03    -780.410E-03         2.70376    -778.265E-03    -377.093E-03     120.527E-03    -60.1891E-03    -60.3548E-03    -60.1876E-03     120.526E-03    -60.3548E-03    -1.03352E-03    -54.8820E+06    -68.8765E+06    -265.182E+06    -68.8868E+06    -265.172E+06    -54.8820E+06     673.060E+03         29.5511
             323     1.88310E-03     58.5338E-03         3.18111    -772.671E-03        -1.26063    -793.491E-03         2.71397    -772.671E-03     761.319E-03     120.573E-03    -60.2562E-03    -60.3285E-03    -60.2549E-03     120.572E-03    -60.3285E-03    -894.112E-06    -64.4051E+06    -73.4885E+06    -271.254E+06    -73.4948E+06    -271.248E+06    -64.4051E+06     563.088E+03         29.4072
             324     941.941E-06     58.5352E-03         5.13440    -973.125E-03        -3.01233         1.12049         2.68263        -2.65417        -2.31145     120.551E-03    -60.1261E-03    -60.4321E-03    -60.4292E-03     120.550E-03    -60.1278E-03    -877.505E-06    -72.6982E+06    -79.7574E+06    -276.189E+06    -78.3987E+06    -276.167E+06    -74.0784E+06     1.09231E+06         29.3201
             325     16.0212E-03     58.1200E-03         2.72485    -780.290E-03    -795.780E-03    -792.065E-03         2.72468    -783.838E-03    -5.81448E-03     185.008E-03    -60.2282E-03    -124.782E-03    -66.4183E-03     126.644E-03    -60.2282E-03     241.875E-03     139.744E+06     135.862E+06    -8.47359E+06    -8.44115E+06     139.607E+06     135.966E+06    -1.71635E+06         64.0120
             326     15.0806E-03     57.8097E-03         2.73913    -785.093E-03    -801.819E-03    -801.664E-03         2.73897    -785.093E-03     960.019E-06     175.067E-03    -60.1544E-03    -114.958E-03    -65.1961E-03     125.305E-03    -60.1544E-03     216.607E-03     119.842E+06     112.126E+06    -16.3197E+06    -16.2788E+06     119.697E+06     112.230E+06    -462.694E+03         59.6979
             327     14.1339E-03     57.6282E-03         2.74246    -784.928E-03    -802.749E-03    -801.762E-03         2.74207    -785.522E-03    -15.4072E-03     139.157E-03    -60.0294E-03    -79.1768E-03    -59.7359E-03     119.716E-03    -60.0294E-03     119.404E-03     104.329E+06     76.5130E+06    -23.6602E+06    -23.6225E+06     104.291E+06     76.5130E+06     788.899E+03         54.3867
             328     13.1910E-03     57.5461E-03         2.73848    -784.867E-03    -796.849E-03    -795.830E-03         2.73805    -785.461E-03    -13.4612E-03     123.851E-03    -59.9155E-03    -64.0222E-03    -58.0605E-03     117.889E-03    -59.9155E-03     65.0976E-03     93.6509E+06     34.8340E+06    -29.8811E+06    -29.8640E+06     93.6337E+06     34.8340E+06     688.449E+03         49.2098
             329     12.2478E-03     57.4859E-03         2.73352    -783.450E-03    -792.834E-03    -790.732E-03         2.73338    -785.416E-03     13.3304E-03     120.496E-03    -59.5925E-03    -60.9620E-03    -58.2121E-03     117.957E-03    -59.8035E-03     40.2646E-03     84.5564E+06    -2.41330E+06    -35.3909E+06    -35.3783E+06     84.5438E+06    -2.41330E+06     989.269E+03         44.6387
             330     11.3046E-03     57.4580E-03         2.72903    -779.637E-03    -791.366E-03    -785.456E-03         2.72900    -785.517E-03    -13.0916E-03     119.035E-03    -59.2362E-03    -59.8285E-03    -58.5813E-03     118.380E-03    -59.8285E-03     20.9489E-03     40.9891E+06    -13.7633E+06    -37.6244E+06    -37.5585E+06     40.9232E+06    -13.7633E+06     800.356E+03         40.6946
             331     10.3620E-03     57.4420E-03         2.73846    -781.301E-03    -799.191E-03    -795.206E-03         2.73839    -785.215E-03    -21.4817E-03     119.244E-03    -59.2943E-03    -59.9850E-03    -58.9348E-03     118.885E-03    -59.9850E-03     16.0036E-03    -3.68072E+06    -24.6709E+06    -48.6872E+06    -39.3676E+06    -28.8584E+06    -8.81288E+06     1.63325E+06         37.4031
             332     9.41984E-03     57.4239E-03         2.74595    -782.744E-03    -803.113E-03    -801.405E-03         2.74550    -783.995E-03     31.4964E-03     119.423E-03    -59.3892E-03    -60.0681E-03    -59.1427E-03     119.176E-03    -60.0681E-03     12.8470E-03    -12.1311E+06    -41.9293E+06    -78.3175E+06    -42.2741E+06    -77.9727E+06    -12.1311E+06     1.65789E+06         34.7965
             333     8.47693E-03     57.4146E-03         2.73384    -779.813E-03    -793.964E-03    -789.515E-03         2.73241    -782.838E-03    -32.1282E-03     119.568E-03    -59.4558E-03    -60.1442E-03    -59.3685E-03     119.481E-03    -60.1442E-03     7.67841E-03    -15.6196E+06    -44.7268E+06    -120.272E+06    -44.7617E+06    -120.237E+06    -15.6196E+06    -476.937E+03         32.9184
             334     7.53486E-03     57.4091E-03         2.72518    -779.626E-03    -785.261E-03    -778.731E-03         2.72180    -782.784E-03     43.6556E-03     119.884E-03    -59.6854E-03    -60.2239E-03    -59.6512E-03     119.849E-03    -60.2239E-03     4.83939E-03    -17.7992E+06    -47.5054E+06    -158.255E+06    -47.5252E+06    -158.236E+06    -17.7992E+06    -1.43861E+06         31.7051
             335     6.59294E-03     57.4046E-03         2.73255    -781.621E-03    -790.543E-03    -784.029E-03         2.72743    -783.006E-03    -11.3592E-03     120.101E-03    -59.8507E-03    -60.2789E-03    -59.8386E-03     120.089E-03    -60.2789E-03     2.71551E-03    -20.6664E+06    -51.4936E+06    -195.429E+06    -51.5142E+06    -195.408E+06    -20.6664E+06    -1.58685E+06         30.9381
             336     5.65124E-03     57.4040E-03         2.73981    -782.430E-03    -798.929E-03    -788.704E-03         2.72959    -782.430E-03     89.6096E-03     120.195E-03    -59.9049E-03    -60.3125E-03    -59.9029E-03     120.193E-03    -60.3125E-03     1.04154E-03    -25.8702E+06    -56.4234E+06    -223.547E+06    -56.4379E+06    -223.533E+06    -25.8702E+06    -959.293E+03         30.4210
             337     4.70916E-03     57.4035E-03         2.74230    -781.509E-03    -799.113E-03    -772.953E-03         2.71753    -782.906E-03    -119.423E-03     120.213E-03    -59.9099E-03    -60.3267E-03    -59.9093E-03     120.212E-03    -60.3267E-03    -16.4453E-06    -34.5882E+06    -60.6394E+06    -241.847E+06    -60.6446E+06    -241.841E+06    -34.5882E+06    -74.0687E+03         30.0425
             338     3.76665E-03     57.4042E-03         2.77799    -785.635E-03    -827.218E-03    -761.952E-03         2.71412    -787.032E-03     228.327E-03     120.317E-03    -59.9945E-03    -60.3524E-03    -59.9933E-03     120.316E-03    -60.3524E-03    -814.345E-06    -43.8198E+06    -64.6869E+06    -257.882E+06    -64.6907E+06    -257.878E+06    -43.8198E+06    -220.551E+03         29.7546
             339     2.82514E-03     57.4056E-03         2.90194    -792.378E-03    -945.717E-03    -779.071E-03         2.73530    -792.378E-03    -376.732E-03     120.548E-03    -60.1841E-03    -60.3822E-03    -60.2205E-03     120.546E-03    -60.3439E-03    -1.11658E-03    -55.2147E+06    -69.7767E+06    -265.158E+06    -69.7791E+06    -265.155E+06    -55.2147E+06     134.135E+03         29.5477
             340     1.88379E-03     57.4072E-03         3.21505    -792.057E-03        -1.25435    -802.179E-03         2.76288    -792.057E-03     726.313E-03     120.554E-03    -60.2369E-03    -60.3278E-03    -60.2735E-03     120.552E-03    -60.2896E-03    -1.10146E-03    -66.3517E+06    -74.0408E+06    -271.351E+06    -74.0476E+06    -271.344E+06    -66.3517E+06     1.03327E+06         29.4075
             341     941.575E-06     57.4079E-03         5.26004    -952.928E-03        -3.13372         1.21276         2.75189        -2.79126        -2.41106     120.464E-03    -60.1338E-03    -60.3364E-03    -60.3021E-03     120.462E-03    -60.1667E-03    -890.322E-06    -72.8489E+06    -77.2411E+06    -274.134E+06    -76.8006E+06    -274.091E+06    -73.3324E+06    -796.662E+03         29.3214
             342     16.0202E-03     56.9861E-03         2.75923    -788.686E-03    -799.545E-03    -795.950E-03         2.75919    -792.233E-03    -6.32379E-03     185.295E-03    -60.2308E-03    -125.063E-03    -65.9222E-03     126.154E-03    -60.2308E-03     243.371E-03     140.264E+06     135.322E+06    -10.2868E+06    -10.2416E+06     139.776E+06     135.764E+06    -1.20204E+06         64.0570
             343     15.0759E-03     56.6855E-03         2.76557    -789.838E-03    -802.816E-03    -798.607E-03         2.76547    -793.949E-03     6.65696E-03     174.524E-03    -60.1941E-03    -114.393E-03    -64.5807E-03     124.711E-03    -60.1941E-03     215.984E-03     117.560E+06     110.098E+06    -19.0066E+06    -18.9853E+06     117.097E+06     110.540E+06    -1.64426E+06         59.7435
             344     14.1334E-03     56.5004E-03         2.76544    -789.827E-03    -801.827E-03    -796.176E-03         2.76531    -795.343E-03    -7.94571E-03     139.467E-03    -60.0581E-03    -79.4313E-03    -60.2080E-03     120.243E-03    -60.0581E-03     118.748E-03     103.136E+06     75.1657E+06    -26.5740E+06    -26.5565E+06     103.118E+06     75.1657E+06     240.048E+03         54.4277
             345     13.1909E-03     56.4194E-03         2.77123    -794.626E-03    -804.224E-03    -802.634E-03         2.77104    -796.031E-03    -760.959E-06     123.977E-03    -59.9200E-03    -64.1031E-03    -58.3736E-03     118.247E-03    -59.9200E-03     63.8995E-03     93.2634E+06     34.8025E+06    -32.7329E+06    -32.7019E+06     93.2324E+06     34.8025E+06     1.91681E+06         49.2454
             346     12.2477E-03     56.3595E-03         2.78015    -795.758E-03    -811.137E-03    -811.000E-03         2.78001    -795.758E-03     6.19755E-03     120.490E-03    -59.4671E-03    -61.0669E-03    -58.2598E-03     118.023E-03    -59.8072E-03     39.8307E-03     85.9965E+06     1.23269E+06    -35.7375E+06    -35.7035E+06     85.9625E+06     1.23269E+06     949.474E+03         44.6687
             347     11.3046E-03     56.3315E-03         2.78382    -794.604E-03    -815.428E-03    -815.378E-03         2.78377    -794.604E-03    -12.4528E-03     118.925E-03    -59.1229E-03    -59.8308E-03    -58.4730E-03     118.275E-03    -59.8308E-03     20.7845E-03     40.2495E+06    -11.6300E+06    -38.5272E+06    -38.4248E+06     40.1471E+06    -11.6300E+06     258.995E+03         40.7185
             348     10.3624E-03     56.3145E-03         2.77465    -790.347E-03    -810.686E-03    -807.723E-03         2.77457    -793.236E-03    -16.0302E-03     119.213E-03    -59.2887E-03    -59.9742E-03    -58.9361E-03     118.860E-03    -59.9742E-03     15.8469E-03    -6.52965E+06    -24.0693E+06    -48.9545E+06    -40.1177E+06    -29.5444E+06    -9.89129E+06     340.225E+03         37.4213
             349     9.41960E-03     56.2980E-03         2.75311    -781.059E-03    -796.944E-03    -784.463E-03         2.75271    -793.133E-03     30.3619E-03     119.428E-03    -59.4133E-03    -60.0608E-03    -59.1643E-03     119.179E-03    -60.0608E-03     12.9077E-03    -11.0449E+06    -39.1977E+06    -76.5888E+06    -39.8259E+06    -75.9606E+06    -11.0449E+06    -340.333E+03         34.8094
             350     8.47722E-03     56.2877E-03         2.75437    -783.135E-03    -798.533E-03    -786.405E-03         2.75320    -794.092E-03    -27.0568E-03     119.646E-03    -59.5497E-03    -60.1338E-03    -59.4659E-03     119.562E-03    -60.1338E-03     7.45112E-03    -13.4395E+06    -41.7493E+06    -119.048E+06    -41.7613E+06    -119.036E+06    -13.4395E+06    -679.400E+03         32.9259
             351     7.53543E-03     56.2817E-03         2.77000    -792.367E-03    -805.475E-03    -801.229E-03         2.76753    -794.139E-03     28.3872E-03     119.834E-03    -59.6684E-03    -60.1974E-03    -59.6379E-03     119.804E-03    -60.1974E-03     4.61749E-03    -17.2936E+06    -45.9320E+06    -157.914E+06    -45.9502E+06    -157.896E+06    -17.2936E+06    -1.18879E+06         31.7063
             352     6.59320E-03     56.2782E-03         2.76923    -793.469E-03    -801.950E-03    -797.094E-03         2.76437    -793.469E-03    -44.0373E-03     119.989E-03    -59.7565E-03    -60.2596E-03    -59.7445E-03     119.977E-03    -60.2596E-03     2.65515E-03    -20.2561E+06    -50.0977E+06    -195.910E+06    -50.1116E+06    -195.896E+06    -20.2561E+06    -1.33084E+06         30.9338
             353     5.65078E-03     56.2768E-03         2.76821    -792.893E-03    -800.445E-03    -790.622E-03         2.75895    -793.458E-03     56.5203E-03     120.205E-03    -59.9314E-03    -60.2962E-03    -59.9297E-03     120.203E-03    -60.2962E-03     1.00064E-03    -25.7435E+06    -54.8988E+06    -224.646E+06    -54.9049E+06    -224.640E+06    -25.7435E+06    -1.00514E+06         30.4150
             354     4.70925E-03     56.2768E-03         2.78883    -792.773E-03    -820.036E-03    -796.920E-03         2.76627    -793.337E-03    -139.422E-03     120.294E-03    -60.0258E-03    -60.2911E-03    -60.0251E-03     120.293E-03    -60.2911E-03    -54.3587E-06    -34.7256E+06    -60.0929E+06    -241.980E+06    -60.0971E+06    -241.976E+06    -34.7256E+06    -805.074E+03         30.0366
             355     3.76764E-03     56.2778E-03         2.82972    -791.615E-03    -861.355E-03    -802.519E-03         2.77088    -791.615E-03     211.335E-03     120.281E-03    -60.0177E-03    -60.2887E-03    -60.0166E-03     120.280E-03    -60.2887E-03    -862.561E-06    -44.8984E+06    -65.1559E+06    -258.193E+06    -65.1573E+06    -258.192E+06    -44.8984E+06    -288.930E+03         29.7480
             356     2.82521E-03     56.2786E-03         2.92129    -790.277E-03    -955.835E-03    -790.156E-03         2.75561    -790.277E-03    -407.751E-03     120.358E-03    -60.0566E-03    -60.3173E-03    -60.0931E-03     120.356E-03    -60.2791E-03    -1.09286E-03    -56.8215E+06    -69.9669E+06    -266.278E+06    -69.9682E+06    -266.276E+06    -56.8215E+06    -25.4889E+03         29.5407
             357     1.88348E-03     56.2800E-03         3.21156    -794.034E-03        -1.23993    -779.123E-03         2.75075    -794.034E-03     722.283E-03     120.440E-03    -60.1340E-03    -60.3160E-03    -60.2022E-03     120.438E-03    -60.2459E-03    -1.17950E-03    -67.2131E+06    -72.7161E+06    -271.059E+06    -72.7189E+06    -271.056E+06    -67.2131E+06    -71.1549E+03         29.4009
             358     941.898E-06     56.2820E-03         5.32265    -921.984E-03        -3.21735         1.29376         2.77813        -2.88857        -2.43253     120.418E-03    -60.0703E-03    -60.3538E-03    -60.3213E-03     120.417E-03    -60.1017E-03    -690.834E-06    -72.6555E+06    -74.7395E+06    -272.868E+06    -73.5591E+06    -272.830E+06    -73.8747E+06    -1.39138E+06         29.3145
             359     16.0236E-03     55.8691E-03         2.80849    -801.692E-03    -819.857E-03    -819.823E-03         2.80846    -801.692E-03     17.0955E-03     185.090E-03    -60.2011E-03    -124.765E-03    -66.0172E-03     126.342E-03    -60.2011E-03     242.300E-03     141.449E+06     136.197E+06    -7.25632E+06    -7.23757E+06     140.989E+06     136.639E+06     60.3497E+03         64.1086
             360     15.0771E-03     55.5545E-03         2.79942    -799.267E-03    -814.221E-03    -810.106E-03         2.79941    -803.378E-03     4.61987E-03     174.281E-03    -60.1625E-03    -114.074E-03    -64.3010E-03     124.508E-03    -60.1625E-03     215.318E-03     115.895E+06     109.248E+06    -16.6442E+06    -16.6155E+06     115.424E+06     109.690E+06     160.282E+03         59.7974
             361     14.1351E-03     55.3754E-03         2.79584    -799.862E-03    -810.166E-03    -805.049E-03         2.79565    -804.783E-03    -37.0899E-03     138.898E-03    -60.0382E-03    -78.9074E-03    -60.1372E-03     120.128E-03    -60.0382E-03     117.613E-03     101.445E+06     74.7774E+06    -25.6522E+06    -25.6037E+06     101.397E+06     74.7774E+06     1.70315E+06         54.4757
             362     13.1913E-03     55.2911E-03         2.80135    -803.775E-03    -811.522E-03    -809.691E-03         2.80113    -805.384E-03    -25.1677E-03     123.963E-03    -59.9132E-03    -64.1075E-03    -58.3250E-03     118.181E-03    -59.9132E-03     64.0166E-03     94.4128E+06     37.0527E+06    -32.1659E+06    -32.1195E+06     94.3665E+06     37.0527E+06     1.30374E+06         49.2846
             363     12.2488E-03     55.2342E-03         2.81084    -804.440E-03    -816.573E-03    -815.715E-03         2.81078    -805.238E-03    -3.49825E-03     120.553E-03    -59.5391E-03    -61.0727E-03    -58.4085E-03     118.141E-03    -59.7912E-03     39.5666E-03     87.3025E+06     3.37763E+06    -35.5676E+06    -35.5271E+06     87.2620E+06     3.37763E+06     168.883E+03         44.7004
             364     11.3053E-03     55.2043E-03         2.81436    -803.734E-03    -820.967E-03    -820.182E-03         2.81428    -804.448E-03     795.748E-06     118.785E-03    -59.0266E-03    -59.7954E-03    -58.3651E-03     118.124E-03    -59.7954E-03     20.9269E-03     40.7741E+06    -12.4151E+06    -37.1042E+06    -36.8233E+06     40.4933E+06    -12.4151E+06    -474.877E+03         40.7438
             365     10.3622E-03     55.1885E-03         2.80215    -799.780E-03    -813.306E-03    -809.232E-03         2.80203    -803.740E-03    -5.39716E-03     119.056E-03    -59.1871E-03    -59.9326E-03    -58.8407E-03     118.710E-03    -59.9326E-03     15.6949E-03    -7.78279E+06    -24.2643E+06    -46.2235E+06    -37.4210E+06    -28.3303E+06    -12.5192E+06    -1.81689E+06         37.4402
             366     9.41959E-03     55.1708E-03         2.79252    -792.752E-03    -810.157E-03    -798.495E-03         2.79204    -803.931E-03     32.2746E-03     119.482E-03    -59.5221E-03    -60.0209E-03    -59.2812E-03     119.241E-03    -60.0209E-03     12.6975E-03    -13.7462E+06    -39.0922E+06    -76.7956E+06    -39.4271E+06    -76.4607E+06    -13.7462E+06    -1.84938E+06         34.8224
             367     8.47806E-03     55.1605E-03         2.80198    -796.002E-03    -819.903E-03    -810.653E-03         2.80066    -803.935E-03    -27.2960E-03     119.542E-03    -59.4830E-03    -60.0978E-03    -59.3998E-03     119.459E-03    -60.0978E-03     7.47126E-03    -14.6383E+06    -42.3662E+06    -119.553E+06    -42.3816E+06    -119.537E+06    -14.6383E+06    -550.742E+03         32.9330
             368     7.53531E-03     55.1554E-03         2.81088    -802.502E-03    -822.237E-03    -820.177E-03         2.80882    -802.502E-03     9.15013E-03     119.711E-03    -59.5693E-03    -60.1714E-03    -59.5370E-03     119.679E-03    -60.1714E-03     4.73237E-03    -17.3602E+06    -45.4691E+06    -157.440E+06    -45.4742E+06    -157.435E+06    -17.3602E+06    -263.625E+03         31.7066
             369     6.59314E-03     55.1512E-03         2.80543    -800.598E-03    -816.741E-03    -812.101E-03         2.80079    -800.598E-03    -67.1506E-03     120.006E-03    -59.7964E-03    -60.2344E-03    -59.7843E-03     119.993E-03    -60.2344E-03     2.66599E-03    -20.8657E+06    -50.3710E+06    -196.255E+06    -50.3800E+06    -196.246E+06    -20.8657E+06    -835.944E+03         30.9285
             370     5.65157E-03     55.1503E-03         2.79637    -799.346E-03    -807.718E-03    -798.423E-03         2.78764    -799.910E-03     35.4298E-03     120.136E-03    -59.8939E-03    -60.2654E-03    -59.8925E-03     120.134E-03    -60.2654E-03     873.535E-06    -26.7907E+06    -55.5827E+06    -224.862E+06    -55.5881E+06    -224.857E+06    -26.7907E+06    -837.607E+03         30.4078
             371     4.70916E-03     55.1498E-03         2.81161    -799.318E-03    -822.063E-03    -801.403E-03         2.79152    -799.883E-03    -135.806E-03     120.202E-03    -59.9649E-03    -60.2626E-03    -59.9646E-03     120.202E-03    -60.2626E-03    -58.9849E-06    -35.9578E+06     -60.642E+06    -242.622E+06    -60.6433E+06    -242.621E+06    -35.9578E+06    -389.258E+03         30.0296
             372     3.76733E-03     55.1509E-03         2.85983    -797.297E-03    -874.073E-03    -816.725E-03         2.80248    -797.297E-03     232.631E-03     120.337E-03    -60.0869E-03    -60.2771E-03    -60.1178E-03     120.336E-03    -60.2455E-03    -656.466E-06    -46.2297E+06    -65.7000E+06    -258.351E+06    -65.7007E+06    -258.350E+06    -46.2297E+06    -257.256E+03         29.7407
             373     2.82588E-03     55.1522E-03         2.95036    -791.640E-03    -970.850E-03    -810.928E-03         2.79044    -791.640E-03    -384.108E-03     120.283E-03    -60.0625E-03    -60.2390E-03    -60.0926E-03     120.282E-03    -60.2074E-03    -1.02841E-03    -57.6574E+06    -69.4194E+06    -266.287E+06    -69.4210E+06    -266.286E+06    -57.6574E+06    -428.693E+03         29.5316
             374     1.88351E-03     55.1534E-03         3.21739    -791.191E-03        -1.23539    -780.078E-03         2.76208    -791.191E-03     735.637E-03     120.268E-03    -60.0670E-03    -60.2119E-03    -60.0967E-03     120.265E-03    -60.1800E-03    -1.25862E-03    -67.0106E+06    -72.5074E+06    -271.194E+06    -72.5147E+06    -271.187E+06    -67.0106E+06    -1.02912E+06         29.3901
             375     941.797E-06     55.1547E-03         5.31864    -852.022E-03        -3.26995         1.36233         2.78305        -2.94871        -2.36668     120.313E-03    -59.9938E-03    -60.3237E-03    -60.3026E-03     120.311E-03    -60.0133E-03    -926.833E-06    -72.6179E+06    -75.7017E+06    -273.689E+06    -74.9934E+06    -273.662E+06    -73.3536E+06     293.009E+03         29.3032
             376     16.0216E-03     54.7421E-03         2.84328    -812.705E-03    -830.722E-03    -830.678E-03         2.84324    -812.705E-03     13.5447E-03     185.607E-03    -60.1985E-03    -125.382E-03    -66.5785E-03     126.803E-03    -60.1985E-03     242.963E-03     141.313E+06     135.556E+06    -9.22009E+06    -9.21491E+06     141.308E+06     135.556E+06    -503.279E+03         64.1575
             377     15.0800E-03     54.4294E-03         2.84974    -814.106E-03    -837.909E-03    -837.829E-03         2.84966    -814.106E-03     12.8586E-03     175.343E-03    -60.1530E-03    -115.226E-03    -64.7529E-03     124.870E-03    -60.1530E-03     217.835E-03     114.576E+06     109.901E+06    -17.9092E+06    -17.8797E+06     114.546E+06     109.901E+06     1.41358E+06         59.8485
             378     14.1343E-03     54.2485E-03         2.84841    -814.661E-03    -834.870E-03    -834.655E-03         2.84820    -814.661E-03    -11.7979E-03     139.276E-03    -60.0588E-03    -79.2655E-03    -59.9499E-03     119.961E-03    -60.0588E-03     119.187E-03     100.550E+06     78.7321E+06    -24.3209E+06    -24.2684E+06     100.498E+06     78.7321E+06     1.98877E+06         54.5215
             379     13.1913E-03     54.1650E-03         2.84035    -813.886E-03    -825.127E-03    -823.991E-03         2.84001    -814.685E-03     6.70872E-03     124.245E-03    -59.9270E-03    -64.3814E-03    -58.5099E-03     118.374E-03    -59.9270E-03     64.6016E-03     96.2419E+06     39.6887E+06    -29.3221E+06    -29.2747E+06     96.1945E+06     39.6887E+06      898.27E+03         49.3212
             380     12.2482E-03     54.1064E-03         2.83524    -810.938E-03    -819.674E-03    -815.512E-03         2.83501    -814.873E-03     20.5247E-03     120.636E-03    -59.6232E-03    -61.0636E-03    -58.4814E-03     118.201E-03    -59.7700E-03     39.7189E-03     88.2302E+06     1.78576E+06    -33.2417E+06    -33.1955E+06     88.1840E+06     1.78576E+06     174.429E+03         44.7299
             381     11.3057E-03     54.0790E-03         2.82925    -806.862E-03    -817.007E-03    -808.344E-03         2.82919    -815.462E-03     852.937E-06     118.919E-03    -59.2020E-03    -59.7612E-03    -58.5293E-03     118.247E-03    -59.7612E-03     21.2187E-03     42.7674E+06    -14.2473E+06    -35.5579E+06    -35.3449E+06     42.5545E+06    -14.2473E+06    -1.25941E+06         40.7672
             382     10.3627E-03     54.0613E-03         2.83721    -810.075E-03    -823.308E-03    -817.366E-03         2.83709    -815.896E-03    -9.21786E-03     119.140E-03    -59.3129E-03    -59.8827E-03    -58.9486E-03     118.776E-03    -59.8827E-03     16.1009E-03    -7.65231E+06    -26.5783E+06    -46.4570E+06    -37.8523E+06    -27.6396E+06    -15.1959E+06    -2.03957E+06         37.4582
             383     9.42089E-03     54.0438E-03         2.85580    -814.395E-03    -840.161E-03    -839.379E-03         2.85538    -814.752E-03     25.6122E-03     119.356E-03    -59.4284E-03    -59.9732E-03    -59.1869E-03     119.115E-03    -59.9732E-03     12.6473E-03    -16.1431E+06    -40.7292E+06    -78.5158E+06    -40.8573E+06    -78.3878E+06    -16.1431E+06    -1.35071E+06         34.8350
             384     8.47747E-03     54.0344E-03         2.84906    -812.284E-03    -837.489E-03    -836.222E-03         2.84779    -812.284E-03    -32.4710E-03     119.355E-03    -59.3227E-03    -60.0685E-03    -59.2414E-03     119.274E-03    -60.0685E-03     7.43076E-03    -15.7179E+06    -43.6881E+06    -120.761E+06    -43.7054E+06    -120.743E+06    -15.7179E+06    -820.884E+03         32.9395
             385     7.53560E-03     54.0284E-03         2.82923    -807.681E-03    -821.526E-03    -816.258E-03         2.82694    -810.653E-03     17.1849E-03     119.694E-03    -59.5803E-03    -60.1478E-03    -59.5472E-03     119.661E-03    -60.1478E-03     4.77130E-03    -18.3252E+06    -47.1890E+06    -157.589E+06    -47.1917E+06    -157.586E+06    -18.3252E+06    -196.697E+03         31.7069
             386     6.59361E-03     54.0248E-03         2.82850    -806.678E-03    -819.848E-03    -812.446E-03         2.82460    -810.173E-03    -36.4178E-03     119.978E-03    -59.8028E-03    -60.2048E-03    -59.7911E-03     119.966E-03    -60.2048E-03     2.67976E-03    -21.0651E+06    -50.6704E+06    -195.717E+06    -50.6733E+06    -195.714E+06    -21.0651E+06    -65.2137E+03         30.9237
             387     5.65130E-03     54.0233E-03         2.83830    -808.959E-03    -825.254E-03    -816.037E-03         2.82961    -809.482E-03     76.1634E-03     120.083E-03    -59.8723E-03    -60.2355E-03    -59.8705E-03     120.082E-03    -60.2355E-03     884.406E-06    -26.4446E+06    -55.4679E+06    -224.930E+06    -55.4724E+06    -224.926E+06    -26.4446E+06    -481.484E+03         30.4005
             388     4.70959E-03     54.0238E-03         2.83905    -809.121E-03    -826.646E-03    -807.292E-03         2.81970    -809.121E-03    -97.3930E-03     120.130E-03    -59.9269E-03    -60.2317E-03    -59.9268E-03     120.130E-03    -60.2317E-03    -82.0131E-06    -36.4381E+06    -60.9204E+06    -243.236E+06    -60.9227E+06    -243.234E+06    -36.4381E+06    -317.738E+03         30.0213
             389     3.76739E-03     54.0238E-03         2.86664    -811.350E-03    -852.092E-03    -794.900E-03         2.80945    -811.350E-03     260.081E-03     120.248E-03    -60.0322E-03    -60.2491E-03    -60.0627E-03     120.247E-03    -60.2175E-03    -764.672E-06    -46.9275E+06    -65.7404E+06    -258.150E+06    -65.7414E+06    -258.149E+06    -46.9275E+06    -37.4452E+03         29.7318
             390     2.82558E-03     54.0255E-03         2.97922    -813.398E-03    -961.573E-03    -813.280E-03         2.83093    -813.398E-03    -331.246E-03     120.308E-03    -60.1024E-03    -60.2259E-03    -60.1601E-03     120.306E-03    -60.1663E-03    -1.14702E-03    -58.0143E+06    -70.1487E+06    -265.855E+06    -70.1504E+06    -265.853E+06    -58.0143E+06    -351.064E+03         29.5219
             391     1.88412E-03     54.0271E-03         3.26436    -809.419E-03        -1.24929    -825.241E-03         2.84031    -809.419E-03     753.564E-03     120.200E-03    -60.0580E-03    -60.1529E-03    -60.1185E-03     120.198E-03    -60.0906E-03    -1.09410E-03    -68.0315E+06    -74.2906E+06    -271.892E+06    -74.2983E+06    -271.885E+06    -68.0315E+06    -562.034E+03         29.3796
             392     941.954E-06     54.0280E-03         5.28659    -767.819E-03        -3.30858         1.37376         2.82034        -2.98391        -2.24560     120.070E-03    -59.9006E-03    -60.1724E-03    -60.1078E-03     120.068E-03    -59.9635E-03    -1.08189E-03    -74.3993E+06    -77.8506E+06    -275.014E+06    -76.9603E+06    -274.982E+06    -75.3216E+06     320.961E+03         29.2923
             393     16.0206E-03     53.6103E-03         2.86213    -820.348E-03    -829.919E-03    -826.580E-03         2.86212    -823.668E-03     4.48132E-03     185.544E-03    -60.2558E-03    -125.336E-03    -66.2750E-03     126.483E-03    -60.2558E-03     243.531E-03     141.214E+06     136.188E+06    -9.81971E+06    -9.79375E+06     141.188E+06     136.188E+06     940.090E+03         64.1979
             394     15.0760E-03     53.3048E-03         2.87322    -821.514E-03    -839.093E-03    -834.574E-03         2.87310    -825.913E-03     26.7434E-03     175.081E-03    -60.2055E-03    -114.940E-03    -65.0794E-03     125.220E-03    -60.2055E-03     216.671E-03     114.126E+06     111.146E+06    -18.3627E+06    -18.2882E+06     114.051E+06     111.146E+06     77.8946E+03         59.8888
             395     14.1335E-03     53.1201E-03         2.88952    -825.998E-03    -847.655E-03    -846.420E-03         2.88937    -827.076E-03     11.7645E-03     139.755E-03    -60.0768E-03    -79.6803E-03    -60.3793E-03     120.454E-03    -60.0768E-03     119.065E-03     100.037E+06     80.4333E+06    -24.4473E+06    -24.3865E+06     99.9758E+06     80.4333E+06    -1.10633E+06         54.5603
             396     13.1915E-03     53.0381E-03         2.89133    -826.884E-03    -848.685E-03    -848.382E-03         2.89103    -826.884E-03     26.2034E-03     124.040E-03    -59.9194E-03    -64.1544E-03    -58.4593E-03     118.345E-03    -59.9194E-03     63.7177E-03     95.6285E+06     40.3354E+06    -28.2442E+06    -28.2224E+06     95.6067E+06     40.3354E+06     22.3638E+03         49.3537
             397     12.2484E-03     52.9799E-03         2.87737    -823.255E-03    -840.303E-03    -836.872E-03         2.87708    -826.391E-03     27.8832E-03     120.556E-03    -59.6695E-03    -60.9390E-03    -58.4053E-03     118.117E-03    -59.7642E-03     39.6667E-03     89.1889E+06     2.27424E+06    -31.0778E+06    -31.0266E+06     89.1376E+06     2.27424E+06     574.633E+03         44.7551
             398     11.3052E-03     52.9519E-03         2.86887    -818.409E-03    -835.391E-03    -827.456E-03         2.86882    -826.296E-03    -15.1643E-03     119.128E-03    -59.4065E-03    -59.7659E-03    -58.7361E-03     118.457E-03    -59.7659E-03     21.2530E-03     44.0530E+06    -11.7317E+06    -34.7194E+06    -34.6864E+06     44.0200E+06    -11.7317E+06     331.624E+03         40.7871
             399     10.3632E-03     52.9348E-03         2.87732    -821.251E-03    -840.034E-03    -835.230E-03         2.87726    -826.001E-03    -16.4245E-03     119.222E-03    -59.3855E-03    -59.8741E-03    -59.0060E-03     118.842E-03    -59.8741E-03     16.4476E-03    -7.68763E+06    -24.9063E+06    -47.2535E+06    -38.5409E+06    -27.3694E+06    -13.9372E+06    -503.975E+03         37.4737
             400     9.42009E-03     52.9174E-03         2.88183    -824.178E-03    -844.744E-03    -843.912E-03         2.88157    -824.744E-03     24.0931E-03     119.365E-03    -59.4423E-03    -59.9517E-03    -59.1911E-03     119.114E-03    -59.9517E-03     12.8419E-03    -16.9497E+06    -41.7501E+06    -79.0369E+06    -41.8706E+06    -78.9164E+06    -16.9497E+06    -1.11921E+06         34.8458
             401     8.47858E-03     52.9081E-03         2.87419    -822.387E-03    -841.086E-03    -839.714E-03         2.87338    -822.952E-03    -21.6439E-03     119.449E-03    -59.4388E-03    -60.0447E-03    -59.3578E-03     119.368E-03    -60.0447E-03     7.43775E-03    -15.7131E+06    -44.4074E+06    -121.040E+06    -44.4226E+06    -121.025E+06    -15.7131E+06    -879.218E+03         32.9455
             402     7.53575E-03     52.9017E-03         2.86247    -817.771E-03    -828.430E-03    -822.499E-03         2.86083    -822.067E-03     25.0106E-03     119.612E-03    -59.5289E-03    -60.1195E-03    -59.4950E-03     119.578E-03    -60.1195E-03     4.82238E-03    -18.0586E+06    -47.2408E+06    -158.149E+06    -47.2501E+06    -158.139E+06    -18.0586E+06    -874.022E+03         31.7072
             403     6.59357E-03     52.8978E-03         2.85767    -816.613E-03    -822.726E-03    -813.758E-03         2.85482    -822.726E-03    -26.0377E-03     119.837E-03    -59.6888E-03    -60.1778E-03    -59.6770E-03     119.825E-03    -60.1778E-03     2.68198E-03    -21.2647E+06    -50.6955E+06    -196.286E+06    -50.7016E+06    -196.280E+06    -21.2647E+06    -313.848E+03         30.9189
             404     5.65170E-03     52.8968E-03         2.87150    -821.615E-03    -831.548E-03    -822.871E-03         2.86464    -823.432E-03     79.1974E-03     120.058E-03    -59.8713E-03    -60.2093E-03    -59.8695E-03     120.056E-03    -60.2093E-03     913.035E-06    -26.9501E+06    -55.2192E+06    -225.004E+06    -55.2265E+06    -224.997E+06    -26.9501E+06     305.700E+03         30.3940
             405     4.70949E-03     52.8966E-03         2.88760    -822.776E-03    -847.291E-03    -829.827E-03         2.87014    -822.776E-03    -111.046E-03     120.185E-03    -60.0178E-03    -60.1939E-03    -60.0175E-03     120.185E-03    -60.1939E-03    -96.9723E-06    -36.4969E+06    -60.9064E+06    -242.916E+06    -60.9138E+06    -242.909E+06    -36.4969E+06     364.395E+03         30.0143
             406     3.76790E-03     52.8975E-03         2.90350    -822.798E-03    -864.827E-03    -816.962E-03         2.85564    -822.798E-03     205.869E-03     120.148E-03    -60.0151E-03    -60.1642E-03    -60.0139E-03     120.147E-03    -60.1642E-03    -832.441E-06    -47.7012E+06    -66.3989E+06    -258.181E+06    -66.4013E+06    -258.178E+06    -47.7012E+06     21.8828E+03         29.7228
             407     2.82575E-03     52.8988E-03         2.99015    -826.114E-03    -946.572E-03    -810.606E-03         2.85419    -826.114E-03    -373.521E-03     120.125E-03    -59.9817E-03    -60.1619E-03    -60.0075E-03     120.122E-03    -60.1339E-03    -1.24376E-03    -58.8589E+06    -71.0018E+06    -265.864E+06    -71.0072E+06    -265.859E+06    -58.8589E+06    -11.1706E+03         29.5117
             408     1.88374E-03     52.9004E-03         3.25137    -832.103E-03        -1.20197    -818.506E-03         2.86790    -832.103E-03     667.743E-03     120.146E-03    -59.9993E-03    -60.1569E-03    -60.0600E-03     120.145E-03    -60.0947E-03    -1.02450E-03    -68.4878E+06    -74.8028E+06    -271.978E+06    -74.8081E+06    -271.973E+06    -68.4878E+06     266.839E+03         29.3702
             409     942.203E-06     52.9018E-03         5.18809    -665.549E-03        -3.29899         1.35349         2.89400        -3.02394        -2.15357     120.102E-03    -59.9095E-03    -60.1957E-03    -60.1155E-03     120.100E-03    -59.9883E-03    -957.672E-06    -74.9181E+06    -78.1667E+06    -275.326E+06    -77.2547E+06    -275.316E+06    -75.8404E+06     116.164E+03         29.2848
             410     16.0205E-03     52.4837E-03         2.89825    -831.131E-03    -838.544E-03    -835.202E-03         2.89823    -834.452E-03     4.30674E-03     185.583E-03    -60.2546E-03    -125.322E-03    -66.5968E-03     126.859E-03    -60.2546E-03     243.027E-03     141.052E+06     137.258E+06    -7.37842E+06    -7.34803E+06     141.022E+06     137.258E+06     1.39964E+06         64.2330
             411     15.0783E-03     52.1779E-03         2.90260    -832.502E-03    -841.364E-03    -836.914E-03         2.90255    -836.900E-03     4.75507E-03     174.445E-03    -60.1746E-03    -114.300E-03    -65.1352E-03     125.280E-03    -60.1746E-03     214.848E-03     116.230E+06     112.075E+06    -15.0774E+06    -14.9937E+06     116.146E+06     112.075E+06    -115.771E+03         59.9235
             412     14.1355E-03     51.9925E-03         2.91116    -834.970E-03    -846.684E-03    -843.005E-03         2.91093    -838.417E-03    -27.3443E-03     139.163E-03    -60.0247E-03    -79.1598E-03    -60.1007E-03     120.103E-03    -60.0247E-03     118.199E-03     100.810E+06     78.2872E+06    -23.0383E+06    -22.9518E+06     100.724E+06     78.2872E+06    -1.54533E+06         54.5917
             413     13.1917E-03     51.9118E-03         2.91900    -834.913E-03    -851.922E-03    -847.746E-03         2.91871    -838.807E-03    -22.9400E-03     123.498E-03    -59.9016E-03    -63.6561E-03    -57.9156E-03     117.758E-03    -59.9016E-03     63.8720E-03     93.8111E+06     38.8191E+06    -29.1475E+06    -29.1227E+06     93.7862E+06     38.8191E+06    -1.22072E+06         49.3787
             414     12.2480E-03     51.8536E-03         2.92019    -836.957E-03    -854.227E-03    -852.581E-03         2.92007    -838.482E-03     7.86128E-03     120.760E-03    -59.7570E-03    -61.0702E-03    -58.5114E-03     118.230E-03    -59.7855E-03     40.3279E-03     88.1876E+06     3.64398E+06    -32.6637E+06    -32.6390E+06     88.1628E+06     3.64398E+06     336.338E+03         44.7746
             415     11.3056E-03     51.8247E-03         2.92623    -837.404E-03    -858.651E-03    -858.552E-03         2.92613    -837.404E-03     6.52947E-03     119.274E-03    -59.4556E-03    -59.8512E-03    -58.8625E-03     118.611E-03    -59.7818E-03     21.0639E-03     44.3429E+06    -8.61823E+06    -34.2880E+06    -34.2320E+06     44.2868E+06    -8.61823E+06     1.21373E+06         40.8033
             416     10.3627E-03     51.8085E-03         2.91385    -833.210E-03    -849.937E-03    -846.801E-03         2.91376    -836.255E-03     4.81462E-03     119.175E-03    -59.3376E-03    -59.8842E-03    -58.9779E-03     118.816E-03    -59.8842E-03     16.0061E-03    -6.28358E+06    -21.4945E+06    -44.9379E+06    -36.2394E+06    -25.7953E+06    -10.6812E+06     608.671E+03         37.4864
             417     9.42069E-03     51.7905E-03         2.89320    -828.332E-03    -837.141E-03    -828.770E-03         2.89282    -836.323E-03     44.0526E-03     119.369E-03    -59.4539E-03    -59.9517E-03    -59.2042E-03     119.120E-03    -59.9517E-03     12.9113E-03    -15.7140E+06    -38.8389E+06    -78.9013E+06    -38.8520E+06    -78.8881E+06    -15.7140E+06    -533.324E+03         34.8547
             418     8.47804E-03     51.7811E-03         2.90016    -831.908E-03    -842.068E-03    -836.437E-03         2.89948    -836.854E-03     924.466E-06     119.588E-03    -59.5908E-03    -60.0278E-03    -59.5033E-03     119.501E-03    -60.0278E-03     7.68682E-03    -15.5379E+06    -42.2523E+06    -121.164E+06    -42.2668E+06    -121.149E+06    -15.5379E+06    -533.023E+03         32.9507
             419     7.53635E-03     51.7756E-03         2.91192    -835.048E-03    -848.243E-03    -845.789E-03         2.91079    -836.373E-03     28.9138E-03     119.648E-03    -59.5867E-03    -60.0902E-03    -59.5524E-03     119.613E-03    -60.0902E-03     4.86307E-03    -18.1720E+06    -46.3906E+06    -157.930E+06    -46.3992E+06    -157.922E+06    -18.1720E+06    -540.386E+03         31.7082
             420     6.59379E-03     51.7713E-03         2.91204    -832.491E-03    -850.110E-03    -845.242E-03         2.90979    -835.110E-03    -26.0733E-03     119.727E-03    -59.6038E-03    -60.1461E-03    -59.5914E-03     119.714E-03    -60.1461E-03     2.74030E-03    -23.2567E+06    -51.6602E+06    -197.968E+06    -51.6705E+06    -197.958E+06    -23.2567E+06    -59.5971E+03         30.9159
             421     5.65150E-03     51.7702E-03         2.90531    -832.883E-03    -842.984E-03    -836.917E-03         2.90053    -834.177E-03     52.7806E-03     120.020E-03    -59.8653E-03    -60.1787E-03    -59.8634E-03     120.018E-03    -60.1787E-03     1.00332E-03    -29.2618E+06    -57.2909E+06    -225.207E+06    -57.3007E+06    -225.197E+06    -29.2618E+06     1.02576E+06         30.3890
             422     4.70990E-03     51.7699E-03         2.92076    -832.820E-03    -858.118E-03    -844.133E-03         2.90677    -832.820E-03    -126.869E-03     120.152E-03    -60.0153E-03    -60.1637E-03    -60.0148E-03     120.152E-03    -60.1637E-03    -130.709E-06    -36.8338E+06    -61.7954E+06    -242.303E+06    -61.8010E+06    -242.297E+06    -36.8338E+06     698.811E+03         30.0087
             423     3.76782E-03     51.7709E-03         2.94828    -828.638E-03    -891.595E-03    -852.999E-03         2.90968    -828.638E-03     177.267E-03     120.111E-03    -60.0106E-03    -60.1297E-03    -60.0094E-03     120.110E-03    -60.1297E-03    -877.624E-06    -47.0226E+06    -66.3287E+06    -257.655E+06    -66.3331E+06    -257.651E+06    -47.0226E+06     165.279E+03         29.7158
             424     2.82597E-03     51.7726E-03         3.00444    -823.123E-03    -950.722E-03    -837.902E-03         2.89162    -823.123E-03    -345.369E-03     120.003E-03    -59.9220E-03    -60.1015E-03    -59.9197E-03     120.000E-03    -60.1015E-03    -1.26447E-03    -59.0932E+06    -70.7656E+06    -265.868E+06    -70.7777E+06    -265.855E+06    -59.0932E+06    -98.7577E+03         29.5034
             425     1.88381E-03     51.7741E-03         3.19231    -821.790E-03        -1.13994    -817.293E-03         2.86967    -821.790E-03     595.311E-03     120.009E-03    -59.8960E-03    -60.1230E-03    -59.8942E-03     120.007E-03    -60.1230E-03    -1.08244E-03    -68.2406E+06    -73.7751E+06    -271.785E+06    -73.7883E+06    -271.772E+06    -68.2406E+06     176.033E+03         29.3626
             426     941.411E-06     51.7753E-03         5.02567    -562.140E-03        -3.22699         1.35416         2.88071        -2.99832        -2.09579     120.268E-03    -59.8790E-03    -60.3920E-03    -60.2862E-03     120.266E-03    -59.9835E-03    -922.178E-06    -73.5536E+06    -76.6810E+06    -274.786E+06    -75.9201E+06    -274.776E+06    -74.3243E+06     890.487E+03         29.2798
             427     16.0224E-03     51.3577E-03         2.94376    -845.022E-03    -854.895E-03    -854.849E-03         2.94372    -845.022E-03    -9.91158E-03     185.779E-03    -60.1958E-03    -125.549E-03    -67.0410E-03     127.272E-03    -60.1958E-03     242.858E-03     140.725E+06     137.629E+06    -7.97714E+06    -7.96547E+06     140.713E+06     137.629E+06    -361.005E+03         64.2618
             428     15.0789E-03     51.0496E-03         2.95141    -846.570E-03    -861.256E-03    -861.243E-03         2.95139    -846.570E-03    -11.4378E-03     174.100E-03    -60.1334E-03    -114.070E-03    -64.5640E-03     124.594E-03    -60.1334E-03     215.437E-03     116.406E+06     112.118E+06    -15.3168E+06    -15.2956E+06     116.385E+06     112.118E+06    -107.117E+03         59.9483
             429     14.1355E-03     50.8667E-03         2.94429    -841.799E-03    -858.091E-03    -852.166E-03         2.94410    -847.531E-03    -38.6901E-03     139.052E-03    -60.0144E-03    -79.0664E-03    -59.5432E-03     119.529E-03    -60.0144E-03     119.200E-03     101.825E+06     77.9953E+06    -23.0190E+06    -22.9716E+06     101.778E+06     77.9953E+06     318.008E+03         54.6098
             430     13.1905E-03     50.7869E-03         2.93570    -838.268E-03    -848.583E-03    -838.045E-03         2.93548    -848.583E-03    -31.1292E-03     123.663E-03    -59.9043E-03    -63.8345E-03    -58.0623E-03     117.890E-03    -59.9043E-03     64.0897E-03     93.6512E+06     39.0363E+06    -30.0079E+06    -29.9637E+06     93.6071E+06     39.0363E+06    -709.774E+03         49.3939
             431     12.2479E-03     50.7253E-03         2.94177    -840.995E-03    -854.680E-03    -846.027E-03         2.94171    -849.590E-03     387.622E-06     120.798E-03    -59.7176E-03    -61.1616E-03    -58.5618E-03     118.274E-03    -59.7934E-03     40.2401E-03     86.8064E+06     3.83446E+06    -34.2536E+06    -34.2358E+06     86.7885E+06     3.83446E+06    -1.06969E+06         44.7891
             432     11.3055E-03     50.6982E-03         2.94870    -841.172E-03    -862.070E-03    -853.193E-03         2.94857    -849.918E-03     24.8874E-03     119.249E-03    -59.4484E-03    -59.8391E-03    -58.8715E-03     118.603E-03    -59.7697E-03     20.7795E-03     43.5971E+06    -10.6659E+06    -35.1583E+06    -35.0580E+06     43.4968E+06    -10.6659E+06    -735.003E+03         40.8157
             433     10.3635E-03     50.6812E-03         2.95173    -841.941E-03    -864.251E-03    -856.244E-03         2.95150    -849.720E-03     8.88375E-03     119.172E-03    -59.3633E-03    -59.8702E-03    -59.0164E-03     118.825E-03    -59.8702E-03     15.7230E-03    -5.42250E+06    -22.0437E+06    -43.6161E+06    -35.0033E+06    -24.7563E+06    -11.3227E+06    -141.135E+03         37.4964
             434     9.42037E-03     50.6648E-03         2.94612    -841.914E-03    -862.781E-03    -854.879E-03         2.94564    -849.339E-03     29.9552E-03     119.285E-03    -59.3910E-03    -59.9454E-03    -59.1457E-03     119.040E-03    -59.9454E-03     12.8334E-03    -15.0268E+06    -36.9142E+06    -78.6478E+06    -36.9232E+06    -78.6388E+06    -15.0268E+06     194.908E+03         34.8618
             435     8.47816E-03     50.6539E-03         2.94306    -844.548E-03    -858.989E-03    -853.432E-03         2.94188    -848.929E-03    -26.5248E-03     119.487E-03    -59.5048E-03    -60.0190E-03    -59.4173E-03     119.400E-03    -60.0190E-03     7.65140E-03    -15.8360E+06    -39.9620E+06    -121.758E+06    -39.9670E+06    -121.753E+06    -15.8360E+06     210.269E+03         32.9548
             436     7.53600E-03     50.6486E-03         2.94908    -847.910E-03    -862.323E-03    -860.997E-03         2.94775    -847.910E-03    -16.1918E-03     119.736E-03    -59.6729E-03    -60.0936E-03    -59.6404E-03     119.703E-03    -60.0936E-03     4.73791E-03    -16.3629E+06    -43.9976E+06    -159.081E+06    -44.0619E+06    -159.017E+06    -16.3629E+06     1.46911E+06         31.7100
             437     6.59399E-03     50.6454E-03         2.95285    -845.674E-03    -867.997E-03    -865.887E-03         2.95074    -845.674E-03    -50.9121E-03     119.869E-03    -59.7513E-03    -60.1435E-03    -59.7388E-03     119.857E-03    -60.1435E-03     2.81983E-03    -20.0325E+06    -50.1374E+06    -198.011E+06    -50.2137E+06    -197.935E+06    -20.0325E+06     2.42336E+06         30.9156
             438     5.65191E-03     50.6433E-03         2.94120    -843.400E-03    -858.111E-03    -853.540E-03         2.93663    -843.400E-03     38.6662E-03     119.965E-03    -59.8376E-03    -60.1537E-03    -59.8352E-03     119.963E-03    -60.1537E-03     1.05426E-03    -27.4802E+06    -56.0208E+06    -224.141E+06    -56.0358E+06    -224.126E+06    -27.4802E+06     923.770E+03         30.3856
             439     4.70980E-03     50.6433E-03         2.93371    -842.160E-03    -856.393E-03    -846.122E-03         2.92344    -842.160E-03    -84.6297E-03     120.026E-03    -59.9118E-03    -60.1406E-03    -59.9114E-03     120.025E-03    -60.1406E-03    -212.465E-06    -36.6454E+06    -60.6231E+06    -242.121E+06    -60.6265E+06    -242.117E+06    -36.6454E+06     181.157E+03         30.0035
             440     3.76792E-03     50.6444E-03         2.95375    -841.765E-03    -873.495E-03    -841.638E-03         2.92190    -841.765E-03     196.794E-03     120.028E-03    -59.9322E-03    -60.1263E-03    -59.9310E-03     120.027E-03    -60.1263E-03    -886.167E-06    -46.7949E+06    -65.2411E+06    -257.207E+06    -65.2463E+06    -257.201E+06    -46.7949E+06     392.597E+03         29.7114
             441     2.82594E-03     50.6460E-03         3.02801    -837.903E-03    -943.220E-03    -860.962E-03         2.94575    -837.903E-03    -244.629E-03     120.060E-03    -59.9543E-03    -60.1252E-03    -59.9716E-03     120.057E-03    -60.1057E-03    -1.22608E-03    -57.6399E+06    -69.6949E+06    -265.496E+06    -69.7068E+06    -265.484E+06    -57.6399E+06    -13.7862E+03         29.4998
             442     1.88385E-03     50.6484E-03         3.19045    -824.000E-03        -1.12028    -864.058E-03         2.93423    -824.000E-03     603.420E-03     120.084E-03    -59.9374E-03    -60.1536E-03    -60.0202E-03     120.082E-03    -60.0690E-03    -1.08684E-03    -67.3189E+06    -73.7613E+06    -271.759E+06    -73.7747E+06    -271.746E+06    -67.3189E+06     253.136E+03         29.3585
             443     942.060E-06     50.6483E-03         4.82083    -420.511E-03        -3.15381         1.31599         2.87315        -2.94264        -1.89323     120.060E-03    -59.8102E-03    -60.2533E-03    -60.1828E-03     120.058E-03    -59.8792E-03    -1.02448E-03    -73.5845E+06    -76.8438E+06    -274.562E+06    -76.0785E+06    -274.556E+06    -74.3552E+06     584.475E+03         29.2739
             444     16.0226E-03     50.2265E-03         2.97789    -855.409E-03    -870.929E-03    -870.792E-03         2.97775    -855.409E-03    -8.74003E-03     185.502E-03    -60.1590E-03    -125.203E-03    -66.3935E-03     126.692E-03    -60.1590E-03     242.918E-03     140.594E+06     137.471E+06    -8.60419E+06    -8.59991E+06     140.590E+06     137.471E+06    -393.607E+03         64.2808
             445     15.0799E-03     49.9270E-03         2.98318    -857.131E-03    -869.680E-03    -869.594E-03         2.98310    -857.131E-03     20.9803E-03     173.970E-03    -60.1286E-03    -113.897E-03    -63.8667E-03     123.939E-03    -60.1286E-03     216.043E-03     115.196E+06     110.397E+06    -16.8780E+06    -16.8731E+06     115.191E+06     110.397E+06    -194.165E+03         59.9607
             446     14.1328E-03     49.7400E-03         2.98261    -855.100E-03    -870.931E-03    -867.488E-03         2.98253    -858.463E-03    -14.9237E-03     139.446E-03    -60.0356E-03    -79.4306E-03    -59.8672E-03     119.883E-03    -60.0356E-03     119.490E-03     102.078E+06     77.6180E+06    -24.1489E+06    -24.1192E+06     102.048E+06     77.6180E+06    -166.202E+03         54.6178
             447     13.1924E-03     49.6590E-03         2.97879    -852.826E-03    -867.537E-03    -860.971E-03         2.97864    -859.247E-03     1.30360E-03     124.134E-03    -59.8888E-03    -64.3141E-03    -58.6121E-03     118.432E-03    -59.8888E-03     63.7946E-03     94.5257E+06     38.2207E+06    -29.7692E+06    -29.7259E+06     94.4824E+06     38.2207E+06    -434.698E+03         49.4036
             448     12.2490E-03     49.6000E-03         2.97474    -852.156E-03    -864.311E-03    -856.330E-03         2.97452    -859.915E-03    -6.29620E-03     120.655E-03    -59.4799E-03    -61.2535E-03    -58.5372E-03     118.198E-03    -59.7396E-03     39.8752E-03     86.8288E+06     1.70105E+06    -33.4557E+06    -33.4317E+06     86.8048E+06     1.70105E+06    -1.03452E+06         44.8000
             449     11.3057E-03     49.5700E-03         2.96582    -846.893E-03    -860.945E-03    -846.704E-03         2.96563    -860.945E-03    -15.8796E-03     118.797E-03    -59.1223E-03    -59.7307E-03    -58.4712E-03     118.146E-03    -59.7307E-03     20.7411E-03     43.4995E+06    -14.1105E+06    -36.5396E+06    -36.4483E+06     43.4083E+06    -14.1105E+06    -1.96769E+06         40.8248
             450     10.3630E-03     49.5553E-03         2.98048    -852.375E-03    -870.653E-03    -861.081E-03         2.98026    -861.726E-03    -22.1669E-03     119.135E-03    -59.3566E-03    -59.8512E-03    -59.0067E-03     118.785E-03    -59.8512E-03     15.7783E-03    -6.55519E+06    -26.8874E+06    -47.7338E+06    -39.0276E+06    -26.7454E+06    -15.4035E+06    -1.22439E+06         37.5031
             451     9.42102E-03     49.5375E-03         3.00108    -860.726E-03    -884.194E-03    -883.848E-03         3.00073    -860.726E-03    -479.981E-06     119.371E-03    -59.4969E-03    -59.9319E-03    -59.2462E-03     119.120E-03    -59.9319E-03     12.9289E-03    -17.0757E+06    -40.9260E+06    -78.6256E+06    -40.9443E+06    -78.6073E+06    -17.0757E+06     599.179E+03         34.8667
             452     8.47847E-03     49.5279E-03         2.99625    -858.231E-03    -884.892E-03    -884.005E-03         2.99536    -858.231E-03    -31.6746E-03     119.332E-03    -59.3636E-03    -60.0093E-03    -59.2772E-03     119.246E-03    -60.0093E-03     7.63587E-03    -17.5982E+06    -43.9211E+06    -121.640E+06    -43.9413E+06    -121.620E+06    -17.5982E+06     911.716E+03         32.9575
             453     7.53585E-03     49.5219E-03         2.97910    -854.266E-03    -871.828E-03    -869.028E-03         2.97807    -856.040E-03    -19.6435E-03     119.679E-03    -59.6104E-03    -60.0996E-03    -59.5769E-03     119.646E-03    -60.0996E-03     4.78880E-03    -17.4771E+06    -47.2183E+06    -161.822E+06    -47.2893E+06    -161.751E+06    -17.4771E+06     1.74678E+06         31.7106
             454     6.59405E-03     49.5185E-03         2.96497    -847.342E-03    -862.743E-03    -853.124E-03         2.96343    -855.421E-03    -47.7689E-03     120.008E-03    -59.8951E-03    -60.1391E-03    -59.8830E-03     119.996E-03    -60.1391E-03     2.77792E-03    -18.6294E+06    -49.2577E+06    -196.523E+06    -49.3361E+06    -196.444E+06    -18.6294E+06     2.52126E+06         30.9141
             455     5.65216E-03     49.5169E-03         2.96209    -847.414E-03    -862.071E-03    -849.511E-03         2.95828    -856.155E-03     43.1291E-03     119.938E-03    -59.8314E-03    -60.1341E-03    -59.8290E-03     119.935E-03    -60.1341E-03     1.11403E-03    -25.8873E+06    -53.0354E+06    -221.976E+06    -53.0789E+06    -221.933E+06    -25.8873E+06     1.96694E+06         30.3819
             456     4.70997E-03     49.5168E-03         2.96464    -854.251E-03    -860.937E-03    -850.040E-03         2.95694    -857.450E-03    -57.9302E-03     119.911E-03    -59.8119E-03    -60.1277E-03    -59.8114E-03     119.910E-03    -60.1277E-03    -126.743E-06    -36.7567E+06    -59.6212E+06    -242.008E+06    -59.6516E+06    -241.977E+06    -36.7567E+06     971.724E+03         29.9994
             457     3.76782E-03     49.5180E-03         2.98218    -859.647E-03    -868.305E-03    -842.533E-03         2.95717    -860.410E-03     193.471E-03     119.973E-03    -59.8663E-03    -60.1350E-03    -59.8648E-03     119.971E-03    -60.1350E-03    -979.170E-06    -46.9825E+06    -65.2267E+06    -256.839E+06    -65.2360E+06    -256.830E+06    -46.9825E+06     418.936E+03         29.7090
             458     2.82559E-03     49.5199E-03         3.04841    -863.941E-03    -919.282E-03    -856.007E-03         2.98513    -863.941E-03    -195.398E-03     120.098E-03    -59.9643E-03    -60.1486E-03    -59.9819E-03     120.096E-03    -60.1292E-03    -1.12504E-03    -57.6880E+06    -70.0100E+06    -265.465E+06    -70.0201E+06    -265.455E+06    -57.6880E+06     741.986E+03         29.4985
             459     1.88410E-03     49.5212E-03         3.18399    -870.248E-03        -1.04578    -850.144E-03         2.98836    -870.248E-03     527.756E-03     120.190E-03    -60.0406E-03    -60.1530E-03    -60.1310E-03     120.189E-03    -60.0614E-03    -879.657E-06    -67.5270E+06    -74.3865E+06    -271.737E+06    -74.3901E+06    -271.734E+06    -67.5270E+06     405.931E+03         29.3559
             460     942.335E-06     49.5227E-03         4.59391    -254.152E-03        -3.07428         1.19742         3.01547        -2.94742        -1.65476     119.977E-03    -59.8931E-03    -60.0880E-03    -60.0871E-03     119.976E-03    -59.8931E-03    -652.005E-06    -73.8972E+06    -77.2312E+06    -273.990E+06    -77.2575E+06    -273.964E+06    -73.8972E+06    -1.04858E+06         29.2695
             461     16.0245E-03     49.1081E-03         3.00478    -864.199E-03    -875.917E-03    -873.354E-03         3.00465    -866.639E-03     14.3091E-03     185.172E-03    -60.1862E-03    -124.879E-03    -65.8315E-03     126.125E-03    -60.1862E-03     242.824E-03     140.373E+06     136.691E+06    -8.58004E+06    -8.57917E+06     140.372E+06     136.691E+06     75.7230E+03         64.2887
             462     15.0756E-03     48.7966E-03         3.01173    -869.097E-03    -874.194E-03    -874.088E-03         3.01163    -869.097E-03     21.1549E-03     175.179E-03    -60.1525E-03    -115.028E-03    -64.6013E-03     124.752E-03    -60.1525E-03     217.231E-03     116.850E+06     111.448E+06    -16.9490E+06    -16.9281E+06     116.829E+06     111.448E+06    -465.765E+03         59.9652
             463     14.1367E-03     48.6157E-03         3.01990    -870.623E-03    -881.656E-03    -881.525E-03         3.01977    -870.623E-03    -28.9248E-03     139.497E-03    -60.0184E-03    -79.5054E-03    -60.4548E-03     120.447E-03    -60.0184E-03     118.848E-03     102.549E+06     77.4820E+06    -24.3546E+06    -24.3176E+06     102.512E+06     77.4820E+06    -1.25085E+06         54.6232
             464     13.1905E-03     48.5303E-03         3.02775    -870.804E-03    -885.060E-03    -884.904E-03         3.02760    -870.804E-03    -15.4724E-03     124.090E-03    -59.8490E-03    -64.3195E-03    -58.4843E-03     118.255E-03    -59.8490E-03     64.2663E-03     94.1989E+06     35.6674E+06    -29.4341E+06    -29.3993E+06     94.1641E+06     35.6674E+06    -980.323E+03         49.4101
             465     12.2496E-03     48.4732E-03         3.02144    -869.892E-03    -878.971E-03    -878.101E-03         3.02126    -870.580E-03    -7.27412E-03     120.524E-03    -59.4801E-03    -61.1384E-03    -58.4988E-03     118.111E-03    -59.7060E-03     39.7583E-03     87.0199E+06    -428.407E+03    -32.3410E+06    -32.3122E+06     86.9912E+06    -428.407E+03    -337.184E+03         44.8059
             466     11.3061E-03     48.4448E-03         3.01766    -865.180E-03    -879.006E-03    -873.556E-03         3.01752    -870.486E-03    -10.6161E-03     118.687E-03    -59.0412E-03    -59.7220E-03    -58.3533E-03     118.000E-03    -59.7220E-03     21.2645E-03     43.4929E+06    -12.8023E+06    -36.1723E+06    -36.0830E+06     43.4036E+06    -12.8023E+06     288.759E+03         40.8300
             467     10.3629E-03     48.4279E-03         3.01046    -858.800E-03    -878.066E-03    -866.041E-03         3.01038    -870.744E-03    -10.8548E-03     118.992E-03    -59.2302E-03    -59.8532E-03    -58.8786E-03     118.641E-03    -59.8532E-03     15.8077E-03    -8.01657E+06    -26.4373E+06    -48.9367E+06    -40.8192E+06    -27.8334E+06    -14.7381E+06     170.525E+03         37.5070
             468     9.42055E-03     48.4111E-03         3.01130    -858.568E-03    -881.257E-03    -868.343E-03         3.01104    -871.230E-03     17.8305E-03     119.347E-03    -59.4879E-03    -59.9235E-03    -59.2385E-03     119.098E-03    -59.9235E-03     12.9248E-03    -20.0763E+06    -44.9796E+06    -80.0151E+06    -45.0047E+06    -79.9900E+06    -20.0763E+06     703.025E+03         34.8693
             469     8.47830E-03     48.4015E-03         3.02124    -864.546E-03    -888.253E-03    -881.604E-03         3.02094    -870.894E-03     9.45060E-03     119.421E-03    -59.4548E-03    -60.0023E-03    -59.3665E-03     119.333E-03    -60.0023E-03     7.71697E-03    -19.7770E+06    -48.4455E+06    -121.489E+06    -48.4929E+06    -121.442E+06    -19.7770E+06     1.82523E+06         32.9586
             470     7.53616E-03     48.3955E-03         3.01485    -867.217E-03    -879.592E-03    -876.241E-03         3.01428    -870.004E-03     30.1362E-03     119.620E-03    -59.5721E-03    -60.0757E-03    -59.5364E-03     119.584E-03    -60.0757E-03     4.98561E-03    -21.7843E+06    -51.8049E+06    -160.808E+06    -51.8406E+06    -160.772E+06    -21.7843E+06     388.121E+03         31.7088
             471     6.59388E-03     48.3913E-03         3.00448    -862.089E-03    -872.407E-03    -863.318E-03         3.00347    -870.168E-03    -3.85264E-03     119.855E-03    -59.7612E-03    -60.1198E-03    -59.7475E-03     119.842E-03    -60.1198E-03     2.86451E-03    -24.5644E+06    -54.4158E+06    -197.546E+06    -54.4340E+06    -197.528E+06    -24.5644E+06    -289.711E+03         30.9093
             472     5.65201E-03     48.3907E-03         3.00482    -862.121E-03    -872.970E-03    -861.396E-03         3.00265    -871.529E-03     48.2982E-03     119.949E-03    -59.8300E-03    -60.1463E-03    -59.8280E-03     119.947E-03    -60.1463E-03     1.06584E-03    -27.8087E+06    -56.5903E+06    -221.818E+06    -56.6248E+06    -221.784E+06    -27.8087E+06     1.60306E+06         30.3773
             473     4.70982E-03     48.3904E-03         3.01883    -868.625E-03    -881.089E-03    -871.333E-03         3.01294    -872.491E-03    -72.0825E-03     119.923E-03    -59.7937E-03    -60.1604E-03    -59.7932E-03     119.922E-03    -60.1604E-03     169.966E-09    -34.7620E+06    -59.7902E+06    -240.544E+06    -59.8288E+06    -240.505E+06    -34.7620E+06     1.78509E+06         29.9973
             474     3.76783E-03     48.3916E-03         3.03521    -871.781E-03    -892.396E-03    -872.989E-03         3.01657    -872.544E-03     146.908E-03     120.031E-03    -59.8958E-03    -60.1656E-03    -59.8945E-03     120.030E-03    -60.1656E-03    -879.572E-06    -45.3178E+06    -64.7947E+06    -256.707E+06    -64.8117E+06    -256.690E+06    -45.3178E+06     1.13030E+06         29.7086
             475     2.82590E-03     48.3936E-03         3.06474    -874.080E-03    -915.200E-03    -864.500E-03         3.01404    -874.080E-03    -206.041E-03     120.120E-03    -59.9858E-03    -60.1494E-03    -59.9842E-03     120.118E-03    -60.1494E-03    -1.04352E-03    -57.6910E+06    -69.5494E+06    -264.790E+06    -69.5556E+06    -264.784E+06    -57.6910E+06     765.785E+03         29.4981
             476     1.88354E-03     48.3945E-03         3.14239    -888.152E-03    -974.634E-03    -838.288E-03         3.00604    -888.152E-03     350.719E-03     120.137E-03    -59.9897E-03    -60.1509E-03    -59.9954E-03     120.136E-03    -60.1440E-03    -922.179E-06    -67.3012E+06    -72.4467E+06    -271.448E+06    -72.4532E+06    -271.441E+06    -67.3012E+06    -296.494E+03         29.3550
             477     941.554E-06     48.3963E-03         4.30714    -92.4040E-03        -2.93520         1.07845         3.07967        -2.87859        -1.46320     120.277E-03    -59.9404E-03    -60.3380E-03    -60.2618E-03     120.276E-03    -60.0155E-03    -692.185E-06    -71.9641E+06    -74.8114E+06    -273.003E+06    -73.8095E+06    -272.970E+06    -72.9987E+06    -1.80839E+06         29.2705
             478     16.0188E-03     47.9849E-03         3.03479    -874.960E-03    -881.305E-03    -877.921E-03         3.03477    -878.330E-03     13.3625E-03     185.299E-03    -60.2491E-03    -125.086E-03    -66.2269E-03     126.441E-03    -60.2491E-03     242.862E-03     140.997E+06     135.990E+06    -9.30334E+06    -9.29219E+06     140.986E+06     135.990E+06    -494.559E+03         64.2880
             479     15.0794E-03     47.6669E-03         3.04489    -879.772E-03    -890.390E-03    -889.429E-03         3.04486    -880.702E-03     5.39371E-03     175.735E-03    -60.1773E-03    -115.599E-03    -65.5457E-03     125.681E-03    -60.1773E-03     217.344E-03     118.104E+06     111.931E+06    -17.8893E+06    -17.8577E+06     118.073E+06     111.931E+06    -1.13044E+06         59.9655
             480     14.1337E-03     47.4889E-03         3.05496    -881.854E-03    -895.452E-03    -895.342E-03         3.05485    -881.854E-03    -26.7282E-03     139.482E-03    -60.0022E-03    -79.4826E-03    -60.3935E-03     120.393E-03    -60.0022E-03     118.929E-03     102.923E+06     77.1147E+06    -25.2897E+06    -25.2490E+06     102.882E+06     77.1147E+06    -1.21847E+06         54.6250
             481     13.1933E-03     47.4034E-03         3.05145    -879.345E-03    -888.353E-03    -885.279E-03         3.05135    -882.317E-03    -18.2203E-03     124.069E-03    -59.8521E-03    -64.3014E-03    -58.3772E-03     118.145E-03    -59.8521E-03     64.7902E-03      93.445E+06     35.3411E+06    -30.6537E+06    -30.6190E+06     93.4103E+06     35.3411E+06    -1.37908E+06         49.4112
             482     12.2482E-03     47.3468E-03         3.05495    -879.730E-03    -889.037E-03    -886.029E-03         3.05492    -882.702E-03     17.5076E-03     120.439E-03    -59.6848E-03    -60.8653E-03    -58.3787E-03     117.995E-03    -59.7268E-03     39.8284E-03     85.6283E+06    -442.478E+03    -34.1383E+06    -34.1166E+06     85.6066E+06    -442.478E+03    -436.296E+03         44.8069
             483     11.3058E-03     47.3180E-03         3.06475    -882.386E-03    -896.214E-03    -896.170E-03         3.06471    -882.386E-03     24.5996E-03     119.012E-03    -59.3132E-03    -59.7876E-03    -58.6693E-03     118.325E-03    -59.7450E-03     21.3772E-03     42.4288E+06    -10.1257E+06    -35.5779E+06    -35.4929E+06     42.3439E+06    -10.1257E+06     1.47184E+06         40.8314
             484     10.3635E-03     47.3015E-03         3.05379    -874.522E-03    -893.593E-03    -886.234E-03         3.05376    -881.849E-03     7.16686E-03     118.989E-03    -59.2064E-03    -59.8806E-03    -58.8480E-03     118.630E-03    -59.8806E-03     15.9662E-03    -5.31684E+06    -22.0048E+06    -47.3562E+06    -38.2671E+06    -27.8118E+06    -8.59892E+06     2.66313E+06         37.5088
             485     9.42048E-03     47.2846E-03         3.03485    -866.132E-03    -885.414E-03    -868.905E-03         3.03471    -882.501E-03     24.7247E-03     119.310E-03    -59.4281E-03    -59.9466E-03    -59.1821E-03     119.064E-03    -59.9466E-03     12.8318E-03    -15.2191E+06    -42.2127E+06    -80.0550E+06    -42.6182E+06    -79.6495E+06    -15.2191E+06     1.90442E+06         34.8705
             486     8.47824E-03     47.2744E-03         3.03102    -866.240E-03    -884.332E-03    -865.613E-03         3.03039    -884.332E-03    -21.2807E-03     119.568E-03    -59.5898E-03    -60.0128E-03    -59.5038E-03     119.481E-03    -60.0128E-03     7.60094E-03    -16.2109E+06    -44.7225E+06    -120.539E+06    -44.7879E+06    -120.473E+06    -16.2109E+06     118.774E+03         32.9588
             487     7.53622E-03     47.2690E-03         3.04168    -872.693E-03    -887.084E-03    -872.723E-03         3.04091    -886.285E-03    -14.2321E-03     119.679E-03    -59.6197E-03    -60.0877E-03    -59.5866E-03     119.646E-03    -60.0877E-03     4.78488E-03    -15.6477E+06    -46.3752E+06    -159.535E+06    -46.4696E+06    -159.441E+06    -15.6477E+06     149.057E+03         31.7069
             488     6.59384E-03     47.2651E-03         3.06006    -882.498E-03    -894.199E-03    -888.959E-03         3.05936    -887.041E-03    -18.1181E-03     119.718E-03    -59.5969E-03    -60.1445E-03    -59.5842E-03     119.705E-03    -60.1445E-03     2.76812E-03    -19.6465E+06    -51.7662E+06    -198.531E+06    -51.8102E+06    -198.487E+06    -19.6465E+06     194.032E+03         30.9052
             489     5.65169E-03     47.2637E-03         3.06474    -885.552E-03    -896.764E-03    -894.686E-03         3.06333    -886.219E-03     30.5574E-03     119.898E-03    -59.7519E-03    -60.1738E-03    -59.7500E-03     119.896E-03    -60.1738E-03     1.00041E-03    -27.7194E+06    -57.7823E+06    -222.671E+06    -57.7887E+06    -222.665E+06    -27.7194E+06    -559.038E+03         30.3740
             490     4.70984E-03     47.2644E-03         3.07102    -882.630E-03    -909.812E-03    -905.463E-03         3.06733    -883.296E-03    -53.9181E-03     119.983E-03    -59.8236E-03    -60.1922E-03    -59.8232E-03     119.983E-03    -60.1922E-03    -132.264E-06    -35.4209E+06    -61.0888E+06    -240.355E+06    -61.1062E+06    -240.338E+06    -35.4209E+06     174.502E+03         29.9965
             491     3.76741E-03     47.2652E-03         3.06766    -878.310E-03    -910.962E-03    -900.422E-03         3.05711    -878.310E-03     105.925E-03     120.068E-03    -59.8881E-03    -60.2055E-03    -59.8873E-03     120.068E-03    -60.2055E-03    -709.190E-06    -43.8002E+06    -64.3073E+06    -256.046E+06    -64.3204E+06    -256.033E+06    -43.8002E+06     750.451E+03         29.7097
             492     2.82565E-03     47.2668E-03         3.07310    -873.568E-03    -917.690E-03    -885.412E-03         3.04082    -873.568E-03    -181.856E-03     120.224E-03    -60.0267E-03    -60.2097E-03    -60.0477E-03     120.222E-03    -60.1871E-03    -1.00374E-03    -55.7182E+06    -68.4900E+06    -263.579E+06    -68.4915E+06    -263.578E+06    -55.7182E+06     356.656E+03         29.5003
             493     1.88390E-03     47.2686E-03         3.10934    -871.786E-03    -962.092E-03    -871.041E-03         3.01829    -871.786E-03     298.613E-03     120.240E-03    -60.0243E-03    -60.2227E-03    -60.0876E-03     120.238E-03    -60.1578E-03    -1.04524E-03    -65.7903E+06    -71.7985E+06    -270.059E+06    -71.8070E+06    -270.051E+06    -65.7903E+06    -797.527E+03         29.3574
             494     941.751E-06     47.2693E-03         3.95882     102.196E-03        -2.78670     988.077E-03         3.01643        -2.73019        -1.12720     120.260E-03    -59.8519E-03    -60.4109E-03    -60.3341E-03     120.259E-03    -59.9271E-03    -1.01920E-03    -72.8540E+06    -76.2324E+06    -275.632E+06    -75.2258E+06    -275.604E+06    -73.8885E+06    -93.6906E+03         29.2721
             495     16.0206E-03     46.8471E-03         3.06869    -886.483E-03    -895.193E-03    -892.096E-03         3.06856    -889.443E-03    -14.3067E-03     185.615E-03    -60.2810E-03    -125.387E-03    -66.2723E-03     126.500E-03    -60.2810E-03     243.742E-03     143.141E+06     137.868E+06    -8.59522E+06    -8.57263E+06     142.650E+06     138.336E+06     334.671E+03         64.2842
             496     15.0775E-03     46.5453E-03         3.07215    -885.175E-03    -898.834E-03    -892.030E-03         3.07209    -891.917E-03     26.4192E-03     175.119E-03    -60.1884E-03    -114.990E-03    -65.2948E-03     125.423E-03    -60.1884E-03     216.517E-03     119.039E+06     111.125E+06    -19.1290E+06    -19.0774E+06     118.987E+06     111.125E+06    -681.090E+03         59.9617
             497     14.1349E-03     46.3583E-03         3.08028    -888.008E-03    -900.849E-03    -894.837E-03         3.08012    -893.861E-03    -7.66515E-03     139.723E-03    -60.0089E-03    -79.7027E-03    -60.2928E-03     120.313E-03    -60.0089E-03     119.431E-03     101.931E+06     75.3544E+06    -27.1327E+06    -27.0834E+06     101.882E+06     75.3544E+06    -1.48125E+06         54.6209
             498     13.1905E-03     46.2786E-03         3.08214    -890.021E-03    -898.787E-03    -893.525E-03         3.08192    -895.065E-03     973.962E-06     124.005E-03    -59.8856E-03    -64.1862E-03    -58.3875E-03     118.206E-03    -59.8856E-03     64.3263E-03     92.6957E+06     35.3465E+06    -32.6633E+06    -32.6394E+06     92.6718E+06     35.3465E+06    -1.18080E+06         49.4074
             499     12.2486E-03     46.2194E-03         3.09131    -892.717E-03    -901.775E-03    -898.658E-03         3.09117    -895.688E-03     29.7617E-03     120.725E-03    -59.7526E-03    -61.0670E-03    -58.5318E-03     118.200E-03    -59.7628E-03     40.3900E-03     84.7272E+06     914.403E+03    -36.7418E+06    -36.7355E+06     84.7208E+06     914.403E+03    -736.106E+03         44.8044
             500     11.3059E-03     46.1912E-03         3.09082    -891.181E-03    -901.337E-03    -896.524E-03         3.09076    -895.936E-03     16.5409E-03     119.136E-03    -59.3983E-03    -59.8146E-03    -58.7623E-03     118.458E-03    -59.7720E-03     21.2844E-03     40.0042E+06    -10.0235E+06    -38.6208E+06    -38.5977E+06     39.9810E+06    -10.0235E+06     188.879E+03         40.8301
             501     10.3627E-03     46.1752E-03         3.09449    -891.120E-03    -906.729E-03    -901.945E-03         3.09447    -895.875E-03     13.5379E-03     119.170E-03    -59.3618E-03    -59.9023E-03    -58.9939E-03     118.802E-03    -59.9023E-03     16.1889E-03    -5.55726E+06    -21.8211E+06    -47.7029E+06    -38.8441E+06    -28.5330E+06    -7.70424E+06     1.69974E+06         37.5083
             502     9.42077E-03     46.1578E-03         3.09342    -891.715E-03    -906.769E-03    -902.956E-03         3.09332    -895.421E-03     27.4668E-03     119.472E-03    -59.5809E-03    -59.9545E-03    -59.3256E-03     119.216E-03    -59.9545E-03     13.0436E-03    -11.4511E+06    -38.2364E+06    -77.0637E+06    -38.6465E+06    -76.6536E+06    -11.4511E+06     1.17043E+06         34.8706
             503     8.47843E-03     46.1478E-03         3.07785    -883.805E-03    -901.171E-03    -888.841E-03         3.07727    -895.549E-03    -20.8040E-03     119.546E-03    -59.5751E-03    -60.0061E-03    -59.4893E-03     119.460E-03    -60.0061E-03     7.59951E-03    -13.9149E+06    -41.3723E+06    -119.447E+06    -41.4335E+06    -119.386E+06    -13.9149E+06    -164.885E+03         32.9589
             504     7.53632E-03     46.1422E-03         3.07321    -878.325E-03    -899.211E-03    -879.965E-03         3.07269    -897.049E-03    -32.2190E-03     119.658E-03    -59.6122E-03    -60.0784E-03    -59.5799E-03     119.626E-03    -60.0784E-03     4.71199E-03    -15.0484E+06    -46.2176E+06    -160.877E+06    -46.3242E+06    -160.770E+06    -15.0484E+06     263.429E+03         31.7071
             505     6.59424E-03     46.1389E-03         3.08815    -886.483E-03    -903.609E-03    -891.033E-03         3.08778    -898.691E-03    -27.5187E-03     119.742E-03    -59.6282E-03    -60.1369E-03    -59.6166E-03     119.730E-03    -60.1369E-03     2.68973E-03    -17.9047E+06    -50.0383E+06    -197.713E+06    -50.0899E+06    -197.661E+06    -17.9047E+06     768.155E+03         30.9051
             506     5.65167E-03     46.1374E-03         3.10306    -896.807E-03    -911.614E-03    -909.384E-03         3.10235    -898.327E-03     5.95019E-03     119.791E-03    -59.6475E-03    -60.1746E-03    -59.6456E-03     119.789E-03    -60.1746E-03     889.184E-06    -25.7990E+06    -54.8090E+06    -222.010E+06    -54.8202E+06    -221.999E+06    -25.7990E+06     8.84734E+03         30.3732
             507     4.70949E-03     46.1376E-03         3.10888    -894.710E-03    -922.791E-03    -921.640E-03         3.10773    -894.710E-03    -23.1891E-03     119.967E-03    -59.8081E-03    -60.1966E-03    -59.8077E-03     119.966E-03    -60.1966E-03    -284.361E-06    -36.1668E+06    -61.1185E+06    -241.194E+06    -61.1283E+06    -241.184E+06    -36.1668E+06    -1.01251E+06         29.9963
             508     3.76775E-03     46.1393E-03         3.09250    -889.276E-03    -915.458E-03    -911.093E-03         3.08814    -889.276E-03     81.8694E-03     120.106E-03    -59.9203E-03    -60.2068E-03    -59.9192E-03     120.105E-03    -60.2068E-03    -825.086E-06    -45.1490E+06    -65.9164E+06    -256.089E+06    -65.9249E+06    -256.080E+06    -45.1490E+06    -778.438E+03         29.7103
             509     2.82536E-03     46.1397E-03         3.07893    -885.194E-03    -906.009E-03    -893.179E-03         3.06610    -885.194E-03    -108.543E-03     120.192E-03    -59.9789E-03    -60.2226E-03    -59.9997E-03     120.190E-03    -60.2000E-03    -1.11740E-03    -55.5624E+06    -69.6637E+06    -262.783E+06    -69.6680E+06    -262.778E+06    -55.5624E+06    -341.606E+03         29.5019
             510     1.88369E-03     46.1421E-03         3.08567    -870.552E-03    -935.285E-03    -867.891E-03         3.03686    -889.142E-03     270.153E-03     120.308E-03    -60.0842E-03    -60.2316E-03    -60.1478E-03     120.306E-03    -60.1667E-03    -898.397E-06    -66.1442E+06    -73.6483E+06    -269.767E+06    -73.6639E+06    -269.751E+06    -66.1442E+06     266.493E+03         29.3602
             511     942.365E-06     46.1426E-03         3.61878     319.684E-03        -2.66326     843.722E-03         3.06295        -2.63146    -739.872E-03     120.240E-03    -59.9216E-03    -60.3219E-03    -60.3111E-03     120.239E-03    -59.9314E-03    -709.370E-06    -74.9216E+06    -78.1121E+06    -277.443E+06    -78.1524E+06    -277.403E+06    -74.9216E+06     904.073E+03         29.2743
             512     16.0218E-03     45.7243E-03         3.09562    -890.998E-03    -903.993E-03    -894.339E-03         3.09540    -900.429E-03    -12.7851E-03     185.650E-03    -60.2384E-03    -125.361E-03    -66.0832E-03     126.372E-03    -60.2384E-03     243.901E-03     142.753E+06     138.857E+06    -7.77610E+06    -7.76140E+06     142.270E+06     139.325E+06     868.416E+03         64.2800
             513     15.0767E-03     45.4156E-03         3.10344    -890.340E-03    -903.788E-03    -890.217E-03         3.10332    -903.788E-03     41.0529E-03     174.368E-03    -60.1766E-03    -114.211E-03    -64.4298E-03     124.587E-03    -60.1766E-03     215.813E-03     120.499E+06     113.208E+06    -15.7096E+06    -15.6080E+06     120.398E+06     113.208E+06     1.36133E+06         59.9565
             514     14.1339E-03     45.2325E-03         3.10977    -893.926E-03    -906.756E-03    -893.761E-03         3.10961    -906.756E-03    -7.44020E-03     139.539E-03    -60.0168E-03    -79.5296E-03    -60.3486E-03     120.358E-03    -60.0168E-03     118.347E-03     102.645E+06     77.4698E+06    -24.6289E+06    -24.5335E+06     102.550E+06     77.4698E+06    -2.15429E+03         54.6151
             515     13.1913E-03     45.1515E-03         3.13020    -905.085E-03    -919.070E-03    -915.864E-03         3.12997    -908.056E-03     3.04770E-03     123.583E-03    -59.8895E-03    -63.7396E-03    -58.1955E-03     118.039E-03    -59.8895E-03     62.8696E-03     92.4451E+06     36.4390E+06    -32.1136E+06    -32.0968E+06     92.4283E+06     36.4390E+06    -422.520E+03         49.4030
             516     12.2478E-03     45.0925E-03         3.13173    -905.857E-03    -919.170E-03    -916.762E-03         3.13152    -908.062E-03     8.20154E-03     120.539E-03    -59.6956E-03    -60.9292E-03    -58.3502E-03     118.045E-03    -59.7799E-03     40.2026E-03     85.2785E+06     1.53304E+06    -36.5665E+06    -36.5493E+06     85.2613E+06     1.53304E+06    -585.748E+03         44.8005
             517     11.3049E-03     45.0645E-03         3.11846    -901.392E-03    -908.773E-03    -901.719E-03         3.11836    -908.352E-03    -11.9466E-03     119.167E-03    -59.4496E-03    -59.7840E-03    -58.7721E-03     118.489E-03    -59.7840E-03     21.1808E-03     39.1329E+06    -12.3029E+06    -39.3993E+06    -39.2947E+06     39.0283E+06    -12.3029E+06    -1.49350E+06         40.8270
             518     10.3629E-03     45.0485E-03         3.11889    -898.601E-03    -914.369E-03    -903.849E-03         3.11884    -909.068E-03    -589.114E-06     119.355E-03    -59.5406E-03    -59.8903E-03    -59.1783E-03     118.992E-03    -59.8903E-03     16.0709E-03    -8.80988E+06    -24.6198E+06    -47.2093E+06    -39.4860E+06    -28.7511E+06    -12.4018E+06    -1.85995E+06         37.5064
             519     9.42048E-03     45.0306E-03         3.12237    -898.831E-03    -918.031E-03    -907.154E-03         3.12226    -909.596E-03     11.1834E-03     119.513E-03    -59.6345E-03    -59.9406E-03    -59.3776E-03     119.256E-03    -59.9406E-03     13.0497E-03    -14.7525E+06    -40.0435E+06    -76.9819E+06    -40.1887E+06    -76.8367E+06    -14.7525E+06    -825.963E+03         34.8697
             520     8.47853E-03     45.0213E-03         3.13181    -904.494E-03    -920.231E-03    -915.085E-03         3.13172    -909.548E-03     19.8179E-03     119.469E-03    -59.5040E-03    -60.0023E-03    -59.4194E-03     119.384E-03    -60.0023E-03     7.56229E-03    -15.0700E+06    -41.7013E+06    -119.830E+06    -41.7299E+06    -119.802E+06    -15.0700E+06     906.170E+03         32.9588
             521     7.53603E-03     45.0157E-03         3.13223    -902.877E-03    -920.121E-03    -913.929E-03         3.13218    -909.021E-03     5.40388E-03     119.622E-03    -59.5761E-03    -60.0788E-03    -59.5420E-03     119.588E-03    -60.0788E-03     4.85985E-03    -15.7979E+06    -45.2046E+06    -160.991E+06    -45.2697E+06    -160.926E+06    -15.7979E+06     1.04919E+06         31.7087
             522     6.59383E-03     45.0122E-03         3.12254    -900.531E-03    -912.982E-03    -904.290E-03         3.12242    -909.105E-03     13.7932E-03     119.860E-03    -59.7470E-03    -60.1389E-03    -59.7342E-03     119.847E-03    -60.1389E-03     2.79542E-03    -18.3614E+06    -51.0348E+06    -197.068E+06    -51.0823E+06    -197.020E+06    -18.3614E+06     429.893E+03         30.9086
             523     5.65217E-03     45.0111E-03         3.12524    -905.472E-03    -913.644E-03    -909.513E-03         3.12509    -909.461E-03     14.8425E-03     119.887E-03    -59.7484E-03    -60.1680E-03    -59.7466E-03     119.885E-03    -60.1680E-03     873.850E-06    -24.4295E+06    -55.4223E+06    -221.077E+06    -55.4322E+06    -221.067E+06    -24.4295E+06     47.2559E+03         30.3768
             524     4.70958E-03     45.0114E-03         3.12535    -901.980E-03    -919.343E-03    -911.939E-03         3.12514    -909.179E-03    -7.33319E-03     119.956E-03    -59.8086E-03    -60.1812E-03    -59.8081E-03     119.955E-03    -60.1812E-03    -326.045E-06    -33.9895E+06    -59.8015E+06    -240.809E+06    -59.8071E+06    -240.803E+06    -33.9895E+06    -257.159E+03         29.9983
             525     3.76761E-03     45.0118E-03         3.11469    -895.809E-03    -916.699E-03    -901.636E-03         3.11373    -909.921E-03     62.5873E-03     120.090E-03    -59.9383E-03    -60.1724E-03    -59.9367E-03     120.088E-03    -60.1724E-03    -1.03821E-03    -45.9574E+06    -65.9937E+06    -256.182E+06    -66.0041E+06    -256.171E+06    -45.9574E+06    -915.171E+03         29.7105
             526     2.82597E-03     45.0143E-03         3.12592    -902.247E-03    -924.097E-03    -911.944E-03         3.12224    -910.719E-03    -55.6911E-03     120.059E-03    -59.9019E-03    -60.1679E-03    -59.9001E-03     120.057E-03    -60.1679E-03    -1.12478E-03    -57.9226E+06    -71.1579E+06    -264.031E+06    -71.1646E+06    -264.024E+06    -57.9226E+06    -1.02877E+06         29.5014
             527     1.88354E-03     45.0145E-03         3.12291    -895.469E-03    -931.315E-03    -899.757E-03         3.10994    -914.060E-03     122.108E-03     120.151E-03    -59.9472E-03    -60.2091E-03    -59.9460E-03     120.150E-03    -60.2091E-03    -887.230E-06    -67.7462E+06    -74.6156E+06    -271.061E+06    -74.6297E+06    -271.047E+06    -67.7462E+06     389.439E+03         29.3611
             528     941.241E-06     45.0169E-03         3.35173     445.025E-03        -2.49914     660.169E-03         3.13191        -2.49447    -495.575E-03     120.464E-03    -60.0084E-03    -60.4573E-03    -60.3608E-03     120.464E-03    -60.1043E-03    -649.875E-06    -73.8272E+06    -76.4639E+06    -275.542E+06    -76.0687E+06    -275.520E+06    -74.2436E+06     393.776E+03         29.2782
             529     16.0241E-03     44.5995E-03         3.13085    -895.824E-03    -912.227E-03    -895.669E-03         3.13070    -912.227E-03     17.6661E-03     185.560E-03    -60.1670E-03    -125.349E-03    -66.6379E-03     126.849E-03    -60.1670E-03     242.814E-03     141.226E+06     137.192E+06    -8.96278E+06    -8.95043E+06     141.214E+06     137.192E+06    -395.476E+03         64.2736
             530     15.0791E-03     44.2916E-03         3.14126    -903.830E-03    -916.748E-03    -904.444E-03         3.14106    -915.940E-03     23.2510E-03     174.330E-03    -60.0990E-03    -114.300E-03    -64.1876E-03     124.217E-03    -60.0990E-03     216.446E-03     119.006E+06     112.234E+06    -16.2001E+06    -16.1227E+06     118.929E+06     112.234E+06     636.462E+03         59.9525
             531     14.1351E-03     44.1036E-03         3.14794    -911.441E-03    -919.318E-03    -912.156E-03         3.14785    -918.511E-03    -18.2757E-03     138.901E-03    -59.9770E-03    -78.9675E-03    -59.7384E-03     119.672E-03    -59.9770E-03     118.097E-03     103.910E+06     78.8913E+06    -22.5003E+06    -22.3722E+06     103.782E+06     78.8913E+06     1.79687E+06         54.6107
             532     13.1922E-03     44.0260E-03         3.15706    -914.786E-03    -926.986E-03    -922.092E-03         3.15700    -919.623E-03    -2.70347E-03     123.422E-03    -59.8752E-03    -63.6011E-03    -58.0222E-03     117.843E-03    -59.8752E-03     63.0148E-03     93.9304E+06     37.3012E+06    -29.1905E+06    -29.1223E+06     93.8622E+06     37.3012E+06     1.06800E+06         49.3984
             533     12.2482E-03     43.9668E-03         3.15576    -912.073E-03    -927.494E-03    -919.334E-03         3.15566    -920.131E-03    -3.98469E-03     120.502E-03    -59.6032E-03    -60.9884E-03    -58.3334E-03     118.001E-03    -59.7567E-03     40.1268E-03     86.0529E+06     334.431E+03    -33.9890E+06    -33.9756E+06     86.0394E+06     334.431E+03    -368.702E+03         44.7968
             534     11.3052E-03     43.9370E-03         3.15527    -915.865E-03    -921.054E-03    -916.071E-03         3.15514    -920.727E-03     5.69705E-03     118.982E-03    -59.2846E-03    -59.7688E-03    -58.6344E-03     118.332E-03    -59.7688E-03     20.7181E-03     40.8380E+06    -12.2533E+06    -36.3608E+06    -36.2165E+06     40.6936E+06    -12.2533E+06    -2.11912E+06         40.8240
             535     10.3627E-03     43.9216E-03         3.15293    -913.638E-03    -921.828E-03    -913.870E-03         3.15284    -921.501E-03     10.9940E-03     119.265E-03    -59.4492E-03    -59.8841E-03    -59.0966E-03     118.913E-03    -59.8841E-03     15.8417E-03    -9.44331E+06    -25.5541E+06    -47.5801E+06    -39.8366E+06    -29.4316E+06    -13.3092E+06    -2.41092E+06         37.5041
             536     9.42067E-03     43.9037E-03         3.15145    -910.267E-03    -922.643E-03    -910.216E-03         3.15140    -922.643E-03     505.073E-06     119.417E-03    -59.5320E-03    -59.9444E-03    -59.2785E-03     119.163E-03    -59.9444E-03     12.9426E-03    -16.5443E+06    -42.7407E+06    -79.3377E+06    -42.9276E+06    -79.1508E+06    -16.5443E+06    -1.59638E+06         34.8681
             537     8.47812E-03     43.8946E-03         3.16256    -914.351E-03    -928.674E-03    -919.386E-03         3.16254    -923.612E-03     2.87149E-03     119.422E-03    -59.4387E-03    -60.0206E-03    -59.3560E-03     119.339E-03    -60.0206E-03     7.49102E-03    -16.3499E+06    -44.7869E+06    -121.566E+06    -44.8448E+06    -121.509E+06    -16.3499E+06    -527.428E+03         32.9581
             538     7.53595E-03     43.8892E-03         3.17519    -919.346E-03    -935.055E-03    -930.914E-03         3.17515    -923.444E-03    -16.0803E-03     119.672E-03    -59.6031E-03    -60.0985E-03    -59.5688E-03     119.638E-03    -60.0985E-03     4.87829E-03    -16.1195E+06    -46.9415E+06    -160.846E+06    -46.9719E+06    -160.816E+06    -16.1195E+06     846.837E+03         31.7093
             539     6.59387E-03     43.8854E-03         3.16894    -919.951E-03    -929.309E-03    -926.389E-03         3.16883    -922.760E-03     13.4698E-03     119.882E-03    -59.7470E-03    -60.1627E-03    -59.7342E-03     119.870E-03    -60.1627E-03     2.75150E-03    -16.4521E+06    -49.5580E+06    -195.570E+06    -49.5898E+06    -195.538E+06    -16.4521E+06     474.806E+03         30.9114
             540     5.65152E-03     43.8847E-03         3.14839    -909.406E-03    -923.723E-03    -909.278E-03         3.14826    -923.723E-03     32.7917E-03     120.043E-03    -59.8946E-03    -60.1802E-03    -59.8929E-03     120.042E-03    -60.1802E-03     979.766E-06    -23.6526E+06    -54.8829E+06    -221.074E+06    -54.8875E+06    -221.069E+06    -23.6526E+06    -334.839E+03         30.3816
             541     4.71024E-03     43.8848E-03         3.15241    -909.142E-03    -929.836E-03    -912.632E-03         3.15235    -926.291E-03     17.0202E-03     120.072E-03    -59.9392E-03    -60.1627E-03    -59.9387E-03     120.071E-03    -60.1627E-03    -105.205E-06    -34.5355E+06    -60.5112E+06    -240.722E+06    -60.5134E+06    -240.720E+06    -34.5355E+06    -13.2296E+03         30.0023
             542     3.76795E-03     43.8858E-03         3.16051    -914.569E-03    -932.627E-03    -917.581E-03         3.15997    -929.081E-03     12.1869E-03     120.021E-03    -59.9016E-03    -60.1389E-03    -59.9002E-03     120.019E-03    -60.1389E-03    -962.346E-06    -46.2224E+06    -65.2487E+06    -255.547E+06    -65.2533E+06    -255.543E+06    -46.2224E+06    -196.451E+03         29.7122
             543     2.82564E-03     43.8870E-03         3.18953    -918.651E-03    -955.104E-03    -945.421E-03         3.18872    -927.522E-03    -42.6690E-03     120.072E-03    -59.9212E-03    -60.1619E-03    -59.9610E-03     120.070E-03    -60.1199E-03    -1.22269E-03    -58.6417E+06    -70.3253E+06    -265.219E+06    -70.3289E+06    -265.215E+06    -58.6417E+06    -473.492E+03         29.5016
             544     1.88371E-03     43.8893E-03         3.18261    -915.075E-03    -949.889E-03    -945.251E-03         3.18053    -917.632E-03    -17.7644E-03     120.094E-03    -59.9339E-03    -60.1687E-03    -59.9875E-03     120.093E-03    -60.1132E-03    -1.09159E-03    -68.1530E+06    -74.2893E+06    -271.792E+06    -74.2912E+06    -271.790E+06    -68.1530E+06    -504.184E+03         29.3597
             545     941.945E-06     43.8889E-03         3.20220     447.952E-03        -2.32554     499.817E-03         3.14566        -2.32087    -191.456E-03     120.198E-03    -59.9458E-03    -60.2582E-03    -60.1383E-03     120.197E-03    -60.0647E-03    -816.109E-06    -74.2024E+06    -76.8754E+06    -274.823E+06    -76.4623E+06    -274.820E+06    -74.6188E+06    -26.6953E+03         29.2751
             546     16.0225E-03     43.4736E-03         3.17868    -915.778E-03    -931.321E-03    -922.200E-03         3.17856    -924.781E-03     18.8121E-03     185.471E-03    -60.1552E-03    -125.315E-03    -66.9319E-03     127.088E-03    -60.1552E-03     242.188E-03     141.649E+06     137.684E+06    -9.34444E+06    -9.32624E+06     141.631E+06     137.684E+06    -113.723E+03         64.2632
             547     15.0803E-03     43.1644E-03         3.18321    -923.185E-03    -933.424E-03    -928.787E-03         3.18305    -927.659E-03     15.3009E-03     174.969E-03    -60.0718E-03    -115.004E-03    -64.5872E-03     124.552E-03    -60.0718E-03     217.645E-03     117.764E+06     111.536E+06    -17.7155E+06    -17.6890E+06     117.737E+06     111.536E+06    -195.787E+03         59.9449
             548     14.1360E-03     42.9801E-03         3.18789    -927.252E-03    -933.840E-03    -931.528E-03         3.18783    -929.506E-03    -13.9500E-03     138.658E-03    -59.9607E-03    -78.7759E-03    -59.3080E-03     119.191E-03    -59.9607E-03     118.969E-03     102.837E+06     78.7442E+06    -24.1328E+06    -24.0639E+06     102.769E+06     78.7442E+06     778.686E+03         54.6044
             549     13.1902E-03     42.8986E-03         3.17658    -918.444E-03    -930.921E-03    -918.434E-03         3.17657    -930.921E-03     914.447E-06     123.509E-03    -59.8660E-03    -63.7138E-03    -57.9992E-03     117.795E-03    -59.8660E-03     63.6106E-03     95.2261E+06     38.0682E+06    -28.9245E+06    -28.8621E+06     95.1637E+06     38.0682E+06     969.851E+03         49.3924
             550     12.2490E-03     42.8395E-03         3.17609    -917.514E-03    -932.561E-03    -917.498E-03         3.17607    -932.561E-03     3.52476E-03     120.697E-03    -59.5864E-03    -61.2155E-03    -58.6098E-03     118.236E-03    -59.7308E-03     39.9200E-03     87.6311E+06     1.17307E+06    -32.2699E+06    -32.2612E+06     87.6224E+06     1.17307E+06    -496.431E+03         44.7925
             551     11.3061E-03     42.8111E-03         3.18675    -924.090E-03    -933.931E-03    -924.018E-03         3.18668    -933.931E-03     9.25544E-03     118.790E-03    -59.1121E-03    -59.7514E-03    -58.4515E-03     118.129E-03    -59.7514E-03     20.9403E-03     41.3406E+06    -9.91072E+06    -35.7438E+06    -35.6522E+06     41.2491E+06    -9.91072E+06    -491.497E+03         40.8210
             552     10.3629E-03     42.7944E-03         3.19698    -928.240E-03    -937.325E-03    -930.732E-03         3.19691    -934.759E-03     14.3279E-03     118.985E-03    -59.1664E-03    -59.8851E-03    -58.8110E-03     118.630E-03    -59.8851E-03     15.8877E-03    -9.34930E+06    -23.3135E+06    -47.7268E+06    -39.3553E+06    -29.5259E+06    -11.5084E+06    -825.405E+03         37.5013
             553     9.42040E-03     42.7771E-03         3.20712    -933.224E-03    -942.104E-03    -940.484E-03         3.20711    -934.835E-03     9.56688E-03     119.273E-03    -59.3808E-03    -59.9535E-03    -59.1347E-03     119.027E-03    -59.9535E-03     12.7783E-03    -17.0274E+06    -42.5814E+06    -80.0426E+06    -42.7497E+06    -79.8742E+06    -17.0274E+06    -1.58893E+06         34.8657
             554     8.47794E-03     42.7682E-03         3.20083    -927.884E-03    -939.490E-03    -932.572E-03         3.20082    -934.788E-03    -5.27961E-03     119.435E-03    -59.4314E-03    -60.0387E-03    -59.3465E-03     119.350E-03    -60.0387E-03     7.60383E-03    -17.8113E+06    -46.6338E+06    -123.574E+06    -46.6959E+06    -123.512E+06    -17.8113E+06    -817.438E+03         32.9566
             555     7.53587E-03     42.7623E-03         3.19131    -920.120E-03    -938.457E-03    -922.744E-03         3.19126    -935.785E-03    -23.8227E-03     119.692E-03    -59.6156E-03    -60.1019E-03    -59.5794E-03     119.656E-03    -60.1019E-03     5.00461E-03    -20.0198E+06    -49.9613E+06    -160.125E+06    -49.9785E+06    -160.108E+06    -20.0198E+06    -883.290E+03         31.7086
             556     6.59367E-03     42.7591E-03         3.19313    -926.155E-03    -939.915E-03    -928.766E-03         3.19306    -937.243E-03    -4.02407E-03     119.878E-03    -59.7412E-03    -60.1627E-03    -59.7277E-03     119.864E-03    -60.1627E-03     2.86129E-03    -21.2481E+06    -52.3969E+06    -195.279E+06    -52.4148E+06    -195.261E+06    -21.2481E+06    -1.12981E+06         30.9115
             557     5.65176E-03     42.7577E-03         3.18583    -925.899E-03    -938.975E-03    -925.651E-03         3.18558    -938.975E-03    -3.26251E-03     120.037E-03    -59.8739E-03    -60.1995E-03    -59.8718E-03     120.035E-03    -60.1995E-03     1.03295E-03    -25.7930E+06    -55.8274E+06    -222.019E+06    -55.8359E+06    -222.011E+06    -25.7930E+06    -100.788E+03         30.3833
             558     4.70945E-03     42.7581E-03         3.19724    -929.439E-03    -949.597E-03    -938.173E-03         3.19668    -940.299E-03     25.5277E-03     120.129E-03    -59.9766E-03    -60.1888E-03    -59.9762E-03     120.129E-03    -60.1888E-03    -28.7939E-06    -35.7955E+06    -60.9264E+06    -240.355E+06    -60.9278E+06    -240.354E+06    -35.7955E+06     110.060E+03         30.0054
             559     3.76787E-03     42.7596E-03         3.21390    -938.470E-03    -953.363E-03    -951.942E-03         3.21288    -938.870E-03    -33.0249E-03     120.182E-03    -60.0027E-03    -60.2008E-03    -60.0542E-03     120.181E-03    -60.1483E-03    -773.750E-06    -47.3270E+06    -66.0269E+06    -255.831E+06    -66.0274E+06    -255.831E+06    -47.3270E+06     19.4933E+03         29.7156
             560     2.82597E-03     42.7610E-03         3.22859    -932.307E-03    -964.042E-03    -959.840E-03         3.22479    -932.707E-03     28.0898E-03     120.188E-03    -60.0161E-03    -60.1837E-03    -60.1164E-03     120.186E-03    -60.0814E-03    -1.14903E-03    -58.7021E+06    -70.2326E+06    -264.784E+06    -70.2334E+06    -264.783E+06    -58.7021E+06     309.999E+03         29.5039
             561     1.88439E-03     42.7622E-03         3.20091    -907.133E-03    -957.239E-03    -919.399E-03         3.18704    -931.099E-03    -145.160E-03     120.084E-03    -59.9805E-03    -60.1136E-03    -60.1120E-03     120.082E-03    -59.9805E-03    -977.318E-06    -68.2659E+06    -74.5494E+06    -271.858E+06    -74.5513E+06    -271.856E+06    -68.2659E+06     6.80189E+03         29.3581
             562     942.241E-06     42.7636E-03         3.29223     255.817E-03        -2.20589     338.183E-03         3.20986        -2.20589     203.269E-03     119.784E-03    -59.7588E-03    -60.0329E-03    -59.9992E-03     119.783E-03    -59.7916E-03    -761.119E-06    -75.4875E+06    -78.1137E+06    -275.487E+06    -77.8605E+06    -275.482E+06    -75.7455E+06     320.170E+03         29.2673
             563     16.0232E-03     42.3475E-03         3.20341    -933.351E-03    -943.014E-03    -939.607E-03         3.20313    -936.473E-03    -21.8796E-03     185.332E-03    -60.1795E-03    -125.133E-03    -66.5503E-03     126.749E-03    -60.1795E-03     242.385E-03     141.360E+06     137.651E+06    -7.33519E+06    -7.32592E+06     141.350E+06     137.651E+06     382.003E+03         64.2498
             564     15.0788E-03     42.0360E-03         3.21058    -932.808E-03    -943.883E-03    -937.723E-03         3.21054    -938.926E-03     18.9820E-03     175.202E-03    -60.1121E-03    -115.168E-03    -64.8917E-03     124.926E-03    -60.1121E-03     217.431E-03     118.403E+06     112.672E+06    -15.4049E+06    -15.3933E+06     118.392E+06     112.672E+06     1.02968E+06         59.9324
             565     14.1352E-03     41.8558E-03         3.21401    -932.139E-03    -944.570E-03    -935.555E-03         3.21390    -941.044E-03    -18.1499E-03     138.987E-03    -59.9811E-03    -79.0754E-03    -59.7812E-03     119.692E-03    -59.9811E-03     118.986E-03     102.980E+06     78.6199E+06    -23.5124E+06    -23.5043E+06     102.972E+06     78.6199E+06     -40.455E+03         54.5952
             566     13.1930E-03     41.7713E-03         3.20785    -929.780E-03    -942.770E-03    -929.664E-03         3.20773    -942.770E-03    -13.4959E-03     123.686E-03    -59.8563E-03    -63.9053E-03    -58.0216E-03     117.802E-03    -59.8563E-03     64.5699E-03     95.2437E+06     38.0368E+06    -28.9510E+06    -28.9438E+06     95.2365E+06     38.0368E+06    -369.768E+03         49.3859
             567     12.2487E-03     41.7126E-03         3.20996    -931.367E-03    -944.337E-03    -931.354E-03         3.20994    -944.337E-03     1.02990E-03     120.530E-03    -59.6601E-03    -60.9905E-03    -58.4233E-03     118.028E-03    -59.7252E-03     40.1455E-03     87.8045E+06     1.87573E+06    -32.9647E+06    -32.9375E+06     87.7773E+06     1.87573E+06     463.078E+03         44.7867
             568     11.3057E-03     41.6849E-03         3.21686    -934.914E-03    -945.606E-03    -934.894E-03         3.21684    -945.606E-03    -14.2501E-03     118.882E-03    -59.2072E-03    -59.7630E-03    -58.5451E-03     118.211E-03    -59.7538E-03     21.1710E-03     41.6009E+06    -8.93905E+06    -35.9203E+06    -35.8083E+06     41.4888E+06    -8.93905E+06     412.117E+03         40.8162
             569     10.3632E-03     41.6678E-03         3.22616    -937.946E-03    -949.073E-03    -940.480E-03         3.22613    -946.507E-03     2.62246E-03     118.874E-03    -59.0548E-03    -59.8897E-03    -58.6870E-03     118.506E-03    -59.8897E-03     16.1553E-03    -8.19520E+06    -21.9227E+06    -46.7150E+06    -38.0415E+06    -28.4797E+06    -10.3116E+06    -173.158E+03         37.4976
             570     9.42025E-03     41.6509E-03         3.23747    -940.071E-03    -954.174E-03    -947.321E-03         3.23745    -946.905E-03     11.1411E-03     119.203E-03    -59.2916E-03    -59.9674E-03    -59.0423E-03     118.954E-03    -59.9674E-03     12.8062E-03    -16.5154E+06    -40.9483E+06    -80.3469E+06    -41.1377E+06    -80.1575E+06    -16.5154E+06    -471.999E+03         34.8628
             571     8.47778E-03     41.6415E-03         3.23735    -939.754E-03    -951.851E-03    -944.455E-03         3.23735    -947.148E-03     2.41383E-03     119.430E-03    -59.4124E-03    -60.0517E-03    -59.3291E-03     119.347E-03    -60.0517E-03     7.54945E-03    -17.7795E+06    -44.0278E+06    -123.673E+06    -44.0463E+06    -123.655E+06    -17.7795E+06    -720.439E+03         32.9547
             572     7.53552E-03     41.6357E-03         3.22112    -930.189E-03    -948.524E-03    -930.128E-03         3.22106    -948.524E-03    -19.5685E-03     119.660E-03    -59.5608E-03    -60.1221E-03    -59.5245E-03     119.624E-03    -60.1221E-03     5.00470E-03    -20.2327E+06    -47.3310E+06    -159.206E+06    -47.3461E+06    -159.191E+06    -20.2327E+06    -1.21849E+06         31.7077
             573     6.59341E-03     41.6320E-03         3.22910    -935.633E-03    -956.873E-03    -941.864E-03         3.22878    -950.323E-03     14.1187E-03     119.931E-03    -59.7637E-03    -60.1910E-03    -59.7498E-03     119.917E-03    -60.1910E-03     2.96261E-03    -22.8570E+06    -52.2811E+06    -196.288E+06    -52.2980E+06    -196.271E+06    -22.8570E+06    -1.36326E+06         30.9114
             574     5.65139E-03     41.6312E-03         3.24688    -948.458E-03    -967.227E-03    -964.762E-03         3.24564    -949.687E-03    -50.7146E-03     120.068E-03    -59.8765E-03    -60.2299E-03    -59.8740E-03     120.066E-03    -60.2299E-03     1.08280E-03    -27.9349E+06    -57.2583E+06    -223.165E+06    -57.2683E+06    -223.155E+06    -27.9349E+06    -673.962E+03         30.3833
             575     4.70957E-03     41.6316E-03         3.23667    -944.701E-03    -964.000E-03    -959.002E-03         3.23423    -947.257E-03     20.3186E-03     120.121E-03    -59.9250E-03    -60.2346E-03    -59.9248E-03     120.121E-03    -60.2346E-03    -84.7247E-06    -36.6757E+06    -61.7587E+06    -240.212E+06    -61.7633E+06    -240.208E+06    -36.6757E+06     144.339E+03         30.0063
             576     3.76741E-03     41.6326E-03         3.22402    -932.059E-03    -958.123E-03    -938.377E-03         3.21939    -947.175E-03    -42.2952E-03     120.283E-03    -60.0363E-03    -60.2669E-03    -60.0882E-03     120.282E-03    -60.2144E-03    -611.482E-06    -46.9304E+06    -66.8935E+06    -256.022E+06    -66.8958E+06    -256.020E+06    -46.9304E+06     489.768E+03         29.7185
             577     2.82603E-03     41.6344E-03         3.25124    -936.185E-03    -968.620E-03    -941.216E-03         3.23731    -949.656E-03     146.589E-03     120.358E-03    -60.0953E-03    -60.2740E-03    -60.2341E-03     120.357E-03    -60.1342E-03    -841.166E-06    -59.3557E+06    -71.8923E+06    -264.923E+06    -71.8937E+06    -264.921E+06    -59.3557E+06     471.268E+03         29.5079
             578     1.88377E-03     41.6362E-03         3.28847    -934.771E-03        -1.00656    -935.546E-03         3.23886    -956.179E-03    -262.709E-03     120.157E-03    -59.9867E-03    -60.1771E-03    -60.1429E-03     120.155E-03    -60.0199E-03    -866.355E-06    -68.6450E+06    -74.9725E+06    -271.362E+06    -74.9741E+06    -271.361E+06    -68.6450E+06     498.002E+03         29.3615
             579     942.312E-06     41.6370E-03         3.55711    -133.273E-03        -2.06939     110.720E-03         3.27651        -2.03278     567.898E-03     119.878E-03    -59.7801E-03    -60.1014E-03    -60.0675E-03     119.877E-03    -59.8133E-03    -646.031E-06    -74.8568E+06    -78.1023E+06    -275.939E+06    -77.8552E+06    -275.928E+06    -75.1148E+06     138.986E+03         29.2696
             580     16.0213E-03     41.2192E-03         3.21213    -928.971E-03    -946.192E-03    -928.683E-03         3.21184    -946.192E-03    -33.5050E-03     184.827E-03    -60.1800E-03    -124.787E-03    -66.4694E-03     126.509E-03    -60.1800E-03     241.531E-03     140.321E+06     136.309E+06    -9.54630E+06    -9.54111E+06     140.316E+06     136.309E+06    -383.715E+03         64.2373
             581     15.0782E-03     40.9101E-03         3.22705    -932.625E-03    -949.399E-03    -932.606E-03         3.22703    -949.399E-03     8.10423E-03     174.588E-03    -60.1060E-03    -114.676E-03    -64.7567E-03     124.668E-03    -60.1060E-03     216.230E-03     118.352E+06     111.146E+06    -17.9362E+06    -17.9254E+06     118.341E+06     111.146E+06    -645.288E+03         59.9212
             582     14.1355E-03     40.7277E-03         3.23590    -936.637E-03    -952.136E-03    -936.500E-03         3.23576    -952.136E-03    -33.9571E-03     138.887E-03    -59.9727E-03    -78.9747E-03    -59.8618E-03     119.774E-03    -59.9727E-03     118.526E-03     103.757E+06     76.2576E+06    -24.4412E+06    -24.4330E+06     103.749E+06     76.2576E+06    -651.029E+03         54.5857
             583     13.1913E-03     40.6462E-03         3.24832    -947.895E-03    -954.212E-03    -948.169E-03         3.24817    -953.796E-03    -34.0507E-03     123.717E-03    -59.8534E-03    -63.9786E-03    -58.0182E-03     117.757E-03    -59.8534E-03     65.0680E-03     94.5108E+06     35.8650E+06    -29.7669E+06    -29.7619E+06     94.5058E+06     35.8650E+06    -242.575E+03         49.3779
             584     12.2481E-03     40.5863E-03         3.24922    -946.318E-03    -955.248E-03    -946.718E-03         3.24921    -954.832E-03    -10.6214E-03     120.504E-03    -59.6035E-03    -60.9969E-03    -58.3168E-03     117.949E-03    -59.7291E-03     40.4427E-03     87.0006E+06     690.236E+03    -33.1893E+06    -33.1661E+06     86.9773E+06     690.236E+03     696.496E+03         44.7797
             585     11.3059E-03     40.5578E-03         3.25055    -943.872E-03    -955.947E-03    -943.863E-03         3.25054    -955.947E-03    -5.50557E-03     118.856E-03    -59.1365E-03    -59.7748E-03    -58.4860E-03     118.196E-03    -59.7656E-03     20.9662E-03     42.5772E+06    -9.55828E+06    -35.5556E+06    -35.4075E+06     42.4291E+06    -9.55828E+06     920.048E+03         40.8101
             586     10.3627E-03     40.5423E-03         3.25479    -947.820E-03    -957.056E-03    -947.792E-03         3.25476    -957.056E-03     17.1900E-03     118.881E-03    -59.0447E-03    -59.9124E-03    -58.6654E-03     118.501E-03    -59.9124E-03     16.3938E-03    -7.56330E+06    -22.0679E+06    -46.8107E+06    -38.3256E+06    -27.6246E+06    -10.4917E+06     262.560E+03         37.4927
             587     9.42021E-03     40.5239E-03         3.25025    -944.407E-03    -958.326E-03    -944.362E-03         3.25020    -958.326E-03     4.96066E-03     119.249E-03    -59.3207E-03    -59.9863E-03    -59.0490E-03     118.977E-03    -59.9863E-03     13.3780E-03    -17.6705E+06    -41.2296E+06    -80.4508E+06    -41.3991E+06    -80.2813E+06    -17.6705E+06     14.3357E+03         34.8593
             588     8.47797E-03     40.5150E-03         3.25614    -947.109E-03    -959.838E-03    -947.089E-03         3.25613    -959.838E-03    -9.63760E-03     119.515E-03    -59.4802E-03    -60.0660E-03    -59.3916E-03     119.427E-03    -60.0660E-03     7.72946E-03    -18.9665E+06    -44.6022E+06    -123.040E+06    -44.6332E+06    -123.009E+06    -18.9665E+06    -177.953E+03         32.9526
             589     7.53544E-03     40.5091E-03         3.27118    -951.839E-03    -967.524E-03    -958.173E-03         3.27076    -960.770E-03    -54.2326E-03     119.697E-03    -59.5762E-03    -60.1407E-03    -59.5407E-03     119.661E-03    -60.1407E-03     4.95831E-03    -21.3867E+06    -48.5832E+06    -159.091E+06    -48.5880E+06    -159.086E+06    -21.3867E+06    -719.066E+03         31.7070
             590     6.59319E-03     40.5054E-03         3.27507    -951.289E-03    -974.069E-03    -963.568E-03         3.27404    -960.765E-03     17.2001E-03     119.870E-03    -59.6736E-03    -60.2196E-03    -59.6602E-03     119.857E-03    -60.2196E-03     2.84965E-03    -23.4858E+06    -52.3495E+06    -196.816E+06    -52.3543E+06    -196.811E+06    -23.4858E+06    -764.565E+03         30.9120
             591     5.65116E-03     40.5042E-03         3.27330    -949.512E-03    -977.705E-03    -965.097E-03         3.27134    -960.165E-03    -35.2335E-03     120.035E-03    -59.7934E-03    -60.2788E-03    -59.7912E-03     120.033E-03    -60.2788E-03     1.12851E-03    -27.8187E+06    -56.5276E+06    -223.919E+06    -56.5309E+06    -223.916E+06    -27.8187E+06    -566.546E+03         30.3846
             592     4.70917E-03     40.5048E-03         3.27292    -950.718E-03    -979.836E-03    -966.127E-03         3.26754    -959.041E-03     73.8396E-03     120.203E-03    -59.9389E-03    -60.2987E-03    -59.9385E-03     120.202E-03    -60.2987E-03     158.691E-06    -36.4842E+06    -61.5159E+06    -240.898E+06    -61.5197E+06    -240.895E+06    -36.4842E+06    -124.894E+03         30.0079
             593     3.76729E-03     40.5061E-03         3.25493    -943.047E-03    -970.445E-03    -942.053E-03         3.24413    -960.639E-03    -55.6406E-03     120.345E-03    -60.0663E-03    -60.2979E-03    -60.0659E-03     120.344E-03    -60.2979E-03    -511.779E-06    -46.5761E+06    -66.5880E+06    -256.118E+06    -66.5919E+06    -256.115E+06    -46.5761E+06     591.554E+03         29.7211
             594     2.82498E-03     40.5075E-03         3.28094    -951.885E-03    -981.938E-03    -938.517E-03         3.25346    -967.833E-03     181.638E-03     120.437E-03    -60.1031E-03    -60.3444E-03    -60.1815E-03     120.435E-03    -60.2648E-03    -896.879E-06    -58.1678E+06    -70.9596E+06    -264.464E+06    -70.9624E+06    -264.461E+06    -58.1678E+06     663.476E+03         29.5133
             595     1.88418E-03     40.5092E-03         3.37426    -977.378E-03        -1.04762    -958.662E-03         3.28530    -977.378E-03    -352.740E-03     120.400E-03    -60.1013E-03    -60.3051E-03    -60.1999E-03     120.399E-03    -60.2051E-03    -968.992E-06    -68.8785E+06    -74.9457E+06    -271.394E+06    -74.9473E+06    -271.392E+06    -68.8785E+06     388.946E+03         29.3712
             596     941.514E-06     40.5114E-03         3.81251    -549.902E-03        -1.90830    -111.845E-03         3.31831        -1.85216     947.328E-03     120.323E-03    -60.0812E-03    -60.2456E-03    -60.2116E-03     120.322E-03    -60.1144E-03    -666.495E-06    -74.3445E+06    -77.6047E+06    -274.525E+06    -76.7628E+06    -274.497E+06    -75.2148E+06    -1.41400E+06         29.2848
             597     16.0244E-03     40.0949E-03         3.24711    -935.352E-03    -955.987E-03    -935.168E-03         3.24693    -955.987E-03     21.3490E-03     185.046E-03    -60.1840E-03    -124.960E-03    -66.7198E-03     126.806E-03    -60.1840E-03     241.582E-03     140.350E+06     136.723E+06    -8.48468E+06    -8.47654E+06     140.342E+06     136.723E+06    -92.0404E+03         64.2250
             598     15.0795E-03     39.7830E-03         3.26115    -942.145E-03    -959.632E-03    -942.124E-03         3.26113    -959.632E-03     6.27271E-03     174.692E-03    -60.1014E-03    -114.695E-03    -64.5880E-03     124.586E-03    -60.1014E-03     216.727E-03     119.101E+06     111.147E+06    -16.8404E+06    -16.8195E+06     119.081E+06     111.147E+06    -18.0703E+03         59.9108
             599     14.1350E-03     39.6023E-03         3.26928    -945.088E-03    -962.551E-03    -945.058E-03         3.26925    -962.551E-03    -14.3465E-03     138.900E-03    -59.9768E-03    -78.9642E-03    -59.6691E-03     119.604E-03    -59.9768E-03     118.912E-03     104.567E+06     74.4305E+06    -25.3386E+06    -25.3233E+06     104.551E+06     74.4305E+06    -122.645E+03         54.5758
             600     13.1918E-03     39.5193E-03         3.28633    -958.389E-03    -964.712E-03    -958.771E-03         3.28630    -964.296E-03    -17.1473E-03     123.898E-03    -59.8603E-03    -64.1400E-03    -58.1869E-03     117.945E-03    -59.8603E-03     65.0859E-03     93.9103E+06     32.8071E+06    -31.5673E+06    -31.5493E+06     93.8923E+06     32.8071E+06    -588.301E+03         49.3689
             601     12.2490E-03     39.4594E-03         3.28688    -957.044E-03    -965.774E-03    -957.448E-03         3.28687    -965.358E-03    -11.6543E-03     120.441E-03    -59.4261E-03    -61.1117E-03    -58.2429E-03     117.882E-03    -59.7357E-03     40.5381E-03     85.8147E+06    -1.80182E+06    -34.0848E+06    -34.0608E+06     85.7907E+06    -1.80182E+06    -95.4620E+03         44.7721
             602     11.3050E-03     39.4316E-03         3.27936    -949.342E-03    -966.716E-03    -949.328E-03         3.27934    -966.716E-03     4.80254E-03     118.704E-03    -58.9698E-03    -59.7867E-03    -58.2903E-03     118.024E-03    -59.7867E-03     21.3031E-03     42.5131E+06    -11.5425E+06    -35.6249E+06    -35.5212E+06     42.4094E+06    -11.5425E+06     941.567E+03         40.8032
             603     10.3624E-03     39.4157E-03         3.28344    -955.883E-03    -968.199E-03    -955.831E-03         3.28339    -968.199E-03     26.5333E-03     119.053E-03    -59.1691E-03    -59.9542E-03    -58.7845E-03     118.668E-03    -59.9542E-03     16.5300E-03    -5.40710E+06    -22.4821E+06    -47.5829E+06    -38.2863E+06    -27.6194E+06    -9.56638E+06     1.61743E+06         37.4869
             604     9.41951E-03     39.3981E-03         3.28604    -959.780E-03    -969.404E-03    -959.684E-03         3.28594    -969.404E-03    -3.03095E-03     119.363E-03    -59.4044E-03    -60.0244E-03    -59.1359E-03     119.094E-03    -60.0244E-03     13.3717E-03    -16.2950E+06    -42.0749E+06    -80.0806E+06    -42.6901E+06    -79.4653E+06    -16.2950E+06     1.33815E+06         34.8553
             605     8.47700E-03     39.3875E-03         3.28946    -960.941E-03    -970.538E-03    -960.766E-03         3.28928    -970.538E-03     287.610E-06     119.579E-03    -59.5091E-03    -60.0995E-03    -59.4189E-03     119.488E-03    -60.0995E-03     7.75630E-03    -18.6461E+06    -46.4248E+06    -122.148E+06    -46.4496E+06    -122.123E+06    -18.6461E+06    -87.6660E+03         32.9504
             606     7.53546E-03     39.3830E-03         3.30482    -967.774E-03    -979.005E-03    -975.273E-03         3.30417    -970.860E-03    -44.1835E-03     119.799E-03    -59.6426E-03    -60.1750E-03    -59.6071E-03     119.764E-03    -60.1750E-03     4.99700E-03    -20.2848E+06    -48.8438E+06    -158.843E+06    -48.8528E+06    -158.834E+06    -20.2848E+06    -933.842E+03         31.7066
             607     6.59323E-03     39.3785E-03         3.29825    -963.294E-03    -978.789E-03    -970.246E-03         3.29706    -970.644E-03     9.67789E-03     119.884E-03    -59.6625E-03    -60.2456E-03    -59.6479E-03     119.870E-03    -60.2456E-03     2.92955E-03    -23.5803E+06    -52.3567E+06    -196.981E+06    -52.3634E+06    -196.974E+06    -23.5803E+06    -957.535E+03         30.9134
             608     5.65085E-03     39.3782E-03         3.28229    -953.290E-03    -972.490E-03    -950.854E-03         3.27985    -972.490E-03    -44.9183E-03     120.006E-03    -59.7213E-03    -60.3191E-03    -59.7194E-03     120.004E-03    -60.3191E-03     981.926E-06    -27.9983E+06    -56.5155E+06    -224.617E+06    -56.5192E+06    -224.613E+06    -27.9983E+06    -648.145E+03         30.3877
             609     4.70853E-03     39.3777E-03         3.30798    -962.635E-03    -990.403E-03    -972.568E-03         3.30200    -974.484E-03     67.2564E-03     120.219E-03    -59.8971E-03    -60.3552E-03    -59.8968E-03     120.219E-03    -60.3552E-03     59.9581E-06    -37.0434E+06    -61.0046E+06    -241.593E+06    -61.0058E+06    -241.591E+06    -37.0434E+06    -307.043E+03         30.0119
             610     3.76691E-03     39.3790E-03         3.33014    -970.025E-03        -1.00831    -989.811E-03         3.31411    -972.502E-03    -127.892E-03     120.451E-03    -60.1065E-03    -60.3646E-03    -60.1059E-03     120.451E-03    -60.3646E-03    -591.693E-06    -47.4849E+06    -65.4373E+06    -256.577E+06    -65.4392E+06    -256.575E+06    -47.4849E+06     67.7471E+03         29.7255
             611     2.82554E-03     39.3804E-03         3.34150    -966.665E-03        -1.02086    -976.311E-03         3.29943    -969.142E-03     195.373E-03     120.480E-03    -60.1228E-03    -60.3695E-03    -60.1214E-03     120.479E-03    -60.3695E-03    -1.00098E-03    -57.5590E+06    -69.3643E+06    -264.368E+06    -69.3673E+06    -264.365E+06    -57.5590E+06     562.154E+03         29.5196
             612     1.88252E-03     39.3825E-03         3.40362    -981.886E-03        -1.06777    -926.165E-03         3.26202    -981.886E-03    -460.839E-03     120.616E-03    -60.2239E-03    -60.3990E-03    -60.2492E-03     120.614E-03    -60.3717E-03    -1.15838E-03    -67.2771E+06    -72.8135E+06    -270.631E+06    -72.8149E+06    -270.629E+06    -67.2771E+06     378.453E+03         29.3826
             613     941.976E-06     39.3842E-03         4.04834    -931.392E-03        -1.76338    -281.912E-03         3.34480        -1.70933         1.29212     120.718E-03    -60.1998E-03    -60.5220E-03    -60.5205E-03     120.717E-03    -60.1998E-03    -952.501E-06    -73.5304E+06    -75.6486E+06    -273.422E+06    -74.6605E+06    -273.399E+06    -74.5410E+06    -729.855E+03         29.3017
             614     16.0198E-03     38.9634E-03         3.28361    -945.101E-03    -966.729E-03    -944.930E-03         3.28344    -966.729E-03     23.1546E-03     184.779E-03    -60.2065E-03    -124.508E-03    -66.0545E-03     126.325E-03    -60.2065E-03     241.627E-03     140.257E+06     135.969E+06    -8.61058E+06    -8.60164E+06     140.248E+06     135.969E+06    -266.471E+03         64.2111
             615     15.0782E-03     38.6581E-03         3.28864    -949.063E-03    -970.585E-03    -949.023E-03         3.28860    -970.585E-03     19.9252E-03     174.977E-03    -60.1730E-03    -114.782E-03    -64.4925E-03     124.687E-03    -60.1730E-03     217.254E-03     118.959E+06     111.712E+06    -16.2535E+06    -16.2367E+06     118.942E+06     111.712E+06     580.878E+03         59.8969
             616     14.1341E-03     38.4753E-03         3.30574    -959.804E-03    -973.654E-03    -959.770E-03         3.30570    -973.654E-03     16.0901E-03     139.713E-03    -60.0342E-03    -79.7048E-03    -60.2328E-03     120.241E-03    -60.0342E-03     119.586E-03     105.264E+06     76.7475E+06    -23.5060E+06    -23.4917E+06     105.250E+06     76.7475E+06     1.17926E+06         54.5641
             617     13.1912E-03     38.3925E-03         3.31477    -964.489E-03    -975.586E-03    -964.478E-03         3.31476    -975.586E-03     2.72189E-03     123.879E-03    -59.8786E-03    -64.0822E-03    -58.2201E-03     118.017E-03    -59.8786E-03     64.6737E-03     94.8277E+06     33.6383E+06    -30.5603E+06    -30.5307E+06     94.7981E+06     33.6383E+06     427.140E+03         49.3598
             618     12.2476E-03     38.3332E-03         3.32083    -968.756E-03    -976.903E-03    -968.753E-03         3.32083    -976.903E-03    -5.86302E-03     120.234E-03    -59.4591E-03    -60.8864E-03    -58.0020E-03     117.659E-03    -59.7683E-03     40.6448E-03     85.4323E+06    -2.29106E+06    -35.0999E+06    -35.0268E+06     85.3592E+06    -2.29106E+06    -715.755E+03         44.7637
             619     11.3047E-03     38.3057E-03         3.32075    -968.525E-03    -977.964E-03    -968.513E-03         3.32074    -977.964E-03     885.835E-06     118.895E-03    -59.1337E-03    -59.8299E-03    -58.4399E-03     118.201E-03    -59.8299E-03     21.5456E-03     40.8012E+06    -11.6515E+06    -37.2088E+06    -37.1053E+06     40.6976E+06    -11.6515E+06    -280.574E+03         40.7956
             620     10.3616E-03     38.2884E-03         3.31705    -967.912E-03    -979.063E-03    -967.845E-03         3.31698    -979.063E-03     23.7345E-03     119.324E-03    -59.4011E-03    -59.9883E-03    -59.0311E-03     118.954E-03    -59.9883E-03     16.2424E-03    -4.79737E+06    -22.8880E+06    -48.8186E+06    -39.1795E+06    -29.5054E+06    -7.81905E+06     2.28874E+06         37.4813
             621     9.42001E-03     38.2711E-03         3.32283    -973.116E-03    -980.071E-03    -972.951E-03         3.32266    -980.071E-03    -8.55084E-03     119.458E-03    -59.4695E-03    -60.0496E-03    -59.2214E-03     119.210E-03    -60.0496E-03     12.9204E-03    -12.2132E+06    -40.7449E+06    -77.3664E+06    -41.3329E+06    -76.7783E+06    -12.2132E+06     2.41155E+06         34.8514
             622     8.47750E-03     38.2612E-03         3.32479    -974.214E-03    -980.915E-03    -973.926E-03         3.32451    -980.915E-03     8.30446E-03     119.464E-03    -59.3702E-03    -60.1281E-03    -59.2820E-03     119.376E-03    -60.1281E-03     7.67475E-03    -15.4358E+06    -44.1017E+06    -119.725E+06    -44.1601E+06    -119.666E+06    -15.4358E+06    -566.635E+03         32.9482
             623     7.53479E-03     38.2557E-03         3.31770    -967.134E-03    -983.651E-03    -967.970E-03         3.31714    -982.260E-03    -18.0755E-03     119.770E-03    -59.5824E-03    -60.2151E-03    -59.5481E-03     119.736E-03    -60.2151E-03     4.88842E-03    -18.3032E+06    -47.2788E+06    -159.324E+06    -47.3126E+06    -159.290E+06    -18.3032E+06    -1.77851E+06         31.7066
             624     6.59279E-03     38.2524E-03         3.33069    -970.502E-03    -993.277E-03    -978.950E-03         3.32938    -983.522E-03     32.3267E-03     120.030E-03    -59.7787E-03    -60.2801E-03    -59.7650E-03     120.017E-03    -60.2801E-03     2.85418E-03    -22.3262E+06    -50.4258E+06    -197.335E+06    -50.4393E+06    -197.321E+06    -22.3262E+06    -1.34802E+06         30.9156
             625     5.65090E-03     38.2508E-03         3.34326    -974.964E-03    -999.671E-03    -987.787E-03         3.33993    -983.511E-03    -55.3398E-03     120.159E-03    -59.8620E-03    -60.3322E-03    -59.8601E-03     120.157E-03    -60.3322E-03     908.743E-06    -28.1512E+06    -54.7259E+06    -225.620E+06    -54.7316E+06    -225.614E+06    -28.1512E+06    -765.062E+03         30.3917
             626     4.70903E-03     38.2516E-03         3.34367    -977.862E-03    -997.917E-03    -984.272E-03         3.33520    -983.033E-03     74.4758E-03     120.236E-03    -59.9039E-03    -60.3667E-03    -59.9037E-03     120.236E-03    -60.3667E-03    -68.3056E-06    -36.4342E+06    -59.4682E+06    -241.929E+06    -59.4702E+06    -241.927E+06    -36.4342E+06     49.5615E+03         30.0172
             627     3.76666E-03     38.2517E-03         3.35509    -978.134E-03        -1.00966    -984.453E-03         3.33443    -982.680E-03    -137.306E-03     120.391E-03    -60.0211E-03    -60.3931E-03    -60.0198E-03     120.389E-03    -60.3931E-03    -822.131E-06    -46.5697E+06    -64.6072E+06    -256.882E+06    -64.6084E+06    -256.881E+06    -46.5697E+06     200.829E+03         29.7309
             628     2.82454E-03     38.2542E-03         3.40727    -974.783E-03        -1.06399    -997.971E-03         3.34580    -979.328E-03     286.130E-03     120.569E-03    -60.1840E-03    -60.4010E-03    -60.1815E-03     120.566E-03    -60.4010E-03    -1.29361E-03    -57.4766E+06    -68.9010E+06    -264.593E+06    -68.9069E+06    -264.587E+06    -57.4766E+06    -313.572E+03         29.5249
             629     1.88381E-03     38.2552E-03         3.52218    -974.718E-03        -1.18291    -980.632E-03         3.31991    -974.718E-03    -545.803E-03     120.649E-03    -60.2255E-03    -60.4359E-03    -60.2302E-03     120.647E-03    -60.4289E-03    -1.18175E-03    -64.9850E+06    -71.4542E+06    -270.142E+06    -71.4607E+06    -270.136E+06    -64.9850E+06    -84.3359E+03         29.3893
             630     941.251E-06     38.2566E-03         4.25349        -1.20894        -1.68430    -484.219E-03         3.30644        -1.46196         1.60305     120.849E-03    -60.1716E-03    -60.6832E-03    -60.5627E-03     120.848E-03    -60.2907E-03    -859.025E-06    -72.1702E+06    -74.6380E+06    -273.428E+06    -74.4889E+06    -273.406E+06    -72.3420E+06     1.51036E+06         29.3100
             631     16.0240E-03     37.8394E-03         3.30420    -943.261E-03    -976.978E-03    -943.089E-03         3.30403    -976.978E-03    -11.7488E-03     184.547E-03    -60.2444E-03    -124.269E-03    -65.4464E-03     125.725E-03    -60.2444E-03     241.970E-03     140.229E+06     137.415E+06    -8.20208E+06    -8.18016E+06     140.207E+06     137.415E+06     418.145E+03         64.1968
             632     15.0758E-03     37.5324E-03         3.30981    -947.145E-03    -981.382E-03    -947.073E-03         3.30974    -981.382E-03     30.0742E-03     175.319E-03    -60.2287E-03    -115.151E-03    -64.7474E-03     124.915E-03    -60.2287E-03     217.536E-03     119.055E+06     112.223E+06    -17.3240E+06    -17.3017E+06     119.033E+06     112.223E+06     182.581E+03         59.8828
             633     14.1341E-03     37.3459E-03         3.33105    -965.468E-03    -984.859E-03    -965.435E-03         3.33102    -984.859E-03     15.2398E-03     139.835E-03    -60.0768E-03    -79.8068E-03    -60.5992E-03     120.627E-03    -60.0768E-03     118.969E-03     104.527E+06     77.9529E+06    -25.0989E+06    -25.0895E+06     104.518E+06     77.9529E+06     441.141E+03         54.5527
             634     13.1919E-03     37.2668E-03         3.34042    -972.244E-03    -987.007E-03    -972.230E-03         3.34041    -987.007E-03    -1.26995E-03     123.686E-03    -59.9100E-03    -63.8777E-03    -58.1564E-03     117.965E-03    -59.9100E-03     63.8075E-03     95.8472E+06     37.3500E+06    -29.8947E+06    -29.8786E+06     95.8311E+06     37.3500E+06     1.08077E+06         49.3509
             635     12.2475E-03     37.2075E-03         3.35045    -979.805E-03    -988.430E-03    -979.798E-03         3.35044    -988.430E-03    -4.47065E-03     120.350E-03    -59.5463E-03    -60.8888E-03    -58.1312E-03     117.841E-03    -59.7945E-03     40.2558E-03     86.9420E+06     440.573E+03    -34.0182E+06    -33.9508E+06     86.8747E+06     440.573E+03     120.469E+03         44.7559
             636     11.3043E-03     37.1784E-03         3.35982    -988.227E-03    -989.132E-03    -988.216E-03         3.35981    -989.132E-03    -7.20125E-03     119.102E-03    -59.3034E-03    -59.8397E-03    -58.6180E-03     118.416E-03    -59.8397E-03     21.3504E-03     38.9163E+06    -11.2989E+06    -38.0739E+06    -37.9563E+06     38.7987E+06    -11.2989E+06    -133.055E+03         40.7892
             637     10.3625E-03     37.1616E-03         3.35446    -981.241E-03    -989.759E-03    -981.126E-03         3.35435    -989.759E-03     20.1849E-03     119.310E-03    -59.4066E-03    -59.9718E-03    -59.0509E-03     118.955E-03    -59.9718E-03     15.9295E-03    -8.72311E+06    -23.2434E+06    -48.5564E+06    -39.2901E+06    -31.0413E+06    -10.1915E+06     312.298E+03         37.4760
             638     9.41951E-03     37.1444E-03         3.34922    -975.404E-03    -991.099E-03    -975.222E-03         3.34904    -991.099E-03     13.9477E-03     119.343E-03    -59.3659E-03    -60.0376E-03    -59.1198E-03     119.097E-03    -60.0376E-03     12.8654E-03    -13.2272E+06    -38.9311E+06    -75.1418E+06    -39.0280E+06    -75.0449E+06    -13.2272E+06     414.028E+03         34.8473
             639     8.47719E-03     37.1347E-03         3.35317    -978.518E-03    -992.817E-03    -978.277E-03         3.35293    -992.817E-03     22.4792E-03     119.493E-03    -59.3925E-03    -60.1362E-03    -59.3031E-03     119.403E-03    -60.1362E-03     7.74894E-03    -13.5214E+06    -40.8500E+06    -117.239E+06    -40.9168E+06    -117.172E+06    -13.5214E+06     183.898E+03         32.9456
             640     7.53492E-03     37.1293E-03         3.35085    -977.812E-03    -994.803E-03    -977.091E-03         3.35013    -994.803E-03    -31.7077E-03     119.784E-03    -59.5884E-03    -60.2259E-03    -59.5557E-03     119.752E-03    -60.2259E-03     4.71133E-03    -17.0867E+06    -45.5159E+06    -159.155E+06    -45.5625E+06    -159.108E+06    -17.0867E+06    -1.20567E+06         31.7064
             641     6.59284E-03     37.1250E-03         3.37041    -986.102E-03        -1.00723    -995.026E-03         3.36812    -996.020E-03     53.0380E-03     119.994E-03    -59.7300E-03    -60.2914E-03    -59.7193E-03     119.983E-03    -60.2914E-03     2.55443E-03    -22.8960E+06    -50.6825E+06    -198.974E+06    -50.7038E+06    -198.953E+06    -22.8960E+06    -997.267E+03         30.9175
             642     5.65072E-03     37.1246E-03         3.39229    -994.830E-03        -1.01611        -1.01012         3.38630    -994.830E-03    -66.5209E-03     120.207E-03    -59.9056E-03    -60.3370E-03    -59.9039E-03     120.205E-03    -60.3370E-03     1.00329E-03    -29.6215E+06    -55.8867E+06    -226.196E+06    -55.8927E+06    -226.189E+06    -29.6215E+06     23.1823E+03         30.3948
             643     4.70881E-03     37.1243E-03         3.38004    -993.775E-03        -1.00547    -991.560E-03         3.36613    -993.775E-03     101.054E-03     120.391E-03    -60.0704E-03    -60.3595E-03    -60.0773E-03     120.391E-03    -60.3523E-03    -20.5115E-06    -37.2322E+06    -60.9064E+06    -242.197E+06    -60.9074E+06    -242.196E+06    -37.2322E+06     198.321E+03         30.0212
             644     3.76713E-03     37.1258E-03         3.38023    -992.460E-03        -1.00750    -972.843E-03         3.35012    -997.006E-03    -127.132E-03     120.421E-03    -60.0835E-03    -60.3618E-03    -60.0891E-03     120.419E-03    -60.3546E-03    -972.839E-06    -45.3395E+06    -65.0884E+06    -256.310E+06    -65.0905E+06    -256.308E+06    -45.3395E+06     26.1236E+03         29.7337
             645     2.82544E-03     37.1261E-03         3.46599    -993.924E-03        -1.09268        -1.00771         3.38557    -998.469E-03     325.025E-03     120.431E-03    -60.0955E-03    -60.3521E-03    -60.0924E-03     120.428E-03    -60.3521E-03    -1.48386E-03    -57.1643E+06    -69.5695E+06    -264.648E+06    -69.5762E+06    -264.641E+06    -57.1643E+06    -484.050E+03         29.5251
             646     1.88289E-03     37.1286E-03         3.64985    -985.103E-03        -1.29405        -1.03231         3.38812    -985.103E-03    -641.502E-03     120.550E-03    -60.1454E-03    -60.4185E-03    -60.1880E-03     120.548E-03    -60.3736E-03    -1.20846E-03    -66.9753E+06    -73.9665E+06    -271.442E+06    -73.9733E+06    -271.435E+06    -66.9753E+06    -343.168E+03         29.3886
             647     941.516E-06     37.1292E-03         4.45648        -1.23506        -1.85536    -711.406E-03         3.31253        -1.23506         1.85297     120.740E-03    -60.2193E-03    -60.5247E-03    -60.4045E-03     120.739E-03    -60.3385E-03    -823.781E-06    -72.1422E+06    -75.4534E+06    -272.237E+06    -75.4534E+06    -272.205E+06    -72.1738E+06     315.117E+03         29.3090
             648     16.0180E-03     36.7173E-03         3.33302    -957.640E-03    -988.234E-03    -958.634E-03         3.33288    -987.098E-03     1.26787E-03     184.972E-03    -60.2780E-03    -124.660E-03    -65.8959E-03     126.207E-03    -60.2780E-03     242.348E-03     139.977E+06     138.145E+06    -8.42671E+06    -8.40796E+06     139.958E+06     138.145E+06     561.028E+03         64.1825
             649     15.0772E-03     36.4010E-03         3.34605    -965.342E-03    -992.144E-03    -966.437E-03         3.34601    -991.008E-03     12.5660E-03     175.508E-03    -60.2172E-03    -115.372E-03    -65.2260E-03     125.362E-03    -60.2172E-03     217.360E-03     119.514E+06     113.027E+06    -17.2025E+06    -17.1593E+06     119.471E+06     113.027E+06     1.14226E+06         59.8728
             650     14.1343E-03     36.2210E-03         3.34304    -963.121E-03    -994.330E-03    -963.117E-03         3.34304    -994.330E-03    -4.80336E-03     139.035E-03    -60.0777E-03    -79.0624E-03    -59.9949E-03     119.967E-03    -60.0777E-03     118.315E-03     104.504E+06     77.6645E+06    -24.8537E+06    -24.8070E+06     104.457E+06     77.6645E+06          724.75         54.5444
             651     13.1898E-03     36.1384E-03         3.35647    -973.130E-03    -996.982E-03    -973.114E-03         3.35645    -996.982E-03    -13.2594E-03     123.889E-03    -59.9479E-03    -64.0422E-03    -58.2794E-03     118.126E-03    -59.9479E-03     63.9769E-03     95.7902E+06     38.1334E+06    -30.5140E+06    -30.4955E+06     95.7717E+06     38.1334E+06    -646.217E+03         49.3421
             652     12.2482E-03     36.0822E-03         3.37502    -988.613E-03    -998.682E-03    -988.591E-03         3.37500    -998.682E-03    -3.69502E-03     120.921E-03    -59.6821E-03    -61.3053E-03    -58.6906E-03     118.430E-03    -59.8051E-03     40.3958E-03     87.7910E+06     2.35854E+06    -33.4194E+06    -33.4019E+06     87.7736E+06     2.35854E+06     921.804E+03         44.7486
             653     11.3052E-03     36.0509E-03         3.38337    -993.420E-03    -999.621E-03    -993.332E-03         3.38328    -999.621E-03    -15.6643E-03     119.147E-03    -59.2552E-03    -59.9395E-03    -58.6760E-03     118.446E-03    -59.8176E-03     21.5359E-03     39.2606E+06    -10.4685E+06    -35.2852E+06    -35.2503E+06     39.2256E+06    -10.4685E+06     685.812E+03         40.7833
             654     10.3621E-03     36.0348E-03         3.38216    -985.542E-03        -1.00077    -985.336E-03         3.38196        -1.00077     9.31812E-03     119.060E-03    -59.2016E-03    -59.9431E-03    -58.8502E-03     118.709E-03    -59.9431E-03     15.8102E-03    -10.9850E+06    -22.3443E+06    -45.6323E+06    -37.3065E+06    -29.8040E+06    -11.8510E+06    -1.63487E+06         37.4703
             655     9.41975E-03     36.0180E-03         3.38345    -983.365E-03        -1.00260    -983.128E-03         3.38321        -1.00260     13.4652E-03     119.322E-03    -59.3716E-03    -60.0176E-03    -59.1295E-03     119.080E-03    -60.0176E-03     12.7203E-03    -16.1605E+06    -38.5497E+06    -76.8546E+06    -38.8499E+06    -76.5543E+06    -16.1605E+06    -1.93395E+06         34.8422
             656     8.47706E-03     36.0079E-03         3.39084    -992.953E-03        -1.00492    -993.366E-03         3.39062        -1.00428     7.34073E-03     119.555E-03    -59.4719E-03    -60.1178E-03    -59.3875E-03     119.470E-03    -60.1178E-03     7.53471E-03    -14.3105E+06    -40.1822E+06    -117.442E+06    -40.2034E+06    -117.420E+06    -14.3105E+06    -152.721E+03         32.9421
             657     7.53527E-03     36.0021E-03         3.40013        -1.00210        -1.00940        -1.00563         3.39914        -1.00489    -60.8819E-03     119.781E-03    -59.5895E-03    -60.2170E-03    -59.5588E-03     119.750E-03    -60.2170E-03     4.56468E-03    -14.6642E+06    -43.7270E+06    -159.014E+06    -43.7916E+06    -158.950E+06    -14.6642E+06     1.08116E+06         31.7052
             658     6.59291E-03     35.9991E-03         3.39786    -996.218E-03        -1.01199    -999.630E-03         3.39455        -1.00528     58.6685E-03     119.963E-03    -59.6974E-03    -60.2912E-03    -59.6876E-03     119.953E-03    -60.2912E-03     2.44418E-03    -20.0552E+06    -50.3417E+06    -199.897E+06    -50.4065E+06    -199.832E+06    -20.0552E+06     1.63651E+06         30.9181
             659     5.65066E-03     35.9974E-03         3.39412    -991.845E-03        -1.01232    -989.169E-03         3.38632        -1.00720    -70.5785E-03     120.216E-03    -59.9261E-03    -60.3283E-03    -59.9246E-03     120.215E-03    -60.3283E-03     802.396E-06    -28.1302E+06    -57.0828E+06    -224.882E+06    -57.0949E+06    -224.870E+06    -28.1302E+06     755.060E+03         30.3948
             660     4.70885E-03     35.9977E-03         3.41970        -1.00281        -1.02609        -1.00261         3.40278        -1.00938     103.686E-03     120.385E-03    -60.0980E-03    -60.3287E-03    -60.1047E-03     120.385E-03    -60.3215E-03    -296.836E-06    -37.8589E+06    -61.9167E+06    -242.384E+06    -61.9195E+06    -242.382E+06    -37.8589E+06    -545.376E+03         30.0195
             661     3.76738E-03     35.9980E-03         3.45174        -1.00932        -1.05224        -1.01514         3.41463        -1.00932    -157.818E-03     120.364E-03    -60.0779E-03    -60.3082E-03    -60.0839E-03     120.363E-03    -60.3010E-03    -912.585E-06    -47.3896E+06    -65.8605E+06    -256.314E+06    -65.8643E+06    -256.311E+06    -47.3896E+06    -753.877E+03         29.7307
             662     2.82529E-03     36.0007E-03         3.51496        -1.00724        -1.11778        -1.01530         3.41248        -1.00724     356.910E-03     120.400E-03    -60.0539E-03    -60.3591E-03    -60.1216E-03     120.398E-03    -60.2895E-03    -1.15738E-03    -57.1721E+06    -69.8383E+06    -264.691E+06    -69.8405E+06    -264.689E+06    -57.1721E+06    -197.747E+03         29.5210
             663     1.88370E-03     36.0014E-03         3.72116        -1.01159        -1.32460    -988.744E-03         3.38531        -1.01159    -746.260E-03     120.527E-03    -60.1360E-03    -60.3999E-03    -60.2958E-03     120.525E-03    -60.2379E-03    -1.23316E-03    -67.0776E+06    -73.0551E+06    -271.137E+06    -73.0563E+06    -271.136E+06    -67.0776E+06    -30.6668E+03         29.3836
             664     942.088E-06     36.0024E-03         4.69444        -1.12601        -2.18921    -908.556E-03         3.41379        -1.12601         2.02697     120.364E-03    -60.0309E-03    -60.3352E-03    -60.3335E-03     120.362E-03    -60.0309E-03    -1.09942E-03    -73.6186E+06    -76.2219E+06    -273.565E+06     -75.494E+06    -273.555E+06    -74.3569E+06    -889.209E+03         29.3034
             665     16.0215E-03     35.5859E-03         3.37395    -982.030E-03    -998.332E-03    -983.101E-03         3.37389    -997.196E-03     20.0402E-03     185.399E-03    -60.2637E-03    -125.119E-03    -66.4780E-03     126.759E-03    -60.2637E-03     242.637E-03     139.889E+06     136.997E+06    -8.74470E+06    -8.72918E+06     139.641E+06     137.230E+06     480.965E+03         64.1702
             666     15.0783E-03     35.2766E-03         3.38426    -989.700E-03        -1.00126    -990.826E-03         3.38425        -1.00012    -7.50984E-03     174.808E-03    -60.1978E-03    -114.690E-03    -64.8691E-03     124.988E-03    -60.1978E-03     216.384E-03     118.547E+06     113.180E+06    -16.0897E+06    -16.0320E+06     118.256E+06     113.413E+06     507.845E+03         59.8653
             667     14.1332E-03     35.0935E-03         3.37786    -981.091E-03        -1.00268    -981.086E-03         3.37786        -1.00268    -5.23324E-03     138.734E-03    -60.0741E-03    -78.7989E-03    -59.6296E-03     119.565E-03    -60.0741E-03     118.257E-03     105.295E+06     79.6145E+06    -22.6896E+06    -22.5750E+06     105.181E+06     79.6145E+06     643.373E+03         54.5383
             668     13.1906E-03     35.0125E-03         3.38192    -979.376E-03        -1.00507    -979.348E-03         3.38189        -1.00507    -14.0997E-03     123.950E-03    -59.9471E-03    -64.1023E-03    -58.4035E-03     118.252E-03    -59.9471E-03     63.6156E-03     96.2061E+06     37.5948E+06    -30.1266E+06    -30.0548E+06     96.1344E+06     37.5948E+06     197.679E+03         49.3348
             669     12.2471E-03     34.9530E-03         3.39233    -985.011E-03        -1.00722    -984.978E-03         3.39229        -1.00722    -9.83802E-03     120.942E-03    -59.7280E-03    -61.2951E-03    -58.7830E-03     118.506E-03    -59.8042E-03     39.9428E-03     87.0483E+06     893.448E+03    -34.5089E+06    -34.5002E+06     87.0396E+06     893.448E+03    -381.793E+03         44.7407
             670     11.3054E-03     34.9252E-03         3.40009    -987.364E-03        -1.00922    -987.266E-03         3.39999        -1.00922    -21.1809E-03     119.189E-03    -59.3131E-03    -59.9324E-03    -58.7413E-03     118.496E-03    -59.8106E-03     21.4928E-03     40.8597E+06    -9.88181E+06    -35.1677E+06    -35.1208E+06     40.8128E+06    -9.88181E+06    -542.117E+03         40.7755
             671     10.3625E-03     34.9081E-03         3.41113    -993.859E-03        -1.01109    -993.653E-03         3.41092        -1.01109     4.72163E-03     119.110E-03    -59.2612E-03    -59.9284E-03    -58.9098E-03     118.759E-03    -59.9284E-03     15.8185E-03    -9.30542E+06    -21.8456E+06    -45.1941E+06    -36.8415E+06    -28.2415E+06    -11.2622E+06    -1.40414E+06         37.4631
             672     9.41970E-03     34.8911E-03         3.41990        -1.00315        -1.01249        -1.00289         3.41964        -1.01249    -3.72679E-03     119.397E-03    -59.4640E-03    -59.9961E-03    -59.2272E-03     119.160E-03    -59.9961E-03     12.6047E-03    -16.4009E+06    -39.6318E+06    -77.8716E+06    -39.9532E+06    -77.5502E+06    -16.4009E+06    -2.10102E+06         34.8360
             673     8.47793E-03     34.8812E-03         3.42193        -1.00595        -1.01410        -1.00618         3.42152        -1.01346     2.92145E-03     119.501E-03    -59.4513E-03    -60.0869E-03    -59.3681E-03     119.418E-03    -60.0869E-03     7.46472E-03    -15.6454E+06    -42.4142E+06    -119.678E+06    -42.4757E+06    -119.616E+06    -15.6454E+06    -1.43326E+06         32.9372
             674     7.53509E-03     34.8756E-03         3.42465        -1.00637        -1.01870        -1.00988         3.42366        -1.01419    -40.4776E-03     119.725E-03    -59.5536E-03    -60.1986E-03    -59.5251E-03     119.696E-03    -60.1986E-03     4.36400E-03    -13.2058E+06    -45.0363E+06    -162.005E+06    -45.0990E+06    -161.943E+06    -13.2058E+06     1.76358E+06         31.7019
             675     6.59307E-03     34.8720E-03         3.42003        -1.00267        -1.01966        -1.00409         3.41709        -1.01529     60.3174E-03     120.023E-03    -59.7799E-03    -60.2710E-03    -59.7714E-03     120.015E-03    -60.2710E-03     2.27512E-03    -15.0538E+06    -48.6630E+06    -198.498E+06    -48.7393E+06    -198.422E+06    -15.0538E+06     3.10443E+06         30.9157
             676     5.65134E-03     34.8709E-03         3.42171        -1.00226        -1.02271    -999.546E-03         3.41390        -1.01761    -83.3092E-03     120.150E-03    -59.9084E-03    -60.2833E-03    -59.9070E-03     120.149E-03    -60.2833E-03     807.211E-06    -24.7080E+06    -53.4129E+06    -222.187E+06    -53.4296E+06    -222.170E+06    -24.7080E+06     1.15707E+06         30.3905
             677     4.70956E-03     34.8699E-03         3.45273        -1.01229        -1.04494        -1.02155         3.43590        -1.01885     94.7847E-03     120.183E-03    -59.9370E-03    -60.2859E-03    -59.9364E-03     120.182E-03    -60.2859E-03    -227.410E-06    -35.9789E+06    -59.1154E+06    -242.106E+06    -59.1209E+06    -242.100E+06    -35.9789E+06     24.0810E+03         30.0127
             678     3.76705E-03     34.8720E-03         3.48114        -1.01739        -1.06708        -1.02689         3.44096        -1.01739    -191.509E-03     120.292E-03    -60.0310E-03    -60.2832E-03    -60.0399E-03     120.290E-03    -60.2726E-03    -1.04857E-03    -47.7406E+06    -64.9775E+06    -256.764E+06    -64.9819E+06    -256.760E+06    -47.7406E+06    -260.721E+03         29.7245
             679     2.82522E-03     34.8731E-03         3.54433        -1.01925        -1.11907        -1.00088         3.42614        -1.01925     396.226E-03     120.405E-03    -60.0897E-03    -60.3286E-03    -60.1680E-03     120.403E-03    -60.2483E-03    -1.16360E-03    -57.8823E+06    -69.3715E+06    -264.957E+06    -69.3722E+06    -264.957E+06    -57.8823E+06    -165.642E+03         29.5162
             680     1.88388E-03     34.8745E-03         3.80539        -1.03470        -1.35932    -985.050E-03         3.43112        -1.03470    -782.202E-03     120.385E-03    -60.0625E-03    -60.3304E-03    -60.1785E-03     120.384E-03    -60.2133E-03    -808.972E-06    -66.4869E+06    -72.8726E+06    -270.408E+06    -72.8737E+06    -270.407E+06    -66.4869E+06    -219.431E+03         29.3780
             681     942.007E-06     34.8761E-03         4.87897    -980.883E-03        -2.49636        -1.11346         3.49606    -980.883E-03         2.23160     120.346E-03    -59.8453E-03    -60.5033E-03    -60.4379E-03     120.345E-03    -59.9096E-03    -714.265E-06    -74.2020E+06    -77.1538E+06    -274.491E+06    -76.4437E+06    -274.462E+06    -74.9403E+06     905.933E+03         29.2962
             682     16.0213E-03     34.4586E-03         3.39868    -982.100E-03        -1.00574    -981.950E-03         3.39853        -1.00574    -10.2036E-03     185.576E-03    -60.2325E-03    -125.504E-03    -66.4836E-03     126.556E-03    -60.2325E-03     243.408E-03     140.055E+06     136.499E+06    -8.67245E+06    -8.64808E+06     139.798E+06     136.732E+06     278.406E+03         64.1577
             683     15.0772E-03     34.1495E-03         3.40643    -986.821E-03        -1.00895    -986.809E-03         3.40642        -1.00895    -13.3015E-03     174.539E-03    -60.1825E-03    -114.574E-03    -64.4877E-03     124.453E-03    -60.1825E-03     216.475E-03     118.128E+06     112.626E+06    -16.9811E+06    -16.9374E+06     117.851E+06     112.859E+06    -616.052E+03         59.8558
             684     14.1343E-03     33.9682E-03         3.42335        -1.00226        -1.01279        -1.00370         3.42334        -1.01133    -3.93026E-03     139.112E-03    -60.0448E-03    -79.1695E-03    -60.1260E-03     120.069E-03    -60.0448E-03     117.917E-03     104.061E+06     78.3678E+06    -24.6773E+06    -24.5951E+06     103.979E+06     78.3678E+06     148.488E+03         54.5321
             685     13.1906E-03     33.8846E-03         3.41988    -998.374E-03        -1.01430    -999.809E-03         3.41986        -1.01284    -7.28445E-03     123.654E-03    -59.9011E-03    -63.8468E-03    -58.2549E-03     118.062E-03    -59.9011E-03     63.0722E-03     96.8170E+06     37.6688E+06    -29.3931E+06    -29.3028E+06     96.7268E+06     37.6688E+06     1.29109E+06         49.3289
             686     12.2488E-03     33.8274E-03         3.40500    -982.429E-03        -1.01498    -982.410E-03         3.40498        -1.01498    -10.2850E-03     120.593E-03    -59.6942E-03    -61.0015E-03    -58.4875E-03     118.155E-03    -59.7704E-03     39.6932E-03     88.3719E+06     616.677E+03    -32.7694E+06    -32.7198E+06     88.3224E+06     616.677E+03    -409.816E+03         44.7323
             687     11.3045E-03     33.7976E-03         3.40955    -983.760E-03        -1.01790    -983.736E-03         3.40952        -1.01790    -12.4101E-03     119.132E-03    -59.3193E-03    -59.8671E-03    -58.7517E-03     118.483E-03    -59.7860E-03     20.7044E-03     41.1446E+06    -10.8697E+06    -36.0041E+06    -35.9421E+06     41.0827E+06    -10.8697E+06    -1.73864E+06         40.7662
             688     10.3627E-03     33.7817E-03         3.43355        -1.00641        -1.02009        -1.00628         3.43342        -1.02009     15.2306E-03     119.127E-03    -59.2874E-03    -59.9081E-03    -58.9443E-03     118.784E-03    -59.9081E-03     15.6022E-03    -8.81361E+06    -22.4469E+06    -46.1207E+06    -38.1406E+06    -28.0772E+06    -11.1634E+06    -1.20009E+06         37.4543
             689     9.42044E-03     33.7641E-03         3.44540        -1.01764        -1.02102        -1.01739         3.44515        -1.02102    -5.57363E-03     119.378E-03    -59.4688E-03    -59.9700E-03    -59.2246E-03     119.134E-03    -59.9700E-03     12.7369E-03    -16.4474E+06    -40.8909E+06    -77.3638E+06    -41.0418E+06    -77.2129E+06    -16.4474E+06    -968.079E+03         34.8281
             690     8.47761E-03     33.7549E-03         3.44295        -1.00986        -1.02198        -1.00946         3.44255        -1.02198     1.47881E-03     119.496E-03    -59.4763E-03    -60.0572E-03    -59.3958E-03     119.415E-03    -60.0572E-03     7.34118E-03    -16.7124E+06    -45.5214E+06    -121.503E+06    -45.5866E+06    -121.438E+06    -16.7124E+06    -473.975E+03         32.9303
             691     7.53590E-03     33.7487E-03         3.44464        -1.00858        -1.02373        -1.00749         3.44354        -1.02373    -46.6836E-03     119.699E-03    -59.5830E-03    -60.1444E-03    -59.5537E-03     119.669E-03    -60.1444E-03     4.46360E-03    -17.4839E+06    -49.4262E+06    -164.135E+06    -49.4672E+06    -164.094E+06    -17.4839E+06    -34.3145E+03         31.6958
             692     6.59373E-03     33.7453E-03         3.46263        -1.01928        -1.03032        -1.02203         3.46005        -1.02499     42.3436E-03     119.894E-03    -59.7192E-03    -60.2043E-03    -59.7089E-03     119.883E-03    -60.2043E-03     2.49937E-03    -19.0595E+06    -50.7652E+06    -198.255E+06    -50.8107E+06    -198.210E+06    -19.0595E+06     490.607E+03         30.9095
             693     5.65148E-03     33.7438E-03         3.47530        -1.02490        -1.03579        -1.02865         3.46815        -1.02490    -93.5041E-03     119.968E-03    -59.7706E-03    -60.2374E-03    -59.7689E-03     119.966E-03    -60.2374E-03     893.186E-06    -25.5115E+06    -53.6964E+06    -221.291E+06    -53.7239E+06    -221.264E+06    -25.5115E+06     1.72269E+06         30.3843
             694     4.70897E-03     33.7443E-03         3.47974        -1.02499        -1.04047        -1.02094         3.46021        -1.02499     131.893E-03     120.116E-03    -59.8991E-03    -60.2547E-03    -59.8986E-03     120.116E-03    -60.2547E-03    -190.740E-06    -35.2223E+06    -59.0290E+06    -240.972E+06    -59.0520E+06    -240.949E+06    -35.2223E+06     1.53701E+06         30.0070
             695     3.76756E-03     33.7447E-03         3.50503        -1.02684        -1.06164        -1.01526         3.45866        -1.02684    -189.728E-03     120.282E-03    -60.0499E-03    -60.2557E-03    -60.0588E-03     120.280E-03    -60.2450E-03    -1.03802E-03    -45.3794E+06    -64.4016E+06    -256.045E+06    -64.4065E+06    -256.040E+06    -45.3794E+06     716.112E+03         29.7198
             696     2.82595E-03     33.7467E-03         3.58833        -1.03013        -1.14029        -1.01899         3.46704        -1.03013     371.887E-03     120.226E-03    -60.0008E-03    -60.2384E-03    -60.0093E-03     120.224E-03    -60.2278E-03    -1.18609E-03    -57.6558E+06    -69.4270E+06    -264.809E+06    -69.4302E+06    -264.806E+06    -57.6558E+06     279.523E+03         29.5125
             697     1.88314E-03     33.7481E-03         3.86532        -1.03584        -1.41191        -1.02042         3.47384        -1.03584    -842.446E-03     120.261E-03    -59.9997E-03    -60.2668E-03    -59.9984E-03     120.260E-03    -60.2668E-03    -878.743E-06    -67.2096E+06    -73.6840E+06    -270.696E+06    -73.6858E+06    -270.694E+06    -67.2096E+06    -103.518E+03         29.3739
             698     941.213E-06     33.7489E-03         4.95873    -793.010E-03        -2.75044        -1.28663         3.49492    -793.010E-03         2.38971     120.571E-03    -60.0375E-03    -60.5362E-03    -60.4222E-03     120.570E-03    -60.1503E-03    -786.649E-06    -73.4199E+06    -77.2268E+06    -274.168E+06    -77.2558E+06    -274.139E+06    -73.4199E+06     1.06739E+06         29.2903
             699     16.0228E-03     33.3334E-03         3.40518    -973.299E-03        -1.01296    -973.165E-03         3.40504        -1.01296    -18.2875E-03     185.555E-03    -60.2145E-03    -125.515E-03    -66.6803E-03     126.720E-03    -60.2145E-03     243.206E-03     139.845E+06     136.917E+06    -8.97644E+06    -8.95618E+06     139.825E+06     136.917E+06     136.699E+03         64.1400
             700     15.0777E-03     33.0245E-03         3.41819    -979.727E-03        -1.01703    -979.695E-03         3.41816        -1.01703     3.77995E-03     174.463E-03    -60.1495E-03    -114.561E-03    -64.8746E-03     124.777E-03    -60.1495E-03     215.901E-03     117.530E+06     111.393E+06    -17.7979E+06    -17.7762E+06     117.508E+06     111.393E+06    -195.551E+03         59.8414
             701     14.1350E-03     32.8383E-03         3.43822    -996.874E-03        -1.02175    -998.276E-03         3.43817        -1.02030     11.3862E-03     139.105E-03    -60.0085E-03    -79.1520E-03    -60.0607E-03     120.013E-03    -60.0085E-03     117.882E-03     103.963E+06     78.1383E+06    -25.1506E+06    -25.1355E+06     103.948E+06     78.1383E+06    -402.428E+03         54.5217
             702     13.1927E-03     32.7606E-03         3.44420        -1.00567        -1.02388        -1.00707         3.44414        -1.02243     8.45522E-03     123.558E-03    -59.8654E-03    -63.7904E-03    -58.1840E-03     117.952E-03    -59.8654E-03     63.2668E-03     97.3200E+06     38.7508E+06    -29.5224E+06    -29.4308E+06     97.2284E+06     38.7508E+06    -747.312E+03         49.3190
             703     12.2474E-03     32.6990E-03         3.43833        -1.00264        -1.02437        -1.00257         3.43826        -1.02437     8.40995E-03     120.574E-03    -59.6072E-03    -61.0898E-03    -58.4668E-03     118.068E-03    -59.7244E-03     39.9933E-03     89.1359E+06     1.27278E+06    -31.9819E+06    -31.8579E+06      89.012E+06     1.27278E+06    -161.224E+03         44.7216
             704     11.3068E-03     32.6713E-03         3.44070        -1.00278        -1.02652        -1.00270         3.44062        -1.02652     17.3210E-03     118.862E-03    -59.1047E-03    -59.8254E-03    -58.5594E-03     118.235E-03    -59.7443E-03     20.3807E-03     41.6277E+06    -10.3275E+06    -35.2521E+06    -35.2040E+06     41.5797E+06    -10.3275E+06    -73.1685E+03         40.7551
             705     10.3630E-03     32.6553E-03         3.45336        -1.01500        -1.02828        -1.01483         3.45319        -1.02828     34.6969E-03     118.946E-03    -59.1324E-03    -59.8829E-03    -58.7802E-03     118.594E-03    -59.8829E-03     15.7880E-03    -8.81940E+06    -23.0377E+06    -46.1123E+06    -38.9311E+06    -27.9610E+06    -11.0773E+06    -1.24755E+06         37.4433
             706     9.42015E-03     32.6376E-03         3.46607        -1.02466        -1.02989        -1.02503         3.46576        -1.02921    -3.14812E-03     119.378E-03    -59.4956E-03    -59.9483E-03    -59.2453E-03     119.127E-03    -59.9483E-03     12.8419E-03    -16.5652E+06    -41.0282E+06    -78.6036E+06    -41.1712E+06    -78.4606E+06    -16.5652E+06    -806.914E+03         34.8180
             707     8.47853E-03     32.6277E-03         3.46920        -1.02306        -1.03087        -1.02384         3.46894        -1.02983    -14.1524E-03     119.477E-03    -59.4973E-03    -60.0202E-03    -59.4191E-03     119.399E-03    -60.0202E-03     7.23960E-03    -16.8984E+06    -42.9023E+06    -122.171E+06    -42.9154E+06    -122.158E+06    -16.8984E+06     391.095E+03         32.9216
             708     7.53577E-03     32.6224E-03         3.47026        -1.02049        -1.03124        -1.01994         3.46935        -1.03088    -58.2126E-03     119.607E-03    -59.5335E-03    -60.1037E-03    -59.5023E-03     119.575E-03    -60.1037E-03     4.67338E-03    -17.8838E+06    -46.4310E+06    -163.136E+06    -46.4612E+06    -163.106E+06    -17.8838E+06    -127.624E+03         31.6883
             709     6.59367E-03     32.6183E-03         3.48086        -1.01765        -1.03736        -1.01932         3.47770        -1.03253     61.8475E-03     119.815E-03    -59.6724E-03    -60.1717E-03    -59.6599E-03     119.802E-03    -60.1717E-03     2.68553E-03    -21.3345E+06    -52.4752E+06    -199.738E+06    -52.5045E+06    -199.709E+06    -21.3345E+06    -160.631E+03         30.9033
             710     5.65149E-03     32.6178E-03         3.49044        -1.02052        -1.04060        -1.01896         3.48308        -1.03480    -68.1886E-03     119.969E-03    -59.7998E-03    -60.2072E-03    -59.7983E-03     119.968E-03    -60.2072E-03     826.476E-06    -26.5154E+06    -57.4515E+06    -221.688E+06    -57.4744E+06    -221.665E+06    -26.5154E+06     818.381E+03         30.3800
             711     4.70983E-03     32.6170E-03         3.51094        -1.03297        -1.05108        -1.02555         3.48974        -1.03730     170.335E-03     120.032E-03    -59.8426E-03    -60.2222E-03    -59.8421E-03     120.031E-03    -60.2222E-03    -211.684E-06    -34.6380E+06    -60.8951E+06    -239.953E+06    -60.9196E+06    -239.928E+06    -34.6380E+06     1.03273E+06         30.0043
             712     3.76754E-03     32.6181E-03         3.54893        -1.03921        -1.08413        -1.03328         3.49808        -1.03921    -181.654E-03     120.107E-03    -59.8980E-03    -60.2285E-03    -59.8969E-03     120.106E-03    -60.2285E-03    -846.018E-06    -45.3128E+06    -64.7699E+06    -255.576E+06    -64.7754E+06    -255.570E+06    -45.3128E+06     680.999E+03         29.7180
             713     2.82512E-03     32.6200E-03         3.64318        -1.03813        -1.18424        -1.04892         3.50785        -1.03813     416.417E-03     120.296E-03    -60.0181E-03    -60.2912E-03    -60.0901E-03     120.294E-03    -60.2169E-03    -1.21652E-03    -56.3105E+06    -68.9143E+06    -263.715E+06    -68.9186E+06    -263.711E+06    -56.3105E+06     413.049E+03         29.5120
             714     1.88391E-03     32.6216E-03         3.91484        -1.03260        -1.46892        -1.04743         3.49335        -1.03260    -836.392E-03     120.320E-03    -60.0610E-03    -60.2667E-03    -60.1483E-03     120.318E-03    -60.1772E-03    -1.12084E-03    -66.4770E+06    -73.0149E+06    -270.746E+06    -73.0197E+06    -270.741E+06    -66.4770E+06     724.014E+03         29.3729
             715     942.107E-06     32.6216E-03         5.03983    -661.992E-03        -2.95016        -1.39586         3.48553    -661.992E-03         2.54930     120.267E-03    -60.0772E-03    -60.1931E-03    -60.1432E-03     120.265E-03    -60.1256E-03    -975.134E-06    -73.0143E+06    -76.3258E+06    -274.392E+06    -75.7014E+06    -274.385E+06    -73.6461E+06     113.442E+03         29.2859
             716     16.0196E-03     32.2012E-03         3.42220    -982.695E-03        -1.02064    -982.623E-03         3.42213        -1.02064     8.63604E-03     186.192E-03    -60.2184E-03    -125.942E-03    -66.7396E-03     126.990E-03    -60.2184E-03     244.414E-03     139.779E+06     137.118E+06    -7.20659E+06    -7.19206E+06     138.944E+06     137.937E+06     170.168E+03         64.1101
             717     15.0811E-03     31.8994E-03         3.43836    -986.760E-03        -1.02483    -986.705E-03         3.43831        -1.02483     17.9070E-03     175.073E-03    -60.1483E-03    -115.005E-03    -65.4241E-03     125.493E-03    -60.1483E-03     216.249E-03     118.859E+06     113.355E+06    -15.1542E+06    -15.1150E+06     118.000E+06     114.175E+06     756.103E+03         59.8143
             718     14.1353E-03     31.7127E-03         3.44410    -986.207E-03        -1.02877    -986.156E-03         3.44404        -1.02877     7.60451E-03     139.038E-03    -59.9896E-03    -79.0780E-03    -59.8977E-03     119.858E-03    -59.9896E-03     118.353E-03     106.149E+06     80.1619E+06    -23.0501E+06    -22.9962E+06     106.095E+06     80.1619E+06    -16.8183E+03         54.5019
             719     13.1908E-03     31.6331E-03         3.45574    -999.878E-03        -1.03207    -999.747E-03         3.45561        -1.03207    -12.3035E-03     123.654E-03    -59.8431E-03    -63.8871E-03    -58.1638E-03     117.931E-03    -59.8431E-03     63.8667E-03     96.9655E+06     37.2287E+06    -29.7096E+06    -29.6115E+06     96.8674E+06     37.2287E+06    -1.20684E+06         49.3024
             720     12.2508E-03     31.5728E-03         3.47764        -1.01848        -1.03428        -1.01833         3.47750        -1.03428    -4.50910E-03     120.600E-03    -59.4393E-03    -61.2703E-03    -58.4673E-03     118.055E-03    -59.6975E-03     40.4520E-03     87.1265E+06    -504.185E+03    -34.3161E+06    -34.2088E+06     87.0192E+06    -504.185E+03     -91.194E+03         44.7058
             721     11.3051E-03     31.5446E-03         3.48688        -1.02682        -1.03552        -1.02674         3.48680        -1.03552     18.1453E-03     118.722E-03    -59.0631E-03    -59.7266E-03    -58.4029E-03     118.062E-03    -59.7266E-03     20.9055E-03     42.8896E+06    -10.0276E+06    -36.1372E+06    -36.0988E+06     42.8511E+06    -10.0276E+06     425.264E+03         40.7399
             722     10.3631E-03     31.5290E-03         3.48321        -1.02764        -1.03645        -1.02740         3.48297        -1.03645     43.7818E-03     119.056E-03    -59.2587E-03    -59.8684E-03    -58.8972E-03     118.694E-03    -59.8684E-03     16.0271E-03    -5.98200E+06    -21.6272E+06    -46.0437E+06    -37.8932E+06    -26.1392E+06    -9.62043E+06    -1.09609E+06         37.4291
             723     9.42091E-03     31.5108E-03         3.48478        -1.02897        -1.03806        -1.02929         3.48442        -1.03738     9.48942E-03     119.274E-03    -59.4188E-03    -59.9261E-03    -59.1656E-03     119.021E-03    -59.9261E-03     12.9521E-03    -16.5909E+06    -39.5947E+06    -80.5733E+06    -39.7602E+06    -80.4078E+06    -16.5909E+06    -1.78692E+06         34.8054
             724     8.47818E-03     31.5012E-03         3.49293        -1.03405        -1.03909        -1.03478         3.49262        -1.03805     4.35225E-03     119.412E-03    -59.4562E-03    -59.9951E-03    -59.3743E-03     119.330E-03    -59.9951E-03     7.39050E-03    -17.7737E+06    -41.6408E+06    -123.397E+06    -41.6592E+06    -123.379E+06    -17.7737E+06    -464.476E+03         32.9108
             725     7.53613E-03     31.4959E-03         3.49266        -1.02989        -1.03923        -1.02948         3.49188        -1.03887    -32.3744E-03     119.662E-03    -59.5990E-03    -60.0946E-03    -59.5689E-03     119.632E-03    -60.0946E-03     4.55926E-03    -15.3561E+06    -45.2256E+06    -163.416E+06    -45.2637E+06    -163.378E+06    -15.3561E+06     1.72912E+06         31.6802
             726     6.59372E-03     31.4921E-03         3.48892        -1.02123        -1.04115        -1.01791         3.48560        -1.04115     84.2398E-03     119.810E-03    -59.6780E-03    -60.1629E-03    -59.6672E-03     119.799E-03    -60.1629E-03     2.50641E-03    -17.0979E+06    -50.4016E+06    -198.943E+06    -50.4389E+06    -198.906E+06    -17.0979E+06     1.66737E+06         30.8980
             727     5.65191E-03     31.4907E-03         3.51196        -1.02803        -1.05546        -1.03044         3.50287        -1.04395    -85.3900E-03     119.914E-03    -59.7666E-03    -60.1853E-03    -59.7652E-03     119.912E-03    -60.1853E-03     916.066E-06    -25.1718E+06    -55.8143E+06    -221.051E+06    -55.8172E+06    -221.048E+06    -25.1718E+06    -205.790E+03         30.3766
             728     4.70962E-03     31.4909E-03         3.54278        -1.03999        -1.07590        -1.05194         3.52314        -1.04432     107.935E-03     119.952E-03    -59.7811E-03    -60.2027E-03    -59.7804E-03     119.951E-03    -60.2027E-03    -138.216E-06    -34.9233E+06    -60.8994E+06    -240.651E+06    -60.9074E+06    -240.643E+06    -34.9233E+06    -474.350E+03         30.0024
             729     3.76731E-03     31.4923E-03         3.56373        -1.04366        -1.09649        -1.04290         3.51014        -1.04366    -259.879E-03     120.075E-03    -59.8837E-03    -60.2085E-03    -59.8827E-03     120.074E-03    -60.2085E-03    -821.775E-06    -46.1474E+06    -65.6469E+06    -255.330E+06    -65.6565E+06    -255.320E+06    -46.1474E+06     204.955E+03         29.7172
             730     2.82584E-03     31.4927E-03         3.65643        -1.04440        -1.18918        -1.04052         3.50778        -1.04440     409.234E-03     120.302E-03    -60.0641E-03    -60.2512E-03    -60.1361E-03     120.300E-03    -60.1769E-03    -1.18784E-03    -57.7102E+06    -70.2070E+06    -263.668E+06    -70.2120E+06    -263.663E+06    -57.7102E+06     536.740E+03         29.5114
             731     1.88398E-03     31.4948E-03         3.97326        -1.04232        -1.50781        -1.05326         3.51871        -1.04232    -889.861E-03     120.296E-03    -60.0649E-03    -60.2416E-03    -60.2233E-03     120.294E-03    -60.0812E-03    -1.04577E-03    -67.8052E+06    -73.6385E+06    -270.725E+06    -73.6432E+06    -270.720E+06    -67.8052E+06     793.736E+03         29.3718
             732     941.968E-06     31.4956E-03         5.11412    -543.767E-03        -3.14842        -1.53555         3.50124    -543.767E-03         2.60321     120.002E-03    -59.9144E-03    -60.0925E-03    -60.0913E-03     120.001E-03    -59.9144E-03    -842.673E-06    -73.1323E+06    -75.4474E+06    -273.449E+06    -74.3384E+06    -273.441E+06    -74.2492E+06     306.285E+03         29.2829
             733     16.0233E-03     31.0801E-03         3.44993    -993.555E-03        -1.02869    -993.489E-03         3.44986        -1.02869     17.9171E-03     186.064E-03    -60.1901E-03    -125.722E-03    -66.4209E-03     126.763E-03    -60.1901E-03     244.199E-03     139.211E+06     135.938E+06    -8.84108E+06    -8.83083E+06     138.381E+06     136.757E+06    -729.018E+03         64.0560
             734     15.0754E-03     30.7651E-03         3.46170    -997.754E-03        -1.03268    -997.690E-03         3.46164        -1.03268     23.1284E-03     174.647E-03    -60.1343E-03    -114.542E-03    -64.7868E-03     124.892E-03    -60.1343E-03     215.692E-03     117.549E+06     112.234E+06    -16.8206E+06    -16.7037E+06     116.612E+06     113.054E+06    -1.39870E+06         59.7661
             735     14.1364E-03     30.5900E-03         3.47137        -1.00133        -1.03623        -1.00132         3.47136        -1.03623     1.61576E-03     138.805E-03    -59.9899E-03    -78.8720E-03    -60.0254E-03     119.959E-03    -59.9899E-03     118.009E-03     106.341E+06     80.3562E+06    -22.1837E+06    -21.9671E+06     106.124E+06     80.3562E+06     102.076E+03         54.4695
             736     13.1927E-03     30.5046E-03         3.48192        -1.00568        -1.03922        -1.00559         3.48182        -1.03922    -24.0317E-03     123.933E-03    -59.8560E-03    -64.1608E-03    -58.1885E-03     117.961E-03    -59.8560E-03     65.0354E-03     97.4461E+06     37.8017E+06    -29.1723E+06    -29.0446E+06     97.3184E+06     37.8017E+06     1.31794E+06         49.2797
             737     12.2475E-03     30.4473E-03         3.49537        -1.01569        -1.04174        -1.01559         3.49527        -1.04174    -14.5194E-03     120.551E-03    -59.5528E-03    -61.0899E-03    -58.4462E-03     118.065E-03    -59.7097E-03     40.0772E-03     87.2223E+06    -124.084E+03     -34.433E+06    -34.4051E+06     87.1943E+06    -124.084E+03     12.1602E+03         44.6843
             738     11.3063E-03     30.4184E-03         3.50722        -1.02937        -1.04352        -1.02934         3.50719        -1.04352     74.9240E-06     118.912E-03    -59.2498E-03    -59.7135E-03    -58.5753E-03     118.237E-03    -59.7135E-03     21.1911E-03     44.1341E+06    -12.7161E+06    -35.5236E+06    -35.3461E+06     43.9566E+06    -12.7161E+06    -1.67810E+06         40.7201
             739     10.3634E-03     30.4014E-03         3.50578        -1.03437        -1.04472        -1.03414         3.50555        -1.04472     33.5076E-03     119.145E-03    -59.3646E-03    -59.8553E-03    -59.0011E-03     118.782E-03    -59.8553E-03     16.0755E-03    -2.78636E+06    -23.0591E+06    -46.9981E+06    -36.4718E+06    -26.4926E+06    -9.87912E+06    -1.04400E+06         37.4115
             740     9.42073E-03     30.3851E-03         3.50255        -1.03077        -1.04610        -1.03046         3.50225        -1.04610     21.7402E-03     119.242E-03    -59.3897E-03    -59.9193E-03    -59.1417E-03     118.994E-03    -59.9193E-03     12.8562E-03    -15.3236E+06    -40.6579E+06    -81.1139E+06    -40.9135E+06    -80.8583E+06    -15.3236E+06     227.780E+03         34.7901
             741     8.47822E-03     30.3747E-03         3.51162        -1.03662        -1.04760        -1.03630         3.51130        -1.04760     22.5714E-03     119.372E-03    -59.4226E-03    -59.9841E-03    -59.3392E-03     119.289E-03    -59.9841E-03     7.45865E-03    -19.2950E+06    -46.5910E+06    -125.036E+06    -46.6359E+06    -124.991E+06    -19.2950E+06     397.665E+03         32.8982
             742     7.53618E-03     30.3693E-03         3.52289        -1.04071        -1.05052        -1.04146         3.52186        -1.04873    -40.2906E-03     119.702E-03    -59.6639E-03    -60.0676E-03    -59.6341E-03     119.672E-03    -60.0676E-03     4.52197E-03    -18.3743E+06    -49.5619E+06    -164.070E+06    -49.6117E+06    -164.020E+06    -18.3743E+06     520.740E+03         31.6707
             743     6.59439E-03     30.3657E-03         3.53751        -1.04217        -1.06133        -1.05087         3.53396        -1.04909     73.2973E-03     119.766E-03    -59.6737E-03    -60.1242E-03    -59.6629E-03     119.755E-03    -60.1242E-03     2.59740E-03    -18.4975E+06    -50.7376E+06    -196.683E+06    -50.7882E+06    -196.633E+06    -18.4975E+06    -19.9887E+03         30.8912
             744     5.65170E-03     30.3643E-03         3.54553        -1.04476        -1.07015        -1.05767         3.53648        -1.04818    -81.5942E-03     119.805E-03    -59.6801E-03    -60.1650E-03    -59.6782E-03     119.803E-03    -60.1650E-03     854.731E-06    -24.0914E+06    -53.2943E+06    -221.315E+06    -53.2971E+06    -221.313E+06    -24.0914E+06    -200.663E+03         30.3718
             745     4.70962E-03     30.3646E-03         3.54403        -1.04397        -1.06890        -1.04255         3.52163        -1.04793     141.680E-03     120.002E-03    -59.8518E-03    -60.1849E-03    -59.8514E-03     120.001E-03    -60.1849E-03    -319.293E-06    -33.9059E+06    -58.6924E+06    -240.863E+06    -58.7045E+06    -240.851E+06    -33.9059E+06     276.239E+03         29.9992
             746     3.76795E-03     30.3652E-03         3.57248        -1.04709        -1.09817        -1.04283         3.51931        -1.04926    -203.939E-03     120.114E-03    -59.9650E-03    -60.1664E-03    -59.9638E-03     120.113E-03    -60.1664E-03    -892.880E-06     -45.532E+06    -65.6994E+06    -255.530E+06    -65.7147E+06    -255.514E+06     -45.532E+06     672.479E+03         29.7136
             747     2.82560E-03     30.3667E-03         3.66948        -1.05037        -1.19916        -1.04843         3.51875        -1.05037     456.134E-03     120.087E-03    -59.9650E-03    -60.1311E-03    -59.9632E-03     120.085E-03    -60.1311E-03    -1.11125E-03    -58.1538E+06    -70.3567E+06    -263.859E+06    -70.3609E+06    -263.854E+06    -58.1538E+06     348.330E+03         29.5052
             748     1.88363E-03     30.3680E-03         3.98623        -1.05252        -1.50518        -1.04514         3.52619        -1.05252    -869.917E-03     120.180E-03    -60.0163E-03    -60.1712E-03    -60.0857E-03     120.178E-03    -60.1003E-03    -1.04822E-03    -67.0931E+06    -72.9200E+06    -269.961E+06    -72.9238E+06    -269.958E+06    -67.0931E+06    -327.585E+03         29.3648
             749     942.263E-06     30.3696E-03         5.12145    -452.439E-03        -3.23804        -1.65690         3.54030    -452.439E-03         2.60782     120.123E-03    -59.7985E-03    -60.3295E-03    -60.3191E-03     120.122E-03    -59.8071E-03    -1.11102E-03    -72.6091E+06    -76.2707E+06    -273.461E+06    -75.7938E+06    -273.452E+06    -73.0942E+06     421.251E+03         29.2783
             750     16.0235E-03     29.9563E-03         3.47430    -994.858E-03        -1.03602    -994.826E-03         3.47426        -1.03602     11.6904E-03     186.043E-03    -60.1667E-03    -125.872E-03    -66.5706E-03     126.741E-03    -60.1667E-03     243.986E-03     140.786E+06     137.160E+06    -8.04006E+06    -8.02876E+06     140.775E+06     137.160E+06    -370.260E+03         63.9510
             751     15.0815E-03     29.6409E-03         3.48388        -1.00647        -1.03984        -1.00643         3.48383        -1.03984     7.07792E-03     175.140E-03    -60.1419E-03    -115.143E-03    -64.2695E-03     124.266E-03    -60.1419E-03     217.975E-03     117.015E+06     111.117E+06    -17.5547E+06    -17.4622E+06     116.922E+06     111.117E+06    -1.33087E+06         59.6866
             752     14.1334E-03     29.4619E-03         3.49391        -1.01333        -1.04298        -1.01330         3.49388        -1.04298     6.00051E-03     138.975E-03    -60.0369E-03    -79.0314E-03    -60.1584E-03     120.102E-03    -60.0369E-03     117.951E-03     102.626E+06     79.1735E+06    -26.0714E+06    -25.8506E+06     102.405E+06     79.1735E+06    -819.205E+03         54.4265
             753     13.1909E-03     29.3791E-03         3.50692        -1.01801        -1.04554        -1.01798         3.50688        -1.04554    -4.35816E-03     124.268E-03    -59.8852E-03    -64.4624E-03    -58.5946E-03     118.400E-03    -59.8852E-03     64.5432E-03     97.3226E+06     40.6509E+06    -30.0798E+06    -29.9423E+06     97.1851E+06     40.6509E+06     473.189E+03         49.2531
             754     12.2499E-03     29.3199E-03         3.51265        -1.02108        -1.04790        -1.02103         3.51260        -1.04790    -511.092E-06     120.458E-03    -59.5932E-03    -60.9441E-03    -58.4112E-03     118.048E-03    -59.7167E-03     39.4994E-03     90.2341E+06     2.80618E+06    -31.4044E+06    -31.3652E+06     90.1949E+06     2.80618E+06    -977.077E+03         44.6594
             755     11.3057E-03     29.2922E-03         3.51669        -1.02523        -1.05016        -1.02519         3.51665        -1.05016     415.816E-06     118.955E-03    -59.2987E-03    -59.7125E-03    -58.6208E-03     118.277E-03    -59.7125E-03     21.3226E-03     43.8299E+06    -12.6264E+06    -34.0674E+06    -33.8181E+06     43.5807E+06    -12.6264E+06    -1.70321E+06         40.6966
             756     10.3630E-03     29.2750E-03         3.52391        -1.03252        -1.05222        -1.03237         3.52375        -1.05222     17.8160E-03     119.180E-03    -59.4073E-03    -59.8601E-03    -59.0452E-03     118.818E-03    -59.8601E-03     16.0588E-03    -3.23901E+06    -25.6009E+06    -49.0830E+06    -38.1582E+06    -30.3002E+06    -9.46466E+06     917.344E+03         37.3901
             757     9.42102E-03     29.2582E-03         3.52834        -1.03702        -1.05408        -1.03678         3.52810        -1.05408     6.95552E-03     119.388E-03    -59.5269E-03    -59.9238E-03    -59.2918E-03     119.153E-03    -59.9238E-03     12.5245E-03    -12.0652E+06    -42.3066E+06    -80.1004E+06    -42.5839E+06    -79.8231E+06    -12.0652E+06     2.73156E+06         34.7718
             758     8.47869E-03     29.2483E-03         3.53512        -1.04572        -1.05557        -1.04545         3.53485        -1.05557     10.6130E-03     119.367E-03    -59.4343E-03    -59.9670E-03    -59.3543E-03     119.287E-03    -59.9670E-03     7.33387E-03    -17.1805E+06    -45.4003E+06    -123.850E+06    -45.4558E+06    -123.794E+06    -17.1805E+06     997.679E+03         32.8837
             759     7.53630E-03     29.2425E-03         3.55183        -1.05377        -1.06195        -1.05870         3.55080        -1.05599    -53.4944E-03     119.520E-03    -59.5195E-03    -60.0313E-03    -59.4898E-03     119.490E-03    -60.0313E-03     4.49149E-03    -19.8358E+06    -47.8452E+06    -162.804E+06    -47.8797E+06    -162.770E+06    -19.8358E+06    -1.57819E+06         31.6604
             760     6.59394E-03     29.2390E-03         3.55723        -1.05010        -1.07172        -1.06279         3.55351        -1.05531     73.4852E-03     119.751E-03    -59.6896E-03    -60.0944E-03    -59.6793E-03     119.741E-03    -60.0944E-03     2.53311E-03    -21.2546E+06    -51.4777E+06    -196.633E+06    -51.5176E+06    -196.593E+06    -21.2546E+06    -2.22241E+06         30.8846
             761     5.65226E-03     29.2380E-03         3.54123        -1.04022        -1.06638        -1.04219         3.53274        -1.05592    -64.1927E-03     119.878E-03    -59.7864E-03    -60.1334E-03    -59.7846E-03     119.876E-03    -60.1334E-03     827.111E-06    -25.6386E+06    -56.3354E+06    -223.610E+06    -56.3460E+06    -223.599E+06    -25.6386E+06    -451.894E+03         30.3665
             762     4.71003E-03     29.2379E-03         3.54539        -1.04756        -1.06386        -1.02871         3.52290        -1.06022     166.077E-03     119.956E-03    -59.8617E-03    -60.1313E-03    -59.8612E-03     119.956E-03    -60.1313E-03    -309.307E-06    -34.8649E+06    -60.6638E+06    -240.539E+06    -60.6736E+06    -240.530E+06    -34.8649E+06     1.01846E+06         29.9929
             763     3.76785E-03     29.2385E-03         3.59497        -1.06267        -1.10612        -1.05300         3.54402        -1.06484    -173.492E-03     119.996E-03    -59.9042E-03    -60.1106E-03    -59.9028E-03     119.994E-03    -60.1106E-03    -960.077E-06    -44.7902E+06    -64.6551E+06    -255.071E+06    -64.6632E+06    -255.063E+06    -44.7902E+06     652.389E+03         29.7057
             764     2.82613E-03     29.2407E-03         3.70593        -1.06458        -1.21630        -1.07492         3.56455        -1.06458     453.030E-03     119.992E-03    -59.9255E-03    -60.0786E-03    -59.9250E-03     119.990E-03    -60.0771E-03    -1.17546E-03    -56.7441E+06    -69.5163E+06    -263.138E+06    -69.5175E+06    -263.136E+06    -56.7441E+06     59.2481E+03         29.4957
             765     1.88390E-03     29.2415E-03         4.00242        -1.06063        -1.50884        -1.06947         3.56305        -1.06063    -854.418E-03     119.986E-03    -59.9198E-03    -60.0724E-03    -59.9192E-03     119.984E-03    -60.0709E-03    -1.21230E-03    -66.8698E+06    -73.6726E+06    -269.605E+06    -73.6767E+06    -269.601E+06    -66.8698E+06    -246.518E+03         29.3536
             766     941.521E-06     29.2428E-03         5.06741    -389.883E-03        -3.23626        -1.72735         3.55849    -389.883E-03         2.54722     120.126E-03    -59.8248E-03    -60.3049E-03    -60.1832E-03     120.125E-03    -59.9447E-03    -1.04120E-03    -73.3491E+06    -77.7035E+06    -274.093E+06    -76.9962E+06    -274.073E+06    -74.0758E+06    -615.478E+03         29.2682
             767     16.0225E-03     28.8299E-03         3.49420        -1.00637        -1.04191        -1.00636         3.49419        -1.04191    -5.39672E-03     185.667E-03    -60.2117E-03    -125.521E-03    -66.4611E-03     126.607E-03    -60.2117E-03     243.409E-03     142.465E+06     137.774E+06    -8.87260E+06    -8.86085E+06     142.453E+06     137.774E+06      353.85E+03         63.7549
             768     15.0743E-03     28.5144E-03         3.50109        -1.00998        -1.04512        -1.00992         3.50102        -1.04512    -23.1013E-03     175.554E-03    -60.1752E-03    -115.510E-03    -64.8679E-03     124.911E-03    -60.1752E-03     218.201E-03     119.845E+06     111.383E+06    -18.2110E+06    -18.1708E+06     119.805E+06     111.383E+06     5.07662E+03         59.5464
             769     14.1350E-03     28.3347E-03         3.50442        -1.00833        -1.04826        -1.00825         3.50434        -1.04826    -15.5023E-03     139.397E-03    -60.0390E-03    -79.4054E-03    -60.4064E-03     120.398E-03    -60.0390E-03     118.091E-03     101.204E+06     77.7762E+06    -27.3360E+06    -27.2379E+06     101.106E+06     77.7762E+06    -2.48804E+06         54.3633
             770     13.1931E-03     28.2507E-03         3.51601        -1.01710        -1.05119        -1.01706         3.51596        -1.05119    -9.90595E-03     124.144E-03    -59.8843E-03    -64.3157E-03    -58.6212E-03     118.449E-03    -59.8843E-03     63.7659E-03     95.8295E+06     40.5513E+06    -30.9356E+06    -30.7743E+06     95.6682E+06     40.5513E+06    -3.32625E+06         49.2233
             771     12.2483E-03     28.1944E-03         3.53291        -1.02840        -1.05362        -1.02836         3.53286        -1.05362    -8.26512E-03     120.475E-03    -59.6210E-03    -60.9322E-03    -58.3574E-03     118.007E-03    -59.7287E-03     40.0350E-03     90.3065E+06     4.50461E+06    -32.5424E+06    -32.3975E+06     90.1616E+06     4.50461E+06    -1.81642E+06         44.6295
             772     11.3060E-03     28.1650E-03         3.53819        -1.02998        -1.05583        -1.02994         3.53815        -1.05583    -6.89168E-03     119.113E-03    -59.4014E-03    -59.7727E-03    -58.7502E-03     118.418E-03    -59.7290E-03     21.5246E-03     41.1745E+06    -10.5773E+06    -36.2805E+06    -36.1145E+06     41.0085E+06    -10.5773E+06     1.03756E+06         40.6679
             773     10.3636E-03     28.1485E-03         3.54451        -1.03822        -1.05789        -1.03811         3.54440        -1.05789     9.27335E-03     119.268E-03    -59.5098E-03    -59.8506E-03    -59.1581E-03     118.916E-03    -59.8506E-03     15.8397E-03    -7.46514E+06    -24.4349E+06    -49.0437E+06    -39.5605E+06    -31.4549E+06    -9.92839E+06     2.20938E+06         37.3644
             774     9.42106E-03     28.1311E-03         3.55146        -1.04810        -1.05943        -1.04782         3.55118        -1.05943    -17.4310E-03     119.374E-03    -59.5397E-03    -59.8976E-03    -59.3081E-03     119.142E-03    -59.8976E-03     12.4520E-03    -12.7962E+06    -40.6730E+06    -78.7644E+06    -40.8150E+06    -78.6225E+06    -12.7962E+06     1.08831E+06         34.7498
             775     8.47906E-03     28.1219E-03         3.55451        -1.05190        -1.06056        -1.05138         3.55399        -1.06056     2.96028E-03     119.385E-03    -59.4708E-03    -59.9427E-03    -59.3900E-03     119.304E-03    -59.9427E-03     7.36759E-03    -15.4124E+06    -42.2355E+06    -121.714E+06    -42.2730E+06    -121.676E+06    -15.4124E+06     442.258E+03         32.8666
             776     7.53658E-03     28.1161E-03         3.56260        -1.05209        -1.06565        -1.05526         3.56160        -1.06148    -31.1301E-03     119.506E-03    -59.5391E-03    -59.9953E-03    -59.5099E-03     119.476E-03    -59.9953E-03     4.45316E-03    -19.4620E+06    -46.3066E+06    -160.828E+06    -46.3324E+06    -160.802E+06    -19.4620E+06    -807.069E+03         31.6494
             777     6.59438E-03     28.1125E-03         3.55893        -1.04830        -1.06701        -1.04956         3.55602        -1.06284     65.0458E-03     119.693E-03    -59.6693E-03    -60.0574E-03    -59.6604E-03     119.684E-03    -60.0574E-03     2.25882E-03    -22.0420E+06    -51.4912E+06    -198.158E+06    -51.5139E+06    -198.135E+06    -22.0420E+06    -1.30198E+06         30.8788
             778     5.65206E-03     28.1114E-03         3.56271        -1.04715        -1.07383        -1.04763         3.55463        -1.06527    -90.3270E-03     119.831E-03    -59.7840E-03    -60.0906E-03    -59.7830E-03     119.830E-03    -60.0906E-03     697.630E-06    -27.1538E+06    -57.0155E+06    -225.110E+06    -57.0286E+06    -225.097E+06    -27.1538E+06    -577.622E+03         30.3608
             779     4.71031E-03     28.1114E-03         3.59107        -1.05829        -1.09159        -1.06446         3.57264        -1.06699     109.022E-03     119.845E-03    -59.8072E-03    -60.0794E-03    -59.8067E-03     119.845E-03    -60.0794E-03    -232.155E-06    -36.7993E+06    -61.9604E+06    -240.921E+06    -61.9671E+06    -240.914E+06    -36.7993E+06    -351.823E+03         29.9842
             780     3.76823E-03     28.1127E-03         3.62261        -1.06698        -1.11890        -1.06916         3.57287        -1.06698    -249.349E-03     119.915E-03    -59.8831E-03    -60.0559E-03    -59.8822E-03     119.914E-03    -60.0556E-03    -889.613E-06    -46.4869E+06    -66.1255E+06    -254.815E+06    -66.1293E+06    -254.812E+06    -46.4869E+06     206.628E+03         29.6966
             781     2.82590E-03     28.1135E-03         3.70823        -1.06533        -1.20945        -1.07369         3.57247        -1.06533     387.834E-03     119.940E-03    -59.9412E-03    -60.0119E-03    -59.9407E-03     119.937E-03    -60.0102E-03    -1.23838E-03    -57.9150E+06    -70.6865E+06    -262.381E+06    -70.6906E+06    -262.376E+06    -57.9150E+06     652.545E+03         29.4879
             782     1.88423E-03     28.1153E-03         4.00657        -1.05880        -1.50642        -1.07939         3.57955        -1.05880    -888.666E-03     119.835E-03    -59.8597E-03    -59.9801E-03    -59.8587E-03     119.832E-03    -59.9786E-03    -1.23646E-03    -69.0780E+06    -74.7330E+06    -269.558E+06    -74.7343E+06    -269.557E+06    -69.0780E+06     460.933E+03         29.3451
             783     942.118E-06     28.1164E-03         5.03229    -326.218E-03        -3.26167        -1.78112         3.55173    -326.218E-03         2.50987     119.926E-03    -59.8826E-03    -60.0467E-03    -59.9270E-03     119.925E-03    -60.0004E-03    -946.153E-06    -75.7963E+06    -78.0407E+06    -274.004E+06    -77.3286E+06    -273.990E+06     -76.523E+06    -298.980E+03         29.2586
             784     16.0188E-03     27.6966E-03         3.51135        -1.01951        -1.04719        -1.01936         3.51121        -1.04719     7.75537E-03     185.627E-03    -60.2414E-03    -125.390E-03    -66.7293E-03     126.966E-03    -60.2414E-03     243.039E-03     141.393E+06     138.411E+06    -8.85725E+06    -8.84966E+06     141.386E+06     138.411E+06     888.925E+03         63.3990
             785     15.0818E-03     27.3924E-03         3.52272        -1.02178        -1.05027        -1.02161         3.52255        -1.05027     10.2897E-03     174.814E-03    -60.1491E-03    -114.742E-03    -65.3838E-03     125.455E-03    -60.1491E-03     215.778E-03     122.090E+06     112.912E+06    -17.1339E+06    -17.0699E+06     122.026E+06     112.912E+06     380.336E+03         59.3107
             786     14.1341E-03     27.2037E-03         3.53073        -1.02553        -1.05312        -1.02542         3.53063        -1.05312     3.49595E-03     139.342E-03    -59.9841E-03    -79.3414E-03    -60.0675E-03     120.068E-03    -59.9841E-03     118.497E-03     105.917E+06     77.5943E+06    -24.5162E+06    -24.3663E+06     105.767E+06     77.5943E+06    -2.18226E+06         54.2760
             787     13.1909E-03     27.1261E-03         3.53568        -1.02565        -1.05561        -1.02558         3.53561        -1.05561     1.77872E-03     123.678E-03    -59.8542E-03    -63.8775E-03    -58.3096E-03     118.110E-03    -59.8542E-03     62.9748E-03     94.8442E+06     35.4923E+06    -32.1407E+06    -31.9554E+06     94.6589E+06     35.4923E+06    -4.05238E+06         49.1877
             788     12.2487E-03     27.0670E-03         3.54494        -1.02777        -1.05806        -1.02774         3.54490        -1.05806    -9.09414E-03     120.646E-03    -59.7114E-03    -61.0292E-03    -58.5877E-03     118.205E-03    -59.7114E-03     39.6818E-03     85.4954E+06    -101.266E+03    -37.8892E+06    -37.7812E+06     85.3875E+06    -101.266E+03    -1.30336E+06         44.5930
             789     11.3058E-03     27.0389E-03         3.55501        -1.03396        -1.06044        -1.03391         3.55496        -1.06044    -13.5111E-03     119.112E-03    -59.4255E-03    -59.7578E-03    -58.8228E-03     118.452E-03    -59.7010E-03     21.0452E-03     39.4992E+06    -13.8767E+06    -39.9531E+06    -39.8557E+06     39.4018E+06    -13.8767E+06     972.350E+03         40.6336
             790     10.3635E-03     27.0207E-03         3.56400        -1.04511        -1.06242        -1.04487         3.56376        -1.06242     22.2138E-03     119.095E-03    -59.3750E-03    -59.8059E-03    -59.0216E-03     118.741E-03    -59.8059E-03     15.8646E-03    -9.43772E+06    -26.2966E+06    -49.0942E+06    -39.9105E+06    -30.1939E+06    -14.7241E+06     256.362E+03         37.3330
             791     9.42151E-03     27.0050E-03         3.57177        -1.05532        -1.06373        -1.05486         3.57131        -1.06373    -7.68109E-03     119.297E-03    -59.4948E-03    -59.8689E-03    -59.2590E-03     119.062E-03    -59.8689E-03     12.5508E-03    -16.4816E+06    -41.6267E+06    -78.7943E+06    -41.6658E+06    -78.7552E+06    -16.4816E+06     160.724E+03         34.7228
             792     8.47866E-03     26.9950E-03         3.56795        -1.05131        -1.06501        -1.05065         3.56730        -1.06501     8.03703E-03     119.444E-03    -59.5471E-03    -59.9289E-03    -59.4663E-03     119.363E-03    -59.9289E-03     7.35851E-03    -16.3932E+06    -44.9858E+06    -120.727E+06    -45.0276E+06    -120.685E+06    -16.3932E+06     463.073E+03         32.8458
             793     7.53692E-03     26.9899E-03         3.56285        -1.04157        -1.06753        -1.04045         3.56173        -1.06753    -21.9938E-03     119.617E-03    -59.6721E-03    -59.9692E-03    -59.6432E-03     119.588E-03    -59.9692E-03     4.43663E-03    -19.6628E+06    -48.3878E+06    -159.360E+06    -48.4024E+06    -159.345E+06    -19.6628E+06        -451.688         31.6368
             794     6.59477E-03     26.9858E-03         3.57908        -1.05133        -1.07146        -1.04916         3.57624        -1.07079     60.6830E-03     119.665E-03    -59.6843E-03    -60.0082E-03    -59.6751E-03     119.655E-03    -60.0082E-03     2.30349E-03    -23.3712E+06    -52.1287E+06    -198.852E+06    -52.1372E+06    -198.843E+06    -23.3712E+06    -379.961E+03         30.8726
             795     5.65277E-03     26.9856E-03         3.61246        -1.06766        -1.08845        -1.07765         3.60587        -1.07186    -61.8781E-03     119.654E-03    -59.6569E-03    -60.0381E-03    -59.6558E-03     119.653E-03    -60.0381E-03     661.461E-06    -29.0143E+06    -56.2306E+06    -225.583E+06    -56.2419E+06    -225.572E+06    -29.0143E+06    -425.934E+03         30.3553
             796     4.71013E-03     26.9851E-03         3.63341        -1.06911        -1.10893        -1.09182         3.61630        -1.06911     142.102E-03     119.752E-03    -59.7546E-03    -60.0382E-03    -59.7543E-03     119.751E-03    -60.0382E-03    -251.772E-06    -38.5485E+06    -61.6060E+06    -241.454E+06    -61.6135E+06    -241.447E+06    -38.5485E+06    -217.270E+03         29.9769
             797     3.76812E-03     26.9868E-03         3.64811        -1.06405        -1.13187        -1.08630         3.60253        -1.06405    -212.775E-03     119.880E-03    -59.8933E-03    -60.0116E-03    -59.8924E-03     119.879E-03    -60.0114E-03    -871.520E-06    -48.8969E+06    -67.1614E+06    -255.687E+06    -67.1656E+06    -255.682E+06    -48.8969E+06     426.149E+03         29.6891
             798     2.82656E-03     26.9873E-03         3.70109        -1.06092        -1.19452        -1.06297         3.56954        -1.06092     414.432E-03     119.845E-03    -59.8897E-03    -59.9669E-03    -59.8875E-03     119.843E-03    -59.9666E-03    -1.29024E-03    -59.2612E+06    -70.8377E+06    -262.171E+06    -70.8416E+06    -262.167E+06    -59.2612E+06     710.993E+03         29.4814
             799     1.88400E-03     26.9899E-03         3.96746        -1.06390        -1.45390        -1.05055         3.56410        -1.06390    -817.438E-03     119.816E-03    -59.8794E-03    -59.9391E-03    -59.8790E-03     119.813E-03    -59.9372E-03    -1.19100E-03    -67.4318E+06    -74.0128E+06    -268.420E+06    -74.0166E+06    -268.416E+06    -67.4318E+06     697.781E+03         29.3406
             800     941.993E-06     26.9906E-03         4.99372    -311.440E-03        -3.21884        -1.82338         3.59827    -311.440E-03         2.48553     119.797E-03    -59.7395E-03    -60.0617E-03    -60.0536E-03     119.795E-03    -59.7462E-03    -745.896E-06    -74.5333E+06    -78.0030E+06    -273.104E+06    -77.2665E+06    -273.099E+06    -75.2754E+06     864.358E+03         29.2550
             801     16.0223E-03     26.5660E-03         3.52034        -1.00514        -1.05284        -1.00497         3.52017        -1.05284     28.6893E-03     186.329E-03    -60.2430E-03    -126.166E-03    -66.7107E-03     126.874E-03    -60.2430E-03     245.006E-03     140.201E+06     138.656E+06    -9.45846E+06    -9.43281E+06     139.459E+06     139.372E+06    -226.028E+03         62.9277
             802     15.0765E-03     26.2644E-03         3.54131        -1.02778        -1.05657        -1.02764         3.54116        -1.05657     25.5862E-03     175.020E-03    -60.1472E-03    -114.967E-03    -65.5043E-03     125.558E-03    -60.1472E-03     215.932E-03     123.172E+06     116.481E+06    -16.7182E+06    -16.6268E+06     123.080E+06     116.481E+06    -1.04502E+06         59.0238
             803     14.1365E-03     26.0789E-03         3.55976        -1.04538        -1.05901        -1.04529         3.55967        -1.05901     20.3581E-03     139.360E-03    -59.9505E-03    -79.3916E-03    -60.2809E-03     120.250E-03    -59.9505E-03     118.137E-03     109.555E+06     79.5940E+06    -22.6151E+06    -22.3827E+06     109.322E+06     79.5940E+06    -86.9062E+03         54.1801
             804     13.1923E-03     25.9987E-03         3.56771        -1.04797        -1.06046        -1.04788         3.56762        -1.06046     14.6596E-03     123.279E-03    -59.7801E-03    -63.5666E-03    -58.0597E-03     117.772E-03    -59.7801E-03     62.5402E-03     94.5409E+06     30.4676E+06    -31.4323E+06    -31.2612E+06     94.3698E+06     30.4676E+06     504.805E+03         49.1445
             805     12.2494E-03     25.9403E-03         3.56052        -1.03616        -1.06217        -1.03613         3.56049        -1.06217    -213.993E-06     120.678E-03    -59.6417E-03    -61.1235E-03    -58.6755E-03     118.230E-03    -59.6417E-03     39.7594E-03     83.2706E+06    -6.08941E+06    -38.1543E+06    -38.1439E+06     83.2602E+06    -6.08941E+06     309.965E+03         44.5494
             806     11.3070E-03     25.9115E-03         3.56107        -1.03443        -1.06457        -1.03438         3.56102        -1.06457    -2.40890E-03     118.910E-03    -59.2518E-03    -59.7269E-03    -58.6640E-03     118.257E-03    -59.6618E-03     20.8627E-03     40.0357E+06    -15.2586E+06    -40.5904E+06    -40.5619E+06     40.0072E+06    -15.2586E+06    -885.720E+03         40.5918
             807     10.3638E-03     25.8958E-03         3.57503        -1.04512        -1.06691        -1.04480         3.57471        -1.06691     37.6267E-03     118.880E-03    -59.1777E-03    -59.7831E-03    -58.8269E-03     118.530E-03    -59.7831E-03     15.7892E-03    -9.68994E+06    -28.0078E+06    -50.8111E+06    -42.4859E+06    -30.1964E+06    -15.8266E+06    -1.06559E+06         37.2942
             808     9.42078E-03     25.8776E-03         3.58537        -1.05680        -1.06859        -1.05622         3.58479        -1.06859    -922.903E-06     119.284E-03    -59.5057E-03    -59.8487E-03    -59.2713E-03     119.050E-03    -59.8487E-03     12.3902E-03    -18.7571E+06    -44.4542E+06    -80.2314E+06    -44.5033E+06    -80.1823E+06    -18.7571E+06    -108.775E+03         34.6892
             809     8.47935E-03     25.8688E-03         3.58695        -1.05866        -1.06991        -1.05809         3.58638        -1.06991    -2.44529E-03     119.378E-03    -59.5110E-03    -59.9120E-03    -59.4358E-03     119.303E-03    -59.9120E-03     7.15995E-03    -17.3907E+06    -46.2951E+06    -119.792E+06    -46.3429E+06    -119.744E+06    -17.3907E+06     281.062E+03         32.8199
             810     7.53680E-03     25.8630E-03         3.58700        -1.04957        -1.07207        -1.04839         3.58582        -1.07207    -41.8329E-03     119.519E-03    -59.5865E-03    -59.9602E-03    -59.5547E-03     119.488E-03    -59.9602E-03     4.65918E-03    -20.3758E+06    -49.4003E+06    -158.687E+06    -49.4215E+06    -158.666E+06    -20.3758E+06    -301.837E+03         31.6214
             811     6.59497E-03     25.8603E-03         3.59772        -1.05546        -1.07582        -1.05294         3.59453        -1.07515     54.4329E-03     119.731E-03    -59.7673E-03    -59.9862E-03    -59.7566E-03     119.720E-03    -59.9862E-03     2.47252E-03    -25.9755E+06    -53.5551E+06    -199.371E+06    -53.5752E+06    -199.351E+06    -25.9755E+06    -359.897E+03         30.8667
             812     5.65247E-03     25.8589E-03         3.61858        -1.07155        -1.08721        -1.07550         3.61217        -1.07685    -49.0825E-03     119.744E-03    -59.7879E-03    -59.9922E-03    -59.7867E-03     119.743E-03    -59.9922E-03     639.538E-06    -31.8044E+06    -58.6165E+06    -225.641E+06    -58.6274E+06    -225.631E+06    -31.8044E+06     307.984E+03         30.3526
             813     4.71060E-03     25.8596E-03         3.63266        -1.07613        -1.10034        -1.08446         3.61677        -1.07613     135.065E-03     119.737E-03    -59.8002E-03    -59.9731E-03    -59.7995E-03     119.736E-03    -59.9731E-03    -453.715E-06    -40.1915E+06    -63.7334E+06    -241.523E+06    -63.7372E+06    -241.519E+06    -40.1915E+06     665.830E+03         29.9725
             814     3.76856E-03     25.8595E-03         3.65451        -1.07421        -1.12307        -1.08284         3.61428        -1.07421    -190.437E-03     119.685E-03    -59.7609E-03    -59.9483E-03    -59.7585E-03     119.683E-03    -59.9483E-03    -1.23788E-03    -49.5578E+06    -67.8965E+06    -255.769E+06    -67.9023E+06    -255.763E+06    -49.5578E+06     55.4722E+03         29.6817
             815     2.82597E-03     25.8619E-03         3.71661        -1.07374        -1.18643        -1.06993         3.60010        -1.07374     399.236E-03     119.646E-03    -59.7219E-03    -59.9378E-03    -59.7191E-03     119.643E-03    -59.9378E-03    -1.38876E-03    -59.2675E+06    -71.5732E+06    -262.235E+06    -71.5778E+06    -262.230E+06    -59.2675E+06    -97.6297E+03         29.4732
             816     1.88431E-03     25.8632E-03         3.96442        -1.07363        -1.43134        -1.07653         3.60961        -1.07363    -754.488E-03     119.758E-03    -59.8132E-03    -59.9487E-03    -59.8134E-03     119.756E-03    -59.9468E-03    -1.00345E-03    -67.7465E+06    -74.8186E+06    -268.815E+06    -74.8224E+06    -268.811E+06    -67.7465E+06     509.206E+03         29.3359
             817     942.267E-06     25.8650E-03         4.85946    -285.697E-03        -3.10434        -1.86036         3.61547    -285.697E-03         2.32224     119.868E-03    -59.7463E-03    -60.1277E-03    -60.0150E-03     119.867E-03    -59.8584E-03    -307.715E-06    -72.7533E+06    -76.5893E+06    -271.315E+06    -75.8523E+06    -271.310E+06    -73.4953E+06     78.6706E+03         29.2553
             818     16.0208E-03     25.4456E-03         3.53703        -1.00661        -1.05744        -1.00652         3.53694        -1.05744     3.65886E-03     185.970E-03    -60.1836E-03    -125.829E-03    -66.7925E-03     126.934E-03    -60.1836E-03     243.816E-03     141.936E+06     139.808E+06    -8.17515E+06    -8.14778E+06     141.192E+06     140.524E+06    -944.097E+03         62.5405
             819     15.0786E-03     25.1323E-03         3.54632        -1.01994        -1.06089        -1.01988         3.54626        -1.06089    -5.63149E-03     174.091E-03    -60.1166E-03    -114.092E-03    -64.6282E-03     124.627E-03    -60.1166E-03     214.893E-03     122.111E+06     115.207E+06    -15.7018E+06    -15.6261E+06     122.035E+06     115.207E+06    -1.84793E+06         58.7905
             820     14.1361E-03     24.9525E-03         3.56660        -1.03423        -1.06356        -1.03416         3.56653        -1.06356    -395.381E-06     138.870E-03    -59.9502E-03    -78.9347E-03    -60.0627E-03     119.998E-03    -59.9502E-03     117.700E-03     104.979E+06     77.3675E+06    -24.5441E+06    -24.4041E+06     104.839E+06     77.3675E+06     1.40674E+06         54.0806
             821     13.1925E-03     24.8732E-03         3.57680        -1.04535        -1.06556        -1.04530         3.57674        -1.06556     5.22786E-03     123.804E-03    -59.7826E-03    -64.1241E-03    -58.3287E-03     118.009E-03    -59.7826E-03     64.2228E-03     95.3239E+06     34.2732E+06    -30.6227E+06    -30.4715E+06     95.1727E+06     34.2732E+06     3.85123E+06         49.0876
             822     12.2493E-03     24.8122E-03         3.57855        -1.05039        -1.06719        -1.05034         3.57851        -1.06719     3.49608E-03     120.641E-03    -59.5695E-03    -61.1681E-03    -58.5998E-03     118.136E-03    -59.6330E-03     40.2222E-03     86.5937E+06    -3.25010E+06    -34.3667E+06    -34.3039E+06     86.5309E+06    -3.25010E+06     1.83653E+06         44.4944
             823     11.3064E-03     24.7851E-03         3.58118        -1.05003        -1.06877        -1.05000         3.58114        -1.06877     10.3856E-03     118.991E-03    -59.3406E-03    -59.7007E-03    -58.7328E-03     118.332E-03    -59.6487E-03     20.9160E-03     40.6900E+06    -13.3664E+06    -38.1094E+06    -38.0862E+06     40.6667E+06    -13.3664E+06    -154.251E+03         40.5393
             824     10.3640E-03     24.7682E-03         3.58369        -1.04967        -1.07058        -1.04949         3.58351        -1.07058     31.1215E-03     119.030E-03    -59.3347E-03    -59.7688E-03    -58.9909E-03     118.687E-03    -59.7688E-03     15.6411E-03    -9.38360E+06    -24.4532E+06    -49.4528E+06    -41.0562E+06    -29.4519E+06    -12.7815E+06    -1.09562E+06         37.2462
             825     9.42206E-03     24.7505E-03         3.58791        -1.04792        -1.07285        -1.04755         3.58755        -1.07285    -4.64169E-03     119.093E-03    -59.3576E-03    -59.8098E-03    -59.1242E-03     118.860E-03    -59.8098E-03     12.3838E-03    -19.7679E+06    -42.4755E+06    -81.8160E+06    -42.6342E+06    -81.6572E+06    -19.7679E+06    -1.42913E+06         34.6472
             826     8.47907E-03     24.7422E-03         3.60294        -1.05655        -1.07522        -1.05601         3.60240        -1.07522     15.7915E-03     119.240E-03    -59.4150E-03    -59.8732E-03    -59.3405E-03     119.166E-03    -59.8732E-03     7.05361E-03    -19.6786E+06    -44.3538E+06    -120.326E+06    -44.3739E+06    -120.306E+06    -19.6786E+06    -341.889E+03         32.7864
             827     7.53680E-03     24.7368E-03         3.61816        -1.06706        -1.07982        -1.06922         3.61728        -1.07679    -11.6811E-03     119.473E-03    -59.5558E-03    -59.9491E-03    -59.5276E-03     119.444E-03    -59.9491E-03     4.35314E-03    -19.6961E+06    -48.4503E+06    -159.016E+06    -48.5080E+06    -158.958E+06    -19.6961E+06     710.272E+03         31.6006
             828     6.59437E-03     24.7327E-03         3.62103        -1.06833        -1.08168        -1.06936         3.61828        -1.07789     75.3057E-03     119.747E-03    -59.7766E-03    -59.9953E-03    -59.7830E-03     119.738E-03    -59.9800E-03     2.11250E-03    -24.5672E+06    -54.7645E+06    -199.773E+06    -54.8201E+06    -199.717E+06    -24.5672E+06     1.28991E+06         30.8583
             829     5.65302E-03     24.7332E-03         3.62077        -1.06978        -1.08265        -1.06672         3.61463        -1.07957    -43.8989E-03     119.919E-03    -59.9474E-03    -60.0067E-03    -59.9995E-03     119.919E-03    -59.9542E-03     294.815E-06    -30.7954E+06    -60.4786E+06    -224.510E+06    -60.4858E+06    -224.503E+06    -30.7954E+06     576.010E+03         30.3486
             830     4.71107E-03     24.7329E-03         3.63019        -1.07574        -1.08746        -1.06741         3.61651        -1.08211     114.434E-03     119.695E-03    -59.7843E-03    -59.9443E-03    -59.8206E-03     119.694E-03    -59.9070E-03    -674.728E-06    -38.2777E+06    -64.5549E+06    -241.364E+06    -64.5601E+06    -241.359E+06    -38.2777E+06    -258.681E+03         29.9669
             831     3.76891E-03     24.7344E-03         3.65921        -1.08357        -1.10902        -1.07052         3.62258        -1.08544    -202.396E-03     119.460E-03    -59.6090E-03    -59.8738E-03    -59.6065E-03     119.457E-03    -59.8738E-03    -1.29883E-03    -48.9349E+06    -68.5658E+06    -254.867E+06    -68.5744E+06    -254.859E+06    -48.9349E+06    -603.519E+03         29.6736
             832     2.82673E-03     24.7357E-03         3.73563        -1.08838        -1.18430        -1.08187         3.63319        -1.08838     353.368E-03     119.432E-03    -59.5614E-03    -59.8869E-03    -59.5584E-03     119.429E-03    -59.8869E-03    -1.43512E-03    -60.5299E+06    -72.5514E+06    -262.965E+06    -72.5629E+06    -262.953E+06    -60.5299E+06    -968.694E+03         29.4641
             833     1.88380E-03     24.7379E-03         3.95664        -1.08178        -1.41319        -1.11247         3.65593        -1.08178    -679.835E-03     119.612E-03    -59.6771E-03    -59.9415E-03    -59.6756E-03     119.610E-03    -59.9415E-03    -907.996E-06    -69.9804E+06    -75.3180E+06    -269.292E+06     -75.326E+06    -269.284E+06    -69.9804E+06    -673.706E+03         29.3284
             834     941.592E-06     24.7379E-03         4.70350    -283.272E-03        -2.96109        -1.86544         3.60784    -283.272E-03         2.16403     119.938E-03    -59.6974E-03    -60.2438E-03    -60.0866E-03     119.937E-03    -59.8536E-03    -615.086E-06    -74.8378E+06    -77.3913E+06    -271.856E+06    -76.7750E+06    -271.851E+06    -75.4587E+06    -831.891E+03         29.2509
             835     16.0263E-03     24.3186E-03         3.56306        -1.03443        -1.06073        -1.03430         3.56293        -1.06073    -13.2464E-03     186.050E-03    -60.1248E-03    -125.894E-03    -66.9426E-03     127.099E-03    -60.1248E-03     243.537E-03     143.309E+06     140.234E+06    -8.36997E+06    -8.34986E+06     143.289E+06     140.234E+06    -1.12521E+06         62.2864
             836     15.0813E-03     24.0087E-03         3.56385        -1.02978        -1.06321        -1.02972         3.56379        -1.06321     7.38036E-03     174.598E-03    -60.0924E-03    -114.612E-03    -63.9310E-03     123.917E-03    -60.0924E-03     217.543E-03     120.200E+06     111.570E+06    -18.3819E+06    -18.3635E+06     120.182E+06     111.570E+06     632.463E+03         58.6199
             837     14.1338E-03     23.8273E-03         3.56303        -1.01962        -1.06622        -1.01959         3.56299        -1.06622    -214.315E-06     138.959E-03    -59.9886E-03    -79.0099E-03    -59.7019E-03     119.651E-03    -59.9886E-03     118.813E-03     101.057E+06     74.5552E+06    -28.6296E+06    -28.6084E+06     101.036E+06     74.5552E+06     1.60701E+06         53.9800
             838     13.1915E-03     23.7446E-03         3.57269        -1.02590        -1.06957        -1.02588         3.57267        -1.06957     5.55343E-03     124.346E-03    -59.8480E-03    -64.5882E-03    -58.7945E-03     118.552E-03    -59.8480E-03     64.2590E-03     95.2722E+06     37.9694E+06    -32.6785E+06    -32.5994E+06     95.1931E+06     37.9694E+06     1.20900E+06         49.0158
             839     12.2497E-03     23.6872E-03         3.59837        -1.05357        -1.07202        -1.05355         3.59835        -1.07202     3.18284E-03     120.838E-03    -59.5966E-03    -61.3522E-03    -58.8542E-03     118.404E-03    -59.6601E-03     39.8301E-03     88.7021E+06     1.06871E+06    -33.6264E+06    -33.5403E+06     88.6160E+06     1.06871E+06     1.22776E+06         44.4265
             840     11.3065E-03     23.6582E-03         3.60856        -1.06354        -1.07327        -1.06350         3.60852        -1.07327     12.2680E-03     119.120E-03    -59.4513E-03    -59.7378E-03    -58.9030E-03     118.460E-03    -59.6257E-03     20.9092E-03     42.2533E+06    -13.5287E+06    -34.0673E+06    -33.9654E+06     42.1514E+06    -13.5287E+06     166.159E+03         40.4750
             841     10.3649E-03     23.6414E-03         3.60194        -1.05447        -1.07469        -1.05419         3.60166        -1.07469     48.5432E-03     119.139E-03    -59.4667E-03    -59.7440E-03    -59.1341E-03     118.806E-03    -59.7440E-03     15.3977E-03    -5.79176E+06    -23.2960E+06    -46.7910E+06    -36.0413E+06    -29.1546E+06    -10.6829E+06    -243.594E+03         37.1866
             842     9.42167E-03     23.6257E-03         3.60275        -1.05141        -1.07699        -1.05108         3.60242        -1.07699     17.1320E-03     119.111E-03    -59.3987E-03    -59.7796E-03    -59.1696E-03     118.882E-03    -59.7796E-03     12.3596E-03    -17.2280E+06    -40.4998E+06    -81.9972E+06    -40.8639E+06    -81.6332E+06    -17.2280E+06     127.694E+03         34.5939
             843     8.47933E-03     23.6157E-03         3.61404        -1.05947        -1.07945        -1.05920         3.61377        -1.07945     13.2800E-03     119.295E-03    -59.5123E-03    -59.8229E-03    -59.4397E-03     119.222E-03    -59.8229E-03     6.81833E-03    -20.6220E+06    -45.7451E+06    -121.616E+06    -45.7490E+06    -121.612E+06    -20.6220E+06    -285.511E+03         32.7420
             844     7.53759E-03     23.6100E-03         3.63407        -1.07342        -1.08667        -1.07873         3.63341        -1.08071    -26.5800E-03     119.552E-03    -59.6815E-03    -59.9023E-03    -59.6619E-03     119.532E-03    -59.9023E-03     3.63651E-03    -16.9417E+06    -49.3635E+06    -161.399E+06    -49.4312E+06    -161.331E+06    -16.9417E+06     1.93813E+06         31.5691
             845     6.59544E-03     23.6074E-03         3.63766        -1.07926        -1.08730        -1.08411         3.63580        -1.08059     41.4515E-03     119.604E-03    -59.6933E-03    -59.9413E-03    -59.7031E-03     119.599E-03    -59.9260E-03     1.67174E-03    -18.6949E+06    -53.5404E+06    -197.709E+06    -53.6090E+06    -197.640E+06    -18.6949E+06     2.61673E+06         30.8383
             846     5.65315E-03     23.6053E-03         3.62338        -1.06906        -1.08241        -1.06581         3.61939        -1.08165    -48.8947E-03     119.628E-03    -59.7106E-03    -59.9540E-03    -59.7626E-03     119.627E-03    -59.9014E-03     16.6557E-06    -27.1649E+06    -58.4506E+06    -222.348E+06    -58.4577E+06    -222.340E+06    -27.1649E+06     65.6765E+03         30.3330
             847     4.71141E-03     23.6076E-03         3.62413        -1.06646        -1.08599        -1.05582         3.61348        -1.08599     114.230E-03     119.548E-03    -59.6810E-03    -59.9039E-03    -59.7172E-03     119.547E-03    -59.8667E-03    -813.677E-06    -37.3232E+06    -63.5262E+06    -241.926E+06    -63.5328E+06    -241.920E+06    -37.3232E+06    -980.765E+03         29.9537
             848     3.76885E-03     23.6080E-03         3.66488        -1.08317        -1.10935        -1.07202         3.63580        -1.09143    -177.440E-03     119.428E-03    -59.6243E-03    -59.8269E-03    -59.6218E-03     119.425E-03    -59.8269E-03    -1.26984E-03    -48.8475E+06    -68.1059E+06    -254.211E+06    -68.1141E+06    -254.203E+06    -48.8475E+06    -1.02954E+06         29.6635
             849     2.82646E-03     23.6105E-03         3.74238        -1.09587        -1.16938        -1.08377         3.65677        -1.09587     344.453E-03     119.470E-03    -59.5854E-03    -59.8998E-03    -59.6876E-03     119.467E-03    -59.7943E-03    -1.51219E-03    -61.3720E+06    -72.7475E+06    -263.340E+06    -72.7599E+06    -263.328E+06    -61.3720E+06    -1.24729E+06         29.4544
             850     1.88440E-03     23.6115E-03         3.92546        -1.09886        -1.35348        -1.09492         3.66690        -1.09886    -624.215E-03     119.506E-03    -59.5851E-03    -59.9295E-03    -59.7739E-03     119.504E-03    -59.7383E-03    -1.27761E-03    -70.6649E+06    -76.7783E+06    -269.511E+06    -76.7902E+06    -269.499E+06    -70.6649E+06    -1.24382E+06         29.3146
             851     942.319E-06     23.6117E-03         4.59747    -349.113E-03        -2.78262        -1.85145         3.66630    -349.113E-03         1.95486     119.367E-03    -59.3256E-03    -60.0417E-03    -59.9957E-03     119.366E-03    -59.3697E-03    -1.07227E-03    -77.1935E+06    -81.2056E+06    -273.789E+06    -80.5919E+06    -273.781E+06    -77.8145E+06    -781.675E+03         29.2312
             852     16.0216E-03     23.1932E-03         3.57521        -1.03371        -1.06406        -1.03362         3.57512        -1.06406     11.4890E-03     186.053E-03    -60.2069E-03    -125.838E-03    -65.9621E-03     126.178E-03    -60.2069E-03     245.064E-03     141.878E+06     138.163E+06    -10.4092E+06    -10.3612E+06     141.830E+06     138.163E+06     542.140E+03         62.0771
             853     15.0755E-03     22.8818E-03         3.59114        -1.04203        -1.06667        -1.04198         3.59109        -1.06667     23.8593E-03     176.152E-03    -60.1818E-03    -115.977E-03    -64.9346E-03     125.110E-03    -60.1818E-03     219.204E-03     119.229E+06     110.830E+06    -20.6984E+06    -20.6574E+06     119.188E+06     110.830E+06     1.92719E+06         58.4625
             854     14.1353E-03     22.7008E-03         3.58458        -1.03203        -1.06943        -1.03201         3.58456        -1.06943     13.2585E-03     139.856E-03    -60.0381E-03    -79.8285E-03    -60.6903E-03     120.718E-03    -60.0381E-03     119.072E-03     103.517E+06     76.0270E+06    -27.0662E+06    -27.0440E+06     103.495E+06     76.0270E+06     536.974E+03         53.8774
             855     13.1919E-03     22.6165E-03         3.59314        -1.03653        -1.07229        -1.03651         3.59312        -1.07229     18.7884E-03     124.415E-03    -59.8420E-03    -64.6456E-03    -58.9237E-03     118.693E-03    -59.8420E-03     63.7575E-03     95.6616E+06     34.7237E+06    -31.9509E+06    -31.9174E+06     95.6281E+06     34.7237E+06    -1.24973E+06         48.9340
             856     12.2489E-03     22.5596E-03         3.60924        -1.04874        -1.07467        -1.04868         3.60918        -1.07467    -7.03597E-03     120.892E-03    -59.6365E-03    -61.3548E-03    -59.0188E-03     118.556E-03    -59.6365E-03     39.1506E-03     87.9063E+06    -1.10351E+06    -34.5289E+06    -34.4295E+06     87.8068E+06    -1.10351E+06    -1.72976E+06         44.3467
             857     11.3073E-03     22.5307E-03         3.61162        -1.04894        -1.07688        -1.04883         3.61151        -1.07688    -18.5088E-03     119.132E-03    -59.3677E-03    -59.8266E-03    -58.9323E-03     118.478E-03    -59.6085E-03     20.7628E-03     42.4734E+06    -13.6976E+06    -35.8299E+06    -35.5234E+06     42.1669E+06    -13.6976E+06    -263.137E+03         40.3980
             858     10.3640E-03     22.5150E-03         3.61929        -1.05727        -1.07910        -1.05696         3.61897        -1.07910     40.5779E-03     119.183E-03    -59.4127E-03    -59.8378E-03    -59.2124E-03     118.867E-03    -59.7221E-03     15.0119E-03    -4.56864E+06    -26.2456E+06    -50.2903E+06    -39.0240E+06    -31.5655E+06    -10.5151E+06     2.16994E+06         37.1135
             859     9.42245E-03     22.4987E-03         3.63675        -1.07224        -1.08345        -1.07483         3.63632        -1.08043     7.38176E-03     119.455E-03    -59.6435E-03    -59.8732E-03    -59.5669E-03     119.248E-03    -59.7426E-03     11.6597E-03    -13.3119E+06    -43.0453E+06    -79.5970E+06    -43.3924E+06    -79.2499E+06    -13.3119E+06     2.47039E+06         34.5269
             860     8.48059E-03     22.4890E-03         3.64113        -1.07605        -1.08591        -1.08093         3.64081        -1.08071    -911.271E-06     119.308E-03    -59.5834E-03    -59.7595E-03    -59.5376E-03     119.247E-03    -59.7446E-03     6.29363E-03    -18.2932E+06    -47.4755E+06    -121.297E+06    -47.5425E+06    -121.231E+06    -18.2932E+06     1.12086E+06         32.6833
             861     7.53803E-03     22.4838E-03         3.64158        -1.07266        -1.08604        -1.07721         3.64102        -1.08093    -23.5698E-03     119.419E-03    -59.6512E-03    -59.7982E-03    -59.6460E-03     119.401E-03    -59.7856E-03     3.42847E-03    -18.6801E+06    -50.9245E+06    -163.508E+06    -50.9586E+06    -163.474E+06    -18.6801E+06     875.672E+03         31.5215
             862     6.59638E-03     22.4805E-03         3.63654        -1.06872        -1.08490        -1.07061         3.63550        -1.08197     17.4854E-03     119.396E-03    -59.6161E-03    -59.8090E-03    -59.6244E-03     119.392E-03    -59.7964E-03     1.31647E-03    -19.0886E+06    -52.8296E+06    -195.200E+06    -52.8650E+06    -195.164E+06    -19.0886E+06     498.901E+03         30.8012
             863     5.65390E-03     22.4800E-03         3.62609        -1.06698        -1.08445        -1.06443         3.62354        -1.08445    -53.4660E-03     119.187E-03    -59.4226E-03    -59.7990E-03    -59.4216E-03     119.186E-03    -59.7990E-03    -438.690E-06    -25.6478E+06    -56.2671E+06    -221.256E+06    -56.2783E+06    -221.244E+06    -25.6478E+06     58.8144E+03         30.3018
             864     4.71094E-03     22.4805E-03         3.63839        -1.07254        -1.09250        -1.06866         3.63006        -1.08805     115.194E-03     119.294E-03    -59.5346E-03    -59.7969E-03    -59.5316E-03     119.291E-03    -59.7969E-03    -1.35917E-03    -37.0622E+06    -61.8807E+06    -241.194E+06    -61.8929E+06    -241.182E+06    -37.0622E+06    -513.796E+03         29.9276
             865     3.76928E-03     22.4832E-03         3.67927        -1.08463        -1.11280        -1.08283         3.65568        -1.09102    -160.739E-03     119.465E-03    -59.6373E-03    -59.8493E-03    -59.7311E-03     119.461E-03    -59.7510E-03    -1.72808E-03    -49.4455E+06    -68.2121E+06    -254.928E+06    -68.2244E+06    -254.916E+06    -49.4455E+06    -727.861E+03         29.6429
             866     2.82695E-03     22.4843E-03         3.72178        -1.09446        -1.14644        -1.08003         3.65536        -1.09446     279.070E-03     119.490E-03    -59.5881E-03    -59.9145E-03    -59.8589E-03     119.486E-03    -59.6392E-03    -1.78835E-03    -60.9127E+06    -73.3793E+06    -263.215E+06    -73.3867E+06    -263.208E+06    -60.9127E+06    -299.331E+03         29.4348
             867     1.88535E-03     22.4857E-03         3.88160        -1.10041        -1.29618        -1.08630         3.67173        -1.10041    -596.696E-03     119.179E-03    -59.4635E-03    -59.7276E-03    -59.7232E-03     119.176E-03    -59.4649E-03    -1.41802E-03    -71.1957E+06    -77.9699E+06    -270.126E+06    -77.9754E+06    -270.121E+06    -71.1957E+06    -388.668E+03         29.2908
             868     943.093E-06     22.4872E-03         4.47880    -413.924E-03        -2.57864        -1.79420         3.69435    -413.924E-03         1.75962     118.697E-03    -59.1852E-03    -59.5175E-03    -59.4660E-03     118.696E-03    -59.2357E-03    -730.963E-06    -78.2326E+06    -82.8572E+06    -275.161E+06    -81.6371E+06    -275.155E+06    -79.4582E+06    -74.4836E+03         29.2013
             869     16.0185E-03     22.0684E-03         3.57902        -1.02253        -1.06697        -1.02250         3.57899        -1.06697     22.0641E-03     185.367E-03    -60.2839E-03    -125.147E-03    -66.2959E-03     126.516E-03    -60.2839E-03     242.956E-03     142.290E+06     138.370E+06    -6.81362E+06    -6.74953E+06     141.697E+06     138.898E+06     2.76280E+06         61.8674
             870     15.0769E-03     21.7531E-03         3.58906        -1.02856        -1.07011        -1.02849         3.58899        -1.07011    -1.64665E-03     175.699E-03    -60.2343E-03    -115.528E-03    -65.6800E-03     125.851E-03    -60.2343E-03     216.977E-03     120.497E+06     113.376E+06    -15.8537E+06    -15.7934E+06     120.437E+06     113.376E+06     1.98930E+06         58.2986
             871     14.1336E-03     21.5720E-03         3.60604        -1.04783        -1.07347        -1.04862         3.60596        -1.07261    -156.622E-06     140.068E-03    -60.0531E-03    -80.0635E-03    -61.1611E-03     121.165E-03    -60.0531E-03     118.101E-03     105.112E+06     78.7530E+06    -22.7531E+06    -22.7239E+06     105.082E+06     78.7530E+06     85.3877E+03         53.7645
             872     13.1923E-03     21.4893E-03         3.61320        -1.05902        -1.07497        -1.05985         3.61317        -1.07411     16.9786E-03     124.457E-03    -59.8068E-03    -64.7260E-03    -59.1796E-03     118.910E-03    -59.8068E-03     63.0146E-03     96.7985E+06     34.8283E+06    -29.4932E+06    -29.4670E+06     96.7723E+06     34.8283E+06    -607.068E+03         48.8417
             873     12.2502E-03     21.4326E-03         3.60481        -1.04678        -1.07581        -1.04672         3.60475        -1.07581    -6.01795E-03     120.875E-03    -59.5869E-03    -61.3878E-03    -59.0718E-03     118.559E-03    -59.5869E-03     38.5074E-03     87.5252E+06    -2.06523E+06    -34.9180E+06    -34.8359E+06     87.4431E+06    -2.06523E+06    -1.40875E+06         44.2548
             874     11.3070E-03     21.4042E-03         3.61491        -1.04647        -1.07829        -1.04638         3.61482        -1.07829    -25.5559E-03     119.182E-03    -59.4131E-03    -59.8433E-03    -59.1184E-03     118.610E-03    -59.5656E-03     19.4974E-03     39.1342E+06    -13.5577E+06    -39.5551E+06    -39.3267E+06     38.3207E+06    -12.9726E+06     654.475E+03         40.3078
             875     10.3653E-03     21.3884E-03         3.63385        -1.06264        -1.08043        -1.06246         3.63367        -1.08043     18.3045E-03     119.323E-03    -59.4877E-03    -59.9165E-03    -59.4785E-03     119.037E-03    -59.6402E-03     14.2802E-03    -8.74306E+06    -26.3148E+06    -50.2897E+06    -41.7362E+06    -32.4904E+06    -11.1209E+06     2.48442E+06         37.0267
             876     9.42355E-03     21.3703E-03         3.64341        -1.06671        -1.08489        -1.06944         3.64310        -1.08186     8.90159E-03     119.493E-03    -59.6227E-03    -59.9367E-03    -59.7606E-03     119.317E-03    -59.6227E-03     10.6097E-03    -13.6931E+06    -42.6625E+06    -77.2413E+06    -42.8557E+06    -77.0481E+06    -13.6931E+06     1.93785E+06         34.4446
             877     8.48151E-03     21.3630E-03         3.65320        -1.07186        -1.08805        -1.07654         3.65268        -1.08285     32.6251E-03     119.221E-03    -59.5300E-03    -59.7284E-03    -59.6155E-03     119.177E-03    -59.5991E-03     5.32246E-03    -17.1546E+06    -44.7486E+06    -120.803E+06    -44.8470E+06    -120.705E+06    -17.1546E+06     2.02590E+06         32.6068
             878     7.53937E-03     21.3571E-03         3.65090        -1.07320        -1.08595        -1.07487         3.65039        -1.08378     21.7376E-03     119.065E-03    -59.4135E-03    -59.6792E-03    -59.4814E-03     119.053E-03    -59.5991E-03     2.69606E-03    -21.5263E+06    -48.0242E+06    -161.384E+06    -48.0742E+06    -161.334E+06    -21.5263E+06     134.981E+03         31.4534
             879     6.59703E-03     21.3540E-03         3.64515        -1.06920        -1.08557        -1.06847         3.64443        -1.08557     36.1244E-03     119.048E-03    -59.4322E-03    -59.6412E-03    -59.4535E-03     119.046E-03    -59.6175E-03     601.584E-06    -22.5561E+06    -52.4439E+06    -195.724E+06    -52.4647E+06    -195.703E+06    -22.5561E+06    -941.618E+03         30.7436
             880     5.65471E-03     21.3544E-03         3.65897        -1.07691        -1.09291        -1.08035         3.65688        -1.08738    -45.8362E-03     119.060E-03    -59.4341E-03    -59.6582E-03    -59.4702E-03     119.057E-03    -59.6196E-03    -1.12893E-03    -26.9408E+06    -57.7848E+06    -221.858E+06    -57.7947E+06    -221.848E+06    -26.9408E+06     324.143E+03         30.2522
             881     4.71254E-03     21.3553E-03         3.67810        -1.08526        -1.10110        -1.09120         3.67055        -1.08761     119.663E-03     118.997E-03    -59.4116E-03    -59.6163E-03    -59.4321E-03     118.990E-03    -59.5887E-03    -2.16780E-03    -37.8281E+06    -63.1388E+06    -239.859E+06    -63.1530E+06    -239.845E+06    -37.8281E+06     250.800E+03         29.8814
             882     3.76947E-03     21.3569E-03         3.69467        -1.08605        -1.11642        -1.09569         3.67394        -1.08605    -136.883E-03     119.068E-03    -59.4511E-03    -59.6335E-03    -59.5408E-03     119.059E-03    -59.5352E-03    -2.42256E-03    -49.7023E+06    -68.7226E+06    -255.307E+06    -68.7346E+06    -255.295E+06    -49.7023E+06     206.850E+03         29.5974
             883     2.82796E-03     21.3586E-03         3.71344        -1.08384        -1.14267        -1.08994         3.66070        -1.08384     229.315E-03     118.959E-03    -59.3597E-03    -59.6094E-03    -59.5230E-03     118.952E-03    -59.4396E-03    -2.10279E-03    -61.5988E+06    -73.8582E+06    -263.716E+06    -73.8673E+06    -263.707E+06    -61.5988E+06     737.687E+03         29.3903
             884     1.88514E-03     21.3610E-03         3.82381        -1.07979        -1.26073        -1.09202         3.65511        -1.07979    -541.531E-03     118.713E-03    -59.2897E-03    -59.4320E-03    -59.3708E-03     118.709E-03    -59.3472E-03    -1.54263E-03    -71.3208E+06    -77.6351E+06    -270.393E+06    -77.6426E+06    -270.385E+06    -71.3208E+06     746.623E+03         29.2502
             885     942.199E-06     21.3627E-03         4.30951    -456.558E-03        -2.36513        -1.69704         3.64142    -456.558E-03         1.59284     118.590E-03    -59.2369E-03    -59.3581E-03    -59.3052E-03     118.587E-03    -59.2874E-03    -1.09348E-03    -77.7584E+06    -81.0649E+06    -274.449E+06    -79.7509E+06    -274.441E+06    -79.0797E+06     832.254E+03         29.1651
             886     16.0218E-03     20.9356E-03         3.59132        -1.03080        -1.06892        -1.03074         3.59125        -1.06892    -1.84721E-03     185.885E-03    -60.2646E-03    -125.654E-03    -67.8698E-03     128.100E-03    -60.2646E-03     241.702E-03     142.302E+06     139.927E+06    -7.32546E+06    -7.29040E+06     141.721E+06     140.473E+06     1.04669E+06         61.6131
             887     15.0783E-03     20.6311E-03         3.58822        -1.02563        -1.07181        -1.02555         3.58814        -1.07181     2.19064E-03     175.032E-03    -60.1537E-03    -114.957E-03    -65.7589E-03     125.834E-03    -60.1537E-03     215.510E-03     121.963E+06     116.169E+06    -14.9514E+06    -14.9072E+06     121.901E+06     116.187E+06     1.03332E+06         58.1043
             888     14.1352E-03     20.4404E-03         3.61359        -1.04843        -1.07514        -1.04918         3.61348        -1.07428     12.7539E-03     139.306E-03    -59.9629E-03    -79.4687E-03    -60.6649E-03     120.502E-03    -59.9629E-03     117.148E-03     104.646E+06     79.9797E+06    -22.1048E+06    -22.0669E+06     104.608E+06     79.9797E+06     601.107E+03         53.6379
             889     13.1933E-03     20.3644E-03         3.61878        -1.05536        -1.07680        -1.05617         3.61873        -1.07594     8.01513E-03     124.257E-03    -59.7192E-03    -64.6356E-03    -59.3096E-03     118.931E-03    -59.7192E-03     61.7164E-03     96.5573E+06     37.3342E+06    -28.9399E+06    -28.8675E+06     96.4849E+06     37.3342E+06     1.07066E+06         48.7375
             890     12.2504E-03     20.3031E-03         3.61359        -1.04890        -1.07788        -1.04881         3.61350        -1.07788     13.4963E-03     121.068E-03    -59.4727E-03    -61.7069E-03    -59.5364E-03     118.898E-03    -59.4727E-03     36.9277E-03     87.7654E+06    -811.025E+03    -34.3216E+06    -34.2430E+06     87.6867E+06    -811.025E+03     2.04428E+06         44.1499
             891     11.3094E-03     20.2793E-03         3.63037        -1.06057        -1.07989        -1.06046         3.63026        -1.07989     32.6965E-03     119.266E-03    -59.3921E-03    -59.9758E-03    -59.5013E-03     118.792E-03    -59.3921E-03     17.8466E-03     38.0294E+06    -16.0794E+06    -37.8267E+06    -37.7991E+06     37.4166E+06    -15.4943E+06     1.39729E+06         40.2054
             892     10.3670E-03     20.2601E-03         3.64049        -1.06645        -1.08144        -1.06622         3.64026        -1.08144     52.5407E-03     119.298E-03    -59.4110E-03    -59.9646E-03    -59.7319E-03     119.065E-03    -59.4110E-03     12.8571E-03    -12.2347E+06    -26.9058E+06    -48.0038E+06    -39.1377E+06    -32.1781E+06    -15.8285E+06     482.830E+03         36.9272
             893     9.42533E-03     20.2453E-03         3.63723        -1.06053        -1.08332        -1.06028         3.63697        -1.08332     28.5979E-03     119.181E-03    -59.3679E-03    -59.8601E-03    -59.7328E-03     119.053E-03    -59.3679E-03     8.78621E-03    -17.6047E+06    -40.3768E+06    -77.8923E+06    -40.5331E+06    -77.7361E+06    -17.6047E+06     1.33371E+06         34.3472
             894     8.48339E-03     20.2356E-03         3.64134        -1.06202        -1.08582        -1.06172         3.64104        -1.08582     22.8092E-03     118.937E-03    -59.3415E-03    -59.6260E-03    -59.6027E-03     118.913E-03    -59.3415E-03     3.54489E-03    -18.1600E+06    -43.2023E+06    -120.124E+06    -43.3166E+06    -120.009E+06    -18.1600E+06     1.85200E+06         32.5106
             895     7.54157E-03     20.2325E-03         3.65287        -1.07122        -1.08826        -1.07078         3.65243        -1.08826    -5.05750E-03     118.644E-03    -59.2055E-03    -59.4641E-03    -59.3437E-03     118.640E-03    -59.3220E-03     1.04015E-03    -21.9794E+06    -46.8167E+06    -158.615E+06    -46.8964E+06    -158.535E+06    -21.9794E+06     1.22004E+06         31.3596
             896     6.59843E-03     20.2291E-03         3.67012        -1.08243        -1.09684        -1.08923         3.66944        -1.08937     24.4998E-03     118.534E-03    -59.1631E-03    -59.3950E-03    -59.2334E-03     118.530E-03    -59.3206E-03    -829.695E-06    -25.3896E+06    -52.0731E+06    -197.037E+06    -52.1232E+06    -196.986E+06    -25.3896E+06     957.247E+03         30.6550
             897     5.65623E-03     20.2292E-03         3.68603        -1.08675        -1.10917        -1.10620         3.68417        -1.08786    -45.7326E-03     118.664E-03    -59.2614E-03    -59.4362E-03    -59.3864E-03     118.655E-03    -59.3024E-03    -2.31752E-03    -30.2483E+06    -58.4002E+06    -222.313E+06    -58.4225E+06    -222.291E+06    -30.2483E+06     1.19558E+06         30.1695
             898     4.71382E-03     20.2302E-03         3.67843        -1.08492        -1.10256        -1.09658         3.67273        -1.08520     89.8857E-03     118.625E-03    -59.2187E-03    -59.4413E-03    -59.4153E-03     118.611E-03    -59.2305E-03    -3.10112E-03    -38.7533E+06    -64.6099E+06    -238.749E+06    -64.6336E+06    -238.725E+06    -38.7533E+06     1.07122E+06         29.8018
             899     3.77186E-03     20.2318E-03         3.67542        -1.08152        -1.10115        -1.08394         3.66075        -1.08408    -109.494E-03     118.257E-03    -59.0337E-03    -59.2434E-03    -59.1058E-03     118.241E-03    -59.1554E-03    -3.31592E-03    -49.1773E+06    -69.7004E+06    -254.944E+06    -69.7105E+06    -254.934E+06    -49.1773E+06     738.850E+03         29.5172
             900     2.82804E-03     20.2339E-03         3.71293        -1.08092        -1.13506        -1.08853         3.66866        -1.08319     260.194E-03     118.036E-03    -58.9391E-03    -59.1054E-03    -58.9255E-03     118.022E-03    -59.1050E-03    -3.04883E-03    -62.1241E+06    -74.1247E+06    -263.814E+06    -74.1387E+06    -263.800E+06    -62.1241E+06     613.602E+03         29.3107
             901     1.88527E-03     20.2364E-03         3.81132        -1.07429        -1.24473        -1.10627         3.67286        -1.07429    -447.635E-03     118.122E-03    -59.0124E-03    -59.1173E-03    -59.0519E-03     118.113E-03    -59.0685E-03    -2.40353E-03    -71.8258E+06    -77.5599E+06    -270.965E+06    -77.5736E+06    -270.951E+06    -71.8258E+06     743.958E+03         29.1760
             902     943.133E-06     20.2371E-03         4.17711    -498.150E-03        -2.19117        -1.63471         3.62065    -498.150E-03         1.42498     118.077E-03    -58.8978E-03    -59.1861E-03    -59.1805E-03     118.072E-03    -58.8978E-03    -1.98449E-03    -76.6376E+06    -78.9701E+06    -273.094E+06    -78.8928E+06    -273.076E+06    -76.7333E+06     482.195E+03         29.0972
             903     16.0210E-03     19.8115E-03         3.60725        -1.03925        -1.07115        -1.03919         3.60719        -1.07115    -4.67576E-03     186.735E-03    -60.2327E-03    -126.540E-03    -68.4610E-03     128.656E-03    -60.2327E-03     242.996E-03     140.632E+06     139.233E+06    -9.48845E+06    -9.47847E+06     140.016E+06     139.840E+06    -1.11038E+06         61.2610
             904     15.0809E-03     19.4979E-03         3.61220        -1.04664        -1.07357        -1.04658         3.61214        -1.07357     31.0431E-03     175.772E-03    -60.0666E-03    -115.787E-03    -66.7359E-03     126.720E-03    -60.0666E-03     215.701E-03     122.030E+06     116.518E+06    -14.9749E+06    -14.9480E+06     121.396E+06     117.124E+06     11.4372E+03         57.8663
             905     14.1385E-03     19.3208E-03         3.61308        -1.04481        -1.07586        -1.04472         3.61299        -1.07586     40.6048E-03     139.477E-03    -59.8104E-03    -79.7256E-03    -61.2515E-03     121.003E-03    -59.8104E-03     116.845E-03     104.875E+06     78.9634E+06    -23.0804E+06    -23.0137E+06     104.809E+06     78.9634E+06     1.50169E+06         53.4914
             906     13.1939E-03     19.2316E-03         3.62091        -1.04565        -1.07827        -1.04560         3.62086        -1.07827     13.4877E-03     124.246E-03    -59.5246E-03    -64.8197E-03    -59.6399E-03     119.066E-03    -59.5246E-03     60.3818E-03     95.1858E+06     35.8952E+06    -29.4270E+06    -29.3265E+06     95.0852E+06     35.8952E+06     1.96620E+06         48.6190
             907     12.2548E-03     19.1785E-03         3.63630        -1.05799        -1.08042        -1.05791         3.63621        -1.08042     14.2970E-03     120.964E-03    -59.2311E-03    -61.8447E-03    -59.9997E-03     119.119E-03    -59.2311E-03     34.2420E-03     87.7880E+06    -1.77619E+06    -32.6452E+06    -32.5287E+06     87.6714E+06    -1.77619E+06     3.01669E+06         44.0315
             908     11.3116E-03     19.1491E-03         3.63596        -1.06040        -1.08226        -1.06029         3.63586        -1.08226     29.7537E-03     119.354E-03    -59.0856E-03    -60.3416E-03    -59.9486E-03     118.961E-03    -59.0856E-03     15.8085E-03     39.8745E+06    -16.4685E+06    -35.1948E+06    -35.0946E+06     39.7743E+06    -16.4685E+06     2.40015E+06         40.0912
             909     10.3711E-03     19.1348E-03         3.63951        -1.06521        -1.08408        -1.06495         3.63925        -1.08408     56.6479E-03     119.143E-03    -59.0340E-03    -60.1746E-03    -60.0251E-03     118.993E-03    -59.0340E-03     10.2008E-03    -13.3704E+06    -27.3005E+06    -48.0642E+06    -38.8176E+06    -31.4845E+06    -18.4329E+06     1.17777E+06         36.8177
             910     9.42902E-03     19.1176E-03         3.65424        -1.07530        -1.08550        -1.07501         3.65394        -1.08550     35.0668E-03     118.735E-03    -58.9298E-03    -59.8466E-03    -59.7700E-03     118.658E-03    -58.9298E-03     6.02314E-03    -21.7830E+06    -41.6394E+06    -79.8197E+06    -41.9242E+06    -79.5350E+06    -21.7830E+06     1.62773E+06         34.2388
             911     8.48726E-03     19.1109E-03         3.65405        -1.07176        -1.08688        -1.07160         3.65389        -1.08688     13.7376E-03     118.283E-03    -58.8789E-03    -59.4303E-03    -59.4226E-03     118.275E-03    -58.8789E-03     678.190E-06    -20.1217E+06    -44.2887E+06    -119.455E+06    -44.4699E+06    -119.274E+06    -20.1217E+06     2.37597E+06         32.3972
             912     7.54414E-03     19.1061E-03         3.65631        -1.07172        -1.08882        -1.07146         3.65604        -1.08882    -11.1461E-03     118.055E-03    -58.8287E-03    -59.2570E-03    -59.2470E-03     118.045E-03    -58.8287E-03    -1.71217E-03    -23.6508E+06    -48.6949E+06    -158.078E+06    -48.8316E+06    -157.941E+06    -23.6508E+06     2.45795E+06         31.2360
             913     6.60253E-03     19.1044E-03         3.67237        -1.08284        -1.09738        -1.08968         3.67175        -1.08992     29.2402E-03     117.814E-03    -58.7317E-03    -59.1124E-03    -59.0503E-03     117.793E-03    -58.7727E-03    -3.43097E-03    -27.9304E+06    -52.9583E+06    -197.111E+06    -53.0535E+06    -197.016E+06    -27.9304E+06     2.77188E+06         30.5216
             914     5.65895E-03     19.1045E-03         3.68846        -1.08772        -1.10907        -1.10736         3.68738        -1.08835    -11.4743E-03     117.602E-03    -58.6896E-03    -58.9469E-03    -58.8748E-03     117.571E-03    -58.7305E-03    -4.47572E-03    -31.3611E+06    -57.3720E+06    -221.104E+06    -57.4501E+06    -221.026E+06    -31.3611E+06     2.30290E+06         30.0328
             915     4.71648E-03     19.1052E-03         3.68637        -1.08501        -1.10376        -1.10000         3.68290        -1.08529     82.9635E-03     117.513E-03    -58.6684E-03    -58.8801E-03    -58.8433E-03     117.476E-03    -58.6684E-03    -4.92500E-03    -37.8924E+06    -62.4448E+06    -238.090E+06    -62.4839E+06    -238.051E+06    -37.8924E+06     1.50211E+06         29.6686
             916     3.77324E-03     19.1086E-03         3.67097        -1.08040        -1.09024        -1.07529         3.66065        -1.08503    -105.802E-03     117.293E-03    -58.4937E-03    -58.8169E-03    -58.6970E-03     117.259E-03    -58.5797E-03    -4.77196E-03    -47.4882E+06    -68.0261E+06    -254.454E+06    -68.0508E+06    -254.430E+06    -47.4882E+06     1.32221E+06         29.3904
             917     2.83043E-03     19.1107E-03         3.68183        -1.07873        -1.10710        -1.06009         3.64757        -1.09147     237.628E-03     116.997E-03    -58.3887E-03    -58.6156E-03    -58.5043E-03     116.971E-03    -58.4747E-03    -4.13113E-03    -60.4901E+06    -73.3192E+06    -262.655E+06    -73.3309E+06    -262.643E+06    -60.4901E+06     593.020E+03         29.1867
             918     1.88710E-03     19.1123E-03         3.78470        -1.09032        -1.20075        -1.09058         3.68292        -1.09871    -358.682E-03     116.807E-03    -58.3696E-03    -58.4450E-03    -58.4070E-03     116.792E-03    -58.3924E-03    -3.21037E-03    -71.0856E+06    -76.9397E+06    -270.398E+06    -76.9574E+06    -270.380E+06    -71.0856E+06     74.3585E+03         29.0515
             919     943.280E-06     19.1139E-03         4.11777    -609.601E-03        -2.01771        -1.59181         3.69186    -609.601E-03         1.25420     116.712E-03    -58.2272E-03    -58.4913E-03    -58.4370E-03     116.704E-03    -58.2736E-03    -2.26746E-03    -76.6587E+06    -79.0202E+06    -273.323E+06    -78.8312E+06    -273.303E+06    -76.8674E+06    -375.403E+03         28.9747
             920     16.0209E-03     18.6792E-03         3.60364        -1.03876        -1.07301        -1.03870         3.60359        -1.07301    -13.4432E-03     187.006E-03    -60.2083E-03    -126.842E-03    -68.3776E-03     128.542E-03    -60.2083E-03     243.966E-03     140.497E+06     138.186E+06    -9.41031E+06    -9.38263E+06     139.622E+06     139.034E+06    -1.61110E+06         60.8470
             921     15.0791E-03     18.3693E-03         3.61348        -1.04814        -1.07501        -1.04808         3.61342        -1.07501     2.71973E-03     176.348E-03    -60.0123E-03    -116.373E-03    -67.7826E-03     127.757E-03    -60.0123E-03     215.099E-03     119.128E+06     112.997E+06    -18.1527E+06    -18.1242E+06     118.510E+06     113.586E+06    -1.62081E+06         57.5995
             922     14.1392E-03     18.1891E-03         3.61017        -1.03969        -1.07717        -1.03965         3.61013        -1.07717     16.7628E-03     140.901E-03    -59.6543E-03    -81.2044E-03    -63.3155E-03     123.012E-03    -59.6543E-03     115.713E-03     104.619E+06     79.4526E+06    -23.5078E+06    -23.4628E+06     104.573E+06     79.4526E+06     993.444E+03         53.3153
             923     13.2014E-03     18.1056E-03         3.62531        -1.04654        -1.07963        -1.04652         3.62529        -1.07963     18.2241E-03     125.108E-03    -59.2345E-03    -65.9565E-03    -61.0761E-03     120.228E-03    -59.2345E-03     58.9654E-03     95.0308E+06     35.2551E+06    -28.5101E+06    -28.4185E+06     94.9392E+06     35.2551E+06     2.42474E+06         48.4779
             924     12.2573E-03     18.0490E-03         3.64290        -1.06278        -1.08154        -1.06275         3.64287        -1.08154     404.243E-06     121.178E-03    -58.8234E-03    -62.4529E-03    -60.8175E-03     119.543E-03    -58.8234E-03     31.4510E-03     86.3748E+06    -4.11160E+06    -32.8256E+06    -32.7110E+06     86.2602E+06    -4.11160E+06     2.99551E+06         43.8974
             925     11.3185E-03     18.0226E-03         3.64182        -1.06436        -1.08304        -1.06432         3.64178        -1.08304    -854.921E-06     119.441E-03    -58.5842E-03    -60.9129E-03    -60.6626E-03     119.191E-03    -58.5842E-03     12.0733E-03     41.1797E+06    -14.9527E+06    -35.6767E+06    -35.2769E+06     40.7799E+06    -14.9527E+06     4.15410E+06         39.9666
             926     10.3762E-03     18.0070E-03         3.64399        -1.06448        -1.08474        -1.06430         3.64381        -1.08474     40.0963E-03     118.895E-03    -58.4303E-03    -60.5355E-03    -60.4724E-03     118.832E-03    -58.4303E-03     6.12483E-03    -11.0294E+06    -24.8017E+06    -47.1820E+06    -38.1896E+06    -28.8107E+06    -16.0128E+06     3.59984E+06         36.7040
             927     9.43579E-03     17.9917E-03         3.65306        -1.07087        -1.08644        -1.07068         3.65287        -1.08644     25.4434E-03     118.200E-03    -58.2142E-03    -60.0331E-03    -59.9937E-03     118.160E-03    -58.2142E-03     1.33699E-03    -23.0498E+06    -41.3795E+06    -80.0008E+06    -41.7050E+06    -79.6753E+06    -23.0498E+06     2.41461E+06         34.1324
             928     8.49286E-03     17.9862E-03         3.66158        -1.07594        -1.08790        -1.07580         3.66144        -1.08790     17.8653E-03     117.389E-03    -58.0691E-03    -59.3451E-03    -59.3117E-03     117.355E-03    -58.0691E-03    -3.83445E-03    -23.0406E+06    -44.7614E+06    -120.044E+06    -44.9484E+06    -119.857E+06    -23.0406E+06     2.77160E+06         32.2826
             929     7.55129E-03     17.9819E-03         3.66791        -1.07918        -1.08921        -1.07904         3.66777        -1.08921     24.3755E-03     116.930E-03    -57.9720E-03    -58.9825E-03    -58.9222E-03     116.870E-03    -57.9720E-03    -5.92425E-03    -22.8557E+06    -48.4003E+06    -158.695E+06    -48.7095E+06    -158.386E+06    -22.8557E+06     4.32413E+06         31.0875
             930     6.60746E-03     17.9813E-03         3.67205        -1.08372        -1.09035        -1.08337         3.67170        -1.09035     53.3525E-03     116.443E-03    -57.8482E-03    -58.6245E-03    -58.5424E-03     116.361E-03    -57.8482E-03    -7.22769E-03    -27.9717E+06    -53.7760E+06    -195.141E+06    -54.0433E+06    -194.873E+06    -27.9717E+06     4.32315E+06         30.3326
             931     5.66513E-03     17.9804E-03         3.68081        -1.08313        -1.09608        -1.08752         3.68026        -1.09114     11.3467E-03     115.831E-03    -57.7423E-03    -58.1199E-03    -58.0308E-03     115.742E-03    -57.7423E-03    -7.62761E-03    -35.2916E+06    -58.2577E+06    -218.623E+06    -58.3403E+06    -218.540E+06    -35.2916E+06     2.42317E+06         29.8255
             932     4.72048E-03     17.9832E-03         3.69397        -1.08326        -1.10160        -1.09136         3.69192        -1.09144     88.7898E-03     115.468E-03    -57.6845E-03    -57.8087E-03    -57.7244E-03     115.383E-03    -57.6845E-03    -7.50136E-03    -42.3948E+06    -62.4879E+06    -238.666E+06    -62.5349E+06    -238.619E+06    -42.3948E+06     2.12709E+06         29.4637
             933     3.77667E-03     17.9849E-03         3.69966        -1.08729        -1.10475        -1.09414         3.69280        -1.09104    -83.4914E-03     115.479E-03    -57.6194E-03    -57.8660E-03    -57.7948E-03     115.408E-03    -57.6194E-03    -6.89991E-03    -49.3858E+06    -67.4327E+06    -253.064E+06    -67.4632E+06    -253.033E+06    -49.3858E+06     1.93716E+06         29.1955
             934     2.83299E-03     17.9885E-03         3.69228        -1.08409        -1.10465        -1.07105         3.66914        -1.09456     196.332E-03     115.232E-03    -57.5172E-03    -57.7176E-03    -57.6707E-03     115.185E-03    -57.5172E-03    -5.52608E-03    -58.8933E+06    -72.3253E+06    -261.284E+06    -72.3373E+06    -261.272E+06    -58.8933E+06     1.12115E+06         28.9999
             935     1.88870E-03     17.9902E-03         3.75147        -1.10002        -1.14932        -1.06869         3.67923        -1.10841    -316.857E-03     114.819E-03    -57.3574E-03    -57.4633E-03    -57.3606E-03     114.796E-03    -57.4376E-03    -3.79916E-03    -69.6050E+06    -76.3036E+06    -269.003E+06    -76.3152E+06    -268.991E+06    -69.6050E+06     231.789E+03         28.8660
             936     944.496E-06     17.9929E-03         4.04766    -737.818E-03        -1.80806        -1.49894         3.73855    -737.818E-03         1.04570     114.835E-03    -57.2744E-03    -57.5578E-03    -57.4447E-03     114.826E-03    -57.3783E-03    -2.42882E-03    -77.4163E+06    -79.5159E+06    -272.961E+06    -79.3158E+06    -272.953E+06    -77.6251E+06    -136.363E+03         28.7918
             937     16.0222E-03     17.5504E-03         3.61626        -1.04490        -1.07363        -1.04482         3.61619        -1.07363    -5.15783E-03     187.539E-03    -60.1393E-03    -127.471E-03    -69.3494E-03     129.417E-03    -60.1393E-03     244.002E-03     141.423E+06     138.918E+06    -9.27426E+06    -9.25250E+06     141.142E+06     139.177E+06    -715.932E+03         60.4708
             938     15.0812E-03     17.2399E-03         3.62403        -1.04528        -1.07553        -1.04522         3.62397        -1.07553     3.86665E-03     176.580E-03    -59.8639E-03    -116.694E-03    -69.0077E-03     128.894E-03    -59.8639E-03     213.506E-03     118.362E+06     112.183E+06    -18.2415E+06    -18.1977E+06     118.318E+06     112.183E+06    -1.76895E+06         57.3225
             939     14.1434E-03     17.0560E-03         3.63002        -1.04664        -1.07760        -1.04660         3.62998        -1.07760     16.5666E-03     141.620E-03    -59.3888E-03    -82.2201E-03    -65.1977E-03     124.598E-03    -59.3888E-03     112.974E-03     101.362E+06     75.8939E+06    -25.7001E+06    -25.6766E+06     101.339E+06     75.8939E+06    -838.226E+03         53.1099
             940     13.2032E-03     16.9776E-03         3.63208        -1.04799        -1.07980        -1.04792         3.63200        -1.07980     34.0234E-03     126.634E-03    -58.8074E-03    -67.9629E-03    -63.6954E-03     122.367E-03    -58.8074E-03     55.3566E-03     93.4471E+06     34.1856E+06    -30.3397E+06    -30.2821E+06     93.3895E+06     34.1856E+06     1.93558E+06         48.3079
             941     12.2676E-03     16.9187E-03         3.64228        -1.05231        -1.08209        -1.05220         3.64216        -1.08209     24.7711E-03     122.184E-03    -58.1676E-03    -64.1129E-03    -62.8488E-03     120.920E-03    -58.1676E-03     26.3993E-03     85.3733E+06    -3.85962E+06    -33.9936E+06    -33.8174E+06     85.1971E+06    -3.85962E+06     4.11399E+06         43.7461
             942     11.3262E-03     16.8961E-03         3.65939        -1.07016        -1.08383        -1.07006         3.65928        -1.08383     23.1659E-03     119.502E-03    -57.7291E-03    -61.8132E-03    -61.7112E-03     119.400E-03    -57.7291E-03     6.22891E-03     42.7862E+06    -16.1908E+06    -36.7703E+06    -36.3221E+06     42.3379E+06    -16.1908E+06     4.71815E+06         39.8338
             943     10.3871E-03     16.8794E-03         3.65766        -1.07228        -1.08501        -1.07195         3.65732        -1.08501     61.4910E-03     118.459E-03    -57.4245E-03    -61.0980E-03    -61.0752E-03     118.436E-03    -57.4245E-03    -46.0467E-06    -9.32051E+06    -24.8412E+06    -48.1060E+06    -38.2729E+06    -26.7976E+06    -17.1972E+06     4.54456E+06         36.5902
             944     9.44564E-03     16.8678E-03         3.65501        -1.06690        -1.08662        -1.06651         3.65462        -1.08662     47.5101E-03     117.307E-03    -57.0630E-03    -60.2719E-03    -60.2006E-03     117.235E-03    -57.0630E-03    -5.11759E-03    -25.1994E+06    -40.6616E+06    -79.8292E+06    -41.5837E+06    -78.9071E+06    -25.1994E+06     4.52503E+06         34.0417
             945     8.50465E-03     16.8619E-03         3.66899        -1.07497        -1.09052        -1.07716         3.66888        -1.08823     16.1205E-03     116.110E-03    -56.7812E-03    -59.3270E-03    -59.1724E-03     115.956E-03    -56.7812E-03    -9.81496E-03    -26.9978E+06    -45.8737E+06    -120.132E+06    -46.3242E+06    -119.681E+06    -26.9978E+06     4.88136E+06         32.1905
             946     7.56056E-03     16.8598E-03         3.68386        -1.08455        -1.09313        -1.08871         3.68373        -1.08885     1.48436E-03     115.038E-03    -56.5911E-03    -58.4482E-03    -58.2442E-03     114.834E-03    -56.5911E-03    -11.4475E-03    -26.3223E+06    -49.9959E+06    -159.069E+06    -50.4698E+06    -158.595E+06    -26.3223E+06     5.32928E+06         30.9310
             947     6.61778E-03     16.8587E-03         3.68363        -1.08360        -1.09113        -1.08535         3.68338        -1.08914     14.0469E-03     114.052E-03    -56.3975E-03    -57.6652E-03    -57.4314E-03     113.819E-03    -56.3975E-03    -12.2949E-03    -30.4077E+06    -53.0226E+06    -192.203E+06    -53.3668E+06    -191.858E+06    -30.4077E+06     5.17272E+06         30.0915
             948     5.67231E-03     16.8612E-03         3.66698        -1.06705        -1.09148        -1.06664         3.66658        -1.09148    -18.5723E-03     113.188E-03    -56.2412E-03    -56.9515E-03    -56.7287E-03     112.965E-03    -56.2412E-03    -11.9902E-03    -39.3242E+06    -58.4428E+06    -216.885E+06    -58.6407E+06    -216.687E+06    -39.3242E+06     4.67523E+06         29.5435
             949     4.72777E-03     16.8629E-03         3.66901        -1.05850        -1.09767        -1.05651         3.66703        -1.09767     84.2702E-03     112.644E-03    -56.1544E-03    -56.4919E-03    -56.3095E-03     112.462E-03    -56.1544E-03    -10.8719E-03    -46.8842E+06    -64.3912E+06    -237.619E+06    -64.4773E+06    -237.533E+06    -46.8842E+06     3.60605E+06         29.1763
             950     3.78221E-03     16.8654E-03         3.71931        -1.08334        -1.12068        -1.09704         3.71478        -1.10244    -38.8851E-03     112.359E-03    -56.0970E-03    -56.2622E-03    -56.1116E-03     112.219E-03    -56.1079E-03    -9.52677E-03    -54.0373E+06    -68.9058E+06    -251.004E+06    -68.9367E+06    -250.973E+06    -54.0373E+06     2.03833E+06         28.9127
             951     2.83658E-03     16.8680E-03         3.74572        -1.09847        -1.13986        -1.12623         3.73209        -1.09847     153.820E-03     112.237E-03    -56.0667E-03    -56.1700E-03    -56.0656E-03     112.144E-03    -56.0776E-03    -7.75490E-03    -60.9767E+06    -72.1977E+06    -260.282E+06    -72.2057E+06    -260.274E+06    -60.9767E+06     828.998E+03         28.7265
             952     1.89110E-03     16.8724E-03         3.74264        -1.08983        -1.15440        -1.10586         3.69411        -1.08983    -279.678E-03     112.085E-03    -55.9804E-03    -56.1011E-03    -55.9953E-03     112.036E-03    -56.0378E-03    -5.37536E-03    -68.5544E+06    -75.8704E+06    -267.666E+06    -75.8724E+06    -267.664E+06    -68.5544E+06     557.133E+03         28.6022
             953     945.098E-06     16.8725E-03         3.91566    -781.533E-03        -1.63498        -1.39042         3.67110    -781.533E-03     945.241E-03     112.012E-03    -55.7711E-03    -56.2352E-03    -56.1616E-03     111.996E-03    -55.8286E-03    -3.08029E-03    -77.4644E+06    -80.9033E+06    -272.496E+06    -80.9068E+06    -272.492E+06    -77.4644E+06     617.264E+03         28.5333
             954     16.0233E-03     16.4242E-03         3.62527        -1.04202        -1.07488        -1.04196         3.62521        -1.07488     32.4433E-03     188.690E-03    -60.0131E-03    -128.662E-03    -71.6369E-03     131.664E-03    -60.0131E-03     243.214E-03     142.409E+06     140.495E+06    -8.13703E+06    -8.13603E+06     142.408E+06     140.495E+06     338.922E+03         60.1407
             955     15.0863E-03     16.1045E-03         3.63848        -1.05404        -1.07713        -1.05396         3.63840        -1.07713     36.9994E-03     177.639E-03    -59.5807E-03    -118.039E-03    -71.2951E-03     130.895E-03    -59.5807E-03     212.522E-03     119.268E+06     113.171E+06    -16.9839E+06    -16.9552E+06     119.239E+06     113.171E+06    -140.899E+03         57.0392
             956     14.1479E-03     15.9284E-03         3.64418        -1.05943        -1.07892        -1.05933         3.64408        -1.07892     40.1596E-03     142.959E-03    -58.9024E-03    -84.1665E-03    -68.2573E-03     127.050E-03    -58.9024E-03     109.232E-03     99.3605E+06     72.9293E+06    -26.7628E+06    -26.7334E+06     99.3311E+06     72.9293E+06    -384.669E+03         52.8791
             957     13.2146E-03     15.8396E-03         3.63833        -1.05243        -1.08077        -1.05231         3.63821        -1.08077     45.6691E-03     127.902E-03    -58.0607E-03    -70.0363E-03    -66.7536E-03     124.619E-03    -58.0607E-03     47.9952E-03     90.2073E+06     31.3505E+06    -33.5620E+06    -33.5464E+06     90.1917E+06     31.3505E+06     861.851E+03         48.1144
             958     12.2781E-03     15.7918E-03         3.64240        -1.05197        -1.08305        -1.05181         3.64224        -1.08305     51.4822E-03     122.668E-03    -57.1610E-03    -65.6089E-03    -64.8945E-03     121.953E-03    -57.1610E-03     18.6191E-03     84.3499E+06    -3.87097E+06    -35.0701E+06    -34.9487E+06     84.2286E+06    -3.87097E+06     2.69153E+06         43.5797
             959     11.3421E-03     15.7667E-03         3.65859        -1.06562        -1.08508        -1.06545         3.65842        -1.08508     26.4363E-03     119.687E-03    -56.4810E-03    -63.2140E-03    -63.1611E-03     119.634E-03    -56.4810E-03    -174.694E-06     44.3366E+06    -17.1861E+06    -36.1847E+06    -35.5089E+06     43.6607E+06    -17.1861E+06     4.82129E+06         39.6923
             960     10.4022E-03     15.7545E-03         3.66686        -1.07457        -1.08646        -1.07416         3.66645        -1.08646     47.9769E-03     117.967E-03    -55.9615E-03    -62.0312E-03    -61.9402E-03     117.876E-03    -55.9615E-03    -7.15472E-03    -7.11664E+06    -26.0058E+06    -48.5243E+06    -38.3867E+06    -25.7937E+06    -17.4664E+06     6.05019E+06         36.4742
             961     9.46191E-03     15.7427E-03         3.67518        -1.07952        -1.08943        -1.08119         3.67476        -1.08734     63.4612E-03     116.010E-03    -55.4038E-03    -60.6058E-03    -60.3337E-03     115.738E-03    -55.4038E-03    -12.5817E-03    -26.0499E+06    -40.6921E+06    -80.3902E+06    -42.2503E+06    -78.8320E+06    -26.0499E+06     6.76199E+06         33.9603
             962     8.51901E-03     15.7411E-03         3.68993        -1.08383        -1.09517        -1.09142         3.68978        -1.08744     36.5746E-03     114.148E-03    -54.9439E-03    -59.1676E-03    -58.7295E-03     113.710E-03    -54.9439E-03    -16.9166E-03    -29.4494E+06    -44.0389E+06    -118.725E+06    -44.9106E+06    -117.854E+06    -29.4494E+06     7.14760E+06         32.1141
             963     7.57663E-03     15.7394E-03         3.69374        -1.08674        -1.09459        -1.09442         3.69357        -1.08674     12.4498E-03     112.421E-03    -54.6190E-03    -57.7772E-03    -57.2816E-03     111.926E-03    -54.6190E-03    -17.9557E-03    -28.2507E+06    -46.9434E+06    -156.826E+06    -47.4804E+06    -156.289E+06    -28.2507E+06     6.29436E+06         30.7762
             964     6.63054E-03     15.7412E-03         3.67574        -1.07527        -1.08915        -1.07723         3.67550        -1.08694     10.3203E-03     110.814E-03    -54.3403E-03    -56.4627E-03    -55.9398E-03     110.291E-03    -54.3403E-03    -18.3475E-03    -30.6354E+06    -52.0155E+06    -191.924E+06    -52.4514E+06    -191.488E+06    -30.6354E+06     6.78777E+06         29.8221
             965     5.68495E-03     15.7435E-03         3.66464        -1.06404        -1.08981        -1.06364         3.66423        -1.08981    -16.8423E-03     109.589E-03    -54.1250E-03    -55.4434E-03    -54.9703E-03     109.116E-03    -54.1250E-03    -17.3488E-03    -37.0417E+06    -57.4462E+06    -214.906E+06    -57.8267E+06    -214.525E+06    -37.0417E+06     7.51095E+06         29.1975
             966     4.73767E-03     15.7469E-03         3.67268        -1.06371        -1.09563        -1.06288         3.67145        -1.09523     53.0945E-03     108.651E-03    -53.9767E-03    -54.6528E-03    -54.2777E-03     108.276E-03    -53.9767E-03    -15.3412E-03    -45.7089E+06    -62.3649E+06    -233.651E+06    -62.5893E+06    -233.426E+06    -45.7089E+06     5.68629E+06         28.8021
             967     3.79037E-03     15.7502E-03         3.70535        -1.07924        -1.11040        -1.08619         3.70216        -1.10026    -51.1832E-03     108.069E-03    -53.9019E-03    -54.1602E-03    -53.8798E-03     107.799E-03    -53.9128E-03    -12.9620E-03    -55.0160E+06    -67.3429E+06    -247.870E+06    -67.3974E+06    -247.816E+06    -55.0160E+06     2.72304E+06         28.5338
             968     2.84262E-03     15.7532E-03         3.74312        -1.09477        -1.13157        -1.12047         3.73562        -1.09837     76.5432E-03     107.920E-03    -53.8871E-03    -54.0274E-03    -53.8424E-03     107.746E-03    -53.8980E-03    -10.3906E-03    -63.0802E+06    -71.5301E+06    -259.034E+06    -71.5378E+06    -259.026E+06    -63.0802E+06     675.113E+03         28.3514
             969     1.89517E-03     15.7564E-03         3.75166        -1.08525        -1.15254        -1.12302         3.72214        -1.08525    -261.887E-03     107.868E-03    -53.8648E-03    -53.9972E-03    -53.9084E-03     107.779E-03    -53.8648E-03    -7.32137E-03    -68.5085E+06    -75.1950E+06    -267.574E+06    -75.2024E+06    -267.567E+06    -68.5085E+06     743.380E+03         28.2370
             970     948.183E-06     15.7581E-03         3.84688    -807.115E-03        -1.53384        -1.34454         3.65757    -807.115E-03     860.474E-03     107.645E-03    -53.6769E-03    -53.9685E-03    -53.9224E-03     107.617E-03    -53.6948E-03    -3.86996E-03    -75.2184E+06    -79.2750E+06    -270.700E+06    -79.0859E+06    -270.689E+06    -75.4183E+06       729.4E+03         28.1735
             971     16.0284E-03     15.2884E-03         3.61744        -1.03312        -1.07624        -1.03308         3.61740        -1.07624     20.0502E-03     190.119E-03    -59.8210E-03    -130.081E-03    -74.9901E-03     135.028E-03    -59.8210E-03     241.078E-03     142.777E+06     141.154E+06    -8.36707E+06    -8.36627E+06     142.291E+06     141.639E+06     308.191E+03         59.8096
             972     15.0904E-03     14.9764E-03         3.62472        -1.04487        -1.07865        -1.04482         3.62467        -1.07865     30.4143E-03     180.072E-03    -59.1311E-03    -120.786E-03    -75.5543E-03     134.840E-03    -59.1311E-03     211.239E-03     119.302E+06     113.778E+06    -17.6894E+06    -17.6815E+06     119.294E+06     113.778E+06     727.658E+03         56.7400
             973     14.1604E-03     14.7864E-03         3.63615        -1.05544        -1.08063        -1.05537         3.63608        -1.08063     31.1310E-03     145.141E-03    -58.1349E-03    -87.0950E-03    -72.6437E-03     130.690E-03    -58.1349E-03     104.245E-03     99.8218E+06     75.5534E+06    -26.1775E+06    -26.1383E+06     99.7827E+06     75.5534E+06     1.40695E+06         52.6230
             974     13.2301E-03     14.7090E-03         3.64637        -1.06040        -1.08234        -1.06028         3.64625        -1.08234     41.1758E-03     128.149E-03    -56.9635E-03    -71.4142E-03    -69.0286E-03     125.764E-03    -56.9635E-03     41.0374E-03     90.4413E+06     31.9408E+06    -31.9753E+06    -31.9332E+06     90.3992E+06     31.9408E+06     910.409E+03         47.8983
             975     12.2965E-03     14.6594E-03         3.65486        -1.06409        -1.08393        -1.06387         3.65464        -1.08393     60.6957E-03     122.810E-03    -55.8168E-03    -67.1175E-03    -66.6599E-03     122.352E-03    -55.8168E-03     12.6452E-03     81.6769E+06    -8.04132E+06    -35.8612E+06    -35.7670E+06     81.5827E+06    -8.04132E+06     1.61078E+06         43.3954
             976     11.3591E-03     14.6406E-03         3.65752        -1.06433        -1.08560        -1.06411         3.65730        -1.08560     34.8290E-03     120.059E-03    -54.8823E-03    -65.1744E-03    -65.0710E-03     119.955E-03    -54.8823E-03    -6.27156E-03     42.6829E+06    -20.2398E+06    -38.3909E+06    -37.7495E+06     42.0415E+06    -20.2398E+06     4.51177E+06         39.5378
             977     10.4223E-03     14.6280E-03         3.66942        -1.07409        -1.08948        -1.07626         3.66907        -1.08696     46.7171E-03     117.653E-03    -54.0825E-03    -63.5449E-03    -63.2317E-03     117.340E-03    -54.0825E-03    -14.2724E-03    -5.76350E+06    -26.1773E+06    -50.9829E+06    -39.7357E+06    -25.5693E+06    -17.6186E+06     7.68876E+06         36.3487
             978     9.48270E-03     14.6221E-03         3.68272        -1.08458        -1.09196        -1.08880         3.68234        -1.08736     63.6392E-03     114.619E-03    -53.2649E-03    -61.3216E-03    -60.6876E-03     113.985E-03    -53.2649E-03    -20.4019E-03    -24.9866E+06    -39.3325E+06    -79.3159E+06    -42.3354E+06    -76.3130E+06    -24.9866E+06     8.03214E+06         33.8640
             979     8.54061E-03     14.6215E-03         3.68218        -1.07728        -1.09301        -1.08246         3.68192        -1.08756     53.4651E-03     111.622E-03    -52.5743E-03    -59.0082E-03    -58.1292E-03     110.742E-03    -52.5743E-03    -24.1497E-03    -29.9576E+06    -42.6004E+06    -116.107E+06    -43.3483E+06    -115.359E+06    -29.9576E+06     6.40911E+06         32.0182
             980     7.59502E-03     14.6237E-03         3.67836        -1.07319        -1.09215        -1.07658         3.67818        -1.08858     51.9650E-03     109.171E-03    -52.0749E-03    -57.0734E-03    -56.0960E-03     108.194E-03    -52.0749E-03    -25.0812E-03    -26.4346E+06    -44.3578E+06    -157.127E+06    -45.0064E+06    -156.478E+06    -26.4346E+06     8.29224E+06         30.6158
             981     6.64943E-03     14.6273E-03         3.68537        -1.07544        -1.09468        -1.07993         3.68520        -1.09002     44.3028E-03     106.916E-03    -51.6426E-03    -55.2550E-03    -54.2739E-03     105.935E-03    -51.6426E-03    -24.8593E-03    -27.2415E+06    -49.1998E+06    -191.052E+06    -49.9772E+06    -190.274E+06    -27.2415E+06     10.1627E+06         29.5515
             982     5.70097E-03     14.6320E-03         3.71042        -1.08120        -1.10859        -1.09971         3.71026        -1.08992     21.0440E-03     104.960E-03    -51.2883E-03    -53.6487E-03    -52.7966E-03     104.108E-03    -51.2883E-03    -22.9312E-03    -35.1496E+06    -54.7806E+06    -211.569E+06    -55.3472E+06    -211.002E+06    -35.1496E+06     8.94501E+06         28.8180
             983     4.75199E-03     14.6364E-03         3.72152        -1.08613        -1.11220        -1.11130         3.72115        -1.08666     44.1835E-03     103.459E-03    -51.0380E-03    -52.4003E-03    -51.7263E-03     102.785E-03    -51.0380E-03    -20.1897E-03    -44.0455E+06    -59.2952E+06    -229.040E+06    -59.6572E+06    -228.678E+06    -44.0455E+06     7.50005E+06         28.3571
             984     3.80168E-03     14.6401E-03         3.68957        -1.07411        -1.09559        -1.08400         3.68815        -1.08427    -40.8012E-03     102.471E-03    -50.9083E-03    -51.5531E-03    -51.0781E-03     101.996E-03    -50.9083E-03    -16.8180E-03    -53.4089E+06    -64.4382E+06    -243.536E+06    -64.6308E+06    -243.344E+06    -53.4089E+06     5.17599E+06         28.0652
             985     2.85146E-03     14.6434E-03         3.67261        -1.06140        -1.09128        -1.05915         3.66846        -1.08938     75.9400E-03     101.992E-03    -50.8718E-03    -51.1119E-03    -50.8202E-03     101.701E-03    -50.8718E-03    -13.0920E-03    -62.2823E+06    -70.3304E+06    -257.138E+06    -70.3922E+06    -257.077E+06    -62.2823E+06     2.78405E+06         27.8742
             986     1.90092E-03     14.6460E-03         3.73644        -1.07746        -1.12919        -1.09191         3.71698        -1.09528    -226.969E-03     101.795E-03    -50.8180E-03    -50.9690E-03    -50.7811E-03     101.651E-03    -50.8621E-03    -9.03342E-03    -70.1492E+06    -75.2165E+06    -266.967E+06    -75.1975E+06    -266.931E+06    -70.2038E+06     1.86633E+06         27.7577
             987     950.086E-06     14.6482E-03         3.82656    -882.097E-03        -1.42814        -1.31016         3.70858    -882.097E-03     632.525E-03     101.731E-03    -50.7171E-03    -51.0141E-03    -50.9058E-03     101.685E-03    -50.7791E-03    -4.79567E-03    -76.0060E+06    -77.9503E+06    -268.006E+06    -77.5024E+06    -267.994E+06    -76.4657E+06     81.0749E+03         27.6956
             988     16.0305E-03     14.1587E-03         3.61866        -1.04009        -1.07664        -1.04001         3.61858        -1.07664     11.3550E-03     192.153E-03    -59.5290E-03    -132.591E-03    -80.2902E-03     139.852E-03    -59.5290E-03     237.877E-03     141.831E+06     139.925E+06    -8.05383E+06    -8.04809E+06     141.246E+06     140.504E+06     124.795E+03         59.4549
             989     15.1019E-03     13.8340E-03         3.61981        -1.03679        -1.07908        -1.03665         3.61968        -1.07908     44.4083E-03     183.480E-03    -58.4831E-03    -124.994E-03    -81.3459E-03     139.832E-03    -58.4831E-03     210.917E-03     119.010E+06     113.795E+06    -16.7293E+06    -16.6583E+06     118.845E+06     113.889E+06     1.95967E+06         56.4115
             990     14.1770E-03     13.6465E-03         3.63501        -1.04803        -1.08157        -1.04788         3.63485        -1.08157     44.8806E-03     146.000E-03    -57.1722E-03    -89.0266E-03    -75.7272E-03     132.701E-03    -57.1722E-03     100.498E-03     101.022E+06     75.7654E+06    -24.4686E+06    -24.3670E+06     100.920E+06     75.7654E+06     2.34829E+06         52.3318
             991     13.2466E-03     13.5732E-03         3.65894        -1.06407        -1.08342        -1.06385         3.65872        -1.08342     57.7336E-03     128.527E-03    -55.7481E-03    -73.1304E-03    -71.1615E-03     126.558E-03    -55.7481E-03     37.4173E-03     90.7648E+06     31.7370E+06    -30.6456E+06    -30.4541E+06     90.5732E+06     31.7370E+06     2.58589E+06         47.6478
             992     12.3135E-03     13.5280E-03         3.66973        -1.06861        -1.08476        -1.06838         3.66951        -1.08476     61.0136E-03     123.980E-03    -54.3158E-03    -69.8291E-03    -69.4311E-03     123.582E-03    -54.3158E-03     8.49657E-03     80.4719E+06    -8.40898E+06    -36.3732E+06    -36.1306E+06     80.2293E+06    -8.40898E+06     3.38110E+06         43.1861
             993     11.3816E-03     13.5111E-03         3.66933        -1.06641        -1.08622        -1.06628         3.66920        -1.08622     43.7396E-03     120.619E-03    -53.0448E-03    -67.5744E-03    -67.3506E-03     120.395E-03    -53.0448E-03    -11.6947E-03     40.5358E+06    -22.3454E+06    -40.5769E+06    -39.8236E+06     39.7825E+06    -22.3454E+06     4.81359E+06         39.3669
             994     10.4456E-03     13.5030E-03         3.67988        -1.07795        -1.08989        -1.08003         3.67944        -1.08738     79.6965E-03     117.195E-03    -51.9211E-03    -65.2600E-03    -64.6604E-03     116.596E-03    -51.9211E-03    -20.3439E-03    -7.52238E+06    -28.3176E+06    -51.4720E+06    -41.5672E+06    -25.9853E+06    -19.7595E+06     7.27433E+06         36.2093
             995     9.50705E-03     13.5017E-03         3.69156        -1.08553        -1.09256        -1.09000         3.69106        -1.08759     87.4480E-03     113.237E-03    -50.8033E-03    -62.4148E-03    -61.3600E-03     112.183E-03    -50.8033E-03    -26.7959E-03    -24.5274E+06    -38.9759E+06    -75.3057E+06    -42.1099E+06    -72.1717E+06    -24.5274E+06     7.87504E+06         33.7449
             996     8.56433E-03     13.5067E-03         3.68315        -1.07343        -1.09062        -1.07564         3.68292        -1.08817     33.0354E-03     109.277E-03    -49.8099E-03    -59.4398E-03    -58.0367E-03     107.874E-03    -49.8099E-03    -30.4462E-03    -30.6336E+06    -44.0165E+06    -114.811E+06    -45.2540E+06    -113.574E+06    -30.6336E+06     7.99638E+06         31.8958
             997     7.61976E-03     13.5119E-03         3.67565        -1.06614        -1.09040        -1.06600         3.67551        -1.09040     13.4783E-03     105.606E-03    -49.0180E-03    -56.5795E-03    -55.0183E-03     104.044E-03    -49.0180E-03    -31.5003E-03    -32.4003E+06    -48.6728E+06    -158.935E+06    -49.4337E+06    -158.174E+06    -32.4003E+06     9.09674E+06         30.4535
             998     6.67113E-03     13.5192E-03         3.69826        -1.08153        -1.09760        -1.08675         3.69821        -1.09233     23.2492E-03     102.372E-03    -48.3626E-03    -53.9927E-03    -52.4494E-03     100.829E-03    -48.3626E-03    -30.7424E-03    -31.3441E+06    -50.0204E+06    -189.169E+06    -50.8425E+06    -188.347E+06    -31.3441E+06     10.5827E+06         29.3083
             999     5.72130E-03     13.5263E-03         3.72634        -1.09093        -1.11279        -1.11254         3.72609        -1.09093     46.2399E-03     99.6044E-03    -47.8381E-03    -51.7446E-03    -50.4013E-03     98.2611E-03    -47.8381E-03    -28.1773E-03    -34.4418E+06    -52.6489E+06    -207.472E+06     -53.473E+06    -206.648E+06    -34.4418E+06     10.8107E+06         28.4633
            1000     4.76922E-03     13.5324E-03         3.72785        -1.08618        -1.11396        -1.11298         3.72715        -1.08645     90.9545E-03     97.3435E-03    -47.4295E-03    -49.9013E-03    -48.8475E-03     96.2897E-03    -47.4295E-03    -24.6066E-03    -43.8989E+06    -58.3634E+06    -225.466E+06    -58.9678E+06    -224.861E+06    -43.8989E+06     9.50594E+06         27.8960
            1001     3.81654E-03     13.5378E-03         3.70536        -1.07578        -1.09929        -1.09169         3.70460        -1.08261     12.5711E-03     95.6758E-03    -47.1699E-03    -48.4927E-03    -47.7567E-03     94.9397E-03    -47.1699E-03    -20.2900E-03    -53.8675E+06    -63.4953E+06    -239.029E+06    -63.9188E+06    -238.606E+06    -53.8675E+06     8.19565E+06         27.5376
            1002     2.86232E-03     13.5411E-03         3.67093        -1.05387        -1.09210        -1.05690         3.66820        -1.08635     101.152E-03     94.6413E-03    -47.0655E-03    -47.5629E-03    -47.1183E-03     94.1967E-03    -47.0655E-03    -15.6150E-03    -61.4400E+06    -68.1964E+06    -252.890E+06    -68.4508E+06    -252.635E+06    -61.4400E+06     6.00988E+06         27.3141
            1003     1.90815E-03     13.5445E-03         3.69714        -1.07048        -1.11239        -1.07581         3.68648        -1.09639    -123.988E-03     94.2357E-03    -46.9943E-03    -47.2309E-03    -46.9669E-03     94.0159E-03    -47.0385E-03    -10.7575E-03    -68.6078E+06    -72.5647E+06    -263.806E+06    -72.6028E+06    -263.713E+06    -68.6624E+06     3.77825E+06         27.1799
            1004     954.078E-06     13.5461E-03         3.77051    -950.995E-03        -1.30597        -1.25218         3.71671    -950.995E-03     390.813E-03     94.1087E-03    -46.8666E-03    -47.2366E-03    -47.1204E-03     94.0367E-03    -46.9108E-03    -5.92935E-03    -74.8769E+06    -76.1740E+06    -265.023E+06    -75.5456E+06    -264.975E+06    -75.5539E+06     1.10502E+06         27.1099
            1005     16.0372E-03     13.0196E-03         3.62066        -1.04229        -1.07760        -1.04210         3.62048        -1.07760     40.7070E-03     194.665E-03    -59.1282E-03    -135.700E-03    -86.9338E-03     145.899E-03    -59.1282E-03     232.757E-03     140.601E+06     139.391E+06    -7.98577E+06    -7.97180E+06     140.048E+06     139.930E+06    -29.5948E+03         59.0662
            1006     15.1146E-03     12.6862E-03         3.63638        -1.05046        -1.07991        -1.05025         3.63617        -1.07991     61.5850E-03     184.798E-03    -57.7323E-03    -127.392E-03    -85.0635E-03     142.470E-03    -57.7323E-03     209.747E-03     117.403E+06     112.864E+06    -16.5158E+06    -16.4394E+06     117.134E+06     113.056E+06     2.33055E+06         56.0443
            1007     14.1894E-03     12.5078E-03         3.65050        -1.05356        -1.08194        -1.05335         3.65029        -1.08194     61.1055E-03     146.400E-03    -56.1748E-03    -90.5275E-03    -78.0005E-03     133.873E-03    -56.1748E-03     97.5484E-03     100.687E+06     75.0447E+06    -24.5815E+06    -24.3768E+06     100.482E+06     75.0447E+06     3.48990E+06         51.9955
            1008     13.2611E-03     12.4365E-03         3.66399        -1.06375        -1.08358        -1.06354         3.66378        -1.08358     60.2020E-03     130.433E-03    -54.4898E-03    -76.2822E-03    -74.6189E-03     128.770E-03    -54.4898E-03     33.4352E-03     90.3944E+06     31.8465E+06    -31.3778E+06    -31.0880E+06     90.1046E+06     31.8465E+06     4.02981E+06         47.3596
            1009     12.3352E-03     12.3925E-03         3.66817        -1.06647        -1.08496        -1.06634         3.66805        -1.08496     45.7988E-03     125.040E-03    -52.7347E-03    -72.4792E-03    -72.1957E-03     124.756E-03    -52.7347E-03     3.30583E-03     80.5101E+06    -6.34932E+06    -36.0656E+06    -35.5181E+06     79.9626E+06    -6.34932E+06     5.53987E+06         42.9514
            1010     11.4032E-03     12.3824E-03         3.67847        -1.07192        -1.08803        -1.07370         3.67838        -1.08616     38.1679E-03     120.618E-03    -51.1438E-03    -69.4894E-03    -69.1385E-03     120.267E-03    -51.1438E-03    -15.5356E-03     40.7470E+06    -21.2440E+06    -39.8749E+06    -38.8044E+06     39.6765E+06    -21.2440E+06     6.69710E+06         39.1786
            1011     10.4696E-03     12.3789E-03         3.69151        -1.08220        -1.08912        -1.08427         3.69125        -1.08679     62.0682E-03     116.682E-03    -49.7011E-03    -66.9817E-03    -66.1296E-03     115.830E-03    -49.7011E-03    -24.4251E-03    -8.74824E+06    -28.3710E+06    -49.0650E+06    -40.7284E+06    -24.3237E+06    -21.1322E+06     6.57553E+06         36.0582
            1012     9.53134E-03     12.3851E-03         3.69295        -1.08173        -1.08996        -1.08438         3.69269        -1.08705     60.2333E-03     112.165E-03    -48.2547E-03    -63.9028E-03    -62.4513E-03     110.714E-03    -48.2547E-03    -31.5727E-03    -26.2668E+06    -39.6687E+06    -74.4585E+06    -42.5527E+06    -71.5745E+06    -26.2668E+06     7.63483E+06         33.6184
            1013     8.59065E-03     12.3940E-03         3.69546        -1.07851        -1.09063        -1.08154         3.69537        -1.08752     12.0620E-03     107.246E-03    -46.9166E-03    -60.3057E-03    -58.4086E-03     105.349E-03    -46.9166E-03    -35.3362E-03    -30.2534E+06    -42.7685E+06    -115.083E+06    -44.4893E+06    -113.362E+06    -30.2534E+06     10.1619E+06         31.7759
            1014     7.64479E-03     12.4057E-03         3.70081        -1.07926        -1.09273        -1.08378         3.70072        -1.08813     7.00862E-03     102.334E-03    -45.7827E-03    -56.5365E-03    -54.4396E-03     100.237E-03    -45.7827E-03    -36.1778E-03    -32.3417E+06    -47.1174E+06    -157.854E+06    -48.4419E+06    -156.529E+06    -32.3417E+06     11.6192E+06         30.3166
            1015     6.69586E-03     12.4165E-03         3.69960        -1.07958        -1.09351        -1.08426         3.69953        -1.08875     23.8238E-03     97.8451E-03    -44.8154E-03    -53.0125E-03    -50.9359E-03     95.7685E-03    -44.8154E-03    -35.0719E-03    -35.3496E+06    -53.1544E+06    -186.939E+06    -54.0654E+06    -186.028E+06    -35.3496E+06     10.8188E+06         29.1249
            1016     5.74358E-03     12.4273E-03         3.69287        -1.07783        -1.09306        -1.08073         3.69259        -1.08988     30.2766E-03     93.9773E-03    -44.0343E-03    -49.9243E-03    -48.0850E-03     92.1379E-03    -44.0343E-03    -32.2148E-03    -38.1931E+06    -56.4693E+06    -204.982E+06    -57.2408E+06    -204.211E+06    -38.1931E+06     10.3996E+06         28.1963
            1017     4.78923E-03     12.4364E-03         3.69614        -1.08093        -1.09392        -1.08260         3.69545        -1.09156     65.8488E-03     90.7192E-03    -43.4269E-03    -47.2830E-03    -45.8328E-03     89.2690E-03    -43.4269E-03    -27.9860E-03    -43.2753E+06    -58.3960E+06    -222.170E+06    -59.2238E+06    -221.342E+06    -43.2753E+06     11.0712E+06         27.5168
            1018     3.83260E-03     12.4433E-03         3.72347        -1.08746        -1.10818        -1.10402         3.72265        -1.09081    -8.84022E-03     88.2520E-03    -42.9839E-03    -45.2556E-03    -44.2382E-03     87.2345E-03    -42.9839E-03    -23.0056E-03    -52.3734E+06    -62.1074E+06    -233.902E+06    -62.7557E+06    -233.254E+06    -52.3734E+06     9.93457E+06         27.0557
            1019     2.87535E-03     12.4482E-03         3.72396        -1.07768        -1.11558        -1.10618         3.72266        -1.08577     18.9034E-03     86.5786E-03    -42.7178E-03    -43.8471E-03    -43.2296E-03     85.9611E-03    -42.7178E-03    -17.6363E-03    -59.1132E+06    -64.8016E+06    -246.884E+06    -65.1839E+06    -246.502E+06    -59.1132E+06     7.74089E+06         26.7630
            1020     1.91690E-03     12.4514E-03         3.69943        -1.07038        -1.09786        -1.08152         3.69543        -1.08271    -92.0360E-03     85.6117E-03    -42.5672E-03    -43.0317E-03    -42.7349E-03     85.3148E-03    -42.5672E-03    -11.9482E-03    -63.7605E+06    -68.2853E+06    -259.168E+06    -68.4809E+06    -258.972E+06    -63.7605E+06     5.22376E+06         26.5857
            1021     958.788E-06     12.4531E-03         3.72813    -995.973E-03        -1.19495        -1.16589         3.70331        -1.00021     299.504E-03     85.0759E-03    -42.3631E-03    -42.7037E-03    -42.6057E-03     84.9780E-03    -42.3631E-03    -6.64040E-03    -69.4217E+06    -72.2116E+06    -260.998E+06    -71.8895E+06    -260.875E+06    -69.8668E+06     3.48174E+06         26.4888
            1022     16.0489E-03     11.8709E-03         3.62253        -1.03947        -1.07854        -1.03934         3.62240        -1.07854     38.2331E-03     197.808E-03    -58.7198E-03    -139.128E-03    -93.3211E-03     152.001E-03    -58.7198E-03     228.314E-03     139.929E+06     138.095E+06    -7.72648E+06    -7.70644E+06     138.711E+06     139.294E+06    -215.529E+03         58.6328
            1023     15.1268E-03     11.5429E-03         3.63775        -1.05352        -1.08051        -1.05325         3.63749        -1.08051     63.8217E-03     186.444E-03    -57.0164E-03    -129.519E-03    -88.3173E-03     145.242E-03    -57.0164E-03     208.503E-03     116.406E+06     112.188E+06    -16.4474E+06    -16.2924E+06     115.400E+06     113.040E+06     3.04929E+06         55.6297
            1024     14.2020E-03     11.3657E-03         3.65226        -1.06126        -1.08202        -1.06091         3.65192        -1.08202     75.9874E-03     147.966E-03    -55.1850E-03    -92.8373E-03    -81.0635E-03     136.192E-03    -55.1850E-03     95.1691E-03     100.110E+06     77.2141E+06    -24.4395E+06    -24.1588E+06     99.8292E+06     77.2141E+06     4.35326E+06         51.6141
            1025     13.2820E-03     11.2928E-03         3.65464        -1.06152        -1.08349        -1.06117         3.65428        -1.08349     75.7052E-03     131.800E-03    -53.2276E-03    -78.8047E-03    -77.3685E-03     130.364E-03    -53.2276E-03     30.4922E-03     90.4123E+06     34.7204E+06    -31.2648E+06    -30.7588E+06     89.9064E+06     34.7204E+06     5.42387E+06         47.0341
            1026     12.3547E-03     11.2603E-03         3.66791        -1.06795        -1.08589        -1.06862         3.66758        -1.08489     72.2555E-03     125.032E-03    -51.2225E-03    -74.0000E-03    -73.8117E-03     124.843E-03    -51.2225E-03     1.03592E-03     80.0367E+06    -6.24587E+06    -36.0630E+06    -35.2974E+06     79.2710E+06    -6.24587E+06     6.69283E+06         42.6889
            1027     11.4243E-03     11.2530E-03         3.69403        -1.08108        -1.09548        -1.09105         3.69379        -1.08527     66.9452E-03     120.486E-03    -49.3829E-03    -71.1622E-03    -70.7504E-03     120.075E-03    -49.3829E-03    -16.7277E-03     42.8366E+06    -20.7594E+06    -38.2439E+06    -36.8462E+06     41.4388E+06    -20.7594E+06     7.39762E+06         38.9736
            1028     10.4907E-03     11.2569E-03         3.70175        -1.08450        -1.09683        -1.09665         3.70157        -1.08450     57.3963E-03     116.358E-03    -47.6609E-03    -68.6909E-03    -67.6431E-03     115.310E-03    -47.6609E-03    -27.1929E-03    -6.01566E+06    -27.0338E+06    -48.3534E+06    -39.7153E+06    -22.1957E+06    -19.4918E+06     8.25245E+06         35.9037
            1029     9.55550E-03     11.2676E-03         3.68708        -1.07298        -1.08753        -1.07600         3.68697        -1.08440     42.3775E-03     110.997E-03    -45.9108E-03    -65.0680E-03    -63.3666E-03     109.296E-03    -45.9108E-03    -34.2833E-03    -25.1379E+06    -40.3802E+06    -75.3128E+06    -43.9478E+06    -71.7452E+06    -25.1379E+06     8.81600E+06         33.5036
            1030     8.61417E-03     11.2853E-03         3.68869        -1.06929        -1.08639        -1.06991         3.68863        -1.08572     27.2248E-03     105.314E-03    -44.2581E-03    -61.0395E-03    -58.8848E-03     103.160E-03    -44.2581E-03    -37.5526E-03    -27.9858E+06    -45.1675E+06    -115.839E+06    -47.1032E+06    -113.903E+06    -27.9858E+06     10.5092E+06         31.6866
            1031     7.66913E-03     11.3022E-03         3.71214        -1.08137        -1.09529        -1.09019         3.71205        -1.08638     38.0825E-03     99.6574E-03    -42.7778E-03    -56.8600E-03    -54.4491E-03     97.2465E-03    -42.7778E-03    -38.5254E-03    -28.2650E+06    -46.7347E+06    -156.090E+06    -48.2377E+06    -154.587E+06    -28.2650E+06     12.4974E+06         30.2353
            1032     6.71949E-03     11.3200E-03         3.71590        -1.08062        -1.10106        -1.09619         3.71581        -1.08539     34.6345E-03     93.9776E-03    -41.4618E-03    -52.4960E-03    -50.0915E-03     91.5731E-03    -41.4618E-03    -37.2133E-03    -30.3893E+06    -48.4078E+06    -182.540E+06    -49.5471E+06    -181.401E+06    -30.3893E+06     12.1770E+06         29.0298
            1033     5.76597E-03     11.3351E-03         3.70326        -1.07272        -1.09571        -1.08360         3.70319        -1.08477     1.78281E-03     88.8121E-03    -40.3603E-03    -48.4330E-03    -46.2816E-03     86.6607E-03    -40.3603E-03    -34.0675E-03    -34.6886E+06    -52.8031E+06    -203.046E+06    -53.5570E+06    -202.292E+06    -34.6886E+06     10.4453E+06         28.0601
            1034     4.80894E-03     11.3484E-03         3.69772        -1.06840        -1.08994        -1.07183         3.69762        -1.08642     10.5158E-03     84.4493E-03    -39.4652E-03    -44.9742E-03    -43.2509E-03     82.7261E-03    -39.4652E-03    -29.5914E-03    -40.8291E+06    -57.0881E+06    -220.038E+06    -57.8342E+06    -219.292E+06    -40.8291E+06     10.6432E+06         27.3118
            1035     3.84978E-03     11.3573E-03         3.70858        -1.06952        -1.10060        -1.08078         3.70822        -1.08898    -13.4072E-03     80.9719E-03    -38.7697E-03    -42.1984E-03    -40.9720E-03     79.7455E-03    -38.7697E-03    -24.3288E-03    -48.5436E+06    -59.6906E+06    -228.230E+06    -60.4600E+06    -227.461E+06    -48.5436E+06     10.7118E+06         26.7649
            1036     2.88850E-03     11.3648E-03         3.72514        -1.07875        -1.11206        -1.10266         3.72446        -1.08747     21.1268E-03     78.4554E-03    -38.2784E-03    -40.1713E-03    -39.4241E-03     77.7082E-03    -38.2784E-03    -18.5277E-03    -56.1826E+06    -64.3149E+06    -242.130E+06    -64.8612E+06    -241.583E+06    -56.1826E+06     9.30352E+06         26.3901
            1037     1.92656E-03     11.3691E-03         3.71541        -1.07682        -1.10183        -1.09627         3.71409        -1.08106    -31.7705E-03     76.6929E-03    -37.9271E-03    -38.7543E-03    -38.4000E-03     76.3386E-03    -37.9271E-03    -12.4179E-03    -63.5187E+06    -70.5375E+06    -252.226E+06    -69.7260E+06    -251.903E+06    -64.6528E+06     6.86914E+06         26.1504
            1038     963.059E-06     11.3711E-03         3.71077        -1.02984        -1.14043        -1.12028         3.69486        -1.03408     292.573E-03     75.6672E-03    -37.6201E-03    -38.0365E-03    -37.8517E-03     75.5493E-03    -37.6871E-03    -6.84705E-03    -70.4104E+06    -74.0673E+06    -255.225E+06    -73.1000E+06    -255.030E+06    -71.5726E+06     4.17782E+06         26.0140
            1039     16.0496E-03     10.7154E-03         3.62317        -1.04597        -1.07868        -1.04572         3.62292        -1.07868     46.8756E-03     200.107E-03    -58.4623E-03    -141.521E-03    -99.2330E-03     157.820E-03    -58.4623E-03     221.924E-03     137.851E+06     135.014E+06    -9.46670E+06    -9.45399E+06     137.086E+06     135.767E+06     44.3799E+03         58.1454
            1040     15.1339E-03     10.3933E-03         3.63541        -1.04981        -1.08059        -1.04931         3.63491        -1.08059     90.1560E-03     188.516E-03    -56.4164E-03    -132.066E-03    -93.2073E-03     149.657E-03    -56.4164E-03     205.155E-03     113.987E+06     109.377E+06    -18.1395E+06    -17.9478E+06     113.042E+06     110.130E+06     1.58147E+06         55.1588
            1041     14.2188E-03     10.2199E-03         3.64909        -1.05811        -1.08239        -1.05763         3.64860        -1.08239     95.3884E-03     148.836E-03    -54.3408E-03    -94.5963E-03    -83.2243E-03     137.464E-03    -54.3408E-03     95.0188E-03     98.5415E+06     76.6981E+06    -25.2552E+06    -24.6241E+06     97.9104E+06     76.6981E+06     4.82934E+06         51.1767
            1042     13.2938E-03     10.1514E-03         3.66854        -1.06517        -1.08750        -1.06847         3.66811        -1.08377     87.9758E-03     131.318E-03    -52.2392E-03    -79.3686E-03    -77.8507E-03     129.800E-03    -52.2392E-03     31.4069E-03     89.6826E+06     34.9440E+06    -31.7173E+06    -30.9021E+06     88.8673E+06     34.9440E+06     7.09809E+06         46.6594
            1043     12.3688E-03     10.1273E-03         3.68813        -1.07740        -1.09252        -1.08530         3.68778        -1.08428     77.5290E-03     125.068E-03    -50.1043E-03    -75.1626E-03    -75.0018E-03     124.907E-03    -50.1043E-03     2.75413E-03     80.4311E+06    -3.68208E+06    -35.0889E+06    -34.3132E+06     79.6554E+06    -3.68208E+06     6.69394E+06         42.3923
            1044     11.4400E-03     10.1242E-03         3.69986        -1.08176        -1.09571        -1.09332         3.69958        -1.08385     73.6677E-03     120.713E-03    -48.0665E-03    -72.7053E-03    -72.3738E-03     120.382E-03    -48.0665E-03    -14.4632E-03     43.4975E+06    -17.6178E+06    -38.1796E+06    -36.7356E+06     42.0534E+06    -17.6178E+06     7.74266E+06         38.7537
            1045     10.5103E-03     10.1326E-03         3.70325        -1.08099        -1.09399        -1.09164         3.70300        -1.08309     67.4545E-03     115.669E-03    -46.1299E-03    -69.5448E-03    -68.5894E-03     114.713E-03    -46.1299E-03    -25.7891E-03    -1.15658E+06    -23.9432E+06    -50.5433E+06    -39.3052E+06    -22.5253E+06    -13.8126E+06     10.2613E+06         35.7534
            1046     9.57297E-03     10.1544E-03         3.70294        -1.07571        -1.09227        -1.08521         3.70277        -1.08259     52.8590E-03     109.787E-03    -44.1676E-03    -65.6118E-03    -64.0362E-03     108.212E-03    -44.1676E-03    -32.8931E-03    -17.2056E+06    -38.3471E+06    -74.7351E+06    -43.3371E+06    -69.7452E+06    -17.2056E+06     11.2989E+06         33.4131
            1047     8.63279E-03     10.1767E-03         3.70250        -1.07087        -1.09002        -1.07805         3.70242        -1.08276     27.8837E-03     103.740E-03    -42.2585E-03    -61.4702E-03    -59.4528E-03     101.722E-03    -42.2585E-03    -36.1748E-03    -21.1501E+06    -44.8010E+06    -113.945E+06    -46.7153E+06    -112.030E+06    -21.1501E+06     10.1267E+06         31.6454
            1048     7.68816E-03     10.2025E-03         3.70541        -1.07797        -1.09056        -1.08550         3.70536        -1.08298     14.5196E-03     97.4749E-03    -40.4724E-03    -56.9852E-03    -54.7073E-03     95.1969E-03    -40.4724E-03    -37.1875E-03    -24.7101E+06    -47.2289E+06    -154.045E+06    -48.1470E+06    -153.127E+06    -24.7101E+06     9.58369E+06         30.2309
            1049     6.73860E-03     10.2267E-03         3.71546        -1.08159        -1.10132        -1.10121         3.71535        -1.08159     2.86295E-03     91.0105E-03    -38.8355E-03    -52.1524E-03    -49.8782E-03     88.7363E-03    -38.8355E-03    -35.7667E-03    -27.3409E+06    -47.2881E+06    -179.571E+06    -48.1442E+06    -178.715E+06    -27.3409E+06     10.3467E+06         29.0464
            1050     5.78428E-03     10.2484E-03         3.71626        -1.07866        -1.09906        -1.09898         3.71619        -1.07866    -557.159E-06     84.9464E-03    -37.4136E-03    -47.5114E-03    -45.4501E-03     82.8852E-03    -37.4136E-03    -32.7619E-03    -28.6702E+06    -48.3163E+06    -200.733E+06    -49.1649E+06    -199.885E+06    -28.6702E+06     11.3382E+06         28.0797
            1051     4.82608E-03     10.2666E-03         3.69741        -1.06941        -1.08489        -1.07717         3.69736        -1.07707     20.1441E-03     79.5215E-03    -36.1869E-03    -43.3195E-03    -41.6366E-03     77.8387E-03    -36.1869E-03    -28.5128E-03    -34.8236E+06    -52.1856E+06    -217.424E+06    -52.9416E+06    -216.668E+06    -34.8236E+06     11.0204E+06         27.3151
            1052     3.86454E-03     10.2798E-03         3.68383        -1.05860        -1.08045        -1.05909         3.68363        -1.07975    -3.77038E-03     74.9712E-03    -35.1865E-03    -39.7809E-03    -38.5641E-03     73.7545E-03    -35.1865E-03    -23.4196E-03    -43.0331E+06    -56.6404E+06    -224.796E+06    -57.3749E+06    -224.061E+06    -43.0331E+06     10.8625E+06         26.7336
            1053     2.90054E-03     10.2892E-03         3.69618        -1.06041        -1.08745        -1.06019         3.69542        -1.08691    -12.2891E-03     71.4921E-03    -34.4294E-03    -37.0581E-03    -36.3039E-03     70.7379E-03    -34.4294E-03    -17.8578E-03    -50.1824E+06    -60.5392E+06    -236.075E+06    -61.1792E+06    -235.435E+06    -50.1824E+06     10.2484E+06         26.3129
            1054     1.93449E-03     10.2956E-03         3.73230        -1.07786        -1.10729        -1.09325         3.73125        -1.09086    -55.3166E-03     68.9688E-03    -33.8672E-03    -35.0911E-03    -34.7214E-03     68.5990E-03    -33.8672E-03    -12.0894E-03    -55.2736E+06    -64.0758E+06    -244.374E+06    -63.3029E+06    -244.013E+06    -56.4077E+06     7.66655E+06         26.0308
            1055     967.979E-06     10.2993E-03         3.72862        -1.02797        -1.15976        -1.15266         3.72152        -1.02797     190.095E-03     67.3508E-03    -33.4416E-03    -33.9116E-03    -33.7205E-03     67.2267E-03    -33.5085E-03    -6.60927E-03    -60.3765E+06    -67.4748E+06    -247.010E+06    -64.4748E+06    -246.816E+06    -63.5703E+06     4.57783E+06         25.8662
            1056     16.0514E-03     9.54713E-03         3.61927        -1.04603        -1.07943        -1.04544         3.61868        -1.07943     95.3616E-03     201.975E-03    -58.3776E-03    -143.478E-03    -105.129E-03     163.625E-03    -58.3776E-03     213.953E-03     138.589E+06     135.420E+06    -9.50172E+06    -9.48774E+06     137.706E+06     136.289E+06     1.28534E+06         57.6060
            1057     15.1454E-03     9.23911E-03         3.64599        -1.06345        -1.08124        -1.06268         3.64522        -1.08124     118.479E-03     188.089E-03    -56.0434E-03    -132.228E-03    -96.0868E-03     151.948E-03    -56.0434E-03     199.712E-03     113.102E+06     108.315E+06    -19.9880E+06    -19.7175E+06     111.963E+06     109.184E+06     2.27336E+06         54.6278
            1058     14.2243E-03     9.07313E-03         3.66361        -1.06738        -1.08286        -1.06729         3.66308        -1.08242     99.3839E-03     148.204E-03    -53.8846E-03    -94.5535E-03    -82.9471E-03     136.598E-03    -53.8846E-03     96.8717E-03     95.3882E+06     75.9694E+06    -28.4628E+06    -27.6652E+06     94.5906E+06     75.9694E+06     3.84224E+06         50.6714
            1059     13.3023E-03     9.01351E-03         3.68855        -1.07586        -1.09183        -1.08435         3.68803        -1.08282     95.7197E-03     131.094E-03    -51.7811E-03    -79.5960E-03    -77.7370E-03     129.235E-03    -51.7811E-03     35.6367E-03     87.6652E+06     36.6942E+06    -32.5723E+06    -31.5521E+06     86.6451E+06     36.6942E+06     6.03395E+06         46.2291
            1060     12.3751E-03     8.99105E-03         3.70663        -1.08212        -1.09848        -1.09814         3.70629        -1.08212     74.4851E-03     125.088E-03    -49.5969E-03    -75.6709E-03    -75.4406E-03     124.858E-03    -49.5969E-03     7.15953E-03     80.9765E+06    -32.9402E+03    -35.6738E+06    -34.7763E+06      80.079E+06    -32.9402E+03     7.71505E+06         42.0642
            1061     11.4489E-03     8.99427E-03         3.69689        -1.07861        -1.08911        -1.08622         3.69671        -1.08132     55.2942E-03     119.809E-03    -47.5147E-03    -72.3176E-03    -72.1569E-03     119.649E-03    -47.5147E-03    -9.17696E-03     42.4794E+06    -13.4076E+06    -40.3714E+06    -38.1358E+06     40.2438E+06    -13.4076E+06     9.35082E+06         38.5226
            1062     10.5156E-03     9.01223E-03         3.69713        -1.07845        -1.08431        -1.08141         3.69696        -1.08116     54.3557E-03     114.547E-03    -45.5257E-03    -69.0049E-03    -68.4400E-03     113.982E-03    -45.5257E-03    -19.1756E-03    -2.79986E+06    -23.1492E+06    -50.6670E+06    -42.0477E+06    -22.5184E+06    -12.0500E+06     10.5751E+06         35.6120
            1063     9.58173E-03     9.03936E-03         3.71975        -1.08065        -1.09291        -1.09275         3.71958        -1.08065     43.3313E-03     108.916E-03    -43.4964E-03    -65.4103E-03    -64.3986E-03     107.905E-03    -43.4964E-03    -25.8868E-03    -11.9829E+06    -36.9045E+06    -71.8192E+06    -42.3081E+06    -66.4156E+06    -11.9829E+06     9.57347E+06         33.3556
            1064     8.64193E-03     9.07139E-03         3.72633        -1.07924        -1.09623        -1.09613         3.72623        -1.07924     26.6711E-03     102.542E-03    -41.4896E-03    -61.0406E-03    -59.7093E-03     101.210E-03    -41.4896E-03    -28.7636E-03    -12.6496E+06    -40.9498E+06    -110.815E+06    -42.2639E+06    -109.501E+06    -12.6496E+06     8.90354E+06         31.6654
            1065     7.69711E-03     9.10400E-03         3.71516        -1.07768        -1.08979        -1.08968         3.71505        -1.07768     27.0279E-03     96.1239E-03    -39.5616E-03    -56.5403E-03    -55.0237E-03     94.6074E-03    -39.5616E-03    -29.7290E-03    -16.3944E+06    -44.4108E+06    -151.439E+06    -45.0651E+06    -150.785E+06    -16.3944E+06     8.08934E+06         30.3206
            1066     6.74786E-03     9.13641E-03         3.70627        -1.07565        -1.08649        -1.08555         3.70607        -1.07639     18.5527E-03     89.7105E-03    -37.7028E-03    -51.9832E-03    -50.4562E-03     88.1835E-03    -37.7028E-03    -28.7831E-03    -22.5132E+06    -47.6722E+06    -178.561E+06    -48.1311E+06    -178.102E+06    -22.5132E+06     7.47192E+06         29.1953
            1067     5.79418E-03     9.16446E-03         3.70659        -1.07385        -1.09032        -1.08947         3.70648        -1.07459     5.66008E-03     83.3395E-03    -35.9950E-03    -47.3262E-03    -45.9136E-03     81.9269E-03    -35.9950E-03    -26.6220E-03    -23.8187E+06    -48.4619E+06    -199.316E+06    -48.9747E+06    -198.803E+06    -23.8187E+06     8.35126E+06         28.2735
            1068     4.83610E-03     9.18914E-03         3.70453        -1.07156        -1.09045        -1.09045         3.70452        -1.07156     6.51840E-03     77.2586E-03    -34.4571E-03    -42.7893E-03    -41.5949E-03     76.0641E-03    -34.4571E-03    -23.5236E-03    -24.7011E+06    -48.0893E+06    -215.152E+06    -48.6757E+06    -214.566E+06    -24.7011E+06     9.57705E+06         27.5374
            1069     3.87381E-03     9.20703E-03         3.69366        -1.06370        -1.08399        -1.07905         3.69348        -1.06848    -12.1865E-03     71.8379E-03    -33.1197E-03    -38.7113E-03    -37.8165E-03     70.9431E-03    -33.1197E-03    -19.5735E-03    -31.3227E+06    -49.3331E+06    -221.877E+06    -49.8472E+06    -221.363E+06    -31.3227E+06     9.19175E+06         26.9681
            1070     2.90843E-03     9.22056E-03         3.68504        -1.05015        -1.08261        -1.06438         3.68458        -1.06792    -41.1907E-03     67.4255E-03    -32.0544E-03    -35.3659E-03    -34.7910E-03     66.8506E-03    -32.0544E-03    -15.1141E-03    -36.8651E+06    -50.5499E+06    -229.206E+06    -50.9229E+06    -228.833E+06    -36.8651E+06     7.70769E+06         26.5475
            1071     1.94073E-03     9.22918E-03         3.69767        -1.05495        -1.08490        -1.07116         3.69693        -1.06795    -86.5053E-03     64.0483E-03    -31.2497E-03    -32.7925E-03    -32.4965E-03     63.7522E-03    -31.2497E-03    -10.4119E-03    -41.6827E+06    -51.8445E+06    -236.530E+06    -52.0402E+06    -236.335E+06    -41.6827E+06     5.08376E+06         26.2587
            1072     970.461E-06     9.23483E-03         3.69461        -1.02535        -1.11196        -1.10945         3.69210        -1.02535     39.7097E-03     61.8644E-03    -30.6174E-03    -31.2536E-03    -31.1533E-03     61.7641E-03    -30.6174E-03    -5.62095E-03    -46.6301E+06    -55.4143E+06    -240.040E+06    -53.4399E+06    -239.954E+06    -48.6898E+06     3.03113E+06         26.0869
            1073     16.0518E-03     8.36718E-03         3.60560        -1.04731        -1.07965        -1.04659         3.60488        -1.07965     111.903E-03     203.681E-03    -58.5695E-03    -144.943E-03    -108.730E-03     167.468E-03    -58.5695E-03     209.030E-03     137.842E+06     134.882E+06    -8.99528E+06    -8.87893E+06     136.857E+06     135.751E+06     3.42109E+06         57.0187
            1074     15.1428E-03     8.08194E-03         3.64034        -1.06699        -1.08091        -1.06650         3.63965        -1.08072     111.727E-03     186.812E-03    -56.1699E-03    -130.712E-03    -95.6244E-03     151.725E-03    -56.1699E-03     196.681E-03     114.220E+06     109.621E+06    -18.0134E+06    -17.6695E+06     112.031E+06     111.466E+06     4.25506E+06         54.0366
            1075     14.2244E-03     7.93037E-03         3.67444        -1.08072        -1.08446        -1.08388         3.67389        -1.08074     102.473E-03     148.451E-03    -54.0649E-03    -94.5536E-03    -82.2265E-03     136.124E-03    -54.0649E-03     101.360E-03     94.9331E+06     78.4755E+06    -26.8651E+06    -25.9100E+06     93.0014E+06     79.4520E+06     4.81230E+06         50.1006
            1076     13.2973E-03     7.87287E-03         3.69730        -1.08015        -1.09037        -1.08975         3.69668        -1.08015     108.080E-03     131.388E-03    -52.0489E-03    -79.5673E-03    -76.9788E-03     128.799E-03    -52.0489E-03     43.0523E-03     86.3983E+06     40.7065E+06    -35.0344E+06    -33.7603E+06     85.1243E+06     40.7065E+06     5.20141E+06         45.7515
            1077     12.3745E-03     7.85558E-03         3.70798        -1.07920        -1.09455        -1.09416         3.70758        -1.07920     79.0361E-03     123.545E-03    -49.9897E-03    -73.6953E-03    -73.2404E-03     123.090E-03    -49.9897E-03     15.5497E-03     78.7353E+06     2.03796E+06    -38.7290E+06    -37.2089E+06     77.2151E+06     2.03796E+06     7.92456E+06         41.7129
            1078     11.4422E-03     7.86931E-03         3.71235        -1.07742        -1.09405        -1.09336         3.71227        -1.07804     36.2522E-03     117.483E-03    -48.1367E-03    -69.3739E-03    -69.2599E-03     117.369E-03    -48.1367E-03     2.10863E-03     41.4598E+06    -10.8705E+06    -43.3490E+06    -40.5280E+06     38.6388E+06    -10.8705E+06     11.4010E+06         38.2874
            1079     10.5103E-03     7.89058E-03         3.71040        -1.07632        -1.09043        -1.08958         3.71017        -1.07694     53.3260E-03     112.645E-03    -46.4142E-03    -66.2010E-03    -66.0125E-03     112.457E-03    -46.4142E-03    -5.20726E-03     1.52441E+06    -20.6299E+06    -46.2504E+06    -42.3973E+06    -16.7224E+06    -6.23619E+06     8.14787E+06         35.4859
            1080     9.57316E-03     7.92622E-03         3.71266        -1.07591        -1.08890        -1.08868         3.71244        -1.07591     33.4651E-03     107.730E-03    -44.6342E-03    -63.0934E-03    -62.7715E-03     107.408E-03    -44.6342E-03    -9.70404E-03    -5.38870E+06    -38.9672E+06    -68.9535E+06    -42.5015E+06    -65.4192E+06    -5.38870E+06     4.56954E+06         33.3371
            1081     8.63307E-03     7.96576E-03         3.71266        -1.07474        -1.08844        -1.08842         3.71264        -1.07474    -3.90602E-03     102.489E-03    -42.8233E-03    -59.6800E-03    -59.2689E-03     102.078E-03    -42.8233E-03    -11.5515E-03    -3.41497E+06    -41.8041E+06    -111.074E+06    -42.5464E+06    -110.332E+06    -3.41497E+06     5.82474E+06         31.7564
            1082     7.68895E-03     8.00636E-03         3.70341        -1.07362        -1.08285        -1.08271         3.70328        -1.07362     12.3094E-03     97.1405E-03    -40.9695E-03    -56.1715E-03    -55.6909E-03     96.6599E-03    -40.9695E-03    -12.6645E-03    -4.42455E+06    -42.7745E+06    -148.601E+06    -43.2040E+06    -148.171E+06    -4.42455E+06     5.93064E+06         30.5209
            1083     6.74119E-03     8.04433E-03         3.69462        -1.07221        -1.07729        -1.07637         3.69445        -1.07296     24.8934E-03     91.6795E-03    -39.0716E-03    -52.6034E-03    -52.0990E-03     91.1752E-03    -39.0716E-03    -13.2875E-03    -8.65963E+06    -44.1800E+06      -176.7E+06    -44.3660E+06    -176.514E+06    -8.65963E+06     4.05411E+06         29.5002
            1084     5.78953E-03     8.08110E-03         3.70059        -1.07103        -1.08525        -1.08444         3.70052        -1.07177     22.3358E-03     85.7919E-03    -37.1874E-03    -48.6001E-03    -48.1107E-03     85.3025E-03    -37.1874E-03    -13.3153E-03    -12.1581E+06    -45.6048E+06    -198.528E+06    -45.7219E+06    -198.411E+06    -12.1581E+06     3.45686E+06         28.6702
            1085     4.83357E-03     8.11074E-03         3.70373        -1.06828        -1.08873        -1.08812         3.70372        -1.06888     10.1745E-03     79.6390E-03    -35.3706E-03    -44.2669E-03    -43.8232E-03     79.1953E-03    -35.3706E-03    -12.6648E-03    -14.3555E+06    -46.1186E+06    -213.875E+06    -46.2842E+06    -213.709E+06    -14.3555E+06     3.02891E+06         28.0050
            1086     3.87360E-03     8.13596E-03         3.69579        -1.06456        -1.08017        -1.07944         3.69567        -1.06517     35.1749E-03     73.6919E-03    -33.7076E-03    -39.9827E-03    -39.6261E-03     73.3352E-03    -33.7076E-03    -11.1217E-03    -18.6127E+06    -44.5888E+06    -219.609E+06    -44.7652E+06    -219.433E+06    -18.6127E+06     3.23863E+06         27.4849
            1087     2.90922E-03     8.15333E-03         3.69790        -1.05945        -1.08262        -1.08242         3.69770        -1.05945     58.4358E-03     68.4183E-03    -32.3027E-03    -36.1147E-03    -35.8695E-03     68.1731E-03    -32.3027E-03    -9.08171E-03    -25.7785E+06    -44.3012E+06    -224.862E+06    -44.3983E+06    -224.765E+06    -25.7785E+06     2.79670E+06         27.0953
            1088     1.94142E-03     8.16723E-03         3.67843        -1.05025        -1.07129        -1.07115         3.67830        -1.05025     7.70643E-03     64.2269E-03    -31.1947E-03    -33.0314E-03    -32.8958E-03     64.0913E-03    -31.1947E-03    -6.57938E-03    -36.8829E+06    -45.6081E+06    -232.030E+06    -45.6340E+06    -232.004E+06    -36.8829E+06     1.25255E+06         26.8243
            1089     971.702E-06     8.17455E-03         3.64060        -1.01752        -1.07258        -1.07230         3.64032        -1.01752     13.9827E-03     61.4830E-03    -30.4016E-03    -31.0813E-03    -31.0356E-03     61.4373E-03    -30.4016E-03    -3.45400E-03    -41.9218E+06    -47.1948E+06    -235.609E+06    -46.0215E+06    -235.599E+06    -43.1047E+06     434.801E+03         26.6613
            1090     16.0412E-03     7.18993E-03         3.60349        -1.04750        -1.07799        -1.04638         3.60219        -1.07781     150.396E-03     203.171E-03    -59.3303E-03    -143.817E-03    -108.718E-03     168.072E-03    -59.3303E-03     204.343E-03     135.359E+06     133.068E+06    -10.0851E+06    -9.87324E+06     135.147E+06     133.068E+06     4.98272E+06         56.3903
            1091     15.1304E-03     6.92260E-03         3.65399        -1.06891        -1.08377        -1.07289         3.65261        -1.07841     151.962E-03     185.912E-03    -57.0393E-03    -128.928E-03    -93.5954E-03     150.579E-03    -57.0393E-03     196.416E-03     111.532E+06     107.824E+06    -20.6910E+06    -20.1680E+06     110.033E+06     108.801E+06     5.37647E+06         53.3925
            1092     14.2079E-03     6.78762E-03         3.69320        -1.07770        -1.09494        -1.09379         3.69206        -1.07770     139.381E-03     149.190E-03    -55.1314E-03    -94.2444E-03    -80.7303E-03     135.676E-03    -55.1314E-03     107.833E-03     96.4208E+06     79.6396E+06    -30.2163E+06    -28.9674E+06     94.1954E+06     80.6161E+06     4.94977E+06         49.4743
            1093     13.2864E-03     6.73119E-03         3.71379        -1.07625        -1.09780        -1.09721         3.71320        -1.07625     102.234E-03     129.835E-03    -53.4146E-03    -76.5621E-03    -72.4532E-03     125.726E-03    -53.4146E-03     55.0782E-03     85.4588E+06     42.9252E+06    -36.4118E+06    -34.1501E+06     83.1971E+06     42.9252E+06     6.57475E+06         45.2344
            1094     12.3523E-03     6.72887E-03         3.71481        -1.07479        -1.09339        -1.09319         3.71460        -1.07479     55.4645E-03     120.298E-03    -51.8581E-03    -68.5195E-03    -66.8576E-03     118.636E-03    -51.8581E-03     32.4513E-03     74.5669E+06     4.34764E+06    -44.7112E+06    -42.2959E+06     72.1516E+06     4.34764E+06     10.7571E+06         41.3454
            1095     11.4185E-03     6.74239E-03         3.72177        -1.07303        -1.10086        -1.10082         3.72173        -1.07303     14.2052E-03     114.750E-03    -50.6305E-03    -64.1286E-03    -63.0040E-03     113.626E-03    -50.6305E-03     24.0349E-03     43.7602E+06    -4.72467E+06    -46.6484E+06    -45.4817E+06     42.5935E+06    -4.72467E+06     8.46510E+06         38.0583
            1096     10.4791E-03     6.77482E-03         3.72411        -1.07074        -1.10037        -1.10015         3.72390        -1.07074     26.9170E-03     110.892E-03    -49.5958E-03    -61.2694E-03    -60.2958E-03     109.918E-03    -49.5958E-03     20.1481E-03     11.4747E+06    -15.4317E+06    -45.5068E+06    -43.2850E+06    -10.7786E+06     4.59978E+06     2.81768E+06         35.3848
            1097     9.53839E-03     6.81295E-03         3.71464        -1.06877        -1.08752        -1.08730         3.71443        -1.06877     15.5037E-03     108.194E-03    -48.5026E-03    -59.6903E-03    -58.7909E-03     107.295E-03    -48.5026E-03     17.9995E-03     8.12927E+06    -38.0962E+06    -71.3092E+06    -42.9210E+06    -66.4845E+06     8.12927E+06    -240.107E+03         33.3598
            1098     8.59679E-03     6.85893E-03         3.70584        -1.06748        -1.08026        -1.08017         3.70574        -1.06748    -35.8957E-03     106.101E-03    -47.2423E-03    -58.8762E-03    -58.0155E-03     105.241E-03    -47.2423E-03     16.8621E-03     10.1042E+06    -41.8119E+06    -112.492E+06    -42.2408E+06    -112.063E+06     10.1042E+06    -1.42760E+06         31.9195
            1099     7.65409E-03     6.90333E-03         3.70121        -1.06649        -1.07741        -1.07731         3.70111        -1.06649    -35.1884E-03     103.412E-03    -45.7630E-03    -57.6679E-03    -56.9442E-03     102.688E-03    -45.7630E-03     14.8020E-03     12.2990E+06    -38.7744E+06    -147.031E+06    -39.3017E+06    -146.504E+06     12.2990E+06    -2.44522E+06         30.8541
            1100     6.70955E-03     6.94800E-03         3.70369        -1.06518        -1.08070        -1.08054         3.70353        -1.06518    -38.6281E-03     99.6700E-03    -44.0719E-03    -55.6014E-03    -55.0449E-03     99.1135E-03    -44.0719E-03     11.8436E-03     10.2611E+06    -37.1258E+06    -177.170E+06    -37.3256E+06    -176.971E+06     10.2611E+06    -2.91434E+06         30.0080
            1101     5.76247E-03     6.98882E-03         3.69466        -1.05374        -1.07902        -1.06836         3.69451        -1.06425    -33.6336E-03     95.0013E-03    -42.2195E-03    -52.7815E-03    -52.3743E-03     94.5941E-03    -42.2195E-03     8.70593E-03     4.24271E+06    -37.2903E+06    -198.492E+06    -37.4326E+06    -198.349E+06     4.24271E+06    -2.79724E+06         29.3243
            1102     4.81206E-03     7.02671E-03         3.69013        -1.05375        -1.07020        -1.05903         3.69007        -1.06486    -21.6745E-03     89.4447E-03    -40.2802E-03    -49.1698E-03    -48.8971E-03     89.1719E-03    -40.2802E-03     5.71725E-03    -2.48006E+06    -39.3933E+06    -212.766E+06    -39.5231E+06    -212.636E+06    -2.48006E+06    -3.84724E+06         28.7691
            1103     3.85697E-03     7.05804E-03         3.69745        -1.06404        -1.07367        -1.07291         3.69730        -1.06465    -1.52553E-03     83.4229E-03    -38.3813E-03    -45.0442E-03    -44.8792E-03     83.2579E-03    -38.3813E-03     3.31684E-03    -12.0538E+06    -41.9084E+06    -220.191E+06    -42.1122E+06    -219.987E+06    -12.0538E+06    -4.67508E+06         28.3266
            1104     2.89795E-03     7.08284E-03         3.68832        -1.05221        -1.07997        -1.06918         3.68804        -1.06273     7.35421E-03     77.6050E-03    -36.6771E-03    -40.9281E-03    -40.8374E-03     77.5143E-03    -36.6771E-03     1.35170E-03    -24.2541E+06    -41.8523E+06    -225.853E+06    -42.0291E+06    -225.676E+06    -24.2541E+06    -3.86494E+06         27.9894
            1105     1.93463E-03     7.10037E-03         3.69292        -1.04871        -1.07426        -1.06072         3.69274        -1.06208    -5.93249E-03     72.7398E-03    -35.3167E-03    -37.4215E-03    -37.3790E-03     72.6972E-03    -35.3167E-03     155.631E-06    -33.6417E+06    -41.9800E+06    -232.278E+06    -42.0343E+06    -232.224E+06    -33.6417E+06    -2.43247E+06         27.7531
            1106     968.013E-06     7.11205E-03         3.69402        -1.00565        -1.11959        -1.11614         3.69343        -1.00850    -8.97985E-03     69.4250E-03    -34.3811E-03    -35.0417E-03    -35.0288E-03     69.4121E-03    -34.3811E-03     39.3952E-06    -38.2678E+06    -43.6132E+06    -235.098E+06    -42.4462E+06    -235.082E+06    -39.4507E+06    -918.601E+03         27.6110
            1107     16.0181E-03     6.00921E-03         3.62047        -1.04624        -1.07661        -1.04385         3.61688        -1.07540     243.071E-03     201.516E-03    -60.9099E-03    -140.796E-03    -106.319E-03     167.040E-03    -60.9099E-03     198.947E-03     135.989E+06     130.246E+06    -9.81150E+06    -9.15685E+06     133.387E+06     132.193E+06     8.14179E+06         55.7405
            1108     15.1010E-03     5.76582E-03         3.68716        -1.07544        -1.09043        -1.08837         3.68511        -1.07544     196.922E-03     185.740E-03    -58.9185E-03    -127.052E-03    -89.7871E-03     148.476E-03    -58.9185E-03     200.586E-03     114.713E+06     109.987E+06    -20.9438E+06    -19.9792E+06     113.748E+06     109.987E+06     7.67252E+06         52.7101
            1109     14.1821E-03     5.63556E-03         3.72870        -1.07349        -1.11069        -1.10935         3.72736        -1.07349     152.754E-03     147.937E-03    -57.4601E-03    -90.6693E-03    -74.6184E-03     131.886E-03    -57.4601E-03     117.291E-03     93.2706E+06     79.1676E+06    -29.8671E+06    -27.6444E+06     91.0478E+06     79.1676E+06     6.73869E+06         48.7971
            1110     13.2451E-03     5.60387E-03         3.73935        -1.07059        -1.11412        -1.11368         3.73892        -1.07059     73.6595E-03     126.695E-03    -56.4379E-03    -70.3054E-03    -63.1656E-03     119.555E-03    -56.4379E-03     72.1603E-03     81.4224E+06     42.8446E+06    -42.7859E+06    -39.6297E+06     78.2661E+06     42.8446E+06     11.1992E+06         44.6909
            1111     12.3058E-03     5.60154E-03         3.73250        -1.06772        -1.10302        -1.10295         3.73243        -1.06772     20.7948E-03     117.109E-03    -54.7445E-03    -62.4119E-03    -56.5522E-03     112.349E-03    -55.8436E-03     55.7158E-03     77.1949E+06     16.6740E+06    -47.4530E+06    -45.8573E+06     75.5992E+06     16.6740E+06     10.3733E+06         40.9892
            1112     11.3607E-03     5.62738E-03         3.73207        -1.06501        -1.10138        -1.10136         3.73206        -1.06501    -1.97553E-03     113.501E-03    -53.6222E-03    -59.8881E-03    -53.3659E-03     109.015E-03    -55.6586E-03     52.3138E-03     50.4705E+06     8.18000E+06    -46.4653E+06    -45.9124E+06     49.9176E+06     8.18000E+06     2.10301E+06         37.8654
            1113     10.4149E-03     5.65828E-03         3.73134        -1.06201        -1.10083        -1.10082         3.73133        -1.06201    -9.35730E-03     113.034E-03    -54.0054E-03    -59.0067E-03    -53.0076E-03     108.705E-03    -55.6761E-03     51.2048E-03     20.5027E+06    -12.3509E+06    -50.4467E+06    -45.1576E+06    -9.42847E+06     12.2911E+06    -4.93301E+06         35.3391
            1114     9.46990E-03     5.70222E-03         3.71466        -1.05870        -1.08121        -1.08030         3.71461        -1.05956    -25.1956E-03     113.984E-03    -54.8603E-03    -59.1049E-03    -54.2910E-03     109.904E-03    -55.5938E-03     50.2151E-03     17.4939E+06    -36.6156E+06    -74.4687E+06    -42.8435E+06    -68.2408E+06     17.4939E+06    -8.40991E+06         33.4475
            1115     8.52606E-03     5.74517E-03         3.70541        -1.05745        -1.07016        -1.06917         3.70528        -1.05831    -47.5687E-03     115.545E-03    -55.2395E-03    -60.2951E-03    -56.4574E-03     111.708E-03    -55.2395E-03     49.4004E-03     20.8106E+06    -37.7971E+06    -114.140E+06    -40.4430E+06    -111.494E+06     20.8106E+06    -11.9786E+06         32.1820
            1116     7.58611E-03     5.79186E-03         3.70702        -1.05703        -1.07392        -1.07383         3.70693        -1.05703    -18.9273E-03     116.261E-03    -54.5243E-03    -61.7358E-03    -58.4067E-03     112.932E-03    -54.5243E-03     46.3504E-03     22.1454E+06    -35.7205E+06    -151.351E+06    -37.8641E+06    -149.207E+06     22.1454E+06    -14.4831E+06         31.3868
            1117     6.64659E-03     5.83819E-03         3.69892        -1.05377        -1.07184        -1.07022         3.69877        -1.05524    -13.5852E-03     115.311E-03    -53.4370E-03    -61.8651E-03    -59.1255E-03     112.571E-03    -53.4370E-03     41.8448E-03     21.3326E+06    -33.5851E+06    -182.969E+06    -35.0665E+06    -181.487E+06     21.3326E+06    -13.2715E+06         30.8213
            1118     5.70622E-03     5.88430E-03         3.68316        -1.04254        -1.06587        -1.05373         3.68300        -1.05451    -22.9592E-03     112.660E-03    -51.9964E-03    -60.6558E-03    -58.5857E-03     110.589E-03    -51.9964E-03     35.9172E-03     13.0477E+06    -33.1656E+06    -202.944E+06    -33.9707E+06    -202.139E+06     13.0477E+06    -10.7312E+06         30.3405
            1119     4.76389E-03     5.92697E-03         3.68452        -1.04480        -1.06170        -1.05112         3.68445        -1.05531    -16.2515E-03     108.605E-03    -50.2807E-03    -58.3282E-03    -56.8846E-03     107.161E-03    -50.2807E-03     29.2702E-03     306.254E+03    -35.0458E+06    -213.528E+06    -35.5788E+06    -212.995E+06     306.254E+03    -9.32263E+06         29.9163
            1120     3.81907E-03     5.96470E-03         3.69430        -1.05117        -1.06659        -1.06247         3.69423        -1.05522    -28.8135E-03     103.411E-03    -48.4508E-03    -54.9595E-03    -54.0569E-03     102.508E-03    -48.4508E-03     22.3593E-03    -14.1659E+06    -38.4810E+06    -222.349E+06    -38.9996E+06    -221.830E+06    -14.1659E+06    -9.51555E+06         29.5621
            1121     2.86949E-03     5.99553E-03         3.67232        -1.03530        -1.06550        -1.04393         3.67218        -1.05674    -39.0968E-03     97.7490E-03    -46.7118E-03    -51.0352E-03    -50.5412E-03     97.2550E-03    -46.7118E-03     15.7746E-03    -27.4550E+06    -42.1577E+06    -231.203E+06    -42.5476E+06    -230.813E+06    -27.4550E+06    -8.37817E+06         29.2931
            1122     1.91614E-03     6.01969E-03         3.66857        -1.04091        -1.06513        -1.04057         3.66823        -1.06513     11.2427E-03     92.7683E-03    -45.2603E-03    -47.5050E-03    -47.2843E-03     92.5476E-03    -45.2603E-03     9.95467E-03    -35.1209E+06    -44.9620E+06    -236.663E+06    -45.1481E+06    -236.477E+06    -35.1209E+06    -5.62952E+06         29.1083
            1123     959.267E-06     6.03446E-03         3.69135        -1.01022        -1.13474        -1.12564         3.68908        -1.01705    -97.4767E-03     89.1295E-03    -44.1153E-03    -45.0105E-03    -44.9432E-03     89.0622E-03    -44.1153E-03     5.03141E-03    -43.2394E+06    -48.4632E+06    -240.506E+06    -48.4144E+06    -240.437E+06    -43.3570E+06    -3.19623E+06         28.9971
            1124     15.9769E-03     4.84017E-03         3.66001        -1.06090        -1.08285        -1.06807         3.65545        -1.07113     281.204E-03     201.778E-03    -63.6460E-03    -138.050E-03    -99.4211E-03     163.148E-03    -63.6460E-03     208.789E-03     136.671E+06     129.288E+06    -8.89135E+06    -8.01363E+06     131.877E+06     133.204E+06     7.80383E+06         55.0898
            1125     15.0583E-03     4.59530E-03         3.72621        -1.06908        -1.10412        -1.10234         3.72443        -1.06908     183.901E-03     189.132E-03    -62.1827E-03    -127.001E-03    -85.7628E-03     147.893E-03    -62.1827E-03     210.826E-03     115.453E+06     109.810E+06    -17.0088E+06    -13.3839E+06     109.017E+06     112.622E+06     11.8387E+06         52.0218
            1126     14.1229E-03     4.50254E-03         3.75691        -1.06555        -1.11555        -1.11480         3.75616        -1.06555     98.6650E-03     145.466E-03    -61.1608E-03    -84.3440E-03    -65.9191E-03     127.215E-03    -61.3351E-03     123.314E-03     94.3683E+06     80.3952E+06    -34.2633E+06    -29.4978E+06     88.7596E+06     81.2385E+06     17.3977E+06         48.1302
            1127     13.1809E-03     4.47386E-03         3.75703        -1.06177        -1.11336        -1.11328         3.75695        -1.06177     14.8474E-03     123.104E-03    -57.6680E-03    -65.4270E-03    -51.0932E-03     112.396E-03    -61.2940E-03     85.7689E-03     86.3647E+06     52.6647E+06    -42.3724E+06    -40.5798E+06     84.5721E+06     52.6647E+06     11.1225E+06         44.1990
            1128     12.2290E-03     4.48928E-03         3.74988        -1.05795        -1.10985        -1.10982         3.74984        -1.05795    -16.9691E-03     116.354E-03    -53.8466E-03    -62.5287E-03    -45.2203E-03     107.149E-03    -61.9508E-03     76.2752E-03     83.3797E+06     28.9711E+06    -40.6216E+06    -40.2062E+06     82.9643E+06     28.9711E+06     2.30281E+06         40.7230
            1129     11.2729E-03     4.51172E-03         3.73700        -1.05439        -1.09593        -1.09584         3.73691        -1.05439    -31.1617E-03     116.451E-03    -53.4421E-03    -63.0077E-03    -44.7323E-03     107.741E-03    -63.0077E-03     74.4890E-03     55.8538E+06     15.8956E+06    -39.6684E+06    -38.7928E+06     54.9782E+06     15.8956E+06    -4.13893E+06         37.7847
            1130     10.3205E-03     4.54356E-03         3.71763        -1.05153        -1.08200        -1.08188         3.71751        -1.05153    -33.4292E-03     119.559E-03    -55.2972E-03    -64.2197E-03    -47.0714E-03     111.334E-03    -64.2197E-03     73.7253E-03     20.2743E+06    -6.41819E+06    -49.5856E+06    -39.9405E+06    -9.85672E+06     14.0677E+06    -11.7518E+06         35.4208
            1131     9.37212E-03     4.58222E-03         3.69646        -1.04885        -1.06535        -1.06431         3.69629        -1.04971    -49.1894E-03     124.300E-03    -58.8968E-03    -65.3700E-03    -51.2168E-03     116.575E-03    -65.3251E-03     73.4162E-03     16.6338E+06    -29.4334E+06    -79.3991E+06    -40.2517E+06    -68.5807E+06     16.6338E+06    -18.4415E+06         33.6718
            1132     8.42929E-03     4.62215E-03         3.68551        -1.04651        -1.05356        -1.05072         3.68537        -1.04920    -31.3396E-03     129.097E-03    -62.1254E-03    -66.9480E-03    -55.7205E-03     121.914E-03    -66.1698E-03     72.6470E-03     20.0193E+06    -31.1144E+06    -120.441E+06    -38.0094E+06    -113.546E+06     20.0193E+06    -23.0925E+06         32.5991
            1133     7.48927E-03     4.66570E-03         3.68143        -1.04429        -1.05569        -1.05044         3.68122        -1.04934    -20.0806E-03     133.066E-03    -64.1907E-03    -68.8401E-03    -60.1129E-03     126.795E-03    -66.6466E-03     69.4019E-03     21.6376E+06    -32.0478E+06    -160.787E+06    -37.1627E+06    -155.672E+06     21.6376E+06    -24.5975E+06         32.1208
            1134     6.55433E-03     4.71045E-03         3.66978        -1.04113        -1.05320        -1.04426         3.66959        -1.04989    -11.9353E-03     135.653E-03    -65.7071E-03    -69.9237E-03    -63.7068E-03     130.395E-03    -66.6661E-03     64.5650E-03     17.5113E+06    -34.8879E+06    -193.596E+06    -38.3614E+06    -190.122E+06     17.5113E+06    -22.7662E+06         31.9103
            1135     5.62204E-03     4.75723E-03         3.67848        -1.04440        -1.06111        -1.05555         3.67845        -1.04994     9.47496E-03     136.342E-03    -66.0527E-03    -70.2919E-03    -65.9356E-03     132.114E-03    -66.1813E-03     58.2590E-03     3.19191E+06    -37.5750E+06    -211.714E+06    -39.7604E+06    -209.528E+06     3.19191E+06    -18.8341E+06         31.7144
            1136     4.69021E-03     4.80251E-03         3.68137        -1.04296        -1.06247        -1.05651         3.68122        -1.04877     26.2574E-03     135.253E-03    -65.3003E-03    -69.9585E-03    -66.7926E-03     132.088E-03    -65.3003E-03     50.2590E-03    -11.1271E+06    -38.8345E+06    -219.632E+06    -40.1471E+06    -218.320E+06    -11.1271E+06    -14.7667E+06         31.4936
            1137     3.75720E-03     4.84442E-03         3.66925        -1.03896        -1.05254        -1.04251         3.66907        -1.04882     8.09795E-03     132.642E-03    -64.1848E-03    -68.4441E-03    -66.3130E-03     130.511E-03    -64.1848E-03     40.7938E-03    -22.2872E+06    -41.6441E+06    -227.889E+06    -42.3021E+06    -227.231E+06    -22.2872E+06    -10.8880E+06         31.2831
            1138     2.82227E-03     4.88176E-03         3.67509        -1.03784        -1.06542        -1.05427         3.67487        -1.04877    -48.5527E-03     129.052E-03    -62.9532E-03    -66.0870E-03    -64.8286E-03     127.794E-03    -62.9532E-03     30.7555E-03    -34.9878E+06    -47.2389E+06    -237.400E+06    -47.5915E+06    -237.048E+06    -34.9878E+06    -7.95206E+06         31.1191
            1139     1.88370E-03     4.90953E-03         3.66311        -1.03550        -1.06290        -1.05047         3.66262        -1.04744    -16.1445E-03     125.340E-03    -61.8319E-03    -63.5033E-03    -62.9067E-03     124.743E-03    -61.8319E-03     20.5551E-03    -46.1553E+06    -52.5449E+06    -244.822E+06    -51.8908E+06    -244.632E+06    -47.0000E+06    -5.80549E+06         31.0019
            1140     943.009E-06     4.92855E-03         3.65781    -991.403E-03        -1.10553        -1.09817         3.65552    -996.467E-03    -114.620E-03     122.598E-03    -60.9326E-03    -61.6624E-03    -61.3437E-03     122.397E-03    -61.0502E-03     11.3406E-03    -53.2738E+06    -56.0856E+06    -248.331E+06    -54.8012E+06    -248.248E+06    -54.6418E+06    -3.38747E+06         30.9241
            1141     15.8966E-03     3.64051E-03         3.73129        -1.06286        -1.10877        -1.10265         3.72516        -1.06286     329.270E-03     208.720E-03    -67.8343E-03    -140.757E-03    -92.3874E-03     160.351E-03    -67.8343E-03     237.456E-03     132.235E+06     125.370E+06    -7.87125E+06    -4.88303E+06     123.104E+06     131.512E+06     13.3438E+06         54.4551
            1142     14.9768E-03     3.43053E-03         3.78857        -1.05816        -1.13174        -1.12964         3.78647        -1.05816     180.580E-03     189.625E-03    -66.7465E-03    -122.848E-03    -86.5911E-03     153.369E-03    -66.7465E-03     196.701E-03     109.340E+06     99.7361E+06    -30.8015E+06    -25.1873E+06     100.195E+06     103.267E+06     18.3465E+06         51.3827
            1143     14.0514E-03     3.36143E-03         3.78218        -1.05325        -1.11026        -1.10984         3.78177        -1.05325     33.0507E-03     138.739E-03    -61.1901E-03    -77.5663E-03    -56.3229E-03     122.774E-03    -66.4684E-03     110.996E-03     102.051E+06     86.1663E+06    -32.9861E+06    -29.6118E+06     97.0235E+06     87.8191E+06     14.7246E+06         47.6191
            1144     13.0955E-03     3.36613E-03         3.75646        -1.04958        -1.09333        -1.09323         3.75637        -1.04958    -32.8135E-03     120.513E-03    -52.9478E-03    -67.5158E-03    -40.5280E-03     108.093E-03    -67.5158E-03     89.3963E-03     97.4149E+06     66.8306E+06    -27.7972E+06    -27.3752E+06     96.1835E+06     67.6401E+06     5.59373E+06         43.9192
            1145     12.1295E-03     3.37289E-03         3.74229        -1.04641        -1.08872        -1.08861         3.74218        -1.04641    -41.6722E-03     118.950E-03    -49.6850E-03    -69.2470E-03    -38.6396E-03     107.905E-03    -69.2470E-03     83.2656E-03     89.8967E+06     27.2198E+06    -31.3897E+06    -31.1251E+06     89.6322E+06     27.2198E+06    -2.32317E+06         40.6809
            1146     11.1736E-03     3.39603E-03         3.71800        -1.04369        -1.07268        -1.07254         3.71786        -1.04369    -44.5927E-03     121.902E-03    -50.5367E-03    -71.3491E-03    -40.9422E-03     112.307E-03    -71.3491E-03     78.8958E-03     55.9349E+06     844.915E+03    -36.5441E+06    -35.6384E+06     55.0292E+06     844.915E+03    -8.19457E+06         37.9380
            1147     10.2166E-03     3.42216E-03         3.69228        -1.04016        -1.05462        -1.05247         3.69216        -1.04218    -30.7951E-03     127.120E-03    -53.4307E-03    -73.6700E-03    -44.6194E-03     118.308E-03    -73.6700E-03     77.5974E-03     15.0959E+06    -9.95254E+06    -50.3504E+06    -36.5573E+06    -6.49237E+06    -2.15734E+06    -16.5368E+06         35.7355
            1148     9.26643E-03     3.45145E-03         3.68634        -1.03952        -1.05079        -1.04859         3.68616        -1.04155    -46.0529E-03     134.205E-03    -58.2479E-03    -75.9850E-03    -50.0655E-03     126.022E-03    -75.9850E-03     77.4478E-03     1.48029E+06    -22.5393E+06    -85.5119E+06    -35.7474E+06    -69.0797E+06    -1.74380E+06    -26.1541E+06         34.1231
            1149     8.32164E-03     3.48519E-03         3.67628        -1.03873        -1.04680        -1.04416         3.67615        -1.04123    -27.0550E-03     141.903E-03    -63.8190E-03    -78.1434E-03    -56.2653E-03     134.349E-03    -78.1434E-03     77.1045E-03     125.486E+03    -25.5233E+06    -128.586E+06    -36.0716E+06    -118.038E+06     125.486E+03    -30.8614E+06         33.1791
            1150     7.38402E-03     3.51967E-03         3.66656        -1.03596        -1.04169        -1.03569         3.66629        -1.04169    -42.6829E-03     148.942E-03    -68.9130E-03    -80.0381E-03    -62.2860E-03     142.315E-03    -80.0381E-03     74.5194E-03     2.50444E+06    -28.6965E+06    -173.096E+06    -36.4649E+06    -165.328E+06     2.50444E+06    -31.7968E+06         32.8935
            1151     6.45173E-03     3.56019E-03         3.67102        -1.03531        -1.04704        -1.03949         3.67076        -1.04260    -44.0244E-03     155.170E-03    -73.5605E-03    -81.6006E-03    -67.8927E-03     149.502E-03    -81.6006E-03     70.8752E-03     1.13979E+06    -32.8616E+06    -207.781E+06    -37.6150E+06    -203.027E+06     1.13979E+06    -28.1430E+06         33.0021
            1152     5.52401E-03     3.60208E-03         3.67284        -1.03437        -1.05477        -1.04607         3.67273        -1.04295    -24.0756E-03     160.408E-03    -77.3127E-03    -83.1152E-03    -72.9858E-03     155.654E-03    -82.6880E-03     66.3459E-03    -12.6697E+06    -37.6437E+06    -222.342E+06    -40.5859E+06    -219.400E+06    -12.6697E+06    -22.8658E+06         33.1863
            1153     4.60074E-03     3.64545E-03         3.66176        -1.03254        -1.05083        -1.03949         3.66132        -1.04345    -32.6798E-03     164.094E-03    -79.7487E-03    -84.3628E-03    -77.0421E-03     160.387E-03    -83.3622E-03     59.4567E-03    -27.4415E+06    -43.2259E+06    -231.518E+06    -44.8241E+06    -229.920E+06    -27.4415E+06    -16.8126E+06         33.3256
            1154     3.67973E-03     3.68766E-03         3.65494        -1.03700        -1.04622        -1.03784         3.65458        -1.04502    -9.80919E-03     166.292E-03    -81.4049E-03    -84.8755E-03    -79.9460E-03     163.672E-03    -83.7144E-03     50.3947E-03    -36.1945E+06    -47.9219E+06    -237.735E+06    -48.5517E+06    -237.106E+06    -36.1945E+06    -10.4158E+06         33.4221
            1155     2.75991E-03     3.72555E-03         3.66833        -1.04115        -1.06045        -1.05758         3.66810        -1.04380    -27.1933E-03     167.323E-03    -82.4827E-03    -84.8259E-03    -81.9096E-03     165.700E-03    -83.7758E-03     39.7105E-03    -44.0060E+06    -52.0360E+06    -244.587E+06    -52.2358E+06    -244.387E+06    -44.0060E+06    -5.82009E+06         33.4911
            1156     1.84106E-03     3.75638E-03         3.66229        -1.03124        -1.05541        -1.04606         3.66165        -1.03996     563.677E-06     167.343E-03    -83.1516E-03    -84.1887E-03    -82.8947E-03     166.546E-03    -83.6490E-03     27.3951E-03    -52.9664E+06    -58.1271E+06    -251.066E+06    -57.3608E+06    -250.987E+06    -53.8111E+06    -2.94373E+06         33.5328
            1157     920.003E-06     3.77700E-03         3.66987    -981.123E-03        -1.09618        -1.08745         3.66884    -988.816E-03     21.1845E-03     167.006E-03    -83.3407E-03    -83.6664E-03    -83.1515E-03     166.740E-03    -83.5891E-03     15.2557E-03    -59.5850E+06    -63.7439E+06    -254.403E+06    -61.3721E+06    -254.370E+06    -61.9900E+06    -964.215E+03         33.5485
            1158     15.7976E-03     2.40743E-03         3.85219        -1.05109        -1.14939        -1.13952         3.84232        -1.05109     378.053E-03     217.152E-03    -71.9863E-03    -145.289E-03    -97.2970E-03     169.161E-03    -71.9863E-03     233.218E-03     127.231E+06     120.226E+06    -20.3985E+06    -17.4784E+06     119.965E+06     124.571E+06     14.3505E+06         53.9952
            1159     14.9168E-03     2.24924E-03         3.85423        -1.04433        -1.13174        -1.13047         3.85296        -1.04433     93.4156E-03     168.043E-03    -63.6934E-03    -104.502E-03    -79.3489E-03     150.443E-03    -71.2462E-03     125.246E-03     116.683E+06     99.8327E+06    -21.0562E+06    -18.2437E+06     105.753E+06     107.951E+06     13.1677E+06         50.9725
            1160     13.9691E-03     2.24949E-03         3.79288        -1.03954        -1.08755        -1.08743         3.79275        -1.03954    -22.8982E-03     125.884E-03    -51.6267E-03    -74.2691E-03    -44.1012E-03     115.899E-03    -71.8099E-03     81.5136E-03     109.740E+06     85.6492E+06    -14.3122E+06    -14.0842E+06     101.305E+06     93.8568E+06     3.10711E+06         47.4502
            1161     13.0014E-03     2.24788E-03         3.74910        -1.03679        -1.06609        -1.06595         3.74896        -1.03679    -50.0307E-03     120.649E-03    -46.7859E-03    -73.8053E-03    -37.1654E-03     111.028E-03    -73.8053E-03     76.7917E-03     104.443E+06     66.3771E+06    -18.2107E+06    -17.9791E+06     103.402E+06     67.1866E+06     1.56033E+06         44.0398
            1162     12.0444E-03     2.25608E-03         3.71623        -1.03239        -1.05006        -1.04700         3.71609        -1.03532    -51.0014E-03     122.142E-03    -45.9339E-03    -76.2061E-03    -38.1061E-03     114.314E-03    -76.2061E-03     69.5637E-03     93.1613E+06     19.6370E+06    -23.4788E+06     -23.393E+06     93.0755E+06     19.6370E+06    -1.21872E+06         41.0254
            1163     11.0811E-03     2.27106E-03         3.70025        -1.02946        -1.04257        -1.03691         3.70000        -1.03487    -56.2371E-03     126.311E-03    -47.4356E-03    -78.9153E-03    -40.8704E-03     119.746E-03    -78.9153E-03     65.2514E-03     60.9034E+06    -12.8516E+06    -39.4138E+06    -27.1990E+06     59.1641E+06    -23.3270E+06    -7.47011E+06         38.4592
            1164     10.1273E-03     2.29031E-03         3.68295        -1.03041        -1.03909        -1.03434         3.68271        -1.03492    -43.2971E-03     133.294E-03    -51.3786E-03    -82.0025E-03    -45.4656E-03     127.381E-03    -82.0025E-03     63.8865E-03     14.0226E+06    -26.2111E+06    -60.7959E+06    -29.7686E+06    -1.62175E+06    -41.5940E+06    -18.4480E+06         36.3930
            1165     9.17444E-03     2.31159E-03         3.67517        -1.03266        -1.04396        -1.04181         3.67505        -1.03469    -37.1539E-03     141.599E-03    -56.3595E-03    -85.2962E-03    -50.9518E-03     136.191E-03    -85.2962E-03     63.3465E-03    -13.4585E+06    -41.6250E+06    -89.9684E+06    -31.6112E+06    -69.4011E+06    -44.0396E+06    -27.2474E+06         34.8812
            1166     8.22912E-03     2.33187E-03         3.67375        -1.03306        -1.04706        -1.04624         3.67361        -1.03373    -46.1380E-03     150.813E-03    -62.2056E-03    -88.6417E-03    -57.3084E-03     145.915E-03    -88.6417E-03     62.5297E-03    -18.4216E+06    -46.6239E+06    -134.195E+06    -32.8142E+06    -123.616E+06    -42.8102E+06    -31.6671E+06         33.9731
            1167     7.29042E-03     2.35819E-03         3.66888        -1.03202        -1.04125        -1.04040         3.66871        -1.03270    -46.2706E-03     160.413E-03    -68.4259E-03    -91.9823E-03    -64.1001E-03     156.087E-03    -91.9823E-03     61.0045E-03    -22.2089E+06    -45.3826E+06    -184.487E+06    -35.9966E+06    -177.443E+06    -38.6393E+06    -31.4662E+06         33.7028
            1168     6.35797E-03     2.38788E-03         3.67046        -1.03180        -1.04073        -1.04062         3.67035        -1.03180    -34.1136E-03     170.322E-03    -75.0906E-03    -95.2164E-03    -71.2867E-03     166.518E-03    -95.2164E-03     59.2890E-03    -25.5555E+06    -44.2270E+06    -222.171E+06    -40.4667E+06    -217.789E+06    -33.6978E+06    -27.6018E+06         33.9738
            1169     5.43308E-03     2.42016E-03         3.65682        -1.02539        -1.03764        -1.03142         3.65667        -1.03146    -44.1502E-03     180.089E-03    -81.9189E-03    -98.1734E-03    -78.6863E-03     176.856E-03    -98.1734E-03     56.4792E-03    -34.9060E+06    -45.9801E+06    -236.555E+06    -45.1563E+06    -234.317E+06    -37.9679E+06    -20.1079E+06         34.5116
            1170     4.51499E-03     2.45491E-03         3.64356        -1.02099        -1.03307        -1.02065         3.64322        -1.03307    -53.3225E-03     189.338E-03    -88.5263E-03    -100.811E-03    -85.9480E-03     186.759E-03    -100.811E-03     51.9890E-03    -45.0676E+06    -50.6011E+06    -243.740E+06    -50.2690E+06    -242.736E+06    -46.4029E+06    -13.1134E+06         35.0879
            1171     3.60360E-03     2.49006E-03         3.63663        -1.01282        -1.03785        -1.01261         3.63642        -1.03785    -14.5607E-03     197.745E-03    -94.6624E-03    -103.076E-03    -92.7751E-03     195.858E-03    -103.076E-03     45.6090E-03    -51.3806E+06    -55.4403E+06    -247.890E+06    -54.5493E+06    -247.523E+06    -52.6379E+06    -7.52902E+06         35.6205
            1172     2.69762E-03     2.52179E-03         3.63188        -1.00980        -1.04746        -1.00975         3.63184        -1.04746     3.42730E-03     204.751E-03    -99.8120E-03    -104.938E-03    -98.6140E-03     203.553E-03    -104.938E-03     36.8427E-03    -52.9870E+06    -58.3304E+06    -251.761E+06    -58.4200E+06    -251.671E+06    -52.9870E+06    -3.24878E+06         36.0695
            1173     1.79526E-03     2.54882E-03         3.66425        -1.03307        -1.06460        -1.03894         3.66383        -1.05831     47.5580E-03     210.135E-03    -103.825E-03    -106.307E-03    -103.220E-03     209.531E-03    -106.307E-03     26.2663E-03    -54.7760E+06    -62.4237E+06    -254.235E+06    -62.4531E+06    -254.206E+06    -54.7760E+06    -903.742E+03         36.4001
            1174     898.115E-06     2.56779E-03         3.70217    -985.618E-03        -1.14060        -1.13310         3.70127    -992.220E-03     54.1315E-03     213.578E-03    -106.293E-03    -107.279E-03    -106.369E-03     213.369E-03    -106.993E-03     15.0930E-03    -60.7148E+06    -67.0149E+06    -257.341E+06    -65.8843E+06    -257.317E+06    -61.8693E+06     316.053E+03         36.6016
            1175     15.8030E-03     1.14111E-03         4.01568        -1.03629        -1.16653        -1.15919         4.00834        -1.03629     244.780E-03     227.207E-03    -70.0183E-03    -157.370E-03    -122.288E-03     197.194E-03    -75.0881E-03     185.983E-03     135.432E+06     125.254E+06    -12.0622E+06    -6.92396E+06     122.962E+06     132.585E+06     7.49532E+06         54.0746
            1176     14.8759E-03     1.13061E-03         3.86807        -1.02999        -1.08206        -1.08186         3.86787        -1.02999    -31.0505E-03     138.266E-03    -54.6772E-03    -83.5695E-03    -59.3046E-03     133.765E-03    -74.4409E-03     58.7023E-03     127.533E+06     108.307E+06     579.426E+03     2.57112E+06     110.983E+06     122.866E+06     126.451E+03         51.1812
            1177     13.8988E-03     1.12969E-03         3.77409        -1.02724        -1.04914        -1.04875         3.77391        -1.02745    -50.5048E-03     120.384E-03    -44.3432E-03    -75.9387E-03    -40.1451E-03     116.185E-03    -75.9387E-03     48.4599E-03     113.027E+06     89.7933E+06    -5.01145E+06    -4.73893E+06     105.356E+06     97.1914E+06     3.06313E+06         47.8936
            1178     12.9427E-03     1.12353E-03         3.72590        -1.02309        -1.03668        -1.03307         3.72566        -1.02647    -62.8540E-03     120.539E-03    -42.1051E-03    -78.4004E-03    -38.3626E-03     116.797E-03    -78.4004E-03     43.6132E-03     106.450E+06     61.3063E+06    -11.2754E+06    -11.1818E+06     106.356E+06     61.3063E+06     973.200E+03         44.7437
            1179     11.9772E-03     1.13000E-03         3.69289        -1.01086        -1.02825        -1.01215         3.69278        -1.02684    -41.8172E-03     123.050E-03    -41.9102E-03    -81.1661E-03    -39.0066E-03     120.147E-03    -81.1661E-03     39.0954E-03     95.1554E+06     14.7496E+06    -18.5074E+06    -14.9611E+06     94.6914E+06     11.6673E+06    -1.09834E+06         41.9007
            1180     11.0203E-03     1.13855E-03         3.67805        -1.00799        -1.02837        -1.00778         3.67785        -1.02837    -40.6364E-03     129.066E-03    -44.8972E-03    -84.2095E-03    -42.3701E-03     126.539E-03    -84.2095E-03     37.4589E-03     66.4998E+06    -13.4070E+06    -47.3747E+06    -15.2731E+06     64.6903E+06    -43.6991E+06    -4.53613E+06         39.4590
            1181     10.0619E-03     1.14786E-03         3.67186        -1.02188        -1.03138        -1.02338         3.67161        -1.02962    -36.5381E-03     137.162E-03    -49.5723E-03    -87.6906E-03    -47.3747E-03     134.965E-03    -87.6906E-03     36.1575E-03     17.3194E+06    -31.7456E+06    -82.3870E+06    -18.0142E+06     3.58802E+06    -82.3870E+06    -10.7547E+06         37.4859
            1182     9.11329E-03     1.15891E-03         3.66397        -1.02940        -1.03477        -1.03431         3.66385        -1.02975    -10.1926E-03     146.282E-03    -54.7790E-03    -91.5538E-03    -52.7811E-03     144.284E-03    -91.5538E-03     35.9941E-03    -13.6411E+06    -66.1284E+06    -104.789E+06    -23.0666E+06    -67.7945E+06    -93.6974E+06    -18.9390E+06         36.0318
            1183     8.16731E-03     1.16907E-03         3.66156        -1.02865        -1.04202        -1.04171         3.66142        -1.02882    -13.4044E-03     155.963E-03    -60.2250E-03    -95.7338E-03    -58.4648E-03     154.202E-03    -95.7338E-03     35.1003E-03    -23.2986E+06    -86.6200E+06    -140.741E+06    -28.6133E+06    -131.288E+06    -90.7575E+06    -21.2248E+06         35.1320
            1184     7.22639E-03     1.18240E-03         3.66020        -1.02713        -1.04002        -1.03962         3.66002        -1.02735     3.27001E-03     167.064E-03    -66.8573E-03    -100.183E-03    -65.3319E-03     165.539E-03    -100.183E-03     33.7172E-03    -32.6531E+06    -77.8204E+06    -190.585E+06    -35.8008E+06    -187.438E+06    -77.8204E+06    -19.5120E+06         34.8161
            1185     6.29424E-03     1.19857E-03         3.65017        -1.02182        -1.03115        -1.02618         3.65003        -1.02665     17.4443E-03     179.583E-03    -74.8192E-03    -104.719E-03    -73.4716E-03     178.235E-03    -104.719E-03     33.0704E-03    -42.7229E+06    -66.9281E+06    -231.908E+06    -44.8157E+06    -229.815E+06    -66.9281E+06    -17.4887E+06         35.0689
            1186     5.36978E-03     1.21611E-03         3.64524        -1.01884        -1.02906        -1.02048         3.64513        -1.02732     102.909E-06     192.822E-03    -83.5875E-03    -109.203E-03    -82.4339E-03     191.669E-03    -109.203E-03     31.9607E-03    -51.3449E+06    -60.0480E+06    -249.954E+06    -52.3971E+06    -248.902E+06    -60.0480E+06    -12.3288E+06         35.7507
            1187     4.45409E-03     1.23544E-03         3.64842        -1.01945        -1.02980        -1.02044         3.64836        -1.02875     7.15903E-03     206.543E-03    -93.0144E-03    -113.487E-03    -92.0745E-03     205.604E-03    -113.487E-03     29.8986E-03    -55.7208E+06    -58.8226E+06    -253.397E+06    -57.3410E+06    -253.039E+06    -57.5605E+06    -6.74915E+06         36.6373
            1188     3.54786E-03     1.25517E-03         3.64371        -1.00843        -1.04099        -1.01790         3.64344        -1.03126    -25.7568E-03     220.088E-03    -102.629E-03    -117.405E-03    -101.924E-03     219.383E-03    -117.405E-03     26.7409E-03    -59.0580E+06    -62.2777E+06    -254.827E+06    -61.1634E+06    -254.684E+06    -60.3153E+06    -3.20897E+06         37.5434
            1189     2.65117E-03     1.27379E-03         3.64009    -999.234E-03        -1.06243        -1.02705         3.63972        -1.03425    -64.4705E-03     232.350E-03    -111.529E-03    -120.791E-03    -111.078E-03     231.899E-03    -120.791E-03     21.9974E-03    -61.1662E+06    -64.8952E+06    -256.426E+06    -64.1635E+06    -256.350E+06    -61.9738E+06    -1.03593E+06         38.3485
            1190     1.76264E-03     1.29045E-03         3.64984        -1.01382        -1.06673        -1.04894         3.64967        -1.03144    -34.6496E-03     242.321E-03    -118.865E-03    -123.441E-03    -118.633E-03     242.090E-03    -123.441E-03     15.9389E-03    -61.3693E+06    -66.7326E+06    -255.488E+06    -65.6897E+06    -255.449E+06    -62.4515E+06    -1.08463E+06         38.9593
            1191     878.031E-06     1.30024E-03         3.64781    -950.010E-03        -1.10566        -1.10537         3.64752    -950.010E-03    -36.1956E-03     249.140E-03    -123.717E-03    -125.418E-03    -124.073E-03     249.051E-03    -124.973E-03     8.94579E-03    -63.4535E+06    -67.6058E+06    -260.303E+06    -66.9276E+06    -260.221E+06    -64.2140E+06    -1.17876E+06         39.3301
            1192     941.906E-06     63.0432E-03         4.57031        -1.09192        -2.39701     635.064E-03         2.49611        -2.04980        -2.14235     120.532E-03    -60.0520E-03    -60.4831E-03    -60.4583E-03     120.531E-03    -60.0761E-03    -573.676E-06    -73.8779E+06    -75.9292E+06    -278.001E+06    -75.4790E+06    -277.996E+06    -74.3333E+06    -461.585E+03         29.3142
            1193     1.88311E-03     63.0420E-03         2.98883    -722.092E-03        -1.18694    -778.218E-03         2.58011    -722.092E-03     719.779E-03     120.512E-03    -60.1694E-03    -60.3507E-03    -60.2249E-03     120.510E-03    -60.2940E-03    -825.454E-06     -67.925E+06    -72.9836E+06    -274.752E+06    -72.9871E+06    -274.748E+06     -67.925E+06     421.805E+03         29.3999
            1194     2.82558E-03     63.0400E-03         2.71101    -738.754E-03    -892.937E-03    -754.429E-03         2.57250    -738.754E-03    -340.208E-03     120.401E-03    -60.1048E-03    -60.3145E-03    -60.1032E-03     120.399E-03    -60.3145E-03    -1.05118E-03    -57.1396E+06    -69.1622E+06    -267.544E+06    -69.1691E+06    -267.538E+06    -57.1396E+06     846.410E+03         29.5417
            1195     3.76718E-03     63.0385E-03         2.61153    -740.707E-03    -787.280E-03    -735.347E-03         2.55960    -740.707E-03     199.568E-03     120.392E-03    -60.0960E-03    -60.3268E-03    -60.0952E-03     120.392E-03    -60.3268E-03    -705.776E-06    -45.5040E+06    -65.2218E+06    -258.959E+06    -65.2310E+06    -258.950E+06    -45.5040E+06     1.16924E+06         29.7511
            1196     4.70893E-03     63.0380E-03         2.58492    -739.741E-03    -757.320E-03    -736.738E-03         2.56434    -739.741E-03    -98.6510E-03     120.297E-03    -60.0005E-03    -60.3213E-03    -60.0002E-03     120.296E-03    -60.3213E-03     11.1903E-06    -36.2478E+06    -60.5020E+06    -242.246E+06    -60.5170E+06    -242.231E+06    -36.2478E+06     882.662E+03         30.0396
            1197     5.65111E-03     63.0376E-03         2.58797    -740.277E-03    -759.453E-03    -750.321E-03         2.57884    -740.277E-03     73.5143E-03     120.061E-03    -59.7851E-03    -60.3008E-03    -59.7824E-03     120.059E-03    -60.3008E-03     1.19863E-03    -26.7456E+06    -54.3503E+06    -223.336E+06    -54.3601E+06    -223.327E+06    -26.7456E+06     260.359E+03         30.4160
            1198     6.59314E-03     63.0391E-03         2.57665    -736.669E-03    -752.935E-03    -744.275E-03         2.57264    -741.315E-03    -39.7265E-03     119.832E-03    -59.6055E-03    -60.2518E-03    -59.5931E-03     119.820E-03    -60.2518E-03     2.83586E-03    -19.6489E+06    -49.1309E+06    -195.792E+06    -49.1313E+06    -195.792E+06    -19.6489E+06    -31.1067E+03         30.9276
            1199     7.53552E-03     63.0413E-03         2.55519    -729.353E-03    -740.636E-03    -726.786E-03         2.55262    -740.636E-03     4.90321E-03     119.619E-03    -59.4666E-03    -60.1756E-03    -59.4302E-03     119.582E-03    -60.1756E-03     4.95041E-03    -15.9799E+06    -45.1862E+06    -158.139E+06    -45.1865E+06    -158.139E+06    -15.9799E+06    -32.4545E+03         31.6834
            1200     8.47802E-03     63.0487E-03         2.55715    -732.422E-03    -741.223E-03    -732.407E-03         2.55526    -739.339E-03    -27.6265E-03     119.443E-03    -59.3873E-03    -60.0901E-03    -59.2966E-03     119.353E-03    -60.0901E-03     7.84890E-03    -13.2190E+06    -41.6482E+06    -121.330E+06    -41.6483E+06    -121.330E+06    -13.2190E+06     17.0622E+03         32.8822
            1201     9.41977E-03     63.0569E-03         2.57277    -739.083E-03    -750.241E-03    -749.203E-03         2.57201    -739.364E-03     51.1524E-03     119.375E-03    -59.4137E-03    -59.9978E-03    -59.1601E-03     119.121E-03    -59.9978E-03     13.0003E-03    -13.1969E+06    -39.3837E+06    -78.7602E+06    -39.4799E+06    -78.6640E+06    -13.1969E+06    -632.490E+03         34.7462
            1202     10.3628E-03     63.0753E-03         2.58036    -740.405E-03    -755.182E-03    -755.055E-03         2.58023    -740.405E-03    -22.6276E-03     119.069E-03    -59.1910E-03    -59.9073E-03    -58.8224E-03     118.701E-03    -59.9073E-03     16.1948E-03    -6.54265E+06    -23.1650E+06    -46.0886E+06    -37.1238E+06    -27.9519E+06    -10.7205E+06    -966.945E+03         37.3393
            1203     11.3058E-03     63.0909E-03         2.56769    -737.018E-03    -746.788E-03    -742.744E-03         2.56763    -741.004E-03    -14.2054E-03     119.136E-03    -59.3205E-03    -59.8335E-03    -58.6869E-03     118.446E-03    -59.7763E-03     21.4781E-03     43.2980E+06    -10.5344E+06    -33.6833E+06    -33.5128E+06     43.1275E+06    -10.5344E+06     618.874E+03         40.6178
            1204     12.2479E-03     63.1205E-03         2.55300    -731.196E-03    -740.497E-03    -731.172E-03         2.55298    -740.497E-03     8.56338E-03     120.919E-03    -59.7700E-03    -61.1981E-03    -58.6538E-03     118.374E-03    -59.7700E-03     40.6209E-03     89.2745E+06     1.77197E+06    -31.0733E+06    -31.0125E+06     89.2136E+06     1.77197E+06     2.10296E+06         44.5488
            1205     13.1912E-03     63.1787E-03         2.56447    -734.567E-03    -749.261E-03    -743.817E-03         2.56434    -739.881E-03    -16.5300E-03     123.547E-03    -59.8874E-03    -63.7240E-03    -57.8518E-03     117.675E-03    -59.8874E-03     64.4918E-03     96.2841E+06     37.5911E+06    -28.3104E+06    -28.2258E+06     96.1996E+06     37.5911E+06     653.675E+03         49.1090
            1206     14.1348E-03     63.2600E-03         2.56791    -737.740E-03    -751.839E-03    -749.825E-03         2.56775    -739.597E-03    -26.1034E-03     139.216E-03    -60.0230E-03    -79.2618E-03    -59.9353E-03     119.889E-03    -60.0230E-03     119.234E-03     101.948E+06     77.2357E+06    -24.2109E+06    -24.1538E+06     101.890E+06     77.2357E+06    -985.197E+03         54.2787
            1207     15.0777E-03     63.4448E-03         2.54828    -728.504E-03    -741.188E-03    -731.293E-03         2.54821    -738.325E-03    -8.06513E-03     175.823E-03    -60.1675E-03    -115.870E-03    -65.6030E-03     125.557E-03    -60.1675E-03     218.000E-03     114.125E+06     108.835E+06    -18.9334E+06    -18.9242E+06     114.115E+06     108.835E+06    -840.966E+03         59.5907
            1208     16.0191E-03     63.7526E-03         2.55110    -728.371E-03    -745.615E-03    -737.599E-03         2.55105    -736.335E-03     4.21873E-03     184.234E-03    -60.2198E-03    -124.212E-03    -65.9471E-03     125.970E-03    -60.2198E-03     240.948E-03     138.732E+06     134.103E+06    -9.38192E+06    -9.37088E+06     138.721E+06     134.103E+06    -1.00530E+06         63.9172
            1209     941.611E-06     64.1698E-03         4.44513        -1.13729        -2.25086     489.302E-03         2.48524        -1.91756        -2.07107     120.307E-03    -60.0526E-03    -60.2602E-03    -60.2333E-03     120.307E-03    -60.0791E-03    -257.902E-06    -74.7988E+06    -77.1028E+06    -278.814E+06    -76.6493E+06    -278.796E+06    -75.2699E+06    -944.131E+03         29.3077
            1210     1.88412E-03     64.1686E-03         2.96709    -722.764E-03        -1.17947    -756.771E-03         2.54439    -722.764E-03     660.955E-03     120.410E-03    -60.1672E-03    -60.2512E-03    -60.2089E-03     120.408E-03    -60.2080E-03    -965.487E-06    -67.2470E+06    -74.0846E+06    -275.050E+06    -74.0859E+06    -275.049E+06    -67.2470E+06     200.170E+03         29.3963
            1211     2.82522E-03     64.1668E-03         2.69914    -733.255E-03    -897.798E-03    -745.246E-03         2.54659    -733.255E-03    -382.390E-03     120.521E-03    -60.2125E-03    -60.3243E-03    -60.2538E-03     120.519E-03    -60.2811E-03    -1.15078E-03    -56.4911E+06    -69.9831E+06    -268.419E+06    -69.9867E+06    -268.415E+06    -56.4911E+06     353.827E+03         29.5395
            1212     3.76704E-03     64.1657E-03         2.59371    -735.165E-03    -789.161E-03    -734.424E-03         2.53897    -735.165E-03     191.310E-03     120.333E-03    -60.0382E-03    -60.3191E-03    -60.0374E-03     120.332E-03    -60.3191E-03    -683.988E-06    -44.4829E+06    -64.3089E+06    -259.135E+06    -64.3179E+06    -259.126E+06    -44.4829E+06     818.836E+03         29.7469
            1213     4.70918E-03     64.1644E-03         2.55141    -730.603E-03    -747.460E-03    -722.296E-03         2.52955    -733.914E-03    -120.394E-03     120.099E-03    -59.8247E-03    -60.2962E-03    -59.8242E-03     120.098E-03    -60.2962E-03     178.683E-06    -34.4020E+06    -58.4385E+06    -241.903E+06    -58.4477E+06    -241.894E+06    -34.4020E+06     292.008E+03         30.0331
            1214     5.65112E-03     64.1644E-03         2.53600    -723.510E-03    -741.717E-03    -724.450E-03         2.52734    -732.113E-03     74.4813E-03     119.941E-03    -59.7132E-03    -60.2532E-03    -59.7113E-03     119.939E-03    -60.2532E-03     1.07554E-03    -26.2201E+06    -54.3866E+06    -223.242E+06    -54.3905E+06    -223.238E+06    -26.2201E+06    -94.8941E+03         30.4100
            1215     6.59380E-03     64.1648E-03         2.53557    -724.631E-03    -742.808E-03    -732.470E-03         2.53213    -731.528E-03    -45.2957E-03     119.863E-03    -59.6826E-03    -60.2054E-03    -59.6688E-03     119.850E-03    -60.2054E-03     2.81457E-03    -20.0176E+06    -50.4136E+06    -195.295E+06    -50.4149E+06    -195.293E+06    -20.0176E+06    -208.328E+03         30.9229
            1216     7.53541E-03     64.1693E-03         2.53210    -725.619E-03    -740.624E-03    -732.763E-03         2.53025    -731.634E-03     11.2728E-03     119.740E-03    -59.6079E-03    -60.1516E-03    -59.5736E-03     119.705E-03    -60.1516E-03     4.89737E-03    -15.6673E+06    -45.7585E+06    -157.882E+06    -45.7599E+06    -157.881E+06    -15.6673E+06    -250.640E+03         31.6787
            1217     8.47775E-03     64.1736E-03         2.53395    -727.221E-03    -742.189E-03    -736.375E-03         2.53283    -731.912E-03    -27.6150E-03     119.420E-03    -59.3717E-03    -60.0784E-03    -59.2814E-03     119.329E-03    -60.0784E-03     7.73973E-03    -12.9447E+06    -41.9207E+06    -121.831E+06    -41.9214E+06    -121.830E+06    -12.9447E+06     8.81371E+03         32.8769
            1218     9.42097E-03     64.1851E-03         2.53183    -725.064E-03    -740.473E-03    -733.036E-03         2.53147    -732.147E-03     31.0386E-03     119.308E-03    -59.3692E-03    -59.9825E-03    -59.1179E-03     119.057E-03    -59.9825E-03     13.0156E-03    -12.7484E+06    -39.1932E+06    -77.5284E+06    -39.2100E+06    -77.5116E+06    -12.7484E+06    -75.0930E+03         34.7403
            1219     10.3627E-03     64.2005E-03         2.53162    -723.082E-03    -741.142E-03    -731.996E-03         2.53148    -732.090E-03    -17.9496E-03     119.107E-03    -59.2538E-03    -59.8966E-03    -58.8938E-03     118.747E-03    -59.8966E-03     16.0072E-03    -7.54594E+06    -23.0318E+06    -44.8125E+06    -37.2769E+06    -27.7142E+06    -10.3991E+06    -854.131E+03         37.3329
            1220     11.3056E-03     64.2184E-03         2.53742    -729.238E-03    -741.642E-03    -738.606E-03         2.53733    -732.189E-03    -2.93796E-03     118.955E-03    -59.1977E-03    -59.7923E-03    -58.5125E-03     118.239E-03    -59.7622E-03     21.7456E-03     40.3234E+06    -12.1369E+06    -35.6771E+06    -35.5240E+06     40.1703E+06    -12.1369E+06    -426.466E+03         40.6115
            1221     12.2486E-03     64.2470E-03         2.53396    -726.821E-03    -743.412E-03    -737.778E-03         2.53390    -732.395E-03     17.7294E-03     120.500E-03    -59.5981E-03    -60.9642E-03    -58.3062E-03     117.986E-03    -59.7425E-03     40.4995E-03     88.2278E+06     1.25546E+06    -32.2218E+06    -32.1773E+06     88.1834E+06     1.25546E+06     749.661E+03         44.5438
            1222     13.1919E-03     64.3050E-03         2.52246    -720.400E-03    -740.148E-03    -728.364E-03         2.52234    -732.066E-03    -8.89250E-03     123.581E-03    -59.8642E-03    -63.7821E-03    -58.0349E-03     117.834E-03    -59.8642E-03     63.8392E-03     97.1452E+06     38.6831E+06    -27.4873E+06    -27.4665E+06     97.1244E+06     38.6831E+06     1.46034E+06         49.1053
            1223     14.1357E-03     64.3862E-03         2.52465    -724.311E-03    -737.212E-03    -730.264E-03         2.52454    -731.148E-03    -25.1987E-03     139.582E-03    -59.9922E-03    -79.6529E-03    -60.0187E-03     119.948E-03    -59.9922E-03     119.969E-03     103.703E+06     78.6297E+06    -22.7060E+06    -22.6692E+06     103.666E+06     78.6297E+06     1.77165E+06         54.2767
            1224     15.0793E-03     64.5728E-03         2.53536    -727.326E-03    -740.935E-03    -738.302E-03         2.53532    -729.919E-03    -6.93828E-03     174.812E-03    -60.1022E-03    -114.832E-03    -64.2128E-03     124.192E-03    -60.1022E-03     217.736E-03     117.014E+06     110.169E+06    -16.2245E+06    -16.1986E+06     115.118E+06     112.040E+06     323.481E+03         59.5936
            1225     16.0259E-03     64.8799E-03         2.52577    -723.352E-03    -737.158E-03    -732.034E-03         2.52563    -728.335E-03     21.4822E-03     184.470E-03    -60.1345E-03    -124.413E-03    -66.3419E-03     126.399E-03    -60.1345E-03     240.652E-03     140.167E+06     134.176E+06    -8.13503E+06    -8.12086E+06     138.283E+06     136.046E+06    -1.19871E+06         63.9217
            1226     942.185E-06     65.2961E-03         4.33723        -1.19101        -2.10016     311.747E-03         2.54933        -1.81502        -1.98551     120.366E-03    -59.9375E-03    -60.4318E-03    -60.3698E-03     120.364E-03    -59.9980E-03    -770.626E-06    -74.5454E+06    -77.3645E+06    -278.660E+06    -77.3689E+06    -278.640E+06    -74.5610E+06    -487.710E+03         29.3101
            1227     1.88341E-03     65.2953E-03         2.90858    -741.541E-03        -1.12090    -699.379E-03         2.48706    -741.541E-03     686.076E-03     120.309E-03    -60.0659E-03    -60.2493E-03    -60.1076E-03     120.307E-03    -60.2060E-03    -977.834E-06    -68.3709E+06    -74.3787E+06    -275.294E+06    -74.3835E+06    -275.289E+06    -68.3709E+06    -39.8750E+03         29.3965
            1228     2.82547E-03     65.2941E-03         2.64099    -729.007E-03    -864.861E-03    -717.022E-03         2.49315    -729.007E-03    -350.777E-03     120.333E-03    -60.0713E-03    -60.2774E-03    -60.1132E-03     120.332E-03    -60.2342E-03    -902.959E-06    -58.1880E+06    -70.5393E+06    -268.791E+06    -70.5418E+06    -268.789E+06    -58.1880E+06    -67.7178E+03         29.5371
            1229     3.76734E-03     65.2920E-03         2.56019    -727.112E-03    -780.745E-03    -727.832E-03         2.50728    -727.112E-03     208.108E-03     120.200E-03    -59.9716E-03    -60.2531E-03    -59.9709E-03     120.200E-03    -60.2531E-03    -641.737E-06    -46.1068E+06    -65.4228E+06    -259.484E+06    -65.4257E+06    -259.481E+06    -46.1068E+06    -176.040E+03         29.7431
            1230     4.70953E-03     65.2910E-03         2.51861    -723.162E-03    -742.301E-03    -719.069E-03         2.49869    -726.472E-03    -104.615E-03     119.997E-03    -59.7829E-03    -60.2361E-03    -59.7825E-03     119.996E-03    -60.2361E-03     121.554E-06    -35.0934E+06    -60.3581E+06    -241.930E+06    -60.3610E+06    -241.927E+06    -35.0934E+06     204.412E+03         30.0288
            1231     5.65184E-03     65.2909E-03         2.49087    -712.313E-03    -728.199E-03    -707.999E-03         2.48272    -724.370E-03     78.7140E-03     119.931E-03    -59.7447E-03    -60.2115E-03    -59.7427E-03     119.929E-03    -60.2115E-03     1.05340E-03    -25.5613E+06    -55.2564E+06    -223.298E+06    -55.2582E+06    -223.296E+06    -25.5613E+06     158.769E+03         30.4060
            1232     6.59334E-03     65.2917E-03         2.48805    -713.804E-03    -727.893E-03    -716.302E-03         2.48521    -722.550E-03    -51.8929E-03     119.869E-03    -59.7223E-03    -60.1716E-03    -59.7075E-03     119.854E-03    -60.1716E-03     2.92777E-03    -19.9556E+06    -50.7186E+06    -194.964E+06    -50.7231E+06    -194.959E+06    -19.9556E+06     116.932E+03         30.9194
            1233     7.53616E-03     65.2955E-03         2.51043    -723.226E-03    -742.917E-03    -741.525E-03         2.50903    -723.226E-03     438.359E-06     119.762E-03    -59.6619E-03    -60.1247E-03    -59.6269E-03     119.727E-03    -60.1247E-03     4.97143E-03    -16.3885E+06    -47.2396E+06    -157.489E+06    -47.2480E+06    -157.480E+06    -16.3885E+06    -240.772E+03         31.6751
            1234     8.47785E-03     65.3011E-03         2.51380    -725.296E-03    -743.566E-03    -742.628E-03         2.51287    -725.296E-03    -29.4593E-03     119.549E-03    -59.5160E-03    -60.0646E-03    -59.4301E-03     119.463E-03    -60.0646E-03     7.58466E-03    -13.7976E+06    -43.3893E+06    -121.989E+06    -43.4093E+06    -121.969E+06    -13.7976E+06    -749.087E+03         32.8727
            1235     9.42003E-03     65.3102E-03         2.49275    -714.918E-03    -729.749E-03    -718.488E-03         2.49240    -725.827E-03     20.1497E-03     119.313E-03    -59.3783E-03    -59.9825E-03    -59.1300E-03     119.064E-03    -59.9825E-03     12.8858E-03    -12.6727E+06    -39.5978E+06    -77.8938E+06    -39.7020E+06    -77.7896E+06    -12.6727E+06    -96.6231E+03         34.7356
            1236     10.3632E-03     65.3287E-03         2.47988    -705.046E-03    -724.473E-03    -704.857E-03         2.47969    -724.473E-03    -22.1284E-03     119.126E-03    -59.2618E-03    -59.9124E-03    -58.9128E-03     118.777E-03    -59.9124E-03     15.7497E-03    -6.84201E+06    -20.8065E+06    -45.0994E+06    -37.5003E+06    -27.4107E+06    -7.83694E+06     759.581E+03         37.3279
            1237     11.3056E-03     65.3436E-03         2.49368    -714.815E-03    -729.209E-03    -720.590E-03         2.49358    -723.333E-03    -6.86871E-03     118.825E-03    -59.0789E-03    -59.7757E-03    -58.3974E-03     118.144E-03    -59.7757E-03     21.1504E-03     40.6348E+06    -9.40575E+06    -36.3102E+06    -36.2843E+06     40.6089E+06    -9.40575E+06    -174.944E+03         40.6067
            1238     12.2492E-03     65.3740E-03         2.50788    -723.440E-03    -736.106E-03    -736.023E-03         2.50780    -723.440E-03     16.8841E-03     120.128E-03    -59.4055E-03    -60.7891E-03    -57.9931E-03     117.659E-03    -59.7325E-03     39.9877E-03     86.8967E+06     1.34175E+06    -34.1882E+06    -34.1601E+06     86.8686E+06     1.34175E+06    -843.469E+03         44.5402
            1239     13.1922E-03     65.4311E-03         2.49664    -716.698E-03    -732.891E-03    -725.891E-03         2.49648    -723.535E-03    -9.86706E-03     123.792E-03    -59.8546E-03    -64.0098E-03    -58.2888E-03     118.071E-03    -59.8546E-03     63.7782E-03     94.8417E+06     37.7931E+06    -29.4914E+06    -29.4657E+06     94.8160E+06     37.7931E+06     619.928E+03         49.1028
            1240     14.1351E-03     65.5132E-03         2.48984    -715.904E-03    -727.064E-03    -719.987E-03         2.48960    -722.741E-03    -1.87875E-03     139.616E-03    -60.0155E-03    -79.5820E-03    -60.2507E-03     120.284E-03    -60.0155E-03     119.135E-03     104.840E+06     79.7901E+06    -21.8903E+06    -21.8584E+06     104.808E+06     79.7901E+06     1.57032E+06         54.2746
            1241     15.0787E-03     65.6985E-03         2.49608    -716.354E-03    -730.172E-03    -725.012E-03         2.49588    -721.316E-03     5.77135E-03     173.225E-03    -60.1256E-03    -113.068E-03    -63.5887E-03     123.746E-03    -60.1256E-03     214.239E-03     119.256E+06     112.658E+06    -13.5500E+06    -13.5161E+06     117.134E+06     114.746E+06     868.284E+03         59.5928
            1242     16.0241E-03     66.0010E-03         2.48636    -712.015E-03    -729.362E-03    -721.637E-03         2.48598    -719.366E-03     24.4497E-03     184.612E-03    -60.1288E-03    -124.519E-03    -66.3346E-03     126.428E-03    -60.1288E-03     241.086E-03     140.470E+06     135.034E+06    -6.84108E+06    -6.81765E+06     138.359E+06     137.122E+06     592.029E+03         63.9219
            1243     941.104E-06     66.4233E-03         4.16680        -1.23630        -1.90341     152.407E-03         2.49716        -1.62249        -1.95175     120.438E-03    -60.0531E-03    -60.3858E-03    -60.3146E-03     120.436E-03    -60.1230E-03    -822.174E-06    -72.4965E+06    -76.7436E+06    -278.232E+06    -75.7865E+06    -278.192E+06    -73.4930E+06     1.58321E+06         29.3107
            1244     1.88374E-03     66.4216E-03         2.84917    -729.787E-03        -1.09094    -707.658E-03         2.46588    -729.787E-03     674.527E-03     120.161E-03    -59.9656E-03    -60.2029E-03    -59.9642E-03     120.159E-03    -60.2029E-03    -913.454E-06    -68.0814E+06    -73.9565E+06    -274.899E+06    -73.9672E+06    -274.889E+06    -68.0814E+06    -457.384E+03         29.3960
            1245     2.82587E-03     66.4206E-03         2.58377    -720.976E-03    -833.222E-03    -701.206E-03         2.45175    -720.976E-03    -316.553E-03     120.054E-03    -59.9048E-03    -60.1669E-03    -59.9036E-03     120.053E-03    -60.1669E-03    -874.083E-06    -58.1537E+06    -69.5951E+06    -268.259E+06    -69.6029E+06    -268.251E+06    -58.1537E+06    -680.907E+03         29.5352
            1246     3.76784E-03     66.4186E-03         2.50198    -716.209E-03    -753.601E-03    -704.334E-03         2.45272    -716.209E-03     193.138E-03     120.167E-03    -60.0140E-03    -60.1805E-03    -60.0132E-03     120.167E-03    -60.1805E-03    -749.107E-06    -45.4883E+06    -65.1959E+06    -260.044E+06    -65.2007E+06    -260.039E+06    -45.4883E+06    -503.288E+03         29.7414
            1247     4.70957E-03     66.4174E-03         2.47491    -714.282E-03    -729.208E-03    -709.753E-03         2.45546    -714.282E-03    -91.1734E-03     120.051E-03    -59.8801E-03    -60.1931E-03    -59.8796E-03     120.050E-03    -60.1931E-03    -127.558E-06    -34.1965E+06    -59.8566E+06    -242.510E+06    -59.8611E+06    -242.505E+06    -34.1965E+06    -5.17473E+03         30.0271
            1248     5.65162E-03     66.4172E-03         2.47603    -711.134E-03    -735.603E-03    -723.650E-03         2.46753    -714.587E-03     76.6046E-03     119.894E-03    -59.7303E-03    -60.1857E-03    -59.7281E-03     119.892E-03    -60.1857E-03     1.03764E-03    -24.4477E+06    -54.5594E+06    -223.441E+06    -54.5620E+06    -223.438E+06    -24.4477E+06     337.612E+03         30.4035
            1249     6.59437E-03     66.4184E-03         2.47521    -712.779E-03    -735.496E-03    -728.785E-03         2.47195    -716.233E-03    -47.6426E-03     119.884E-03    -59.7580E-03    -60.1522E-03    -59.7442E-03     119.870E-03    -60.1522E-03     2.90102E-03    -19.1459E+06    -50.4126E+06    -195.141E+06    -50.4181E+06    -195.135E+06    -19.1459E+06     696.315E+03         30.9168
            1250     7.53569E-03     66.4222E-03         2.47243    -713.826E-03    -733.237E-03    -727.462E-03         2.47055    -717.723E-03    -3.07778E-03     119.767E-03    -59.6902E-03    -60.1075E-03    -59.6553E-03     119.732E-03    -60.1075E-03     4.93020E-03    -16.1805E+06    -47.2239E+06    -157.048E+06    -47.2394E+06    -157.033E+06    -16.1805E+06     615.850E+03         31.6726
            1251     8.47824E-03     66.4278E-03         2.46686    -711.988E-03    -726.308E-03    -718.676E-03         2.46556    -718.316E-03    -35.2345E-03     119.618E-03    -59.5967E-03    -60.0558E-03    -59.5126E-03     119.534E-03    -60.0558E-03     7.54918E-03    -13.6536E+06    -44.9409E+06    -120.680E+06    -44.9683E+06    -120.652E+06    -13.6536E+06    -464.074E+03         32.8699
            1252     9.42040E-03     66.4373E-03         2.46367    -711.554E-03    -721.755E-03    -714.732E-03         2.46318    -718.091E-03     17.5987E-03     119.483E-03    -59.5411E-03    -59.9838E-03    -59.2903E-03     119.232E-03    -59.9838E-03     12.9034E-03    -14.2086E+06    -41.8379E+06    -79.0803E+06    -42.0968E+06    -78.8213E+06    -14.2086E+06    -941.405E+03         34.7323
            1253     10.3626E-03     66.4544E-03         2.46028    -707.076E-03    -720.968E-03    -710.336E-03         2.46007    -717.495E-03    -27.3875E-03     119.152E-03    -59.2822E-03    -59.9209E-03    -58.9277E-03     118.798E-03    -59.9209E-03     15.8732E-03    -8.11671E+06    -21.5135E+06    -46.0193E+06    -37.5160E+06    -29.0297E+06    -9.10378E+06     269.430E+03         37.3242
            1254     11.3053E-03     66.4715E-03         2.45681    -706.836E-03    -717.564E-03    -707.609E-03         2.45671    -716.685E-03    -12.4818E-03     118.878E-03    -59.1147E-03    -59.7954E-03    -58.4660E-03     118.230E-03    -59.7954E-03     20.7332E-03     42.1442E+06    -7.53033E+06    -34.4783E+06    -34.4363E+06     42.1022E+06    -7.53033E+06     1.27006E+06         40.6027
            1255     12.2482E-03     66.4985E-03         2.45393    -705.551E-03    -717.438E-03    -707.148E-03         2.45388    -715.789E-03    -11.7265E-03     120.218E-03    -59.4872E-03    -60.8021E-03    -58.1248E-03     117.807E-03    -59.7538E-03     39.4023E-03     87.5926E+06     1.71180E+06    -33.6114E+06    -33.5860E+06     87.5672E+06     1.71180E+06     140.741E+03         44.5361
            1256     13.1927E-03     66.5582E-03         2.46213    -708.441E-03    -723.470E-03    -716.589E-03         2.46195    -715.143E-03    -32.8129E-03     123.969E-03    -59.8739E-03    -64.1558E-03    -58.3945E-03     118.207E-03    -59.8739E-03     63.9834E-03     93.8758E+06     36.4142E+06    -30.2005E+06    -30.1357E+06     93.8110E+06     36.4142E+06    -1.26755E+06         49.0987
            1257     14.1343E-03     66.6416E-03         2.46537    -713.262E-03    -722.900E-03    -721.174E-03         2.46511    -714.726E-03    -11.8038E-03     139.391E-03    -60.0412E-03    -79.3247E-03    -60.2037E-03     120.270E-03    -60.0412E-03     118.582E-03     103.239E+06     78.1712E+06    -23.1649E+06    -23.0993E+06     103.173E+06     78.1712E+06    -239.889E+03         54.2711
            1258     15.0776E-03     66.8231E-03         2.44213    -698.944E-03    -713.927E-03    -699.407E-03         2.44190    -713.224E-03    -9.05609E-03     173.318E-03    -60.1598E-03    -113.290E-03    -64.3358E-03     124.364E-03    -60.1598E-03     213.524E-03     118.082E+06     112.239E+06    -15.5575E+06    -15.5348E+06     117.842E+06     112.457E+06     1.38851E+06         59.5887
            1259     16.0217E-03     67.1259E-03         2.43026    -692.293E-03    -713.375E-03    -694.793E-03         2.42986    -710.479E-03     12.6703E-03     185.283E-03    -60.1921E-03    -125.245E-03    -66.3560E-03     126.394E-03    -60.1921E-03     243.121E-03     140.141E+06     135.892E+06    -8.44512E+06    -8.42391E+06     139.902E+06     136.110E+06     1.42086E+06         63.9185
            1260     942.563E-06     67.5496E-03         4.01526        -1.28795        -1.71868     31.9620E-03         2.41238        -1.43571        -1.94625     120.122E-03    -59.9985E-03    -60.1243E-03    -60.1116E-03     120.121E-03    -60.0103E-03    -622.255E-06    -72.5140E+06    -76.0278E+06    -278.419E+06    -75.0725E+06    -278.377E+06    -73.5105E+06     1.60524E+06         29.3056
            1261     1.88357E-03     67.5485E-03         2.80333    -705.614E-03        -1.08342    -720.241E-03         2.44015    -705.614E-03     639.455E-03     120.214E-03    -60.0109E-03    -60.2090E-03    -60.1080E-03     120.213E-03    -60.1104E-03    -977.246E-06    -65.5991E+06    -72.0379E+06    -273.402E+06    -72.0491E+06    -273.391E+06    -65.5991E+06    -517.626E+03         29.3953
            1262     2.82578E-03     67.5461E-03         2.55637    -708.867E-03    -833.125E-03    -706.287E-03         2.42953    -708.867E-03    -304.324E-03     120.079E-03    -59.8874E-03    -60.2060E-03    -59.9460E-03     120.077E-03    -60.1456E-03    -1.12304E-03    -56.1887E+06    -69.3296E+06    -268.389E+06    -69.3356E+06    -268.383E+06    -56.1887E+06    -404.331E+03         29.5362
            1263     3.76789E-03     67.5457E-03         2.46951    -707.258E-03    -747.952E-03    -697.705E-03         2.41927    -707.258E-03     172.601E-03     119.995E-03    -59.8718E-03    -60.1496E-03    -59.8710E-03     119.995E-03    -60.1496E-03    -746.956E-06    -45.1020E+06    -65.2694E+06    -260.136E+06    -65.2721E+06    -260.134E+06    -45.1020E+06    -499.486E+03         29.7417
            1264     4.70978E-03     67.5438E-03         2.44961    -706.352E-03    -729.459E-03    -709.188E-03         2.42934    -706.352E-03    -114.794E-03     120.064E-03    -59.9328E-03    -60.1538E-03    -59.9331E-03     120.064E-03    -60.1531E-03    -162.638E-06    -35.1761E+06    -60.3594E+06    -242.918E+06    -60.3635E+06    -242.914E+06    -35.1761E+06    -303.198E+03         30.0272
            1265     5.65204E-03     67.5435E-03         2.45177    -707.885E-03    -731.528E-03    -722.871E-03         2.44312    -707.885E-03     50.7316E-03     120.010E-03    -59.8600E-03    -60.1715E-03    -59.8587E-03     120.008E-03    -60.1708E-03     975.348E-06    -24.9641E+06    -55.2847E+06    -224.253E+06    -55.2910E+06    -224.247E+06    -24.9641E+06     738.641E+03         30.4034
            1266     6.59355E-03     67.5452E-03         2.44426    -707.712E-03    -726.461E-03    -719.805E-03         2.43973    -709.834E-03    -40.8452E-03     119.865E-03    -59.7389E-03    -60.1524E-03    -59.7256E-03     119.852E-03    -60.1524E-03     2.84676E-03    -18.5168E+06    -50.1105E+06    -195.367E+06    -50.1163E+06    -195.361E+06    -18.5168E+06     782.525E+03         30.9161
            1267     7.53632E-03     67.5490E-03         2.42899    -704.262E-03    -715.107E-03    -706.811E-03         2.42673    -710.295E-03     28.4584E-03     119.745E-03    -59.6743E-03    -60.1045E-03    -59.6397E-03     119.711E-03    -60.1045E-03     4.90345E-03    -15.6237E+06    -45.6697E+06    -157.389E+06    -45.6814E+06    -157.377E+06    -15.6237E+06     885.765E+03         31.6714
            1268     8.47795E-03     67.5545E-03         2.42353    -702.345E-03    -709.551E-03    -701.122E-03         2.42231    -709.551E-03    -16.1104E-03     119.593E-03    -59.5831E-03    -60.0476E-03    -59.4990E-03     119.509E-03    -60.0476E-03     7.54844E-03    -12.6396E+06    -42.1794E+06    -119.116E+06    -42.1958E+06    -119.100E+06    -12.6396E+06     873.921E+03         32.8684
            1269     9.42023E-03     67.5641E-03         2.43068    -704.946E-03    -712.319E-03    -707.828E-03         2.43018    -708.934E-03     37.7177E-03     119.469E-03    -59.5211E-03    -59.9727E-03    -59.2681E-03     119.216E-03    -59.9727E-03     12.9483E-03    -13.3346E+06    -39.8477E+06    -77.8388E+06    -40.0240E+06    -77.6625E+06    -13.3346E+06    -646.328E+03         34.7305
            1270     10.3626E-03     67.5815E-03         2.43697    -708.277E-03    -714.702E-03    -713.932E-03         2.43689    -708.969E-03    -300.266E-06     119.167E-03    -59.2990E-03    -59.8995E-03    -58.9269E-03     118.794E-03    -59.8995E-03     16.2782E-03    -9.59901E+06    -23.9776E+06    -48.3903E+06    -38.7231E+06    -31.2976E+06    -11.9463E+06    -890.537E+03         37.3224
            1271     11.3056E-03     67.5974E-03         2.43033    -705.324E-03    -711.312E-03    -707.592E-03         2.43025    -708.965E-03     23.5454E-03     118.958E-03    -59.2175E-03    -59.7771E-03    -58.5451E-03     118.286E-03    -59.7771E-03     21.2119E-03     40.9388E+06    -10.4394E+06    -35.5667E+06    -35.5017E+06     40.8739E+06    -10.4394E+06     793.448E+03         40.6010
            1272     12.2483E-03     67.6259E-03         2.42210    -698.039E-03    -711.778E-03    -701.361E-03         2.42203    -708.381E-03     7.43539E-03     120.591E-03    -59.5994E-03    -61.0765E-03    -58.4130E-03     118.092E-03    -59.7638E-03     40.1301E-03     89.6753E+06     3.39245E+06    -31.5200E+06    -31.4994E+06     89.6547E+06     3.39245E+06     1.30122E+06         44.5338
            1273     13.1900E-03     67.6839E-03         2.42359    -696.977E-03    -715.918E-03    -705.158E-03         2.42347    -707.618E-03    -10.1882E-03     124.190E-03    -59.8860E-03    -64.4067E-03    -58.3293E-03     118.113E-03    -59.8860E-03     65.6515E-03     95.5024E+06     38.4076E+06    -29.4607E+06    -29.3723E+06     95.4140E+06     38.4076E+06     279.177E+03         49.0964
            1274     14.1344E-03     67.7696E-03         2.42262    -699.149E-03    -711.568E-03    -703.966E-03         2.42253    -706.664E-03    -5.90458E-03     139.116E-03    -60.0284E-03    -79.1229E-03    -59.9243E-03     119.918E-03    -60.0284E-03     119.139E-03     101.123E+06     76.4283E+06    -26.8477E+06    -26.7318E+06     101.007E+06     76.4283E+06    -372.611E+03         54.2701
            1275     15.0788E-03     67.9481E-03         2.41268    -693.412E-03    -709.346E-03    -697.854E-03         2.41262    -704.842E-03    -8.84466E-03     174.324E-03    -60.1635E-03    -114.323E-03    -65.2047E-03     125.206E-03    -60.1635E-03     214.723E-03     117.208E+06     110.424E+06    -19.8807E+06    -19.8438E+06     117.171E+06     110.424E+06     372.853E+03         59.5876
            1276     16.0201E-03     68.2565E-03         2.39942    -686.776E-03    -706.801E-03    -691.090E-03         2.39923    -702.298E-03     15.9149E-03     185.283E-03    -60.2341E-03    -125.148E-03    -66.4824E-03     126.617E-03    -60.2341E-03     242.724E-03     140.641E+06     136.446E+06    -9.42785E+06    -9.42281E+06     140.636E+06     136.446E+06     534.954E+03         63.9181
            1277     941.687E-06     68.6757E-03         3.93990        -1.28241        -1.65729    -87.5245E-03         2.38586        -1.29813        -1.93707     119.940E-03    -59.8082E-03    -60.1336E-03    -60.0904E-03     119.939E-03    -59.8502E-03    -886.956E-06    -73.2718E+06    -75.8159E+06    -277.660E+06    -74.8222E+06    -277.614E+06    -74.3119E+06    -1.04164E+06         29.3032
            1278     1.88446E-03     68.6750E-03         2.76053    -692.825E-03        -1.06861    -692.113E-03         2.38403    -692.825E-03     631.129E-03     120.122E-03    -59.9931E-03    -60.1346E-03    -60.0904E-03     120.121E-03    -60.0359E-03    -946.416E-06    -66.2818E+06    -72.5928E+06    -273.927E+06    -72.5987E+06    -273.921E+06    -66.2818E+06     102.096E+03         29.3947
            1279     2.82549E-03     68.6731E-03         2.53249    -695.040E-03    -840.977E-03    -709.294E-03         2.40081    -695.040E-03    -314.330E-03     120.225E-03    -60.0164E-03    -60.2221E-03    -60.1064E-03     120.223E-03    -60.1302E-03    -1.12033E-03    -54.3739E+06    -69.1614E+06    -268.051E+06    -69.1624E+06    -268.050E+06    -54.3739E+06     376.361E+03         29.5386
            1280     3.76783E-03     68.6711E-03         2.46085    -699.262E-03    -764.142E-03    -713.928E-03         2.41063    -699.262E-03     178.725E-03     120.023E-03    -59.8529E-03    -60.1974E-03    -59.8830E-03     120.021E-03    -60.1660E-03    -898.440E-06    -43.5699E+06    -64.4479E+06    -259.980E+06    -64.4512E+06    -259.976E+06    -43.5699E+06     340.365E+03         29.7451
            1281     4.71031E-03     68.6709E-03         2.43281    -702.230E-03    -734.889E-03    -713.538E-03         2.41146    -702.230E-03    -91.0997E-03     119.985E-03    -59.8552E-03    -60.1535E-03    -59.8555E-03     119.984E-03    -60.1528E-03    -254.438E-06    -35.1699E+06    -60.3414E+06    -243.397E+06    -60.3450E+06    -243.393E+06    -35.1699E+06     175.939E+03         30.0299
            1282     5.65156E-03     68.6703E-03         2.41209    -701.533E-03    -714.764E-03    -702.432E-03         2.40152    -703.288E-03     61.8136E-03     120.077E-03    -59.9356E-03    -60.1641E-03    -59.9340E-03     120.075E-03    -60.1634E-03     986.818E-06    -25.3887E+06    -55.1096E+06    -224.719E+06    -55.1187E+06    -224.710E+06    -25.3887E+06    -191.963E+03         30.4056
            1283     6.59408E-03     68.6715E-03         2.39128    -693.589E-03    -702.614E-03    -689.074E-03         2.38642    -702.263E-03    -56.4627E-03     119.916E-03    -59.7883E-03    -60.1551E-03    -59.7750E-03     119.903E-03    -60.1551E-03     2.89492E-03    -18.8971E+06    -49.5412E+06    -195.872E+06    -49.5563E+06    -195.857E+06    -18.8971E+06     358.406E+03         30.9174
            1284     7.53577E-03     68.6756E-03         2.39077    -693.943E-03    -703.364E-03    -694.190E-03         2.38853    -700.874E-03     16.9488E-03     119.635E-03    -59.5649E-03    -60.1052E-03    -59.5292E-03     119.599E-03    -60.1052E-03     4.95690E-03    -15.6062E+06    -44.9778E+06    -157.715E+06    -44.9884E+06    -157.704E+06    -15.6062E+06     568.971E+03         31.6716
            1285     8.47824E-03     68.6815E-03         2.39573    -699.220E-03    -702.908E-03    -700.554E-03         2.39457    -700.418E-03    -33.2160E-03     119.452E-03    -59.4560E-03    -60.0345E-03    -59.3665E-03     119.363E-03    -60.0345E-03     7.78090E-03    -12.2026E+06    -40.6699E+06    -118.955E+06    -40.6796E+06    -118.945E+06    -12.2026E+06     454.291E+03         32.8681
            1286     9.42060E-03     68.6908E-03         2.39347    -697.673E-03    -700.211E-03    -697.372E-03         2.39317    -700.211E-03     28.5312E-03     119.332E-03    -59.3962E-03    -59.9654E-03    -59.1426E-03     119.078E-03    -59.9654E-03     13.0125E-03    -9.25220E+06    -37.6812E+06    -77.2603E+06    -37.7971E+06    -77.1445E+06    -9.25220E+06     1.18607E+06         34.7302
            1287     10.3635E-03     68.7078E-03         2.39481    -695.979E-03    -702.146E-03    -698.168E-03         2.39474    -699.885E-03    -17.6070E-03     119.125E-03    -59.2621E-03    -59.8870E-03    -58.8871E-03     118.750E-03    -59.8870E-03     16.3385E-03    -5.50721E+06    -22.7051E+06    -47.3971E+06    -36.7844E+06    -31.0290E+06    -7.79606E+06     917.539E+03         37.3224
            1288     11.3058E-03     68.7244E-03         2.39508    -695.539E-03    -701.840E-03    -697.722E-03         2.39500    -699.580E-03     5.92588E-03     119.043E-03    -59.3276E-03    -59.7507E-03    -58.6545E-03     118.369E-03    -59.7507E-03     21.2865E-03     40.7088E+06    -10.5262E+06    -35.9200E+06    -35.8341E+06     40.3707E+06    -10.2739E+06    -410.120E+03         40.6011
            1289     12.2489E-03     68.7520E-03         2.39814    -697.835E-03    -703.432E-03    -701.883E-03         2.39807    -699.322E-03     23.5479E-03     120.630E-03    -59.6573E-03    -61.0472E-03    -58.4729E-03     118.148E-03    -59.7500E-03     39.9792E-03     88.9720E+06     3.66724E+06    -33.3237E+06    -33.2932E+06     88.9416E+06     3.66724E+06     438.195E+03         44.5340
            1290     13.1933E-03     68.8114E-03         2.39018    -692.384E-03    -702.938E-03    -696.427E-03         2.39011    -698.828E-03     8.85715E-03     123.924E-03    -59.8463E-03    -64.1353E-03    -58.1283E-03     117.917E-03    -59.8463E-03     65.1873E-03     95.2570E+06     37.5290E+06    -29.6475E+06    -29.5854E+06     95.1949E+06     37.5290E+06     2.58992E+06         49.0972
            1291     14.1357E-03     68.8953E-03         2.37898    -686.927E-03    -697.494E-03    -686.847E-03         2.37890    -697.494E-03     9.76202E-03     139.164E-03    -59.9776E-03    -79.1714E-03    -59.9890E-03     119.981E-03    -59.9776E-03     119.087E-03     102.121E+06     76.2744E+06    -24.3062E+06    -24.2227E+06     102.038E+06     76.2744E+06     1.53144E+06         54.2713
            1292     15.0780E-03     69.0760E-03         2.38216    -691.449E-03    -701.021E-03    -696.778E-03         2.38204    -695.572E-03    -981.709E-06     175.045E-03    -60.1444E-03    -114.973E-03    -65.4689E-03     125.541E-03    -60.1444E-03     215.935E-03     117.644E+06     111.193E+06    -16.1589E+06    -16.1161E+06     117.601E+06     111.193E+06    -343.985E+03         59.5892
            1293     16.0208E-03     69.3857E-03         2.37374    -691.286E-03    -700.602E-03    -698.051E-03         2.37349    -693.583E-03     16.6716E-03     184.666E-03    -60.2095E-03    -124.511E-03    -66.3984E-03     126.554E-03    -60.2095E-03     241.124E-03     140.231E+06     135.247E+06    -7.65236E+06    -7.64043E+06     140.219E+06     135.247E+06     217.211E+03         63.9212
            1294     942.145E-06     69.8019E-03         3.86726        -1.14864        -1.73079    -215.839E-03         2.35230        -1.14864        -1.93067     120.057E-03    -59.8825E-03    -60.1791E-03    -60.1359E-03     120.056E-03    -59.9245E-03    -889.829E-06    -72.0193E+06    -76.7688E+06    -277.507E+06    -75.7691E+06    -277.467E+06    -73.0594E+06    -556.687E+03         29.3072
            1295     1.88365E-03     69.8010E-03         2.72982    -683.094E-03        -1.06206    -685.910E-03         2.35367    -683.094E-03     648.467E-03     120.052E-03    -59.9712E-03    -60.0877E-03    -59.9922E-03     120.051E-03    -60.0652E-03    -988.540E-06    -65.7881E+06    -73.2060E+06    -274.546E+06    -73.2087E+06    -274.543E+06    -65.7881E+06     497.427E+03         29.3962
            1296     2.82645E-03     69.8000E-03         2.50228    -686.588E-03    -832.129E-03    -703.270E-03         2.37342    -686.588E-03    -303.011E-03     120.179E-03    -60.0432E-03    -60.1499E-03    -60.0724E-03     120.177E-03    -60.1185E-03    -1.24118E-03    -54.8534E+06    -68.8344E+06    -268.369E+06    -68.8364E+06    -268.367E+06    -54.8534E+06     341.958E+03         29.5400
            1297     3.76752E-03     69.7980E-03         2.43369    -691.869E-03    -762.006E-03    -711.814E-03         2.38350    -691.869E-03     170.748E-03     120.206E-03    -60.0293E-03    -60.2062E-03    -60.0592E-03     120.205E-03    -60.1748E-03    -976.763E-06    -43.5473E+06    -64.1343E+06    -260.583E+06    -64.1400E+06    -260.577E+06    -43.5473E+06     931.876E+03         29.7482
            1298     4.70932E-03     69.7968E-03         2.39387    -693.271E-03    -720.922E-03    -696.914E-03         2.37119    -694.598E-03    -83.5364E-03     120.020E-03    -59.8620E-03    -60.1829E-03    -59.8615E-03     120.020E-03    -60.1829E-03    -150.228E-06    -33.8509E+06    -59.0305E+06    -242.788E+06    -59.0372E+06    -242.782E+06    -33.8509E+06     940.456E+03         30.0332
            1299     5.65236E-03     69.7971E-03         2.37355    -691.215E-03    -702.288E-03    -687.945E-03         2.36229    -694.297E-03     76.4261E-03     119.985E-03    -59.8304E-03    -60.1756E-03    -59.8286E-03     119.983E-03    -60.1756E-03     964.604E-06    -25.3802E+06    -54.9253E+06    -223.702E+06    -54.9331E+06    -223.695E+06    -25.3802E+06    -96.7313E+03         30.4079
            1300     6.59359E-03     69.7986E-03         2.36841    -686.986E-03    -701.851E-03    -690.514E-03         2.36363    -693.538E-03    -50.6752E-03     119.868E-03    -59.7418E-03    -60.1538E-03    -59.7289E-03     119.855E-03    -60.1538E-03     2.77986E-03    -19.8013E+06    -50.2358E+06    -196.793E+06    -50.2739E+06    -196.755E+06    -19.8013E+06    -886.403E+03         30.9191
            1301     7.53612E-03     69.8020E-03         2.36154    -681.773E-03    -700.765E-03    -687.135E-03         2.35907    -692.934E-03     12.9491E-03     119.572E-03    -59.5040E-03    -60.0998E-03    -59.4676E-03     119.536E-03    -60.0998E-03     5.00461E-03    -16.0071E+06    -45.4981E+06    -158.604E+06    -45.5623E+06    -158.540E+06    -16.0071E+06     221.343E+03         31.6726
            1302     8.47854E-03     69.8078E-03         2.35728    -685.214E-03    -694.681E-03    -686.175E-03         2.35575    -692.191E-03    -27.2237E-03     119.344E-03    -59.3635E-03    -60.0200E-03    -59.2774E-03     119.258E-03    -60.0200E-03     7.65882E-03    -13.3076E+06    -43.3879E+06    -119.712E+06    -43.4490E+06    -119.651E+06    -13.3076E+06     1.38193E+06         32.8685
            1303     9.42100E-03     69.8176E-03         2.36511    -690.594E-03    -695.507E-03    -693.749E-03         2.36462    -691.867E-03     47.4185E-03     119.286E-03    -59.3821E-03    -59.9501E-03    -59.1457E-03     119.049E-03    -59.9501E-03     12.5700E-03    -10.7031E+06    -41.2165E+06    -78.4241E+06    -41.3602E+06    -78.2804E+06    -10.7031E+06     1.59813E+06         34.7304
            1304     10.3634E-03     69.8341E-03         2.36417    -688.471E-03    -695.497E-03    -692.054E-03         2.36412    -691.857E-03    -22.8678E-03     119.144E-03    -59.2945E-03    -59.8872E-03    -58.9395E-03     118.789E-03    -59.8872E-03     15.8985E-03    -4.22263E+06     -21.769E+06    -47.2587E+06    -37.6820E+06    -29.5930E+06    -5.97538E+06     1.77578E+06         37.3224
            1305     11.3063E-03     69.8515E-03         2.35606    -683.774E-03    -691.410E-03    -683.712E-03         2.35599    -691.410E-03    -11.7304E-03     119.078E-03    -59.3595E-03    -59.7564E-03    -58.7104E-03     118.429E-03    -59.7564E-03     20.9070E-03     41.8181E+06    -8.49303E+06    -36.0370E+06    -35.9535E+06     41.4822E+06    -8.24070E+06     887.784E+03         40.6009
            1306     12.2485E-03     69.8790E-03         2.35137    -678.656E-03    -691.136E-03    -679.349E-03         2.35135    -690.423E-03     12.6526E-03     120.790E-03    -59.7042E-03    -61.1462E-03    -58.6827E-03     118.373E-03    -59.7502E-03     39.4835E-03     87.0576E+06     1.31553E+06    -34.8610E+06    -34.8188E+06     87.0154E+06     1.31553E+06     724.179E+03         44.5333
            1307     13.1901E-03     69.9375E-03         2.35133    -679.944E-03    -692.048E-03    -682.636E-03         2.35127    -689.303E-03    -8.93849E-03     123.722E-03    -59.8467E-03    -63.8873E-03    -58.1350E-03     117.970E-03    -59.8467E-03     63.8319E-03     94.4260E+06     34.1146E+06    -30.4152E+06    -30.3929E+06     94.4036E+06     34.1146E+06     1.20261E+06         49.0960
            1308     14.1352E-03     70.0208E-03         2.35346    -682.527E-03    -690.152E-03    -684.451E-03         2.35336    -688.120E-03     4.05315E-03     139.245E-03    -59.9882E-03    -79.1989E-03    -59.8508E-03     119.897E-03    -59.9882E-03     119.139E-03     103.862E+06     76.8362E+06    -22.6598E+06    -22.6317E+06     103.834E+06     76.8362E+06     957.786E+03         54.2708
            1309     15.0787E-03     70.2051E-03         2.34362    -681.917E-03    -687.296E-03    -682.697E-03         2.34345    -686.351E-03    -3.62975E-03     174.814E-03    -60.1423E-03    -114.660E-03    -64.8080E-03     124.961E-03    -60.1423E-03     216.367E-03     117.933E+06     112.862E+06    -15.9148E+06    -15.8806E+06     117.899E+06     112.862E+06     673.998E+03         59.5915
            1310     16.0222E-03     70.5119E-03         2.32813    -675.617E-03    -686.329E-03    -677.629E-03         2.32763    -683.814E-03     24.9643E-03     184.266E-03    -60.1761E-03    -124.093E-03    -66.2279E-03     126.401E-03    -60.1761E-03     240.246E-03     139.770E+06     135.333E+06    -9.39865E+06    -9.37218E+06     139.744E+06     135.333E+06     238.949E+03         63.9261
            1311     941.871E-06     70.9285E-03         3.81547        -1.01786        -1.82711    -337.628E-03         2.32598        -1.01786        -1.97562     120.216E-03    -59.9732E-03    -60.2462E-03    -60.2064E-03     120.215E-03    -60.0114E-03    -1.02407E-03    -71.2230E+06    -76.2185E+06    -278.046E+06    -75.3604E+06    -278.032E+06    -72.0950E+06     1.14800E+06         29.3139
            1312     1.88397E-03     70.9278E-03         2.71070    -680.061E-03        -1.06046    -689.006E-03         2.33924    -680.061E-03     637.061E-03     120.188E-03    -60.0358E-03    -60.1591E-03    -60.0567E-03     120.186E-03    -60.1365E-03    -1.01672E-03    -65.5331E+06    -72.1457E+06    -274.766E+06    -72.1505E+06    -274.761E+06    -65.5331E+06     376.526E+03         29.3995
            1313     2.82530E-03     70.9259E-03         2.47388    -684.195E-03    -824.505E-03    -695.598E-03         2.34497    -684.195E-03    -299.224E-03     120.098E-03    -59.9596E-03    -60.1529E-03    -59.9574E-03     120.096E-03    -60.1529E-03    -1.22807E-03    -56.4111E+06    -68.6008E+06    -269.371E+06    -68.6061E+06    -269.366E+06    -56.4111E+06     726.065E+03         29.5404
            1314     3.76807E-03     70.9249E-03         2.39456    -686.550E-03    -742.658E-03    -690.163E-03         2.34206    -686.550E-03     158.323E-03     120.143E-03    -59.9949E-03    -60.1763E-03    -59.9936E-03     120.142E-03    -60.1763E-03    -902.849E-06    -44.2086E+06    -63.9250E+06    -260.923E+06    -63.9288E+06    -260.919E+06    -44.2086E+06     508.375E+03         29.7489
            1315     4.70991E-03     70.9230E-03         2.35233    -683.848E-03    -702.649E-03    -677.469E-03         2.32944    -686.139E-03    -117.562E-03     120.185E-03    -60.0135E-03    -60.1959E-03    -60.0129E-03     120.184E-03    -60.1959E-03    -80.2122E-06    -33.3729E+06    -58.4624E+06    -243.025E+06    -58.4722E+06    -243.015E+06    -33.3729E+06     878.489E+03         30.0354
            1316     5.65113E-03     70.9238E-03         2.33417    -679.868E-03    -687.322E-03    -673.314E-03         2.32464    -684.350E-03     65.0415E-03     119.937E-03    -59.7626E-03    -60.1979E-03    -59.7607E-03     119.935E-03    -60.1979E-03     1.02425E-03    -23.9946E+06    -53.9107E+06    -222.587E+06    -53.9214E+06    -222.576E+06    -23.9946E+06     1.20958E+06         30.4101
            1317     6.59411E-03     70.9248E-03         2.34287    -681.449E-03    -693.536E-03    -686.791E-03         2.33831    -683.640E-03    -34.6479E-03     119.746E-03    -59.6156E-03    -60.1592E-03    -59.6030E-03     119.734E-03    -60.1592E-03     2.74453E-03    -19.2369E+06    -51.0082E+06    -196.263E+06    -51.0543E+06    -196.217E+06    -19.2369E+06     195.908E+03         30.9209
            1318     7.53617E-03     70.9283E-03         2.33841    -677.651E-03    -696.209E-03    -686.961E-03         2.33553    -684.015E-03     11.1122E-03     119.688E-03    -59.6167E-03    -60.1003E-03    -59.5837E-03     119.655E-03    -60.1003E-03     4.78513E-03    -17.6855E+06    -48.7300E+06    -160.925E+06    -48.8040E+06    -160.851E+06    -17.6855E+06     578.203E+03         31.6741
            1319     8.47823E-03     70.9346E-03         2.33017    -677.347E-03    -689.932E-03    -681.345E-03         2.32824    -684.004E-03    -25.1543E-03     119.441E-03    -59.4487E-03    -60.0293E-03    -59.3713E-03     119.363E-03    -60.0293E-03     7.25747E-03    -14.7718E+06    -45.0653E+06    -120.883E+06    -45.1702E+06    -120.779E+06    -14.7718E+06     2.19186E+06         32.8691
            1320     9.42060E-03     70.9437E-03         2.33206    -680.552E-03    -688.098E-03    -684.062E-03         2.33128    -683.800E-03     39.3756E-03     119.384E-03    -59.4640E-03    -59.9727E-03    -59.2343E-03     119.154E-03    -59.9727E-03     12.3398E-03    -11.0350E+06    -41.8262E+06    -78.3640E+06    -42.0478E+06    -78.1424E+06    -11.0350E+06     2.41643E+06         34.7302
            1321     10.3631E-03     70.9612E-03         2.32886    -679.233E-03    -687.303E-03    -682.711E-03         2.32869    -683.664E-03    -29.3623E-03     119.163E-03    -59.3073E-03    -59.9062E-03    -58.9700E-03     118.825E-03    -59.9062E-03     15.5012E-03    -3.91101E+06    -24.1099E+06    -49.4863E+06    -40.2434E+06    -29.1385E+06    -8.12516E+06     1.49668E+06         37.3216
            1322     11.3054E-03     70.9776E-03         2.32595    -678.257E-03    -683.295E-03    -678.260E-03         2.32592    -683.260E-03     331.741E-06     119.015E-03    -59.2858E-03    -59.7654E-03    -58.6217E-03     118.351E-03    -59.7654E-03     20.9477E-03     42.1344E+06    -11.0946E+06    -37.4789E+06    -37.4488E+06     42.1043E+06    -11.0946E+06     1.34751E+06         40.6001
            1323     12.2485E-03     71.0063E-03         2.31549    -669.221E-03    -682.341E-03    -669.203E-03         2.31544    -682.306E-03    -3.41099E-03     120.770E-03    -59.7045E-03    -61.1218E-03    -58.6236E-03     118.324E-03    -59.7567E-03     39.8693E-03     86.7362E+06    -102.987E+03    -34.1283E+06    -34.1092E+06     86.7170E+06    -102.987E+03     1.16982E+06         44.5328
            1324     13.1918E-03     71.0650E-03         2.30948    -664.143E-03    -682.909E-03    -666.119E-03         2.30942    -680.878E-03    -14.4819E-03     123.774E-03    -59.8770E-03    -63.9348E-03    -58.1766E-03     118.016E-03    -59.8770E-03     63.8774E-03     94.9783E+06     35.9429E+06    -30.1460E+06    -30.1400E+06     94.9723E+06     35.9429E+06    -146.494E+03         49.0959
            1325     14.1345E-03     71.1453E-03         2.31094    -666.396E-03    -681.221E-03    -668.385E-03         2.31090    -679.190E-03     5.87771E-03     139.715E-03    -60.0169E-03    -79.6660E-03    -59.9063E-03     119.955E-03    -60.0169E-03     120.413E-03     102.841E+06     76.9590E+06    -25.1735E+06    -25.1301E+06     102.798E+06     76.9590E+06     413.714E+03         54.2711
            1326     15.0781E-03     71.3332E-03         2.29983    -665.500E-03    -676.799E-03    -665.449E-03         2.29978    -676.799E-03     645.541E-06     174.324E-03    -60.1390E-03    -114.084E-03    -64.3563E-03     124.597E-03    -60.1390E-03     215.859E-03     118.185E+06     111.643E+06    -17.9816E+06    -17.9302E+06     118.134E+06     111.643E+06     1.51522E+06         59.5932
            1327     16.0233E-03     71.6360E-03         2.28347    -655.020E-03    -673.518E-03    -654.731E-03         2.28318    -673.518E-03     20.2098E-03     183.969E-03    -60.1661E-03    -123.681E-03    -66.0334E-03     126.321E-03    -60.1661E-03     239.600E-03     141.072E+06     136.854E+06    -8.65541E+06    -8.63898E+06     141.055E+06     136.854E+06     193.431E+03         63.9295
            1328     941.704E-06     72.0550E-03         3.82106    -890.668E-03        -1.98088    -469.223E-03         2.30941    -890.668E-03        -1.97438     120.393E-03    -59.9356E-03    -60.4590E-03    -60.3810E-03     120.391E-03    -60.0120E-03    -1.05489E-03    -72.3263E+06    -74.9774E+06    -278.488E+06    -73.2652E+06    -278.428E+06    -74.0988E+06    -432.910E+03         29.3176
            1329     1.88354E-03     72.0541E-03         2.72443    -681.517E-03        -1.09702    -687.294E-03         2.31470    -681.517E-03     674.373E-03     120.164E-03    -59.9841E-03    -60.1890E-03    -59.9826E-03     120.163E-03    -60.1890E-03    -1.03753E-03    -66.5315E+06    -72.5830E+06    -276.153E+06    -72.2671E+06    -276.144E+06    -66.8562E+06     915.456E+03         29.4014
            1330     2.82595E-03     72.0526E-03         2.44444    -682.046E-03    -820.691E-03    -676.525E-03         2.30028    -682.046E-03    -313.369E-03     120.137E-03    -59.9438E-03    -60.2106E-03    -59.9731E-03     120.135E-03    -60.1797E-03    -1.04464E-03    -55.4448E+06    -68.3272E+06    -269.308E+06    -68.3314E+06    -269.304E+06    -55.4448E+06     731.483E+03         29.5417
            1331     3.76756E-03     72.0507E-03         2.34165    -679.206E-03    -722.430E-03    -663.786E-03         2.28301    -679.206E-03     178.798E-03     120.189E-03    -59.9901E-03    -60.2286E-03    -60.0199E-03     120.188E-03    -60.1978E-03    -839.441E-06    -44.0327E+06    -63.6648E+06    -260.310E+06    -63.6669E+06    -260.308E+06    -44.0327E+06     204.732E+03         29.7501
            1332     4.70944E-03     72.0508E-03         2.31653    -675.796E-03    -697.561E-03    -671.500E-03         2.29143    -676.760E-03    -105.470E-03     120.098E-03    -59.9129E-03    -60.2086E-03    -59.9124E-03     120.098E-03    -60.2086E-03    -184.525E-06    -33.7783E+06    -58.8019E+06    -244.544E+06    -58.8099E+06    -244.536E+06    -33.7783E+06     316.992E+03         30.0370
            1333     5.65193E-03     72.0500E-03         2.31149    -672.928E-03    -688.692E-03    -674.238E-03         2.30019    -676.083E-03     73.1829E-03     119.966E-03    -59.7854E-03    -60.2025E-03    -59.7834E-03     119.964E-03    -60.2025E-03     989.410E-06    -23.4177E+06    -53.2248E+06    -223.438E+06    -53.2529E+06    -223.410E+06    -23.4177E+06     1.49724E+06         30.4130
            1334     6.59382E-03     72.0511E-03         2.30367    -669.862E-03    -681.285E-03    -670.796E-03         2.29889    -675.578E-03    -53.0899E-03     119.955E-03    -59.7931E-03    -60.1894E-03    -59.7813E-03     119.944E-03    -60.1894E-03     2.71266E-03    -16.0162E+06    -49.4167E+06    -196.857E+06    -49.5147E+06    -196.759E+06    -16.0162E+06     3.37149E+06         30.9242
            1335     7.53574E-03     72.0555E-03         2.31266    -672.242E-03    -691.132E-03    -684.582E-03         2.30964    -675.767E-03    -11.8761E-03     119.785E-03    -59.6707E-03    -60.1418E-03    -59.6407E-03     119.755E-03    -60.1418E-03     4.56256E-03    -14.6040E+06    -47.2964E+06    -160.776E+06    -47.3979E+06    -160.674E+06    -14.6040E+06     2.84187E+06         31.6758
            1336     8.47796E-03     72.0607E-03         2.31244    -674.091E-03    -691.253E-03    -686.351E-03         2.31025    -676.812E-03    -47.0047E-03     119.534E-03    -59.5098E-03    -60.0556E-03    -59.4299E-03     119.454E-03    -60.0556E-03     7.30888E-03    -15.0340E+06    -44.6182E+06    -121.545E+06    -44.6890E+06    -121.474E+06    -15.0340E+06     1.34567E+06         32.8693
            1337     9.42026E-03     72.0706E-03         2.28710    -663.688E-03    -677.285E-03    -663.704E-03         2.28646    -676.627E-03     28.2137E-03     119.519E-03    -59.5666E-03    -60.0047E-03    -59.3264E-03     119.279E-03    -60.0047E-03     12.6511E-03    -10.8708E+06    -40.0501E+06    -79.1187E+06    -40.3141E+06    -78.8548E+06    -10.8708E+06     2.08463E+06         34.7298
            1338     10.3623E-03     72.0881E-03         2.28244    -661.443E-03    -675.238E-03    -661.292E-03         2.28229    -675.238E-03    -22.1560E-03     119.250E-03    -59.3593E-03    -59.9485E-03    -59.0263E-03     118.917E-03    -59.9485E-03     15.3963E-03    -3.41958E+06    -21.4692E+06    -46.0524E+06    -36.7356E+06    -28.3246E+06    -5.88097E+06     2.36685E+06         37.3208
            1339     11.3057E-03     72.1034E-03         2.29121    -667.272E-03    -674.193E-03    -667.298E-03         2.29120    -674.158E-03     8.93609E-03     119.006E-03    -59.2383E-03    -59.8004E-03    -58.5703E-03     118.338E-03    -59.8004E-03     20.8832E-03     41.8894E+06    -10.2120E+06    -35.4415E+06    -35.3348E+06     41.4628E+06    -9.89219E+06     1.98044E+06         40.5991
            1340     12.2482E-03     72.1341E-03         2.29083    -667.398E-03    -674.850E-03    -668.773E-03         2.29076    -673.407E-03     1.58588E-03     120.256E-03    -59.6149E-03    -60.7064E-03    -58.1294E-03     117.841E-03    -59.7763E-03     39.6268E-03     87.5151E+06     2.29381E+06    -34.1201E+06    -34.0912E+06     87.4862E+06     2.29381E+06     996.647E+03         44.5332
            1341     13.1912E-03     72.1903E-03         2.27641    -657.475E-03    -673.672E-03    -658.820E-03         2.27635    -672.264E-03    -522.312E-06     123.547E-03    -59.8775E-03    -63.7063E-03    -57.9713E-03     117.812E-03    -59.8775E-03     63.6384E-03     95.0369E+06     37.3738E+06    -31.1910E+06    -31.1725E+06     95.0183E+06     37.3738E+06     240.977E+03         49.0981
            1342     14.1356E-03     72.2727E-03         2.25912    -645.486E-03    -670.102E-03    -645.476E-03         2.25911    -670.102E-03     8.83116E-03     140.097E-03    -60.0049E-03    -80.0337E-03    -60.2708E-03     120.334E-03    -60.0049E-03     120.686E-03     102.382E+06     76.4485E+06    -25.2232E+06    -25.1376E+06     102.296E+06     76.4485E+06     369.728E+03         54.2734
            1343     15.0785E-03     72.4598E-03         2.25332    -647.624E-03    -667.084E-03    -647.563E-03         2.25326    -667.084E-03    -8.74279E-03     174.210E-03    -60.1425E-03    -113.972E-03    -64.5510E-03     124.789E-03    -60.1425E-03     215.242E-03     118.572E+06     111.945E+06    -16.6543E+06    -16.5848E+06     118.503E+06     111.945E+06     193.921E+03         59.5945
            1344     16.0211E-03     72.7616E-03         2.24789    -650.086E-03    -663.966E-03    -650.020E-03         2.24782    -663.966E-03    -6.50864E-03     184.101E-03    -60.1831E-03    -123.856E-03    -66.0593E-03     126.304E-03    -60.1831E-03     240.065E-03     141.755E+06     136.580E+06    -7.99702E+06    -7.99415E+06     141.752E+06     136.580E+06     345.469E+03         63.9314
            1345     941.676E-06     73.1824E-03         3.83949    -756.811E-03        -2.15787    -602.935E-03         2.28456    -756.811E-03        -2.05354     120.291E-03    -59.9025E-03    -60.3916E-03    -60.3523E-03     120.290E-03    -59.9406E-03    -851.050E-06    -71.4687E+06    -77.2380E+06    -279.973E+06    -76.4065E+06    -279.904E+06    -72.3691E+06    -254.730E+03         29.3163
            1346     1.88367E-03     73.1802E-03         2.71558    -678.093E-03        -1.11603    -670.685E-03         2.27024    -678.093E-03     687.517E-03     120.272E-03    -60.0235E-03    -60.2576E-03    -60.1008E-03     120.270E-03    -60.1787E-03    -1.06972E-03    -65.1212E+06    -72.7058E+06    -276.109E+06    -72.3891E+06    -276.101E+06    -65.4460E+06     768.685E+03         29.4033
            1347     2.82576E-03     73.1788E-03         2.40749    -673.407E-03    -816.632E-03    -656.324E-03         2.24718    -673.407E-03    -340.538E-03     120.261E-03    -59.9932E-03    -60.2882E-03    -60.0711E-03     120.259E-03    -60.2085E-03    -1.11447E-03    -55.6222E+06    -68.6249E+06    -269.545E+06    -68.6282E+06    -269.542E+06    -55.6222E+06     683.662E+03         29.5455
            1348     3.76751E-03     73.1782E-03         2.29531    -668.015E-03    -710.484E-03    -647.550E-03         2.23237    -668.015E-03     187.178E-03     120.174E-03    -59.9488E-03    -60.2568E-03    -59.9787E-03     120.173E-03    -60.2259E-03    -804.809E-06    -44.6038E+06    -64.7337E+06    -260.409E+06    -64.7363E+06    -260.406E+06    -44.6038E+06     620.038E+03         29.7534
            1349     4.70953E-03     73.1765E-03         2.28707    -665.902E-03    -699.199E-03    -670.269E-03         2.25814    -665.902E-03    -75.1079E-03     120.064E-03    -59.8627E-03    -60.2232E-03    -59.8625E-03     120.063E-03    -60.2232E-03    -187.960E-06    -34.5400E+06    -60.6164E+06    -244.859E+06    -60.6251E+06    -244.850E+06    -34.5400E+06     714.869E+03         30.0395
            1350     5.65176E-03     73.1765E-03         2.29816    -667.837E-03    -701.588E-03    -685.808E-03         2.28238    -667.837E-03     77.4499E-03     120.135E-03    -59.9307E-03    -60.2235E-03    -59.9291E-03     120.134E-03    -60.2235E-03     815.587E-06    -25.4942E+06    -56.2320E+06    -225.950E+06    -56.2675E+06    -225.914E+06    -25.4942E+06     1.81324E+06         30.4151
            1351     6.59338E-03     73.1784E-03         2.27706    -663.595E-03    -681.163E-03    -668.396E-03         2.26996    -669.263E-03    -70.1708E-03     120.057E-03    -59.8618E-03    -60.2200E-03    -59.8503E-03     120.046E-03    -60.2200E-03     2.64427E-03    -17.8759E+06    -50.3499E+06    -199.039E+06    -50.4438E+06    -198.946E+06    -17.8759E+06     3.37594E+06         30.9252
            1352     7.53549E-03     73.1820E-03         2.26553    -656.262E-03    -677.245E-03    -661.622E-03         2.26237    -668.732E-03     23.2066E-03     119.722E-03    -59.5808E-03    -60.1696E-03    -59.5503E-03     119.692E-03    -60.1696E-03     4.59501E-03    -13.6499E+06    -44.3296E+06    -159.477E+06    -44.4487E+06    -159.358E+06    -13.6499E+06     3.48095E+06         31.6758
            1353     8.47794E-03     73.1874E-03         2.26247    -655.297E-03    -676.423E-03    -662.176E-03         2.26083    -667.909E-03    -31.4148E-03     119.533E-03    -59.4902E-03    -60.0740E-03    -59.4023E-03     119.445E-03    -60.0740E-03     7.61979E-03    -13.5402E+06    -41.1437E+06    -120.503E+06    -41.2534E+06    -120.393E+06    -13.5402E+06     2.40964E+06         32.8692
            1354     9.41993E-03     73.1978E-03         2.25427    -653.872E-03    -669.890E-03    -656.348E-03         2.25380    -666.945E-03     54.1885E-03     119.519E-03    -59.5664E-03    -60.0040E-03    -59.3142E-03     119.267E-03    -60.0040E-03     13.0373E-03    -13.5219E+06    -39.9959E+06    -80.5642E+06    -40.1411E+06    -80.4190E+06    -13.5219E+06     1.61972E+06         34.7298
            1355     10.3627E-03     73.2147E-03         2.25312    -653.175E-03    -668.767E-03    -656.068E-03         2.25307    -665.823E-03     2.14811E-03     119.355E-03    -59.4521E-03    -59.9597E-03    -59.1002E-03     119.003E-03    -59.9597E-03     15.8311E-03    -6.26550E+06    -20.9417E+06    -48.1149E+06    -38.4316E+06    -29.6487E+06    -7.24171E+06     3.05823E+06         37.3209
            1356     11.3042E-03     73.2311E-03         2.24667    -649.810E-03    -664.586E-03    -649.774E-03         2.24664    -664.586E-03     9.70329E-03     118.976E-03    -59.1678E-03    -59.8283E-03    -58.4947E-03     118.303E-03    -59.8283E-03     21.0761E-03      42.597E+06    -7.35243E+06    -36.3706E+06    -36.0647E+06     41.9712E+06    -7.03257E+06     3.24525E+06         40.5993
            1357     12.2479E-03     73.2593E-03         2.24727    -649.864E-03    -664.606E-03    -651.226E-03         2.24722    -663.198E-03     18.1979E-03     120.034E-03    -59.4285E-03    -60.6693E-03    -57.8941E-03     117.607E-03    -59.7769E-03     39.6039E-03     88.4018E+06     2.80384E+06    -33.6322E+06    -33.5788E+06     88.3484E+06     2.80384E+06     1.69988E+06         44.5341
            1358     13.1927E-03     73.3166E-03         2.24928    -653.129E-03    -665.315E-03    -656.423E-03         2.24924    -661.982E-03     395.132E-06     123.791E-03    -59.8647E-03    -63.9876E-03    -58.2239E-03     118.028E-03    -59.8647E-03     63.9290E-03     95.4399E+06     36.5845E+06    -29.9341E+06    -29.8904E+06     95.3962E+06     36.5845E+06     958.024E+03         49.0992
            1359     14.1346E-03     73.4003E-03         2.23915    -647.623E-03    -663.159E-03    -650.221E-03         2.23911    -660.523E-03     4.32516E-03     140.068E-03    -60.0169E-03    -79.9703E-03    -60.4563E-03     120.554E-03    -60.0169E-03     120.002E-03     103.855E+06     77.2520E+06    -24.1230E+06    -24.0711E+06     103.803E+06     77.2520E+06    -393.837E+03         54.2735
            1360     15.0776E-03     73.5865E-03         2.22423    -641.437E-03    -658.899E-03    -641.905E-03         2.22398    -658.189E-03    -24.2440E-03     173.863E-03    -60.1776E-03    -113.657E-03    -64.5828E-03     124.789E-03    -60.1776E-03     214.291E-03     118.212E+06     112.041E+06    -17.1204E+06    -17.0739E+06     118.166E+06     112.041E+06    -1.14469E+06         59.5944
            1361     16.0227E-03     73.8878E-03         2.21375    -640.640E-03    -655.283E-03    -640.240E-03         2.21335    -655.283E-03    -6.87999E-03     183.861E-03    -60.2150E-03    -123.709E-03    -65.9502E-03     126.103E-03    -60.2150E-03     239.852E-03     140.677E+06     135.476E+06    -9.28419E+06    -9.26778E+06     140.661E+06     135.476E+06     139.076E+03         63.9332
            1362     942.411E-06     74.3084E-03         3.88357    -655.460E-03        -2.31376    -703.659E-03         2.27347    -655.460E-03        -2.18082     120.134E-03    -59.8988E-03    -60.2380E-03    -60.2369E-03     120.133E-03    -59.8988E-03    -849.296E-06    -70.3044E+06    -78.0496E+06    -280.369E+06    -75.9944E+06    -280.330E+06    -72.3989E+06     1.43123E+06         29.3185
            1363     1.88393E-03     74.3071E-03         2.69734    -672.137E-03        -1.12021    -642.419E-03         2.21955    -672.137E-03     694.935E-03     120.431E-03    -60.1535E-03    -60.2876E-03    -60.2845E-03     120.429E-03    -60.1549E-03    -1.08242E-03    -65.3784E+06    -72.7582E+06    -276.877E+06    -72.7629E+06    -276.872E+06    -65.3784E+06    -84.8697E+03         29.4075
            1364     2.82508E-03     74.3059E-03         2.39002    -663.308E-03    -823.312E-03    -654.855E-03         2.22157    -663.308E-03    -380.499E-03     120.333E-03    -60.0726E-03    -60.2816E-03    -60.1199E-03     120.331E-03    -60.2329E-03    -1.01926E-03    -57.0565E+06    -69.1958E+06    -270.747E+06    -69.2064E+06    -270.736E+06    -57.0565E+06     1.25302E+06         29.5505
            1365     3.76752E-03     74.3041E-03         2.29207    -661.829E-03    -724.801E-03    -661.228E-03         2.22850    -661.829E-03     158.340E-03     120.183E-03    -59.9625E-03    -60.2514E-03    -59.9614E-03     120.182E-03    -60.2514E-03    -845.382E-06    -44.6717E+06    -65.0775E+06    -261.074E+06    -65.0990E+06    -261.053E+06    -44.6717E+06     1.79827E+06         29.7580
            1366     4.70973E-03     74.3033E-03         2.26504    -657.335E-03    -699.914E-03    -664.482E-03         2.23427    -662.002E-03    -101.884E-03     120.273E-03    -60.0419E-03    -60.2566E-03    -60.0415E-03     120.273E-03    -60.2566E-03    -294.899E-06    -34.6140E+06    -61.0240E+06    -244.975E+06    -61.0502E+06    -244.949E+06    -34.6140E+06     2.03873E+06         30.0425
            1367     5.65094E-03     74.3036E-03         2.24719    -653.074E-03    -683.055E-03    -657.916E-03         2.23089    -661.913E-03     59.0795E-03     120.155E-03    -59.9143E-03    -60.2637E-03    -59.9123E-03     120.153E-03    -60.2637E-03     898.732E-06    -26.6928E+06    -56.4292E+06    -227.629E+06    -56.4557E+06    -227.602E+06    -26.6928E+06     2.10144E+06         30.4145
            1368     6.59328E-03     74.3052E-03         2.23265    -650.510E-03    -668.564E-03    -649.929E-03         2.22429    -660.788E-03    -69.1155E-03     119.857E-03    -59.6525E-03    -60.2287E-03    -59.6389E-03     119.843E-03    -60.2287E-03     2.87454E-03    -20.8782E+06    -51.1676E+06    -199.678E+06    -51.1927E+06    -199.653E+06    -20.8782E+06     1.90017E+06         30.9220
            1369     7.53564E-03     74.3085E-03         2.21147    -640.685E-03    -658.642E-03    -637.358E-03         2.20814    -658.642E-03     45.8394E-03     119.718E-03    -59.5797E-03    -60.1671E-03    -59.5460E-03     119.684E-03    -60.1671E-03     4.85362E-03    -15.9463E+06    -46.2601E+06    -159.910E+06    -46.3065E+06    -159.863E+06    -15.9463E+06     2.09507E+06         31.6737
            1370     8.47766E-03     74.3141E-03         2.21491    -641.680E-03    -661.635E-03    -645.361E-03         2.21358    -656.622E-03    -23.3012E-03     119.539E-03    -59.4821E-03    -60.0888E-03    -59.3935E-03     119.451E-03    -60.0888E-03     7.68474E-03    -12.5238E+06    -41.7312E+06    -120.526E+06    -41.8544E+06    -120.403E+06    -12.5238E+06     2.83555E+06         32.8688
            1371     9.42045E-03     74.3242E-03         2.23569    -653.221E-03    -668.140E-03    -664.467E-03         2.23511    -656.311E-03     36.5876E-03     119.425E-03    -59.4456E-03    -60.0183E-03    -59.1930E-03     119.172E-03    -60.0183E-03     13.0273E-03    -10.8039E+06    -38.9973E+06    -82.0897E+06    -39.6505E+06    -81.4365E+06    -10.8039E+06     3.89977E+06         34.7301
            1372     10.3625E-03     74.3417E-03         2.22382    -646.320E-03    -663.252E-03    -652.807E-03         2.22349    -656.436E-03    -35.1281E-03     119.121E-03    -59.2230E-03    -59.9411E-03    -58.8592E-03     118.757E-03    -59.9411E-03     16.0920E-03    -3.83755E+06    -21.8513E+06    -51.4226E+06    -38.3702E+06    -31.3467E+06    -7.39450E+06     3.91012E+06         37.3221
            1373     11.3058E-03     74.3580E-03         2.20415    -635.147E-03    -655.274E-03    -634.964E-03         2.20396    -655.274E-03    -8.89445E-03     118.870E-03    -59.0975E-03    -59.7904E-03    -58.4171E-03     118.189E-03    -59.7904E-03     21.2860E-03     44.0876E+06    -7.76405E+06    -35.8331E+06    -35.6098E+06     43.8642E+06    -7.76405E+06     2.46916E+06         40.6015
            1374     12.2488E-03     74.3849E-03         2.20238    -636.058E-03    -653.498E-03    -636.002E-03         2.20232    -653.498E-03     7.42121E-03     120.623E-03    -59.5456E-03    -61.1316E-03    -58.5126E-03     118.221E-03    -59.7623E-03     39.5727E-03     89.7706E+06     2.78219E+06    -32.1892E+06    -32.1413E+06     89.7227E+06     2.78219E+06     1.37567E+06         44.5355
            1375     13.1909E-03     74.4435E-03         2.20652    -640.862E-03    -653.967E-03    -642.728E-03         2.20646    -652.041E-03    -23.3507E-03     124.279E-03    -59.8869E-03    -64.4401E-03    -58.6466E-03     118.486E-03    -59.8869E-03     64.1587E-03     96.5143E+06     36.5660E+06    -27.6433E+06    -27.5997E+06     96.4707E+06     36.5660E+06     698.052E+03         49.0985
            1376     14.1336E-03     74.5285E-03         2.20742    -646.348E-03    -653.403E-03    -648.911E-03         2.20734    -650.767E-03    -2.89520E-03     139.812E-03    -60.0499E-03    -79.7191E-03    -60.2215E-03     120.314E-03    -60.0499E-03     119.895E-03     104.277E+06     77.8811E+06    -22.3651E+06    -22.3479E+06     104.260E+06     77.8811E+06     513.728E+03         54.2723
            1377     15.0776E-03     74.7115E-03         2.19847    -641.820E-03    -649.479E-03    -642.326E-03         2.19827    -648.768E-03    -10.2702E-03     174.062E-03    -60.1866E-03    -113.874E-03    -64.4132E-03     124.601E-03    -60.1866E-03     215.074E-03     117.652E+06     111.015E+06    -15.9019E+06    -15.8645E+06     117.615E+06     111.015E+06     621.660E+03         59.5953
            1378     16.0190E-03     75.0160E-03         2.17916    -627.933E-03    -645.574E-03    -627.456E-03         2.17868    -645.574E-03     17.9956E-03     184.108E-03    -60.2108E-03    -123.884E-03    -65.7463E-03     125.970E-03    -60.2108E-03     240.624E-03     140.728E+06     135.391E+06    -7.96400E+06    -7.92700E+06     140.691E+06     135.391E+06     468.172E+03         63.9371
            1379     941.654E-06     75.4346E-03         3.95561    -513.231E-03        -2.54420    -788.945E-03         2.20035    -513.231E-03        -2.31341     120.352E-03    -59.9099E-03    -60.4433E-03    -60.3422E-03     120.350E-03    -60.0097E-03    -952.597E-06    -72.4694E+06    -76.1908E+06    -280.017E+06    -73.8899E+06    -279.963E+06    -74.8238E+06     116.454E+03         29.3275
            1380     1.88353E-03     75.4343E-03         2.73114    -652.234E-03        -1.18746    -656.793E-03         2.20047    -652.234E-03     757.306E-03     120.245E-03    -60.0088E-03    -60.2432E-03    -60.0610E-03     120.243E-03    -60.1894E-03    -1.06410E-03    -67.6358E+06    -73.6922E+06    -278.447E+06    -73.4428E+06    -278.436E+06    -67.8958E+06     700.979E+03         29.4131
            1381     2.82592E-03     75.4322E-03         2.40088    -655.931E-03    -856.644E-03    -671.157E-03         2.21539    -655.931E-03    -390.112E-03     120.348E-03    -60.0776E-03    -60.2898E-03    -60.1471E-03     120.347E-03    -60.2189E-03    -973.073E-06    -57.2425E+06    -70.4722E+06    -271.600E+06    -70.4844E+06    -271.587E+06    -57.2425E+06     1.38597E+06         29.5542
            1382     3.76744E-03     75.4309E-03         2.29022    -660.008E-03    -741.638E-03    -672.265E-03         2.22085    -660.008E-03     192.625E-03     120.459E-03    -60.1474E-03    -60.3414E-03    -60.2174E-03     120.458E-03    -60.2705E-03    -755.310E-06    -45.5761E+06    -65.4474E+06    -262.483E+06    -65.4737E+06    -262.456E+06    -45.5761E+06     2.18080E+06         29.7598
            1383     4.70869E-03     75.4303E-03         2.22857    -645.620E-03    -688.826E-03    -643.550E-03         2.19758    -659.907E-03    -103.583E-03     120.268E-03    -59.9952E-03    -60.2979E-03    -59.9947E-03     120.267E-03    -60.2979E-03    -125.080E-06    -34.4059E+06    -59.3298E+06    -245.813E+06    -59.3597E+06    -245.783E+06    -34.4059E+06     2.31034E+06         30.0417
            1384     5.65126E-03     75.4303E-03         2.18036    -628.654E-03    -654.832E-03    -613.609E-03         2.16531    -654.832E-03     87.5420E-03     120.001E-03    -59.7411E-03    -60.2855E-03    -59.7391E-03     119.999E-03    -60.2855E-03     993.153E-06    -25.0296E+06    -54.1496E+06    -227.936E+06    -54.1756E+06    -227.910E+06    -25.0296E+06     2.10665E+06         30.4117
            1385     6.59353E-03     75.4311E-03         2.18176    -634.189E-03    -653.288E-03    -631.311E-03         2.17564    -650.042E-03    -58.1503E-03     119.803E-03    -59.5993E-03    -60.2304E-03    -59.5853E-03     119.789E-03    -60.2304E-03     2.88778E-03    -19.4280E+06    -50.3034E+06    -199.840E+06    -50.3401E+06    -199.803E+06    -19.4280E+06     2.20682E+06         30.9191
            1386     7.53573E-03     75.4355E-03         2.18856    -639.475E-03    -657.833E-03    -645.470E-03         2.18521    -648.487E-03     673.890E-06     119.693E-03    -59.5582E-03    -60.1622E-03    -59.5213E-03     119.656E-03    -60.1622E-03     5.06444E-03    -15.7286E+06    -47.2450E+06    -160.461E+06    -47.2872E+06    -160.419E+06    -15.7286E+06     2.12377E+06         31.6719
            1387     8.47783E-03     75.4409E-03         2.18783    -638.270E-03    -659.321E-03    -647.199E-03         2.18565    -648.207E-03    -43.0347E-03     119.537E-03    -59.4806E-03    -60.0814E-03    -59.3910E-03     119.447E-03    -60.0814E-03     7.78732E-03    -13.4667E+06    -44.4909E+06    -122.671E+06    -44.6325E+06    -122.530E+06    -13.4667E+06     2.78124E+06         32.8682
            1388     9.41983E-03     75.4508E-03         2.18798    -637.404E-03    -656.848E-03    -645.611E-03         2.18730    -647.964E-03     31.7896E-03     119.266E-03    -59.2866E-03    -59.9981E-03    -59.0248E-03     119.004E-03    -59.9981E-03     13.1828E-03    -11.6854E+06    -39.9459E+06    -83.5745E+06     -40.624E+06    -82.8964E+06    -11.6854E+06     4.02535E+06         34.7305
            1389     10.3631E-03     75.4683E-03         2.18234    -634.733E-03    -653.477E-03    -640.485E-03         2.18202    -647.410E-03    -49.9786E-03     118.911E-03    -59.0454E-03    -59.8942E-03    -58.6841E-03     118.550E-03    -59.8942E-03     16.0030E-03    -3.05013E+06    -22.6148E+06    -49.0145E+06    -35.5783E+06    -30.2161E+06    -8.88510E+06     3.10240E+06         37.3236
            1390     11.3060E-03     75.4833E-03         2.17338    -631.617E-03    -648.601E-03    -633.623E-03         2.17318    -646.405E-03    -16.0621E-03     118.993E-03    -59.2744E-03    -59.7563E-03    -58.6201E-03     118.329E-03    -59.7468E-03     20.9653E-03     45.5209E+06    -9.31644E+06    -32.6365E+06    -32.5452E+06     45.4295E+06    -9.31644E+06     2.00748E+06         40.6036
            1391     12.2484E-03     75.5132E-03         2.16799    -629.162E-03    -645.012E-03    -629.117E-03         2.16795    -645.012E-03     3.30598E-03     121.022E-03    -59.7502E-03    -61.3510E-03    -58.8664E-03     118.548E-03    -59.7615E-03     40.1157E-03     91.1450E+06     4.83400E+06    -31.0866E+06    -31.0421E+06     91.1004E+06     4.83400E+06     1.47183E+06         44.5370
            1392     13.1903E-03     75.5709E-03         2.16154    -627.177E-03    -643.387E-03    -627.104E-03         2.16147    -643.387E-03    -26.4378E-03     124.432E-03    -59.9109E-03    -64.5864E-03    -58.6370E-03     118.483E-03    -59.9109E-03     65.0675E-03     97.0825E+06     38.9774E+06    -28.6523E+06    -28.6182E+06     97.0484E+06     38.9774E+06     726.347E+03         49.0996
            1393     14.1343E-03     75.6543E-03         2.14930    -620.598E-03    -641.264E-03    -620.523E-03         2.14922    -641.264E-03    -9.15482E-03     139.594E-03    -60.0646E-03    -79.5392E-03    -59.8355E-03     119.890E-03    -60.0646E-03     120.429E-03     103.171E+06     78.1928E+06    -24.0574E+06    -24.0180E+06     103.132E+06     78.1928E+06     1.28407E+06         54.2748
            1394     15.0775E-03     75.8390E-03         2.14207    -616.928E-03    -638.107E-03    -616.900E-03         2.14204    -638.107E-03     3.01854E-03     174.080E-03    -60.1655E-03    -113.903E-03    -63.9680E-03     124.146E-03    -60.1655E-03     215.918E-03     117.416E+06     111.697E+06    -16.9570E+06    -16.9053E+06     117.365E+06     111.697E+06     1.75986E+06         59.6007
            1395     16.0246E-03     76.1423E-03         2.12865    -613.634E-03    -634.156E-03    -613.482E-03         2.12850    -634.156E-03     17.8479E-03     184.417E-03    -60.1745E-03    -124.179E-03    -65.9429E-03     126.181E-03    -60.1745E-03     240.976E-03     141.779E+06     137.072E+06    -7.72621E+06    -7.70227E+06     141.755E+06     137.072E+06     766.680E+03         63.9442
            1396     941.445E-06     76.5618E-03         3.99419    -365.755E-03        -2.75824    -890.393E-03         2.12634    -365.755E-03        -2.42400     120.445E-03    -60.0130E-03    -60.4325E-03    -60.2602E-03     120.444E-03    -60.1841E-03    -942.674E-06    -74.3426E+06    -77.2769E+06    -281.892E+06    -76.9973E+06    -281.855E+06    -74.6592E+06    -177.649E+03         29.3332
            1397     1.88380E-03     76.5600E-03         2.75653    -635.468E-03        -1.24600    -665.000E-03         2.17553    -635.468E-03     779.081E-03     120.336E-03    -60.0583E-03    -60.2844E-03    -60.1036E-03     120.334E-03    -60.2375E-03    -1.09088E-03    -67.2369E+06    -73.9364E+06    -278.728E+06    -73.6885E+06    -278.716E+06    -67.4969E+06     1.27133E+06         29.4165
            1398     2.82564E-03     76.5589E-03         2.39851    -646.042E-03    -880.533E-03    -665.125E-03         2.18310    -646.042E-03    -390.873E-03     120.410E-03    -60.0491E-03    -60.3787E-03    -60.1645E-03     120.408E-03    -60.2614E-03    -1.14686E-03    -56.8737E+06    -70.1820E+06    -271.937E+06    -70.1929E+06    -271.926E+06    -56.8737E+06     1.47241E+06         29.5543
            1399     3.76703E-03     76.5583E-03         2.25236    -648.954E-03    -728.832E-03    -646.669E-03         2.17020    -648.954E-03     252.009E-03     120.298E-03    -59.9713E-03    -60.3560E-03    -60.0415E-03     120.297E-03    -60.2850E-03    -655.179E-06    -45.6632E+06    -65.7301E+06    -263.511E+06    -65.7403E+06    -263.501E+06    -45.6632E+06     1.36152E+06         29.7563
            1400     4.70934E-03     76.5566E-03         2.18218    -636.859E-03    -666.075E-03    -624.453E-03         2.15018    -646.479E-03    -103.511E-03     120.113E-03    -59.8606E-03    -60.2749E-03    -59.8602E-03     120.112E-03    -60.2749E-03     170.156E-06    -35.5479E+06    -60.4677E+06    -247.382E+06    -60.4904E+06    -247.359E+06    -35.5479E+06     1.86777E+06         30.0372
            1401     5.65131E-03     76.5566E-03         2.15166    -624.833E-03    -648.416E-03    -616.904E-03         2.13749    -642.172E-03     106.031E-03     120.039E-03    -59.7962E-03    -60.2638E-03    -59.7940E-03     120.037E-03    -60.2638E-03     1.15724E-03    -24.7277E+06    -55.3513E+06    -228.393E+06    -55.3933E+06    -228.351E+06    -24.7277E+06     2.65809E+06         30.4091
            1402     6.59326E-03     76.5580E-03         2.15582    -631.963E-03    -647.357E-03    -634.484E-03         2.15067    -639.681E-03    -39.6727E-03     119.876E-03    -59.6784E-03    -60.2218E-03    -59.6650E-03     119.863E-03    -60.2218E-03     2.85711E-03    -18.6714E+06    -50.5750E+06    -199.929E+06    -50.6235E+06    -199.880E+06    -18.6714E+06     2.62694E+06         30.9179
            1403     7.53572E-03     76.5617E-03         2.16650    -639.976E-03    -654.304E-03    -651.124E-03         2.16333    -639.976E-03     8.81812E-03     119.555E-03    -59.4354E-03    -60.1429E-03    -59.3970E-03     119.516E-03    -60.1429E-03     5.13181E-03    -15.9157E+06    -45.9957E+06    -161.000E+06    -46.0602E+06    -160.935E+06    -15.9157E+06     2.61044E+06         31.6712
            1404     8.47814E-03     76.5682E-03         2.14728    -627.075E-03    -648.866E-03    -633.553E-03         2.14514    -640.244E-03    -27.3325E-03     119.361E-03    -59.3360E-03    -60.0518E-03    -59.2433E-03     119.268E-03    -60.0518E-03     7.95002E-03    -13.3415E+06    -42.2590E+06    -124.617E+06    -42.4155E+06    -124.460E+06    -13.3415E+06     3.22605E+06         32.8682
            1405     9.42079E-03     76.5769E-03         2.12363    -612.679E-03    -638.441E-03    -611.985E-03         2.12294    -638.441E-03     60.8191E-03     119.257E-03    -59.3227E-03    -59.9652E-03    -59.0687E-03     119.003E-03    -59.9652E-03     13.0224E-03    -11.8110E+06    -39.0328E+06    -82.5058E+06    -39.1755E+06    -82.3631E+06    -11.8110E+06     2.32862E+06         34.7314
            1406     10.3635E-03     76.5944E-03         2.14027    -624.083E-03    -643.075E-03    -630.455E-03         2.14024    -636.676E-03    -10.2413E-03     119.126E-03    -59.2902E-03    -59.8734E-03    -58.9302E-03     118.766E-03    -59.8734E-03     15.9929E-03    -4.36528E+06     -23.239E+06    -47.2227E+06    -35.9501E+06    -28.9879E+06    -9.88905E+06     1.08552E+06         37.3247
            1407     11.3056E-03     76.6109E-03         2.15251    -632.607E-03    -646.730E-03    -642.834E-03         2.15247    -636.463E-03    -8.38642E-03     119.077E-03    -59.3660E-03    -59.7541E-03    -58.7120E-03     118.414E-03    -59.7446E-03     21.0265E-03     44.7399E+06    -10.1116E+06    -33.3112E+06    -33.1931E+06     44.6218E+06    -10.1116E+06     2.06581E+06         40.6047
            1408     12.2485E-03     76.6393E-03         2.13175    -618.883E-03    -639.787E-03    -622.712E-03         2.13171    -635.919E-03     6.62994E-03     120.584E-03    -59.6282E-03    -61.0486E-03    -58.3876E-03     118.043E-03    -59.7485E-03     40.3999E-03     90.8349E+06     5.00223E+06    -31.6805E+06    -31.5963E+06     90.7506E+06     5.00223E+06     3.00864E+06         44.5394
            1409     13.1924E-03     76.6986E-03         2.11644    -609.905E-03    -634.023E-03    -609.827E-03         2.11636    -634.023E-03    -11.2605E-03     124.058E-03    -59.8666E-03    -64.2824E-03    -58.2954E-03     118.071E-03    -59.8666E-03     65.2895E-03     97.6185E+06     40.7181E+06    -29.6669E+06    -29.5378E+06     97.4894E+06     40.7181E+06     3.02335E+06         49.1043
            1410     14.1342E-03     76.7812E-03         2.10824    -605.492E-03    -631.344E-03    -605.395E-03         2.10814    -631.344E-03    -4.94314E-03     139.383E-03    -60.0076E-03    -79.3700E-03    -59.7731E-03     119.786E-03    -60.0076E-03     119.965E-03     103.619E+06     78.3952E+06    -25.3003E+06    -25.1778E+06     103.496E+06     78.3952E+06     2.13663E+06         54.2809
            1411     15.0798E-03     76.9637E-03         2.08832    -592.356E-03    -627.670E-03    -592.143E-03         2.08810    -627.670E-03    -13.1763E-03     173.945E-03    -60.1261E-03    -113.850E-03    -64.2225E-03     124.317E-03    -60.1261E-03     215.364E-03     118.285E+06     111.342E+06    -18.1352E+06    -18.1009E+06     118.250E+06     111.342E+06     860.002E+03         59.6067
            1412     16.0216E-03     77.2685E-03         2.07510    -589.028E-03    -623.275E-03    -588.822E-03         2.07489    -623.275E-03    -12.2543E-03     184.207E-03    -60.1584E-03    -124.061E-03    -66.3044E-03     126.451E-03    -60.1584E-03     240.061E-03     142.490E+06     136.725E+06    -9.36064E+06    -9.35501E+06     142.484E+06     136.725E+06    -7.67505E+03         63.9498
            1413     942.292E-06     77.6880E-03         4.04100    -303.635E-03        -2.88044    -969.760E-03         2.13032    -303.635E-03        -2.47803     120.395E-03    -60.0317E-03    -60.3637E-03    -60.2902E-03     120.393E-03    -60.1030E-03    -1.18292E-03    -75.0683E+06    -78.2895E+06    -282.825E+06    -78.2377E+06    -282.820E+06    -75.1250E+06     582.403E+03         29.3290
            1414     1.88347E-03     77.6872E-03         2.74225    -634.470E-03        -1.24917    -625.763E-03         2.11884    -634.470E-03     818.422E-03     120.529E-03    -60.2160E-03    -60.3210E-03    -60.2777E-03     120.528E-03    -60.2580E-03    -851.170E-06    -67.4211E+06    -75.0211E+06    -279.907E+06    -75.0269E+06    -279.901E+06    -67.4211E+06     862.194E+03         29.4128
            1415     2.82469E-03     77.6860E-03         2.35201    -632.601E-03    -861.889E-03    -634.390E-03         2.12451    -632.601E-03    -405.399E-03     120.334E-03    -60.0100E-03    -60.3406E-03    -60.0550E-03     120.333E-03    -60.2942E-03    -886.161E-06    -57.1819E+06    -70.1246E+06    -273.055E+06    -70.1361E+06    -273.044E+06    -57.1819E+06     1.49244E+06         29.5492
            1416     3.76764E-03     77.6841E-03         2.20411    -631.905E-03    -712.406E-03    -623.817E-03         2.11552    -631.905E-03     228.699E-03     120.025E-03    -59.7808E-03    -60.2700E-03    -59.7801E-03     120.024E-03    -60.2700E-03    -641.488E-06    -45.0294E+06    -65.4669E+06    -264.056E+06    -65.4898E+06    -264.033E+06    -45.0294E+06     1.87593E+06         29.7508
            1417     4.70972E-03     77.6835E-03         2.15403    -630.583E-03    -661.642E-03    -627.357E-03         2.11975    -630.583E-03    -150.302E-03     120.044E-03    -59.8332E-03    -60.2322E-03    -59.8330E-03     120.044E-03    -60.2322E-03     88.8114E-06    -35.1780E+06    -61.2732E+06    -248.157E+06    -61.3015E+06    -248.129E+06    -35.1780E+06     1.94780E+06         30.0329
            1418     5.65159E-03     77.6834E-03         2.13519    -630.461E-03    -646.040E-03    -632.861E-03         2.12201    -630.461E-03     73.4684E-03     120.037E-03    -59.8387E-03    -60.2201E-03    -59.8361E-03     120.035E-03    -60.2201E-03     1.17519E-03    -25.2367E+06    -55.6274E+06    -229.253E+06    -55.6554E+06    -229.225E+06    -25.2367E+06     1.84926E+06         30.4062
            1419     6.59375E-03     77.6845E-03         2.12077    -627.905E-03    -637.009E-03    -627.812E-03         2.11413    -630.460E-03    -33.8173E-03     119.848E-03    -59.6824E-03    -60.1890E-03    -59.6674E-03     119.833E-03    -60.1890E-03     3.04193E-03    -18.3269E+06    -49.6673E+06    -200.270E+06    -49.6997E+06    -200.238E+06    -18.3269E+06     1.98218E+06         30.9165
            1420     7.53573E-03     77.6882E-03         2.11026    -621.718E-03    -634.757E-03    -622.422E-03         2.10598    -629.775E-03     22.2424E-03     119.588E-03    -59.4923E-03    -60.1180E-03    -59.4538E-03     119.549E-03    -60.1180E-03     5.16779E-03    -15.0998E+06    -44.8103E+06    -161.509E+06    -44.8642E+06    -161.455E+06    -15.0998E+06     2.37449E+06         31.6707
            1421     8.47854E-03     77.6938E-03         2.10344    -615.004E-03    -636.803E-03    -620.579E-03         2.10100    -628.789E-03    -34.2155E-03     119.359E-03    -59.3474E-03    -60.0419E-03    -59.2601E-03     119.271E-03    -60.0419E-03     7.72390E-03    -11.8700E+06    -40.6415E+06    -125.768E+06    -40.7359E+06    -125.673E+06    -11.8700E+06     2.72757E+06         32.8683
            1422     9.42083E-03     77.7043E-03         2.09844    -612.504E-03    -633.216E-03    -617.183E-03         2.09761    -627.706E-03     39.5967E-03     119.359E-03    -59.4374E-03    -59.9668E-03    -59.1987E-03     119.120E-03    -59.9668E-03     12.6389E-03    -9.68169E+06    -37.6367E+06    -80.8032E+06    -37.8208E+06    -80.6191E+06    -9.68169E+06     2.36392E+06         34.7319
            1423     10.3628E-03     77.7207E-03         2.09023    -604.963E-03    -630.492E-03    -609.018E-03         2.09006    -626.272E-03    -17.2645E-03     119.133E-03    -59.2868E-03    -59.8875E-03    -58.9229E-03     118.769E-03    -59.8875E-03     16.0955E-03    -4.88668E+06    -21.6239E+06    -45.5562E+06    -36.5049E+06    -28.4056E+06    -7.15623E+06     1.47740E+06         37.3257
            1424     11.3058E-03     77.7384E-03         2.09653    -609.487E-03    -633.052E-03    -617.517E-03         2.09649    -624.981E-03     8.47693E-03     118.993E-03    -59.2133E-03    -59.8154E-03    -58.5933E-03     118.308E-03    -59.7508E-03     21.4364E-03     42.2093E+06    -9.74231E+06    -35.2815E+06    -35.1698E+06     41.6969E+06    -9.34165E+06     2.02323E+06         40.6064
            1425     12.2488E-03     77.7649E-03         2.09577    -614.394E-03    -629.257E-03    -619.479E-03         2.09570    -624.099E-03     19.3511E-03     120.451E-03    -59.6126E-03    -60.9281E-03    -58.3384E-03     117.982E-03    -59.7329E-03     39.9261E-03     89.5852E+06     3.26366E+06    -33.1123E+06    -32.9133E+06     89.3863E+06     3.26366E+06     4.32333E+06         44.5419
            1426     13.1918E-03     77.8254E-03         2.07566    -600.292E-03    -623.795E-03    -601.521E-03         2.07560    -622.505E-03     8.06949E-03     123.364E-03    -59.8242E-03    -63.6069E-03    -57.6688E-03     117.426E-03    -59.8242E-03     64.6422E-03     97.5394E+06     38.1352E+06    -29.8030E+06    -29.5483E+06     97.2847E+06     38.1352E+06     5.17310E+06         49.1089
            1427     14.1368E-03     77.9080E-03         2.06885    -599.440E-03    -619.922E-03    -599.296E-03         2.06871    -619.922E-03     18.8896E-03     139.310E-03    -59.9445E-03    -79.3021E-03    -59.7916E-03     119.799E-03    -59.9445E-03     119.963E-03     105.785E+06     78.0313E+06    -23.8955E+06    -23.7738E+06     105.664E+06     78.0313E+06     2.77930E+06         54.2874
            1428     15.0784E-03     78.0896E-03         2.06147    -597.853E-03    -616.851E-03    -597.820E-03         2.06116    -616.574E-03    -3.57178E-03     174.762E-03    -60.1068E-03    -114.655E-03    -65.3683E-03     125.475E-03    -60.1068E-03     215.486E-03     120.395E+06     113.083E+06    -16.1270E+06    -16.1037E+06     120.372E+06     113.083E+06     440.138E+03         59.6112
            1429     16.0228E-03     78.3972E-03         2.04327    -586.561E-03    -612.715E-03    -586.120E-03         2.04255    -612.438E-03     16.2297E-03     183.932E-03    -60.1787E-03    -123.762E-03    -66.3318E-03     126.502E-03    -60.1787E-03     239.339E-03     142.608E+06     136.783E+06    -8.48981E+06    -8.47992E+06     142.598E+06     136.783E+06     31.8311E+03         63.9537
            1430     941.365E-06     78.8147E-03         4.06466    -213.260E-03        -3.00997        -1.01665         2.07134    -213.260E-03        -2.47342     120.349E-03    -59.9550E-03    -60.3972E-03    -60.3955E-03     120.347E-03    -59.9550E-03    -922.106E-06    -76.0977E+06    -78.4940E+06    -283.499E+06    -78.1610E+06    -283.493E+06    -76.4369E+06     878.341E+03         29.3190
            1431     1.88358E-03     78.8141E-03         2.74947    -616.067E-03        -1.29454    -621.039E-03         2.07597    -616.067E-03     900.789E-03     120.302E-03    -60.0652E-03    -60.2453E-03    -60.1069E-03     120.301E-03    -60.2027E-03    -674.819E-06    -68.9578E+06    -75.7406E+06    -280.941E+06    -75.7448E+06    -280.936E+06    -68.9578E+06     928.378E+03         29.4031
            1432     2.82606E-03     78.8124E-03         2.31351    -618.682E-03    -859.845E-03    -626.747E-03         2.08041    -618.682E-03    -428.594E-03     120.164E-03    -59.9661E-03    -60.2142E-03    -59.9648E-03     120.163E-03    -60.2142E-03    -869.109E-06    -58.2670E+06    -72.0162E+06    -274.922E+06    -72.0240E+06    -274.914E+06    -58.2670E+06     1.19915E+06         29.5409
            1433     3.76740E-03     78.8104E-03         2.16984    -620.383E-03    -712.456E-03    -623.125E-03         2.08051    -620.383E-03     208.702E-03     120.152E-03    -59.9579E-03    -60.2201E-03    -59.9572E-03     120.152E-03    -60.2201E-03    -627.973E-06    -45.7966E+06    -66.4154E+06    -265.152E+06    -66.4388E+06    -265.129E+06    -45.7966E+06     1.95048E+06         29.7456
            1434     4.70953E-03     78.8099E-03         2.12070    -621.020E-03    -659.915E-03    -623.899E-03         2.08468    -621.020E-03    -160.547E-03     120.006E-03    -59.8138E-03    -60.2138E-03    -59.8135E-03     120.006E-03    -60.2138E-03     71.1631E-06    -34.4757E+06    -60.4046E+06    -247.678E+06    -60.4252E+06    -247.657E+06    -34.4757E+06     1.70686E+06         30.0293
            1435     5.65177E-03     78.8099E-03         2.09198    -619.523E-03    -631.685E-03    -616.857E-03         2.07859    -620.963E-03     75.3512E-03     119.861E-03    -59.6972E-03    -60.1879E-03    -59.6948E-03     119.858E-03    -60.1879E-03     1.12787E-03    -25.5620E+06    -55.3581E+06    -229.847E+06    -55.3654E+06    -229.840E+06    -25.5620E+06     1.05455E+06         30.4032
            1436     6.59394E-03     78.8110E-03         2.07494    -614.886E-03    -622.022E-03    -610.109E-03         2.06804    -619.904E-03    -27.1652E-03     119.823E-03    -59.7002E-03    -60.1484E-03    -59.6861E-03     119.808E-03    -60.1484E-03     2.95503E-03    -19.4050E+06    -50.5700E+06    -201.035E+06    -50.5854E+06    -201.020E+06    -19.4050E+06     1.27583E+06         30.9148
            1437     7.53647E-03     78.8145E-03         2.06329    -609.306E-03    -620.023E-03    -605.913E-03         2.05826    -618.386E-03     12.6168E-03     119.691E-03    -59.6196E-03    -60.0983E-03    -59.5840E-03     119.655E-03    -60.0983E-03     4.97723E-03    -15.3313E+06    -46.0704E+06    -162.209E+06    -46.1042E+06    -162.175E+06    -15.3313E+06     1.80303E+06         31.6702
            1438     8.47791E-03     78.8208E-03         2.07181    -612.010E-03    -625.539E-03    -616.875E-03         2.06865    -617.512E-03    -39.6834E-03     119.439E-03    -59.4334E-03    -60.0361E-03    -59.3416E-03     119.348E-03    -60.0361E-03     7.83147E-03    -12.3886E+06    -42.0610E+06    -126.606E+06    -42.1244E+06    -126.542E+06    -12.3886E+06     2.20231E+06         32.8683
            1439     9.42052E-03     78.8303E-03         2.07421    -613.636E-03    -623.855E-03    -618.894E-03         2.07306    -617.447E-03     34.1236E-03     119.338E-03    -59.4187E-03    -59.9576E-03    -59.1594E-03     119.079E-03    -59.9576E-03     13.1804E-03    -10.9303E+06    -38.5283E+06    -81.4060E+06    -39.0404E+06    -80.8939E+06    -10.9303E+06     3.12037E+06         34.7324
            1440     10.3634E-03     78.8480E-03         2.04527    -589.991E-03    -616.186E-03    -589.750E-03         2.04501    -616.168E-03    -25.4274E-03     119.067E-03    -59.2224E-03    -59.8866E-03    -58.8643E-03     118.709E-03    -59.8866E-03     15.9389E-03    -5.70411E+06    -19.8926E+06    -46.9381E+06    -37.8130E+06    -28.4799E+06    -6.24193E+06     4.14420E+06         37.3269
            1441     11.3066E-03     78.8632E-03         2.02953    -578.117E-03    -613.297E-03    -578.067E-03         2.02948    -613.297E-03     21.3258E-03     118.861E-03    -59.0689E-03    -59.8118E-03    -58.4372E-03     118.165E-03    -59.7473E-03     21.3732E-03     41.1763E+06    -8.63811E+06    -38.0229E+06    -37.6932E+06     40.4459E+06    -8.23745E+06     3.76870E+06         40.6086
            1442     12.2486E-03     78.8944E-03         2.04439    -598.226E-03    -612.989E-03    -600.085E-03         2.04430    -611.041E-03     7.21596E-03     120.456E-03    -59.4831E-03    -61.0250E-03    -58.3306E-03     117.985E-03    -59.7065E-03     40.1607E-03     87.8429E+06     412.711E+03    -35.5071E+06    -35.3195E+06     87.6553E+06     412.711E+03     3.50678E+06         44.5450
            1443     13.1919E-03     78.9491E-03         2.04601    -601.166E-03    -611.683E-03    -603.031E-03         2.04593    -609.736E-03    -10.7839E-03     123.364E-03    -59.8028E-03    -63.6118E-03    -57.8412E-03     117.593E-03    -59.8028E-03     63.7861E-03     97.9928E+06     35.8935E+06    -29.4329E+06    -29.2640E+06     97.8238E+06     35.8935E+06     3.40129E+06         49.1122
            1444     14.1370E-03     79.0333E-03         2.02485    -584.696E-03    -607.587E-03    -584.586E-03         2.02474    -607.587E-03     12.4985E-03     139.462E-03    -59.9376E-03    -79.4577E-03    -59.8633E-03     119.868E-03    -59.9376E-03     119.962E-03     108.411E+06     79.7804E+06    -21.5030E+06    -21.4441E+06     108.352E+06     79.7804E+06     2.71938E+06         54.2908
            1445     15.0800E-03     79.2202E-03         2.01344    -580.474E-03    -604.159E-03    -580.637E-03         2.01332    -603.882E-03     10.9892E-03     174.881E-03    -60.0975E-03    -114.730E-03    -65.1231E-03     125.274E-03    -60.0975E-03     216.158E-03     121.461E+06     115.128E+06    -14.6329E+06    -14.5814E+06     121.409E+06     115.128E+06     1.90023E+06         59.6165
            1446     16.0198E-03     79.5231E-03         2.00485    -580.837E-03    -599.706E-03    -580.564E-03         2.00430    -599.429E-03     35.8949E-03     183.953E-03    -60.1635E-03    -123.821E-03    -66.2627E-03     126.394E-03    -60.1635E-03     239.551E-03     142.919E+06     137.893E+06    -7.88462E+06    -7.85309E+06     142.888E+06     137.893E+06     886.824E+03         63.9612
            1447     942.501E-06     79.9420E-03         4.03213    -110.569E-03        -3.10132        -1.08008         2.01089    -110.569E-03        -2.53667     120.220E-03    -59.9695E-03    -60.2550E-03    -60.2316E-03     120.219E-03    -59.9916E-03    -654.753E-06    -76.2406E+06     -78.749E+06    -284.610E+06    -78.4176E+06    -284.602E+06    -76.5798E+06     960.664E+03         29.3104
            1448     1.88376E-03     79.9404E-03         2.73295    -600.711E-03        -1.31227    -622.733E-03         2.04342    -600.711E-03     855.775E-03     120.146E-03    -59.9961E-03    -60.1575E-03    -60.0204E-03     120.144E-03    -60.1309E-03    -1.14913E-03    -69.8196E+06    -75.9372E+06    -281.978E+06    -75.9419E+06    -281.974E+06    -69.8196E+06     717.960E+03         29.3949
            1449     2.82570E-03     79.9387E-03         2.29517    -607.600E-03    -872.843E-03    -615.897E-03         2.03822    -607.600E-03    -445.957E-03     120.093E-03    -59.9618E-03    -60.1462E-03    -59.9601E-03     120.091E-03    -60.1462E-03    -1.07980E-03    -59.3395E+06    -72.1094E+06    -276.029E+06    -72.1155E+06    -276.023E+06    -59.3395E+06     1.09255E+06         29.5339
            1450     3.76797E-03     79.9375E-03         2.13184    -609.445E-03    -708.950E-03    -613.028E-03         2.03592    -609.445E-03     238.232E-03     120.115E-03    -59.9733E-03    -60.1667E-03    -59.9727E-03     120.114E-03    -60.1667E-03    -612.459E-06    -47.2036E+06    -67.4008E+06    -265.994E+06    -67.4070E+06    -265.988E+06    -47.2036E+06     1.09524E+06         29.7400
            1451     4.70965E-03     79.9359E-03         2.06839    -609.390E-03    -642.838E-03    -604.251E-03         2.02980    -609.390E-03    -135.480E-03     119.974E-03    -59.8223E-03    -60.1715E-03    -59.8219E-03     119.974E-03    -60.1715E-03     123.941E-06    -35.8789E+06    -61.8439E+06    -247.902E+06    -61.8521E+06    -247.894E+06    -35.8789E+06     1.22558E+06         30.0257
            1452     5.65202E-03     79.9361E-03         2.04687    -607.069E-03    -621.315E-03    -604.104E-03         2.03110    -608.509E-03     96.3785E-03     119.873E-03    -59.7310E-03    -60.1628E-03    -59.7287E-03     119.870E-03    -60.1628E-03     1.15870E-03    -25.9829E+06    -56.6056E+06    -229.622E+06    -56.6155E+06    -229.612E+06    -25.9829E+06     1.28733E+06         30.4013
            1453     6.59420E-03     79.9373E-03         2.03838    -605.501E-03    -614.562E-03    -605.726E-03         2.03201    -607.965E-03    -45.3688E-03     119.812E-03    -59.7076E-03    -60.1291E-03    -59.6933E-03     119.797E-03    -60.1291E-03     2.94168E-03    -20.5200E+06    -52.1073E+06    -201.297E+06    -52.1173E+06    -201.287E+06    -20.5200E+06     1.15661E+06         30.9136
            1454     7.53570E-03     79.9416E-03         2.03625    -606.761E-03    -613.038E-03    -608.003E-03         2.03224    -607.785E-03     4.39617E-03     119.598E-03    -59.5459E-03    -60.0788E-03    -59.5100E-03     119.562E-03    -60.0788E-03     5.00041E-03    -17.2486E+06    -47.9484E+06    -163.334E+06    -47.9677E+06    -163.315E+06    -17.2486E+06     1.26611E+06         31.6695
            1455     8.47891E-03     79.9467E-03         2.03132    -600.069E-03    -612.408E-03    -602.201E-03         2.02850    -607.449E-03    -30.8583E-03     119.393E-03    -59.4069E-03    -60.0116E-03    -59.3134E-03     119.300E-03    -60.0116E-03     7.89677E-03    -14.0114E+06    -43.8878E+06    -127.191E+06    -43.9391E+06    -127.140E+06    -14.0114E+06     1.81902E+06         32.8685
            1456     9.42121E-03     79.9572E-03         2.01753    -588.563E-03    -607.047E-03    -588.253E-03         2.01632    -606.149E-03     32.4437E-03     119.277E-03    -59.3769E-03    -59.9268E-03    -59.1185E-03     119.019E-03    -59.9268E-03     13.1802E-03    -13.3386E+06    -40.1620E+06    -84.2482E+06    -40.6972E+06    -83.7130E+06    -13.3386E+06     3.30628E+06         34.7335
            1457     10.3635E-03     79.9741E-03         2.01396    -586.150E-03    -606.274E-03    -587.793E-03         2.01366    -604.333E-03    -36.3899E-03     119.106E-03    -59.2775E-03    -59.8634E-03    -58.9119E-03     118.740E-03    -59.8634E-03     16.0994E-03    -6.85710E+06    -19.9991E+06    -49.9813E+06    -38.2061E+06    -31.0666E+06    -7.56485E+06     5.98327E+06         37.3286
            1458     11.3051E-03     79.9907E-03         2.00028    -574.775E-03    -604.258E-03    -576.687E-03         2.00025    -602.318E-03     231.802E-06     118.822E-03    -59.1100E-03    -59.7387E-03    -58.4284E-03     118.141E-03    -59.7387E-03     21.2477E-03     43.1787E+06    -6.13427E+06    -37.1491E+06    -36.2292E+06     42.2588E+06    -6.13427E+06     6.19887E+06         40.6109
            1459     12.2502E-03     80.0184E-03         1.98703    -569.905E-03    -600.475E-03    -570.482E-03         1.98695    -599.817E-03    -2.03979E-03     120.284E-03    -59.3842E-03    -60.9506E-03    -58.1630E-03     117.800E-03    -59.6878E-03     40.0568E-03     89.5275E+06     2.44934E+06    -34.6491E+06    -34.5476E+06     89.4259E+06     2.44934E+06     2.54912E+06         44.5485
            1460     13.1928E-03     80.0785E-03         1.99433    -583.118E-03    -598.279E-03    -583.584E-03         1.99413    -597.621E-03    -24.9574E-03     123.982E-03    -59.8018E-03    -64.2494E-03    -58.5841E-03     118.316E-03    -59.8018E-03     63.6308E-03     98.6124E+06     37.2625E+06    -29.9907E+06    -29.9575E+06     98.5792E+06     37.2625E+06     403.809E+03         49.1150
            1461     14.1339E-03     80.1571E-03         1.98576    -576.415E-03    -595.395E-03    -576.287E-03         1.98563    -595.395E-03    -16.7667E-03     139.950E-03    -59.9741E-03    -79.9863E-03    -60.3774E-03     120.341E-03    -59.9741E-03     119.811E-03     107.906E+06     79.2270E+06    -22.9119E+06    -22.8240E+06     107.818E+06     79.2270E+06     2.08602E+06         54.2917
            1462     15.0786E-03     80.3479E-03         1.96095    -555.595E-03    -591.679E-03    -555.443E-03         1.96080    -591.679E-03    -11.9990E-03     173.545E-03    -60.0968E-03    -113.397E-03    -63.5670E-03     123.714E-03    -60.0968E-03     215.283E-03     120.936E+06     113.285E+06    -15.3857E+06    -15.3008E+06     120.851E+06     113.285E+06     2.97989E+06         59.6208
            1463     16.0269E-03     80.6499E-03         1.94913    -551.187E-03    -586.950E-03    -551.016E-03         1.94896    -586.950E-03    -7.39920E-03     183.886E-03    -60.1209E-03    -123.809E-03    -65.9910E-03     126.068E-03    -60.1209E-03     239.809E-03     144.562E+06     137.902E+06    -7.82412E+06    -7.78219E+06     144.520E+06     137.902E+06     1.82335E+06         63.9700
            1464     941.252E-06     81.0682E-03         3.96527    -95.5906E-03        -3.06918        -1.11845         2.01454    -95.5906E-03        -2.49259     120.172E-03    -59.8745E-03    -60.3008E-03    -60.2533E-03     120.170E-03    -59.9208E-03    -587.005E-06    -76.7663E+06    -80.1197E+06    -285.534E+06    -79.3614E+06    -285.521E+06    -77.5373E+06     1.26255E+06         29.3044
            1465     1.88392E-03     81.0669E-03         2.65676    -600.823E-03        -1.26086    -576.632E-03         1.97254    -600.823E-03     846.246E-03     120.136E-03    -60.0302E-03    -60.1131E-03    -60.0277E-03     120.133E-03    -60.1131E-03    -1.27218E-03    -70.9649E+06    -77.5175E+06    -282.803E+06    -77.5231E+06    -282.797E+06    -70.9649E+06     734.091E+03         29.3900
            1466     2.82585E-03     81.0649E-03         2.23464    -593.203E-03    -844.963E-03    -583.650E-03         1.97332    -593.203E-03    -397.578E-03     120.045E-03    -59.9293E-03    -60.1279E-03    -59.9275E-03     120.043E-03    -60.1279E-03    -1.09656E-03    -61.0020E+06    -73.4127E+06    -276.327E+06    -73.4168E+06    -276.323E+06    -61.0020E+06     819.184E+03         29.5295
            1467     3.76777E-03     81.0639E-03         2.09307    -592.601E-03    -704.164E-03    -600.321E-03         1.98923    -592.601E-03     250.174E-03     119.911E-03    -59.8041E-03    -60.1276E-03    -59.8035E-03     119.910E-03    -60.1276E-03    -635.119E-06    -48.8334E+06    -68.5992E+06    -266.724E+06    -68.6029E+06    -266.720E+06    -48.8334E+06     842.711E+03         29.7358
            1468     4.71027E-03     81.0629E-03         2.03213    -594.147E-03    -640.608E-03    -599.816E-03         1.99134    -594.147E-03    -141.016E-03     119.975E-03    -59.8692E-03    -60.1240E-03    -59.8689E-03     119.975E-03    -60.1240E-03     54.0185E-06    -37.5401E+06    -63.3794E+06    -248.490E+06    -63.3849E+06    -248.484E+06    -37.5401E+06     980.264E+03         30.0231
            1469     5.65192E-03     81.0625E-03         2.00989    -595.086E-03    -616.366E-03    -599.555E-03         1.99308    -595.086E-03     90.5187E-03     119.983E-03    -59.8621E-03    -60.1411E-03    -59.8596E-03     119.981E-03    -60.1411E-03     1.16821E-03    -26.8848E+06    -57.5047E+06    -229.414E+06    -57.5097E+06    -229.409E+06    -26.8848E+06     883.627E+03         30.4001
            1470     6.59382E-03     81.0640E-03         1.99931    -595.734E-03    -607.585E-03    -599.871E-03         1.99160    -595.734E-03    -41.3179E-03     119.730E-03    -59.6381E-03    -60.1178E-03    -59.6242E-03     119.717E-03    -60.1178E-03     2.93306E-03    -21.1221E+06    -52.0435E+06    -201.336E+06    -52.0497E+06    -201.329E+06    -21.1221E+06     853.210E+03         30.9125
            1471     7.53694E-03     81.0677E-03         1.99420    -594.821E-03    -603.266E-03    -597.721E-03         1.98993    -596.087E-03     32.6421E-03     119.520E-03    -59.4907E-03    -60.0568E-03    -59.4555E-03     119.484E-03    -60.0568E-03     4.92974E-03    -18.5571E+06    -47.8387E+06    -164.004E+06    -47.8490E+06    -163.994E+06    -18.5571E+06     990.448E+03         31.6689
            1472     8.47840E-03     81.0737E-03         1.98175    -583.862E-03    -597.902E-03    -584.082E-03         1.97954    -595.478E-03    -22.8750E-03     119.372E-03    -59.4104E-03    -59.9877E-03    -59.3205E-03     119.283E-03    -59.9877E-03     7.76510E-03    -15.4939E+06    -44.3277E+06    -127.967E+06    -44.3697E+06    -127.925E+06    -15.4939E+06     1.57119E+06         32.8687
            1473     9.42080E-03     81.0834E-03         1.97140    -573.603E-03    -593.667E-03    -572.622E-03         1.97042    -593.667E-03     32.8104E-03     119.176E-03    -59.3001E-03    -59.9005E-03    -59.0442E-03     118.920E-03    -59.9005E-03     13.0728E-03    -15.4041E+06    -40.8209E+06    -87.4195E+06    -41.1550E+06    -87.0854E+06    -15.4041E+06     3.06731E+06         34.7345
            1474     10.3638E-03     81.1007E-03         1.97389    -576.975E-03    -593.782E-03    -578.663E-03         1.97364    -591.842E-03    -26.3581E-03     118.984E-03    -59.1889E-03    -59.8205E-03    -58.8115E-03     118.607E-03    -59.8205E-03     16.3658E-03    -9.04199E+06    -22.7625E+06    -51.8365E+06    -37.4753E+06    -34.7939E+06    -11.3717E+06     5.14491E+06         37.3307
            1475     11.3075E-03     81.1173E-03         1.97121    -575.205E-03    -592.400E-03    -577.104E-03         1.97117    -590.459E-03     1.88375E-03     118.943E-03    -59.2705E-03    -59.7024E-03    -58.6104E-03     118.283E-03    -59.7024E-03     21.1020E-03     44.5238E+06    -7.72668E+06    -34.3315E+06    -33.5327E+06     43.7250E+06    -7.72668E+06     5.68493E+06         40.6137
            1476     12.2483E-03     81.1448E-03         1.95473    -562.665E-03    -588.533E-03    -562.598E-03         1.95467    -588.533E-03     16.2713E-03     120.495E-03    -59.5860E-03    -60.9719E-03    -58.3804E-03     117.999E-03    -59.6814E-03     39.9587E-03     93.7494E+06     6.01744E+06    -31.0424E+06    -30.8772E+06     93.5842E+06     6.01744E+06     4.13093E+06         44.5513
            1477     13.1924E-03     81.2041E-03         1.94152    -558.456E-03    -585.925E-03    -558.197E-03         1.94127    -585.925E-03    -13.7919E-03     124.209E-03    -59.8171E-03    -64.4803E-03    -58.6101E-03     118.339E-03    -59.8171E-03     64.7671E-03     99.0230E+06     40.1216E+06    -30.2868E+06    -30.1730E+06     98.9092E+06     40.1216E+06     2.27866E+06         49.1182
            1478     14.1351E-03     81.2881E-03         1.94416    -566.092E-03    -583.236E-03    -565.847E-03         1.94391    -583.236E-03    -18.7886E-03     139.960E-03    -59.9890E-03    -80.0323E-03    -60.3677E-03     120.296E-03    -59.9890E-03     120.285E-03     106.104E+06     78.1125E+06    -27.0950E+06    -26.9866E+06     105.995E+06     78.1125E+06     1.65631E+06         54.2959
            1479     15.0774E-03     81.4704E-03         1.93393    -562.468E-03    -580.545E-03    -562.540E-03         1.93354    -580.083E-03    -28.3842E-03     173.564E-03    -60.1142E-03    -113.486E-03    -64.1733E-03     124.251E-03    -60.1142E-03     214.540E-03     121.225E+06     112.041E+06    -17.9992E+06    -17.9356E+06     121.161E+06     112.041E+06     1.76371E+06         59.6244
            1480     16.0224E-03     81.7714E-03         1.90512    -542.799E-03    -576.339E-03    -542.457E-03         1.90432    -575.877E-03    -4.90215E-03     183.826E-03    -60.1606E-03    -123.696E-03    -66.0264E-03     126.156E-03    -60.1606E-03     239.615E-03     145.886E+06     138.167E+06    -8.24696E+06    -8.22250E+06     145.862E+06     138.167E+06     1.46542E+06         63.9737
            1481     942.515E-06     82.1945E-03         3.86902    -56.6272E-03        -3.03791        -1.11427         1.94537    -56.6272E-03        -2.45128     119.983E-03    -59.8174E-03    -60.1687E-03    -60.1432E-03     119.982E-03    -59.8416E-03    -742.265E-06    -79.5011E+06    -82.5907E+06    -287.588E+06    -81.8347E+06    -287.574E+06    -80.2721E+06     1.13949E+06         29.2977
            1482     1.88378E-03     82.1932E-03         2.60491    -583.793E-03        -1.24903    -577.490E-03         1.93338    -583.793E-03     838.299E-03     120.052E-03    -59.9975E-03    -60.0642E-03    -60.0178E-03     120.050E-03    -60.0425E-03    -933.590E-06    -71.5833E+06    -78.7858E+06    -283.515E+06    -78.7955E+06    -283.506E+06    -71.5833E+06     1.30013E+06         29.3855
            1483     2.82574E-03     82.1913E-03         2.18258    -581.513E-03    -823.644E-03    -577.211E-03         1.93615    -581.513E-03    -420.198E-03     120.042E-03    -59.9671E-03    -60.0890E-03    -59.9654E-03     120.040E-03    -60.0890E-03    -1.09437E-03    -61.2495E+06    -75.4529E+06    -276.618E+06    -75.4603E+06    -276.611E+06    -61.2495E+06     1.07065E+06         29.5279
            1484     3.76816E-03     82.1895E-03         2.04285    -581.322E-03    -681.203E-03    -585.504E-03         1.94715    -581.322E-03     208.809E-03     119.970E-03    -59.8832E-03    -60.1081E-03    -59.8825E-03     119.969E-03    -60.1081E-03    -710.227E-06    -50.3655E+06    -70.8362E+06    -266.271E+06    -70.8420E+06    -266.266E+06    -50.3655E+06     620.327E+03         29.7354
            1485     4.70996E-03     82.1893E-03         1.99628    -582.951E-03    -632.068E-03    -593.994E-03         1.95820    -582.951E-03    -165.012E-03     119.933E-03    -59.8405E-03    -60.1112E-03    -59.8401E-03     119.933E-03    -60.1112E-03     7.42344E-06    -40.1632E+06    -64.9311E+06    -247.936E+06    -64.9393E+06    -247.928E+06    -40.1632E+06    -290.167E+03         30.0216
            1486     5.65207E-03     82.1894E-03         1.95875    -579.264E-03    -599.599E-03    -580.547E-03         1.94421    -583.783E-03     62.5850E-03     119.870E-03    -59.7720E-03    -60.1189E-03    -59.7695E-03     119.867E-03    -60.1189E-03     1.14256E-03    -29.7266E+06    -58.2397E+06    -229.582E+06    -58.2535E+06    -229.568E+06    -29.7266E+06    -730.507E+03         30.3980
            1487     6.59442E-03     82.1906E-03         1.94536    -577.046E-03    -588.123E-03    -574.139E-03         1.93720    -582.869E-03    -33.3436E-03     119.760E-03    -59.6913E-03    -60.0977E-03    -59.6776E-03     119.746E-03    -60.0977E-03     2.90355E-03    -22.7596E+06    -51.9291E+06    -201.676E+06    -51.9376E+06    -201.667E+06    -22.7596E+06    -456.050E+03         30.9112
            1488     7.53592E-03     82.1942E-03         1.94426    -579.388E-03    -585.619E-03    -578.149E-03         1.93936    -581.960E-03     34.1006E-03     119.567E-03    -59.5553E-03    -60.0456E-03    -59.5208E-03     119.533E-03    -60.0456E-03     4.88517E-03    -19.1956E+06    -46.6277E+06    -164.658E+06    -46.6346E+06    -164.651E+06    -19.1956E+06     134.000E+03         31.6684
            1489     8.47892E-03     82.2001E-03         1.93577    -573.562E-03    -581.179E-03    -571.085E-03         1.93320    -581.083E-03    -26.3288E-03     119.257E-03    -59.3129E-03    -59.9746E-03    -59.2264E-03     119.170E-03    -59.9746E-03     7.61394E-03    -16.2684E+06    -42.5686E+06    -129.523E+06    -42.6122E+06    -129.480E+06    -16.2684E+06     1.30777E+06         32.8689
            1490     9.42156E-03     82.2095E-03         1.93004    -566.332E-03    -579.671E-03    -565.448E-03         1.92915    -579.671E-03     49.1581E-03     119.167E-03    -59.3084E-03    -59.8892E-03    -59.0560E-03     118.915E-03    -59.8892E-03     12.9547E-03    -15.5741E+06    -39.1954E+06    -89.0922E+06    -39.4002E+06    -88.8874E+06    -15.5741E+06     2.29216E+06         34.7354
            1491     10.3641E-03     82.2269E-03         1.92461    -563.855E-03    -578.102E-03    -563.775E-03         1.92453    -578.102E-03    -3.63848E-03     118.998E-03    -59.2316E-03    -59.8001E-03    -58.8675E-03     118.633E-03    -59.8001E-03     16.0868E-03    -10.5148E+06    -24.3550E+06    -50.9728E+06    -35.6039E+06    -36.7431E+06    -13.4955E+06     2.81995E+06         37.3321
            1492     11.3058E-03     82.2441E-03         1.92530    -566.092E-03    -576.749E-03    -566.056E-03         1.92526    -576.749E-03     11.0607E-03     118.989E-03    -59.2980E-03    -59.7229E-03    -58.6849E-03     118.332E-03    -59.6786E-03     20.9816E-03     42.6124E+06    -11.0522E+06    -33.0278E+06    -32.7053E+06     42.2899E+06    -11.0522E+06     4.43665E+06         40.6156
            1493     12.2503E-03     82.2718E-03         1.92023    -562.937E-03    -575.415E-03    -562.903E-03         1.92019    -575.415E-03     7.71089E-03     120.637E-03    -59.6674E-03    -61.0354E-03    -58.6042E-03     118.221E-03    -59.6825E-03     39.5083E-03     93.7207E+06     4.45805E+06    -31.7332E+06    -31.4278E+06     93.4154E+06     4.45805E+06     6.10746E+06         44.5533
            1494     13.1922E-03     82.3308E-03         1.90350    -549.925E-03    -573.408E-03    -549.790E-03         1.90336    -573.408E-03    -10.2105E-03     123.768E-03    -59.8147E-03    -64.0221E-03    -58.0330E-03     117.779E-03    -59.8147E-03     64.9355E-03     100.933E+06     40.9978E+06    -28.9930E+06    -28.7243E+06     100.664E+06     40.9978E+06     5.76357E+06         49.1219
            1495     14.1355E-03     82.4153E-03         1.89470    -546.473E-03    -570.539E-03    -546.243E-03         1.89447    -570.539E-03     5.78512E-03     139.395E-03    -59.9632E-03    -79.4522E-03    -59.9333E-03     119.876E-03    -59.9632E-03     120.180E-03     108.237E+06     81.0216E+06    -24.5884E+06    -24.4631E+06     108.111E+06     81.0216E+06     3.12087E+06         54.3025
            1496     15.0811E-03     82.5964E-03         1.89300    -553.868E-03    -567.393E-03    -553.981E-03         1.89266    -566.932E-03    -5.42803E-03     174.689E-03    -60.1091E-03    -114.672E-03    -65.4881E-03     125.505E-03    -60.1091E-03     215.273E-03     121.770E+06     113.390E+06    -17.9908E+06    -17.9480E+06     121.727E+06     113.390E+06     1.19559E+06         59.6300
            1497     16.0189E-03     82.9045E-03         1.87671    -547.383E-03    -563.080E-03    -546.990E-03         1.87586    -562.618E-03     23.5910E-03     184.547E-03    -60.1894E-03    -124.405E-03    -66.3598E-03     126.502E-03    -60.1894E-03     241.011E-03     146.246E+06     137.578E+06    -9.22819E+06    -9.21723E+06     146.235E+06     137.578E+06     699.660E+03         63.9783
            1498     941.726E-06     83.3200E-03         3.75564     11.2964E-03        -3.01938        -1.13754         1.87380     11.2964E-03        -2.43698     119.835E-03    -59.7693E-03    -60.0660E-03    -59.9811E-03     119.834E-03    -59.8526E-03    -1.01087E-03    -81.6910E+06    -83.8017E+06    -289.482E+06    -83.7865E+06    -289.477E+06    -81.7114E+06     108.153E+03         29.2903
            1499     1.88440E-03     83.3197E-03         2.56355    -570.203E-03        -1.23397    -598.999E-03         1.92857    -570.203E-03     816.533E-03     119.871E-03    -59.8755E-03    -60.0047E-03    -59.9187E-03     119.870E-03    -59.9602E-03    -944.097E-06    -73.6373E+06    -80.3053E+06    -285.588E+06    -80.3178E+06    -285.575E+06    -73.6373E+06     1.32357E+06         29.3812
            1500     2.82632E-03     83.3173E-03         2.15525    -578.435E-03    -810.293E-03    -584.671E-03         1.92963    -578.435E-03    -428.283E-03     120.156E-03    -60.0312E-03    -60.1412E-03    -60.1289E-03     120.155E-03    -60.0420E-03    -1.06625E-03    -61.6178E+06    -76.1160E+06    -276.729E+06    -76.1307E+06    -276.714E+06    -61.6178E+06     1.69604E+06         29.5279
            1501     3.76769E-03     83.3163E-03         1.98321    -570.718E-03    -642.860E-03    -554.761E-03         1.90113    -576.730E-03     209.306E-03     120.146E-03    -59.9813E-03    -60.1910E-03    -60.0567E-03     120.145E-03    -60.1146E-03    -820.865E-06    -50.2931E+06    -70.6367E+06    -263.862E+06    -70.6514E+06    -263.847E+06    -50.2931E+06    -38.4040E+03         29.7369
            1502     4.70978E-03     83.3152E-03         1.92344    -565.274E-03    -591.397E-03    -551.480E-03         1.89019    -571.942E-03    -125.252E-03     119.854E-03    -59.7547E-03    -60.1203E-03    -59.7542E-03     119.853E-03    -60.1203E-03    -2.21845E-06    -41.5391E+06    -64.4894E+06    -245.696E+06    -64.5265E+06    -245.659E+06    -41.5391E+06    -2.28885E+06         30.0215
            1503     5.65218E-03     83.3158E-03         1.90737    -563.894E-03    -577.524E-03    -559.244E-03         1.89427    -569.068E-03     86.9015E-03     119.768E-03    -59.6817E-03    -60.1066E-03    -59.6794E-03     119.765E-03    -60.1066E-03     1.15236E-03    -32.1214E+06    -58.5121E+06    -229.386E+06    -58.5739E+06    -229.324E+06    -32.1214E+06    -3.08179E+06         30.3967
            1504     6.59415E-03     83.3169E-03         1.90153    -562.044E-03    -575.892E-03    -562.911E-03         1.89438    -567.868E-03     603.259E-06     119.757E-03    -59.7043E-03    -60.0783E-03    -59.6902E-03     119.743E-03    -60.0783E-03     2.91839E-03    -25.3412E+06    -52.3017E+06    -202.483E+06    -52.3872E+06    -202.398E+06    -25.3412E+06    -3.06476E+06         30.9101
            1505     7.53666E-03     83.3210E-03         1.89741    -564.398E-03    -572.886E-03    -564.070E-03         1.89146    -567.265E-03     22.8910E-03     119.564E-03    -59.5601E-03    -60.0333E-03    -59.5249E-03     119.529E-03    -60.0333E-03     4.94526E-03    -20.8708E+06    -46.5461E+06    -165.988E+06    -46.6003E+06    -165.934E+06    -20.8708E+06    -1.81954E+06         31.6681
            1506     8.47854E-03     83.3260E-03         1.88270    -557.179E-03    -566.396E-03    -553.970E-03         1.87939    -566.299E-03    -40.0005E-03     119.395E-03    -59.4516E-03    -59.9762E-03    -59.3699E-03     119.313E-03    -59.9762E-03     7.45078E-03    -17.0959E+06    -41.5667E+06    -131.487E+06    -41.6072E+06    -131.447E+06    -17.0959E+06    -39.2823E+03         32.8690
            1507     9.42121E-03     83.3360E-03         1.87725    -551.302E-03    -564.750E-03    -550.289E-03         1.87623    -564.750E-03     49.1922E-03     119.302E-03    -59.4239E-03    -59.9075E-03    -59.1841E-03     119.062E-03    -59.9075E-03     12.6128E-03    -15.0422E+06    -37.1035E+06    -89.3408E+06    -37.1715E+06    -89.2728E+06    -15.0422E+06     833.920E+03         34.7356
            1508     10.3632E-03     83.3539E-03         1.88209    -555.418E-03    -563.457E-03    -555.324E-03         1.88199    -563.457E-03    -7.98076E-03     118.973E-03    -59.1866E-03    -59.8201E-03    -58.8328E-03     118.620E-03    -59.8201E-03     15.8585E-03    -11.7385E+06    -23.5731E+06    -49.6543E+06    -34.1635E+06    -37.7775E+06    -13.0250E+06     1.54921E+06         37.3325
            1509     11.3073E-03     83.3698E-03         1.87941    -556.211E-03    -562.567E-03    -556.184E-03         1.87939    -562.567E-03     8.74246E-03     119.011E-03    -59.2967E-03    -59.7466E-03    -58.6600E-03     118.316E-03    -59.6886E-03     21.4490E-03     37.9155E+06    -12.5558E+06    -32.6574E+06    -32.3413E+06     37.5994E+06    -12.5558E+06     4.39173E+06         40.6166
            1510     12.2479E-03     83.3999E-03         1.86724    -546.516E-03    -561.300E-03    -546.509E-03         1.86723    -561.300E-03     1.36254E-03     120.574E-03    -59.6907E-03    -60.9427E-03    -58.5504E-03     118.182E-03    -59.6907E-03     39.5885E-03     91.6418E+06     3.77488E+06    -31.1526E+06    -30.6789E+06     91.1681E+06     3.77488E+06     7.54284E+06         44.5550
            1511     13.1918E-03     83.4562E-03         1.86076    -541.077E-03    -559.316E-03    -541.054E-03         1.86073    -559.316E-03     6.16957E-03     123.611E-03    -59.8149E-03    -63.8598E-03    -58.0631E-03     117.814E-03    -59.8149E-03     63.8597E-03     102.553E+06     40.4875E+06    -28.1478E+06    -27.7119E+06     102.117E+06     40.4875E+06     7.36830E+06         49.1242
            1512     14.1378E-03     83.5400E-03         1.85187    -532.410E-03    -556.480E-03    -532.295E-03         1.85176    -556.480E-03     23.3004E-03     139.182E-03    -59.9652E-03    -79.2460E-03    -59.7336E-03     119.670E-03    -59.9652E-03     119.704E-03     111.698E+06     81.8296E+06    -22.4077E+06    -22.2093E+06     111.500E+06     81.8296E+06     4.63886E+06         54.3058
            1513     15.0768E-03     83.7270E-03         1.83801    -525.026E-03    -552.277E-03    -524.901E-03         1.83789    -552.277E-03     9.23708E-03     174.555E-03    -60.0839E-03    -114.441E-03    -64.3959E-03     124.510E-03    -60.0839E-03     216.474E-03     122.834E+06     114.988E+06    -16.8752E+06    -16.8265E+06     122.786E+06     114.988E+06     2.06847E+06         59.6374
            1514     16.0252E-03     84.0290E-03         1.83232    -529.486E-03    -547.402E-03    -529.258E-03         1.83209    -547.402E-03     17.3772E-03     184.818E-03    -60.1298E-03    -124.655E-03    -66.5369E-03     126.700E-03    -60.1298E-03     241.124E-03     146.645E+06     138.187E+06    -9.37172E+06    -9.35717E+06     146.630E+06     138.187E+06     777.940E+03         63.9888
            1515     942.078E-06     84.4470E-03         3.61911     28.8126E-03        -2.90610        -1.17167         1.88467     28.8126E-03        -2.31163     119.956E-03    -59.7710E-03    -60.1870E-03    -60.1021E-03     119.954E-03    -59.8542E-03    -1.06280E-03    -82.1985E+06    -84.5840E+06    -290.559E+06    -84.2385E+06    -290.559E+06    -82.5441E+06    -95.4932E+03         29.2859
            1516     1.88405E-03     84.4444E-03         2.46350    -568.980E-03        -1.14742    -559.884E-03         1.87597    -568.980E-03     808.710E-03     120.013E-03    -59.9001E-03    -60.1209E-03    -59.9995E-03     120.011E-03    -60.0195E-03    -1.17785E-03    -75.4784E+06     -81.734E+06    -287.149E+06    -81.7398E+06    -287.143E+06    -75.4784E+06     570.995E+03         29.3785
            1517     2.82604E-03     84.4449E-03         2.07722    -564.512E-03    -758.885E-03    -551.236E-03         1.86957    -564.512E-03    -360.832E-03     120.058E-03    -59.9093E-03    -60.1644E-03    -60.0068E-03     120.057E-03    -60.0651E-03    -1.12419E-03    -64.8459E+06    -76.5023E+06    -276.279E+06    -76.5164E+06    -276.265E+06    -64.8459E+06     418.488E+03         29.5257
            1518     3.76776E-03     84.4428E-03         1.93517    -554.153E-03    -627.037E-03    -542.839E-03         1.85699    -560.164E-03     221.901E-03     120.028E-03    -59.8849E-03    -60.1709E-03    -59.9604E-03     120.027E-03    -60.0945E-03    -713.840E-06    -53.3856E+06    -70.6586E+06    -260.609E+06    -70.6917E+06    -260.576E+06    -53.3856E+06    -1.68256E+06         29.7360
            1519     4.70990E-03     84.4417E-03         1.86182    -548.295E-03    -564.914E-03    -527.262E-03         1.83109    -555.221E-03    -104.890E-03     119.972E-03    -59.8852E-03    -60.1091E-03    -59.8850E-03     119.972E-03    -60.1091E-03     54.2575E-06    -43.3652E+06    -64.8340E+06    -243.042E+06    -64.9187E+06    -242.958E+06    -43.3652E+06    -3.73457E+06         30.0230
            1520     5.65198E-03     84.4418E-03         1.85502    -550.868E-03    -558.570E-03    -544.115E-03         1.84148    -551.782E-03     79.1875E-03     119.857E-03    -59.7609E-03    -60.1153E-03    -59.7586E-03     119.854E-03    -60.1153E-03     1.07806E-03    -33.8272E+06    -59.1208E+06    -227.837E+06    -59.2662E+06    -227.691E+06    -33.8272E+06    -4.85575E+06         30.3984
            1521     6.59423E-03     84.4439E-03         1.85713    -550.411E-03    -563.705E-03    -555.248E-03         1.84966    -551.393E-03    -6.54678E-03     119.651E-03    -59.5897E-03    -60.0838E-03    -59.5776E-03     119.639E-03    -60.0838E-03     2.76316E-03    -27.5592E+06    -53.7638E+06    -202.163E+06    -53.9750E+06    -201.951E+06    -27.5592E+06    -5.46151E+06         30.9105
            1522     7.53629E-03     84.4470E-03         1.84851    -549.032E-03    -559.196E-03    -550.968E-03         1.84282    -551.575E-03     26.1743E-03     119.577E-03    -59.5698E-03    -60.0322E-03    -59.5364E-03     119.544E-03    -60.0322E-03     4.78591E-03    -23.4400E+06    -47.9646E+06    -167.275E+06    -48.2664E+06    -166.974E+06    -23.4400E+06    -5.20848E+06         31.6680
            1523     8.47894E-03     84.4532E-03         1.84260    -545.429E-03    -556.766E-03    -547.991E-03         1.83966    -551.266E-03    -41.0776E-03     119.589E-03    -59.6321E-03    -59.9896E-03    -59.5491E-03     119.506E-03    -59.9896E-03     7.51528E-03    -19.0346E+06    -41.5388E+06    -133.837E+06    -41.7482E+06    -133.627E+06    -19.0346E+06    -3.46228E+06         32.8689
            1524     9.42032E-03     84.4629E-03         1.83776    -541.364E-03    -554.019E-03    -543.889E-03         1.83688    -550.615E-03     39.3293E-03     119.341E-03    -59.4397E-03    -59.9301E-03    -59.2015E-03     119.103E-03    -59.9301E-03     12.5950E-03    -16.6640E+06    -37.0935E+06    -91.6193E+06    -37.1596E+06    -91.5532E+06    -16.6640E+06    -463.327E+03         34.7353
            1525     10.3638E-03     84.4793E-03         1.83494    -539.266E-03    -549.622E-03    -539.152E-03         1.83482    -549.622E-03    -13.1407E-03     119.037E-03    -59.2159E-03    -59.8513E-03    -58.8586E-03     118.680E-03    -59.8513E-03     15.9354E-03    -12.8974E+06    -24.3073E+06    -51.7241E+06    -35.5900E+06    -39.9760E+06    -13.3630E+06     2.38435E+06         37.3323
            1526     11.3054E-03     84.4970E-03         1.82971    -533.784E-03    -548.286E-03    -533.740E-03         1.82967    -548.286E-03     1.42020E-03     118.872E-03    -59.1641E-03    -59.7259E-03    -58.4871E-03     118.182E-03    -59.7122E-03     21.4144E-03     34.6106E+06    -15.0697E+06    -35.3435E+06    -34.7774E+06     33.0023E+06    -14.0275E+06     4.64004E+06         40.6170
            1527     12.2503E-03     84.5262E-03         1.82132    -529.105E-03    -546.565E-03    -529.076E-03         1.82130    -546.565E-03    -4.57734E-03     120.301E-03    -59.4356E-03    -60.9192E-03    -58.2710E-03     117.887E-03    -59.6700E-03     39.6323E-03     88.7754E+06    -563.580E+03    -32.4722E+06    -32.0845E+06     88.3877E+06    -563.580E+03     6.61938E+06         44.5568
            1528     13.1927E-03     84.5829E-03         1.81422    -525.960E-03    -544.479E-03    -525.910E-03         1.81417    -544.479E-03    -205.789E-06     124.038E-03    -59.7957E-03    -64.3138E-03    -58.4726E-03     118.197E-03    -59.7957E-03     64.3215E-03     103.357E+06     38.1640E+06    -27.5054E+06    -27.1084E+06     102.960E+06     38.1640E+06     7.05259E+06         49.1263
            1529     14.1320E-03     84.6673E-03         1.80441    -517.355E-03    -541.659E-03    -517.285E-03         1.80434    -541.659E-03     8.29053E-03     139.073E-03    -59.9794E-03    -79.1164E-03    -59.4888E-03     119.445E-03    -59.9794E-03     119.760E-03     113.055E+06     82.1079E+06    -21.1392E+06    -20.7225E+06     112.639E+06     82.1079E+06     6.57757E+06         54.3087
            1530     15.0831E-03     84.8494E-03         1.78732    -512.665E-03    -537.604E-03    -512.587E-03         1.78724    -537.604E-03    -3.29254E-03     174.022E-03    -60.0858E-03    -113.971E-03    -63.9421E-03     123.993E-03    -60.0858E-03     216.168E-03     126.549E+06     117.385E+06    -15.1950E+06    -14.9157E+06     126.270E+06     117.385E+06     4.85717E+06         59.6434
            1531     16.0242E-03     85.1587E-03         1.77062    -504.566E-03    -532.677E-03    -504.324E-03         1.77038    -532.677E-03     13.0192E-03     184.306E-03    -60.1200E-03    -124.201E-03    -66.7427E-03     126.847E-03    -60.1200E-03     239.557E-03     149.854E+06     140.781E+06    -8.90558E+06    -8.86916E+06     149.818E+06     140.781E+06     1.45760E+06         63.9964
            1532     942.150E-06     85.5726E-03         3.42798     46.5955E-03        -2.74093        -1.17124         1.85829     46.5955E-03        -2.16058     120.145E-03    -59.9846E-03    -60.1626E-03    -60.1612E-03     120.143E-03    -59.9846E-03    -959.429E-06    -83.1410E+06    -86.6606E+06    -290.192E+06    -86.3438E+06    -290.184E+06    -83.4662E+06     142.960E+03         29.2852
            1533     1.88346E-03     85.5720E-03         2.34480    -553.730E-03        -1.05633    -519.584E-03         1.80805    -553.730E-03     746.980E-03     120.249E-03    -60.0466E-03    -60.2100E-03    -60.1317E-03     120.247E-03    -60.1234E-03    -964.167E-06    -76.4316E+06    -82.6262E+06    -287.375E+06    -82.6288E+06    -287.372E+06    -76.4316E+06    -335.754E+03         29.3776
            1534     2.82542E-03     85.5704E-03         1.97567    -539.556E-03    -701.770E-03    -505.551E-03         1.77945    -539.556E-03    -327.660E-03     119.949E-03    -59.8451E-03    -60.1178E-03    -59.8435E-03     119.947E-03    -60.1178E-03    -1.06636E-03    -68.4805E+06    -77.6099E+06    -273.896E+06    -77.6711E+06    -273.834E+06    -68.4805E+06    -2.10315E+06         29.5236
            1535     3.76837E-03     85.5692E-03         1.88676    -535.232E-03    -621.655E-03    -545.747E-03         1.81085    -535.232E-03     197.015E-03     119.900E-03    -59.8424E-03    -60.0830E-03    -59.8413E-03     119.899E-03    -60.0830E-03    -758.232E-06    -58.5126E+06    -71.8369E+06    -257.263E+06    -71.9715E+06    -257.129E+06    -58.5126E+06    -4.61072E+06         29.7346
            1536     4.70992E-03     85.5686E-03         1.84556    -537.717E-03    -580.942E-03    -552.116E-03         1.81700    -537.975E-03    -131.960E-03     120.108E-03    -60.0219E-03    -60.1083E-03    -60.0217E-03     120.108E-03    -60.1083E-03    -61.5485E-06    -46.0783E+06    -65.8454E+06    -240.995E+06    -66.0202E+06    -240.820E+06    -46.0783E+06    -5.36884E+06         30.0242
            1537     5.65155E-03     85.5684E-03         1.81026    -531.715E-03    -553.168E-03    -534.397E-03         1.79878    -539.006E-03     54.7231E-03     119.964E-03    -59.8474E-03    -60.1390E-03    -59.8457E-03     119.962E-03    -60.1390E-03     898.843E-06    -35.3594E+06    -60.2698E+06    -225.507E+06    -60.5148E+06    -225.262E+06    -35.3594E+06    -6.28567E+06         30.4012
            1538     6.59380E-03     85.5694E-03         1.79548    -528.138E-03    -542.078E-03    -526.369E-03         1.78943    -537.789E-03    -35.1787E-03     119.722E-03    -59.6355E-03    -60.1126E-03    -59.6234E-03     119.710E-03    -60.1126E-03     2.69960E-03    -29.0652E+06    -54.4255E+06    -199.722E+06    -54.8476E+06    -199.300E+06    -29.0652E+06    -7.48238E+06         30.9126
            1539     7.53635E-03     85.5734E-03         1.79695    -533.116E-03    -538.689E-03    -531.225E-03         1.79297    -536.593E-03     3.36543E-03     119.613E-03    -59.5798E-03    -60.0584E-03    -59.5463E-03     119.579E-03    -60.0584E-03     4.80747E-03    -25.9171E+06    -48.7139E+06    -167.246E+06    -49.3200E+06    -166.640E+06    -25.9171E+06    -8.29447E+06         31.6686
            1540     8.47783E-03     85.5799E-03         1.80189    -533.881E-03    -541.711E-03    -536.874E-03         1.79938    -536.210E-03    -42.2419E-03     119.391E-03    -59.4210E-03    -59.9998E-03    -59.3360E-03     119.306E-03    -59.9998E-03     7.57026E-03    -24.0026E+06    -45.6015E+06    -138.262E+06    -46.0158E+06    -137.847E+06    -24.0026E+06    -5.96277E+06         32.8687
            1541     9.42120E-03     85.5891E-03         1.79600    -530.215E-03    -539.353E-03    -532.961E-03         1.79534    -535.950E-03     47.8688E-03     119.387E-03    -59.4677E-03    -59.9567E-03    -59.2579E-03     119.150E-03    -59.9286E-03     12.6327E-03    -22.3088E+06    -42.8163E+06    -95.7894E+06    -42.9396E+06    -95.6662E+06    -22.3088E+06    -2.07523E+06         34.7348
            1542     10.3627E-03     85.6060E-03         1.78345    -521.833E-03    -534.980E-03    -521.708E-03         1.78332    -534.980E-03     7.74255E-03     119.226E-03    -59.3666E-03    -59.9019E-03    -59.0381E-03     118.870E-03    -59.8738E-03     15.9374E-03    -15.9728E+06    -28.5635E+06    -53.7599E+06    -38.3442E+06    -43.9792E+06    -15.9728E+06     1.82263E+06         37.3314
            1543     11.3063E-03     85.6239E-03         1.77929    -515.375E-03    -533.345E-03    -515.297E-03         1.77921    -533.345E-03     5.07512E-03     118.830E-03    -59.1204E-03    -59.7392E-03    -58.4569E-03     118.166E-03    -59.7392E-03     21.0754E-03     33.4412E+06    -18.7140E+06    -36.3466E+06    -35.6608E+06     29.9870E+06    -15.9457E+06     5.22691E+06         40.6161
            1544     12.2484E-03     85.6509E-03         1.78044    -519.667E-03    -531.683E-03    -519.640E-03         1.78041    -531.683E-03    -5.92190E-03     120.297E-03    -59.4348E-03    -60.9313E-03    -58.2890E-03     117.899E-03    -59.6799E-03     39.3402E-03     87.7742E+06    -5.12186E+06    -34.5139E+06    -34.2325E+06     87.4928E+06    -5.12186E+06     5.43983E+06         44.5563
            1545     13.1917E-03     85.7115E-03         1.76948    -512.743E-03    -529.855E-03    -512.676E-03         1.76942    -529.855E-03    -15.6413E-03     123.499E-03    -59.7885E-03    -63.7703E-03    -57.9914E-03     117.720E-03    -59.7885E-03     63.8268E-03     102.979E+06     33.3784E+06    -30.5827E+06    -30.3717E+06     102.768E+06     33.3784E+06     5.20168E+06         49.1278
            1546     14.1386E-03     85.7931E-03         1.75266    -500.330E-03    -527.010E-03    -500.156E-03         1.75248    -527.010E-03     2.23771E-03     138.830E-03    -59.9709E-03    -78.8337E-03    -59.7629E-03     119.759E-03    -59.9709E-03     118.314E-03     111.084E+06     78.2684E+06    -24.5501E+06    -24.1826E+06     110.717E+06     78.2684E+06     6.26362E+06         54.3116
            1547     15.0772E-03     85.9739E-03         1.74390    -504.745E-03    -523.038E-03    -504.484E-03         1.74363    -523.038E-03    -6.35775E-03     174.462E-03    -60.1207E-03    -114.487E-03    -64.8045E-03     124.779E-03    -60.1207E-03     215.685E-03     129.892E+06     117.267E+06    -16.0814E+06    -15.7215E+06     129.532E+06     117.267E+06     6.25068E+06         59.6451
            1548     16.0211E-03     86.2872E-03         1.72219    -494.389E-03    -518.350E-03    -494.046E-03         1.72185    -518.350E-03     1.63545E-03     184.303E-03    -60.1674E-03    -124.254E-03    -66.1487E-03     126.198E-03    -60.1674E-03     240.720E-03     155.325E+06     143.496E+06    -7.49142E+06    -7.37621E+06     155.210E+06     143.496E+06     3.20250E+06         63.9997
            1549     941.631E-06     86.6993E-03         3.16668     97.4292E-03        -2.56428        -1.14698         1.74937     97.4292E-03        -2.01627     120.263E-03    -60.0031E-03    -60.2624E-03    -60.2159E-03     120.263E-03    -60.0489E-03    -687.548E-06    -84.0468E+06    -89.0180E+06    -289.058E+06    -87.0535E+06    -289.033E+06    -86.0359E+06    -872.950E+03         29.2869
            1550     1.88391E-03     86.6988E-03         2.22866    -523.847E-03    -997.848E-03    -520.437E-03         1.75125    -523.847E-03     648.764E-03     120.220E-03    -60.0631E-03    -60.1636E-03    -60.0695E-03     120.219E-03    -60.1556E-03    -914.378E-06    -78.4255E+06    -83.8962E+06    -285.975E+06    -83.9339E+06    -285.937E+06    -78.4255E+06    -1.89646E+06         29.3792
            1551     2.82588E-03     86.6968E-03         1.91164    -521.071E-03    -684.633E-03    -509.401E-03         1.73641    -521.071E-03    -332.196E-03     120.197E-03    -60.0245E-03    -60.1854E-03    -60.0602E-03     120.195E-03    -60.1474E-03    -1.19704E-03    -71.0822E+06    -79.3776E+06    -268.927E+06    -79.5146E+06    -268.790E+06    -71.0822E+06    -4.38676E+06         29.5265
            1552     3.76721E-03     86.6954E-03         1.81826    -520.105E-03    -592.939E-03    -527.842E-03         1.75316    -520.105E-03     174.873E-03     120.080E-03    -59.9205E-03    -60.1835E-03    -59.9574E-03     120.079E-03    -60.1455E-03    -835.679E-06    -61.8183E+06    -73.9073E+06    -252.502E+06    -74.2768E+06    -252.132E+06    -61.8183E+06    -7.65263E+06         29.7370
            1553     4.70957E-03     86.6953E-03         1.79611    -522.934E-03    -565.664E-03    -541.505E-03         1.77195    -522.934E-03    -127.406E-03     119.931E-03    -59.8050E-03    -60.1493E-03    -59.8045E-03     119.930E-03    -60.1493E-03    -129.025E-06    -50.4183E+06    -67.7171E+06    -239.941E+06    -68.1954E+06    -239.463E+06    -50.4183E+06     -8.7212E+06         30.0244
            1554     5.65164E-03     86.6948E-03         1.77173    -517.905E-03    -542.064E-03    -526.733E-03         1.76343    -524.938E-03     59.9178E-03     119.954E-03    -59.8261E-03    -60.1520E-03    -59.8245E-03     119.953E-03    -60.1520E-03     940.322E-06    -38.4174E+06    -60.6945E+06    -223.266E+06    -61.2094E+06    -222.751E+06    -38.4174E+06    -8.87129E+06         30.4017
            1555     6.59369E-03     86.6961E-03         1.75094    -515.649E-03    -526.957E-03    -513.880E-03         1.74654    -524.319E-03    -11.0247E-03     119.904E-03    -59.7988E-03    -60.1324E-03    -59.7843E-03     119.889E-03    -60.1324E-03     2.88597E-03    -31.0799E+06    -53.7024E+06    -196.178E+06    -54.5005E+06    -195.380E+06    -31.0799E+06    -10.2935E+06         30.9143
            1556     7.53527E-03     86.7006E-03         1.74730    -516.755E-03    -523.904E-03    -514.064E-03         1.74368    -522.968E-03     7.35920E-03     119.590E-03    -59.5231E-03    -60.0954E-03    -59.4898E-03     119.557E-03    -60.0954E-03     4.84563E-03    -27.4878E+06    -49.8784E+06    -169.156E+06    -50.5599E+06    -168.475E+06    -27.4878E+06    -8.55340E+06         31.6693
            1557     8.47867E-03     86.7058E-03         1.73834    -507.942E-03    -521.455E-03    -505.768E-03         1.73616    -521.455E-03    -39.8048E-03     119.357E-03    -59.3650E-03    -60.0236E-03    -59.2817E-03     119.273E-03    -60.0236E-03     7.42937E-03    -26.3498E+06    -47.9959E+06    -140.763E+06    -48.4253E+06    -140.334E+06    -26.3498E+06    -5.89351E+06         32.8678
            1558     9.42049E-03     86.7161E-03         1.73279    -505.660E-03    -519.696E-03    -505.122E-03         1.73225    -519.696E-03     47.3147E-03     119.477E-03    -59.5634E-03    -59.9601E-03    -59.3481E-03     119.234E-03    -59.9319E-03     12.7800E-03    -27.4048E+06    -44.4482E+06    -98.3238E+06    -45.0187E+06    -97.7532E+06    -27.4048E+06    -5.09939E+06         34.7331
            1559     10.3628E-03     86.7334E-03         1.73268    -509.437E-03    -518.326E-03    -509.340E-03         1.73258    -518.326E-03     15.1881E-03     119.278E-03    -59.4318E-03    -59.9045E-03    -59.1196E-03     118.938E-03    -59.8764E-03     15.5749E-03    -22.5026E+06    -32.2800E+06    -57.8680E+06    -39.9771E+06    -49.6843E+06    -22.9892E+06    -1.88170E+06         37.3292
            1560     11.3053E-03     86.7491E-03         1.72893    -506.522E-03    -517.169E-03    -506.458E-03         1.72887    -517.169E-03     17.8920E-03     118.943E-03    -59.2219E-03    -59.7508E-03    -58.5581E-03     118.279E-03    -59.7508E-03     20.9028E-03     27.6137E+06    -22.8996E+06    -34.8544E+06    -34.5720E+06     25.6053E+06    -21.1735E+06     2.91177E+06         40.6135
            1561     12.2486E-03     86.7796E-03         1.72226    -501.320E-03    -515.653E-03    -501.210E-03         1.72215    -515.653E-03     20.4064E-03     120.394E-03    -59.5484E-03    -60.8927E-03    -58.2701E-03     117.934E-03    -59.7116E-03     39.9018E-03     86.4752E+06    -6.64548E+06    -32.0019E+06    -31.4821E+06     85.9554E+06    -6.64548E+06     6.68635E+06         44.5541
            1562     13.1914E-03     86.8362E-03         1.72266    -500.152E-03    -517.217E-03    -503.391E-03         1.72252    -513.836E-03     10.1679E-03     123.493E-03    -59.8313E-03    -63.7576E-03    -58.0906E-03     117.826E-03    -59.8313E-03     63.4014E-03     103.317E+06     30.9317E+06    -32.3853E+06    -31.8499E+06     102.782E+06     30.9317E+06     7.63529E+06         49.1262
            1563     14.1334E-03     86.9185E-03         1.71832    -497.918E-03    -515.005E-03    -501.158E-03         1.71818    -511.625E-03     9.85791E-03     139.469E-03    -60.0177E-03    -79.4576E-03    -60.4443E-03     120.456E-03    -60.0177E-03     118.298E-03     111.503E+06     74.1158E+06    -29.8679E+06    -29.6228E+06     111.258E+06     74.1158E+06     5.54594E+06         54.3091
            1564     15.0783E-03     87.1053E-03         1.69995    -492.413E-03    -508.198E-03    -492.157E-03         1.69969    -508.198E-03    -8.25566E-03     173.796E-03    -60.1597E-03    -113.628E-03    -63.9995E-03     124.167E-03    -60.1597E-03     214.748E-03     130.706E+06     113.586E+06    -21.7203E+06    -21.5523E+06     130.538E+06     113.586E+06     3.19823E+06         59.6441
            1565     16.0241E-03     87.4084E-03         1.67579    -484.711E-03    -503.661E-03    -484.525E-03         1.67560    -503.661E-03    -14.1841E-03     184.592E-03    -60.1773E-03    -124.447E-03    -65.3048E-03     125.450E-03    -60.1773E-03     242.660E-03     156.692E+06     143.377E+06    -10.2614E+06    -10.1547E+06     156.585E+06     143.377E+06     1.82037E+06         64.0028
            1566     941.892E-06     87.8254E-03         2.92610     127.855E-03        -2.37223        -1.10975         1.66362     127.855E-03        -1.85595     120.320E-03    -59.9150E-03    -60.4090E-03    -60.3625E-03     120.319E-03    -59.9608E-03    -683.298E-06    -85.5742E+06    -90.5524E+06    -286.315E+06    -88.5916E+06    -286.287E+06    -87.5632E+06    -1.53676E+06         29.2915
            1567     1.88357E-03     87.8252E-03         2.11490    -497.432E-03    -934.110E-03    -524.467E-03         1.70525    -497.432E-03     596.351E-03     120.348E-03    -60.1345E-03    -60.2208E-03    -60.1619E-03     120.346E-03    -60.1915E-03    -1.03507E-03    -81.1211E+06    -85.9343E+06    -281.981E+06    -86.0534E+06    -281.862E+06    -81.1211E+06    -4.05214E+06         29.3839
            1568     2.82526E-03     87.8232E-03         1.86118    -507.436E-03    -670.256E-03    -526.790E-03         1.71771    -507.436E-03    -297.129E-03     120.366E-03    -60.1407E-03    -60.2375E-03    -60.1767E-03     120.364E-03    -60.1995E-03    -1.10202E-03    -74.6281E+06    -81.4387E+06    -263.430E+06    -81.7312E+06    -263.137E+06    -74.6281E+06    -6.99542E+06         29.5312
            1569     3.76716E-03     87.8228E-03         1.75221    -504.780E-03    -562.134E-03    -505.075E-03         1.70042    -510.053E-03     170.690E-03     120.165E-03    -59.9504E-03    -60.2394E-03    -59.9876E-03     120.164E-03    -60.2014E-03    -728.050E-06    -65.5794E+06    -76.8693E+06    -246.248E+06    -77.4202E+06    -245.697E+06    -65.5794E+06    -9.35894E+06         29.7404
            1570     4.70897E-03     87.8211E-03         1.70725    -502.021E-03    -517.331E-03    -492.233E-03         1.68800    -507.875E-03    -98.1314E-03     119.874E-03    -59.7104E-03    -60.1853E-03    -59.7099E-03     119.873E-03    -60.1853E-03    -53.1517E-06    -55.9156E+06    -71.6525E+06    -236.993E+06    -72.5833E+06    -236.062E+06    -55.9156E+06    -12.0552E+06         30.0255
            1571     5.65165E-03     87.8219E-03         1.71147    -505.992E-03    -517.762E-03    -509.788E-03         1.70408    -506.574E-03     48.7080E-03     119.868E-03    -59.7353E-03    -60.1547E-03    -59.7329E-03     119.865E-03    -60.1547E-03     1.15229E-03    -46.1591E+06    -64.3100E+06    -220.275E+06    -65.6809E+06    -218.904E+06    -46.1591E+06    -13.9607E+06         30.4014
            1572     6.59321E-03     87.8230E-03         1.70741    -505.503E-03    -513.401E-03    -507.062E-03         1.70240    -506.829E-03     6.10239E-03     119.861E-03    -59.7516E-03    -60.1372E-03    -59.7382E-03     119.847E-03    -60.1372E-03     2.84800E-03    -36.8910E+06    -58.2193E+06    -196.086E+06    -59.5002E+06    -194.805E+06    -36.8910E+06    -12.8439E+06         30.9143
            1573     7.53602E-03     87.8264E-03         1.70003    -501.285E-03    -507.918E-03    -499.061E-03         1.69622    -506.329E-03     39.1849E-03     119.706E-03    -59.6255E-03    -60.1109E-03    -59.5929E-03     119.673E-03    -60.1109E-03     4.73940E-03    -31.5401E+06    -53.2892E+06    -172.081E+06    -54.2596E+06    -171.111E+06    -31.5401E+06    -9.86445E+06         31.6687
            1574     8.47745E-03     87.8321E-03         1.69655    -494.157E-03    -510.176E-03    -497.533E-03         1.69508    -505.340E-03    -29.2354E-03     119.590E-03    -59.5863E-03    -60.0415E-03    -59.5043E-03     119.508E-03    -60.0415E-03     7.42375E-03     -29.591E+06    -45.6867E+06    -139.706E+06    -46.8678E+06    -138.525E+06     -29.591E+06    -9.41959E+06         32.8655
            1575     9.42000E-03     87.8426E-03         1.68625    -488.226E-03    -508.331E-03    -491.950E-03         1.68579    -504.148E-03     18.5908E-03     119.436E-03    -59.5246E-03    -59.9583E-03    -59.2777E-03     119.189E-03    -59.9583E-03     12.8127E-03    -30.2387E+06    -39.7345E+06    -101.035E+06    -40.9219E+06    -99.8477E+06    -30.2387E+06    -8.29512E+06         34.7296
            1576     10.3625E-03     87.8601E-03         1.67502    -487.335E-03    -502.645E-03    -487.217E-03         1.67490    -502.645E-03    -16.2226E-03     119.227E-03    -59.3931E-03    -59.8843E-03    -59.0447E-03     118.879E-03    -59.8843E-03     15.7509E-03    -27.2690E+06    -32.1199E+06    -61.3976E+06    -38.0946E+06    -54.4535E+06    -28.2384E+06    -5.12116E+06         37.3253
            1577     11.3049E-03     87.8761E-03         1.66820    -483.727E-03    -500.959E-03    -483.657E-03         1.66813    -500.959E-03    -4.24026E-03     118.953E-03    -59.2347E-03    -59.7564E-03    -58.5708E-03     118.289E-03    -59.7564E-03     20.9226E-03     19.7018E+06    -27.1775E+06    -37.3399E+06    -36.2525E+06     18.6145E+06    -27.1775E+06     292.639E+03         40.6096
            1578     12.2481E-03     87.9045E-03         1.66218    -481.995E-03    -499.105E-03    -481.819E-03         1.66200    -499.105E-03     2.15345E-03     120.154E-03    -59.4515E-03    -60.7707E-03    -58.0448E-03     117.685E-03    -59.7083E-03     39.8949E-03     79.7842E+06    -13.3039E+06    -35.0653E+06    -34.5502E+06     79.2691E+06    -13.3039E+06     6.83677E+06         44.5510
            1579     13.1920E-03     87.9636E-03         1.67087    -490.414E-03    -500.893E-03    -493.658E-03         1.67073    -497.512E-03     5.04500E-03     124.002E-03    -59.8192E-03    -64.2682E-03    -58.3950E-03     118.129E-03    -59.8192E-03     64.6212E-03     102.999E+06     25.6594E+06    -32.0730E+06    -31.2034E+06     102.130E+06     25.6594E+06     10.2535E+06         49.1237
            1580     14.1346E-03     88.0467E-03         1.67054    -492.415E-03    -499.347E-03    -495.693E-03         1.67044    -495.966E-03    -16.4016E-03     140.126E-03    -60.0176E-03    -80.1469E-03    -60.4225E-03     120.402E-03    -60.0176E-03     120.666E-03     117.287E+06     74.3246E+06    -27.0208E+06    -26.4435E+06     116.709E+06     74.3246E+06     8.33735E+06         54.3074
            1581     15.0757E-03     88.2314E-03         1.64227    -477.671E-03    -492.846E-03    -477.531E-03         1.64213    -492.846E-03    -16.4910E-03     173.294E-03    -60.1715E-03    -113.079E-03    -64.0115E-03     124.227E-03    -60.1715E-03     213.804E-03     135.011E+06     115.359E+06    -19.3019E+06    -19.1800E+06     134.889E+06     115.359E+06     2.18608E+06         59.6429
            1582     16.0231E-03     88.5275E-03         1.62461    -467.517E-03    -488.033E-03    -467.424E-03         1.62452    -488.033E-03     4.89957E-03     184.427E-03    -60.2001E-03    -124.165E-03    -65.4702E-03     125.732E-03    -60.2001E-03     241.919E-03     156.511E+06     143.550E+06    -9.36143E+06    -9.34571E+06     156.495E+06     143.550E+06    -268.049E+03         64.0017
            1583     941.807E-06     88.9532E-03         2.68761     131.485E-03        -2.15635        -1.08946         1.62073     131.485E-03        -1.63437     120.397E-03    -60.0298E-03    -60.3716E-03    -60.3707E-03     120.396E-03    -60.0298E-03    -722.043E-06    -89.0642E+06    -92.9312E+06    -282.159E+06    -92.2794E+06    -282.119E+06    -89.7556E+06    -1.67532E+06         29.2981
            1584     1.88343E-03     88.9513E-03         1.99664    -483.933E-03    -844.414E-03    -504.430E-03         1.65666    -483.933E-03     546.096E-03     120.511E-03    -60.2358E-03    -60.2837E-03    -60.2776E-03     120.510E-03    -60.2410E-03    -818.961E-06    -83.8570E+06    -88.2559E+06    -274.979E+06    -88.4520E+06    -274.783E+06    -83.8570E+06    -5.64201E+06         29.3885
            1585     2.82517E-03     88.9505E-03         1.76979    -489.714E-03    -610.512E-03    -493.544E-03         1.65282    -489.714E-03    -248.867E-03     120.308E-03    -60.0696E-03    -60.2509E-03    -60.0806E-03     120.307E-03    -60.2386E-03    -956.754E-06    -78.3303E+06    -84.2836E+06    -256.827E+06    -84.8213E+06    -256.289E+06    -78.3303E+06    -9.25777E+06         29.5336
            1586     3.76702E-03     88.9489E-03         1.69160    -484.695E-03    -533.847E-03    -486.688E-03         1.64971    -489.967E-03     170.781E-03     120.089E-03    -59.9069E-03    -60.2058E-03    -59.9062E-03     120.089E-03    -60.2058E-03    -666.716E-06    -69.3874E+06    -78.9046E+06    -240.383E+06    -79.7975E+06    -239.490E+06    -69.3874E+06    -11.7304E+06         29.7430
            1587     4.70925E-03     88.9482E-03         1.65553    -482.733E-03    -500.149E-03    -478.716E-03         1.63995    -488.587E-03    -51.2910E-03     120.098E-03    -59.9170E-03    -60.2013E-03    -59.9167E-03     120.098E-03    -60.2013E-03     6.96254E-06    -58.4285E+06    -72.8266E+06    -230.496E+06    -74.2739E+06    -229.048E+06    -58.4285E+06    -14.6913E+06         30.0289
            1588     5.65069E-03     88.9478E-03         1.65145    -487.072E-03    -496.805E-03    -488.360E-03         1.64358    -487.656E-03     55.3077E-03     119.898E-03    -59.7349E-03    -60.1830E-03    -59.7320E-03     119.895E-03    -60.1830E-03     1.22478E-03    -50.7639E+06    -68.1346E+06    -216.370E+06    -70.1249E+06    -214.380E+06    -50.7639E+06    -16.9965E+06         30.4033
            1589     6.59359E-03     88.9499E-03         1.64618    -486.327E-03    -493.097E-03    -487.233E-03         1.64164    -487.655E-03    -5.81608E-03     119.798E-03    -59.6762E-03    -60.1494E-03    -59.6643E-03     119.786E-03    -60.1494E-03     2.79693E-03    -44.2234E+06    -62.7692E+06    -198.140E+06    -64.9207E+06    -195.988E+06    -44.2234E+06    -16.3288E+06         30.9138
            1590     7.53500E-03     88.9528E-03         1.64614    -483.701E-03    -489.451E-03    -482.933E-03         1.64321    -487.291E-03     38.8981E-03     119.838E-03    -59.7491E-03    -60.1192E-03    -59.7167E-03     119.805E-03    -60.1192E-03     4.69443E-03    -37.6751E+06    -53.5451E+06    -171.516E+06    -56.2303E+06    -168.831E+06    -37.6751E+06    -16.6333E+06         31.6665
            1591     8.47749E-03     88.9598E-03         1.65150    -484.771E-03    -492.707E-03    -489.256E-03         1.65031    -487.034E-03    -8.63138E-03     119.568E-03    -59.5401E-03    -60.0592E-03    -59.4539E-03     119.482E-03    -60.0592E-03     7.62908E-03    -34.7863E+06    -45.0170E+06    -140.848E+06    -48.0094E+06    -137.856E+06    -34.7863E+06    -16.3888E+06         32.8616
            1592     9.41951E-03     88.9685E-03         1.64715    -482.317E-03    -494.864E-03    -489.419E-03         1.64647    -487.084E-03     44.6444E-03     119.379E-03    -59.4387E-03    -59.9790E-03    -59.1781E-03     119.119E-03    -59.9790E-03     13.1386E-03    -33.9644E+06    -39.5661E+06    -106.437E+06    -42.0769E+06    -103.927E+06    -33.9644E+06    -12.3175E+06         34.7246
            1593     10.3624E-03     88.9871E-03         1.63061    -473.101E-03    -489.210E-03    -475.632E-03         1.63038    -486.450E-03     9.66510E-03     119.129E-03    -59.2796E-03    -59.8948E-03    -58.9163E-03     118.765E-03    -59.8948E-03     16.0670E-03    -30.2126E+06    -34.9739E+06    -63.2397E+06    -38.3442E+06    -59.3866E+06    -30.6954E+06    -6.72390E+06         37.3198
            1594     11.3052E-03     89.0028E-03         1.62378    -470.125E-03    -487.881E-03    -472.749E-03         1.62367    -485.148E-03    -582.092E-06     118.881E-03    -59.1534E-03    -59.7567E-03    -58.4978E-03     118.225E-03    -59.7567E-03     20.8449E-03     13.4325E+06    -32.8499E+06    -38.8998E+06    -37.1380E+06     9.32994E+06    -30.5091E+06     277.073E+03         40.6042
            1595     12.2481E-03     89.0308E-03         1.62545    -476.790E-03    -488.598E-03    -481.223E-03         1.62538    -484.094E-03    -17.6742E-03     120.291E-03    -59.4860E-03    -60.8755E-03    -58.1964E-03     117.817E-03    -59.6912E-03     39.8865E-03     73.7023E+06    -19.2702E+06    -36.6711E+06    -36.1276E+06     73.2985E+06    -19.4098E+06     6.28793E+06         44.5457
            1596     13.1916E-03     89.0893E-03         1.61429    -469.989E-03    -484.627E-03    -471.679E-03         1.61421    -482.855E-03    -3.92810E-03     123.772E-03    -59.7764E-03    -64.0447E-03    -58.0316E-03     117.759E-03    -59.7764E-03     65.1918E-03     101.138E+06     18.2354E+06    -32.2290E+06    -31.5800E+06     100.489E+06     18.2354E+06     8.26582E+06         49.1196
            1597     14.1347E-03     89.1754E-03         1.60412    -460.185E-03    -480.326E-03    -460.033E-03         1.60397    -480.326E-03    -7.18584E-03     139.001E-03    -59.9458E-03    -79.0427E-03    -59.3842E-03     119.343E-03    -59.9458E-03     120.072E-03     119.797E+06     72.2242E+06    -23.7850E+06    -23.3184E+06     119.331E+06     72.2242E+06     6.90006E+06         54.3071
            1598     15.0818E-03     89.3559E-03         1.60066    -462.210E-03    -477.517E-03    -463.224E-03         1.60054    -476.378E-03    -13.4567E-03     174.599E-03    -60.1284E-03    -114.466E-03    -65.0564E-03     125.189E-03    -60.1284E-03     215.727E-03     141.476E+06     120.318E+06    -13.3459E+06    -13.2095E+06     141.340E+06     120.318E+06     4.04287E+06         59.6433
            1599     16.0182E-03     89.6606E-03         1.59078    -455.662E-03    -472.787E-03    -456.717E-03         1.59069    -471.648E-03     8.84230E-03     184.918E-03    -60.2104E-03    -124.668E-03    -66.3318E-03     126.582E-03    -60.2104E-03     241.824E-03     159.248E+06     146.911E+06    -6.55052E+06    -6.51214E+06     159.209E+06     146.911E+06     1.61386E+06         64.0008
            1600     941.674E-06     90.0788E-03         2.45242     108.033E-03        -1.91160        -1.06806         1.60888     108.033E-03        -1.39181     120.601E-03    -60.1662E-03    -60.4378E-03    -60.3823E-03     120.600E-03    -60.2206E-03    -841.740E-06    -95.4936E+06    -98.0526E+06    -275.574E+06    -97.1386E+06    -275.433E+06    -96.5491E+06    -4.27694E+06         29.3042
            1601     1.88344E-03     90.0792E-03         1.86997    -477.401E-03    -740.013E-03    -467.378E-03         1.59733    -477.401E-03     453.475E-03     120.405E-03    -60.1091E-03    -60.3046E-03    -60.1213E-03     120.404E-03    -60.2912E-03    -874.610E-06    -88.3512E+06    -92.9854E+06    -266.503E+06    -92.9658E+06    -266.158E+06    -88.7152E+06    -7.36782E+06         29.3914
            1602     2.82492E-03     90.0768E-03         1.65560    -469.310E-03    -535.473E-03    -435.677E-03         1.55580    -469.310E-03    -224.296E-03     120.241E-03    -59.9984E-03    -60.2562E-03    -60.0108E-03     120.240E-03    -60.2423E-03    -1.03849E-03    -80.5413E+06    -87.9441E+06    -248.606E+06    -88.7538E+06    -247.796E+06    -80.5413E+06    -10.9568E+06         29.5360
            1603     3.76731E-03     90.0754E-03         1.61199    -463.670E-03    -496.570E-03    -463.194E-03         1.57861    -463.670E-03     164.166E-03     120.168E-03    -59.9809E-03    -60.2096E-03    -59.9817E-03     120.168E-03    -60.2081E-03    -668.168E-06    -72.0980E+06    -82.1960E+06    -233.360E+06    -83.8197E+06    -231.737E+06    -72.0980E+06    -15.2161E+06         29.7462
            1604     4.70876E-03     90.0748E-03         1.60819    -465.360E-03    -493.541E-03    -482.678E-03         1.59733    -465.360E-03    -39.5918E-03     120.178E-03    -59.9779E-03    -60.2191E-03    -59.9777E-03     120.178E-03    -60.2191E-03     9.13900E-06    -61.0038E+06    -74.9905E+06    -224.191E+06    -77.4281E+06    -221.754E+06    -61.0038E+06    -18.5952E+06         30.0325
            1605     5.65096E-03     90.0748E-03         1.59972    -468.181E-03    -487.031E-03    -481.303E-03         1.59399    -468.183E-03     50.5222E-03     120.083E-03    -59.8802E-03    -60.2219E-03    -59.8780E-03     120.081E-03    -60.2219E-03     1.06276E-03    -51.3722E+06    -67.1948E+06    -212.667E+06    -70.0049E+06    -209.857E+06    -51.3722E+06    -19.7700E+06         30.4061
            1606     6.59261E-03     90.0759E-03         1.59812    -470.062E-03    -483.949E-03    -481.445E-03         1.59562    -470.064E-03    -15.6027E-03     119.878E-03    -59.7185E-03    -60.1851E-03    -59.7043E-03     119.864E-03    -60.1851E-03     2.94231E-03    -45.9050E+06    -58.4771E+06    -195.189E+06    -62.3191E+06    -191.347E+06    -45.9050E+06    -22.0363E+06         30.9137
            1607     7.53497E-03     90.0811E-03         1.58904    -461.819E-03    -478.635E-03    -467.831E-03         1.58707    -470.650E-03    -3.47891E-03     119.644E-03    -59.5334E-03    -60.1384E-03    -59.4977E-03     119.608E-03    -60.1384E-03     4.97972E-03    -40.8868E+06    -50.7108E+06    -170.134E+06    -55.6242E+06    -165.221E+06    -40.8868E+06    -23.5846E+06         31.6631
            1608     8.47681E-03     90.0854E-03         1.56990    -451.480E-03    -470.197E-03    -450.889E-03         1.56848    -469.360E-03    -31.6003E-03     119.446E-03    -59.4010E-03    -60.0706E-03    -59.3098E-03     119.355E-03    -60.0706E-03     7.81759E-03    -37.5663E+06    -45.5554E+06    -144.248E+06    -50.5220E+06    -139.282E+06    -37.5663E+06    -21.4127E+06         32.8560
            1609     9.42014E-03     90.0956E-03         1.57489    -456.870E-03    -471.366E-03    -460.013E-03         1.57443    -467.769E-03     42.0779E-03     119.388E-03    -59.4431E-03    -59.9747E-03    -59.1800E-03     119.125E-03    -59.9747E-03     13.2643E-03    -38.1352E+06    -42.0109E+06    -112.724E+06    -46.1508E+06    -108.168E+06    -38.5510E+06    -17.2523E+06         34.7173
            1610     10.3620E-03     90.1130E-03         1.58913    -463.688E-03    -477.832E-03    -473.962E-03         1.58898    -467.413E-03     20.0275E-03     119.059E-03    -59.2157E-03    -59.8831E-03    -58.8547E-03     118.698E-03    -59.8831E-03     16.0112E-03    -33.5091E+06    -39.4373E+06    -71.4219E+06    -41.1192E+06    -66.9120E+06    -36.3371E+06    -10.6617E+06         37.3115
            1611     11.3052E-03     90.1290E-03         1.59434    -466.065E-03    -483.184E-03    -481.187E-03         1.59422    -467.938E-03     23.5804E-03     118.891E-03    -59.1635E-03    -59.7447E-03    -58.5099E-03     118.238E-03    -59.7447E-03     20.8238E-03     6.36379E+06    -35.8172E+06    -42.3248E+06    -35.7913E+06    -727.566E+03    -35.2593E+06    -2.24981E+06         40.5958
            1612     12.2484E-03     90.1571E-03         1.58571    -465.288E-03    -477.566E-03    -474.566E-03         1.58563    -468.209E-03     12.7587E-03     120.542E-03    -59.5501E-03    -61.0592E-03    -58.4829E-03     118.091E-03    -59.6757E-03     39.7852E-03     68.0240E+06    -22.4009E+06    -34.3098E+06    -32.0648E+06     67.7016E+06    -24.3234E+06     5.22987E+06         44.5371
            1613     13.1910E-03     90.2160E-03         1.55794    -444.525E-03    -468.566E-03    -446.243E-03         1.55789    -466.795E-03     10.6397E-03     123.242E-03    -59.7612E-03    -63.5523E-03    -57.6091E-03     117.299E-03    -59.7612E-03     64.5938E-03     102.043E+06     15.6377E+06    -29.6627E+06    -29.3005E+06     101.680E+06     15.6377E+06     6.24450E+06         49.1122
            1614     14.1359E-03     90.3000E-03         1.54542    -432.795E-03    -463.405E-03    -432.618E-03         1.54524    -463.405E-03     28.7997E-03     138.401E-03    -59.9291E-03    -78.4630E-03    -58.7732E-03     118.712E-03    -59.9291E-03     119.815E-03     119.375E+06     72.2694E+06    -23.9228E+06    -23.8009E+06     119.253E+06     72.2694E+06     3.80840E+06         54.3031
            1615     15.0787E-03     90.4812E-03         1.55907    -448.048E-03    -465.629E-03    -454.118E-03         1.55882    -459.309E-03    -2.90685E-03     175.213E-03    -60.0770E-03    -115.103E-03    -64.6885E-03     124.799E-03    -60.0770E-03     217.869E-03     142.384E+06     119.415E+06    -16.5907E+06    -16.4755E+06     142.269E+06     119.415E+06     4.03243E+06         59.6438
            1616     16.0259E-03     90.7950E-03         1.54854    -449.651E-03    -461.678E-03    -455.826E-03         1.54840    -455.358E-03    -11.5837E-03     183.960E-03    -60.1460E-03    -123.753E-03    -66.2288E-03     126.436E-03    -60.1460E-03     239.305E-03     162.743E+06     147.823E+06    -9.25020E+06    -9.17998E+06     162.673E+06     147.823E+06     2.96807E+06         64.0038
            1617     941.169E-06     91.2071E-03         2.23611     68.8653E-03        -1.66755    -995.419E-03         1.56399     68.8653E-03        -1.20531     120.746E-03    -60.1537E-03    -60.5938E-03    -60.4690E-03     120.745E-03    -60.2776E-03    -808.033E-06    -94.5406E+06    -97.4057E+06    -264.528E+06    -96.9365E+06    -264.296E+06    -95.2419E+06    -5.83789E+06         29.3079
            1618     1.88287E-03     91.2049E-03         1.74051    -456.558E-03    -644.178E-03    -430.379E-03         1.52671    -456.558E-03     386.664E-03     120.384E-03    -60.0542E-03    -60.3384E-03    -60.0529E-03     120.383E-03    -60.3384E-03    -937.493E-06    -88.7547E+06    -93.9923E+06    -257.418E+06    -94.2057E+06    -256.841E+06    -89.1187E+06    -9.46029E+06         29.3951
            1619     2.82559E-03     91.2041E-03         1.59477    -447.730E-03    -508.208E-03    -433.859E-03         1.52042    -447.730E-03    -193.555E-03     120.337E-03    -60.0818E-03    -60.2705E-03    -60.0818E-03     120.335E-03    -60.2689E-03    -1.03641E-03    -80.9792E+06    -88.2815E+06    -239.734E+06    -89.5922E+06    -238.423E+06    -80.9792E+06    -13.4953E+06         29.5405
            1620     3.76649E-03     91.2026E-03         1.56269    -446.828E-03    -483.571E-03    -457.967E-03         1.53709    -446.828E-03     122.079E-03     120.288E-03    -60.0622E-03    -60.2492E-03    -60.0628E-03     120.287E-03    -60.2476E-03    -803.192E-06    -72.0599E+06    -82.2618E+06    -224.075E+06    -84.6767E+06    -221.660E+06    -72.0599E+06    -18.0975E+06         29.7500
            1621     4.70875E-03     91.2016E-03         1.54416    -448.424E-03    -469.806E-03    -461.624E-03         1.53700    -449.444E-03    -93.6218E-03     120.121E-03    -59.8922E-03    -60.2459E-03    -59.8916E-03     120.121E-03    -60.2459E-03     36.8320E-06    -63.0957E+06    -75.5410E+06    -217.096E+06    -79.1380E+06    -213.499E+06    -63.0957E+06    -22.1205E+06         30.0343
            1622     5.65041E-03     91.2015E-03         1.53926    -448.913E-03    -465.069E-03    -460.786E-03         1.53750    -451.436E-03     12.8404E-03     120.096E-03    -59.8845E-03    -60.2294E-03    -59.8811E-03     120.092E-03    -60.2294E-03     1.35942E-03    -55.3666E+06    -67.0202E+06    -207.675E+06    -72.1395E+06    -202.556E+06    -55.3666E+06    -25.8337E+06         30.4064
            1623     6.59224E-03     91.2031E-03         1.54148    -451.380E-03    -465.562E-03    -462.611E-03         1.54003    -452.883E-03     10.4154E-03     119.851E-03    -59.6820E-03    -60.1956E-03    -59.6661E-03     119.835E-03    -60.1956E-03     3.16728E-03    -48.7803E+06    -57.9582E+06    -190.525E+06    -64.4268E+06    -184.057E+06    -48.7803E+06    -28.1099E+06         30.9122
            1624     7.53472E-03     91.2063E-03         1.53330    -446.378E-03    -460.168E-03    -451.378E-03         1.53152    -453.389E-03     1.00384E-03     119.500E-03    -59.3894E-03    -60.1388E-03    -59.3528E-03     119.464E-03    -60.1388E-03     5.05439E-03    -44.2604E+06    -50.8238E+06    -169.967E+06    -58.0099E+06    -162.781E+06    -44.2604E+06    -28.1484E+06         31.6584
            1625     8.47788E-03     91.2124E-03         1.51923    -436.174E-03    -452.965E-03    -435.569E-03         1.51790    -452.233E-03    -23.2218E-03     119.457E-03    -59.4289E-03    -60.0599E-03    -59.3377E-03     119.365E-03    -60.0599E-03     7.82414E-03    -40.8325E+06    -45.2859E+06    -147.187E+06    -52.0725E+06    -139.805E+06    -41.4279E+06    -26.3123E+06         32.8479
            1626     9.41910E-03     91.2220E-03         1.52216    -439.161E-03    -451.329E-03    -439.464E-03         1.52173    -450.597E-03     29.9959E-03     119.336E-03    -59.4047E-03    -59.9698E-03    -59.1496E-03     119.081E-03    -59.9698E-03     13.0874E-03    -37.4763E+06    -42.6443E+06    -118.383E+06    -45.8680E+06    -111.046E+06    -41.5888E+06    -22.8720E+06         34.7067
            1627     10.3625E-03     91.2394E-03         1.53279    -446.702E-03    -457.693E-03    -454.334E-03         1.53276    -450.034E-03    -9.14242E-03     119.046E-03    -59.2065E-03    -59.8708E-03    -58.8457E-03     118.685E-03    -59.8708E-03     16.0193E-03    -32.0572E+06    -41.6694E+06    -82.5598E+06    -39.8897E+06    -74.7273E+06    -41.6694E+06    -17.4677E+06         37.2994
            1628     11.3051E-03     91.2550E-03         1.53319    -446.077E-03    -462.799E-03    -458.500E-03         1.53310    -450.286E-03     7.90930E-03     119.168E-03    -59.3745E-03    -59.8252E-03    -58.7994E-03     118.511E-03    -59.7439E-03     20.9707E-03    -1.17608E+06    -37.2943E+06    -51.7373E+06    -35.2538E+06    -13.2567E+06    -41.6972E+06    -7.36823E+06         40.5827
            1629     12.2476E-03     91.2840E-03         1.52261    -441.033E-03    -454.774E-03    -445.808E-03         1.52253    -449.921E-03     13.3719E-03     120.406E-03    -59.6528E-03    -60.8372E-03    -58.3685E-03     117.962E-03    -59.6775E-03     39.6428E-03     60.3036E+06    -25.8616E+06    -36.5800E+06    -31.9923E+06     60.1188E+06    -30.2645E+06     2.01707E+06         44.5243
            1630     13.1908E-03     91.3430E-03         1.51825    -435.182E-03    -453.503E-03    -440.150E-03         1.51823    -448.518E-03    -3.18807E-03     122.644E-03    -59.7447E-03    -62.9585E-03    -57.2032E-03     116.889E-03    -59.7447E-03     63.5146E-03     103.355E+06     12.3287E+06    -28.2567E+06    -28.0632E+06     103.161E+06     12.3287E+06     4.93964E+06         49.1021
            1631     14.1364E-03     91.4221E-03         1.51168    -429.260E-03    -451.254E-03    -434.093E-03         1.51153    -446.269E-03     16.8962E-03     138.872E-03    -59.9338E-03    -78.9623E-03    -59.1391E-03     119.048E-03    -59.9338E-03     120.141E-03     120.466E+06     71.5186E+06    -24.1788E+06    -23.9023E+06     120.189E+06     71.5186E+06     5.50565E+06         54.2963
            1632     15.0817E-03     91.6115E-03         1.50456    -429.438E-03    -448.025E-03    -434.391E-03         1.50433    -442.843E-03     9.03551E-03     174.736E-03    -60.0724E-03    -114.653E-03    -64.0112E-03     124.094E-03    -60.0724E-03     217.779E-03     141.832E+06     117.516E+06    -20.1341E+06    -19.9017E+06     141.599E+06     117.516E+06     5.02403E+06         59.6409
            1633     16.0225E-03     91.9167E-03         1.50076    -434.670E-03    -448.415E-03    -444.029E-03         1.50064    -438.929E-03    -13.9368E-03     183.229E-03    -60.1011E-03    -123.065E-03    -65.5421E-03     125.707E-03    -60.1011E-03     238.543E-03     164.997E+06     148.240E+06    -11.2773E+06    -11.2230E+06     164.943E+06     148.240E+06     2.13387E+06         64.0036
            1634     941.743E-06     92.3340E-03         2.00883     80.4209E-03        -1.47349    -933.802E-03         1.46914     80.4209E-03        -1.08509     120.504E-03    -60.0973E-03    -60.4091E-03    -60.3240E-03     120.503E-03    -60.1810E-03    -927.388E-06    -89.4417E+06    -92.4010E+06    -252.814E+06    -92.1349E+06    -252.603E+06    -89.9190E+06    -5.36761E+06         29.3096
            1635     1.88361E-03     92.3323E-03         1.63602    -428.652E-03    -590.100E-03    -436.329E-03         1.48225    -428.652E-03     310.228E-03     120.610E-03    -60.1932E-03    -60.4251E-03    -60.3222E-03     120.609E-03    -60.2954E-03    -769.507E-06    -84.1409E+06    -88.7660E+06    -245.431E+06    -89.6320E+06    -244.565E+06    -84.1409E+06    -10.8770E+06         29.3995
            1636     2.82431E-03     92.3311E-03         1.55782    -434.974E-03    -510.230E-03    -461.364E-03         1.50895    -434.974E-03    -185.549E-03     120.494E-03    -60.1339E-03    -60.3763E-03    -60.2100E-03     120.492E-03    -60.2991E-03    -853.667E-06    -79.8094E+06    -83.9157E+06    -229.187E+06    -85.7545E+06    -227.183E+06    -79.9745E+06    -16.5177E+06         29.5446
            1637     3.76675E-03     92.3297E-03         1.51366    -430.967E-03    -472.837E-03    -448.424E-03         1.49866    -440.381E-03     72.8577E-03     120.257E-03    -60.0038E-03    -60.2770E-03    -60.0031E-03     120.256E-03    -60.2770E-03    -646.464E-06    -71.7698E+06    -78.5505E+06    -214.301E+06    -81.4826E+06    -211.204E+06    -71.9349E+06    -20.1763E+06         29.7529
            1638     4.70827E-03     92.3282E-03         1.47996    -427.825E-03    -443.734E-03    -425.994E-03         1.47438    -439.991E-03    -77.5946E-03     120.183E-03    -59.9328E-03    -60.2688E-03    -59.9322E-03     120.182E-03    -60.2688E-03     114.293E-06    -61.5723E+06    -71.8663E+06    -206.971E+06    -76.7277E+06    -202.109E+06    -61.5723E+06    -24.7871E+06         30.0360
            1639     5.65068E-03     92.3287E-03         1.47156    -429.040E-03    -437.728E-03    -427.403E-03         1.46992    -437.728E-03     1.13476E-03     119.957E-03    -59.7338E-03    -60.2452E-03    -59.7305E-03     119.954E-03    -60.2452E-03     1.32840E-03    -53.7499E+06    -64.5265E+06    -199.425E+06    -71.6682E+06    -192.283E+06    -53.7499E+06    -30.0240E+06         30.4064
            1640     6.59281E-03     92.3301E-03         1.45753    -416.704E-03    -435.723E-03    -415.519E-03         1.45605    -435.422E-03     931.973E-06     119.781E-03    -59.6168E-03    -60.1919E-03    -59.6024E-03     119.766E-03    -60.1919E-03     3.02276E-03    -49.4754E+06    -57.3030E+06    -186.591E+06    -66.4865E+06    -177.407E+06    -49.4754E+06    -32.9714E+06         30.9099
            1641     7.53486E-03     92.3329E-03         1.46778    -419.866E-03    -433.975E-03    -419.533E-03         1.46656    -433.090E-03     10.9137E-03     119.694E-03    -59.5856E-03    -60.1376E-03    -59.5495E-03     119.658E-03    -60.1376E-03     4.98989E-03    -45.6444E+06    -49.1743E+06    -168.611E+06    -59.6065E+06    -157.684E+06    -46.1393E+06    -34.2663E+06         31.6518
            1642     8.47646E-03     92.3388E-03         1.49254    -432.113E-03    -441.807E-03    -440.250E-03         1.49142    -432.555E-03     8.10414E-03     119.392E-03    -59.3586E-03    -60.0668E-03    -59.2679E-03     119.302E-03    -60.0668E-03     7.82111E-03    -39.5937E+06    -44.2954E+06    -150.495E+06    -51.6620E+06    -138.934E+06    -43.7880E+06    -33.6018E+06         32.8363
            1643     9.41990E-03     92.3487E-03         1.49481    -432.946E-03    -448.336E-03    -447.115E-03         1.49412    -433.483E-03     57.9743E-03     119.230E-03    -59.3006E-03    -59.9722E-03    -59.0454E-03     118.975E-03    -59.9722E-03     13.0650E-03    -32.8799E+06    -43.5595E+06    -124.613E+06    -44.3986E+06    -113.094E+06    -43.5595E+06    -30.1690E+06         34.6914
            1644     10.3622E-03     92.3651E-03         1.47634    -429.757E-03    -440.198E-03    -435.893E-03         1.47629    -434.013E-03     2.50212E-03     119.237E-03    -59.3967E-03    -59.8879E-03    -59.0299E-03     118.870E-03    -59.8879E-03     16.1710E-03    -28.7894E+06    -42.7421E+06    -92.4966E+06    -39.3760E+06    -81.9100E+06    -42.7421E+06    -23.5911E+06         37.2816
            1645     11.3047E-03     92.3826E-03         1.46031    -421.561E-03    -433.309E-03    -421.543E-03         1.46029    -433.309E-03    -3.35325E-03     119.204E-03    -59.4079E-03    -59.8453E-03    -58.8085E-03     118.523E-03    -59.7639E-03     21.3293E-03     -8.8824E+06    -38.1738E+06    -62.3856E+06    -35.6269E+06    -28.6983E+06    -45.1167E+06    -12.3076E+06         40.5638
            1646     12.2471E-03     92.4107E-03         1.46184    -419.008E-03    -431.822E-03    -419.002E-03         1.46184    -431.822E-03    -2.34174E-03     119.960E-03    -59.5389E-03    -60.5112E-03    -57.9867E-03     117.557E-03    -59.6600E-03     39.3842E-03     51.7840E+06    -29.3481E+06    -40.5561E+06    -33.1715E+06     51.3422E+06    -36.2910E+06    -948.001E+03         44.5070
            1647     13.1923E-03     92.4669E-03         1.47729    -425.779E-03    -438.410E-03    -433.566E-03         1.47723    -430.564E-03    -66.7423E-06     122.855E-03    -59.7012E-03    -63.2095E-03    -57.5380E-03     117.183E-03    -59.7012E-03     63.1328E-03     101.977E+06     3.70113E+06    -30.7641E+06    -30.6145E+06     101.827E+06     3.70113E+06     4.33023E+06         49.0873
            1648     14.1355E-03     92.5485E-03         1.47515    -425.114E-03    -438.914E-03    -434.704E-03         1.47508    -429.252E-03     12.1108E-03     139.340E-03    -59.9237E-03    -79.4439E-03    -59.6562E-03     119.552E-03    -59.9237E-03     120.166E-03     119.190E+06     63.6015E+06    -26.2261E+06    -25.9267E+06     118.891E+06     63.6015E+06     5.99607E+06         54.2840
            1649     15.0774E-03     92.7374E-03         1.44708    -413.098E-03    -427.903E-03    -414.730E-03         1.44689    -426.087E-03     26.2586E-03     173.890E-03    -60.0937E-03    -113.800E-03    -63.3156E-03     123.406E-03    -60.0937E-03     216.694E-03     143.736E+06     117.221E+06    -18.7294E+06    -18.4801E+06     143.487E+06     117.221E+06     5.48799E+06         59.6319
            1650     16.0273E-03     93.0410E-03         1.43596    -408.706E-03    -425.599E-03    -412.565E-03         1.43551    -421.295E-03     32.6785E-03     183.549E-03    -60.0961E-03    -123.426E-03    -65.0545E-03     125.177E-03    -60.0961E-03     240.338E-03     168.400E+06     151.225E+06    -8.65074E+06    -8.57830E+06     168.327E+06     151.225E+06     2.64269E+06         63.9965
            1651     942.002E-06     93.4599E-03         1.78764     99.5608E-03        -1.29881    -912.544E-03         1.40138     99.5608E-03    -901.566E-03     120.443E-03    -60.0024E-03    -60.4451E-03    -60.4293E-03     120.442E-03    -60.0166E-03    -1.04205E-03    -85.1424E+06    -87.9567E+06    -240.556E+06    -86.9259E+06    -240.204E+06    -86.5246E+06    -6.28880E+06         29.3099
            1652     1.88320E-03     93.4600E-03         1.54541    -415.254E-03    -543.752E-03    -451.064E-03         1.45272    -415.254E-03     261.207E-03     120.596E-03    -60.1746E-03    -60.4307E-03    -60.3457E-03     120.595E-03    -60.2588E-03    -766.695E-06    -80.2335E+06    -83.5910E+06    -231.122E+06    -83.5619E+06    -229.909E+06    -81.4756E+06    -12.6975E+06         29.4000
            1653     2.82504E-03     93.4583E-03         1.46980    -423.693E-03    -459.642E-03    -429.961E-03         1.44147    -425.041E-03    -104.759E-03     120.452E-03    -60.0955E-03    -60.3750E-03    -60.1842E-03     120.452E-03    -60.2854E-03    -783.911E-06    -75.2123E+06    -78.4923E+06    -217.146E+06    -80.7698E+06    -214.703E+06    -75.3774E+06    -17.9932E+06         29.5461
            1654     3.76656E-03     93.4562E-03         1.43791    -412.752E-03    -436.372E-03    -414.571E-03         1.42799    -424.633E-03     87.3681E-03     120.329E-03    -60.0723E-03    -60.2829E-03    -60.0842E-03     120.329E-03    -60.2705E-03    -425.486E-06    -68.1373E+06    -73.6497E+06    -204.152E+06    -77.5335E+06    -200.103E+06    -68.3024E+06    -22.3686E+06         29.7550
            1655     4.70858E-03     93.4561E-03         1.41286    -408.006E-03    -421.665E-03    -404.346E-03         1.40920    -421.665E-03    -8.82641E-03     120.279E-03    -60.0219E-03    -60.2802E-03    -60.0218E-03     120.278E-03    -60.2802E-03     153.823E-06    -57.8343E+06    -66.9687E+06    -195.218E+06    -73.2536E+06    -188.933E+06    -57.8343E+06    -27.4075E+06         30.0381
            1656     5.64987E-03     93.4551E-03         1.41206    -411.231E-03    -419.107E-03    -409.146E-03         1.40998    -419.107E-03     39.4841E-03     120.007E-03    -59.7559E-03    -60.2766E-03    -59.7539E-03     120.005E-03    -60.2766E-03     993.843E-06    -48.6360E+06    -60.0224E+06    -189.576E+06    -68.4821E+06    -181.117E+06    -48.6360E+06    -31.9041E+06         30.4081
            1657     6.59249E-03     93.4563E-03         1.40894    -399.669E-03    -420.953E-03    -402.433E-03         1.40795    -417.199E-03     5.04650E-03     119.759E-03    -59.5719E-03    -60.2134E-03    -59.5572E-03     119.744E-03    -60.2134E-03     2.95437E-03    -45.3342E+06    -51.4832E+06    -179.287E+06    -63.0300E+06    -167.652E+06    -45.4221E+06    -36.3604E+06         30.9084
            1658     7.53442E-03     93.4602E-03         1.41287    -399.888E-03    -419.672E-03    -403.173E-03         1.41182    -415.335E-03    -2.81408E-03     119.643E-03    -59.5317E-03    -60.1399E-03    -59.4939E-03     119.606E-03    -60.1399E-03     5.12347E-03    -42.4193E+06    -45.6047E+06    -165.191E+06    -57.9506E+06    -150.039E+06    -45.2259E+06    -40.1632E+06         31.6433
            1659     8.47712E-03     93.4653E-03         1.42857    -410.592E-03    -423.216E-03    -418.286E-03         1.42775    -414.696E-03    -16.6853E-03     119.386E-03    -59.3453E-03    -60.0681E-03    -59.2538E-03     119.294E-03    -60.0681E-03     7.85808E-03    -35.8064E+06    -44.9559E+06    -152.929E+06    -52.4637E+06    -136.272E+06    -44.9559E+06    -40.7683E+06         32.8204
            1660     9.41944E-03     93.4741E-03         1.42880    -410.905E-03    -429.332E-03    -424.717E-03         1.42849    -415.210E-03     33.6683E-03     119.381E-03    -59.4339E-03    -59.9789E-03    -59.1752E-03     119.123E-03    -59.9789E-03     13.1577E-03    -30.5319E+06    -46.5719E+06    -131.842E+06    -46.9063E+06    -115.468E+06    -46.5719E+06     -37.171E+06         34.6697
            1661     10.3620E-03     93.4926E-03         1.41707    -409.944E-03    -424.764E-03    -419.064E-03         1.41701    -415.584E-03     12.6870E-03     119.263E-03    -59.3948E-03    -59.9121E-03    -59.0294E-03     118.897E-03    -59.9121E-03     16.1373E-03    -27.7481E+06    -44.5292E+06    -103.666E+06    -41.7988E+06    -89.6151E+06    -44.5292E+06    -29.4418E+06         37.2561
            1662     11.3044E-03     93.5082E-03         1.41548    -407.775E-03    -420.611E-03    -413.029E-03         1.41544    -415.313E-03     14.3585E-03     118.736E-03    -58.9969E-03    -59.7670E-03    -58.3179E-03     118.057E-03    -59.7670E-03     21.2008E-03    -16.4017E+06    -41.3048E+06    -72.4574E+06    -37.6514E+06    -43.6935E+06    -48.8189E+06    -17.8358E+06         40.5376
            1663     12.2487E-03     93.5367E-03         1.41613    -406.911E-03    -416.803E-03    -409.185E-03         1.41610    -414.501E-03     7.72294E-03     119.948E-03    -59.1964E-03    -60.8185E-03    -58.0539E-03     117.580E-03    -59.5929E-03     39.2232E-03     40.9029E+06    -35.1700E+06    -49.9315E+06    -33.7187E+06     38.2645E+06    -48.7444E+06    -4.52470E+06         44.4822
            1664     13.1914E-03     93.5917E-03         1.41466    -405.869E-03    -416.124E-03    -408.674E-03         1.41460    -413.263E-03     12.2021E-03     123.592E-03    -59.6387E-03    -64.0245E-03    -58.3504E-03     117.917E-03    -59.6387E-03     63.3432E-03     98.3790E+06    -4.07013E+06    -37.7798E+06    -31.5671E+06     98.2266E+06    -10.1304E+06     4.05916E+06         49.0633
            1665     14.1342E-03     93.6776E-03         1.40822    -404.395E-03    -416.037E-03    -409.017E-03         1.40817    -411.360E-03     11.6083E-03     139.044E-03    -59.9234E-03    -79.1335E-03    -59.4935E-03     119.404E-03    -59.9234E-03     119.562E-03     119.112E+06     57.1147E+06    -28.3198E+06    -28.1519E+06     118.944E+06     57.1147E+06     4.69338E+06         54.2631
            1666     15.0809E-03     93.8606E-03         1.39080    -398.975E-03    -409.677E-03    -400.582E-03         1.39060    -407.861E-03     24.9652E-03     173.366E-03    -60.1072E-03    -113.231E-03    -62.8536E-03     122.989E-03    -60.1072E-03     216.012E-03     144.576E+06     116.198E+06    -19.3253E+06    -19.2548E+06     144.506E+06     116.198E+06     3.03157E+06         59.6128
            1667     16.0231E-03     94.1651E-03         1.36626    -385.673E-03    -402.769E-03    -385.209E-03         1.36580    -402.769E-03     42.7630E-03     183.882E-03    -60.0857E-03    -123.746E-03    -64.6476E-03     124.783E-03    -60.0857E-03     241.898E-03     170.200E+06     151.900E+06    -9.80473E+06    -9.75116E+06     170.146E+06     151.900E+06     2.57827E+06         63.9730
            1668     941.366E-06     94.5887E-03         1.58079     76.0963E-03        -1.08903    -870.223E-03         1.36198     76.0963E-03    -591.931E-03     120.581E-03    -59.9710E-03    -60.6125E-03    -60.5404E-03     120.580E-03    -60.0422E-03    -807.835E-06    -84.1747E+06    -88.0749E+06    -224.460E+06    -85.9700E+06    -223.826E+06    -86.9133E+06    -8.00401E+06         29.3070
            1669     1.88312E-03     94.5869E-03         1.43297    -394.647E-03    -466.677E-03    -409.214E-03         1.38015    -399.285E-03     218.624E-03     120.401E-03    -60.0908E-03    -60.3180E-03    -60.1319E-03     120.400E-03    -60.2760E-03    -818.322E-06    -80.2700E+06    -84.7569E+06    -216.414E+06    -85.1596E+06    -214.769E+06    -81.5121E+06    -14.4098E+06         29.3971
            1670     2.82514E-03     94.5857E-03         1.36200    -391.714E-03    -399.142E-03    -376.335E-03         1.34566    -398.174E-03    -45.2037E-03     120.399E-03    -60.1359E-03    -60.2791E-03    -60.1472E-03     120.397E-03    -60.2667E-03    -888.019E-06    -72.0354E+06    -77.3881E+06    -204.950E+06    -80.8461E+06    -201.492E+06    -72.0354E+06    -19.9127E+06         29.5450
            1671     3.76673E-03     94.5838E-03         1.36102    -391.227E-03    -400.566E-03    -390.875E-03         1.35427    -394.166E-03     90.0572E-03     120.407E-03    -60.1560E-03    -60.2803E-03    -60.1678E-03     120.406E-03    -60.2679E-03    -526.824E-06    -63.5482E+06    -69.2515E+06    -192.229E+06    -74.9353E+06    -186.546E+06    -63.5482E+06    -25.5012E+06         29.7547
            1672     4.70813E-03     94.5831E-03         1.36398    -392.091E-03    -407.097E-03    -402.794E-03         1.36219    -394.603E-03     1.27443E-03     120.179E-03    -59.9325E-03    -60.2724E-03    -59.9322E-03     120.179E-03    -60.2724E-03     154.408E-06    -55.1432E+06    -62.0983E+06    -184.839E+06    -69.7448E+06    -177.192E+06    -55.1432E+06    -29.5116E+06         30.0375
            1673     5.65046E-03     94.5823E-03         1.36765    -394.269E-03    -405.255E-03    -402.541E-03         1.36665    -395.981E-03     38.6200E-03     120.033E-03    -59.7928E-03    -60.2612E-03    -59.7898E-03     120.030E-03    -60.2612E-03     1.23751E-03    -45.7746E+06    -54.5152E+06    -178.973E+06    -64.6351E+06    -168.853E+06    -45.7746E+06    -33.8984E+06         30.4086
            1674     6.59200E-03     94.5828E-03         1.37841    -397.095E-03    -410.711E-03    -410.067E-03         1.37809    -397.411E-03     15.8686E-03     119.832E-03    -59.6447E-03    -60.2121E-03    -59.6274E-03     119.814E-03    -60.2121E-03     3.27424E-03    -41.0824E+06    -46.4849E+06    -169.472E+06    -59.9351E+06    -155.353E+06    -41.7510E+06    -38.9749E+06         30.9066
            1675     7.53476E-03     94.5869E-03         1.37679    -396.064E-03    -409.527E-03    -406.246E-03         1.37617    -398.729E-03     15.7132E-03     119.582E-03    -59.4697E-03    -60.1416E-03    -59.4329E-03     119.546E-03    -60.1416E-03     5.10423E-03    -38.1210E+06    -42.5156E+06    -158.819E+06    -56.2297E+06    -140.711E+06    -42.5156E+06    -43.0253E+06         31.6318
            1676     8.47697E-03     94.5913E-03         1.36355    -391.700E-03    -399.399E-03    -391.749E-03         1.36291    -398.720E-03     11.8027E-03     119.548E-03    -59.4995E-03    -60.0730E-03    -59.4158E-03     119.464E-03    -60.0730E-03     7.50537E-03    -32.9784E+06    -44.3630E+06    -151.483E+06    -53.5186E+06    -130.943E+06    -44.3630E+06    -44.7600E+06         32.7977
            1677     9.41914E-03     94.6015E-03         1.35618    -389.218E-03    -397.729E-03    -388.876E-03         1.35584    -397.729E-03     14.4419E-03     119.442E-03    -59.4695E-03    -59.9926E-03    -59.2068E-03     119.179E-03    -59.9926E-03     13.1612E-03    -29.5628E+06    -48.6620E+06    -137.457E+06    -50.2889E+06    -116.731E+06    -48.6620E+06    -42.4598E+06         34.6391
            1678     10.3613E-03     94.6186E-03         1.35452    -389.337E-03    -399.839E-03    -392.244E-03         1.35443    -396.844E-03    -6.81677E-03     118.963E-03    -59.0754E-03    -59.9133E-03    -58.7022E-03     118.590E-03    -59.9133E-03     16.2726E-03    -27.6943E+06    -48.8283E+06    -115.833E+06    -45.9678E+06    -97.5596E+06    -48.8283E+06    -35.6782E+06         37.2210
            1679     11.3051E-03     94.6344E-03         1.36296    -392.758E-03    -401.683E-03    -397.938E-03         1.36284    -396.385E-03     22.4683E-03     118.694E-03    -58.9234E-03    -59.7858E-03    -58.3036E-03     118.048E-03    -59.7589E-03     20.7632E-03    -18.5134E+06    -49.6056E+06    -81.3705E+06    -39.8646E+06    -56.3001E+06    -53.3249E+06    -25.7983E+06         40.5007
            1680     12.2484E-03     94.6610E-03         1.36937    -395.182E-03    -405.244E-03    -404.075E-03         1.36922    -396.201E-03     29.5448E-03     120.334E-03    -59.2959E-03    -61.0931E-03    -58.4094E-03     117.925E-03    -59.5713E-03     39.3796E-03     29.3360E+06    -42.0338E+06    -58.8025E+06    -33.4415E+06     20.7437E+06    -58.8025E+06    -12.0399E+06         44.4446
            1681     13.1910E-03     94.7215E-03         1.35707    -389.556E-03    -402.332E-03    -396.223E-03         1.35699    -395.592E-03     11.0630E-03     123.722E-03    -59.6063E-03    -64.2228E-03    -58.4461E-03     117.945E-03    -59.6063E-03     64.0071E-03     90.1752E+06    -11.1813E+06    -42.1806E+06    -28.7442E+06     89.7884E+06    -24.2308E+06     1.54010E+06         49.0269
            1682     14.1342E-03     94.8021E-03         1.33739    -377.769E-03    -393.478E-03    -377.748E-03         1.33737    -393.478E-03    -3.54992E-03     138.342E-03    -59.8949E-03    -78.4877E-03    -59.0774E-03     118.931E-03    -59.8949E-03     118.642E-03     122.188E+06     49.8861E+06    -24.8077E+06    -24.5640E+06     121.945E+06     49.8861E+06     5.71503E+06         54.2290
            1683     15.0780E-03     94.9848E-03         1.33650    -376.507E-03    -389.563E-03    -376.431E-03         1.33642    -389.563E-03     13.6998E-03     173.397E-03    -60.0731E-03    -113.279E-03    -62.6423E-03     122.760E-03    -60.0731E-03     216.368E-03     144.726E+06     114.094E+06    -19.6668E+06    -19.5613E+06     144.621E+06     114.094E+06     3.67011E+06         59.5695
            1684     16.0263E-03     95.2907E-03         1.32657    -375.645E-03    -394.816E-03    -385.038E-03         1.32630    -385.156E-03    -5.99429E-03     184.243E-03    -60.0486E-03    -124.132E-03    -64.2729E-03     124.384E-03    -60.0486E-03     243.475E-03     170.746E+06     152.761E+06    -11.5040E+06    -11.4673E+06     170.709E+06     152.761E+06     1.57517E+06         63.9095
            1685     941.570E-06     95.7152E-03         1.43112     24.1333E-03    -908.305E-03    -784.611E-03         1.31034     21.2201E-03    -444.318E-03     120.571E-03    -60.0618E-03    -60.5104E-03    -60.4386E-03     120.570E-03    -60.1330E-03    -640.051E-06    -76.5112E+06    -81.3927E+06    -208.033E+06     -80.449E+06    -207.480E+06    -78.0077E+06    -7.68302E+06         29.3019
            1686     1.88344E-03     95.7140E-03         1.31566    -369.920E-03    -400.792E-03    -361.012E-03         1.28343    -377.471E-03     122.526E-03     120.509E-03    -60.1837E-03    -60.3314E-03    -60.2077E-03     120.507E-03    -60.3062E-03    -923.212E-06    -71.4496E+06    -77.8842E+06    -199.851E+06    -79.6541E+06    -198.081E+06    -71.4496E+06    -13.8597E+06         29.3952
            1687     2.82477E-03     95.7122E-03         1.28894    -366.367E-03    -374.799E-03    -360.074E-03         1.27933    -371.478E-03    -80.5517E-03     120.394E-03    -60.1246E-03    -60.2853E-03    -60.1236E-03     120.393E-03    -60.2853E-03    -774.029E-06    -66.2307E+06    -72.0575E+06    -189.040E+06    -76.5609E+06    -184.537E+06    -66.2307E+06    -21.8263E+06         29.5426
            1688     3.76648E-03     95.7118E-03         1.29184    -364.587E-03    -378.679E-03    -370.816E-03         1.28912    -369.731E-03     35.8370E-03     120.181E-03    -59.9548E-03    -60.2570E-03    -59.9546E-03     120.181E-03    -60.2570E-03    -376.692E-06    -59.6318E+06    -65.0488E+06    -180.576E+06    -72.3768E+06    -173.248E+06    -59.6318E+06    -28.0677E+06         29.7502
            1689     4.70854E-03     95.7098E-03         1.31086    -367.043E-03    -395.328E-03    -390.007E-03         1.31021    -371.713E-03    -11.9054E-03     120.026E-03    -59.8195E-03    -60.2332E-03    -59.8189E-03     120.025E-03    -60.2332E-03     267.863E-06    -51.2251E+06    -56.9801E+06    -175.357E+06    -66.7678E+06    -165.569E+06    -51.2251E+06    -32.3461E+06         30.0328
            1690     5.65058E-03     95.7089E-03         1.32455    -375.586E-03    -400.276E-03    -400.008E-03         1.32428    -375.586E-03     11.6663E-03     119.996E-03    -59.8079E-03    -60.2100E-03    -59.8046E-03     119.993E-03    -60.2100E-03     1.42426E-03    -41.6446E+06    -46.7722E+06    -168.062E+06    -59.9769E+06    -154.857E+06    -41.6446E+06    -37.5177E+06         30.4057
            1691     6.59280E-03     95.7104E-03         1.31413    -373.261E-03    -392.057E-03    -386.817E-03         1.31384    -378.215E-03     12.8104E-03     119.973E-03    -59.8003E-03    -60.1971E-03    -59.7851E-03     119.957E-03    -60.1971E-03     3.10500E-03    -33.6858E+06    -37.2732E+06    -160.288E+06    -53.4319E+06    -143.548E+06    -34.2666E+06    -42.0941E+06         30.9008
            1692     7.53443E-03     95.7134E-03         1.31202    -373.714E-03    -385.913E-03    -380.468E-03         1.31173    -378.867E-03     29.2389E-03     119.797E-03    -59.6630E-03    -60.1619E-03    -59.6257E-03     119.759E-03    -60.1619E-03     5.08326E-03    -30.5680E+06    -33.7228E+06    -150.772E+06    -49.6196E+06    -131.934E+06    -33.5089E+06    -43.6329E+06         31.6131
            1693     8.47640E-03     95.7193E-03         1.31171    -375.777E-03    -383.209E-03    -379.566E-03         1.31119    -378.892E-03     41.1717E-03     119.593E-03    -59.5225E-03    -60.0985E-03    -59.4327E-03     119.504E-03    -60.0985E-03     7.79122E-03    -27.8412E+06    -36.7558E+06    -144.398E+06    -48.7824E+06    -123.457E+06    -36.7558E+06    -44.6643E+06         32.7649
            1694     9.41870E-03     95.7275E-03         1.30916    -374.599E-03    -384.851E-03    -380.066E-03         1.30858    -378.806E-03     38.9949E-03     119.304E-03    -59.3144E-03    -60.0080E-03    -59.0569E-03     119.046E-03    -60.0080E-03     13.0809E-03    -25.5625E+06    -43.7915E+06    -137.601E+06    -48.2127E+06    -114.951E+06    -43.7915E+06    -44.9834E+06         34.5971
            1695     10.3624E-03     95.7445E-03         1.30426    -373.895E-03    -381.552E-03    -376.781E-03         1.30413    -378.537E-03     2.46046E-03     118.865E-03    -58.9791E-03    -59.9040E-03    -58.6151E-03     118.501E-03    -59.9040E-03     16.0632E-03    -21.7815E+06    -48.7815E+06    -124.087E+06    -44.7023E+06    -101.166E+06    -48.7815E+06    -42.6022E+06         37.1734
            1696     11.3050E-03     95.7598E-03         1.29901    -370.218E-03    -378.451E-03    -370.663E-03         1.29885    -377.844E-03     25.2094E-03     119.077E-03    -59.2342E-03    -59.8688E-03    -58.6725E-03     118.405E-03    -59.7581E-03     21.1480E-03    -12.4868E+06    -55.2376E+06    -92.2417E+06    -38.0680E+06    -66.1325E+06    -55.7656E+06    -35.9887E+06         40.4493
            1697     12.2471E-03     95.7882E-03         1.30825    -372.954E-03    -387.564E-03    -383.053E-03         1.30801    -377.229E-03     39.3729E-03     120.534E-03    -59.5988E-03    -60.9932E-03    -58.5378E-03     118.079E-03    -59.5988E-03     39.8663E-03     19.7229E+06    -46.0561E+06    -66.5774E+06    -31.6120E+06     1.08676E+06    -62.3852E+06    -21.3728E+06         44.3916
            1698     13.1914E-03     95.8443E-03         1.31263    -376.211E-03    -390.378E-03    -389.534E-03         1.31251    -376.936E-03     6.35907E-03     123.077E-03    -59.5488E-03    -63.6132E-03    -57.6793E-03     117.143E-03    -59.5488E-03     64.5345E-03     74.7244E+06    -22.2463E+06    -44.1625E+06    -26.9063E+06     73.5518E+06    -38.3299E+06    -3.51824E+06         48.9771
            1699     14.1350E-03     95.9308E-03         1.30100    -366.840E-03    -380.445E-03    -371.654E-03         1.30096    -375.584E-03    -5.21474E-03     137.762E-03    -59.7603E-03    -78.0829E-03    -58.6905E-03     118.369E-03    -59.7603E-03     118.701E-03     120.501E+06     33.6354E+06    -22.9542E+06    -22.3850E+06     120.214E+06     33.3529E+06     5.87464E+06         54.1724
            1700     15.0816E-03     96.1065E-03         1.28885    -363.084E-03    -374.099E-03    -364.787E-03         1.28880    -372.346E-03     15.2045E-03     173.395E-03    -59.9857E-03    -113.410E-03    -62.6703E-03     122.655E-03    -59.9857E-03     216.467E-03     148.563E+06     110.539E+06    -15.8328E+06    -15.5892E+06     148.319E+06     110.539E+06     6.06715E+06         59.4784
            1701     16.0259E-03     96.4172E-03         1.28129    -365.165E-03    -378.099E-03    -374.586E-03         1.28105    -368.438E-03    -12.8408E-03     183.872E-03    -59.9945E-03    -123.831E-03    -63.6301E-03     123.671E-03    -59.9945E-03     243.684E-03     173.777E+06     156.899E+06    -6.92643E+06    -6.83168E+06     173.682E+06     156.899E+06     3.39082E+06         63.7706
            1702     941.860E-06     96.8429E-03         1.31047     1.88051E-03    -789.251E-03    -719.007E-03         1.24314    -1.03264E-03    -341.653E-03     120.498E-03    -60.0799E-03    -60.4211E-03    -60.4205E-03     120.497E-03    -60.0799E-03    -585.717E-06    -66.0751E+06    -69.7244E+06    -192.369E+06    -69.6572E+06    -191.780E+06    -66.7309E+06    -7.43973E+06         29.2968
            1703     1.88294E-03     96.8415E-03         1.25005    -350.565E-03    -372.177E-03    -351.718E-03         1.23727    -358.251E-03     77.8155E-03     120.584E-03    -60.2658E-03    -60.3250E-03    -60.3026E-03     120.583E-03    -60.2873E-03    -684.956E-06    -58.3502E+06    -63.0816E+06    -182.417E+06    -64.4351E+06    -180.408E+06    -59.0061E+06    -14.5145E+06         29.3907
            1704     2.82487E-03     96.8398E-03         1.24552    -351.308E-03    -362.134E-03    -352.697E-03         1.24086    -356.081E-03    -51.8153E-03     120.349E-03    -60.0686E-03    -60.2946E-03    -60.0707E-03     120.348E-03    -60.2915E-03    -674.395E-06    -50.6152E+06    -55.7437E+06    -170.800E+06    -60.1492E+06    -166.395E+06    -50.6152E+06    -21.6867E+06         29.5373
            1705     3.76698E-03     96.8380E-03         1.24575    -350.960E-03    -361.744E-03    -356.336E-03         1.24502    -355.630E-03     15.2075E-03     120.028E-03    -59.8022E-03    -60.2486E-03    -59.8017E-03     120.028E-03    -60.2486E-03    -414.914E-06    -43.9429E+06    -50.6447E+06    -166.929E+06    -57.8549E+06    -159.719E+06    -43.9429E+06    -27.8569E+06         29.7439
            1706     4.70912E-03     96.8368E-03         1.24098    -344.211E-03    -367.681E-03    -355.669E-03         1.24049    -355.727E-03     3.72107E-03     120.024E-03    -59.8521E-03    -60.1939E-03    -59.8514E-03     120.023E-03    -60.1939E-03     391.959E-06    -38.7837E+06    -44.5125E+06    -161.852E+06    -55.0444E+06    -150.479E+06    -39.6249E+06    -34.4829E+06         30.0251
            1707     5.65076E-03     96.8364E-03         1.24987    -349.658E-03    -373.008E-03    -365.884E-03         1.24959    -356.504E-03     23.4028E-03     120.030E-03    -59.8885E-03    -60.1664E-03    -59.8848E-03     120.027E-03    -60.1664E-03     1.51726E-03    -34.4151E+06    -37.1197E+06    -156.127E+06    -51.8095E+06    -140.571E+06    -35.2815E+06    -40.2378E+06         30.3954
            1708     6.59250E-03     96.8371E-03         1.24702    -352.652E-03    -367.641E-03    -362.424E-03         1.24676    -357.606E-03     23.1636E-03     119.900E-03    -59.7600E-03    -60.1598E-03    -59.7421E-03     119.882E-03    -60.1598E-03     3.32765E-03    -30.2853E+06    -31.6370E+06    -152.105E+06    -49.8214E+06    -133.895E+06    -30.3104E+06    -43.0683E+06         30.8831
            1709     7.53456E-03     96.8408E-03         1.24075    -352.471E-03    -362.482E-03    -356.852E-03         1.24048    -357.830E-03     26.5327E-03     119.709E-03    -59.6039E-03    -60.1258E-03    -59.5598E-03     119.664E-03    -60.1258E-03     5.51726E-03    -26.6910E+06    -29.5540E+06    -144.689E+06    -47.4210E+06    -124.644E+06    -28.8692E+06    -44.0469E+06         31.5813
            1710     8.47708E-03     96.8453E-03         1.24814    -356.596E-03    -361.422E-03    -359.907E-03         1.24781    -357.785E-03     29.1564E-03     119.462E-03    -59.4347E-03    -60.0601E-03    -59.3315E-03     119.359E-03    -60.0601E-03     8.37851E-03    -22.4347E+06    -31.5898E+06    -137.502E+06    -44.0984E+06    -115.839E+06    -31.5898E+06    -44.8869E+06         32.7187
            1711     9.41960E-03     96.8550E-03         1.25329    -356.916E-03    -364.000E-03    -362.624E-03         1.25295    -357.954E-03     43.1379E-03     119.359E-03    -59.4109E-03    -59.9734E-03    -59.1481E-03     119.096E-03    -59.9734E-03     13.3425E-03    -17.1757E+06    -38.0234E+06    -132.627E+06    -41.0851E+06    -108.717E+06    -38.0234E+06    -46.7562E+06         34.5408
            1712     10.3615E-03     96.8699E-03         1.25679    -358.068E-03    -367.577E-03    -367.197E-03         1.25666    -358.323E-03     26.9513E-03     119.064E-03    -59.2047E-03    -59.8749E-03    -58.8298E-03     118.689E-03    -59.8749E-03     16.3188E-03    -12.1974E+06    -46.3350E+06    -125.149E+06    -38.7758E+06    -98.5702E+06    -46.3350E+06    -47.8227E+06         37.1101
            1713     11.3049E-03     96.8866E-03         1.25988    -354.697E-03    -370.463E-03    -366.172E-03         1.25959    -358.696E-03     39.5841E-03     119.038E-03    -59.2342E-03    -59.8239E-03    -58.5684E-03     118.288E-03    -59.7401E-03     22.2655E-03    -6.79265E+06    -56.2568E+06    -101.961E+06    -36.5032E+06    -72.2507E+06    -56.2568E+06    -43.6010E+06         40.3821
            1714     12.2483E-03     96.9136E-03         1.25207    -352.097E-03    -367.049E-03    -360.267E-03         1.25172    -358.533E-03     45.3434E-03     120.457E-03    -59.5072E-03    -61.0024E-03    -58.4130E-03     117.944E-03    -59.5831E-03     40.6425E-03     9.23196E+06    -51.2907E+06    -77.8468E+06    -33.2982E+06    -20.1837E+06    -66.4237E+06    -29.8024E+06         44.3231
            1715     13.1911E-03     96.9695E-03         1.25168    -355.466E-03    -367.285E-03    -364.713E-03         1.25155    -357.903E-03     8.46314E-03     122.363E-03    -59.4478E-03    -62.9761E-03    -57.0846E-03     116.471E-03    -59.4478E-03     64.0457E-03     56.5099E+06    -33.5826E+06    -53.6722E+06    -29.0574E+06     51.9847E+06    -53.6722E+06    -10.4876E+06         48.9107
            1716     14.1379E-03     97.0531E-03         1.26124    -357.013E-03    -374.234E-03    -374.143E-03         1.26115    -357.013E-03     4.07812E-03     137.594E-03    -59.5771E-03    -78.0784E-03    -58.3443E-03     117.860E-03    -59.5771E-03     119.549E-03     114.486E+06     19.2298E+06    -28.7148E+06    -23.5977E+06     114.325E+06     14.2732E+06     2.45204E+06         54.0840
            1717     15.0804E-03     97.2344E-03         1.24888    -354.614E-03    -369.141E-03    -368.726E-03         1.24881    -354.963E-03     16.7077E-03     172.983E-03    -59.8518E-03    -113.110E-03    -62.7354E-03     122.608E-03    -59.8518E-03     215.716E-03     150.978E+06     101.762E+06    -17.1820E+06    -16.9484E+06     150.744E+06     101.762E+06     5.85615E+06         59.3112
            1718     16.0282E-03     97.5370E-03         1.22863    -346.033E-03    -353.970E-03    -348.690E-03         1.22854    -351.226E-03     8.74277E-03     182.616E-03    -59.8926E-03    -122.672E-03    -62.3328E-03     122.277E-03    -59.8926E-03     242.884E-03     176.927E+06     157.620E+06    -9.39027E+06    -9.26449E+06     176.801E+06     157.620E+06     4.43199E+06         63.5088
            1719     941.577E-06     97.9702E-03         1.14618     29.6360E-03    -679.160E-03    -658.698E-03         1.12572     29.6360E-03    -143.142E-03     120.388E-03    -60.0110E-03    -60.3810E-03    -60.3471E-03     120.388E-03    -60.0446E-03    -476.313E-06    -49.6532E+06    -51.1236E+06    -175.193E+06    -50.6442E+06    -174.541E+06    -50.7845E+06    -7.83769E+06         29.2851
            1720     1.88384E-03     97.9690E-03         1.19853    -318.754E-03    -369.239E-03    -359.700E-03         1.19376    -323.526E-03     100.215E-03     120.295E-03    -60.1091E-03    -60.1948E-03    -60.1211E-03     120.295E-03    -60.1824E-03    -479.325E-06    -47.2236E+06    -48.8340E+06    -164.315E+06    -50.3208E+06    -161.949E+06    -48.1020E+06    -15.5871E+06         29.3737
            1721     2.82517E-03     97.9677E-03         1.20510    -331.134E-03    -360.853E-03    -355.621E-03         1.20464    -335.907E-03     4.38711E-03     120.155E-03    -59.9938E-03    -60.1718E-03    -59.9961E-03     120.154E-03    -60.1687E-03    -648.321E-06    -40.9852E+06    -44.2211E+06    -155.719E+06    -48.6701E+06    -151.047E+06    -41.2078E+06    -22.1353E+06         29.5200
            1722     3.76714E-03     97.9646E-03         1.19897    -336.167E-03    -352.601E-03    -348.073E-03         1.19848    -340.210E-03     1.82784E-03     120.030E-03    -59.8805E-03    -60.1636E-03    -59.8796E-03     120.029E-03    -60.1636E-03    -302.178E-06    -32.3151E+06    -36.7294E+06    -150.975E+06    -44.2953E+06    -143.323E+06    -32.4009E+06    -28.1917E+06         29.7282
            1723     4.70914E-03     97.9639E-03         1.17064    -321.449E-03    -340.303E-03    -322.042E-03         1.17040    -339.469E-03     9.58108E-03     119.933E-03    -59.8180E-03    -60.1353E-03    -59.8169E-03     119.932E-03    -60.1353E-03     723.314E-06    -26.3072E+06    -29.9736E+06    -145.801E+06    -40.6432E+06    -134.204E+06    -27.2342E+06    -34.6259E+06         30.0071
            1724     5.65119E-03     97.9637E-03         1.16686    -321.177E-03    -337.606E-03    -321.988E-03         1.16658    -336.519E-03     36.5910E-03     119.786E-03    -59.7068E-03    -60.1038E-03    -59.7007E-03     119.780E-03    -60.1038E-03     1.91846E-03    -23.4423E+06    -25.9642E+06    -143.711E+06    -39.5634E+06    -129.245E+06    -24.3087E+06    -38.7611E+06         30.3708
            1725     6.59336E-03     97.9643E-03         1.18870    -334.690E-03    -348.437E-03    -346.795E-03         1.18843    -336.055E-03     15.6652E-03     119.607E-03    -59.5500E-03    -60.0752E-03    -59.5253E-03     119.582E-03    -60.0752E-03     3.98962E-03    -20.4930E+06    -22.0504E+06    -140.856E+06    -38.8906E+06    -123.809E+06    -20.6998E+06    -41.5353E+06         30.8479
            1726     7.53585E-03     97.9673E-03         1.19070    -336.386E-03    -348.690E-03    -347.437E-03         1.19046    -337.396E-03     13.5438E-03     119.493E-03    -59.4896E-03    -60.0249E-03    -59.4344E-03     119.438E-03    -60.0249E-03     6.20686E-03    -16.8174E+06    -20.2821E+06    -136.082E+06    -37.3067E+06    -116.064E+06    -19.8111E+06    -44.3202E+06         31.5310
            1727     8.47789E-03     97.9722E-03         1.18480    -334.646E-03    -337.732E-03    -334.269E-03         1.18443    -337.732E-03     43.2095E-03     119.370E-03    -59.4465E-03    -59.9573E-03    -59.3315E-03     119.255E-03    -59.9573E-03     8.88081E-03    -11.8896E+06    -24.2592E+06    -130.400E+06    -35.0402E+06    -107.249E+06    -24.2592E+06    -46.8523E+06         32.6544
            1728     9.42041E-03     97.9810E-03         1.19489    -335.221E-03    -343.856E-03    -341.186E-03         1.19455    -337.551E-03     38.3097E-03     119.223E-03    -59.3596E-03    -59.8812E-03    -59.0667E-03     118.930E-03    -59.8812E-03     14.0377E-03    -8.13562E+06    -30.5667E+06    -126.416E+06    -33.4002E+06    -101.152E+06    -30.5667E+06    -48.4695E+06         34.4672
            1729     10.3633E-03     97.9970E-03         1.20491    -337.939E-03    -353.864E-03    -353.531E-03         1.20483    -338.194E-03     13.2862E-03     119.158E-03    -59.3574E-03    -59.8180E-03    -58.9479E-03     118.731E-03    -59.8007E-03     17.4319E-03    -6.98794E+06    -39.0255E+06    -120.591E+06    -33.8491E+06    -93.7294E+06    -39.0255E+06    -48.1653E+06         37.0300
            1730     11.3059E-03     98.0110E-03         1.20665    -339.224E-03    -354.950E-03    -354.709E-03         1.20641    -339.224E-03     26.5402E-03     118.957E-03    -59.2977E-03    -59.6925E-03    -58.5274E-03     118.169E-03    -59.6752E-03     22.9687E-03    -4.86863E+06    -51.5945E+06    -105.127E+06    -35.5746E+06    -74.4208E+06    -51.5945E+06    -45.8752E+06         40.2976
            1731     12.2494E-03     98.0405E-03         1.19812    -337.160E-03    -349.321E-03    -346.598E-03         1.19784    -339.598E-03     39.0495E-03     119.985E-03    -59.3092E-03    -60.7235E-03    -57.8988E-03     117.343E-03    -59.4918E-03     41.4425E-03     1.13687E+06    -57.4982E+06    -85.7526E+06    -35.7926E+06    -38.9374E+06    -67.3840E+06    -36.4808E+06         44.2371
            1732     13.1931E-03     98.0947E-03         1.19376    -336.782E-03    -349.232E-03    -346.685E-03         1.19365    -339.220E-03     16.4951E-03     122.097E-03    -59.2757E-03    -62.8993E-03    -57.0807E-03     116.278E-03    -59.2757E-03     63.8786E-03     41.1340E+06    -43.1486E+06    -71.0568E+06    -31.6424E+06     29.6278E+06    -71.0568E+06    -19.5598E+06         48.8250
            1733     14.1380E-03     98.1744E-03         1.19705    -338.342E-03    -354.705E-03    -354.609E-03         1.19695    -338.342E-03     15.7935E-03     138.108E-03    -59.3285E-03    -78.8579E-03    -58.3798E-03     117.630E-03    -59.3285E-03     121.199E-03     102.895E+06     4.48039E+06    -44.8021E+06    -25.8715E+06     101.987E+06    -13.5420E+06    -2.58468E+06         53.9603
            1734     15.0846E-03     98.3645E-03         1.19566    -336.222E-03    -355.082E-03    -354.920E-03         1.19550    -336.222E-03     28.0203E-03     172.470E-03    -59.6151E-03    -112.849E-03    -61.7693E-03     121.391E-03    -59.6151E-03     216.859E-03     149.371E+06     86.5285E+06    -20.0383E+06    -19.8493E+06     149.182E+06     86.5285E+06     5.29570E+06         59.0582
            1735     16.0287E-03     98.6566E-03         1.18802    -330.186E-03    -355.419E-03    -352.455E-03         1.18787    -332.999E-03     23.9205E-03     181.478E-03    -59.6799E-03    -121.760E-03    -61.1366E-03     120.855E-03    -59.6799E-03     242.344E-03     181.169E+06     157.279E+06    -11.1507E+06    -11.0508E+06     181.069E+06     157.279E+06     3.89840E+06         63.1175
            1736     941.909E-06     99.0970E-03         1.07953    -18.9689E-03    -579.202E-03    -572.106E-03         1.07361    -20.1409E-03    -58.7466E-03     120.136E-03    -59.8062E-03    -60.3339E-03    -60.2363E-03     120.134E-03    -59.9020E-03    -709.878E-06    -34.1783E+06    -34.8464E+06    -157.931E+06    -35.0023E+06    -157.253E+06    -34.7002E+06    -8.60285E+06         29.2590
            1737     1.88347E-03     99.0959E-03         1.12649    -303.535E-03    -341.217E-03    -339.478E-03         1.12592    -304.707E-03     38.3141E-03     119.835E-03    -59.8183E-03    -60.0253E-03    -59.8179E-03     119.835E-03    -60.0253E-03    -396.995E-06    -30.7220E+06    -31.3789E+06    -145.290E+06    -33.3337E+06    -143.113E+06    -30.9445E+06    -14.7731E+06         29.3401
            1738     2.82609E-03     99.0942E-03         1.15128    -317.784E-03    -344.466E-03    -344.027E-03         1.15084    -317.784E-03    -10.7214E-03     119.758E-03    -59.8061E-03    -59.9634E-03    -59.8057E-03     119.758E-03    -59.9634E-03    -429.120E-06    -26.6986E+06    -28.5919E+06    -140.175E+06    -32.4531E+06    -135.222E+06    -27.7903E+06    -22.7526E+06         29.4811
            1739     3.76797E-03     99.0922E-03         1.13496    -313.143E-03    -331.526E-03    -322.179E-03         1.13465    -322.183E-03    -35.2632E-03     119.724E-03    -59.7870E-03    -59.9520E-03    -59.7863E-03     119.723E-03    -59.9520E-03     302.172E-06    -21.0785E+06    -22.7320E+06    -134.812E+06    -30.3472E+06    -126.056E+06    -22.2185E+06    -29.9133E+06         29.6863
            1740     4.70988E-03     99.0905E-03         1.12032    -304.816E-03    -325.052E-03    -308.803E-03         1.12024    -320.987E-03    -2.61004E-03     119.450E-03    -59.5208E-03    -59.9491E-03    -59.5170E-03     119.446E-03    -59.9491E-03     1.46585E-03    -14.0909E+06    -17.2872E+06    -132.369E+06    -28.1182E+06    -121.267E+06    -14.3618E+06    -33.9882E+06         29.9607
            1741     5.65237E-03     99.0898E-03         1.12681    -309.788E-03    -323.377E-03    -313.729E-03         1.12669    -319.311E-03     23.1141E-03     119.185E-03    -59.3111E-03    -59.8967E-03    -59.2973E-03     119.171E-03    -59.8967E-03     2.92756E-03    -9.70589E+06    -14.7558E+06    -131.519E+06    -26.3647E+06    -118.665E+06    -10.9507E+06    -36.6265E+06         30.3181
            1742     6.59496E-03     99.0907E-03         1.13050    -312.626E-03    -325.487E-03    -319.012E-03         1.13024    -318.845E-03    -3.77851E-03     119.165E-03    -59.3605E-03    -59.8321E-03    -59.3229E-03     119.128E-03    -59.8321E-03     4.98571E-03    -7.96401E+06    -11.7713E+06    -127.845E+06    -24.6995E+06    -111.989E+06    -10.8916E+06    -40.4048E+06         30.7859
            1743     7.53735E-03     99.0935E-03         1.13157    -314.374E-03    -326.900E-03    -322.051E-03         1.13135    -319.006E-03    -21.6549E-03     119.122E-03    -59.3604E-03    -59.7911E-03    -59.2836E-03     119.045E-03    -59.7911E-03     7.27610E-03    -4.45669E+06    -9.96051E+06    -125.141E+06    -23.4055E+06    -106.192E+06    -9.96051E+06    -43.8077E+06         31.4556
            1744     8.47981E-03     99.0986E-03         1.13345    -317.128E-03    -323.625E-03    -321.185E-03         1.13311    -319.225E-03     24.5677E-03     118.964E-03    -59.2663E-03    -59.7279E-03    -59.1146E-03     118.812E-03    -59.7279E-03     10.1918E-03    -1.39408E+06    -13.9413E+06    -120.565E+06    -23.5058E+06    -98.4534E+06    -13.9413E+06    -46.2097E+06         32.5680
            1745     9.42232E-03     99.1071E-03         1.14465    -318.521E-03    -333.727E-03    -332.130E-03         1.14435    -319.813E-03     24.6316E-03     118.974E-03    -59.2376E-03    -59.7454E-03    -58.9738E-03     118.624E-03    -59.6602E-03     15.3656E-03    -2.33502E+06    -21.7757E+06    -118.768E+06    -25.7988E+06    -95.3040E+06    -21.7757E+06    -46.6623E+06         34.3745
            1746     10.3656E-03     99.1223E-03         1.14714    -320.905E-03    -335.783E-03    -335.654E-03         1.14701    -320.905E-03    -16.1582E-03     118.988E-03    -59.3003E-03    -59.6920E-03    -58.9008E-03     118.486E-03    -59.5895E-03     18.8701E-03    -2.92290E+06    -31.8287E+06    -113.821E+06    -28.2104E+06    -88.5337E+06    -31.8287E+06    -46.4061E+06         36.9324
            1747     11.3077E-03     99.1391E-03         1.13726    -319.257E-03    -326.996E-03    -324.646E-03         1.13709    -321.444E-03    -1.91176E-03     118.799E-03    -59.2805E-03    -59.5308E-03    -58.4782E-03     117.946E-03    -59.4800E-03     24.0320E-03    -1.08721E+06    -45.5801E+06    -102.537E+06    -29.7145E+06    -73.9101E+06    -45.5801E+06    -45.4840E+06         40.1956
            1748     12.2513E-03     99.1633E-03         1.13976    -319.214E-03    -331.321E-03    -329.046E-03         1.13967    -321.401E-03     18.9534E-03     119.577E-03    -59.1789E-03    -60.4228E-03    -57.5279E-03     116.788E-03    -59.2856E-03     42.4158E-03     2.23280E+06    -60.5959E+06    -86.0750E+06    -30.4762E+06    -49.4955E+06    -64.4665E+06    -40.2248E+06         44.1323
            1749     13.1970E-03     99.2204E-03         1.14435    -321.351E-03    -335.261E-03    -335.228E-03         1.14431    -321.351E-03     7.21839E-03     122.271E-03    -59.0126E-03    -63.3229E-03    -57.2455E-03     116.193E-03    -59.0126E-03     65.4433E-03     29.5040E+06    -51.4075E+06    -84.0570E+06    -30.5290E+06     8.62542E+06    -84.0570E+06    -27.1968E+06         48.7178
            1750     14.1404E-03     99.2990E-03         1.13481    -317.434E-03    -325.817E-03    -322.833E-03         1.13475    -320.356E-03     3.67212E-03     137.894E-03    -58.9835E-03    -78.9869E-03    -58.1529E-03     117.060E-03    -58.9835E-03     122.034E-03     85.0126E+06    -16.5513E+06    -59.0351E+06    -28.0462E+06     82.8027E+06    -45.3303E+06    -8.91743E+06         53.8059
            1751     15.0865E-03     99.4852E-03         1.13432    -314.905E-03    -330.230E-03    -327.147E-03         1.13416    -317.827E-03     19.3937E-03     171.597E-03    -59.2224E-03    -112.408E-03    -60.0199E-03     119.209E-03    -59.2224E-03     218.301E-03     144.453E+06     63.3218E+06    -20.8901E+06    -20.6856E+06     144.248E+06     63.3218E+06     2.02318E+06         58.7595
            1752     16.0384E-03     99.7805E-03         1.14684    -315.230E-03    -348.292E-03    -348.108E-03         1.14665    -315.230E-03     8.58801E-03     180.926E-03    -59.3207E-03    -121.595E-03    -60.3189E-03     119.650E-03    -59.3207E-03     242.787E-03     184.692E+06     154.721E+06    -10.7757E+06    -10.7247E+06     184.641E+06     154.721E+06     3.01458E+06         62.6817
            1753     941.849E-06     100.224E-03         1.10963    -89.0274E-03    -557.189E-03    -549.689E-03         1.10616    -93.0655E-03     60.6013E-03     119.480E-03    -59.4935E-03    -59.9914E-03    -59.7698E-03     119.479E-03    -59.7134E-03    -652.277E-06    -16.3924E+06    -17.5385E+06    -137.909E+06    -17.4853E+06    -136.879E+06    -17.4760E+06    -10.2995E+06         29.1992
            1754     1.88469E-03     100.223E-03         1.07592    -285.848E-03    -318.586E-03    -287.865E-03         1.07398    -314.636E-03     23.9889E-03     119.174E-03    -59.4705E-03    -59.7118E-03    -59.4948E-03     119.174E-03    -59.6873E-03    -168.024E-06    -12.5238E+06    -15.7130E+06    -129.121E+06    -15.4733E+06    -126.522E+06    -15.3623E+06    -16.7491E+06         29.2748
            1755     2.82672E-03     100.221E-03         1.04754    -272.120E-03    -307.705E-03    -274.901E-03         1.04585    -303.237E-03     24.0254E-03     118.936E-03    -59.3305E-03    -59.6148E-03    -59.3294E-03     118.935E-03    -59.6148E-03     310.079E-06    -7.57723E+06    -11.5793E+06    -122.030E+06    -13.2037E+06    -117.026E+06    -10.9569E+06    -23.0132E+06         29.4061
            1756     3.76919E-03     100.219E-03         1.06255    -287.115E-03    -309.806E-03    -297.830E-03         1.06193    -298.477E-03    -9.09821E-03     118.741E-03    -59.2020E-03    -59.5523E-03    -59.1984E-03     118.737E-03    -59.5523E-03     1.30920E-03    -5.60468E+06    -7.15676E+06    -118.779E+06    -13.6666E+06    -111.051E+06    -6.82253E+06    -28.2817E+06         29.6015
            1757     4.71202E-03     100.217E-03         1.08861    -295.096E-03    -322.035E-03    -316.608E-03         1.08818    -300.091E-03     36.0250E-03     118.456E-03    -58.9773E-03    -59.4964E-03    -58.9655E-03     118.444E-03    -59.4964E-03     2.63497E-03    -1.49482E+06    -5.07674E+06    -119.281E+06    -13.8338E+06    -109.091E+06    -2.92721E+06    -32.6462E+06         29.8688
            1758     5.65504E-03     100.216E-03         1.08596    -299.251E-03    -313.535E-03    -310.110E-03         1.08569    -302.403E-03     33.0794E-03     118.357E-03    -58.9405E-03    -59.4350E-03    -58.9080E-03     118.324E-03    -59.4350E-03     4.58444E-03     2.01246E+06    -2.86637E+06    -120.260E+06    -12.3940E+06    -108.003E+06    -716.845E+03    -36.2322E+06         30.2195
            1759     6.59783E-03     100.217E-03         1.06537    -292.459E-03    -302.307E-03    -292.213E-03         1.06513    -302.307E-03     18.0604E-03     118.410E-03    -59.0622E-03    -59.3732E-03    -58.9909E-03     118.338E-03    -59.3732E-03     6.90141E-03     2.86457E+06    -1.93555E+06    -115.454E+06    -11.8328E+06    -100.756E+06    -1.93555E+06    -38.8645E+06         30.6801
            1760     7.54034E-03     100.219E-03         1.07572    -295.118E-03    -313.148E-03    -306.194E-03         1.07546    -301.814E-03     4.90690E-03     118.279E-03    -58.9617E-03    -59.3443E-03    -58.8383E-03     118.155E-03    -59.3443E-03     9.20710E-03     5.67420E+06    -1.42206E+06    -113.204E+06    -12.1853E+06    -95.3448E+06    -1.42206E+06    -42.3363E+06         31.3456
            1761     8.48354E-03     100.224E-03         1.09172    -302.862E-03    -318.403E-03    -318.168E-03         1.09148    -302.862E-03     20.4437E-03     118.138E-03    -58.8678E-03    -59.2873E-03    -58.6405E-03     117.911E-03    -59.2873E-03     12.4176E-03     5.86992E+06    -5.30444E+06    -111.804E+06    -13.3776E+06    -92.5569E+06    -5.30444E+06    -43.4021E+06         32.4580
            1762     9.42680E-03     100.233E-03         1.08113    -296.595E-03    -312.296E-03    -304.811E-03         1.08068    -303.629E-03     31.8969E-03     118.480E-03    -59.0717E-03    -59.4169E-03    -58.7762E-03     117.991E-03    -59.2235E-03     18.1699E-03     5.32013E+06    -13.7618E+06    -109.556E+06    -14.7486E+06    -89.4877E+06    -13.7618E+06    -43.5398E+06         34.2647
            1763     10.3685E-03     100.249E-03         1.07745    -296.402E-03    -310.457E-03    -302.869E-03         1.07689    -303.436E-03     16.7022E-03     118.401E-03    -59.0621E-03    -59.3606E-03    -58.5844E-03     117.718E-03    -59.1550E-03     21.8884E-03     6.09943E+06    -25.0508E+06    -105.398E+06    -16.3549E+06    -82.9435E+06    -25.0508E+06    -44.5067E+06         36.8207
            1764     11.3129E-03     100.264E-03         1.08548    -301.209E-03    -312.983E-03    -310.350E-03         1.08503    -303.395E-03     25.2279E-03     118.299E-03    -58.9615E-03    -59.3658E-03    -58.1890E-03     117.215E-03    -59.0544E-03     27.1136E-03     5.87199E+06    -39.7264E+06    -96.6125E+06    -19.2814E+06    -71.4591E+06    -39.7264E+06    -43.8703E+06         40.0803
            1765     12.2562E-03     100.289E-03         1.08915    -301.453E-03    -318.154E-03    -315.439E-03         1.08862    -303.639E-03     43.4325E-03     119.756E-03    -58.8989E-03    -60.8913E-03    -57.8631E-03     116.728E-03    -58.8989E-03     44.7022E-03     5.46698E+06    -58.3484E+06    -82.3527E+06    -22.9168E+06    -53.6631E+06    -58.6542E+06    -40.5847E+06         44.0116
            1766     13.2002E-03     100.342E-03         1.08851    -303.622E-03    -315.491E-03    -315.208E-03         1.08823    -303.622E-03     17.6753E-03     122.802E-03    -58.6618E-03    -64.1963E-03    -57.4721E-03     116.078E-03    -58.6618E-03     68.7335E-03     19.5942E+06    -52.9241E+06    -86.0455E+06    -26.0829E+06    -8.96060E+06    -84.3319E+06    -30.1084E+06         48.5905
            1767     14.1448E-03     100.427E-03         1.08886    -299.994E-03    -318.853E-03    -315.859E-03         1.08878    -302.916E-03     2.13090E-03     137.032E-03    -58.5472E-03    -78.5246E-03    -57.6329E-03     116.140E-03    -58.5472E-03     122.745E-03     67.9814E+06    -29.1424E+06    -67.4097E+06    -26.1090E+06     63.2414E+06    -65.7031E+06    -15.0026E+06         53.6352
            1768     15.0937E-03     100.601E-03         1.09205    -298.397E-03    -324.393E-03    -321.319E-03         1.09190    -301.319E-03     18.3898E-03     171.086E-03    -58.7189E-03    -112.360E-03    -59.5333E-03     118.259E-03    -58.7189E-03     218.506E-03     135.807E+06     41.8915E+06    -27.5076E+06    -21.7755E+06     135.533E+06     36.4329E+06    -3.65191E+06         58.4767
            1769     16.0431E-03     100.903E-03         1.08909    -298.134E-03    -317.876E-03    -316.857E-03         1.08887    -298.938E-03     13.3382E-03     179.599E-03    -58.8632E-03    -120.719E-03    -58.8644E-03     117.744E-03    -58.8632E-03     242.506E-03     184.227E+06     146.298E+06    -12.0600E+06    -12.0399E+06     184.207E+06     146.298E+06     968.344E+03         62.3089
            1770     943.197E-06     101.350E-03         1.07308    -122.031E-03    -513.577E-03    -492.497E-03         1.05487    -124.897E-03     154.884E-03     117.944E-03    -58.7697E-03    -59.1782E-03    -59.0054E-03     117.943E-03    -58.9420E-03     245.248E-06     3.58392E+06     281.946E+03    -116.567E+06     1.14939E+06    -115.594E+06     1.74416E+06    -9.68572E+06         29.0722
            1771     1.88509E-03     101.348E-03         1.00766    -264.808E-03    -301.058E-03    -263.102E-03         1.00453    -299.624E-03    -12.1098E-03     117.771E-03    -58.8180E-03    -58.9605E-03    -58.8405E-03     117.769E-03    -58.9361E-03     678.661E-06     3.22527E+06    -691.713E+03    -111.103E+06     13.7952E+03    -108.167E+06    -415.795E+03    -17.5289E+06         29.1469
            1772     2.82881E-03     101.346E-03     961.815E-03    -237.445E-03    -282.708E-03    -235.712E-03     960.082E-03    -282.708E-03     27.7335E-03     117.383E-03    -58.5224E-03    -58.8714E-03    -58.5169E-03     117.377E-03    -58.8714E-03     1.64984E-03     5.47675E+06     1.40130E+06    -105.738E+06    -322.929E+03    -100.548E+06     2.01145E+06    -23.2565E+06         29.2712
            1773     3.77233E-03     101.344E-03     994.947E-03    -261.890E-03    -291.554E-03    -277.543E-03     994.249E-03    -275.203E-03     4.79954E-03     117.047E-03    -58.2780E-03    -58.7845E-03    -58.2654E-03     117.034E-03    -58.7845E-03     2.81852E-03     9.92821E+06     6.70558E+06    -104.960E+06     2.23136E+06    -97.5970E+06     7.03981E+06    -28.0216E+06         29.4557
            1774     4.71594E-03     101.341E-03         1.02437    -278.137E-03    -304.743E-03    -304.201E-03         1.02382    -278.137E-03     46.1252E-03     116.986E-03    -58.3001E-03    -58.7049E-03    -58.2684E-03     116.954E-03    -58.7049E-03     4.45619E-03     14.5409E+06     10.3793E+06    -105.739E+06     4.98568E+06    -96.1833E+06     10.3793E+06    -32.3759E+06         29.7134
            1775     5.65934E-03     101.340E-03         1.01834    -279.426E-03    -293.408E-03    -291.035E-03         1.01809    -281.550E-03     23.9795E-03     116.990E-03    -58.3410E-03    -58.6684E-03    -58.2708E-03     116.920E-03    -58.6684E-03     6.78589E-03     16.9445E+06     13.9311E+06    -108.461E+06     5.77732E+06    -97.2937E+06     13.9311E+06    -35.6172E+06         30.0532
            1776     6.60262E-03     101.341E-03         1.00951    -277.380E-03    -288.232E-03    -283.071E-03         1.00934    -282.374E-03     19.1898E-03     116.814E-03    -58.2286E-03    -58.6042E-03    -58.0832E-03     116.669E-03    -58.6042E-03     9.75716E-03     19.4017E+06     12.5456E+06    -104.333E+06     6.30325E+06    -91.2348E+06     12.5456E+06    -37.9151E+06         30.5115
            1777     7.54636E-03     101.345E-03         1.02202    -280.174E-03    -297.673E-03    -293.781E-03         1.02099    -283.043E-03     54.2748E-03     116.822E-03    -58.2347E-03    -58.6015E-03    -58.0470E-03     116.583E-03    -58.5508E-03     12.6438E-03     19.2084E+06     10.4634E+06    -101.570E+06     4.93575E+06    -87.2974E+06     10.4634E+06    -38.8195E+06         31.1966
            1778     8.48992E-03     101.349E-03         1.03409    -284.371E-03    -299.032E-03    -297.978E-03         1.03304    -284.371E-03     60.3945E-03     116.990E-03    -58.3409E-03    -58.6508E-03    -58.0862E-03     116.594E-03    -58.5094E-03     16.2600E-03     17.7938E+06     6.42551E+06    -101.934E+06     2.37134E+06    -86.5112E+06     6.42551E+06    -39.8706E+06         32.3324
            1779     9.43333E-03     101.358E-03         1.01757    -277.823E-03    -290.540E-03    -283.072E-03         1.01713    -284.857E-03     37.2070E-03     117.240E-03    -58.3984E-03    -58.8449E-03    -58.0449E-03     116.484E-03    -58.4427E-03     22.5484E-03     17.8685E+06    -4.19327E+06    -99.8172E+06     390.778E+03    -82.3394E+06    -4.19327E+06    -41.7903E+06         34.1479
            1780     10.3780E-03     101.373E-03         1.01037    -277.351E-03    -288.827E-03    -281.343E-03         1.00992    -284.385E-03     31.5809E-03     117.471E-03    -58.3873E-03    -59.1101E-03    -58.1376E-03     116.499E-03    -58.3873E-03     26.0381E-03     16.6326E+06    -16.6149E+06    -97.6155E+06    -2.28223E+06    -78.7006E+06    -16.6149E+06    -42.3613E+06         36.7018
            1781     11.3210E-03     101.388E-03         1.02785    -284.537E-03    -298.888E-03    -298.565E-03         1.02753    -284.537E-03     28.8289E-03     117.839E-03    -58.3383E-03    -59.5494E-03    -58.1351E-03     116.425E-03    -58.3383E-03     31.0455E-03     12.7692E+06    -29.7958E+06    -89.5756E+06    -7.04706E+06    -69.7593E+06    -29.7958E+06    -40.0954E+06         39.9558
            1782     12.2649E-03     101.414E-03         1.03330    -285.126E-03    -298.886E-03    -298.340E-03         1.03276    -285.126E-03     46.7253E-03     119.951E-03    -58.2575E-03    -61.7470E-03    -58.2005E-03     116.405E-03    -58.2575E-03     48.7888E-03     8.80873E+06    -47.8672E+06    -76.9487E+06    -13.4569E+06    -54.6831E+06    -47.8672E+06    -36.8647E+06         43.8798
            1783     13.2082E-03     101.468E-03         1.03372    -285.142E-03    -297.065E-03    -296.722E-03         1.03338    -285.142E-03     31.1294E-03     123.149E-03    -58.0755E-03    -65.1161E-03    -57.6263E-03     115.659E-03    -58.0755E-03     72.7046E-03     13.5293E+06    -48.9334E+06    -80.4126E+06    -18.8632E+06    -20.5878E+06    -76.3656E+06    -30.3989E+06         48.4496
            1784     14.1535E-03     101.550E-03         1.04829    -284.962E-03    -316.545E-03    -316.032E-03         1.04778    -284.962E-03     36.5795E-03     137.252E-03    -57.9187E-03    -79.3550E-03    -57.7919E-03     115.689E-03    -57.9187E-03     125.518E-03     54.6954E+06    -30.4303E+06    -76.7061E+06    -21.4711E+06     45.7361E+06    -76.7061E+06    -18.3633E+06         53.4654
            1785     15.0996E-03     101.721E-03         1.05087    -284.031E-03    -320.599E-03    -319.643E-03         1.04992    -284.031E-03     64.7666E-03     171.945E-03    -58.0562E-03    -113.901E-03    -59.9447E-03     117.989E-03    -58.0562E-03     221.330E-03     127.604E+06     31.3425E+06    -38.8601E+06    -19.3816E+06     126.969E+06     12.4989E+06    -6.87305E+06         58.2541
            1786     16.0489E-03     102.024E-03         1.03093    -280.656E-03    -302.605E-03    -301.035E-03         1.03016    -281.460E-03     58.5374E-03     178.753E-03    -58.2294E-03    -120.577E-03    -57.1645E-03     115.341E-03    -58.2294E-03     244.331E-03     180.943E+06     135.508E+06    -10.7624E+06    -10.7405E+06     180.921E+06     135.508E+06    -1.51945E+06         62.0617
            1787     943.740E-06     102.473E-03     952.356E-03    -139.817E-03    -405.747E-03    -376.570E-03     923.180E-03    -139.817E-03     183.643E-03     115.109E-03    -57.3235E-03    -57.7885E-03    -57.7079E-03     115.107E-03    -57.4021E-03     669.306E-06     19.1090E+06     12.9925E+06    -96.7411E+06     15.4176E+06    -95.7938E+06     15.7365E+06    -8.76229E+06         28.8483
            1788     1.88897E-03     102.472E-03     938.422E-03    -252.454E-03    -276.645E-03    -265.222E-03     934.199E-03    -259.654E-03    -53.4651E-03     115.022E-03    -57.4581E-03    -57.5692E-03    -57.4633E-03     115.015E-03    -57.5569E-03     2.05751E-03     21.2545E+06     18.7394E+06    -91.3516E+06     16.8960E+06    -88.5508E+06     20.2971E+06    -17.0435E+06         28.9239
            1789     2.83235E-03     102.469E-03     946.499E-03    -247.946E-03    -282.859E-03    -267.996E-03     945.783E-03    -262.093E-03     20.3748E-03     114.852E-03    -57.3447E-03    -57.5207E-03    -57.3380E-03     114.833E-03    -57.5084E-03     3.37868E-03     24.1799E+06     18.9689E+06    -90.1173E+06     18.4860E+06    -84.6993E+06     19.2448E+06    -23.9056E+06         29.0455
            1790     3.77701E-03     102.466E-03     940.910E-03    -245.986E-03    -274.834E-03    -257.978E-03     940.604E-03    -262.536E-03     1.81521E-03     114.551E-03    -57.1292E-03    -57.4384E-03    -57.0851E-03     114.507E-03    -57.4384E-03     5.13957E-03     27.5265E+06     18.1742E+06    -90.6420E+06     19.2077E+06    -82.3232E+06     18.1742E+06    -30.1382E+06         29.2205
            1791     4.72166E-03     102.464E-03     935.512E-03    -244.582E-03    -269.910E-03    -253.154E-03     935.354E-03    -261.181E-03     15.8513E-03     114.450E-03    -57.0823E-03    -57.3807E-03    -56.9867E-03     114.354E-03    -57.3807E-03     7.62785E-03     29.4348E+06     19.7219E+06    -95.4786E+06     19.7642E+06    -85.8079E+06     19.7219E+06    -33.3679E+06         29.4626
            1792     5.66594E-03     102.463E-03     946.141E-03    -253.650E-03    -271.018E-03    -263.724E-03     945.842E-03    -260.645E-03     14.2349E-03     114.298E-03    -56.9860E-03    -57.3347E-03    -56.8024E-03     114.115E-03    -57.3347E-03     10.7099E-03     31.3581E+06     21.3723E+06    -96.8045E+06     20.7488E+06    -86.1951E+06     21.3723E+06    -35.2738E+06         29.7850
            1793     6.61113E-03     102.463E-03     964.335E-03    -261.972E-03    -277.476E-03    -277.175E-03     964.035E-03    -261.972E-03     20.3226E-03     114.179E-03    -56.9024E-03    -57.2903E-03    -56.6232E-03     113.858E-03    -57.2485E-03     14.3447E-03     32.0024E+06     19.1598E+06    -95.7670E+06     20.3001E+06    -84.0647E+06     19.1598E+06    -36.7534E+06         30.2560
            1794     7.55659E-03     102.467E-03     957.845E-03    -258.893E-03    -271.806E-03    -266.267E-03     956.609E-03    -263.196E-03     56.8565E-03     114.458E-03    -57.0464E-03    -57.4111E-03    -56.7889E-03     113.966E-03    -57.1763E-03     17.9859E-03     30.1681E+06     14.8921E+06    -94.3781E+06     18.5814E+06    -82.7915E+06     14.8921E+06    -36.0802E+06         31.0103
            1795     8.50091E-03     102.472E-03     955.972E-03    -259.036E-03    -270.001E-03    -264.323E-03     954.597E-03    -263.339E-03     71.3475E-03     114.989E-03    -57.1610E-03    -57.8294E-03    -57.0986E-03     114.258E-03    -57.1610E-03     22.0268E-03     29.5462E+06     12.5595E+06    -91.4888E+06     16.8131E+06    -78.7557E+06     12.5595E+06    -36.9489E+06         32.2115
            1796     9.44578E-03     102.480E-03     974.850E-03    -264.303E-03    -286.304E-03    -286.125E-03     974.671E-03    -264.303E-03     24.9970E-03     115.678E-03    -57.1474E-03    -58.5467E-03    -57.3389E-03     114.470E-03    -57.1474E-03     28.4298E-03     27.7391E+06     3.32134E+06    -90.3374E+06      13.392E+06    -75.9903E+06     3.32134E+06    -38.4654E+06         34.0358
            1797     10.3896E-03     102.497E-03     973.149E-03    -265.979E-03    -284.405E-03    -284.200E-03     972.944E-03    -265.979E-03     19.2327E-03     116.426E-03    -57.1565E-03    -59.2821E-03    -57.7852E-03     114.929E-03    -57.1565E-03     32.0418E-03     21.8259E+06    -11.3489E+06    -90.5867E+06     7.05790E+06    -75.8187E+06    -11.3489E+06    -37.7178E+06         36.5774
            1798     11.3334E-03     102.512E-03     967.617E-03    -266.829E-03    -274.967E-03    -274.342E-03     966.992E-03    -266.829E-03     37.2205E-03     117.394E-03    -57.1951E-03    -60.2014E-03    -58.2224E-03     115.415E-03    -57.1951E-03     36.7572E-03     16.0348E+06    -23.9624E+06    -84.1229E+06     699.183E+03    -68.7873E+06    -23.9624E+06    -35.7855E+06         39.8260
            1799     12.2771E-03     102.538E-03     976.135E-03    -267.034E-03    -277.303E-03    -276.794E-03     975.626E-03    -267.034E-03     35.5923E-03     120.053E-03    -57.2291E-03    -62.8508E-03    -58.4670E-03     115.669E-03    -57.2291E-03     54.5375E-03     13.3272E+06    -39.7510E+06    -71.2224E+06    -3.55456E+06    -54.3406E+06    -39.7510E+06    -33.3863E+06         43.7448
            1800     13.2210E-03     102.594E-03     982.734E-03    -267.263E-03    -286.315E-03    -286.176E-03     982.595E-03    -267.263E-03     23.3318E-03     123.053E-03    -57.1609E-03    -65.9197E-03    -57.7135E-03     114.847E-03    -57.1609E-03     76.4483E-03     13.0107E+06    -43.6156E+06    -71.1843E+06    -8.71521E+06    -28.1178E+06    -64.9561E+06    -28.1584E+06         48.3044
            1801     14.1663E-03     102.669E-03     984.858E-03    -266.639E-03    -291.928E-03    -290.789E-03     984.321E-03    -267.242E-03     36.4475E-03     138.423E-03    -57.0150E-03    -81.4494E-03    -58.3546E-03     115.329E-03    -57.0150E-03     130.372E-03     46.4186E+06    -28.3235E+06    -79.9412E+06    -14.9674E+06     33.0625E+06    -79.9412E+06    -19.0580E+06         53.3114
            1802     15.1131E-03     102.848E-03     975.254E-03    -265.143E-03    -285.549E-03    -284.087E-03     974.394E-03    -265.746E-03     49.3211E-03     171.753E-03    -57.0654E-03    -114.733E-03    -58.8248E-03     115.845E-03    -57.0654E-03     224.750E-03     119.433E+06     20.3376E+06    -46.2723E+06    -14.9175E+06     118.356E+06    -9.93960E+06    -9.59317E+06         58.1157
            1803     16.0666E-03     103.138E-03     960.498E-03    -262.992E-03    -284.229E-03    -283.520E-03     959.788E-03    -262.992E-03     36.3090E-03     178.536E-03    -57.2332E-03    -121.410E-03    -55.9142E-03     113.040E-03    -57.2332E-03     247.530E-03     175.827E+06     121.293E+06    -8.86730E+06    -8.74227E+06     175.702E+06     121.293E+06    -2.57819E+06         61.9638
            1804     946.453E-06     103.593E-03     861.186E-03    -126.007E-03    -348.169E-03    -324.363E-03     837.379E-03    -126.007E-03     141.694E-03     110.854E-03    -55.1807E-03    -55.6755E-03    -55.6054E-03     110.848E-03    -55.2446E-03     1.29585E-03     38.3781E+06     29.4977E+06    -77.0373E+06     33.7099E+06    -76.1214E+06     33.2501E+06    -8.36324E+06         28.4948
            1805     1.89198E-03     103.591E-03     874.976E-03    -230.240E-03    -255.308E-03    -250.410E-03     870.078E-03    -230.240E-03    -34.1741E-03     110.667E-03    -55.2449E-03    -55.4273E-03    -55.2709E-03     110.644E-03    -55.3790E-03     3.55199E-03     37.0478E+06     30.1065E+06    -71.7688E+06     32.4012E+06    -68.4040E+06     31.3884E+06    -17.9324E+06         28.5661
            1806     2.83887E-03     103.588E-03     908.402E-03    -241.092E-03    -276.893E-03    -275.590E-03     907.099E-03    -241.092E-03     47.2274E-03     110.542E-03    -55.2240E-03    -55.3306E-03    -55.1791E-03     110.485E-03    -55.3184E-03     5.78074E-03     38.8319E+06     28.6624E+06    -73.6684E+06     32.4949E+06    -67.3314E+06     28.6624E+06    -25.5740E+06         28.6837
            1807     3.78482E-03     103.585E-03     892.283E-03    -234.677E-03    -263.302E-03    -250.337E-03     891.925E-03    -247.285E-03     19.6796E-03     110.429E-03    -55.1776E-03    -55.2599E-03    -55.0451E-03     110.297E-03    -55.2599E-03     8.87078E-03     40.6078E+06     26.0728E+06    -75.8109E+06     31.9683E+06    -67.1713E+06     26.0728E+06     -30.486E+06         28.8515
            1808     4.73114E-03     103.583E-03     868.588E-03    -223.106E-03    -245.433E-03    -222.695E-03     868.177E-03    -245.433E-03     29.9452E-03     110.215E-03    -55.0124E-03    -55.2080E-03    -54.7603E-03     109.963E-03    -55.2080E-03     12.4248E-03     42.0560E+06     25.3845E+06    -85.2183E+06     31.6354E+06    -74.7977E+06     25.3845E+06    -34.8919E+06         29.0795
            1809     5.67864E-03     103.582E-03     881.052E-03    -230.743E-03    -248.201E-03    -235.929E-03     880.655E-03    -242.618E-03     30.6776E-03     110.180E-03    -54.9121E-03    -55.2846E-03    -54.6269E-03     109.760E-03    -55.1498E-03     16.2149E-03     43.9960E+06     25.4821E+06    -88.3894E+06     32.7099E+06    -77.1033E+06     25.4821E+06    -36.9648E+06         29.3943
            1810     6.62550E-03     103.582E-03     901.145E-03    -240.723E-03    -257.018E-03    -254.523E-03     900.804E-03    -242.877E-03     27.6731E-03     110.547E-03    -55.0101E-03    -55.5469E-03    -54.7851E-03     109.886E-03    -55.1105E-03     20.4735E-03     45.1344E+06     27.5482E+06    -88.9037E+06     33.9220E+06    -77.6913E+06     27.5482E+06    -37.0976E+06         29.9067
            1811     7.57159E-03     103.586E-03     903.707E-03    -240.004E-03    -259.380E-03    -254.697E-03     903.327E-03    -244.307E-03     21.7091E-03     111.101E-03    -55.0965E-03    -55.9932E-03    -55.0224E-03     110.130E-03    -55.0965E-03     24.9383E-03     45.6714E+06     25.2229E+06    -89.6361E+06     34.9897E+06    -78.9544E+06     25.2229E+06    -36.3828E+06         30.7748
            1812     8.51860E-03     103.591E-03     896.344E-03    -238.115E-03    -254.647E-03    -247.192E-03     895.764E-03    -244.990E-03     41.1796E-03     112.128E-03    -55.1320E-03    -56.9836E-03    -55.6185E-03     110.763E-03    -55.1320E-03     29.7645E-03     43.3677E+06     22.3183E+06    -83.7764E+06     33.0658E+06    -73.4744E+06     22.3183E+06    -34.5094E+06         32.0753
            1813     9.46360E-03     103.600E-03     911.137E-03    -243.230E-03    -265.627E-03    -262.811E-03     910.892E-03    -245.802E-03     30.4080E-03     113.658E-03    -55.2197E-03    -58.4598E-03    -56.4255E-03     111.623E-03    -55.2197E-03     36.6175E-03     37.7664E+06     16.5246E+06    -82.7226E+06     27.7644E+06    -72.7206E+06     16.5246E+06    -32.8302E+06         33.9137
            1814     10.4086E-03     103.618E-03     931.206E-03    -247.781E-03    -278.396E-03    -278.172E-03     930.982E-03    -247.781E-03     18.2613E-03     115.039E-03    -55.3198E-03    -59.7288E-03    -57.2207E-03     112.531E-03    -55.3198E-03     41.1963E-03     30.0352E+06    -270.681E+03    -84.0863E+06     20.8732E+06    -74.9243E+06    -270.681E+03    -30.4953E+06         36.4453
            1815     11.3528E-03     103.634E-03     925.985E-03    -249.628E-03    -268.951E-03    -268.311E-03     925.345E-03    -249.628E-03     34.7656E-03     116.818E-03    -55.4736E-03    -61.3366E-03    -58.1872E-03     113.669E-03    -55.4736E-03     46.3737E-03     23.7461E+06    -14.7470E+06    -75.6175E+06     12.9900E+06    -64.8614E+06    -14.7470E+06    -30.0224E+06         39.6993
            1816     12.2955E-03     103.661E-03     922.726E-03    -250.457E-03    -264.167E-03    -263.710E-03     922.270E-03    -250.457E-03     28.0267E-03     120.309E-03    -55.6461E-03    -64.6823E-03    -58.7071E-03     114.334E-03    -55.6461E-03     64.0203E-03     17.5367E+06    -32.2290E+06    -66.6440E+06     4.71736E+06    -53.8247E+06    -32.2290E+06    -29.9122E+06         43.6241
            1817     13.2387E-03     103.717E-03     928.688E-03    -250.961E-03    -272.027E-03    -271.935E-03     928.596E-03    -250.961E-03     16.4966E-03     124.399E-03    -55.7369E-03    -68.6765E-03    -58.7739E-03     114.496E-03    -55.7369E-03     84.7285E-03     12.3862E+06    -38.7013E+06    -68.1963E+06    -1.44744E+06    -34.5837E+06    -58.4802E+06    -24.6669E+06         48.1798
            1818     14.1838E-03     103.791E-03     921.328E-03    -250.277E-03    -267.511E-03    -266.784E-03     921.203E-03    -250.879E-03     18.9358E-03     139.955E-03    -55.6906E-03    -84.2899E-03    -59.2119E-03     114.877E-03    -55.6906E-03     136.975E-03     42.9598E+06    -22.4775E+06    -79.9216E+06    -6.96928E+06     27.4516E+06    -79.9216E+06    -17.1044E+06         53.2034
            1819     15.1304E-03     103.971E-03     906.346E-03    -248.525E-03    -256.282E-03    -255.539E-03     906.206E-03    -249.128E-03     18.5296E-03     170.298E-03    -55.7311E-03    -114.600E-03    -57.9065E-03     113.605E-03    -55.7311E-03     225.548E-03     111.396E+06     12.3856E+06    -49.5528E+06    -10.6384E+06     110.147E+06    -25.2796E+06    -10.3042E+06         58.0866
            1820     16.0879E-03     104.244E-03     904.128E-03    -246.391E-03    -260.756E-03    -260.523E-03     903.894E-03    -246.391E-03     15.3971E-03     178.081E-03    -55.9529E-03    -122.226E-03    -55.5680E-03     111.423E-03    -55.9529E-03     249.372E-03     167.980E+06     108.215E+06    -8.23564E+06    -8.06993E+06     167.815E+06     108.215E+06    -2.74523E+06         62.0369
            1821     948.804E-06     104.707E-03     843.861E-03    -144.186E-03    -317.040E-03    -288.888E-03     815.709E-03    -144.186E-03     137.391E-03     104.564E-03    -51.9896E-03    -52.5758E-03    -52.5593E-03     104.547E-03    -51.9896E-03     2.71770E-03     53.4397E+06     44.0134E+06    -57.8231E+06     49.9449E+06    -56.7989E+06     46.4840E+06    -8.64049E+06         27.9785
            1822     1.89830E-03     104.705E-03     819.257E-03    -211.233E-03    -235.312E-03    -222.112E-03     812.447E-03    -217.623E-03    -31.7833E-03     104.346E-03    -52.1103E-03    -52.2392E-03    -52.0939E-03     104.286E-03    -52.1957E-03     5.74579E-03     52.3429E+06     42.1446E+06    -49.0504E+06     48.5379E+06    -45.2455E+06     42.1446E+06    -18.5290E+06         28.0416
            1823     2.84734E-03     104.702E-03     812.857E-03    -209.090E-03    -234.291E-03    -222.045E-03     810.778E-03    -219.257E-03     67.9376E-03     104.130E-03    -52.0052E-03    -52.1326E-03    -51.8571E-03     103.982E-03    -52.1326E-03     9.15098E-03     54.3164E+06     41.7088E+06    -57.1429E+06     47.2116E+06    -50.0380E+06     41.7088E+06    -27.0944E+06         28.1508
            1824     3.79716E-03     104.699E-03     829.790E-03    -215.125E-03    -245.921E-03    -238.807E-03     829.457E-03    -221.905E-03     22.1229E-03     104.075E-03    -51.9915E-03    -52.0847E-03    -51.7320E-03     103.776E-03    -52.0443E-03     13.2213E-03     56.2972E+06     38.0109E+06    -62.9794E+06     46.9439E+06    -53.6262E+06     38.0109E+06    -32.0196E+06         28.3109
            1825     4.74697E-03     104.696E-03     836.493E-03    -219.729E-03    -245.579E-03    -239.303E-03     835.946E-03    -225.457E-03     40.5632E-03     104.219E-03    -51.9490E-03    -52.2720E-03    -51.7016E-03     103.688E-03    -51.9880E-03     17.7537E-03      56.748E+06     35.5323E+06    -72.2045E+06     45.7485E+06    -61.2049E+06     35.5323E+06    -36.0108E+06         28.5315
            1826     5.69617E-03     104.695E-03     829.606E-03    -218.876E-03    -232.003E-03    -223.946E-03     829.310E-03    -226.638E-03     32.3650E-03     104.633E-03    -51.9340E-03    -52.7062E-03    -51.8075E-03     103.762E-03    -51.9623E-03     22.7542E-03     55.5360E+06     32.2377E+06    -81.0896E+06     43.6654E+06    -69.2190E+06     32.2377E+06    -38.4788E+06         28.8702
            1827     6.64527E-03     104.696E-03     829.734E-03    -220.121E-03    -230.759E-03    -224.405E-03     829.524E-03    -226.264E-03     22.2285E-03     105.358E-03    -51.9663E-03    -53.3814E-03    -52.0485E-03     104.025E-03    -51.9663E-03     28.3153E-03     53.9491E+06     29.2175E+06    -82.9992E+06     42.0058E+06    -71.0558E+06     29.2175E+06    -38.6288E+06         29.4731
            1828     7.59480E-03     104.700E-03     849.927E-03    -225.936E-03    -244.123E-03    -242.551E-03     849.461E-03    -227.042E-03     28.8489E-03     106.538E-03    -52.0430E-03    -54.4825E-03    -52.6076E-03     104.663E-03    -52.0430E-03     33.9333E-03     51.4045E+06     27.2675E+06    -87.2110E+06     40.4949E+06    -76.3014E+06     27.2675E+06    -37.2271E+06         30.4682
            1829     8.54274E-03     104.706E-03     858.829E-03    -226.305E-03    -249.552E-03    -246.453E-03     858.302E-03    -228.877E-03     38.7870E-03     108.244E-03    -52.1606E-03    -56.0660E-03    -53.4925E-03     105.671E-03    -52.1606E-03     40.1173E-03     47.9403E+06     22.4707E+06    -82.1799E+06     39.0048E+06    -73.2443E+06     22.4707E+06    -32.8652E+06         31.8672
            1830     9.49037E-03     104.718E-03     848.175E-03    -226.830E-03    -240.576E-03    -237.138E-03     847.944E-03    -230.037E-03     27.2522E-03     110.621E-03    -52.3756E-03    -58.2323E-03    -54.6687E-03     107.058E-03    -52.3756E-03     47.8542E-03     42.9402E+06     21.9732E+06    -79.1845E+06     35.9811E+06    -72.2255E+06     21.9732E+06    -28.1736E+06         33.7491
            1831     10.4367E-03     104.736E-03     861.619E-03    -230.330E-03    -249.531E-03    -248.739E-03     861.462E-03    -230.965E-03     12.5052E-03     113.071E-03    -52.6219E-03    -60.4519E-03    -56.1713E-03     108.791E-03    -52.6219E-03     53.3146E-03     36.8026E+06     7.95158E+06    -81.1584E+06     31.2895E+06    -75.6453E+06     7.95158E+06    -24.7588E+06         36.3023
            1832     11.3813E-03     104.756E-03     880.673E-03    -232.645E-03    -261.719E-03    -261.329E-03     880.283E-03    -232.645E-03     25.3455E-03     115.835E-03    -52.9477E-03    -62.9030E-03    -57.7367E-03     110.668E-03    -52.9477E-03     59.2917E-03     29.5296E+06    -4.75713E+06    -67.7366E+06     23.8930E+06    -62.1000E+06    -4.75713E+06    -22.2577E+06         39.5838
            1833     12.3252E-03     104.783E-03     874.927E-03    -234.094E-03    -255.242E-03    -254.423E-03     874.108E-03    -234.094E-03     44.0452E-03     120.799E-03    -53.3486E-03    -67.4918E-03    -59.2692E-03     112.577E-03    -53.3486E-03     76.0514E-03     21.5946E+06    -15.3754E+06    -57.5610E+06     14.4081E+06    -50.3744E+06    -15.3754E+06    -22.2323E+06         43.5375
            1834     13.2695E-03     104.840E-03     869.165E-03    -234.605E-03    -251.790E-03    -251.073E-03     868.447E-03    -234.605E-03     41.5007E-03     126.841E-03    -53.6573E-03    -73.2038E-03    -60.7172E-03     114.354E-03    -53.6573E-03     96.4522E-03     13.4014E+06    -33.3069E+06    -60.9284E+06     4.84170E+06    -39.0053E+06    -46.6702E+06    -20.3474E+06         48.1146
            1835     14.2083E-03     104.918E-03     870.606E-03    -234.390E-03    -255.060E-03    -254.770E-03     870.316E-03    -234.390E-03     33.2803E-03     141.749E-03    -53.8582E-03    -87.8722E-03    -60.7160E-03     114.593E-03    -53.8582E-03     144.807E-03     42.0136E+06    -22.3581E+06    -66.6969E+06    -2.92607E+06     22.5816E+06    -66.6969E+06    -13.0891E+06         53.1947
            1836     15.1576E-03     105.085E-03     864.889E-03    -233.105E-03    -253.978E-03    -253.738E-03     864.649E-03    -233.105E-03     27.2219E-03     172.064E-03    -54.0823E-03    -117.981E-03    -60.3370E-03     114.420E-03    -54.0823E-03     229.903E-03     107.524E+06     11.1522E+06    -41.3015E+06    -9.60702E+06     106.805E+06    -19.8233E+06    -7.20889E+06         58.2214
            1837     16.1072E-03     105.363E-03     862.258E-03    -230.883E-03    -249.950E-03    -249.483E-03     861.792E-03    -230.883E-03     37.1272E-03     178.292E-03    -54.4892E-03    -123.856E-03    -57.5248E-03     111.960E-03    -54.4892E-03     249.950E-03     162.316E+06     103.230E+06    -8.91341E+06    -8.79508E+06     160.378E+06     105.050E+06    -2.46386E+06         62.3313
            1838     953.587E-06     105.814E-03     806.080E-03    -169.124E-03    -281.885E-03    -249.097E-03     784.690E-03    -180.521E-03     103.271E-03     95.5803E-03    -47.6203E-03    -47.9601E-03    -47.9214E-03     95.5417E-03    -47.6203E-03     4.22166E-03     63.9366E+06     57.0176E+06    -36.5820E+06     61.7327E+06    -34.6771E+06     57.3165E+06    -11.9256E+06         27.2724
            1839     1.90656E-03     105.810E-03     757.459E-03    -182.045E-03    -217.062E-03    -185.129E-03     752.365E-03    -208.883E-03    -44.3534E-03     95.5039E-03    -47.7074E-03    -47.7978E-03    -47.6503E-03     95.3715E-03    -47.7225E-03     8.22817E-03     64.2418E+06     52.9719E+06    -28.1535E+06     59.5945E+06    -23.5062E+06     52.9719E+06    -19.5984E+06         27.3299
            1840     2.86033E-03     105.807E-03     742.599E-03    -180.864E-03    -203.340E-03    -182.616E-03     741.093E-03    -200.082E-03     59.8021E-03     95.5054E-03    -47.6357E-03    -47.8681E-03    -47.5169E-03     95.1951E-03    -47.6768E-03     12.8585E-03     64.2386E+06     48.0620E+06    -39.4099E+06     56.2693E+06    -31.4406E+06     48.0620E+06    -27.3289E+06         27.4319
            1841     3.81385E-03     105.804E-03     771.071E-03    -196.231E-03    -226.534E-03    -222.323E-03     770.636E-03    -200.008E-03     26.0840E-03     95.6289E-03    -47.5913E-03    -48.0325E-03    -47.4136E-03     95.0360E-03    -47.6172E-03     17.9077E-03     63.0153E+06     40.2274E+06    -50.6348E+06     52.3562E+06    -39.9756E+06     40.2274E+06    -33.0195E+06         27.5842
            1842     4.76745E-03     105.801E-03     797.462E-03    -206.126E-03    -239.264E-03    -239.056E-03     797.253E-03    -206.126E-03     20.6742E-03     96.1222E-03    -47.5816E-03    -48.5376E-03    -47.4998E-03     95.0844E-03    -47.5816E-03     23.7765E-03     60.7532E+06     33.0692E+06    -60.8639E+06     49.0380E+06    -49.1487E+06     33.0692E+06    -35.8064E+06         27.8134
            1843     5.72074E-03     105.800E-03     790.011E-03    -207.345E-03    -223.032E-03    -219.780E-03     789.642E-03    -210.227E-03     34.9461E-03     97.0120E-03    -47.5981E-03    -49.4070E-03    -47.7489E-03     95.3539E-03    -47.5981E-03     30.3582E-03     57.2564E+06     26.5302E+06    -72.8439E+06     45.1157E+06    -60.7031E+06     26.5302E+06    -37.8268E+06         28.2248
            1844     6.67424E-03     105.801E-03     783.793E-03    -206.956E-03    -214.498E-03    -210.190E-03     783.474E-03    -210.945E-03     30.1486E-03     98.4365E-03    -47.6600E-03    -50.7576E-03    -48.2768E-03     95.9557E-03    -47.6600E-03     37.5003E-03     51.3381E+06     18.8097E+06    -78.6434E+06     39.7800E+06    -67.0853E+06     18.8097E+06    -36.9181E+06         28.9653
            1845     7.62616E-03     105.806E-03     792.181E-03    -210.217E-03    -221.056E-03    -219.322E-03     791.553E-03    -211.323E-03     45.0082E-03     100.533E-03    -47.8333E-03    -52.6952E-03    -49.2795E-03     97.1169E-03    -47.8333E-03     44.5936E-03     43.3971E+06     15.6678E+06    -83.5570E+06     33.1249E+06    -73.2849E+06     15.6678E+06    -34.5799E+06         30.0917
            1846     8.57754E-03     105.814E-03     811.947E-03    -213.023E-03    -237.489E-03    -236.837E-03     811.294E-03    -213.023E-03     34.9960E-03     103.101E-03    -48.0758E-03    -55.0209E-03    -50.5066E-03     98.5868E-03    -48.0758E-03     52.0082E-03     35.3555E+06     9.37638E+06    -84.8736E+06     26.8641E+06    -76.3822E+06     9.37638E+06    -30.7199E+06         31.5858
            1847     9.52775E-03     105.828E-03     806.709E-03    -214.327E-03    -232.284E-03    -231.419E-03     806.479E-03    -214.962E-03     13.5660E-03     106.722E-03    -48.4451E-03    -58.2630E-03    -52.2550E-03     100.714E-03    -48.4451E-03     61.1523E-03     28.9395E+06     10.7168E+06    -79.9310E+06     22.6933E+06    -73.6848E+06     10.7168E+06    -25.2148E+06         33.5390
            1848     10.4757E-03     105.849E-03     789.422E-03    -205.542E-03    -220.749E-03    -210.317E-03     788.717E-03    -215.269E-03     42.9336E-03     110.657E-03    -48.9160E-03    -61.7493E-03    -54.8197E-03     103.727E-03    -48.9160E-03     67.2567E-03     22.7862E+06     4.20210E+06    -81.7826E+06     18.3209E+06    -77.3173E+06     4.20210E+06    -20.8573E+06         36.1465
            1849     11.4219E-03     105.871E-03     806.446E-03    -205.941E-03    -234.677E-03    -224.309E-03     805.169E-03    -215.033E-03     69.6553E-03     114.802E-03    -49.4803E-03    -65.3386E-03    -57.5516E-03     107.015E-03    -49.4803E-03     72.9105E-03     15.8162E+06    -6.86157E+06    -66.9393E+06     12.6436E+06    -63.7667E+06    -6.86157E+06    -15.7834E+06         39.4758
            1850     12.3655E-03     105.903E-03     826.939E-03    -216.053E-03    -250.443E-03    -249.251E-03     825.747E-03    -216.053E-03     61.1760E-03     121.779E-03    -50.2183E-03    -71.5855E-03    -60.4632E-03     110.657E-03    -50.2183E-03     89.3532E-03     10.7343E+06    -7.02628E+06    -48.7756E+06     6.36692E+06    -44.4082E+06    -7.02628E+06    -15.1027E+06         43.4849
            1851     13.3042E-03     105.963E-03     822.619E-03    -217.319E-03    -244.737E-03    -243.968E-03     821.850E-03    -217.319E-03     45.1918E-03     128.955E-03    -50.8926E-03    -78.0944E-03    -62.5684E-03     113.429E-03    -50.8926E-03     108.746E-03     5.65423E+06    -27.5470E+06    -52.3073E+06     29.5381E+03    -41.5780E+06    -32.6516E+06    -16.1089E+06         48.1325
            1852     14.2477E-03     106.042E-03     819.867E-03    -217.595E-03    -241.536E-03    -241.226E-03     819.557E-03    -217.595E-03     33.0799E-03     144.032E-03    -51.4632E-03    -92.5718E-03    -63.7420E-03     115.202E-03    -51.4632E-03     152.451E-03     37.7306E+06    -25.5998E+06    -46.5936E+06    -4.69749E+06     16.8283E+06    -46.5936E+06    -10.0483E+06         53.3286
            1853     15.1903E-03     106.206E-03     821.620E-03    -216.885E-03    -249.311E-03    -249.131E-03     821.439E-03    -216.885E-03     20.8749E-03     175.571E-03    -52.0508E-03    -123.496E-03    -65.1298E-03     117.205E-03    -52.0508E-03     235.443E-03     106.348E+06     12.1526E+06    -23.5041E+06    -7.34806E+06     106.081E+06    -3.73666E+06    -2.74742E+06         58.5609
            1854     16.1369E-03     106.489E-03     808.259E-03    -215.451E-03    -244.576E-03    -244.129E-03     807.813E-03    -215.451E-03     34.9107E-03     180.125E-03    -52.8378E-03    -127.242E-03    -63.9144E-03     116.797E-03    -52.8378E-03     247.775E-03     161.229E+06     103.493E+06    -5.45202E+06     -5.3413E+06     157.735E+06     106.876E+06     863.929E+03         62.8600
            1855     958.667E-06     106.907E-03     732.366E-03    -162.614E-03    -229.126E-03    -205.943E-03     728.308E-03    -181.739E-03     36.4035E-03     83.9333E-03    -41.8589E-03    -42.0706E-03    -41.9960E-03     83.8588E-03    -41.8589E-03     5.55835E-03     65.4335E+06     59.7481E+06    -13.9355E+06     61.9629E+06    -11.3248E+06     60.6080E+06    -12.7708E+06         26.3745
            1856     1.91814E-03     106.905E-03     695.720E-03    -159.987E-03    -194.483E-03    -165.064E-03     694.477E-03    -188.163E-03    -22.1123E-03     84.0395E-03    -41.8952E-03    -42.1427E-03    -41.8975E-03     83.7943E-03    -41.8952E-03     10.6035E-03     65.1579E+06     51.3334E+06    -9.42056E+06     58.8780E+06    -3.14060E+06     51.3334E+06    -20.2350E+06         26.4327
            1857     2.87677E-03     106.901E-03     712.830E-03    -174.428E-03    -200.278E-03    -189.650E-03     711.253E-03    -183.479E-03     66.7934E-03     84.4223E-03    -41.9108E-03    -42.5120E-03    -41.9485E-03     83.8588E-03    -41.9108E-03     16.3497E-03     65.4014E+06     45.1546E+06    -22.6656E+06     55.7995E+06    -13.0637E+06     45.1546E+06    -27.3496E+06         26.5352
            1858     3.83556E-03     106.898E-03     730.266E-03    -187.009E-03    -208.069E-03    -206.730E-03     728.928E-03    -187.009E-03     46.0468E-03     85.0020E-03    -41.9317E-03    -43.0590E-03    -41.9840E-03     83.9270E-03    -41.9317E-03     22.7735E-03     63.8412E+06     36.7580E+06    -37.6122E+06     52.2270E+06    -25.9979E+06     36.7580E+06    -32.2332E+06         26.6951
            1859     4.79421E-03     106.895E-03     732.394E-03    -190.597E-03    -206.050E-03    -205.639E-03     732.351E-03    -190.965E-03     1.89264E-03     85.8919E-03    -41.9494E-03    -43.9397E-03    -42.1117E-03     84.0639E-03    -41.9494E-03     29.9837E-03     59.7359E+06     25.3498E+06    -51.8502E+06      47.314E+06    -39.4283E+06     25.3498E+06    -35.0443E+06         26.9822
            1860     5.75307E-03     106.895E-03     728.600E-03    -188.465E-03    -200.113E-03    -195.586E-03     728.283E-03    -192.674E-03     27.5244E-03     87.4736E-03    -42.0299E-03    -45.4436E-03    -42.6191E-03     84.6491E-03    -42.0299E-03     37.7326E-03     51.4692E+06     16.1322E+06    -65.9834E+06     40.1418E+06    -54.6561E+06     16.1322E+06    -34.5206E+06         27.5261
            1861     6.71044E-03     106.897E-03     728.868E-03    -189.295E-03    -202.554E-03    -197.018E-03     727.175E-03    -193.138E-03     60.2764E-03     89.9164E-03    -42.2041E-03    -47.7054E-03    -43.5887E-03     85.7997E-03    -42.2041E-03     46.2465E-03     40.0654E+06     8.30078E+06    -75.2226E+06     30.7456E+06    -65.9028E+06     8.30078E+06    -31.3177E+06         28.4189
            1862     7.66740E-03     106.904E-03     741.881E-03    -194.201E-03    -213.376E-03    -208.925E-03     737.430E-03    -194.201E-03     102.035E-03     93.0494E-03    -42.5062E-03    -50.5418E-03    -44.9765E-03     87.4841E-03    -42.5062E-03     54.8626E-03     27.3546E+06     4.53808E+06    -80.1674E+06     20.1377E+06    -72.9505E+06     4.53808E+06    -26.5363E+06         29.6685
            1863     8.62234E-03     106.914E-03     751.480E-03    -195.994E-03    -219.163E-03    -215.624E-03     747.941E-03    -195.994E-03     77.0618E-03     97.1015E-03    -42.9488E-03    -54.1420E-03    -47.0429E-03     90.0024E-03    -42.9488E-03     63.4577E-03     16.0197E+06     252.083E+03    -83.7885E+06     8.53241E+06    -78.2623E+06     2.21312E+06    -22.2172E+06         31.2607
            1864     9.57533E-03     106.930E-03     749.747E-03    -197.628E-03    -215.854E-03    -215.177E-03     749.070E-03    -197.628E-03     30.1333E-03     102.422E-03    -43.5422E-03    -58.8741E-03    -49.8522E-03     93.4001E-03    -43.5422E-03     73.6917E-03     8.09889E+06    -3.58354E+06    -79.7030E+06    -1.64674E+06    -74.9095E+06     1.36866E+06    -19.2728E+06         33.2999
            1865     10.5260E-03     106.956E-03     742.727E-03    -189.285E-03    -214.658E-03    -204.780E-03     741.941E-03    -198.377E-03     47.9428E-03     108.110E-03    -44.3223E-03    -63.7756E-03    -53.7083E-03     98.0428E-03    -44.3223E-03     80.4137E-03     3.57417E+06    -8.40629E+06    -83.5070E+06    -7.67059E+06    -79.7541E+06    -914.426E+03    -16.5997E+06         35.9817
            1866     11.4712E-03     106.983E-03     746.576E-03    -189.471E-03    -216.643E-03    -206.390E-03     745.414E-03    -198.563E-03     62.7176E-03     114.231E-03    -45.2574E-03    -68.9492E-03    -58.1327E-03     103.415E-03    -45.2574E-03     86.0857E-03    -1.65047E+06    -14.4384E+06    -69.6694E+06    -10.3922E+06    -66.9068E+06    -8.45940E+06    -12.4503E+06         39.3654
            1867     12.4130E-03     107.021E-03     768.780E-03    -199.495E-03    -230.621E-03    -230.016E-03     768.176E-03    -199.495E-03     26.2966E-03     122.652E-03    -46.3928E-03    -76.2441E-03    -61.9938E-03     108.401E-03    -46.3928E-03     102.173E-03    -746.268E+03    -12.6835E+06    -43.1252E+06    -12.7042E+06    -39.3441E+06    -4.50669E+06    -10.3590E+06         43.4503
            1868     13.3551E-03     107.087E-03     776.805E-03    -201.018E-03    -235.704E-03    -235.520E-03     776.621E-03    -201.018E-03     10.4032E-03     131.519E-03    -47.5327E-03    -84.0030E-03    -65.9944E-03     113.510E-03    -47.5327E-03     119.239E-03    -3.92374E+06    -29.3160E+06    -48.3099E+06    -16.4623E+06    -40.5294E+06    -24.5580E+06    -13.0237E+06         48.2389
            1869     14.2901E-03     107.167E-03     769.544E-03    -201.745E-03    -228.907E-03    -228.704E-03     769.341E-03    -201.745E-03     26.2513E-03     147.576E-03    -48.6649E-03    -98.9128E-03    -69.7832E-03     118.447E-03    -48.6649E-03     157.473E-03     29.3238E+06    -26.1330E+06    -44.6982E+06    -20.2958E+06     12.5486E+06    -33.7602E+06    -10.8427E+06         53.6174
            1870     15.2274E-03     107.336E-03     771.371E-03    -201.167E-03    -232.588E-03    -232.323E-03     771.106E-03    -201.167E-03     29.3909E-03     177.671E-03    -49.8506E-03    -127.804E-03    -72.4080E-03     122.275E-03    -49.8506E-03     233.788E-03     103.261E+06     12.1607E+06    -25.5387E+06    -19.3130E+06     102.722E+06     6.47395E+06    -5.35464E+06         59.0684
            1871     16.1701E-03     107.612E-03     767.104E-03    -199.795E-03    -234.166E-03    -233.868E-03     766.807E-03    -199.795E-03     31.5081E-03     183.159E-03    -51.2908E-03    -131.996E-03    -75.1797E-03     126.343E-03    -51.2908E-03     240.454E-03     159.813E+06     101.397E+06    -12.1700E+06    -11.8894E+06     154.776E+06     106.154E+06    -1.46770E+06         63.5313
            1872     965.939E-06     107.988E-03     640.549E-03    -149.272E-03    -183.596E-03    -172.628E-03     637.309E-03    -156.999E-03    -44.9050E-03     70.2361E-03    -34.9323E-03    -35.3027E-03    -35.1849E-03     70.1183E-03    -34.9323E-03     6.36817E-03     70.8791E+06     65.1665E+06     8.74574E+06     67.4434E+06     11.6203E+06     65.7276E+06    -11.2030E+06         25.3159
            1873     1.93111E-03     107.985E-03     660.642E-03    -159.525E-03    -187.763E-03    -176.883E-03     657.489E-03    -167.252E-03    -29.0931E-03     70.5400E-03    -35.0393E-03    -35.4982E-03    -35.0984E-03     70.1401E-03    -35.0393E-03     12.4230E-03     71.2338E+06     57.8069E+06     9.93483E+06     64.1241E+06     17.0445E+06     57.8069E+06    -19.4875E+06         25.3798
            1874     2.89673E-03     107.982E-03     682.444E-03    -173.406E-03    -197.297E-03    -195.784E-03     680.930E-03    -173.406E-03     59.8777E-03     71.2135E-03    -35.0783E-03    -36.1412E-03    -35.2247E-03     70.2970E-03    -35.0783E-03     19.1940E-03     67.4134E+06     45.2376E+06    -7.21356E+06     57.4588E+06     2.74098E+06     45.2376E+06    -25.3504E+06         25.4980
            1875     3.86189E-03     107.979E-03     668.504E-03    -166.896E-03    -187.687E-03    -176.484E-03     667.487E-03    -177.083E-03     31.8919E-03     72.3078E-03    -35.1272E-03    -37.1820E-03    -35.4681E-03     70.5939E-03    -35.1272E-03     26.6290E-03     59.6321E+06     27.5689E+06    -25.3186E+06     47.9563E+06    -13.6429E+06     27.5689E+06    -29.1413E+06         25.7141
            1876     4.82686E-03     107.976E-03     654.814E-03    -162.641E-03    -177.940E-03    -164.330E-03     654.436E-03    -175.872E-03     18.2483E-03     74.0517E-03    -35.2335E-03    -38.8158E-03    -35.9596E-03     71.1955E-03    -35.2335E-03     34.8708E-03     45.7826E+06     9.77187E+06    -44.3615E+06     34.9012E+06    -33.4800E+06     9.77187E+06    -29.0079E+06         26.1290
            1877     5.79069E-03     107.977E-03     651.392E-03    -167.456E-03    -177.405E-03    -170.083E-03     650.957E-03    -174.343E-03     28.2314E-03     76.6459E-03    -35.4446E-03    -41.1996E-03    -36.8503E-03     72.2966E-03    -35.4446E-03     43.8592E-03     26.7383E+06    -4.66189E+06    -61.9678E+06     19.0472E+06    -54.2767E+06    -4.66189E+06    -24.7603E+06         26.8384
            1878     6.75413E-03     107.981E-03     662.229E-03    -170.599E-03    -187.534E-03    -181.859E-03     660.397E-03    -174.441E-03     65.0013E-03     80.1772E-03    -35.7803E-03    -44.3815E-03    -38.2282E-03     74.0239E-03    -35.7803E-03     53.4553E-03     7.53123E+06    -13.0561E+06    -72.5572E+06     2.36855E+06    -67.3945E+06    -13.0561E+06    -19.1164E+06         27.8717
            1879     7.71550E-03     107.990E-03     681.558E-03    -175.867E-03    -197.070E-03    -192.506E-03     676.994E-03    -175.867E-03     102.270E-03     84.7268E-03    -36.2888E-03    -48.4243E-03    -40.3823E-03     76.6848E-03    -36.2888E-03     63.0315E-03    -4.58532E+06    -18.5604E+06    -79.2387E+06    -12.6030E+06    -76.0208E+06    -13.7607E+06    -14.0337E+06         29.2242
            1880     8.67503E-03     108.004E-03     683.277E-03    -177.401E-03    -193.952E-03    -190.627E-03     679.952E-03    -177.401E-03     72.5133E-03     90.6170E-03    -37.0163E-03    -53.6056E-03    -43.6599E-03     80.6713E-03    -37.0163E-03     72.7597E-03    -6.17834E+06    -23.5387E+06    -80.7850E+06    -22.9120E+06    -78.6234E+06    -8.96663E+06    -11.1108E+06         30.9020
            1881     9.63034E-03     108.025E-03     697.515E-03    -178.949E-03    -203.588E-03    -202.928E-03     696.856E-03    -178.949E-03     41.0801E-03     98.0199E-03    -37.9653E-03    -60.0655E-03    -47.9798E-03     85.9342E-03    -37.9653E-03     83.7584E-03    -3.88478E+06    -27.0496E+06    -76.0167E+06    -29.5828E+06    -73.4836E+06    -3.88478E+06    -10.5487E+06         33.0320
            1882     10.5814E-03     108.057E-03     720.939E-03    -181.585E-03    -225.071E-03    -224.585E-03     720.453E-03    -181.585E-03     41.8396E-03     105.598E-03    -39.1544E-03    -66.4255E-03    -53.2546E-03     92.4271E-03    -39.1544E-03     91.2895E-03    -2.47950E+06    -28.5971E+06    -82.2865E+06    -32.2112E+06    -78.6724E+06    -2.47950E+06    -13.0915E+06         35.8124
            1883     11.5280E-03     108.093E-03     715.533E-03    -184.268E-03    -216.683E-03    -215.457E-03     714.307E-03    -184.268E-03     61.0027E-03     113.568E-03    -40.5547E-03    -72.9668E-03    -59.2879E-03     99.8894E-03    -40.5547E-03     97.1503E-03    -5.73132E+06    -25.8995E+06    -73.6878E+06    -30.2140E+06    -69.3733E+06    -5.73132E+06    -12.9977E+06         39.2728
            1884     12.4686E-03     108.138E-03     706.414E-03    -183.781E-03    -201.621E-03    -198.835E-03     705.243E-03    -185.395E-03     44.5792E-03     123.996E-03    -42.2120E-03    -81.7466E-03    -65.4450E-03     107.694E-03    -42.2120E-03     111.034E-03     2.59794E+06    -19.2851E+06    -44.8621E+06    -26.9690E+06    -37.1782E+06     2.59794E+06    -9.61087E+06         43.4625
            1885     13.4043E-03     108.209E-03     713.360E-03    -184.103E-03    -210.220E-03    -208.289E-03     713.043E-03    -185.717E-03     19.3162E-03     135.518E-03    -44.0007E-03    -91.5096E-03    -72.2371E-03     116.245E-03    -44.0007E-03     126.553E-03    -1.47096E+06    -26.3140E+06    -45.8762E+06    -26.3309E+06    -38.0487E+06    -9.28166E+06    -9.40539E+06         48.4513
            1886     14.3330E-03     108.303E-03     720.865E-03    -186.023E-03    -218.879E-03    -218.181E-03     720.167E-03    -186.023E-03     43.5966E-03     152.361E-03    -45.8843E-03    -106.471E-03    -78.4320E-03     124.322E-03    -45.8843E-03     159.778E-03     30.6972E+06    -12.2697E+06    -42.3458E+06    -27.2092E+06     12.9682E+06    -9.67741E+06    -9.31979E+06         54.0539
            1887     15.2613E-03     108.466E-03     718.079E-03    -185.406E-03    -215.488E-03    -214.748E-03     717.339E-03    -185.406E-03     44.7609E-03     182.628E-03    -47.8537E-03    -134.788E-03    -84.5213E-03     132.361E-03    -47.8537E-03     230.313E-03     104.667E+06     23.1423E+06    -24.5084E+06    -23.7822E+06     103.940E+06     23.1423E+06    -9.61298E+06         59.6934
            1888     16.1832E-03     108.754E-03     711.262E-03    -183.725E-03    -212.795E-03    -212.343E-03     710.811E-03    -183.725E-03     33.3441E-03     189.787E-03    -50.1505E-03    -139.873E-03    -89.3524E-03     139.267E-03    -50.1505E-03     235.488E-03     157.943E+06     99.3622E+06    -14.4889E+06    -13.9554E+06     147.789E+06     108.982E+06    -8.16439E+06         64.3028
            1889     972.852E-06     109.053E-03     611.666E-03    -149.730E-03    -175.446E-03    -168.843E-03     609.522E-03    -154.188E-03    -61.6746E-03     55.1881E-03    -27.4474E-03    -27.7423E-03    -27.5684E-03     55.0142E-03    -27.4474E-03     6.87303E-03     68.2205E+06     58.6230E+06     28.5287E+06     63.0443E+06     33.7049E+06     58.6230E+06    -11.0121E+06         24.1556
            1890     1.94608E-03     109.051E-03     645.218E-03    -164.349E-03    -187.704E-03    -183.605E-03     642.680E-03    -165.909E-03    -20.1659E-03     55.6601E-03    -27.4796E-03    -28.1772E-03    -27.5944E-03     55.0773E-03    -27.4796E-03     13.3364E-03     63.0159E+06     46.1225E+06     22.0904E+06     54.3500E+06     32.0631E+06     44.8156E+06    -15.0853E+06         24.2375
            1891     2.91878E-03     109.047E-03     622.356E-03    -155.244E-03    -179.923E-03    -165.011E-03     621.772E-03    -169.572E-03     34.1347E-03     56.7057E-03    -27.5260E-03    -29.1818E-03    -27.8626E-03     55.3865E-03    -27.5260E-03     20.6057E-03     51.2349E+06     26.3336E+06     3.71081E+06     41.2808E+06     14.9785E+06     25.0199E+06    -17.9603E+06         24.4156
            1892     3.89116E-03     109.045E-03     590.152E-03    -138.826E-03    -166.941E-03    -139.924E-03     589.935E-03    -165.625E-03     19.6945E-03     58.5093E-03    -27.6442E-03    -30.8776E-03    -28.4435E-03     56.0752E-03    -27.6442E-03     28.5804E-03     32.4780E+06     2.33776E+06    -18.1389E+06     23.6147E+06    -7.69027E+06     752.496E+03    -18.1791E+06         24.7568
            1893     4.86256E-03     109.043E-03     594.820E-03    -144.095E-03    -162.119E-03    -144.534E-03     593.944E-03    -160.804E-03     10.1646E-03     61.3277E-03    -27.8945E-03    -33.4333E-03    -29.4477E-03     57.3420E-03    -27.8945E-03     37.5588E-03     7.17248E+06    -19.0747E+06    -40.7458E+06     2.11709E+06    -34.1120E+06    -20.6531E+06    -13.8049E+06         25.3369
            1894     5.83308E-03     109.046E-03     617.543E-03    -157.138E-03    -171.258E-03    -167.674E-03     616.636E-03    -159.815E-03    -11.9654E-03     65.1325E-03    -28.3165E-03    -36.8062E-03    -30.8974E-03     59.2237E-03    -28.3165E-03     47.2453E-03    -15.4886E+06    -32.8926E+06    -60.8177E+06    -18.7812E+06    -57.9093E+06    -32.5085E+06    -8.18749E+06         26.1971
            1895     6.80148E-03     109.052E-03     625.133E-03    -161.508E-03    -177.706E-03    -176.901E-03     624.328E-03    -161.508E-03     23.6412E-03     70.1187E-03    -28.9176E-03    -41.1862E-03    -33.0390E-03     61.9714E-03    -28.9176E-03     57.6549E-03    -27.7275E+06    -39.6332E+06    -73.0823E+06    -35.1640E+06    -71.3866E+06    -33.8924E+06    -3.40952E+06         27.3451
            1896     7.76787E-03     109.065E-03     616.084E-03    -159.905E-03    -170.323E-03    -166.626E-03     615.212E-03    -162.730E-03     44.0596E-03     76.4696E-03    -29.7371E-03    -46.7209E-03    -36.3286E-03     66.0773E-03    -29.7371E-03     68.2436E-03    -25.6656E+06    -45.0531E+06    -77.7137E+06    -45.2125E+06    -76.9515E+06    -26.2683E+06    -1.94222E+06         28.7803
            1897     8.72991E-03     109.084E-03     620.541E-03    -160.161E-03    -169.945E-03    -166.846E-03     620.268E-03    -162.986E-03     18.6342E-03     84.2048E-03    -30.8168E-03    -53.4117E-03    -40.8489E-03     71.6419E-03    -30.8168E-03     79.0905E-03    -15.4168E+06    -48.5525E+06    -78.2844E+06    -49.4889E+06    -77.3480E+06    -15.4168E+06    -3.56835E+06         30.5197
            1898     9.68798E-03     109.113E-03     643.243E-03    -164.032E-03    -187.590E-03    -187.388E-03     643.041E-03    -164.032E-03     23.0459E-03     93.6749E-03    -32.1684E-03    -61.5226E-03    -46.6251E-03     78.7775E-03    -32.1684E-03     91.2982E-03    -5.16259E+06    -47.5220E+06    -71.9405E+06    -49.0459E+06    -70.4167E+06    -5.16259E+06    -5.54492E+06         32.7356
            1899     10.6400E-03     109.153E-03     662.714E-03    -166.401E-03    -205.086E-03    -204.511E-03     662.140E-03    -166.401E-03     43.5359E-03     103.356E-03    -33.8174E-03    -69.5305E-03    -53.6814E-03     87.5071E-03    -33.8174E-03     99.6384E-03    -222.468E+03    -43.0269E+06    -75.2186E+06    -47.4284E+06    -70.8170E+06    -222.468E+03    -10.7760E+06         35.6492
            1900     11.5849E-03     109.197E-03     663.742E-03    -168.736E-03    -203.002E-03    -201.225E-03     661.965E-03    -168.736E-03     74.9430E-03     113.460E-03    -35.7516E-03    -77.6950E-03    -61.7817E-03     97.5470E-03    -35.7516E-03     105.561E-03    -3.84427E+06    -36.7646E+06    -76.4862E+06    -44.6627E+06    -68.5881E+06    -3.84427E+06    -15.2998E+06         39.2421
            1901     12.5225E-03     109.253E-03     653.641E-03    -168.235E-03    -192.863E-03    -189.407E-03     651.799E-03    -169.849E-03     75.9838E-03     126.773E-03    -38.0209E-03    -88.7320E-03    -70.7592E-03     108.800E-03    -38.0209E-03     119.131E-03     3.97452E+06    -23.3138E+06    -54.5555E+06    -38.6033E+06    -39.2660E+06     3.97452E+06    -13.0916E+06         43.5848
            1902     13.4511E-03     109.337E-03     655.117E-03    -168.536E-03    -194.840E-03    -192.680E-03     654.571E-03    -170.150E-03     39.0131E-03     141.265E-03    -40.5442E-03    -100.720E-03    -80.2601E-03     120.806E-03    -40.5442E-03     134.629E-03    -1.81012E+06    -19.2791E+06    -50.6575E+06    -32.1203E+06    -37.4602E+06    -2.16623E+06    -10.8872E+06         48.8012
            1903     14.3740E-03     109.441E-03     666.005E-03    -170.327E-03    -202.894E-03    -202.022E-03     665.133E-03    -170.327E-03     48.2548E-03     160.272E-03    -43.3010E-03    -116.994E-03    -90.1371E-03     133.416E-03    -43.3010E-03     163.483E-03     38.8663E+06     6.98084E+06    -40.4471E+06    -23.9175E+06     19.7443E+06     9.57317E+06    -11.9668E+06         54.6294
            1904     15.2881E-03     109.615E-03     664.339E-03    -169.802E-03    -202.922E-03    -201.978E-03     663.395E-03    -169.802E-03     30.3679E-03     190.826E-03    -46.2433E-03    -144.605E-03    -99.2456E-03     145.467E-03    -46.2433E-03     227.889E-03     109.053E+06     44.8331E+06    -16.4145E+06    -14.7723E+06     107.411E+06     44.8331E+06    -13.5758E+06         60.4367
            1905     16.1986E-03     109.912E-03     649.459E-03    -168.212E-03    -192.070E-03    -191.520E-03     648.908E-03    -168.212E-03     18.6101E-03     197.049E-03    -49.4017E-03    -147.728E-03    -102.235E-03     151.556E-03    -49.4017E-03     231.475E-03     151.472E+06     103.030E+06    -7.60468E+06    -6.56750E+06     137.276E+06     116.188E+06    -9.72403E+06         65.2420
            1906     980.748E-06     110.101E-03     585.200E-03    -143.564E-03    -173.626E-03    -149.872E-03     583.904E-03    -166.022E-03    -3.59306E-03     39.7523E-03    -19.6866E-03    -20.0653E-03    -19.8271E-03     39.5141E-03    -19.6866E-03     6.80036E-03     57.8591E+06     38.8211E+06     29.8784E+06     40.2395E+06     48.8172E+06     37.5020E+06    -6.45698E+06         23.0183
            1907     1.96121E-03     110.099E-03     575.610E-03    -147.894E-03    -164.797E-03    -153.971E-03     574.083E-03    -157.193E-03     39.3789E-03     40.6067E-03    -19.7604E-03    -20.8426E-03    -20.0775E-03     39.8415E-03    -19.7604E-03     13.1191E-03     46.4110E+06     21.6275E+06     14.4252E+06     27.4177E+06     39.5693E+06     15.4767E+06    -7.18536E+06         23.1556
            1908     2.94133E-03     110.097E-03     541.598E-03    -134.546E-03    -154.479E-03    -134.416E-03     540.297E-03    -153.307E-03     54.1448E-03     42.2240E-03    -19.9057E-03    -22.3184E-03    -20.6314E-03     40.5370E-03    -19.9057E-03     20.1448E-03     27.4244E+06     1.18768E+06    -7.12009E+06     9.95020E+06     18.6619E+06    -7.12009E+06    -5.10758E+06         23.4420
            1909     3.92074E-03     110.094E-03     545.121E-03    -132.616E-03    -159.289E-03    -141.494E-03     543.939E-03    -149.229E-03     50.3029E-03     44.8807E-03    -20.1923E-03    -24.6911E-03    -21.6259E-03     41.8155E-03    -20.1923E-03     28.1729E-03     1.65399E+06    -23.5876E+06    -29.4020E+06    -11.9811E+06    -10.7124E+06    -28.6421E+06    -162.184E+03         23.9287
            1910     4.89882E-03     110.095E-03     570.480E-03    -145.339E-03    -163.445E-03    -158.553E-03     569.434E-03    -149.184E-03     15.5063E-03     48.7614E-03    -20.6605E-03    -28.0973E-03    -23.1787E-03     43.8427E-03    -20.6605E-03     37.2925E-03    -24.1691E+06    -41.5959E+06    -52.6368E+06    -34.1175E+06    -41.1100E+06    -43.1744E+06     6.49551E+06         24.6496
            1911     5.87464E-03     110.099E-03     579.358E-03    -147.506E-03    -163.168E-03    -158.802E-03     578.217E-03    -150.730E-03    -3.07014E-03     53.8837E-03    -21.3373E-03    -32.5530E-03    -25.3816E-03     46.7123E-03    -21.3373E-03     47.4177E-03    -39.0205E+06    -49.7652E+06    -72.3415E+06    -52.5609E+06    -61.7990E+06    -46.7673E+06     10.0574E+06         25.6227
            1912     6.84842E-03     110.110E-03     574.785E-03    -143.732E-03    -160.223E-03    -151.095E-03     573.180E-03    -151.255E-03     42.2400E-03     60.5142E-03    -22.2470E-03    -38.2749E-03    -28.5181E-03     50.7574E-03    -22.2470E-03     58.7376E-03    -40.2572E+06    -55.0284E+06    -79.3475E+06    -62.6956E+06    -71.6803E+06    -40.2572E+06     8.12341E+06         26.8566
            1913     7.81828E-03     110.128E-03     571.275E-03    -143.617E-03    -156.518E-03    -146.814E-03     568.695E-03    -150.741E-03     81.9082E-03     68.5966E-03    -23.3995E-03    -45.1978E-03    -32.8417E-03     56.2405E-03    -23.3995E-03     70.6574E-03    -27.8341E+06    -60.2909E+06    -77.5249E+06    -63.7148E+06    -74.1010E+06    -27.8341E+06     3.58902E+06         28.3535
            1914     8.78388E-03     110.154E-03     582.814E-03    -147.882E-03    -166.580E-03    -161.568E-03     580.628E-03    -150.707E-03     70.8107E-03     78.1574E-03    -24.8331E-03    -53.3421E-03    -38.5227E-03     63.3380E-03    -24.8331E-03     83.0457E-03    -13.2522E+06    -58.2923E+06    -73.0461E+06    -59.1509E+06    -72.1875E+06    -13.2522E+06    -1.55036E+06         30.1408
            1915     9.74329E-03     110.191E-03     589.420E-03    -151.564E-03    -168.404E-03    -167.268E-03     588.285E-03    -151.564E-03     51.2320E-03     89.7347E-03    -26.5771E-03    -63.1656E-03    -45.7692E-03     72.3383E-03    -26.5771E-03     97.0169E-03    -1.15614E+06    -48.6192E+06    -68.7653E+06    -51.5600E+06    -65.8245E+06    -1.15614E+06    -6.70134E+06         32.4464
            1916     10.6961E-03     110.244E-03     585.512E-03    -152.152E-03    -163.719E-03    -162.809E-03     584.601E-03    -152.152E-03     50.7365E-03     101.716E-03    -28.6830E-03    -73.0326E-03    -54.7497E-03     83.4334E-03    -28.6830E-03     106.794E-03     5.21982E+06    -40.0175E+06    -69.0802E+06    -44.5386E+06    -64.5590E+06     5.21982E+06    -9.82480E+06         35.5186
            1917     11.6392E-03     110.301E-03     595.384E-03    -152.641E-03    -174.746E-03    -173.248E-03     593.886E-03    -152.641E-03     66.8306E-03     114.555E-03    -31.1651E-03    -83.3956E-03    -65.1670E-03     96.3267E-03    -31.1651E-03     114.391E-03     3.01396E+06    -32.6102E+06    -69.3018E+06    -41.2324E+06    -60.6797E+06     3.01396E+06    -14.4292E+06         39.2857
            1918     12.5725E-03     110.372E-03     612.172E-03    -153.741E-03    -190.217E-03    -188.880E-03     610.835E-03    -153.741E-03     61.7534E-03     130.619E-03    -34.0405E-03    -96.5687E-03    -76.3952E-03     110.446E-03    -34.0405E-03     129.222E-03     5.81038E+06    -20.1558E+06    -58.1968E+06    -36.8249E+06    -41.5276E+06     5.81038E+06    -17.2885E+06         43.8181
            1919     13.4976E-03     110.470E-03     616.447E-03    -155.019E-03    -193.439E-03    -192.966E-03     615.973E-03    -155.019E-03     35.8702E-03     149.649E-03    -37.2822E-03    -112.365E-03    -90.1758E-03     127.459E-03    -37.2822E-03     145.838E-03    -35.0829E+03    -13.7989E+06    -51.2596E+06    -28.2620E+06    -35.5055E+06    -1.32601E+06    -17.0364E+06         49.2744
            1920     14.4075E-03     110.593E-03     612.056E-03    -155.581E-03    -187.384E-03    -186.650E-03     611.322E-03    -155.581E-03     44.4338E-03     172.138E-03    -41.0104E-03    -131.140E-03    -104.525E-03     145.522E-03    -41.0104E-03     171.427E-03     46.0631E+06     20.2907E+06    -37.0979E+06    -19.5797E+06     28.5448E+06     20.2907E+06    -20.4847E+06         55.3301
            1921     15.3056E-03     110.783E-03     607.766E-03    -154.872E-03    -183.784E-03    -183.007E-03     606.989E-03    -154.872E-03     24.9703E-03     200.236E-03    -44.9963E-03    -155.272E-03    -113.515E-03     158.478E-03    -44.9963E-03     227.533E-03     104.988E+06     60.1060E+06    -16.7599E+06    -13.4555E+06     101.684E+06     60.1060E+06    -18.1091E+06         61.3000
            1922     16.2019E-03     111.075E-03     602.284E-03    -153.291E-03    -181.125E-03    -180.713E-03     601.871E-03    -153.291E-03     13.6919E-03     202.617E-03    -48.8958E-03    -153.792E-03    -112.410E-03     161.235E-03    -48.8958E-03     226.776E-03     141.145E+06     106.004E+06    -9.33658E+06    -8.39916E+06     125.468E+06     120.745E+06    -8.51564E+06         66.2967
            1923     988.074E-06     111.133E-03     495.106E-03    -119.261E-03    -156.110E-03    -112.114E-03     487.959E-03    -156.110E-03    -37.5229E-03     25.4418E-03    -12.4296E-03    -13.0129E-03    -12.7287E-03     25.1576E-03    -12.4296E-03     5.99633E-03     52.8700E+06     10.1146E+06     4.51767E+06     8.31387E+06     52.6505E+06     6.53788E+06     883.445E+03         22.0596
            1924     1.97546E-03     111.132E-03     463.883E-03    -107.624E-03    -133.304E-03    -109.920E-03     462.206E-03    -129.331E-03     39.4828E-03     26.9059E-03    -12.7067E-03    -14.1993E-03    -13.3325E-03     26.0391E-03    -12.7067E-03     11.4574E-03     39.3693E+06    -5.41978E+06    -12.3312E+06    -5.51927E+06     37.4356E+06    -10.2980E+06     4.95190E+06         22.2753
            1925     2.96213E-03     111.130E-03     491.475E-03    -122.472E-03    -146.997E-03    -141.196E-03     490.107E-03    -126.905E-03     35.4036E-03     29.1935E-03    -13.0370E-03    -16.1574E-03    -14.2732E-03     27.3093E-03    -13.0370E-03     17.7889E-03     15.3007E+06    -26.0444E+06    -38.1212E+06    -25.4730E+06     9.64649E+06    -33.0385E+06     12.9487E+06         22.6645
            1926     3.94746E-03     111.130E-03     511.343E-03    -130.845E-03    -157.059E-03    -154.216E-03     509.706E-03    -132.052E-03     62.6097E-03     32.6375E-03    -13.5294E-03    -19.1059E-03    -15.6963E-03     29.2279E-03    -13.5294E-03     25.4174E-03    -8.54464E+06    -46.3123E+06    -62.4218E+06    -47.0717E+06    -20.4254E+06    -49.7816E+06     20.6410E+06         23.2563
            1927     4.93093E-03     111.133E-03     515.042E-03    -134.630E-03    -149.251E-03    -146.687E-03     513.685E-03    -135.836E-03     59.0190E-03     37.4016E-03    -14.2308E-03    -23.1625E-03    -17.6912E-03     31.9303E-03    -14.2308E-03     34.5015E-03    -31.1249E+06    -53.7903E+06    -81.0216E+06    -62.7247E+06    -49.4218E+06    -53.7903E+06     23.7700E+06         24.0699
            1928     5.91254E-03     111.142E-03     511.315E-03    -133.517E-03    -141.300E-03    -136.621E-03     509.861E-03    -136.742E-03     60.1504E-03     43.6869E-03    -15.1304E-03    -28.5645E-03    -20.5417E-03     35.6641E-03    -15.1304E-03     45.2303E-03    -40.8491E+06    -50.7627E+06    -87.5087E+06    -68.6929E+06    -62.4040E+06    -48.0236E+06     21.6144E+06         25.1202
            1929     6.89023E-03     111.156E-03     513.941E-03    -128.313E-03    -137.899E-03    -127.361E-03     510.926E-03    -135.836E-03     84.8078E-03     51.7409E-03    -16.2733E-03    -35.4811E-03    -24.5008E-03     40.7607E-03    -16.2733E-03     57.7290E-03    -36.7882E+06    -53.3789E+06    -82.2425E+06    -69.1725E+06    -66.4489E+06    -36.7882E+06     14.2624E+06         26.4158
            1930     7.86401E-03     111.181E-03     534.214E-03    -130.984E-03    -151.479E-03    -142.649E-03     529.683E-03    -135.283E-03     110.150E-03     61.2971E-03    -17.6816E-03    -43.6084E-03    -29.6350E-03     47.3237E-03    -17.6816E-03     71.1861E-03    -24.4077E+06    -61.0423E+06    -73.0997E+06    -67.2260E+06    -66.9159E+06    -24.4077E+06     5.18558E+06         27.9583
            1931     8.83230E-03     111.216E-03     550.350E-03    -136.594E-03    -164.661E-03    -161.484E-03     547.173E-03    -136.594E-03     88.1781E-03     72.5548E-03    -19.3919E-03    -53.1610E-03    -36.2651E-03     55.6589E-03    -19.3919E-03     85.6604E-03    -11.9177E+06    -57.1578E+06    -68.2847E+06    -61.6158E+06    -63.8267E+06    -11.9177E+06    -3.65649E+06         29.7973
            1932     9.79408E-03     111.264E-03     544.608E-03    -138.083E-03    -154.858E-03    -153.769E-03     543.518E-03    -138.083E-03     47.2040E-03     86.3764E-03    -21.4612E-03    -64.9289E-03    -44.9454E-03     66.3930E-03    -21.4612E-03     102.357E-03    -1.81765E+06    -45.4169E+06    -68.2144E+06    -54.2910E+06    -59.3403E+06    -1.81765E+06    -10.3893E+06         32.2062
            1933     10.7467E-03     111.329E-03     540.260E-03    -138.468E-03    -148.366E-03    -147.515E-03     539.409E-03    -138.468E-03     44.7150E-03     100.698E-03    -23.9569E-03    -76.7651E-03    -55.6189E-03     79.5519E-03    -23.9569E-03     114.758E-03     3.30995E+06    -36.3113E+06    -71.6438E+06    -45.7410E+06    -62.2141E+06     3.30995E+06    -13.7818E+06         35.4368
            1934     11.6894E-03     111.403E-03     551.779E-03    -138.775E-03    -159.889E-03    -158.436E-03     550.326E-03    -138.775E-03     63.5743E-03     116.092E-03    -26.9053E-03    -89.1969E-03    -67.9237E-03     94.8190E-03    -26.9053E-03     125.000E-03     6.33042E+06    -25.1209E+06    -64.0456E+06    -36.9262E+06    -52.2403E+06     6.33042E+06    -15.9776E+06         39.3786
            1935     12.6203E-03     111.491E-03     562.928E-03    -139.603E-03    -171.383E-03    -170.285E-03     561.830E-03    -139.603E-03     52.4869E-03     135.987E-03    -30.3569E-03    -105.603E-03    -82.5464E-03     112.931E-03    -30.3569E-03     141.900E-03     10.2499E+06    -11.9908E+06    -54.8444E+06    -30.7866E+06    -36.0486E+06     10.2499E+06    -21.0068E+06         44.1037
            1936     13.5380E-03     111.607E-03     570.140E-03    -140.479E-03    -178.775E-03    -177.965E-03     569.330E-03    -140.479E-03     43.6602E-03     160.506E-03    -34.3207E-03    -126.171E-03    -100.598E-03     134.933E-03    -34.3207E-03     163.330E-03     9.29767E+06    -6.68481E+06    -54.3502E+06    -22.3974E+06    -31.9238E+06     2.58381E+06    -26.6076E+06         49.7978
            1937     14.4356E-03     111.765E-03     567.642E-03    -140.718E-03    -175.803E-03    -174.683E-03     566.522E-03    -140.718E-03     53.7509E-03     185.378E-03    -38.8891E-03    -146.488E-03    -117.129E-03     156.018E-03    -38.8891E-03     188.399E-03     50.7834E+06     28.3275E+06    -34.3721E+06    -14.4976E+06     30.9090E+06     28.3275E+06    -24.1874E+06         56.0917
            1938     15.3237E-03     111.959E-03     557.455E-03    -139.727E-03    -168.001E-03    -167.267E-03     556.721E-03    -139.727E-03     42.6191E-03     212.252E-03    -43.6931E-03    -168.581E-03    -126.731E-03     170.402E-03    -43.6931E-03     237.150E-03     95.5777E+06     66.0152E+06    -15.8475E+06    -13.1477E+06     92.8779E+06     66.0152E+06    -15.1619E+06         62.2099
            1939     16.2112E-03     112.261E-03     563.192E-03    -138.308E-03    -176.632E-03    -176.210E-03     562.770E-03    -138.308E-03     32.2465E-03     210.589E-03    -48.2891E-03    -162.343E-03    -123.608E-03     171.853E-03    -48.2891E-03     225.150E-03     134.923E+06     102.495E+06    -9.69114E+06    -9.06988E+06     115.694E+06     121.103E+06    -7.92168E+06         67.2664
            1940     993.838E-06     112.153E-03     404.761E-03    -88.1322E-03    -128.960E-03    -103.675E-03     398.326E-03    -106.981E-03    -55.1887E-03     14.1100E-03    -6.78255E-03    -7.32810E-03    -7.05628E-03     13.8382E-03    -6.78255E-03     4.51452E-03     44.3989E+06    -30.5565E+06    -39.5957E+06    -35.5699E+06     42.6307E+06    -32.8141E+06     9.43638E+06         21.3496
            1941     1.98671E-03     112.152E-03     421.473E-03    -93.6387E-03    -131.542E-03    -116.717E-03     420.615E-03    -107.607E-03     21.3372E-03     15.8609E-03    -7.14564E-03    -8.71589E-03    -7.90050E-03     15.0455E-03    -7.14564E-03     8.58151E-03     28.2842E+06    -41.8466E+06    -53.9370E+06    -46.9054E+06     21.2869E+06    -41.8809E+06     21.0006E+06         21.6182
            1942     2.97842E-03     112.152E-03     455.364E-03    -114.334E-03    -141.797E-03    -141.132E-03     454.698E-03    -114.334E-03     15.6862E-03     18.6593E-03    -7.63899E-03    -11.0206E-03    -9.19496E-03     16.8336E-03    -7.63899E-03     14.0656E-03     6.85639E+06    -52.9721E+06    -76.7471E+06    -61.3200E+06    -8.57068E+06    -52.9721E+06     31.8383E+06         22.0691
            1943     3.96854E-03     112.154E-03     455.031E-03    -116.905E-03    -136.422E-03    -132.445E-03     454.434E-03    -120.285E-03     29.0889E-03     22.5709E-03    -8.27523E-03    -14.2981E-03    -10.8758E-03     19.1486E-03    -8.27523E-03     21.2262E-03    -9.86237E+06    -60.7037E+06    -95.5849E+06    -72.6769E+06    -32.7704E+06    -60.7037E+06     37.6170E+06         22.7213
            1944     4.95691E-03     112.160E-03     440.160E-03    -113.307E-03    -121.384E-03    -112.789E-03     439.173E-03    -120.915E-03     41.4994E-03     27.9722E-03    -9.09748E-03    -18.8733E-03    -13.1980E-03     22.2970E-03    -9.09748E-03     30.4262E-03    -28.8340E+06    -58.6273E+06    -101.316E+06    -78.4062E+06    -51.7435E+06    -58.6273E+06     33.6671E+06         23.5910
            1945     5.94222E-03     112.172E-03     455.728E-03    -115.628E-03    -124.152E-03    -118.823E-03     454.626E-03    -119.856E-03     39.5745E-03     35.0222E-03    -10.1120E-03    -24.9098E-03    -16.3941E-03     26.5064E-03    -10.1120E-03     41.7297E-03    -41.2769E+06    -50.2610E+06    -94.5664E+06    -77.3119E+06    -58.6876E+06    -50.1049E+06     24.3704E+06         24.6902
            1946     6.92465E-03     112.193E-03     477.681E-03    -120.491E-03    -136.275E-03    -134.154E-03     475.559E-03    -120.491E-03     55.7156E-03     43.9200E-03    -11.3655E-03    -32.5569E-03    -20.6618E-03     32.0249E-03    -11.3655E-03     55.3224E-03    -37.3231E+06    -48.1708E+06    -83.1134E+06    -71.9534E+06    -59.3308E+06    -37.3231E+06     15.1731E+06         26.0262
            1947     7.90201E-03     112.226E-03     491.378E-03    -122.370E-03    -145.590E-03    -142.213E-03     488.000E-03    -122.370E-03     88.0255E-03     54.6200E-03    -12.9037E-03    -41.7125E-03    -26.2880E-03     39.1954E-03    -12.9037E-03     70.5488E-03    -22.7717E+06    -52.1717E+06    -70.2038E+06    -65.5158E+06    -56.8597E+06    -22.7717E+06     5.17744E+06         27.6021
            1948     8.87361E-03     112.269E-03     495.494E-03    -124.139E-03    -144.410E-03    -142.327E-03     493.411E-03    -124.139E-03     65.1564E-03     67.4986E-03    -14.7679E-03    -52.7295E-03    -33.6834E-03     48.4525E-03    -14.7679E-03     87.6921E-03    -10.4769E+06    -47.5373E+06    -64.0775E+06    -58.9896E+06    -52.6252E+06    -10.4769E+06    -5.46765E+06         29.4953
            1949     9.83766E-03     112.329E-03     496.921E-03    -125.217E-03    -141.414E-03    -141.003E-03     496.509E-03    -125.217E-03     29.6885E-03     83.4818E-03    -17.0275E-03    -66.4428E-03    -43.4431E-03     60.4821E-03    -17.0275E-03     107.944E-03    -2.43875E+06    -38.5807E+06    -66.4674E+06    -52.1750E+06    -52.8731E+06    -2.43875E+06    -13.0905E+06         32.0110
            1950     10.7923E-03     112.411E-03     505.317E-03    -125.814E-03    -143.746E-03    -142.414E-03     503.985E-03    -125.814E-03     49.5143E-03     100.042E-03    -19.7732E-03    -80.2764E-03    -55.5240E-03     75.2897E-03    -19.7732E-03     123.831E-03     1.94515E+06    -30.0989E+06    -70.5434E+06    -44.7087E+06    -55.9336E+06     1.94515E+06    -18.9783E+06         35.3853
            1951     11.7346E-03     112.500E-03     510.435E-03    -126.199E-03    -147.477E-03    -144.841E-03     507.800E-03    -126.199E-03     79.9467E-03     118.151E-03    -23.0618E-03    -95.0928E-03    -69.8595E-03     92.9174E-03    -23.0618E-03     137.575E-03     5.53858E+06    -19.1890E+06    -66.0466E+06    -36.1364E+06    -49.0991E+06     5.53858E+06    -22.0447E+06         39.4824
            1952     12.6642E-03     112.611E-03     507.788E-03    -126.359E-03    -150.034E-03    -148.249E-03     506.003E-03    -126.359E-03     63.3787E-03     142.889E-03    -26.9752E-03    -115.879E-03    -88.0713E-03     115.082E-03    -26.9752E-03     160.097E-03     13.7636E+06    -1.12166E+06    -53.1406E+06    -28.1005E+06    -26.1617E+06     13.7636E+06    -24.2692E+06         44.3830
            1953     13.5737E-03     112.757E-03     507.922E-03    -126.233E-03    -153.610E-03    -152.359E-03     506.671E-03    -126.233E-03     55.4326E-03     171.218E-03    -31.5024E-03    -139.708E-03    -108.473E-03     139.983E-03    -31.5024E-03     186.756E-03     13.6952E+06     917.952E+03    -57.0403E+06    -26.0928E+06    -21.6642E+06     5.32980E+06    -31.9742E+06         50.2869
            1954     14.4708E-03     112.939E-03     509.322E-03    -125.722E-03    -154.890E-03    -153.796E-03     508.228E-03    -125.722E-03     42.6916E-03     197.327E-03    -36.6376E-03    -160.674E-03    -126.226E-03     162.880E-03    -36.6376E-03     211.076E-03     41.7233E+06     21.7765E+06    -46.6715E+06    -24.5615E+06     19.6133E+06     21.7765E+06    -28.0226E+06         56.7923
            1955     15.3519E-03     113.156E-03     515.688E-03    -124.758E-03    -159.844E-03    -158.786E-03     514.630E-03    -124.758E-03     41.1367E-03     224.304E-03    -42.0833E-03    -182.193E-03    -138.356E-03     180.467E-03    -42.0833E-03     251.642E-03     84.9771E+06     65.5467E+06    -19.6156E+06    -16.8099E+06     82.1714E+06     65.5467E+06    -14.8524E+06         63.0196
            1956     16.2252E-03     113.459E-03     524.253E-03    -123.906E-03    -167.081E-03    -166.136E-03     523.308E-03    -123.906E-03     37.1813E-03     221.932E-03    -47.4437E-03    -174.476E-03    -138.188E-03     185.644E-03    -47.4437E-03     224.380E-03     133.598E+06     101.114E+06    -8.41802E+06    -7.69086E+06     108.236E+06     125.749E+06    -8.50378E+06         68.0297
            1957     996.814E-06     113.161E-03     365.154E-03    -87.6039E-03    -118.363E-03    -112.828E-03     359.619E-03    -87.6039E-03    -74.9057E-03     6.89953E-03    -3.28398E-03    -3.61545E-03    -3.41240E-03     6.70722E-03    -3.29471E-03     2.60330E-03     18.0451E+06    -71.1967E+06    -91.8513E+06    -83.6669E+06     9.86063E+06    -71.1967E+06     26.0933E+06         20.8560
            1958     1.99364E-03     113.162E-03     394.931E-03    -99.8701E-03    -127.697E-03    -119.479E-03     390.920E-03    -104.076E-03     17.7303E-03     8.43135E-03    -3.60867E-03    -4.82206E-03    -4.18123E-03     7.79052E-03    -3.60867E-03     5.56912E-03     11.1774E+06    -71.5714E+06    -105.045E+06    -90.9678E+06    -2.89956E+06    -71.5714E+06     37.2473E+06         21.1462
            1959     2.98886E-03     113.164E-03     400.854E-03    -103.609E-03    -116.563E-03    -108.750E-03     397.452E-03    -108.020E-03     69.0885E-03     11.1082E-03    -4.08802E-03    -7.01947E-03    -5.45369E-03     9.54246E-03    -4.08802E-03     10.0636E-03    -6.78935E+06    -69.9972E+06    -111.006E+06    -90.3465E+06    -27.4489E+06    -69.9972E+06     41.0814E+06         21.6258
            1960     3.98281E-03     113.169E-03     405.799E-03    -105.836E-03    -113.430E-03    -109.504E-03     404.253E-03    -108.216E-03     38.3431E-03     15.1096E-03    -4.70303E-03    -10.4092E-03    -7.18295E-03     11.8834E-03    -4.70303E-03     16.8387E-03    -17.2873E+06    -65.9539E+06    -108.665E+06    -82.2664E+06    -43.6859E+06    -65.9539E+06     41.1655E+06         22.3087
            1961     4.97459E-03     113.177E-03     409.369E-03    -102.030E-03    -117.614E-03    -110.312E-03     408.469E-03    -108.431E-03     37.2673E-03     20.8076E-03    -5.48798E-03    -15.3187E-03    -9.63857E-03     15.1274E-03    -5.48798E-03     26.2012E-03    -24.4144E+06    -59.2525E+06    -101.768E+06    -75.6010E+06    -50.5809E+06    -59.2525E+06     36.5142E+06         23.2068
            1962     5.96391E-03     113.195E-03     423.151E-03    -105.035E-03    -123.770E-03    -118.806E-03     422.415E-03    -109.263E-03     25.4488E-03     28.2031E-03    -6.48766E-03    -21.7081E-03    -12.8868E-03     19.3817E-03    -6.48766E-03     37.9908E-03    -33.9439E+06    -50.5721E+06    -92.0671E+06    -74.0044E+06    -52.0375E+06    -50.5413E+06     26.5332E+06         24.3307
            1963     6.94921E-03     113.221E-03     443.726E-03    -111.388E-03    -134.567E-03    -132.855E-03     442.014E-03    -111.388E-03     38.6617E-03     37.5495E-03    -7.73047E-03    -29.8177E-03    -17.1045E-03     24.8363E-03    -7.73047E-03     52.6298E-03    -36.0650E+06    -45.9345E+06    -79.8803E+06    -71.9665E+06    -50.8259E+06    -39.0873E+06     14.5619E+06         25.6882
            1964     7.93076E-03     113.261E-03     442.042E-03    -112.046E-03    -128.047E-03    -123.889E-03     439.085E-03    -113.246E-03     76.4863E-03     48.8856E-03    -9.24747E-03    -39.6466E-03    -22.7398E-03     31.9788E-03    -9.24747E-03     69.5009E-03    -25.0388E+06    -42.9224E+06    -67.2528E+06    -65.2789E+06    -44.8963E+06    -25.0388E+06     2.60631E+06         27.2844
            1965     8.90618E-03     113.315E-03     430.494E-03    -111.784E-03    -118.222E-03    -114.416E-03     428.321E-03    -113.417E-03     66.3792E-03     63.0065E-03    -11.1074E-03    -51.9133E-03    -30.4713E-03     41.5646E-03    -11.1074E-03     89.4231E-03    -11.9007E+06    -36.8548E+06    -61.8185E+06    -57.1932E+06    -41.4800E+06    -11.9007E+06    -8.13869E+06         29.2215
            1966     9.87359E-03     113.388E-03     442.116E-03    -112.797E-03    -127.012E-03    -125.274E-03     440.810E-03    -113.228E-03     50.7880E-03     80.9305E-03    -13.4018E-03    -67.5185E-03    -40.9721E-03     54.3841E-03    -13.4018E-03     113.629E-03      -2.122E+06    -28.8465E+06    -64.4214E+06    -48.6311E+06    -44.6368E+06      -2.122E+06    -16.5651E+06         31.8288
            1967     10.8307E-03     113.486E-03     453.308E-03    -113.526E-03    -133.833E-03    -131.929E-03     451.404E-03    -113.526E-03     63.2104E-03     99.5063E-03    -16.2272E-03    -83.2682E-03    -54.0812E-03     70.3194E-03    -16.2272E-03     133.588E-03     3.78721E+06    -18.9099E+06    -67.8071E+06    -40.1700E+06    -46.5470E+06     3.78721E+06    -23.5245E+06         35.3242
            1968     11.7753E-03     113.596E-03     454.117E-03    -113.632E-03    -131.767E-03    -128.641E-03     450.992E-03    -113.632E-03     85.1119E-03     120.860E-03    -19.6773E-03    -101.183E-03    -70.5942E-03     90.2718E-03    -19.6773E-03     152.778E-03     6.66738E+06    -9.63995E+06    -68.0605E+06    -31.7301E+06    -45.9703E+06     6.66738E+06    -28.1629E+06         39.5534
            1969     12.7030E-03     113.731E-03     458.028E-03    -113.317E-03    -133.880E-03    -131.917E-03     456.066E-03    -113.317E-03     63.5917E-03     149.460E-03    -23.8336E-03    -125.600E-03    -90.9383E-03     114.798E-03    -23.8336E-03     182.335E-03     15.3040E+06     6.43473E+06    -52.6399E+06    -24.2422E+06    -21.9630E+06     15.3040E+06    -27.3974E+06         44.6037
            1970     13.6150E-03     113.910E-03     458.837E-03    -112.817E-03    -138.402E-03    -137.258E-03     457.693E-03    -112.817E-03     51.1047E-03     181.028E-03    -28.6951E-03    -152.318E-03    -113.795E-03     142.506E-03    -28.6951E-03     212.866E-03     13.5522E+06     5.54832E+06    -44.9677E+06    -23.9343E+06    -12.8988E+06     10.9659E+06    -25.1802E+06         50.6687
            1971     14.5049E-03     114.117E-03     463.499E-03    -112.184E-03    -141.589E-03    -140.684E-03     462.594E-03    -112.184E-03     35.6955E-03     208.762E-03    -34.2330E-03    -174.507E-03    -134.106E-03     168.361E-03    -34.2330E-03     235.250E-03     36.8764E+06     16.9261E+06    -43.9252E+06    -26.8839E+06     16.8388E+06     19.9224E+06    -26.9024E+06         57.3190
            1972     15.3800E-03     114.364E-03     470.912E-03    -111.339E-03    -147.099E-03    -145.843E-03     469.657E-03    -111.339E-03     42.5629E-03     236.746E-03    -40.2284E-03    -196.477E-03    -149.654E-03     189.922E-03    -40.2284E-03     268.855E-03     76.7935E+06     57.8170E+06    -29.0926E+06    -21.9015E+06     69.6025E+06     57.8170E+06    -24.7336E+06         63.6109
            1973     16.2483E-03     114.674E-03     467.773E-03    -110.437E-03    -146.096E-03    -144.913E-03     466.590E-03    -110.437E-03     39.7589E-03     236.845E-03    -46.3960E-03    -190.428E-03    -155.629E-03     202.046E-03    -46.3960E-03     226.415E-03     125.631E+06     91.7976E+06    -14.0094E+06    -10.9025E+06     93.2996E+06     121.022E+06    -13.3757E+06         68.5823
            1974     998.628E-06     114.166E-03     352.024E-03    -101.524E-03    -114.032E-03    -99.3587E-03     340.836E-03    -105.010E-03    -13.8207E-03     3.49382E-03    -1.65538E-03    -1.83818E-03    -1.70657E-03     3.37294E-03    -1.66611E-03     1.36095E-03    -27.0320E+06    -100.247E+06    -123.085E+06    -105.504E+06    -43.4971E+06    -101.364E+06     34.4408E+06         20.5353
            1975     1.99620E-03     114.167E-03     350.129E-03    -96.0588E-03    -106.963E-03    -92.7634E-03     340.135E-03    -100.265E-03     60.1640E-03     4.58553E-03    -1.86884E-03    -2.71575E-03    -2.16484E-03     4.03462E-03    -1.86884E-03     3.71768E-03    -5.41032E+06    -83.9654E+06    -124.344E+06    -99.7931E+06    -29.9609E+06    -83.9654E+06     46.4753E+06         20.8320
            1976     2.99371E-03     114.171E-03     345.874E-03    -86.4933E-03    -99.3620E-03    -85.8180E-03     342.400E-03    -96.5631E-03     67.7250E-03     6.82832E-03    -2.19166E-03    -4.63551E-03    -3.14691E-03     5.33972E-03    -2.19166E-03     7.59375E-03    -15.5242E+06    -78.9733E+06    -121.928E+06    -96.9893E+06    -40.4632E+06    -78.9733E+06     44.4691E+06         21.3199
            1977     3.99002E-03     114.177E-03     359.045E-03    -88.6948E-03    -101.056E-03    -93.4630E-03     357.316E-03    -94.5588E-03     45.4073E-03     10.5930E-03    -2.66992E-03    -7.92110E-03    -4.77830E-03     7.45025E-03    -2.66992E-03     13.8243E-03    -27.5059E+06    -78.1175E+06    -119.403E+06    -95.8834E+06    -51.0257E+06    -78.1175E+06     39.4755E+06         22.0108
            1978     4.98476E-03     114.190E-03     384.428E-03    -96.0515E-03    -115.812E-03    -114.088E-03     382.704E-03    -96.0515E-03     55.9842E-03     16.0184E-03    -3.33770E-03    -12.6765E-03    -7.00033E-03     10.3423E-03    -3.33770E-03     22.7995E-03    -29.3644E+06    -71.5806E+06    -106.857E+06    -88.0563E+06    -48.1650E+06    -71.5806E+06     31.0402E+06         22.9148
            1979     5.97657E-03     114.211E-03     392.844E-03    -99.3219E-03    -124.118E-03    -120.532E-03     389.258E-03    -99.3219E-03     71.7066E-03     23.2349E-03    -4.22374E-03    -19.0039E-03    -9.92961E-03     14.1606E-03    -4.22374E-03     34.6304E-03    -32.5583E+06    -57.3064E+06     -85.061E+06    -72.4248E+06    -45.1945E+06    -57.3064E+06     20.5662E+06         24.0419
            1980     6.96574E-03     114.243E-03     393.528E-03    -101.617E-03    -121.677E-03    -115.458E-03     387.309E-03    -101.617E-03     97.2828E-03     32.8219E-03    -5.35052E-03    -27.4681E-03    -13.9516E-03     19.3054E-03    -5.35052E-03     50.2173E-03    -31.9113E+06    -42.1798E+06    -64.2952E+06    -58.0367E+06    -41.7295E+06    -38.6201E+06     11.2230E+06         25.4010
            1981     7.95002E-03     114.289E-03     387.858E-03    -101.060E-03    -113.805E-03    -107.046E-03     382.300E-03    -102.261E-03     101.355E-03     44.5213E-03    -6.74057E-03    -37.7852E-03    -19.3490E-03     26.0850E-03    -6.74057E-03     68.5487E-03    -22.2058E+06    -33.3598E+06    -53.7015E+06    -52.2609E+06    -34.2426E+06    -22.7637E+06     2.21885E+06         27.0008
            1982     8.92925E-03     114.353E-03     383.903E-03    -100.295E-03    -110.517E-03    -105.144E-03     380.161E-03    -101.927E-03     84.3027E-03     59.5116E-03    -8.46855E-03    -51.0553E-03    -26.9092E-03     35.3654E-03    -8.46855E-03     91.2515E-03    -10.5831E+06    -25.6894E+06    -54.8980E+06    -50.9972E+06    -29.5903E+06    -10.5831E+06    -7.86449E+06         28.9616
            1983     9.90080E-03     114.439E-03     388.963E-03    -101.167E-03    -114.555E-03    -111.471E-03     386.310E-03    -101.598E-03     67.7048E-03     78.8139E-03    -10.6388E-03    -68.1883E-03    -37.5377E-03     48.1633E-03    -10.6388E-03     119.276E-03    -1.40398E+06    -17.6061E+06    -62.2969E+06    -47.5056E+06    -32.3974E+06    -1.40398E+06    -19.6502E+06         31.6300
            1984     10.8619E-03     114.554E-03     400.209E-03    -101.723E-03    -123.074E-03    -120.790E-03     397.926E-03    -101.723E-03     65.1775E-03     99.1689E-03    -13.3654E-03    -85.8067E-03    -51.2642E-03     64.6264E-03    -13.3654E-03     143.836E-03     4.21907E+06    -10.6591E+06    -67.5834E+06    -40.6486E+06    -37.5939E+06     4.21907E+06    -28.1491E+06         35.2130
            1985     11.8097E-03     114.684E-03     407.968E-03    -101.982E-03    -125.209E-03    -122.331E-03     405.089E-03    -101.982E-03     76.5615E-03     123.564E-03    -16.7716E-03    -106.792E-03    -69.2141E-03     85.9861E-03    -16.7716E-03     169.903E-03     6.67070E+06    -5.08273E+06    -70.4725E+06    -34.8583E+06    -40.6969E+06     6.67070E+06    -32.4111E+06         39.5427
            1986     12.7407E-03     114.850E-03     406.002E-03    -101.753E-03    -118.947E-03    -117.571E-03     404.626E-03    -101.753E-03     51.1159E-03     155.243E-03    -20.9594E-03    -134.265E-03    -91.7506E-03     112.728E-03    -20.9594E-03     204.676E-03     11.2624E+06     4.21240E+06    -59.9758E+06    -30.9242E+06    -24.8392E+06     11.2624E+06    -30.8239E+06         44.7052
            1987     13.6531E-03     115.055E-03     411.444E-03    -100.988E-03    -120.592E-03    -119.594E-03     410.446E-03    -100.988E-03     45.1082E-03     189.919E-03    -25.9735E-03    -163.908E-03    -116.948E-03     142.959E-03    -25.9735E-03     239.778E-03     14.8352E+06     9.61379E+06    -46.2341E+06    -23.0379E+06    -13.3999E+06     14.6527E+06    -26.9198E+06         50.8870
            1988     14.5425E-03     115.310E-03     422.098E-03    -100.117E-03    -129.734E-03    -128.557E-03     420.921E-03    -100.117E-03     49.0601E-03     219.930E-03    -31.7701E-03    -188.136E-03    -140.017E-03     171.811E-03    -31.7701E-03     262.839E-03     43.0836E+06     30.4375E+06    -29.7094E+06    -12.2880E+06     22.1638E+06     33.9359E+06    -25.0772E+06         57.6280
            1989     15.4148E-03     115.568E-03     421.157E-03    -99.1573E-03    -134.694E-03    -133.697E-03     420.160E-03    -99.1573E-03     43.3400E-03     253.885E-03    -38.2446E-03    -215.621E-03    -163.287E-03     201.551E-03    -38.2446E-03     295.471E-03     81.4124E+06     62.3487E+06    -13.6677E+06    -7.32325E+06     68.0158E+06     69.4009E+06    -20.2771E+06         63.9265
            1990     16.2642E-03     115.921E-03     413.552E-03    -98.1567E-03    -127.537E-03    -126.900E-03     412.915E-03    -98.1567E-03     18.8018E-03     257.152E-03    -45.2675E-03    -211.876E-03    -176.568E-03     221.844E-03    -45.2675E-03     235.148E-03     124.459E+06     78.0200E+06    -11.8656E+06    -8.65744E+06     77.8582E+06     121.413E+06    -12.3698E+06         68.8686
            1991     998.338E-06     115.168E-03     328.806E-03    -88.8745E-03    -107.032E-03    -83.0703E-03     308.330E-03    -92.3608E-03    -21.4724E-03     2.34227E-03    -1.13549E-03    -1.20676E-03    -1.14150E-03     2.28233E-03    -1.14081E-03     736.639E-06    -79.3373E+06    -165.000E+06    -179.486E+06    -163.615E+06    -89.2525E+06    -170.956E+06     16.7080E+06         20.3753
            1992     1.99756E-03     115.171E-03     326.484E-03    -87.5891E-03    -101.302E-03    -93.5219E-03     319.978E-03    -88.8630E-03     63.2087E-03     2.80784E-03    -1.16788E-03    -1.63956E-03    -1.25345E-03     2.42500E-03    -1.17115E-03     2.33140E-03    -41.0917E+06    -134.901E+06    -161.906E+06    -135.077E+06    -57.8440E+06    -144.979E+06     29.7350E+06         20.6670
            1993     2.99608E-03     115.174E-03     315.352E-03    -77.4538E-03    -91.2939E-03    -79.4398E-03     314.539E-03    -88.4950E-03     30.3081E-03     4.69978E-03    -1.37281E-03    -3.32617E-03    -1.94821E-03     3.32182E-03    -1.37281E-03     5.99593E-03    -32.3107E+06    -107.584E+06    -136.363E+06    -109.121E+06    -51.4116E+06    -115.725E+06     34.7559E+06         21.1480
            1994     3.99318E-03     115.183E-03     313.737E-03    -75.9548E-03    -88.2815E-03    -76.0616E-03     311.284E-03    -85.7221E-03     48.2570E-03     8.54475E-03    -1.77265E-03    -6.77114E-03    -3.46151E-03     5.23512E-03    -1.77265E-03     12.5702E-03    -34.9578E+06    -85.5124E+06    -112.576E+06    -88.3687E+06    -53.6769E+06    -91.0009E+06     30.7905E+06         21.8290
            1995     4.98818E-03     115.198E-03     329.046E-03    -84.7929E-03    -95.7791E-03    -92.5176E-03     326.106E-03    -85.1145E-03     53.7310E-03     13.8840E-03    -2.34254E-03    -11.5405E-03    -5.51255E-03     7.85603E-03    -2.34254E-03     21.5942E-03    -29.8155E+06    -69.9258E+06    -89.9082E+06    -73.8400E+06    -42.2177E+06    -73.5920E+06     21.1481E+06         22.7193
            1996     5.98213E-03     115.223E-03     335.729E-03    -86.5840E-03    -107.137E-03    -102.964E-03     331.877E-03    -86.9057E-03     68.5395E-03     20.7354E-03    -3.10933E-03    -17.6275E-03    -8.14667E-03     11.2545E-03    -3.10933E-03     33.0788E-03    -34.4244E+06    -60.6990E+06     -74.564E+06    -67.9834E+06    -39.9244E+06    -61.7796E+06     12.0842E+06         23.8282
            1997     6.97330E-03     115.258E-03     336.355E-03    -88.8246E-03    -108.936E-03    -103.339E-03     330.758E-03    -88.8246E-03     90.5418E-03     29.8048E-03    -4.07765E-03    -25.7253E-03    -11.5909E-03     15.6704E-03    -4.07765E-03     48.3519E-03    -32.5915E+06    -49.0779E+06    -67.2581E+06    -64.8733E+06    -34.9763E+06    -49.0779E+06     5.34543E+06         25.1661
            1998     7.96124E-03     115.312E-03     335.799E-03    -89.8560E-03    -104.500E-03    -99.5891E-03     330.889E-03    -89.8560E-03     84.5270E-03     41.3171E-03    -5.28920E-03    -36.0193E-03    -16.3065E-03     21.6043E-03    -5.28920E-03     67.3591E-03    -18.0264E+06    -33.6540E+06    -57.0195E+06    -54.5010E+06    -24.4945E+06    -29.7043E+06    -3.23128E+06         26.7450
            1999     8.94382E-03     115.383E-03     342.134E-03    -90.4024E-03    -107.825E-03    -103.669E-03     337.979E-03    -90.4024E-03     83.7920E-03     56.9736E-03    -6.82782E-03    -50.1493E-03    -23.4668E-03     30.2912E-03    -6.82782E-03     92.5875E-03    -4.48097E+06    -16.6645E+06    -46.7944E+06    -39.1175E+06    -20.1964E+06    -8.62593E+06    -11.0477E+06         28.6993
            2000     9.91921E-03     115.483E-03     348.361E-03    -90.7781E-03    -107.269E-03    -104.269E-03     345.361E-03    -90.7781E-03     69.8905E-03     77.0284E-03    -8.77937E-03    -68.2585E-03    -33.6590E-03     42.4289E-03    -8.77937E-03     123.654E-03     5.48207E+06    -6.16581E+06    -46.2082E+06    -32.2039E+06    -20.1702E+06     5.48207E+06    -16.6167E+06         31.3895
            2001     10.8854E-03     115.612E-03     358.225E-03    -90.9345E-03    -112.109E-03    -108.351E-03     354.467E-03    -90.9345E-03     80.6618E-03     98.8358E-03    -11.2723E-03    -87.5653E-03    -47.4080E-03     58.6785E-03    -11.2723E-03     152.986E-03     9.69907E+06    -4.99902E+06    -56.6562E+06    -35.0363E+06    -26.6190E+06     9.69907E+06    -24.7574E+06         35.0149
            2002     11.8380E-03     115.768E-03     365.942E-03    -91.1587E-03    -121.159E-03    -117.280E-03     362.063E-03    -91.1587E-03     84.5307E-03     125.741E-03    -14.4864E-03    -111.248E-03    -66.4579E-03     80.9509E-03    -14.4864E-03     185.286E-03     11.0357E+06    -2.64104E+06    -66.7412E+06    -36.7420E+06    -32.6402E+06     11.0357E+06    -31.8159E+06         39.3970
            2003     12.7738E-03     115.960E-03     367.588E-03    -91.1266E-03    -117.995E-03    -115.457E-03     365.050E-03    -91.1266E-03     65.8163E-03     160.517E-03    -18.5663E-03    -141.932E-03    -91.1785E-03     109.763E-03    -18.5663E-03     225.748E-03     14.7362E+06     5.81292E+06    -64.0438E+06    -32.5826E+06    -25.6483E+06     14.7362E+06    -33.9084E+06         44.6204
            2004     13.6857E-03     116.204E-03     368.622E-03    -90.4644E-03    -114.168E-03    -112.226E-03     366.680E-03    -90.4644E-03     57.0816E-03     196.933E-03    -23.5439E-03    -173.360E-03    -117.565E-03     141.138E-03    -23.5439E-03     264.647E-03     22.3335E+06     19.1983E+06    -55.9354E+06    -24.8646E+06    -11.1229E+06     21.5839E+06    -36.0958E+06         50.8799
            2005     14.5824E-03     116.485E-03     365.788E-03    -89.4379E-03    -112.949E-03    -111.686E-03     364.525E-03    -89.4379E-03     48.4404E-03     230.271E-03    -29.4202E-03    -200.830E-03    -144.572E-03     174.013E-03    -29.4202E-03     289.934E-03     42.0766E+06     40.6605E+06    -42.2532E+06    -18.1082E+06     17.2651E+06     41.3270E+06    -35.5143E+06         57.6695
            2006     15.4515E-03     116.795E-03     364.655E-03    -88.3229E-03    -120.446E-03    -119.806E-03     364.014E-03    -88.3229E-03     32.3101E-03     272.683E-03    -36.2835E-03    -236.405E-03    -177.286E-03     213.564E-03    -36.2835E-03     326.144E-03     73.1240E+06     60.9458E+06    -18.7307E+06    -8.55999E+06     50.7751E+06     73.1240E+06    -22.1791E+06         63.9309
            2007     16.2894E-03     117.195E-03     364.696E-03    -87.4555E-03    -118.748E-03    -118.441E-03     364.388E-03    -87.4555E-03     10.3636E-03     279.634E-03    -44.1452E-03    -235.523E-03    -198.254E-03     242.366E-03    -44.1452E-03     248.508E-03     128.571E+06     69.1563E+06    -4.13189E+06    -1.02525E+06     66.0497E+06     128.571E+06    -5.15840E+06         68.7709
            2008     998.077E-06     116.171E-03     315.254E-03    -89.1996E-03    -125.625E-03    -100.745E-03     299.717E-03    -98.5432E-03    -77.6599E-03     3.25895E-03    -1.60503E-03    -1.65379E-03    -1.59492E-03     3.24884E-03    -1.65379E-03     119.092E-06    -98.5533E+06    -198.283E+06    -209.504E+06    -202.378E+06    -99.5569E+06    -204.406E+06    -5.48333E+06         20.3801
            2009     1.99578E-03     116.172E-03     292.653E-03    -75.1575E-03    -105.830E-03    -83.3335E-03     291.430E-03    -96.4309E-03     3.15349E-03     3.30614E-03    -1.59025E-03    -1.71563E-03    -1.58093E-03     3.20356E-03    -1.62237E-03     825.545E-06    -71.0078E+06    -176.982E+06    -193.693E+06    -180.709E+06    -73.9148E+06    -187.060E+06    -4.01626E+06         20.6559
            2010     2.99431E-03     116.177E-03     281.165E-03    -71.9426E-03    -89.9446E-03    -70.3549E-03     279.577E-03    -89.9446E-03    -13.0597E-03     4.34225E-03    -1.69155E-03    -2.65049E-03    -1.91533E-03     3.62668E-03    -1.71114E-03     3.61330E-03    -53.3225E+06    -149.991E+06    -161.786E+06    -147.730E+06    -59.2381E+06    -158.132E+06     1.60376E+06         21.1156
            2011     3.99278E-03     116.187E-03     279.872E-03    -69.6026E-03    -84.5852E-03    -66.6004E-03     276.783E-03    -84.4981E-03     15.6487E-03     7.22086E-03    -1.92710E-03    -5.29365E-03    -2.94535E-03     4.87256E-03    -1.92710E-03     9.46741E-03    -42.6573E+06    -120.237E+06    -132.845E+06    -111.963E+06    -52.3689E+06    -131.408E+06     472.050E+03         21.7704
            2012     4.98999E-03     116.206E-03     272.752E-03    -68.2599E-03    -80.9152E-03    -66.1862E-03     270.591E-03    -80.8281E-03     13.4762E-03     11.8889E-03    -2.28663E-03    -9.60322E-03    -4.65605E-03     6.94167E-03    -2.28663E-03     17.9970E-03    -30.5442E+06    -90.8481E+06    -112.952E+06    -81.6777E+06    -39.7146E+06    -112.952E+06    -437.209E+03         22.6293
            2013     5.98390E-03     116.232E-03     280.653E-03    -75.9479E-03    -89.1398E-03    -84.1403E-03     279.399E-03    -79.6928E-03     22.1623E-03     18.7824E-03    -2.95287E-03    -15.8340E-03    -7.13451E-03     10.0829E-03    -2.95287E-03     30.0086E-03    -29.2683E+06    -64.8884E+06    -86.2511E+06    -59.7901E+06    -38.6012E+06    -82.0165E+06     926.869E+03         23.7000
            2014     6.97487E-03     116.273E-03     284.803E-03    -79.4034E-03    -93.4537E-03    -90.9225E-03     283.514E-03    -80.6455E-03     31.0057E-03     27.9101E-03    -3.85123E-03    -24.0603E-03    -10.3093E-03     14.1591E-03    -3.85123E-03     45.8446E-03    -20.7056E+06    -42.6530E+06    -58.9275E+06    -45.2309E+06    -29.6526E+06    -47.4026E+06    -1.19754E+06         24.9903
            2015     7.96360E-03     116.329E-03     285.166E-03    -80.4276E-03    -94.5410E-03    -90.7868E-03     282.654E-03    -81.6697E-03     44.4252E-03     39.2752E-03    -4.90986E-03    -34.3607E-03    -14.6069E-03     19.5214E-03    -4.90986E-03     65.2489E-03    -10.3978E+06    -24.9087E+06    -46.6252E+06    -40.3036E+06    -15.2617E+06    -26.3664E+06    -7.31116E+06         26.5147
            2016     8.94902E-03     116.409E-03     295.403E-03    -82.2028E-03    -97.1756E-03    -94.0993E-03     292.599E-03    -82.4753E-03     50.8840E-03     54.6546E-03    -6.25226E-03    -48.4014E-03    -20.9453E-03     27.1984E-03    -6.25226E-03     91.1141E-03    -4.71245E+06    -14.0864E+06    -52.1218E+06    -44.3386E+06    -14.0463E+06    -12.5358E+06    -12.6593E+06         28.4212
            2017     9.92806E-03     116.519E-03     299.737E-03    -82.7303E-03    -93.3935E-03    -91.7404E-03     298.357E-03    -83.0029E-03     28.9004E-03     74.5343E-03    -7.95599E-03    -66.5780E-03    -29.8964E-03     37.8527E-03    -7.95599E-03     123.746E-03     7.43861E+06    -4.70386E+06    -54.4806E+06    -42.2764E+06    -11.0769E+06     1.60748E+06    -18.5833E+06         31.0849
            2018     10.8985E-03     116.664E-03     298.087E-03    -79.7193E-03    -94.4380E-03    -88.8860E-03     295.793E-03    -82.9770E-03     45.7578E-03     97.7136E-03    -10.1752E-03    -87.5403E-03    -43.3044E-03     53.4777E-03    -10.1752E-03     157.776E-03     17.8241E+06     1.16068E+06    -50.2892E+06    -30.2432E+06    -16.5420E+06     15.4809E+06    -24.5482E+06         34.6968
            2019     11.8565E-03     116.840E-03     301.140E-03    -76.2673E-03    -97.5414E-03    -88.6746E-03     298.483E-03    -82.4768E-03     57.0561E-03     126.921E-03    -13.1291E-03    -113.795E-03    -63.1521E-03     76.2783E-03    -13.1291E-03     195.983E-03     24.2483E+06     3.91745E+06    -52.2197E+06    -22.1159E+06    -26.1864E+06     24.2483E+06    -26.9648E+06         39.0592
            2020     12.7946E-03     117.064E-03     314.852E-03    -78.9431E-03    -104.563E-03    -99.1931E-03     312.434E-03    -81.8948E-03     57.2442E-03     163.728E-03    -16.9668E-03    -146.754E-03    -88.4797E-03     105.454E-03    -16.9668E-03     242.225E-03     31.3511E+06     16.4552E+06    -52.1963E+06    -20.1556E+06    -15.5855E+06     31.3511E+06    -32.0622E+06         44.2717
            2021     13.7162E-03     117.340E-03     322.720E-03    -81.4660E-03    -107.149E-03    -105.599E-03     321.170E-03    -81.4660E-03     41.8117E-03     202.414E-03    -21.7906E-03    -180.602E-03    -117.852E-03     139.664E-03    -21.7906E-03     283.100E-03     38.9416E+06     26.7576E+06    -50.7482E+06    -18.6566E+06    -4.76692E+06     38.3745E+06    -36.6120E+06         50.5410
            2022     14.6114E-03     117.659E-03     317.041E-03    -80.6900E-03    -99.1392E-03    -98.4049E-03     316.307E-03    -80.6900E-03     31.8696E-03     239.396E-03    -27.6745E-03    -211.705E-03    -149.483E-03     177.173E-03    -27.6745E-03     310.671E-03     49.5269E+06     39.3231E+06    -42.4799E+06    -18.4393E+06     15.8496E+06     48.9598E+06    -33.4298E+06         57.3147
            2023     15.4761E-03     118.024E-03     308.858E-03    -79.1585E-03    -98.4773E-03    -97.4073E-03     307.788E-03    -79.1585E-03     35.9655E-03     290.103E-03    -34.7762E-03    -255.338E-03    -188.602E-03     223.367E-03    -34.7762E-03     357.358E-03     66.2829E+06     44.4783E+06    -34.8591E+06    -20.8545E+06     30.4738E+06     66.2829E+06    -28.3539E+06         63.4931
            2024     16.3061E-03     118.483E-03     309.113E-03    -77.5560E-03    -99.5324E-03    -98.6031E-03     308.184E-03    -77.5560E-03     31.1687E-03     300.584E-03    -43.2483E-03    -257.380E-03    -216.150E-03     259.353E-03    -43.2483E-03     267.928E-03     125.207E+06     47.0596E+06    -23.2606E+06    -15.5747E+06     39.3737E+06     125.207E+06    -12.5915E+06         68.1545
            2025     996.492E-06     117.174E-03     297.294E-03    -101.718E-03    -136.020E-03    -119.316E-03     290.825E-03    -111.953E-03    -28.3061E-03     6.36006E-03    -3.13733E-03    -3.22274E-03    -3.17120E-03     6.35195E-03    -3.18076E-03    -514.142E-06    -81.4228E+06    -156.447E+06    -166.079E+06    -162.999E+06    -83.2195E+06    -157.731E+06    -11.4925E+06         20.5720
            2026     1.99316E-03     117.177E-03     266.632E-03    -86.2532E-03    -109.311E-03    -83.9831E-03     264.362E-03    -109.311E-03     9.04295E-03     6.75812E-03    -3.25403E-03    -3.50370E-03    -3.46053E-03     6.74380E-03    -3.28287E-03    -379.437E-06    -63.7003E+06    -148.331E+06    -162.792E+06    -158.558E+06    -67.9343E+06    -148.331E+06    -19.6786E+06         20.8149
            2027     2.98923E-03     117.181E-03     247.501E-03    -69.4878E-03    -97.9182E-03    -67.2596E-03     245.273E-03    -97.9182E-03    -26.3940E-03     7.55794E-03    -3.43520E-03    -4.12268E-03    -3.96579E-03     7.42065E-03    -3.45480E-03     1.21408E-03    -51.2746E+06    -142.376E+06    -156.204E+06    -150.502E+06    -56.9767E+06    -142.376E+06    -22.8360E+06         21.2360
            2028     3.98474E-03     117.193E-03     232.721E-03    -55.7363E-03    -88.5173E-03    -53.6807E-03     230.666E-03    -88.5173E-03     2.52343E-03     8.89184E-03    -3.66261E-03    -5.22972E-03    -4.50347E-03     8.16559E-03    -3.66261E-03     4.93121E-03    -37.0094E+06    -131.729E+06    -151.959E+06    -138.560E+06    -44.7262E+06    -137.411E+06    -26.6337E+06         21.8482
            2029     4.98003E-03     117.211E-03     234.115E-03    -58.6748E-03    -81.7679E-03    -57.3453E-03     232.785E-03    -81.7679E-03     13.7437E-03     11.4713E-03    -3.91673E-03    -7.55337E-03    -5.28290E-03     9.20080E-03    -3.91673E-03     11.2783E-03    -26.8565E+06    -112.065E+06    -149.611E+06    -120.166E+06    -37.8634E+06    -130.503E+06    -30.1733E+06         22.6580
            2030     5.97561E-03     117.241E-03     237.710E-03    -63.1816E-03    -81.5596E-03    -65.4750E-03     236.702E-03    -78.2586E-03     20.6831E-03     16.5299E-03    -4.33124E-03    -12.1986E-03    -6.80916E-03     11.1405E-03    -4.33124E-03     21.7977E-03    -22.2967E+06    -93.5298E+06    -125.492E+06    -92.5991E+06    -39.1423E+06    -109.577E+06    -29.0433E+06         23.6718
            2031     6.96938E-03     117.285E-03     235.514E-03    -66.0009E-03    -80.0240E-03    -67.4153E-03     233.305E-03    -76.4000E-03     31.3927E-03     24.5308E-03    -4.91910E-03    -19.6134E-03    -9.42221E-03     14.3396E-03    -4.91910E-03     36.9329E-03    -10.2902E+06    -73.6651E+06    -87.1921E+06    -60.6108E+06    -28.7962E+06    -81.7405E+06    -25.4886E+06         24.8913
            2032     7.95888E-03     117.348E-03     252.953E-03    -74.6324E-03    -91.8190E-03    -83.8304E-03     246.207E-03    -75.8745E-03     75.4691E-03     35.9582E-03    -5.79770E-03    -30.1655E-03    -13.5727E-03     19.3654E-03    -5.79770E-03     57.2503E-03    -5.81116E+06    -41.3880E+06    -52.4354E+06    -35.5776E+06    -17.8855E+06    -46.1715E+06    -16.0571E+06         26.3178
            2033     8.94272E-03     117.432E-03     268.755E-03    -76.5595E-03    -101.829E-03    -95.3668E-03     262.565E-03    -76.8320E-03     73.5563E-03     51.5594E-03    -7.02042E-03    -44.5431E-03    -19.4475E-03     26.4638E-03    -7.02042E-03     84.3966E-03     4.67517E+06    -7.58661E+06    -37.6124E+06    -22.0729E+06    -10.8643E+06    -7.58661E+06    -8.50787E+06         28.1232
            2034     9.92247E-03     117.551E-03     266.514E-03    -77.5441E-03    -92.5138E-03    -90.4020E-03     264.674E-03    -77.8166E-03     31.2340E-03     71.3686E-03    -8.52188E-03    -62.8446E-03    -27.6909E-03     36.2149E-03    -8.52188E-03     118.004E-03     23.0219E+06     8.59378E+06    -38.3201E+06    -21.3243E+06     1.06641E+06     13.5534E+06    -13.9945E+06         30.7076
            2035     10.8969E-03     117.705E-03     259.071E-03    -74.4421E-03    -84.3015E-03    -78.8676E-03     256.895E-03    -77.6998E-03     38.0003E-03     95.1256E-03    -10.4960E-03    -84.6275E-03    -40.2092E-03     50.7073E-03    -10.4960E-03     154.985E-03     24.8513E+06     2.98414E+06    -45.3231E+06    -30.0282E+06    -9.96754E+06     22.5080E+06    -21.1996E+06         34.2345
            2036     11.8576E-03     117.906E-03     260.465E-03    -70.4268E-03    -83.7890E-03    -73.5694E-03     256.455E-03    -76.6363E-03     61.7768E-03     125.195E-03    -13.1366E-03    -112.055E-03    -58.5795E-03     71.7189E-03    -13.1366E-03     198.147E-03     31.5455E+06     8.33803E+06    -58.3528E+06    -32.8427E+06    -17.1721E+06     31.5455E+06    -28.4987E+06         38.4854
            2037     12.8038E-03     118.154E-03     268.871E-03    -72.6005E-03    -88.4055E-03    -82.4919E-03     265.909E-03    -75.5522E-03     54.2248E-03     164.085E-03    -16.6593E-03    -147.422E-03    -85.0812E-03     101.744E-03    -16.6593E-03     248.992E-03     45.6885E+06     27.0386E+06    -56.1338E+06    -23.3335E+06    -5.76175E+06     45.6885E+06    -36.8254E+06         43.5917
            2038     13.7274E-03     118.467E-03     274.926E-03    -74.6183E-03    -88.6798E-03    -86.6990E-03     272.945E-03    -74.6183E-03     40.3009E-03     206.087E-03    -21.3121E-03    -184.761E-03    -118.342E-03     139.667E-03    -21.3121E-03     293.098E-03     54.5224E+06     25.3395E+06    -46.7174E+06    -15.0155E+06    -6.36230E+06     54.5224E+06    -34.2727E+06         49.7668
            2039     14.6191E-03     118.835E-03     274.018E-03    -73.2193E-03    -85.8920E-03    -84.3556E-03     272.482E-03    -73.2193E-03     33.4338E-03     245.166E-03    -27.1507E-03    -218.007E-03    -151.882E-03     179.041E-03    -27.1507E-03     323.681E-03     64.9434E+06     32.6559E+06    -32.7336E+06    -12.0490E+06     11.9714E+06     64.9434E+06    -26.4751E+06         56.4039
            2040     15.4903E-03     119.237E-03     263.329E-03    -71.0935E-03    -80.4828E-03    -79.3012E-03     262.147E-03    -71.0935E-03     35.1373E-03     304.173E-03    -34.1814E-03    -269.995E-03    -194.104E-03     228.282E-03    -34.1814E-03     388.746E-03     80.4457E+06     40.2470E+06    -20.7490E+06    -5.54947E+06     25.0475E+06     80.4457E+06    -15.2540E+06         62.3803
            2041     16.3165E-03     119.796E-03     253.408E-03    -67.7439E-03    -75.6994E-03    -73.4694E-03     252.306E-03    -68.8716E-03     25.7827E-03     320.885E-03    -42.7521E-03    -278.138E-03    -228.278E-03     271.025E-03    -42.7521E-03     305.018E-03     138.707E+06     42.3395E+06    -11.7652E+06     1.70902E+06     28.8652E+06     138.707E+06    -2.04231E+06         66.7869
            2042     994.599E-06     118.184E-03     228.448E-03    -84.5749E-03    -120.735E-03    -97.6971E-03     219.929E-03    -99.0940E-03    -15.2391E-03     11.4057E-03    -5.57338E-03    -5.83263E-03    -5.76652E-03     11.3794E-03    -5.61312E-03    -1.28923E-03    -60.1588E+06    -113.146E+06    -118.728E+06    -115.342E+06    -62.6848E+06    -114.006E+06    -10.9497E+06         20.9659
            2043     1.98861E-03     118.185E-03     228.462E-03    -89.5306E-03    -107.942E-03    -95.4520E-03     224.156E-03    -97.7153E-03     47.9892E-03     12.6346E-03    -5.92298E-03    -6.71198E-03    -6.67045E-03     12.5931E-03    -5.92298E-03    -1.76909E-03    -44.6756E+06    -106.417E+06    -119.202E+06    -113.335E+06    -50.5417E+06    -106.417E+06    -19.1482E+06         21.1634
            2044     2.98121E-03     118.192E-03     206.690E-03    -68.2190E-03    -92.4213E-03    -64.9982E-03     203.469E-03    -92.4213E-03     33.9198E-03     14.1972E-03    -6.41761E-03    -7.78121E-03    -7.74122E-03     14.1573E-03    -6.41761E-03    -1.22631E-03    -33.6632E+06    -95.8816E+06    -119.054E+06    -108.484E+06    -44.2338E+06    -95.8816E+06    -27.4558E+06         21.5307
            2045     3.97279E-03     118.203E-03     203.025E-03    -59.2438E-03    -88.8896E-03    -59.0851E-03     198.480E-03    -84.5030E-03     67.1886E-03     15.4943E-03    -6.91722E-03    -8.57655E-03    -8.46580E-03     15.3836E-03    -6.91722E-03     947.316E-06    -18.3720E+06    -85.7440E+06    -115.898E+06    -102.351E+06    -31.9189E+06    -85.7440E+06    -33.3502E+06         22.0845
            2046     4.96418E-03     118.223E-03     204.704E-03    -60.3231E-03    -83.7494E-03    -61.2740E-03     201.268E-03    -79.3628E-03     55.4074E-03     17.0305E-03    -7.38448E-03    -9.64069E-03    -9.11110E-03     16.5009E-03    -7.38448E-03     5.07155E-03    -10.6602E+06    -78.9694E+06    -118.472E+06    -101.826E+06    -27.3060E+06    -78.9694E+06    -38.7633E+06         22.8274
            2047     5.95458E-03     118.253E-03     185.950E-03    -50.3371E-03    -75.1160E-03    -48.0422E-03     183.655E-03    -75.1160E-03     36.8959E-03     19.5012E-03    -7.80725E-03    -11.6947E-03    -9.90418E-03     17.7106E-03    -7.80725E-03     11.9652E-03    -8.21902E+06    -82.5086E+06    -125.787E+06    -102.952E+06    -31.0545E+06    -82.5086E+06    -45.9486E+06         23.7654
            2048     6.94459E-03     118.299E-03     194.541E-03    -57.4370E-03    -74.4676E-03    -56.2741E-03     190.436E-03    -71.5260E-03     56.0549E-03     23.9004E-03    -8.22637E-03    -15.6770E-03    -11.0965E-03     19.3199E-03    -8.22637E-03     23.2032E-03    -1.91141E+06    -84.5794E+06    -127.098E+06    -97.9498E+06    -27.7340E+06    -87.9052E+06    -49.3875E+06         24.9002
            2049     7.93430E-03     118.364E-03     220.325E-03    -70.7120E-03    -85.8572E-03    -79.4760E-03     213.944E-03    -70.7120E-03     73.8327E-03     32.1862E-03    -8.84634E-03    -23.3403E-03    -13.6178E-03     22.4637E-03    -8.84634E-03     40.9133E-03    -1.11988E+06    -67.5356E+06    -108.473E+06    -78.3166E+06    -27.9507E+06    -70.8613E+06    -44.3556E+06         26.2078
            2050     8.92155E-03     118.456E-03     227.660E-03    -71.1171E-03    -93.3490E-03    -87.2789E-03     222.243E-03    -71.7701E-03     66.9976E-03     45.6740E-03    -9.75587E-03    -35.9211E-03    -18.3229E-03     28.0758E-03    -9.75587E-03     66.4929E-03     11.6370E+06    -36.1980E+06    -75.9292E+06    -45.3340E+06    -18.9582E+06    -36.1980E+06    -32.9643E+06         27.8727
            2051     9.90248E-03     118.579E-03     228.156E-03    -71.9677E-03    -87.0251E-03    -84.2172E-03     226.001E-03    -72.6208E-03     38.1610E-03     64.9643E-03    -11.0589E-03    -53.9016E-03    -25.9436E-03     37.0063E-03    -11.0589E-03     100.578E-03     30.6915E+06    -7.74079E+06    -37.1917E+06    -18.5691E+06    -2.38634E+06     6.71439E+06    -16.0973E+06         30.3150
            2052     10.8727E-03     118.747E-03     227.384E-03    -71.0204E-03    -78.7541E-03    -74.8202E-03     224.875E-03    -72.4453E-03     39.2871E-03     89.3894E-03    -12.8250E-03    -76.5642E-03    -37.1494E-03     49.9746E-03    -12.8250E-03     141.186E-03     40.8531E+06     8.42141E+06    -21.0959E+06    -9.05727E+06    -3.61727E+06     40.8531E+06    -6.77292E+06         33.6410
            2053     11.8363E-03     118.959E-03     231.183E-03    -68.2300E-03    -78.5060E-03    -69.2786E-03     225.079E-03    -71.3533E-03     81.4416E-03     120.619E-03    -15.1604E-03    -105.459E-03    -55.0017E-03     70.1624E-03    -15.1604E-03     188.120E-03     59.2653E+06     24.6105E+06    -29.6871E+06    -9.92126E+06     4.84468E+06     59.2653E+06    -17.6469E+06         37.6584
            2054     12.7864E-03     119.232E-03     238.835E-03    -68.1339E-03    -83.0820E-03    -73.6973E-03     231.149E-03    -69.8324E-03     93.6977E-03     161.362E-03    -18.4475E-03    -142.908E-03    -82.9907E-03     101.445E-03    -18.4475E-03     241.677E-03     66.3709E+06     27.9716E+06    -41.6105E+06    -17.8944E+06     4.25553E+06     66.3709E+06    -29.2525E+06         42.5776
            2055     13.7071E-03     119.585E-03     240.217E-03    -68.1320E-03    -82.1238E-03    -77.0173E-03     235.111E-03    -68.1320E-03     73.8701E-03     203.606E-03    -22.9217E-03    -180.686E-03    -115.371E-03     138.290E-03    -22.9217E-03     288.373E-03     70.3221E+06     22.6191E+06    -50.6880E+06    -20.7723E+06    -7.29663E+06     70.3221E+06    -33.8351E+06         48.5506
            2056     14.6084E-03     119.988E-03     232.364E-03    -66.4183E-03    -79.0904E-03    -77.4102E-03     230.683E-03    -66.4183E-03     33.2283E-03     243.560E-03    -28.5030E-03    -215.062E-03    -147.435E-03     175.933E-03    -28.5030E-03     324.936E-03     88.3860E+06     29.8710E+06    -36.7198E+06    -8.92554E+06     2.07674E+06     88.3860E+06    -31.6414E+06         54.8968
            2057     15.4757E-03     120.443E-03     218.394E-03    -64.2382E-03    -70.7423E-03    -70.1007E-03     218.083E-03    -64.5684E-03     12.8244E-03     307.106E-03    -34.9067E-03    -272.195E-03    -189.514E-03     224.425E-03    -34.9067E-03     405.145E-03     74.3453E+06     22.6712E+06    -29.0193E+06    -6.69484E+06     346.755E+03     74.3453E+06    -16.0936E+06         60.6067
            2058     16.3280E-03     121.064E-03     206.883E-03    -60.2903E-03    -62.6949E-03    -60.0726E-03     206.549E-03    -62.5781E-03     6.38200E-03     332.082E-03    -42.8827E-03    -289.183E-03    -227.749E-03     270.647E-03    -42.8827E-03     352.264E-03     123.146E+06     31.6521E+06    -25.3666E+06    -10.0016E+06     16.2871E+06     123.146E+06    -2.78539E+06         64.6620
            2059     991.125E-06     119.197E-03     155.645E-03    -60.5957E-03    -115.202E-03    -80.5051E-03     143.046E-03    -82.6940E-03    -20.7793E-03     19.4213E-03    -9.43345E-03    -9.98815E-03    -9.90879E-03     19.3816E-03    -9.47320E-03    -2.04384E-03    -38.3782E+06    -65.6217E+06    -71.9589E+06    -66.8439E+06    -42.6334E+06    -66.4816E+06    -10.5566E+06         21.5606
            2060     1.98087E-03     119.202E-03     134.483E-03    -60.1975E-03    -86.7604E-03    -56.5162E-03     120.575E-03    -76.5335E-03     24.7539E-03     21.2328E-03    -10.0075E-03    -11.2261E-03    -11.1410E-03     21.1477E-03    -10.0075E-03    -3.29040E-03    -22.2478E+06    -61.9855E+06    -75.2399E+06    -65.6824E+06    -31.8053E+06    -61.9855E+06    -19.5833E+06         21.7231
            2061     2.96905E-03     119.210E-03     147.497E-03    -59.8603E-03    -84.2770E-03    -68.8283E-03     143.178E-03    -70.9902E-03     59.0859E-03     23.3816E-03    -10.6962E-03    -12.6820E-03    -12.5649E-03     23.2645E-03    -10.6962E-03    -4.05260E-03    -12.2958E+06    -52.8099E+06    -78.0666E+06    -63.5243E+06    -26.8381E+06    -52.8099E+06    -26.9738E+06         22.0293
            2062     3.95607E-03     119.223E-03     182.200E-03    -68.7009E-03    -93.2935E-03    -84.2993E-03     176.471E-03    -71.9659E-03     76.6058E-03     25.6140E-03    -11.4426E-03    -14.1796E-03    -14.0685E-03     25.5028E-03    -11.4426E-03    -3.73978E-03    -4.22363E+06    -46.6509E+06    -79.8862E+06    -63.3330E+06    -20.7768E+06    -46.6509E+06    -30.9372E+06         22.5101
            2063     4.94129E-03     119.244E-03     167.270E-03    -61.8794E-03    -80.6514E-03    -65.4809E-03     162.831E-03    -72.6105E-03     40.4249E-03     27.9380E-03    -12.2460E-03    -15.7056E-03    -15.6115E-03     27.8439E-03    -12.2460E-03    -1.76075E-03     909.651E+03     -39.837E+06    -79.2600E+06    -62.1503E+06    -16.2000E+06     -39.837E+06    -32.1597E+06         23.1683
            2064     5.92474E-03     119.276E-03     156.544E-03    -55.0268E-03    -75.5473E-03    -57.7128E-03     154.372E-03    -70.6899E-03     12.6947E-03     30.2455E-03    -13.0935E-03    -17.1597E-03    -16.9098E-03     29.9957E-03    -13.0935E-03     2.11140E-03     5.69550E+06    -29.9355E+06    -85.0788E+06    -64.2921E+06    -15.0912E+06    -29.9355E+06    -37.4555E+06         24.0106
            2065     6.90727E-03     119.321E-03     172.806E-03    -64.8445E-03    -79.0549E-03    -71.7855E-03     170.468E-03    -69.7765E-03     34.8675E-03     32.8369E-03    -13.9004E-03    -18.9416E-03    -17.9568E-03     31.8522E-03    -13.9004E-03     9.11076E-03     7.32001E+06    -28.3177E+06    -96.8496E+06     -71.726E+06    -17.8036E+06    -28.3177E+06    -44.3523E+06         25.0474
            2066     7.88863E-03     119.387E-03     174.470E-03    -64.4085E-03    -76.9104E-03    -69.6110E-03     172.802E-03    -70.0394E-03     30.1559E-03     37.0722E-03    -14.6766E-03    -22.3882E-03    -19.3673E-03     34.0513E-03    -14.6766E-03     20.8350E-03     7.48879E+06    -37.1524E+06    -111.354E+06    -81.1294E+06    -22.7358E+06    -37.1524E+06    -51.6058E+06         26.2716
            2067     8.86854E-03     119.479E-03     167.461E-03    -61.3563E-03    -71.9220E-03    -59.3013E-03     162.956E-03    -69.4719E-03     46.2360E-03     44.6660E-03    -15.5642E-03    -29.0992E-03    -21.8975E-03     37.4643E-03    -15.5642E-03     39.1029E-03     8.79270E+06    -41.2844E+06    -118.634E+06    -84.3006E+06    -25.5406E+06    -41.2844E+06    -55.1458E+06         27.8115
            2068     9.84588E-03     119.609E-03     173.008E-03    -65.9405E-03    -71.7132E-03    -64.8088E-03     168.589E-03    -68.4252E-03     41.1237E-03     57.4094E-03    -16.7238E-03    -40.6852E-03    -26.0364E-03     42.7606E-03    -16.7238E-03     66.6628E-03     12.5062E+06    -30.4116E+06    -98.0696E+06    -70.2823E+06    -24.7766E+06    -20.9160E+06    -43.3970E+06         30.0125
            2069     10.8217E-03     119.782E-03     186.083E-03    -66.3358E-03    -74.4167E-03    -70.7223E-03     183.813E-03    -67.7606E-03     33.3210E-03     77.1807E-03    -18.2748E-03    -58.9050E-03    -34.0288E-03     52.3044E-03    -18.2748E-03     103.337E-03     32.3680E+06     3.10190E+06    -63.7889E+06    -39.9500E+06    -11.9388E+06     23.5698E+06    -27.4356E+06         33.0174
            2070     11.7867E-03     120.008E-03     188.488E-03    -59.9790E-03    -70.0397E-03    -57.9166E-03     183.058E-03    -66.6717E-03     68.3792E-03     107.730E-03    -20.4717E-03    -87.2616E-03    -50.7065E-03     71.1750E-03    -20.4717E-03     151.264E-03     71.3153E+06     27.4693E+06    -35.6973E+06    -17.8969E+06     9.66887E+06     71.3153E+06    -15.5310E+06         36.7074
            2071     12.7260E-03     120.305E-03     185.514E-03    -55.7696E-03    -69.1147E-03    -52.1038E-03     177.518E-03    -64.7850E-03     86.7944E-03     149.394E-03    -23.6010E-03    -125.791E-03    -77.2855E-03     100.888E-03    -23.6010E-03     209.341E-03     95.0806E+06     22.7533E+06    -20.0590E+06    -12.8883E+06     15.5827E+06     95.0806E+06    -10.7925E+06         41.3212
            2072     13.6490E-03     120.683E-03     183.717E-03    -57.4733E-03    -70.5805E-03    -60.6492E-03     179.460E-03    -63.1484E-03     51.7745E-03     190.183E-03    -27.7668E-03    -162.417E-03    -106.137E-03     133.903E-03    -27.7668E-03     257.965E-03     100.389E+06     32.1218E+06    -30.5356E+06    -14.3029E+06     15.8891E+06     100.389E+06    -23.9542E+06         46.9565
            2073     14.5485E-03     121.118E-03     173.975E-03    -54.3570E-03    -68.4787E-03    -60.4181E-03     173.551E-03    -61.9937E-03     3.52122E-03     227.187E-03    -32.7915E-03    -194.400E-03    -133.450E-03     166.237E-03    -32.7915E-03     296.357E-03     89.7293E+06     24.8628E+06    -53.8971E+06    -26.8821E+06    -2.15229E+06     89.7293E+06    -33.4057E+06         52.9751
            2074     15.4383E-03     121.614E-03     164.303E-03    -49.1684E-03    -63.9123E-03    -52.4086E-03     164.161E-03    -60.5298E-03    -2.49511E-03     288.001E-03    -38.6136E-03    -249.387E-03    -174.242E-03     212.856E-03    -38.6136E-03     372.484E-03     67.8849E+06    -3.38245E+06    -56.7412E+06    -34.0010E+06    -26.1226E+06     67.8849E+06    -25.3795E+06         58.3874
            2075     16.2916E-03     122.278E-03     162.456E-03    -52.0619E-03    -58.9031E-03    -52.0387E-03     162.433E-03    -58.9031E-03     101.853E-06     307.130E-03    -45.2437E-03    -261.880E-03    -192.435E-03     237.686E-03    -45.2437E-03     365.510E-03     103.254E+06     9.64196E+06    -45.0247E+06    -31.0124E+06    -4.37030E+06     103.254E+06    -18.7091E+06         62.1698
            2076     985.465E-06     120.222E-03     113.912E-03    -51.0536E-03    -119.505E-03    -44.1017E-03     84.6788E-03    -97.2245E-03    -83.5406E-03     30.9101E-03    -15.0811E-03    -15.8281E-03    -15.5060E-03     30.8705E-03    -15.3635E-03    -2.61125E-03     2.03494E+06    -9.05612E+06    -34.9099E+06    -9.55976E+06    -24.4634E+06    -7.90795E+06    -9.20585E+06         22.3381
            2077     1.96957E-03     120.228E-03     76.8014E-03    -54.8568E-03    -76.8350E-03    -52.7798E-03     64.9527E-03    -67.0633E-03    -21.0360E-03     32.7680E-03    -15.7620E-03    -17.0052E-03    -16.8998E-03     32.6626E-03    -15.7620E-03    -4.44702E-03     9.69508E+06    -7.30889E+06    -33.6146E+06    -11.3779E+06    -13.6898E+06    -6.16071E+06    -16.5736E+06         22.4908
            2078     2.95250E-03     120.239E-03     112.592E-03    -62.5663E-03    -89.2717E-03    -81.6596E-03     108.627E-03    -66.2132E-03     15.8459E-03     35.6240E-03    -16.5064E-03    -19.1120E-03    -18.9279E-03     35.4399E-03    -16.5064E-03    -6.31058E-03     8.86585E+06    -10.6934E+06    -38.9224E+06    -16.5563E+06    -13.5002E+06    -10.6934E+06    -20.6096E+06         22.7587
            2079     3.93266E-03     120.255E-03     131.232E-03    -65.6060E-03    -86.8002E-03    -76.9438E-03     125.628E-03    -69.8591E-03     1.77770E-03     39.3245E-03    -17.5304E-03    -21.8019E-03    -21.5519E-03     39.0745E-03    -17.5304E-03    -7.77725E-03     9.89906E+06    -8.40638E+06    -41.4640E+06    -21.6586E+06    -10.2773E+06    -8.03544E+06    -23.7790E+06         23.1728
            2080     4.90985E-03     120.279E-03     130.457E-03    -64.8644E-03    -79.5451E-03    -69.3923E-03     126.187E-03    -70.7474E-03    -17.2602E-03     43.1223E-03    -18.7572E-03    -24.3779E-03    -24.1074E-03     42.8517E-03    -18.7572E-03    -8.36630E-03     12.8988E+06    -3.04431E+06    -44.9243E+06    -25.1011E+06    -9.06611E+06    -902.547E+03    -26.0591E+06         23.7310
            2081     5.88472E-03     120.313E-03     143.700E-03    -68.9844E-03    -84.3760E-03    -80.5792E-03     142.441E-03    -71.5225E-03    -15.8438E-03     47.0464E-03    -20.0946E-03    -26.9449E-03    -26.7100E-03     46.8115E-03    -20.0946E-03    -7.66072E-03     17.2013E+06     2.27985E+06    -45.0720E+06    -28.0365E+06    -5.60580E+06     8.05148E+06    -25.1564E+06         24.4404
            2082     6.85633E-03     120.361E-03     144.667E-03    -68.4650E-03    -82.2663E-03    -76.6317E-03     143.321E-03    -72.7537E-03     22.7598E-03     51.4339E-03    -21.5543E-03    -29.8849E-03    -29.6522E-03     51.2011E-03    -21.5543E-03    -5.55656E-03     23.0091E+06     5.04656E+06    -49.8495E+06    -32.4867E+06    -5.11908E+06     15.8120E+06    -27.1419E+06         25.3443
            2083     7.82480E-03     120.427E-03     127.139E-03    -55.6293E-03    -73.9374E-03    -55.0575E-03     124.765E-03    -72.1349E-03     25.2903E-03     55.9730E-03    -23.1275E-03    -32.8581E-03    -32.4358E-03     55.5507E-03    -23.1275E-03    -895.022E-06     28.4876E+06     2.26477E+06    -59.5004E+06    -38.8110E+06    -8.01314E+06     18.0761E+06    -32.2880E+06         26.4995
            2084     8.78940E-03     120.522E-03     118.698E-03    -49.1744E-03    -69.8175E-03    -44.6027E-03     114.127E-03    -69.8175E-03     28.8979E-03     60.6179E-03    -24.7816E-03    -35.8204E-03    -34.5839E-03     59.3814E-03    -24.7816E-03     7.57244E-03     25.1020E+06     141.264E+03    -76.4106E+06    -50.2475E+06    -15.1964E+06     14.2765E+06    -38.7637E+06         27.9574
            2085     9.75162E-03     120.648E-03     129.570E-03    -51.9835E-03    -69.8841E-03    -49.8312E-03     125.259E-03    -67.7251E-03     29.4438E-03     66.3657E-03    -26.5047E-03    -39.8481E-03    -36.4692E-03     62.9868E-03    -26.5047E-03     21.1595E-03     18.4792E+06    -9.92383E+06    -96.0210E+06    -64.0652E+06    -28.7971E+06     5.39674E+06    -44.4868E+06         29.8897
            2086     10.7101E-03     120.819E-03     141.367E-03    -48.6618E-03    -71.7511E-03    -49.1654E-03     136.343E-03    -66.2241E-03     7.99261E-03     76.0659E-03    -28.4802E-03    -47.5875E-03    -40.3262E-03     68.8046E-03    -28.4802E-03     42.9378E-03     22.8256E+06    -3.68574E+06    -99.0905E+06    -70.6823E+06    -23.2957E+06     14.0274E+06    -44.9038E+06         32.5293
            2087     11.6604E-03     121.050E-03     142.707E-03    -47.9736E-03    -68.0185E-03    -44.9376E-03     136.303E-03    -64.6505E-03     28.0029E-03     95.1041E-03    -31.0348E-03    -64.0595E-03    -50.0680E-03     81.1127E-03    -31.0348E-03     77.4516E-03     47.5484E+06     15.7831E+06    -83.8786E+06    -58.6809E+06    -9.41463E+06     47.5484E+06    -37.3852E+06         35.8493
            2088     12.6058E-03     121.360E-03     139.920E-03    -49.8706E-03    -63.2525E-03    -45.9729E-03     136.022E-03    -63.2525E-03     52.5799E-03     122.805E-03    -34.4041E-03    -88.4151E-03    -65.5617E-03     99.9516E-03    -34.4041E-03     121.806E-03     85.2668E+06     24.5011E+06    -51.4999E+06    -32.0467E+06     5.04792E+06     85.2668E+06    -27.1215E+06         39.9623
            2089     13.5234E-03     121.761E-03     131.828E-03    -45.1625E-03    -62.1697E-03    -42.9540E-03     129.620E-03    -62.1697E-03     31.9109E-03     149.799E-03    -38.4467E-03    -111.376E-03    -80.6926E-03     119.115E-03    -38.4467E-03     163.536E-03     105.752E+06     34.2754E+06    -29.4589E+06    -18.9926E+06     23.8091E+06     105.752E+06    -11.0710E+06         45.0898
            2090     14.4270E-03     122.212E-03     120.029E-03    -37.6600E-03    -60.8290E-03    -36.5422E-03     118.911E-03    -60.8290E-03    -3.49321E-03     180.875E-03    -43.1827E-03    -137.698E-03    -102.220E-03     145.396E-03    -43.1827E-03     196.822E-03     115.061E+06     38.8290E+06    -39.8198E+06    -21.5997E+06     20.6089E+06     115.061E+06    -1.33269E+06         50.7332
            2091     15.3052E-03     122.725E-03     115.784E-03    -33.9910E-03    -59.2337E-03    -33.4780E-03     115.271E-03    -59.2337E-03    -10.6858E-03     230.036E-03    -48.7991E-03    -181.330E-03    -133.673E-03     182.379E-03    -48.7991E-03     260.571E-03     122.060E+06     31.7755E+06    -43.2770E+06    -5.40029E+06    -6.10115E+06     122.060E+06    -13.1185E+06         55.8649
            2092     16.1447E-03     123.414E-03     113.692E-03    -36.5128E-03    -57.8373E-03    -36.4876E-03     113.667E-03    -57.8373E-03     430.040E-06     222.241E-03    -52.8512E-03    -169.510E-03    -109.302E-03     162.714E-03    -53.5323E-03     276.135E-03     111.495E+06     16.9051E+06    -30.0714E+06     2.39584E+06    -15.5621E+06     111.495E+06    -12.1335E+06         59.6428
            2093     978.241E-06     121.259E-03     85.1140E-03    -49.3888E-03    -131.823E-03    -59.1782E-03     50.1694E-03    -87.0888E-03    -125.422E-03     45.2863E-03    -22.2458E-03    -23.0394E-03    -22.7232E-03     45.2524E-03    -22.5282E-03    -2.88386E-03     54.4799E+06     45.4933E+06    -10.2425E+06     49.6552E+06    -8.58809E+06     48.6635E+06    -7.98802E+06         23.0991
            2094     1.95615E-03     121.268E-03     98.5285E-03    -77.6193E-03    -111.223E-03    -99.9433E-03     88.2459E-03    -78.6161E-03    -19.6515E-03     47.1582E-03    -22.9473E-03    -24.2085E-03    -24.1212E-03     47.0708E-03    -22.9473E-03    -4.80987E-03     49.3022E+06     42.2912E+06    -6.15157E+06     43.2571E+06    -3.58210E+06     45.7669E+06    -8.26951E+06         23.2634
            2095     2.93148E-03     121.282E-03     105.805E-03    -75.8787E-03    -97.7844E-03    -84.7680E-03     101.256E-03    -84.3469E-03     11.0263E-03     51.1103E-03    -23.8723E-03    -27.2384E-03    -27.0710E-03     50.9429E-03    -23.8723E-03    -7.08614E-03     47.0980E+06     37.0979E+06    -10.6122E+06     35.2496E+06    -5.45942E+06     43.7934E+06    -10.4916E+06         23.5328
            2096     3.90301E-03     121.303E-03     90.8571E-03    -64.5657E-03    -82.1601E-03    -61.1027E-03     87.3942E-03    -82.1601E-03    -40.2099E-03     56.2512E-03    -25.2363E-03    -30.9965E-03    -30.7283E-03     55.9830E-03    -25.2363E-03    -9.52234E-03     47.7428E+06     33.9133E+06    -10.4595E+06     27.7864E+06    -1.63845E+06     45.0487E+06    -12.6039E+06         23.9123
            2097     4.87049E-03     121.331E-03     96.3949E-03    -63.9284E-03    -83.8633E-03    -66.5839E-03     93.9071E-03    -78.7199E-03    -36.8142E-03     62.4864E-03    -26.9685E-03    -35.4938E-03    -35.1006E-03     62.0933E-03    -26.9685E-03    -12.2854E-03     47.4197E+06     32.4274E+06    -15.9662E+06     19.4654E+06    -3.00427E+06     47.4197E+06    -13.6496E+06         24.3926
            2098     5.83375E-03     121.370E-03     105.290E-03    -64.9669E-03    -85.4053E-03    -71.9768E-03     104.304E-03    -77.4091E-03    -13.1265E-03     69.8372E-03    -29.0323E-03    -40.8198E-03    -40.2894E-03     69.3068E-03    -29.0323E-03    -15.2484E-03     49.4554E+06     27.0955E+06    -15.7382E+06     14.6525E+06    -3.29527E+06     49.4554E+06    -13.2236E+06         24.9800
            2099     6.79093E-03     121.424E-03     97.1994E-03    -64.7793E-03    -79.3350E-03    -66.1502E-03     95.7175E-03    -76.4822E-03     12.8047E-03     78.3513E-03    -31.4632E-03    -46.9181E-03    -46.1948E-03     77.6280E-03    -31.4632E-03    -18.7884E-03     58.9451E+06     25.1737E+06    -11.9818E+06     11.9637E+06     1.22828E+06     58.9451E+06    -12.5937E+06         25.7394
            2100     7.74020E-03     121.496E-03     94.1324E-03    -63.9674E-03    -78.9255E-03    -65.8380E-03     92.5570E-03    -75.4794E-03     248.846E-06     87.3172E-03    -34.2616E-03    -53.0660E-03    -52.0473E-03     86.2985E-03    -34.2616E-03    -22.9720E-03     68.6134E+06     22.2193E+06    -15.2940E+06     6.96449E+06    -39.1859E+03     68.6134E+06    -12.2588E+06         26.7754
            2101     8.68311E-03     121.592E-03     100.851E-03    -60.1626E-03    -78.2875E-03    -61.4486E-03     98.6908E-03    -74.8414E-03    -30.7763E-03     96.0153E-03    -37.3440E-03    -58.6536E-03    -57.1657E-03     94.5274E-03    -37.3440E-03    -27.5849E-03     70.4794E+06     21.4884E+06    -26.0399E+06    -887.149E+03    -3.66439E+06     70.4794E+06    -12.2120E+06         28.1539
            2102     9.61885E-03     121.720E-03     89.4308E-03    -41.6393E-03    -73.5159E-03    -38.3225E-03     86.1139E-03    -73.5159E-03    -33.9189E-03     104.690E-03    -40.7257E-03    -63.9029E-03    -61.5898E-03     102.377E-03    -40.7257E-03    -32.5406E-03     71.3520E+06     17.7157E+06    -37.3102E+06    -6.44540E+06    -13.1491E+06     71.3520E+06    -16.1614E+06         29.9224
            2103     10.5452E-03     121.888E-03     74.1410E-03    -20.8080E-03    -70.6694E-03    -15.3368E-03     68.6697E-03    -70.6694E-03    -38.2302E-03     113.977E-03    -44.5090E-03    -69.4540E-03    -65.4263E-03     109.950E-03    -44.5090E-03    -36.4647E-03     70.8794E+06     15.9940E+06    -44.4594E+06    -10.6423E+06    -17.8230E+06     70.8794E+06    -21.6975E+06         32.2573
            2104     11.4647E-03     122.112E-03     83.1761E-03    -27.5043E-03    -67.7599E-03    -22.9185E-03     78.5903E-03    -67.7599E-03    -14.1067E-03     123.038E-03    -48.8541E-03    -74.2103E-03    -67.7037E-03     116.531E-03    -48.8541E-03    -34.7821E-03     73.3625E+06     24.0827E+06    -47.6374E+06    -14.3942E+06    -9.16058E+06     73.3625E+06    -28.2643E+06         35.1977
            2105     12.3558E-03     122.416E-03     93.1679E-03    -33.2024E-03    -65.9267E-03    -30.7790E-03     90.7445E-03    -65.9267E-03     29.7473E-03     125.820E-03    -53.5443E-03    -72.2952E-03    -63.6543E-03     117.281E-03    -53.6468E-03    -20.3806E-03     79.9360E+06     21.4206E+06    -49.3900E+06    -20.8985E+06    -7.07087E+06     79.9360E+06    -24.7811E+06         38.7877
            2106     13.2467E-03     122.791E-03     86.6942E-03    -25.4495E-03    -64.1985E-03    -22.6086E-03     83.8533E-03    -64.1985E-03     32.5592E-03     126.075E-03    -53.6739E-03    -72.4242E-03    -56.0883E-03     114.590E-03    -58.5252E-03     1.03053E-03     90.3313E+06     22.5698E+06    -42.0742E+06    -19.5331E+06     28.6636E+03     90.3313E+06    -9.86398E+06         43.3316
            2107     14.1443E-03     123.236E-03     78.3381E-03    -23.0516E-03    -62.3209E-03    -20.8374E-03     76.1239E-03    -62.3209E-03    -301.806E-06     136.736E-03    -49.5691E-03    -87.2025E-03    -59.9016E-03     123.831E-03    -63.9649E-03     21.9893E-03     128.058E+06      37.074E+06    -19.4675E+06     2.11722E+06     15.4893E+06     128.058E+06     5.88644E+06         48.5121
            2108     14.9845E-03     123.787E-03     76.9271E-03    -20.6001E-03    -60.7684E-03    -19.1971E-03     75.5241E-03    -60.7684E-03    -18.1401E-03     139.790E-03    -32.1124E-03    -107.803E-03    -52.6656E-03     121.858E-03    -69.3174E-03     80.3299E-03     132.370E+06     54.7878E+06    -19.9812E+06     14.0670E+06     20.7395E+06     132.370E+06     562.100E+03         53.4495
            2109     15.8664E-03     124.376E-03     68.8638E-03    -14.5291E-03    -59.0918E-03    -14.2877E-03     68.6225E-03    -59.0918E-03    -1.42123E-03     107.417E-03    -12.4725E-03    -95.0746E-03    -10.0934E-03     82.1445E-03    -72.1815E-03     104.857E-03     86.0327E+06     25.2192E+06    -34.1276E+06     11.9261E+06     544.587E+03     64.6537E+06     377.328E+03         57.3286


