********************************************************************************
Field Output Report, written Mon May  5 23:43:58 2025

Source 1
---------

   ODB: D:/AISI_1020/Vel_20/1020_2a_16_rd_500_cal_100_v_20_f_025.odb
   Step: Step-1
   Frame: Increment   4856423: Step Time =   0.6458

Loc 1 : Nodal values from source 1

Output sorted by column "Node Label".

Field Output reported at nodes for region: DIE_2A_16_D0_36-1.Region_1
   Computation algorithm: EXTRAPOLATE_COMPUTE_AVERAGE
   Averaged at nodes
   Averaging regions: ODB_REGIONS

      Node Label     COORD.COOR1     COORD.COOR2
                          @Loc 1          @Loc 1
-------------------------------------------------
               1     19.4799E-03     165.078E-03


Field Output reported at nodes for region: DIE_2A_16_D0_36-1.Region_2
   Computation algorithm: EXTRAPOLATE_COMPUTE_AVERAGE
   Averaged at nodes
   Averaging regions: ODB_REGIONS

      Node Label     COORD.COOR1     COORD.COOR2
                          @Loc 1          @Loc 1
-------------------------------------------------
               1     19.4799E-03     165.078E-03


Field Output reported at nodes for part: WIRE_1-1
   Computation algorithm: EXTRAPOLATE_COMPUTE_AVERAGE
   Averaged at nodes
   Averaging regions: ODB_REGIONS

      Node Label     COORD.COOR1     COORD.COOR2    ER.Max. Prin    ER.Mid. Prin    ER.Min. Prin         ER.ER11         ER.ER22         ER.ER33         ER.ER12    PE.Max. Prin    PE.Mid. Prin    PE.Min. Prin         PE.PE11         PE.PE22         PE.PE33         PE.PE12     S.Max. Prin     S.Mid. Prin     S.Min. Prin           S.S11           S.S22           S.S33           S.S12            TEMP
                          @Loc 1          @Loc 1          @Loc 1          @Loc 1          @Loc 1          @Loc 1          @Loc 1          @Loc 1          @Loc 1          @Loc 1          @Loc 1          @Loc 1          @Loc 1          @Loc 1          @Loc 1          @Loc 1          @Loc 1          @Loc 1          @Loc 1          @Loc 1          @Loc 1          @Loc 1          @Loc 1          @Loc 1
-----------------------------------------------------------------------------------------------------------------------------------------------------------------------------------------------------------------------------------------------------------------------------------------------------------------------------------------------------------------------------------------------------------------
               1     17.0493E-03     61.6275E-03     419.099E-03     408.390E-03        -1.44980     410.091E-03        -1.44910     416.694E-03     39.7608E-03     107.605E-03    -52.8847E-03    -54.9293E-03    -52.8678E-03     107.589E-03    -54.9293E-03     3.26065E-03     176.753E+06     128.185E+06    -3.84194E+06    -3.84074E+06     176.752E+06     128.185E+06     428.983E+03         43.1998
               2    -13.8109E-09     61.2396E-03     499.558E-03     427.680E-03        -1.54366     424.942E-03        -1.47839     437.026E-03     708.535E-03     109.999E-03    -54.7973E-03    -55.2060E-03    -55.2016E-03     109.995E-03    -54.7973E-03     1.68912E-03    -94.6153E+06    -96.2978E+06    -288.230E+06    -95.1496E+06    -288.203E+06    -95.7900E+06     1.71030E+06         28.4456
               3     1.35722E-06     219.792E-09     641.803E-03     600.839E-03        -2.23196     562.989E-03        -2.19411     641.803E-03     650.507E-03     226.271E-03    -112.826E-03    -113.443E-03    -113.440E-03     226.268E-03    -112.826E-03     1.99351E-03    -67.8792E+06    -67.9539E+06    -255.802E+06    -67.9566E+06    -255.799E+06    -67.8792E+06    -708.444E+03         37.8356
               4     16.7177E-03     219.792E-09     706.984E-03     638.247E-03        -2.52342     705.944E-03        -2.52238     638.247E-03    -115.945E-03     164.494E-03    -70.7089E-03    -94.0927E-03    -81.8131E-03     152.214E-03    -70.7089E-03     109.992E-03     172.540E+06     142.205E+06     865.823E+03     1.26159E+06     172.144E+06     142.205E+06     8.23318E+06         41.7996
               5     17.1065E-03     123.634E-03     8.49388E-03     7.26681E-03    -17.6464E-03    -269.671E-06    -10.1099E-03     8.49388E-03     22.8875E-03     75.0942E-03    -23.5534E-03    -51.8851E-03    -23.4686E-03     75.0094E-03    -51.8851E-03     5.78356E-03     68.8159E+06     68.3087E+06    -56.7808E+06    -55.8252E+06     67.3531E+06     68.8159E+06    -10.8911E+06         48.8899
               6     1.69392E-06     121.581E-03     129.524E-03    -2.51726E-03    -141.220E-03     97.3132E-03     29.6938E-03    -141.220E-03     113.413E-03     58.2963E-03    -28.5870E-03    -29.7086E-03    -29.6875E-03     58.2752E-03    -28.5870E-03    -2.72073E-03     64.0736E+06     61.7949E+06    -3.85108E+06     61.5462E+06    -3.60233E+06     64.0736E+06    -4.03333E+06         23.7228
               7     16.1011E-03     61.6239E-03     418.250E-03     408.899E-03        -1.44528     409.723E-03        -1.44490     417.048E-03     27.1753E-03     110.915E-03    -53.8848E-03    -57.1592E-03    -53.0168E-03     107.795E-03    -54.9072E-03     33.9048E-03     177.345E+06     123.880E+06    -8.00634E+06    -7.99812E+06     177.337E+06     123.880E+06     526.729E+03         42.0306
               8     15.1531E-03     61.5531E-03     420.699E-03     413.645E-03        -1.45094     416.673E-03        -1.45091     417.642E-03     10.1614E-03     111.736E-03    -54.7766E-03    -57.0503E-03    -53.0170E-03     107.716E-03    -54.7904E-03     49.4294E-03     173.881E+06     101.027E+06    -15.8515E+06    -15.8372E+06     173.866E+06     101.027E+06     226.264E+03         39.6198
               9     14.2051E-03     61.5161E-03     432.504E-03     417.553E-03        -1.46988     432.344E-03        -1.46972     417.553E-03    -17.1834E-03     110.205E-03    -54.6332E-03    -55.6575E-03    -52.9629E-03     107.524E-03    -54.6470E-03     41.2855E-03     166.175E+06     53.5108E+06    -21.8075E+06    -21.8001E+06     166.168E+06     53.5108E+06    -303.480E+03         37.4965
              10     13.2567E-03     61.4633E-03     430.824E-03     411.947E-03        -1.46361     425.418E-03        -1.46336     417.104E-03    -3.28142E-03     110.712E-03    -54.6210E-03    -56.0997E-03    -53.3677E-03     107.980E-03    -54.6210E-03     41.8626E-03     123.470E+06     14.7955E+06    -25.3184E+06    -25.3176E+06     123.469E+06     14.7955E+06    -230.648E+03         36.0211
              11     12.3096E-03     61.4253E-03     419.532E-03     401.335E-03        -1.43892     402.914E-03        -1.43867     417.706E-03    -6.95150E-03     110.253E-03    -54.7215E-03    -55.5460E-03    -53.9010E-03     108.608E-03    -54.7215E-03     32.7475E-03     43.4318E+06     2.67895E+06    -28.4057E+06    -28.4013E+06     42.3577E+06     3.74874E+06     55.5475E+03         34.8900
              12     11.3625E-03     61.3918E-03     419.932E-03     407.802E-03        -1.44132     407.911E-03        -1.44051     419.016E-03     25.4375E-03     110.051E-03    -54.8466E-03    -55.2758E-03    -54.1668E-03     108.947E-03    -54.8513E-03     26.7318E-03     2.32008E+06    -16.3928E+06    -43.1264E+06    -31.6735E+06    -27.8457E+06     2.32008E+06     31.9785E+03         33.7857
              13     10.4154E-03     61.3664E-03     428.784E-03     419.328E-03        -1.46180     427.364E-03        -1.46039     419.328E-03    -4.56908E-03     109.763E-03    -54.8205E-03    -55.0204E-03    -54.1721E-03     109.039E-03    -54.9443E-03     21.7294E-03     2.40869E+06    -34.7277E+06    -77.3386E+06    -34.7286E+06    -77.3377E+06     2.40869E+06     25.1829E+03         32.7176
              14     9.46803E-03     61.3448E-03     433.963E-03     418.410E-03        -1.46991     432.618E-03        -1.46857     418.410E-03    -8.00694E-03     109.799E-03    -54.8091E-03    -55.0398E-03    -54.2497E-03     109.239E-03    -55.0398E-03     19.1338E-03     2.27718E+06    -38.5284E+06    -113.905E+06    -38.5289E+06    -113.905E+06     2.27718E+06     74.9457E+03         31.8012
              15     8.52093E-03     61.3250E-03     428.408E-03     417.236E-03        -1.46414     427.823E-03        -1.46356     417.236E-03     40.6067E-03     109.928E-03    -54.8522E-03    -55.0959E-03    -54.4128E-03     109.488E-03    -55.0959E-03     16.9434E-03    -669.383E+03    -42.9356E+06    -143.770E+06    -42.9359E+06    -143.770E+06    -669.383E+03     13.7231E+03         31.0426
              16     7.57378E-03     61.3080E-03     424.423E-03     409.927E-03        -1.44884     417.547E-03        -1.44876     416.717E-03    -21.7031E-03     109.950E-03    -54.8080E-03    -55.1520E-03    -54.4786E-03     109.620E-03    -55.1520E-03     14.6865E-03    -4.87080E+06    -47.8834E+06    -172.109E+06    -47.8835E+06    -172.109E+06    -4.87080E+06    -8.77188E+03         30.4149
              17     6.62681E-03     61.2932E-03     424.263E-03     409.990E-03        -1.44658     417.184E-03        -1.44629     416.779E-03     5.45370E-03     110.057E-03    -54.8601E-03    -55.2178E-03    -54.6012E-03     109.798E-03    -55.2178E-03     13.0401E-03    -9.59854E+06    -53.7602E+06    -198.422E+06    -53.7608E+06    -198.422E+06    -9.59854E+06     181.993E+03         29.8959
              18     5.67979E-03     61.2799E-03     428.470E-03     416.015E-03        -1.45576     426.748E-03        -1.45403     416.015E-03    -53.0435E-03     110.200E-03    -54.9574E-03    -55.2618E-03    -54.7573E-03     110.000E-03    -55.2618E-03     11.4554E-03    -17.3049E+06    -60.7316E+06    -225.169E+06    -60.7330E+06    -225.167E+06    -17.3049E+06     478.299E+03         29.4712
              19     4.73312E-03     61.2686E-03     425.602E-03     414.369E-03        -1.45310     423.238E-03        -1.45074     414.369E-03    -26.0544E-03     110.258E-03    -54.9808E-03    -55.2826E-03    -54.8343E-03     110.112E-03    -55.2826E-03     9.80607E-03    -29.6532E+06    -68.3210E+06    -246.922E+06    -68.3242E+06    -246.919E+06    -29.6532E+06     697.389E+03         29.1343
              20     3.78637E-03     61.2588E-03     416.968E-03     407.010E-03        -1.44641     408.816E-03        -1.44551     414.255E-03     63.1853E-03     110.302E-03    -55.0512E-03    -55.2527E-03    -54.9493E-03     110.200E-03    -55.2527E-03     8.15698E-03    -45.2918E+06    -75.8514E+06    -260.527E+06    -75.8542E+06    -260.524E+06    -45.2918E+06     541.250E+03         28.8771
              21     2.83967E-03     61.2509E-03     421.282E-03     394.060E-03        -1.44371     396.168E-03        -1.44329     418.754E-03     46.5467E-03     110.352E-03    -55.1310E-03    -55.2264E-03    -55.0913E-03     110.292E-03    -55.2069E-03     6.15651E-03    -62.1639E+06    -83.1060E+06    -271.289E+06    -83.1067E+06    -271.288E+06    -62.1639E+06     224.362E+03         28.6869
              22     1.89322E-03     61.2453E-03     441.338E-03     402.730E-03        -1.47437     410.561E-03        -1.46736     426.493E-03    -125.615E-03     110.264E-03    -55.1058E-03    -55.1632E-03    -55.1182E-03     110.237E-03    -55.1233E-03     4.16746E-03    -78.4372E+06    -88.9800E+06    -279.494E+06    -88.9825E+06    -279.491E+06    -78.4372E+06     559.121E+03         28.5535
              23     946.866E-06     61.2415E-03     477.321E-03     422.752E-03        -1.52449     427.049E-03        -1.48520     433.739E-03     196.259E-03     110.085E-03    -54.9325E-03    -55.1572E-03    -55.1468E-03     110.075E-03    -54.9325E-03     2.48540E-03    -90.1641E+06    -93.8216E+06    -285.575E+06    -93.2499E+06    -285.559E+06    -90.7514E+06     1.32063E+06         28.4729
              24     370.335E-09     60.1243E-03     468.122E-03     382.442E-03        -1.49790     335.006E-03        -1.45046     468.122E-03     545.911E-03     110.024E-03    -54.7993E-03    -55.2242E-03    -55.2189E-03     110.018E-03    -54.7993E-03     1.86763E-03    -92.5402E+06    -93.7270E+06    -284.876E+06    -93.7579E+06    -284.845E+06    -92.5402E+06     933.164E+03         28.4452
              25     96.2940E-09     59.0098E-03     501.977E-03     380.454E-03        -1.52660     418.526E-03        -1.51949     456.788E-03     146.110E-03     110.175E-03    -54.8639E-03    -55.3105E-03    -55.3069E-03     110.171E-03    -54.8639E-03     1.53360E-03    -92.3352E+06    -93.7802E+06    -284.368E+06    -93.0366E+06    -284.346E+06    -93.1011E+06    -1.96058E+06         28.4495
              26     290.082E-09     57.8945E-03     528.818E-03     358.667E-03        -1.53004     527.177E-03        -1.52840     358.667E-03     66.1469E-03     110.335E-03    -54.8227E-03    -55.5144E-03    -55.5115E-03     110.332E-03    -54.8227E-03     1.38474E-03    -92.8461E+06    -93.7724E+06    -285.721E+06    -93.0266E+06    -285.701E+06    -93.6120E+06    -828.894E+03         28.4530
              27     635.283E-09     56.7787E-03     579.575E-03     317.286E-03        -1.54865     573.283E-03        -1.54236     317.286E-03     224.332E-03     110.329E-03    -54.7751E-03    -55.5542E-03    -55.5501E-03     110.325E-03    -54.7751E-03     1.64328E-03     -94.758E+06    -94.9682E+06    -286.358E+06    -94.9709E+06    -286.355E+06     -94.758E+06     278.314E+03         28.4513
              28    -84.5034E-09     55.6630E-03     575.147E-03     376.194E-03        -1.61424     569.405E-03        -1.60849     376.194E-03     76.3008E-03     110.188E-03    -54.8455E-03    -55.3433E-03    -55.3382E-03     110.182E-03    -54.8455E-03     1.84020E-03    -94.9972E+06    -95.2673E+06    -287.733E+06    -95.2691E+06    -287.731E+06    -94.9972E+06    -567.975E+03         28.4459
              29     470.715E-09     54.5483E-03     608.354E-03     359.084E-03        -1.64803     607.116E-03        -1.64679     359.084E-03    -97.7464E-03     110.253E-03    -54.9723E-03    -55.2813E-03    -55.2758E-03     110.248E-03    -54.9723E-03     1.92035E-03    -91.0292E+06    -91.6354E+06    -287.404E+06    -91.2516E+06    -287.402E+06    -91.4150E+06    -130.715E+03         28.4414
              30    -276.807E-09     53.4322E-03     665.480E-03     340.051E-03        -1.69536     663.992E-03        -1.69388     340.051E-03     47.8937E-03     110.139E-03    -54.9461E-03    -55.1909E-03    -55.1859E-03     110.134E-03    -54.9461E-03     1.81295E-03    -92.0012E+06    -92.4568E+06    -287.199E+06    -92.0718E+06    -287.198E+06    -92.3870E+06     415.140E+03         28.4394
              31     544.419E-09     52.3177E-03     553.364E-03     413.301E-03        -1.67106     539.449E-03        -1.65943     415.579E-03     283.690E-03     110.061E-03    -54.7336E-03    -55.3282E-03    -55.3231E-03     110.056E-03    -54.7336E-03     1.82018E-03    -93.8309E+06    -94.2709E+06    -288.574E+06    -93.9010E+06    -288.573E+06    -94.2012E+06     95.5614E+03         28.4393
              32     304.971E-09     51.2021E-03     452.487E-03     443.055E-03        -1.60420     427.401E-03        -1.58854     452.487E-03     351.953E-03     110.069E-03    -54.6262E-03    -55.4438E-03    -55.4393E-03     110.064E-03    -54.6262E-03     1.71103E-03    -93.0112E+06    -94.1716E+06    -287.763E+06    -93.8017E+06    -287.762E+06    -93.3815E+06     83.1438E+03         28.4417
              33     393.609E-09     50.0877E-03     590.848E-03     454.807E-03        -1.76493     427.606E-03        -1.73773     590.848E-03     468.019E-03     109.953E-03    -54.6399E-03    -55.3154E-03    -55.3121E-03     109.949E-03    -54.6399E-03     1.46950E-03    -93.4944E+06    -94.9468E+06    -286.992E+06    -94.2858E+06    -286.991E+06    -94.1567E+06    -159.750E+03         28.4445
              34     191.557E-09     48.9730E-03     738.590E-03     438.669E-03        -1.89078     366.370E-03        -1.81848     738.590E-03     787.546E-03     110.148E-03    -54.8871E-03    -55.2640E-03    -55.2595E-03     110.144E-03    -54.8871E-03     1.70752E-03    -91.3674E+06    -92.2643E+06    -284.732E+06    -91.3844E+06    -284.715E+06    -92.2643E+06     917.868E+03         28.4459
              35    -69.4629E-09     47.8563E-03     802.740E-03     350.156E-03        -1.86368     249.486E-03        -1.76301     802.740E-03     922.418E-03     110.192E-03    -54.9510E-03    -55.2439E-03    -55.2393E-03     110.187E-03    -54.9510E-03     1.73487E-03    -89.3943E+06    -90.2899E+06    -282.604E+06    -90.0739E+06    -282.585E+06    -89.6288E+06     728.256E+03         28.4459
              36     514.250E-09     46.7420E-03     916.163E-03     301.586E-03        -1.95875     168.859E-03        -1.82602     916.163E-03         1.05649     110.057E-03    -54.6830E-03    -55.3754E-03    -55.3719E-03     110.054E-03    -54.6830E-03     1.50759E-03    -91.6009E+06    -92.5509E+06    -284.273E+06    -92.2666E+06    -284.269E+06    -91.8899E+06    -940.753E+03         28.4459
              37     361.426E-09     45.6275E-03     985.764E-03     292.383E-03        -2.02499     102.992E-03        -1.83560     985.764E-03         1.26581     110.159E-03    -54.8025E-03    -55.3593E-03    -55.3570E-03     110.157E-03    -54.8025E-03     1.21133E-03    -92.3844E+06    -93.3882E+06    -284.831E+06    -93.1213E+06    -284.809E+06    -92.6734E+06    -1.81271E+06         28.4467
              38    -172.619E-09     44.5116E-03         1.05168     312.108E-03        -2.12565     32.3940E-03        -1.84593         1.05168         1.54631     110.061E-03    -54.8868E-03    -55.1767E-03    -55.1751E-03     110.059E-03    -54.8868E-03     1.03265E-03    -92.4804E+06    -94.4594E+06    -285.861E+06    -93.2266E+06    -285.830E+06    -93.7445E+06    -336.607E+03         28.4470
              39     537.080E-09     43.3968E-03         1.14896     345.053E-03        -2.28639    -20.5251E-03        -1.92081         1.14896         1.81980     110.084E-03    -54.7969E-03    -55.2866E-03    -55.2826E-03     110.080E-03    -54.7969E-03     1.55492E-03    -90.2249E+06    -92.4919E+06    -283.697E+06    -91.2444E+06    -283.681E+06    -91.4890E+06     328.015E+03         28.4457
              40     32.1297E-09     42.2806E-03         1.18974     360.225E-03        -2.33539    -108.308E-03        -1.86686         1.18974         2.03229     110.220E-03    -54.8317E-03    -55.3884E-03    -55.3829E-03     110.215E-03    -54.8317E-03     1.90867E-03    -90.8232E+06    -92.4985E+06    -282.418E+06    -91.8359E+06    -282.409E+06    -91.4957E+06    -71.0029E+03         28.4445
              41     462.708E-09     41.1656E-03         1.20440     514.724E-03        -2.51868    -137.616E-03        -1.86634         1.20440         2.49127     110.155E-03    -54.7812E-03    -55.3731E-03    -55.3689E-03     110.150E-03    -54.7812E-03     1.67464E-03    -91.6717E+06    -92.4729E+06    -284.178E+06    -91.6777E+06    -284.172E+06    -92.4729E+06     256.002E+03         28.4445
              42     155.903E-09     40.0516E-03         1.30314     773.663E-03        -2.88597    -119.036E-03        -1.99327         1.30314         3.13975     110.255E-03    -54.8804E-03    -55.3736E-03    -55.3695E-03     110.251E-03    -54.8804E-03     1.64440E-03    -90.7023E+06    -91.7326E+06    -284.342E+06    -91.6093E+06    -284.337E+06    -90.8311E+06     213.359E+03         28.4440
              43     171.506E-09     38.9344E-03         1.42013     943.224E-03        -3.17201    -218.477E-03        -2.01031         1.42013         3.69938     110.130E-03    -54.8304E-03    -55.2992E-03    -55.2952E-03     110.126E-03    -54.8304E-03     1.63288E-03    -90.3423E+06    -92.3801E+06    -283.647E+06    -91.2557E+06    -283.635E+06    -91.4785E+06    -274.299E+03         28.4423
              44     392.702E-09     37.8204E-03         1.41348         1.12064        -3.35658    -320.596E-03        -1.91534         1.41348         4.18006     109.926E-03    -54.6857E-03    -55.2437E-03    -55.2407E-03     109.924E-03    -54.6857E-03     1.37777E-03    -91.9171E+06    -93.6121E+06    -284.947E+06    -92.4845E+06    -284.938E+06    -93.0533E+06    -630.745E+03         28.4428
              45     98.0504E-09     36.7063E-03         1.49679         1.37290        -3.67987    -322.367E-03        -1.92126         1.43345         4.85961     110.268E-03    -54.8708E-03    -55.4018E-03    -55.3999E-03     110.266E-03    -54.8708E-03     1.11083E-03    -92.1903E+06    -93.3154E+06    -285.085E+06    -93.3206E+06    -285.080E+06    -92.1903E+06    -408.662E+03         28.4449
              46     437.128E-09     35.5890E-03         1.79913         1.56496        -4.17950    -360.464E-03        -2.01990         1.56496         5.74163     110.376E-03    -54.8799E-03    -55.4984E-03    -55.4941E-03     110.372E-03    -54.8799E-03     1.59719E-03    -91.9015E+06    -93.1084E+06    -284.139E+06    -92.4788E+06    -284.128E+06    -92.5420E+06     128.538E+03         28.4448
              47     199.703E-09     34.4737E-03         2.02229         1.66797        -4.51419    -455.214E-03        -2.03669         1.66797         6.34174     110.080E-03    -54.8554E-03    -55.2241E-03    -55.2188E-03     110.075E-03    -54.8554E-03     1.85358E-03    -92.3628E+06    -93.2805E+06    -283.732E+06    -92.3693E+06    -283.725E+06    -93.2805E+06     861.032E+03         28.4440
              48    -146.722E-09     33.3600E-03         2.18249         1.70402        -4.70914    -481.588E-03        -2.04506         1.70402         6.71190     110.079E-03    -54.8572E-03    -55.2229E-03    -55.2204E-03     110.076E-03    -54.8572E-03     1.26321E-03    -91.9724E+06    -92.4709E+06    -282.939E+06    -92.1942E+06    -282.939E+06    -92.2495E+06     251.289E+03         28.4468
              49     798.620E-09     32.2440E-03         2.43831         1.70497        -4.97371    -458.267E-03        -2.07714         1.70497         7.23295     110.358E-03    -54.8093E-03    -55.5488E-03    -55.5459E-03     110.355E-03    -54.8093E-03     1.35853E-03    -92.6107E+06    -94.1596E+06    -283.266E+06    -94.1724E+06    -283.253E+06    -92.6107E+06    -906.043E+03         28.4527
              50    -15.5613E-09     31.1289E-03         2.63980         1.70833        -5.20757    -494.419E-03        -2.07335         1.70833         7.68631     110.384E-03    -54.8887E-03    -55.4949E-03    -55.4918E-03     110.381E-03    -54.8887E-03     1.37265E-03    -92.1572E+06    -95.5330E+06    -283.661E+06    -93.4989E+06    -283.647E+06    -94.2056E+06    -658.132E+03         28.4550
              51     384.164E-09     30.0127E-03         2.63508         1.74533        -5.24352    -515.771E-03        -2.09267         1.74533         7.71871     110.133E-03    -54.9368E-03    -55.2020E-03    -55.1978E-03     110.129E-03    -54.9368E-03     1.57175E-03    -91.0936E+06    -94.3619E+06    -284.607E+06    -92.3186E+06    -284.602E+06    -93.1421E+06     981.239E+03         28.4513
              52    -258.603E-09     28.8978E-03         2.56896         1.77544        -5.22357    -458.702E-03        -2.19591         1.77544         7.59582     110.005E-03    -54.7768E-03    -55.2372E-03    -55.2326E-03     110.001E-03    -54.7768E-03     1.67504E-03    -90.2668E+06    -93.0005E+06    -284.483E+06    -91.4906E+06    -284.479E+06    -91.7807E+06     284.091E+03         28.4471
              53     1.00532E-06     27.7826E-03         2.57402         1.73782        -5.18473    -444.912E-03        -2.16580         1.73782         7.56478     109.977E-03    -54.7135E-03    -55.2676E-03    -55.2636E-03     109.973E-03    -54.7135E-03     1.58120E-03    -91.8663E+06    -94.8828E+06    -284.661E+06    -93.3781E+06    -284.652E+06    -93.3802E+06     625.998E+03         28.4466
              54    -689.865E-09     26.6685E-03         2.52269         1.74666        -5.13640    -461.507E-03        -2.15220         1.74666         7.46954     110.156E-03    -54.8060E-03    -55.3517E-03    -55.3484E-03     110.153E-03    -54.8060E-03     1.33503E-03    -91.9688E+06    -94.4917E+06    -282.527E+06    -93.4874E+06    -282.511E+06    -92.9892E+06     55.3541E+03         28.4479
              55     1.42860E-06     25.5521E-03         2.38718         1.77470        -5.03884    -462.935E-03        -2.18872         1.77470         7.22270     110.235E-03    -54.7980E-03    -55.4382E-03    -55.4342E-03     110.231E-03    -54.7980E-03     1.45271E-03    -92.6647E+06    -94.4080E+06    -283.904E+06    -93.3961E+06    -283.895E+06    -93.6852E+06    -1.15722E+06         28.4463
              56    -952.479E-09     24.4373E-03         2.23352         1.69610        -4.81639    -467.773E-03        -2.11510         1.69610         6.85474     109.961E-03    -54.8535E-03    -55.1099E-03    -55.1056E-03     109.956E-03    -54.8535E-03     1.57133E-03    -94.8090E+06    -96.0938E+06    -285.897E+06    -95.5335E+06    -285.895E+06    -95.3710E+06    -61.5610E+03         28.4381
              57     969.853E-09     23.3221E-03         2.06881         1.71339        -4.68825    -403.490E-03        -2.21596         1.71339         6.50529     109.506E-03    -54.4676E-03    -55.0435E-03    -55.0410E-03     109.504E-03    -54.4676E-03     1.24103E-03    -96.7292E+06    -97.8290E+06    -285.813E+06    -97.2677E+06    -285.812E+06    -97.2912E+06     294.229E+03         28.4228
              58     115.327E-09     22.2083E-03         1.86537         1.73049        -4.47678    -317.591E-03        -2.33491         1.77158         5.96804     109.160E-03    -54.2756E-03    -54.8880E-03    -54.8829E-03     109.155E-03    -54.2756E-03     1.80128E-03    -95.6778E+06    -96.4516E+06    -285.812E+06    -96.2163E+06    -285.812E+06    -95.9138E+06     280.791E+03         28.4053
              59    -31.8165E-09     21.0932E-03         1.63500         1.57209        -4.07945    -282.699E-03        -2.22467         1.63500         5.30738     109.222E-03    -54.3772E-03    -54.8499E-03    -54.8459E-03     109.218E-03    -54.3772E-03     1.52049E-03    -94.1652E+06    -94.7439E+06    -283.796E+06    -94.1672E+06    -283.794E+06    -94.7439E+06    -120.036E+03         28.3852
              60     840.524E-09     19.9799E-03         1.51041         1.40180        -3.79679    -199.504E-03        -2.19548         1.51041         4.79543     108.874E-03    -54.1664E-03    -54.7128E-03    -54.7115E-03     108.873E-03    -54.1664E-03     892.133E-06    -96.6050E+06    -97.1750E+06    -285.147E+06    -96.8345E+06    -285.145E+06    -96.9477E+06    -64.7371E+03         28.3465
              61    -603.982E-09     18.8671E-03         1.50772         1.10179        -3.53535    -137.993E-03        -2.29557         1.50772         4.09731     108.211E-03    -54.0132E-03    -54.2001E-03    -54.1991E-03     108.210E-03    -54.0132E-03     798.912E-06    -96.2959E+06    -97.1334E+06    -284.302E+06    -96.5253E+06    -284.300E+06    -96.9061E+06     631.477E+03         28.2704
              62     734.548E-09     17.7536E-03         1.36378     876.731E-03        -3.15774    -74.5920E-03        -2.20642         1.36378         3.42472     107.365E-03    -53.4630E-03    -53.9072E-03    -53.9063E-03     107.365E-03    -53.4630E-03     765.490E-06    -93.7749E+06    -96.0385E+06    -281.715E+06    -95.4394E+06    -281.704E+06    -94.3852E+06    -623.512E+03         28.1411
              63     3.83100E-09     16.6421E-03         1.24088     804.921E-03        -2.94532     87.1112E-03        -2.22751         1.24088         2.92711     104.894E-03    -52.0733E-03    -52.8266E-03    -52.8261E-03     104.894E-03    -52.0733E-03     269.088E-06    -94.4051E+06    -98.1021E+06    -283.553E+06    -96.0687E+06    -283.542E+06    -96.4488E+06    -788.739E+03         27.9315
              64     694.411E-09     15.5347E-03         1.22312     693.132E-03        -2.86226     209.748E-03        -2.37888         1.22312         2.43158     100.745E-03    -50.1535E-03    -50.5953E-03    -50.5953E-03     100.745E-03    -50.1535E-03    -180.949E-06    -93.2122E+06    -96.3801E+06    -282.140E+06    -94.3512E+06    -282.125E+06    -95.2559E+06     1.33070E+06         27.6080
              65    -554.518E-09     14.4330E-03         1.02159     591.115E-03        -2.55000     277.978E-03        -2.23686         1.02159         1.86721     95.2202E-03    -47.5592E-03    -47.6640E-03    -47.6211E-03     95.2175E-03    -47.5994E-03    -932.851E-06    -89.0888E+06    -92.3906E+06    -277.058E+06    -90.2305E+06    -277.041E+06    -91.2664E+06     1.69089E+06         27.1492
              66     456.596E-09     13.3372E-03     870.990E-03     578.927E-03        -2.39068     400.376E-03        -2.21213     870.990E-03         1.40061     87.4988E-03    -43.6413E-03    -43.8597E-03    -43.8122E-03     87.4914E-03    -43.6814E-03    -1.94616E-03    -87.2115E+06    -89.6223E+06    -272.244E+06    -87.4696E+06    -272.219E+06    -89.3890E+06     1.94053E+06         26.5537
              67    -107.865E-09     12.2525E-03     796.877E-03     626.297E-03        -2.37747     496.387E-03        -2.24756     796.877E-03         1.22095     77.7749E-03    -38.6757E-03    -39.1026E-03    -39.0888E-03     77.7611E-03    -38.6757E-03    -2.49473E-03    -78.4688E+06    -79.6046E+06    -265.262E+06    -79.6372E+06    -265.230E+06    -78.4688E+06     2.42286E+06         25.8836
              68     589.086E-09     11.1780E-03     735.635E-03     622.501E-03        -2.30168     550.824E-03        -2.23000     735.635E-03     854.596E-03     67.4230E-03    -33.4317E-03    -33.9893E-03    -33.9721E-03     67.4057E-03    -33.4317E-03    -2.64401E-03    -69.9968E+06    -71.7962E+06    -258.647E+06    -71.8076E+06    -258.636E+06    -69.9968E+06     1.25261E+06         25.3214
              69     24.1260E-09     10.1155E-03     766.609E-03     698.959E-03        -2.41741     671.195E-03        -2.38965     766.609E-03     585.021E-03     58.0444E-03    -28.8046E-03    -29.2370E-03    -29.2140E-03     58.0214E-03    -28.8046E-03    -2.78507E-03    -65.6816E+06    -68.7037E+06    -253.246E+06    -66.5945E+06    -253.230E+06    -67.8068E+06     1.44430E+06         25.0621
              70     166.132E-09     9.06395E-03     685.501E-03     678.198E-03        -2.30449     664.144E-03        -2.28472     679.786E-03     480.505E-03     52.0660E-03    -25.8773E-03    -26.1875E-03    -26.1652E-03     52.0436E-03    -25.8773E-03    -2.61314E-03    -61.1061E+06    -66.9514E+06    -246.568E+06    -64.8416E+06    -246.552E+06    -63.2313E+06     1.26776E+06         25.1652
              71     237.540E-09     8.01292E-03     622.179E-03     563.453E-03        -2.11598     598.204E-03        -2.09201     563.453E-03     496.262E-03     52.0965E-03    -25.9479E-03    -26.1467E-03    -26.1272E-03     52.0890E-03    -25.9599E-03    -983.755E-06    -59.9338E+06    -66.6828E+06    -243.433E+06    -63.6577E+06    -243.429E+06    -62.9627E+06     653.359E+03         25.6206
              72    -292.439E-09     6.95845E-03     690.931E-03     612.792E-03        -2.26521     667.028E-03        -2.24131     612.792E-03     509.718E-03     60.4015E-03    -30.1436E-03    -30.2542E-03    -30.2340E-03     60.3934E-03    -30.1557E-03     1.34843E-03     -60.948E+06    -67.9841E+06    -247.841E+06    -64.9602E+06    -247.836E+06    -63.9769E+06     262.133E+03         26.4436
              73     545.253E-09     5.89152E-03     797.936E-03     638.744E-03        -2.36774     736.834E-03        -2.30663     638.744E-03     780.828E-03     79.4389E-03    -39.3259E-03    -40.1102E-03    -40.0723E-03     79.4010E-03    -39.3259E-03     4.14797E-03    -64.4305E+06    -69.1758E+06    -253.340E+06    -68.4485E+06    -253.329E+06    -65.1686E+06    -1.28087E+06         27.6839
              74     750.942E-09     4.79736E-03     770.272E-03     632.269E-03        -2.33442     678.903E-03        -2.24699     636.208E-03         1.01969     109.279E-03    -54.0056E-03    -55.2759E-03    -54.6122E-03     109.200E-03    -54.5902E-03     7.19384E-03    -66.7821E+06    -68.4904E+06    -255.485E+06    -66.7929E+06    -255.474E+06    -68.4904E+06    -603.520E+03         29.4278
              75    -1.86657E-06     3.66342E-03     747.214E-03     682.921E-03        -2.37833     660.509E-03        -2.29556     686.859E-03     998.966E-03     146.926E-03    -73.1039E-03    -73.8289E-03    -73.0187E-03     146.841E-03    -73.8289E-03     8.56497E-03    -68.4976E+06    -71.7129E+06    -257.237E+06    -68.5046E+06    -257.230E+06    -71.7129E+06    -385.104E+03         31.7504
              76     1.59414E-06     2.48222E-03     767.884E-03     690.251E-03        -2.37079     678.650E-03        -2.29884     707.530E-03     920.510E-03     185.941E-03    -92.6891E-03    -93.2474E-03    -93.0462E-03     185.880E-03    -92.8295E-03     8.15676E-03    -68.1253E+06    -71.4017E+06    -258.698E+06    -69.1786E+06    -258.676E+06    -70.3704E+06     509.209E+03         34.3995
              77    -824.666E-09     1.25504E-03     680.559E-03     642.799E-03        -2.27965     601.933E-03        -2.23878     680.559E-03     686.156E-03     215.452E-03    -107.358E-03    -108.084E-03    -108.058E-03     215.426E-03    -107.358E-03     4.90635E-03    -67.1074E+06    -68.1761E+06    -256.979E+06    -68.1937E+06    -256.961E+06    -67.1074E+06     887.236E+03         36.7862
              78     890.644E-06     219.792E-09     628.007E-03     602.946E-03        -2.20534     587.041E-03        -2.18486     623.427E-03     231.997E-03     224.231E-03    -111.444E-03    -112.781E-03    -111.740E-03     224.218E-03    -112.472E-03     3.69981E-03    -66.8289E+06    -67.5087E+06    -256.531E+06    -67.5102E+06    -256.529E+06    -66.8289E+06    -485.925E+03         37.6990
              79     1.78478E-03     219.792E-09     651.294E-03     613.986E-03        -2.22104     649.537E-03        -2.21928     613.986E-03    -59.0828E-03     218.631E-03    -107.457E-03    -111.169E-03    -107.414E-03     218.587E-03    -111.169E-03     7.26273E-03    -66.3162E+06    -67.3678E+06    -257.816E+06    -66.9629E+06    -257.812E+06    -66.7255E+06    -761.540E+03         37.3189
              80     2.68298E-03     219.792E-09     673.844E-03     630.180E-03        -2.25798     673.645E-03        -2.25778     630.180E-03     31.7225E-03     210.190E-03    -101.240E-03    -108.929E-03    -101.150E-03     210.099E-03    -108.929E-03     10.4700E-03    -66.6740E+06    -67.1473E+06    -258.380E+06    -66.7431E+06    -258.375E+06    -67.0832E+06    -329.956E+03         36.7488
              81     3.58881E-03     219.792E-09     659.926E-03     639.931E-03        -2.25336     659.802E-03        -2.25323     639.931E-03     24.3231E-03     199.673E-03    -93.5863E-03    -106.054E-03    -93.4425E-03     199.530E-03    -106.054E-03     12.8986E-03    -66.9035E+06    -67.8728E+06    -258.793E+06    -66.9697E+06    -258.791E+06    -67.8087E+06    -34.6958E+03         36.0430
              82     4.50278E-03     219.792E-09     652.266E-03     642.022E-03        -2.24347     650.871E-03        -2.24326     643.206E-03     4.42951E-03     188.252E-03    -85.5275E-03    -102.697E-03    -85.3307E-03     188.055E-03    -102.697E-03     14.6285E-03    -66.4793E+06    -72.3681E+06    -260.006E+06    -66.4948E+06    -259.990E+06    -72.3681E+06    -1.52021E+06         35.2658
              83     5.42394E-03     219.792E-09     643.784E-03     641.205E-03        -2.23193     641.085E-03        -2.23181     643.784E-03    -36.1809E-03     176.734E-03    -77.6231E-03    -99.0564E-03    -77.3753E-03     176.486E-03    -99.0564E-03     15.8272E-03    -62.8990E+06    -80.9906E+06    -261.934E+06    -63.1072E+06    -261.726E+06    -80.9906E+06    -5.61496E+06         34.4916
              84     6.35348E-03     219.792E-09     643.329E-03     640.089E-03        -2.22847     639.440E-03        -2.22782     643.329E-03    -73.2068E-03     165.689E-03    -70.2822E-03    -95.2952E-03    -69.9892E-03     165.396E-03    -95.2952E-03     16.5981E-03    -56.6026E+06    -93.6633E+06    -255.427E+06    -56.9568E+06    -255.073E+06    -93.6633E+06    -8.37931E+06         33.7913
              85     7.28912E-03     219.792E-09     642.666E-03     636.509E-03        -2.22611     635.749E-03        -2.22535     642.666E-03    -88.1152E-03     155.850E-03    -64.1776E-03    -91.5519E-03    -63.8357E-03     155.508E-03    -91.5519E-03     17.3011E-03    -48.6352E+06    -107.404E+06    -225.676E+06    -49.2291E+06    -225.082E+06    -107.404E+06    -9.81004E+06         33.2201
              86     8.23044E-03     219.792E-09     641.505E-03     628.565E-03        -2.22204     628.353E-03        -2.22183     641.505E-03    -9.24307E-03     147.995E-03    -59.9033E-03    -88.0001E-03    -59.4312E-03     147.523E-03    -88.0001E-03     19.6516E-03    -38.4538E+06    -119.341E+06    -181.505E+06    -39.4277E+06    -180.531E+06    -119.341E+06    -11.6887E+06         32.8513
              87     9.17159E-03     219.792E-09     639.971E-03     625.015E-03        -2.22168     624.856E-03        -2.22152     639.971E-03     42.4276E-03     141.498E-03    -56.7172E-03    -84.7533E-03    -56.0750E-03     140.856E-03    -84.7533E-03     22.4798E-03    -25.2314E+06    -118.471E+06    -142.675E+06    -27.2522E+06    -133.764E+06    -125.362E+06    -14.0523E+06         32.7571
              88     10.1195E-03     219.792E-09     645.361E-03     632.841E-03        -2.24639     638.876E-03        -2.24623     639.167E-03     3.20937E-03     133.370E-03    -51.7437E-03    -81.7356E-03    -51.1565E-03     132.783E-03    -81.7356E-03     20.7451E-03    -12.8932E+06    -78.8206E+06    -121.190E+06    -15.6242E+06    -76.0896E+06    -121.190E+06    -12.9033E+06         32.9681
              89     11.0747E-03     219.792E-09     651.193E-03     639.644E-03        -2.26749     651.104E-03        -2.26740     639.644E-03    -8.43759E-03     125.512E-03    -46.7464E-03    -78.8178E-03    -46.2130E-03     124.979E-03    -78.8178E-03     19.0793E-03     20.8997E+06    -28.0665E+06    -108.736E+06    -10.5126E+06     3.34576E+06    -108.736E+06    -5.86478E+06         33.4991
              90     12.0331E-03     219.792E-09     645.265E-03     628.865E-03        -2.25588     634.173E-03        -2.25583     639.911E-03    -540.272E-06     121.902E-03    -45.6332E-03    -76.2634E-03    -45.0664E-03     121.335E-03    -76.2634E-03     19.4471E-03     86.0509E+06    -10.2117E+06    -75.9426E+06    -10.1635E+06     86.0027E+06    -75.9426E+06    -1.51282E+06         34.3655
              91     12.9866E-03     219.792E-09     638.761E-03     613.695E-03        -2.24956     613.669E-03        -2.24953     638.761E-03    -8.64534E-03     120.161E-03    -46.1204E-03    -74.0784E-03    -45.3576E-03     119.398E-03    -74.0784E-03     22.1882E-03     141.001E+06      3.1403E+06    -30.2164E+06    -9.66883E+06     140.994E+06    -17.4006E+06    -979.528E+03         35.5815
              92     13.9379E-03     219.792E-09     637.151E-03     617.119E-03        -2.27389     617.042E-03        -2.27381     637.151E-03    -17.7275E-03     118.655E-03    -46.2178E-03    -72.3802E-03    -44.8827E-03     117.320E-03    -72.3802E-03     29.3014E-03     168.362E+06     53.0236E+06    -5.18013E+06    -5.04523E+06     168.227E+06     53.0236E+06    -4.04784E+06         37.1410
              93     14.8907E-03     219.792E-09     637.049E-03     630.285E-03        -2.31468     630.904E-03        -2.31455     636.296E-03    -2.16497E-03     122.840E-03    -51.5756E-03    -71.2133E-03    -48.9313E-03     120.196E-03    -71.2133E-03     42.0686E-03     178.286E+06     114.369E+06    -905.394E+03    -626.367E+03     178.007E+06     114.369E+06     270.409E+03         38.9686
              94     15.8334E-03     219.792E-09     672.310E-03     637.189E-03        -2.43007     671.731E-03        -2.42949     637.189E-03    -39.2360E-03     146.000E-03    -63.7803E-03    -82.3802E-03    -67.5249E-03     138.053E-03    -70.6883E-03     80.5568E-03     176.050E+06     140.499E+06    -57.7574E+03     289.277E+03     175.703E+06     140.499E+06     7.78286E+06         40.8667
              95     16.8351E-03     1.19365E-03     728.008E-03     642.514E-03        -2.46286     723.811E-03        -2.45866     642.514E-03    -210.011E-03     144.374E-03    -64.5367E-03    -80.0368E-03    -62.5879E-03     130.734E-03    -68.3448E-03     105.142E-03     174.106E+06     139.263E+06    -4.73962E+06    -4.18114E+06     173.548E+06     139.263E+06     9.89667E+06         41.5830
              96     16.9058E-03     2.29432E-03     706.702E-03     649.575E-03        -2.32624     699.886E-03        -2.31942     649.575E-03    -287.195E-03     123.476E-03    -59.6570E-03    -63.9508E-03    -48.6469E-03     112.466E-03    -63.9508E-03     85.3541E-03     176.043E+06     137.441E+06    -3.92944E+06    -3.30035E+06     175.414E+06     137.441E+06     10.6047E+06         41.3954
              97     16.9603E-03     3.41005E-03     659.625E-03     619.423E-03        -2.20630     620.868E-03        -2.20174     653.622E-03    -223.365E-03     127.662E-03    -59.7597E-03    -68.0937E-03    -62.8465E-03     122.900E-03    -60.2454E-03     57.8341E-03     173.981E+06     135.385E+06    -4.35761E+06    -3.89001E+06     173.514E+06     135.385E+06     9.08537E+06         41.5112
              98     16.9999E-03     4.55610E-03     657.768E-03     622.216E-03        -2.18051     621.942E-03        -2.17888     656.416E-03    -122.899E-03     134.966E-03    -57.4659E-03    -77.6278E-03    -75.6441E-03     132.983E-03    -57.4659E-03     40.4350E-03     171.761E+06     134.178E+06    -5.08182E+06    -4.81989E+06     171.499E+06     134.178E+06     6.57711E+06         41.7126
              99     17.0265E-03     5.70665E-03     659.962E-03     658.542E-03        -2.21184     658.764E-03        -2.21064     658.542E-03    -110.154E-03     137.790E-03    -55.7166E-03    -82.1100E-03    -80.9061E-03     136.587E-03    -55.7166E-03     32.2467E-03     172.132E+06     134.892E+06    -4.28593E+06    -4.21440E+06     172.060E+06     134.892E+06     3.20641E+06         41.9444
             100     17.0410E-03     6.86125E-03     657.598E-03     629.270E-03        -2.19913     627.425E-03        -2.19722     657.530E-03    -147.038E-03     137.131E-03    -54.7797E-03    -82.4263E-03    -81.5887E-03     136.294E-03    -54.7797E-03     27.0201E-03     172.120E+06     133.742E+06    -5.19457E+06    -5.18410E+06     172.110E+06     133.742E+06     500.463E+03         42.1591
             101     17.0467E-03     8.01178E-03     655.828E-03     610.172E-03        -2.17356     609.241E-03        -2.17263     655.828E-03    -65.3806E-03     134.030E-03    -54.4259E-03    -79.7378E-03    -79.0044E-03     133.297E-03    -54.4259E-03     24.9966E-03     171.047E+06     132.819E+06    -2.62660E+06    -2.62418E+06     171.044E+06     132.819E+06    -150.614E+03         42.3255
             102     17.0485E-03     9.15414E-03     658.080E-03     639.099E-03        -2.20416     640.675E-03        -2.20415     656.495E-03     10.3939E-03     129.989E-03    -54.3846E-03    -75.7584E-03    -75.0574E-03     129.288E-03    -54.3846E-03     23.9757E-03     170.305E+06     130.973E+06    -3.81142E+06    -3.80984E+06     170.304E+06     130.973E+06    -46.1650E+03         42.4315
             103     17.0488E-03     10.2906E-03     657.991E-03     650.685E-03        -2.23391     652.122E-03        -2.23376     656.406E-03    -24.7387E-03     125.924E-03    -54.4495E-03    -71.5276E-03    -70.8681E-03     125.264E-03    -54.4495E-03     22.7830E-03     170.531E+06     129.040E+06    -3.38826E+06    -3.38616E+06     170.529E+06     129.040E+06    -603.104E+03         42.4788
             104     17.0488E-03     11.4227E-03     654.323E-03     627.121E-03        -2.20720     626.836E-03        -2.20692     654.323E-03    -56.8653E-03     122.109E-03    -54.5547E-03    -67.4935E-03    -66.8854E-03     121.501E-03    -54.5547E-03     21.4325E-03     170.502E+06     127.583E+06    -3.57287E+06    -3.57166E+06     170.501E+06     127.583E+06    -383.984E+03         42.4805
             105     17.0482E-03     12.5505E-03     652.611E-03     619.064E-03        -2.18654     618.909E-03        -2.18639     652.611E-03    -18.7635E-03     118.077E-03    -54.6777E-03    -63.4586E-03    -63.0019E-03     117.620E-03    -54.6777E-03     18.0855E-03     170.214E+06     126.112E+06    -3.41602E+06    -3.41569E+06     170.214E+06     126.112E+06     88.0802E+03         42.4541
             106     17.0483E-03     13.6698E-03     656.982E-03     640.056E-03        -2.21312     644.879E-03        -2.21309     652.122E-03    -1.95945E-03     114.096E-03    -54.7870E-03    -59.4576E-03    -59.1945E-03     113.833E-03    -54.7870E-03     13.3335E-03     169.926E+06     125.066E+06    -3.88472E+06    -3.88441E+06     169.926E+06     125.066E+06     201.700E+03         42.4108
             107     17.0485E-03     14.7874E-03     656.269E-03     642.570E-03        -2.21115     647.359E-03        -2.21108     651.409E-03    -27.8813E-03     111.163E-03    -54.8595E-03    -56.4459E-03    -56.3160E-03     111.033E-03    -54.8595E-03     9.19092E-03     169.286E+06     124.803E+06    -3.80594E+06    -3.80526E+06     169.285E+06     124.803E+06    -189.068E+03         42.3616
             108     17.0487E-03     15.9038E-03     649.374E-03     625.440E-03        -2.19844     625.378E-03        -2.19838     649.374E-03    -25.2191E-03     109.308E-03    -54.3497E-03    -55.1072E-03    -54.4922E-03     109.243E-03    -54.8998E-03     6.44705E-03     168.656E+06     124.779E+06    -3.41729E+06    -3.41662E+06     168.656E+06     124.779E+06    -271.050E+03         42.3271
             109     17.0488E-03     17.0188E-03     647.624E-03     630.781E-03        -2.19978     630.761E-03        -2.19976     647.624E-03    -14.9373E-03     108.241E-03    -53.4911E-03    -54.9185E-03    -53.4534E-03     108.203E-03    -54.9185E-03     4.91955E-03     168.456E+06     125.119E+06    -3.34171E+06    -3.34087E+06     168.456E+06     125.119E+06     231.216E+03         42.3204
             110     17.0489E-03     18.1331E-03     646.366E-03     638.833E-03        -2.19908     638.575E-03        -2.19882     646.366E-03    -44.2134E-03     107.842E-03    -53.1034E-03    -54.9286E-03    -53.0739E-03     107.812E-03    -54.9286E-03     4.35958E-03     169.634E+06     125.298E+06    -2.97536E+06    -2.97062E+06     169.629E+06     125.298E+06     848.592E+03         42.3373
             111     17.0484E-03     19.2494E-03     645.066E-03     624.385E-03        -2.18337     623.971E-03        -2.18295     645.066E-03    -7.67618E-03     107.896E-03    -53.1429E-03    -54.9447E-03    -53.1154E-03     107.868E-03    -54.9447E-03     4.20098E-03     171.224E+06     124.903E+06    -4.14301E+06    -4.13676E+06     171.218E+06     124.903E+06     1.03688E+06         42.3680
             112     17.0484E-03     20.3639E-03     643.840E-03     623.670E-03        -2.17415     623.467E-03        -2.17394     643.840E-03     15.0967E-03     107.885E-03    -53.1383E-03    -54.9515E-03    -53.1202E-03     107.867E-03    -54.9515E-03     3.33771E-03     172.198E+06     125.253E+06    -3.70572E+06    -3.70311E+06     172.195E+06     125.253E+06     297.196E+03         42.4044
             113     17.0489E-03     21.4780E-03     643.541E-03     635.880E-03        -2.19683     638.184E-03        -2.19675     641.154E-03    -30.6654E-03     107.705E-03    -52.9155E-03    -54.9406E-03    -52.9017E-03     107.691E-03    -54.9406E-03     2.95687E-03     172.145E+06     125.695E+06    -3.75690E+06    -3.75603E+06     172.144E+06     125.695E+06     73.1163E+03         42.4431
             114     17.0492E-03     22.5949E-03     640.356E-03     613.953E-03        -2.16575     615.857E-03        -2.16527     637.969E-03    -64.5465E-03     107.744E-03    -52.9616E-03    -54.9235E-03    -52.9391E-03     107.721E-03    -54.9235E-03     3.77858E-03     171.875E+06     125.572E+06    -3.84003E+06    -3.83586E+06     171.870E+06     125.572E+06    -328.570E+03         42.4873
             115     17.0489E-03     23.7094E-03     636.499E-03     590.079E-03        -2.11554     589.592E-03        -2.11505     636.499E-03    -32.8852E-03     107.924E-03    -53.1491E-03    -54.9179E-03    -53.1286E-03     107.903E-03    -54.9179E-03     3.57515E-03     171.616E+06     125.571E+06    -3.10942E+06    -3.10583E+06     171.612E+06     125.571E+06    -516.951E+03         42.5375
             116     17.0492E-03     24.8241E-03     646.920E-03     612.819E-03        -2.13138     624.467E-03        -2.13133     635.222E-03     19.5834E-03     107.824E-03    -53.0965E-03    -54.9249E-03    -53.0826E-03     107.810E-03    -54.9249E-03     2.98523E-03     170.570E+06     125.289E+06    -3.76065E+06    -3.76063E+06     170.570E+06     125.289E+06     13.0286E+03         42.5895
             117     17.0491E-03     25.9400E-03     643.787E-03     630.405E-03        -2.15376     642.099E-03        -2.15376     632.089E-03     1.91098E-03     107.657E-03    -52.9620E-03    -54.9289E-03    -52.9484E-03     107.644E-03    -54.9289E-03     2.95054E-03     171.086E+06     125.505E+06    -3.28760E+06    -3.28544E+06     171.084E+06     125.505E+06     406.535E+03         42.6403
             118     17.0491E-03     27.0548E-03     628.179E-03     605.835E-03        -2.12341     605.565E-03        -2.12314     628.179E-03    -39.6885E-03     107.660E-03    -52.9561E-03    -54.9303E-03    -52.9419E-03     107.646E-03    -54.9303E-03     3.01668E-03     171.837E+06     125.915E+06    -3.38931E+06    -3.38708E+06     171.835E+06     125.915E+06     516.276E+03         42.6863
             119     17.0491E-03     28.1703E-03     624.451E-03     593.121E-03        -2.09570     592.819E-03        -2.09539     624.451E-03    -24.7185E-03     107.692E-03    -53.0379E-03    -54.9278E-03    -53.0201E-03     107.674E-03    -54.9278E-03     3.37395E-03     172.125E+06     125.678E+06    -4.07845E+06    -4.07763E+06     172.124E+06     125.678E+06     337.949E+03         42.7243
             120     17.0492E-03     29.2857E-03     621.629E-03     607.536E-03        -2.10280     607.329E-03        -2.10260     621.629E-03     44.0516E-03     107.628E-03    -52.9340E-03    -54.9245E-03    -52.9186E-03     107.612E-03    -54.9245E-03     3.11889E-03     173.076E+06     126.424E+06    -3.35998E+06    -3.35922E+06     173.075E+06     126.424E+06     225.986E+03         42.7556
             121     17.0495E-03     30.3992E-03     618.588E-03     604.394E-03        -2.09228     604.162E-03        -2.09205     618.588E-03     13.1658E-03     107.624E-03    -52.9218E-03    -54.9181E-03    -52.9105E-03     107.612E-03    -54.9181E-03     2.69810E-03     173.217E+06     126.850E+06    -3.87116E+06    -3.86985E+06     173.215E+06     126.850E+06     308.210E+03         42.7842
             122     17.0494E-03     31.5159E-03     612.347E-03     578.267E-03        -2.04647     577.874E-03        -2.04607     612.347E-03    -59.1987E-03     107.829E-03    -53.1782E-03    -54.9153E-03    -53.1642E-03     107.815E-03    -54.9153E-03     2.99477E-03     174.007E+06     127.030E+06    -3.64975E+06    -3.64831E+06     174.006E+06     127.030E+06     220.494E+03         42.8149
             123     17.0491E-03     32.6310E-03     606.487E-03     570.699E-03        -2.03618     570.132E-03        -2.03562     606.487E-03    -6.61680E-03     107.800E-03    -53.1164E-03    -54.9196E-03    -53.1030E-03     107.786E-03    -54.9196E-03     2.91384E-03     175.072E+06     126.912E+06    -3.52289E+06    -3.51857E+06     175.068E+06     126.912E+06     493.135E+03         42.8479
             124     17.0493E-03     33.7454E-03     611.008E-03     591.973E-03        -2.05008     598.287E-03        -2.04983     604.450E-03     26.9576E-03     107.582E-03    -52.8631E-03    -54.9197E-03    -52.8525E-03     107.571E-03    -54.9197E-03     2.61265E-03     175.780E+06     126.824E+06    -4.03482E+06    -4.02971E+06     175.775E+06     126.824E+06     318.206E+03         42.8786
             125     17.0495E-03     34.8613E-03     608.345E-03     591.627E-03        -2.02564     598.097E-03        -2.02555     601.787E-03    -27.7632E-03     107.539E-03    -52.8530E-03    -54.9161E-03    -52.8363E-03     107.522E-03    -54.9161E-03     3.22687E-03     176.203E+06     127.174E+06    -3.63041E+06    -3.62837E+06     176.201E+06     127.174E+06     19.4119E+03         42.9058
             126     17.0496E-03     35.9768E-03     596.071E-03     562.932E-03        -1.98318     562.848E-03        -1.98310     596.071E-03    -26.2898E-03     107.823E-03    -53.1085E-03    -54.9146E-03    -53.0846E-03     107.799E-03    -54.9146E-03     3.91506E-03     177.150E+06     127.657E+06    -3.51787E+06    -3.51656E+06     177.149E+06     127.657E+06     458.658E+03         42.9329
             127     17.0491E-03     37.0923E-03     589.755E-03     562.653E-03        -1.97309     562.510E-03        -1.97295     589.755E-03     19.8014E-03     108.019E-03    -53.2572E-03    -54.9158E-03    -53.2390E-03     108.001E-03    -54.9158E-03     3.35911E-03     178.314E+06     127.864E+06    -3.56744E+06    -3.56720E+06     178.313E+06     127.864E+06     106.077E+03         42.9613
             128     17.0494E-03     38.2063E-03     582.838E-03     569.006E-03        -1.97061     567.715E-03        -1.96932     582.838E-03    -49.9039E-03     107.784E-03    -53.0408E-03    -54.9140E-03    -53.0306E-03     107.774E-03    -54.9140E-03     2.56094E-03     178.096E+06     127.028E+06    -3.46245E+06    -3.46242E+06     178.096E+06     127.028E+06    -14.8489E+03         42.9902
             129     17.0493E-03     39.3225E-03     574.820E-03     551.118E-03        -1.94385     549.597E-03        -1.94233     574.820E-03    -118.781E-03     107.541E-03    -52.7841E-03    -54.9173E-03    -52.7707E-03     107.527E-03    -54.9173E-03     2.89529E-03     177.659E+06     126.626E+06    -3.69802E+06    -3.69741E+06     177.659E+06     126.626E+06     257.488E+03         43.0195
             130     17.0494E-03     40.4373E-03     568.925E-03     551.262E-03        -1.92734     550.835E-03        -1.92691     568.925E-03    -25.1967E-03     107.615E-03    -52.8339E-03    -54.9193E-03    -52.8133E-03     107.594E-03    -54.9193E-03     3.62624E-03     177.328E+06     126.586E+06    -4.20222E+06    -4.19930E+06     177.325E+06     126.586E+06    -225.641E+03         43.0487
             131     17.0492E-03     41.5525E-03     565.369E-03     561.600E-03        -1.92207     561.498E-03        -1.92197     565.369E-03     31.6753E-03     107.893E-03    -53.1244E-03    -54.9138E-03    -53.1055E-03     107.874E-03    -54.9138E-03     3.46202E-03     177.197E+06     127.131E+06    -3.01525E+06    -3.01280E+06     177.195E+06     127.131E+06      -354.7E+03         43.0750
             132     17.0493E-03     42.6683E-03     559.131E-03     557.264E-03        -1.89635     555.020E-03        -1.89410     559.131E-03    -88.9497E-03     107.918E-03    -53.1304E-03    -54.9157E-03    -53.1147E-03     107.902E-03    -54.9157E-03     3.17157E-03     176.102E+06     126.450E+06    -3.99891E+06    -3.99746E+06     176.101E+06     126.450E+06    -242.692E+03         43.0958
             133     17.0492E-03     43.7833E-03     549.360E-03     521.860E-03        -1.83827     519.395E-03        -1.83580     549.360E-03    -137.927E-03     107.853E-03    -53.0392E-03    -54.9205E-03    -53.0241E-03     107.838E-03    -54.9205E-03     3.10739E-03     174.696E+06     126.280E+06    -4.01799E+06    -4.01506E+06     174.694E+06     126.280E+06    -721.905E+03         43.1111
             134     17.0493E-03     44.8983E-03     541.811E-03     515.575E-03        -1.81192     514.834E-03        -1.81118     541.811E-03     12.8868E-03     107.787E-03    -52.9994E-03    -54.9193E-03    -52.9892E-03     107.776E-03    -54.9193E-03     2.54111E-03     173.845E+06     127.055E+06    -2.76784E+06    -2.76618E+06     173.843E+06     127.055E+06    -448.848E+03         43.1220
             135     17.0495E-03     46.0129E-03     549.321E-03     536.259E-03        -1.82868     548.279E-03        -1.82814     536.761E-03     30.6024E-03     107.594E-03    -52.8504E-03    -54.9214E-03    -52.8399E-03     107.584E-03    -54.9214E-03     2.57456E-03     173.413E+06     126.594E+06    -4.16777E+06    -4.16748E+06     173.413E+06     126.594E+06     73.7067E+03         43.1303
             136     17.0492E-03     47.1295E-03     541.356E-03     509.933E-03        -1.80281     521.465E-03        -1.80178     528.797E-03    -82.9858E-03     107.731E-03    -52.9688E-03    -54.9259E-03    -52.9511E-03     107.713E-03    -54.9259E-03     3.35214E-03     173.520E+06     127.002E+06    -3.30703E+06    -3.30613E+06     173.519E+06     127.002E+06    -95.5413E+03         43.1378
             137     17.0492E-03     48.2438E-03     518.966E-03     479.954E-03        -1.74227     478.939E-03        -1.74125     518.966E-03    -51.6854E-03     107.769E-03    -53.0381E-03    -54.9235E-03    -53.0215E-03     107.752E-03    -54.9235E-03     3.22757E-03     173.221E+06     126.817E+06    -3.19530E+06    -3.19251E+06     173.218E+06     126.817E+06     192.216E+03         43.1433
             138     17.0495E-03     49.3593E-03     511.170E-03     486.581E-03        -1.72904     485.997E-03        -1.72845     511.170E-03     63.3817E-03     107.719E-03    -53.0059E-03    -54.9214E-03    -52.9894E-03     107.702E-03    -54.9214E-03     3.21861E-03     173.600E+06     126.597E+06    -4.34542E+06    -4.34262E+06     173.598E+06     126.597E+06     187.869E+03         43.1467
             139     17.0491E-03     50.4747E-03     509.680E-03     499.567E-03        -1.74376     504.632E-03        -1.74316     504.007E-03     31.1465E-03     107.779E-03    -53.0665E-03    -54.9218E-03    -53.0506E-03     107.763E-03    -54.9218E-03     3.14916E-03     174.010E+06     127.385E+06    -3.14457E+06    -3.14367E+06     174.009E+06     127.385E+06    -110.589E+03         43.1501
             140     17.0497E-03     51.5894E-03     501.034E-03     488.304E-03        -1.70797     493.504E-03        -1.70750     495.362E-03    -59.4053E-03     107.587E-03    -52.8726E-03    -54.9246E-03    -52.8582E-03     107.573E-03    -54.9246E-03     3.00673E-03     172.770E+06     126.579E+06    -4.32226E+06    -4.31906E+06     172.767E+06     126.579E+06    -378.245E+03         43.1541
             141     17.0494E-03     52.7053E-03     486.489E-03     462.149E-03        -1.64181     461.740E-03        -1.64140     486.489E-03    -35.7355E-03     107.769E-03    -53.0617E-03    -54.9280E-03    -53.0425E-03     107.749E-03    -54.9280E-03     3.50917E-03     171.696E+06     127.117E+06    -3.80034E+06    -3.79703E+06     171.692E+06     127.117E+06    -682.661E+03         43.1593
             142     17.0493E-03     53.8203E-03     489.854E-03     460.661E-03        -1.63460     472.503E-03        -1.63453     477.942E-03     21.9169E-03     107.938E-03    -53.3023E-03    -54.9302E-03    -53.2874E-03     107.923E-03    -54.9302E-03     3.05993E-03     171.658E+06     127.924E+06    -2.86554E+06    -2.86447E+06     171.657E+06     127.924E+06     87.4744E+03         43.1674
             143     17.0493E-03     54.9354E-03     490.063E-03     469.409E-03        -1.64350     489.987E-03        -1.64343     469.409E-03     7.95318E-03     107.795E-03    -53.1073E-03    -54.9328E-03    -53.0950E-03     107.783E-03    -54.9328E-03     2.80202E-03     171.961E+06     127.414E+06    -3.88358E+06    -3.88040E+06     171.957E+06     127.414E+06     718.348E+03         43.1786
             144     17.0491E-03     56.0510E-03     469.588E-03     447.513E-03        -1.58554     455.654E-03        -1.58494     460.846E-03    -56.1810E-03     107.629E-03    -52.9002E-03    -54.9339E-03    -52.8863E-03     107.615E-03    -54.9339E-03     2.99334E-03     173.712E+06     127.308E+06    -3.68303E+06    -3.67793E+06     173.707E+06     127.308E+06     950.934E+03         43.1901
             145     17.0491E-03     57.1661E-03     451.910E-03     433.675E-03        -1.54058     433.069E-03        -1.53997     451.910E-03    -57.1343E-03     107.578E-03    -52.7930E-03    -54.9446E-03    -52.7763E-03     107.561E-03    -54.9446E-03     3.25573E-03     175.307E+06     127.587E+06    -4.06142E+06    -4.05814E+06     175.303E+06     127.587E+06     254.489E+03         43.1978
             146     17.0488E-03     58.2808E-03     455.466E-03     439.547E-03        -1.53902     450.417E-03        -1.53887     444.448E-03     13.4141E-03     107.889E-03    -53.0749E-03    -54.9439E-03    -53.0567E-03     107.871E-03    -54.9439E-03     3.41983E-03     174.864E+06     127.896E+06    -3.69981E+06    -3.69872E+06     174.863E+06     127.896E+06    -439.521E+03         43.2010
             147     17.0493E-03     59.3965E-03     453.734E-03     437.474E-03        -1.51374     453.113E-03        -1.51312     437.474E-03    -21.1779E-03     107.985E-03    -53.1957E-03    -54.9309E-03    -53.1822E-03     107.971E-03    -54.9309E-03     2.93736E-03     174.665E+06     127.558E+06    -3.05669E+06    -3.05392E+06     174.662E+06     127.558E+06     246.748E+03         43.2009
             148     17.0492E-03     60.5114E-03     432.292E-03     418.745E-03        -1.47212     423.464E-03        -1.47159     427.049E-03    -54.0903E-03     107.785E-03    -53.0198E-03    -54.9278E-03    -53.0082E-03     107.773E-03    -54.9278E-03     2.72847E-03     175.620E+06     127.368E+06    -3.79808E+06    -3.79562E+06     175.617E+06     127.368E+06     575.592E+03         43.1994
             149     17.0495E-03     62.7425E-03     425.469E-03     409.859E-03        -1.44054     424.768E-03        -1.43984     409.859E-03     60.0019E-03     107.534E-03    -52.8441E-03    -54.9335E-03    -52.8226E-03     107.513E-03    -54.9335E-03     3.71389E-03     176.423E+06     128.305E+06    -3.68996E+06    -3.68805E+06     176.422E+06     128.305E+06     27.0403E+03         43.2033
             150     17.0492E-03     63.8579E-03     423.306E-03     402.560E-03        -1.41839     423.279E-03        -1.41836     402.560E-03     11.7701E-03     107.624E-03    -52.9558E-03    -54.9358E-03    -52.9380E-03     107.607E-03    -54.9358E-03     3.35852E-03     175.260E+06     128.063E+06    -3.77112E+06    -3.77022E+06     175.259E+06     128.063E+06    -329.218E+03         43.2094
             151     17.0495E-03     64.9714E-03     401.673E-03     388.081E-03        -1.37562     395.298E-03        -1.37530     394.132E-03     35.3168E-03     107.754E-03    -53.1160E-03    -54.9284E-03    -53.1062E-03     107.744E-03    -54.9284E-03     2.45171E-03     174.876E+06     128.305E+06    -3.65658E+06    -3.65530E+06     174.875E+06     128.305E+06    -384.476E+03         43.2164
             152     17.0493E-03     66.0878E-03     395.118E-03     381.274E-03        -1.34097     388.147E-03        -1.34005     387.325E-03     78.8583E-03     107.697E-03    -53.0261E-03    -54.9228E-03    -53.0166E-03     107.687E-03    -54.9228E-03     2.42270E-03     175.489E+06     128.642E+06    -2.94080E+06    -2.93308E+06     175.481E+06     128.642E+06     425.411E+03         43.2233
             153     17.0497E-03     67.2033E-03     400.779E-03     379.839E-03        -1.32549     400.117E-03        -1.32483     379.839E-03     60.4827E-03     107.546E-03    -52.8108E-03    -54.9228E-03    -52.7976E-03     107.533E-03    -54.9228E-03     2.90319E-03     177.024E+06     128.585E+06    -3.72936E+06    -3.72277E+06     177.017E+06     128.585E+06     862.369E+03         43.2305
             154     17.0492E-03     68.3175E-03     383.312E-03     357.518E-03        -1.29629     370.402E-03        -1.29603     370.165E-03     40.2930E-03     107.612E-03    -52.9297E-03    -54.9205E-03    -52.9160E-03     107.599E-03    -54.9205E-03     2.95537E-03     178.148E+06     128.666E+06    -3.84115E+06    -3.84054E+06     178.147E+06     128.666E+06     314.188E+03         43.2373
             155     17.0495E-03     69.4344E-03     372.467E-03     349.249E-03        -1.27400     359.195E-03        -1.27337     361.896E-03     62.8434E-03     107.562E-03    -52.9266E-03    -54.9240E-03    -52.9059E-03     107.541E-03    -54.9240E-03     3.59496E-03     178.382E+06     128.662E+06    -3.59824E+06    -3.59744E+06     178.381E+06     128.662E+06     378.221E+03         43.2431
             156     17.0494E-03     70.5484E-03     388.188E-03     354.919E-03        -1.26993     387.639E-03        -1.26938     354.919E-03     57.7305E-03     107.579E-03    -52.9271E-03    -54.9269E-03    -52.9055E-03     107.558E-03    -54.9269E-03     3.69156E-03     178.382E+06     128.254E+06    -4.62837E+06    -4.62785E+06     178.382E+06     128.254E+06     26.5555E+03         43.2490
             157     17.0492E-03     71.6638E-03     369.800E-03     341.717E-03        -1.23220     363.518E-03        -1.23130     347.103E-03     68.7980E-03     107.756E-03    -53.0791E-03    -54.9236E-03    -53.0656E-03     107.743E-03    -54.9236E-03     2.93830E-03     178.981E+06     129.556E+06    -2.70578E+06    -2.70534E+06     178.980E+06     129.556E+06     4.53891E+03         43.2543
             158     17.0496E-03     72.7785E-03     340.508E-03     334.505E-03        -1.19107     333.495E-03        -1.18945     339.892E-03     99.5529E-03     107.732E-03    -53.0816E-03    -54.9199E-03    -53.0695E-03     107.720E-03    -54.9199E-03     2.79395E-03     179.579E+06     129.523E+06    -4.26259E+06    -4.26190E+06     179.578E+06     129.523E+06     351.769E+03         43.2589
             159     17.0494E-03     73.8948E-03     337.503E-03     333.236E-03        -1.16440     336.225E-03        -1.16312     333.236E-03     86.3949E-03     107.728E-03    -53.0356E-03    -54.9213E-03    -53.0222E-03     107.714E-03    -54.9213E-03     2.94105E-03     179.477E+06     129.392E+06    -4.12118E+06    -4.11948E+06     179.475E+06     129.392E+06    -127.705E+03         43.2648
             160     17.0494E-03     75.0092E-03     330.737E-03     325.603E-03        -1.13956     329.733E-03        -1.13856     325.603E-03     76.5567E-03     107.647E-03    -52.9611E-03    -54.9191E-03    -52.9488E-03     107.634E-03    -54.9191E-03     2.81558E-03     178.754E+06     129.089E+06    -3.10281E+06    -3.10140E+06     178.753E+06     129.089E+06    -210.386E+03         43.2720
             161     17.0496E-03     76.1240E-03     330.250E-03     318.226E-03        -1.13006     328.596E-03        -1.12841     318.226E-03     97.1234E-03     107.581E-03    -52.9163E-03    -54.9145E-03    -52.9039E-03     107.569E-03    -54.9145E-03     2.82179E-03     178.988E+06     128.840E+06    -3.73254E+06    -3.73235E+06     178.988E+06     128.840E+06     170.109E+03         43.2774
             162     17.0496E-03     77.2405E-03     327.494E-03     312.610E-03        -1.10408     325.613E-03        -1.10220     312.610E-03     103.547E-03     107.662E-03    -53.0182E-03    -54.9193E-03    -52.9984E-03     107.642E-03    -54.9193E-03     3.52591E-03     180.929E+06     129.918E+06    -3.36798E+06    -3.36256E+06     180.924E+06     129.918E+06     755.579E+03         43.2808
             163     17.0492E-03     78.3554E-03     311.166E-03     300.278E-03        -1.06050     303.456E-03        -1.05933     306.823E-03     78.3752E-03     107.792E-03    -53.1752E-03    -54.9166E-03    -53.1558E-03     107.773E-03    -54.9166E-03     3.48259E-03     182.306E+06     129.893E+06    -4.14810E+06    -4.14269E+06     182.300E+06     129.893E+06     669.043E+03         43.2849
             164     17.0496E-03     79.4700E-03     300.264E-03     293.285E-03        -1.03745     292.120E-03        -1.03585     299.830E-03     88.3369E-03     107.649E-03    -53.0054E-03    -54.9125E-03    -52.9942E-03     107.637E-03    -54.9125E-03     2.67429E-03     183.415E+06     130.020E+06    -3.65485E+06    -3.65411E+06     183.414E+06     130.020E+06     219.789E+03         43.2891
             165     17.0495E-03     80.5857E-03     305.210E-03     293.120E-03        -1.03913     303.482E-03        -1.03740     293.120E-03     93.7850E-03     107.507E-03    -52.8288E-03    -54.9138E-03    -52.8151E-03     107.493E-03    -54.9138E-03     2.93351E-03     183.558E+06     129.874E+06    -3.80316E+06    -3.80080E+06     183.556E+06     129.874E+06    -131.190E+03         43.2926
             166     17.0496E-03     81.7007E-03     297.923E-03     279.451E-03        -1.00655     290.619E-03        -1.00606     286.268E-03     36.8189E-03     107.711E-03    -53.0086E-03    -54.9106E-03    -52.9911E-03     107.693E-03    -54.9106E-03     3.36232E-03     183.493E+06     129.791E+06    -3.44721E+06    -3.44414E+06     183.490E+06     129.791E+06    -24.7399E+03         43.2977
             167     17.0494E-03     82.8169E-03     279.250E-03     266.057E-03    -958.305E-03     265.303E-03    -957.550E-03     279.250E-03     43.1728E-03     107.762E-03    -53.0584E-03    -54.9077E-03    -53.0424E-03     107.746E-03    -54.9077E-03     3.21253E-03     184.175E+06     129.593E+06    -3.55504E+06    -3.55329E+06     184.173E+06     129.593E+06     539.699E+03         43.3043
             168     17.0497E-03     83.9306E-03     293.065E-03     266.840E-03    -954.877E-03     284.401E-03    -952.589E-03     273.216E-03     105.131E-03     107.619E-03    -52.8602E-03    -54.9109E-03    -52.8456E-03     107.605E-03    -54.9109E-03     3.06607E-03     185.198E+06     130.056E+06    -3.75626E+06    -3.75593E+06     185.198E+06     130.056E+06     154.631E+03         43.3098
             169     17.0495E-03     85.0468E-03     294.461E-03     267.680E-03    -949.426E-03     292.799E-03    -947.764E-03     267.680E-03     80.0028E-03     107.562E-03    -52.8167E-03    -54.9135E-03    -52.7975E-03     107.543E-03    -54.9135E-03     3.47811E-03     185.720E+06     130.572E+06    -3.62979E+06    -3.62892E+06     185.719E+06     130.572E+06     267.740E+03         43.3147
             170     17.0495E-03     86.1617E-03     268.475E-03     245.390E-03    -885.576E-03     252.186E-03    -885.440E-03     261.543E-03     13.1943E-03     107.682E-03    -52.9698E-03    -54.9061E-03    -52.9503E-03     107.663E-03    -54.9061E-03     3.51629E-03     186.118E+06     130.572E+06    -3.99880E+06    -3.99731E+06     186.116E+06     130.572E+06     41.3397E+03         43.3211
             171     17.0497E-03     87.2765E-03     257.012E-03     238.419E-03    -849.594E-03     240.178E-03    -848.914E-03     254.571E-03     34.3907E-03     107.736E-03    -53.0105E-03    -54.8964E-03    -52.9951E-03     107.721E-03    -54.8964E-03     3.14267E-03     186.414E+06     130.729E+06     -3.3741E+06    -3.37318E+06     186.413E+06     130.729E+06    -79.8288E+03         43.3279
             172     17.0498E-03     88.3928E-03     264.765E-03     248.188E-03    -869.478E-03     262.577E-03    -867.290E-03     248.188E-03     97.7028E-03     107.641E-03    -52.8707E-03    -54.9029E-03    -52.8520E-03     107.623E-03    -54.9029E-03     3.45076E-03     186.712E+06     130.975E+06    -4.25866E+06    -4.25765E+06     186.711E+06     130.975E+06     428.812E+03         43.3325
             173     17.0496E-03     89.5075E-03     259.623E-03     243.088E-03    -850.004E-03     257.466E-03    -847.847E-03     243.088E-03     95.9535E-03     107.482E-03    -52.6768E-03    -54.9151E-03    -52.6547E-03     107.460E-03    -54.9151E-03     3.76412E-03     187.043E+06     131.398E+06    -3.82285E+06    -3.82189E+06     187.042E+06     131.398E+06     415.059E+03         43.3357
             174     17.0498E-03     90.6226E-03     239.498E-03     235.689E-03    -814.696E-03     237.433E-03    -814.042E-03     237.100E-03     42.3021E-03     107.374E-03    -52.5481E-03    -54.9138E-03    -52.5259E-03     107.351E-03    -54.9138E-03     3.76641E-03     186.916E+06     131.520E+06    -3.36641E+06    -3.36470E+06     186.914E+06     131.520E+06     526.683E+03         43.3382
             175     17.0501E-03     91.7360E-03     229.763E-03     227.747E-03    -781.690E-03     226.842E-03    -780.786E-03     229.763E-03     47.1104E-03     107.456E-03    -52.6193E-03    -54.9029E-03    -52.6040E-03     107.441E-03    -54.9029E-03     3.04447E-03     187.816E+06     132.444E+06    -4.07073E+06    -4.06906E+06     187.814E+06     132.444E+06     236.255E+03         43.3401
             176     17.0501E-03     92.8514E-03     222.292E-03     213.282E-03    -736.194E-03     212.213E-03    -735.125E-03     222.292E-03     59.9209E-03     107.425E-03    -52.5881E-03    -54.8963E-03    -52.5756E-03     107.412E-03    -54.8963E-03     2.79101E-03     188.365E+06     133.317E+06    -3.87447E+06    -3.87424E+06     188.364E+06     133.317E+06    -89.8688E+03         43.3423
             177     17.0504E-03     93.9666E-03     215.388E-03     206.764E-03    -718.892E-03     205.669E-03    -717.796E-03     215.388E-03     59.4746E-03     107.202E-03    -52.3671E-03    -54.8947E-03    -52.3490E-03     107.184E-03    -54.8947E-03     3.39533E-03     188.838E+06     134.654E+06    -3.25277E+06    -3.25001E+06     188.835E+06     134.654E+06     560.561E+03         43.3426
             178     17.0506E-03     95.0807E-03     217.598E-03     209.599E-03    -724.614E-03     216.458E-03    -723.692E-03     209.819E-03     38.2641E-03     107.014E-03    -52.1724E-03    -54.8874E-03    -52.1554E-03     106.997E-03    -54.8874E-03     3.27884E-03     190.825E+06     136.042E+06    -4.20744E+06    -4.20070E+06     190.818E+06     136.042E+06     1.14232E+06         43.3370
             179     17.0513E-03     96.1945E-03     212.160E-03     203.604E-03    -690.642E-03     210.362E-03    -689.620E-03     204.381E-03     38.5594E-03     106.780E-03    -51.9639E-03    -54.8781E-03    -51.9473E-03     106.763E-03    -54.8781E-03     3.24242E-03     192.244E+06     136.334E+06    -4.83833E+06    -4.82945E+06     192.235E+06     136.334E+06    -58.0051E+03         43.3273
             180     17.0514E-03     97.3102E-03     196.747E-03     187.153E-03    -650.797E-03     186.025E-03    -649.669E-03     196.747E-03     55.2139E-03     106.529E-03    -51.7653E-03    -54.8634E-03    -51.7398E-03     106.504E-03    -54.8634E-03     3.98513E-03     191.130E+06     136.526E+06    -3.02440E+06    -3.01646E+06     191.122E+06     136.526E+06    -144.863E+03         43.3182
             181     17.0523E-03     98.4224E-03     187.787E-03     176.888E-03    -648.680E-03     176.308E-03    -648.100E-03     187.787E-03     41.4173E-03     106.222E-03    -51.5248E-03    -54.8329E-03    -51.5016E-03     106.199E-03    -54.8329E-03     3.76082E-03     190.629E+06     136.656E+06    -4.03388E+06    -4.03079E+06     190.626E+06     136.656E+06     590.257E+03         43.3067
             182     17.0533E-03     99.5352E-03     180.681E-03     171.699E-03    -612.058E-03     171.104E-03    -611.464E-03     180.681E-03     14.2483E-03     105.705E-03    -51.0432E-03    -54.7710E-03    -51.0267E-03     105.688E-03    -54.7710E-03     3.21110E-03     189.919E+06     136.380E+06    -4.70033E+06    -4.69248E+06     189.911E+06     136.380E+06    -822.345E+03         43.2877
             183     17.0553E-03     100.648E-03     173.927E-03     149.495E-03    -549.538E-03     149.204E-03    -549.247E-03     173.927E-03    -28.3935E-03     105.044E-03    -50.4278E-03    -54.6816E-03    -50.4047E-03     105.021E-03    -54.6816E-03     3.77107E-03     186.817E+06     135.859E+06    -2.98851E+06    -2.98008E+06     186.808E+06     135.859E+06    -631.150E+03         43.2601
             184     17.0577E-03     101.759E-03     171.502E-03     148.598E-03    -550.126E-03     153.779E-03    -549.935E-03     166.131E-03    -21.0192E-03     104.174E-03    -49.6879E-03    -54.5579E-03    -49.6583E-03     104.144E-03    -54.5579E-03     4.27049E-03     185.165E+06     135.946E+06    -4.43878E+06    -4.43727E+06     185.164E+06     135.946E+06    -58.7655E+03         43.2184
             185     17.0618E-03     102.869E-03     172.334E-03     158.429E-03    -551.784E-03     172.050E-03    -551.500E-03     158.429E-03    -25.2532E-03     103.121E-03    -48.8487E-03    -54.3297E-03    -48.8144E-03     103.087E-03    -54.3297E-03     4.56351E-03     182.999E+06     135.079E+06    -4.15012E+06    -4.14053E+06     182.990E+06     135.079E+06    -1.18467E+06         43.1564
             186     17.0673E-03     103.977E-03     158.823E-03     133.789E-03    -503.842E-03     141.955E-03    -503.475E-03     150.290E-03    -30.3663E-03     102.225E-03    -48.3330E-03    -53.9567E-03    -48.2876E-03     102.179E-03    -53.9567E-03     5.20392E-03     176.739E+06     130.394E+06    -4.68316E+06    -4.63504E+06     176.691E+06     130.394E+06    -2.77667E+06         43.0868
             187     17.0760E-03     105.084E-03     142.522E-03     122.215E-03    -463.272E-03     121.322E-03    -462.379E-03     142.522E-03    -41.4970E-03     101.907E-03    -48.6208E-03    -53.4125E-03    -48.5708E-03     101.857E-03    -53.4125E-03     5.48544E-03     167.842E+06     124.718E+06    -3.71346E+06    -3.64252E+06     167.771E+06     124.718E+06    -3.48640E+06         43.0641
             188     17.0872E-03     106.190E-03     148.533E-03     131.167E-03    -443.586E-03     142.887E-03    -441.746E-03     134.972E-03    -65.5538E-03     103.619E-03    -50.6686E-03    -53.0538E-03    -51.0009E-03     103.591E-03    -52.6937E-03     3.83598E-03     159.368E+06     122.266E+06    -2.76992E+06    -2.73803E+06     159.336E+06     122.266E+06    -1.77575E+06         43.2149
             189     17.0987E-03     107.299E-03     139.866E-03     106.077E-03    -406.343E-03     118.541E-03    -405.247E-03     126.306E-03    -29.4173E-03     109.505E-03    -51.9474E-03    -57.5647E-03    -57.5542E-03     109.495E-03    -51.9474E-03    -289.434E-06     151.770E+06     124.570E+06    -5.65680E+06    -5.52897E+06     151.642E+06     124.570E+06    -3.29547E+06         43.6871
             190     17.1036E-03     108.421E-03     117.474E-03     83.3628E-03    -363.123E-03     83.3019E-03    -363.062E-03     117.474E-03     10.3325E-03     119.419E-03    -51.3835E-03    -68.1747E-03    -68.1607E-03     119.405E-03    -51.3835E-03    -3.24476E-03     138.054E+06     125.433E+06    -5.53111E+06    -5.19868E+06     137.721E+06     125.433E+06    -6.82301E+06         44.4288
             191     17.1043E-03     109.560E-03     136.721E-03     95.3056E-03    -378.733E-03     122.207E-03    -378.102E-03     109.188E-03    -21.9272E-03     129.433E-03    -51.0195E-03    -78.7152E-03    -78.7046E-03     129.422E-03    -51.0195E-03    -2.85409E-03     126.050E+06     120.324E+06    -1.25731E+06    -1.00019E+06     122.476E+06     123.640E+06    -5.42524E+06         45.2084
             192     17.1052E-03     110.705E-03     127.465E-03     93.3273E-03    -346.516E-03     119.456E-03    -345.112E-03     99.9319E-03    -50.3885E-03     136.677E-03    -50.7802E-03    -86.1277E-03    -86.1246E-03     136.674E-03    -50.7802E-03    -611.377E-06     121.613E+06     112.153E+06    -4.65948E+06    -4.54919E+06     112.043E+06     121.613E+06    -3.58732E+06         45.9027
             193     17.1055E-03     111.859E-03     89.3250E-03     63.1942E-03    -262.188E-03     61.7358E-03    -260.730E-03     89.3250E-03    -4.81237E-03     142.599E-03    -50.6156E-03    -92.1047E-03    -92.0912E-03     142.586E-03    -50.6156E-03     2.96889E-03     125.489E+06     105.630E+06    -2.52978E+06    -2.46490E+06     105.565E+06     125.489E+06    -2.43586E+06         46.4950
             194     17.1066E-03     113.017E-03     91.7503E-03     60.2272E-03    -261.775E-03     71.2806E-03    -260.831E-03     79.7534E-03     33.9808E-03     149.106E-03    -50.4076E-03    -98.8288E-03    -98.7892E-03     149.067E-03    -50.4076E-03     6.18713E-03     125.798E+06     98.0027E+06    -7.35367E+06    -7.04009E+06     97.6891E+06     125.798E+06    -4.74662E+06         46.9722
             195     17.1070E-03     114.184E-03     99.6125E-03     72.1913E-03    -284.629E-03     99.2432E-03    -284.259E-03     72.1913E-03     22.9760E-03     156.334E-03    -50.1676E-03    -106.307E-03    -106.226E-03     156.252E-03    -50.1676E-03     9.12497E-03     125.699E+06     85.0608E+06    -820.995E+03    -505.987E+03     84.7458E+06     125.699E+06    -3.69401E+06         47.3433
             196     17.1083E-03     115.363E-03     79.2318E-03     60.3919E-03    -236.582E-03     73.5943E-03    -234.360E-03     63.8075E-03    -23.5211E-03     164.727E-03    -49.9320E-03    -114.814E-03    -114.571E-03     164.484E-03    -49.9320E-03     15.8510E-03     125.725E+06     73.5415E+06    -8.09192E+06    -7.78177E+06     73.2314E+06     125.725E+06    -3.50320E+06         47.6270
             197     17.1085E-03     116.553E-03     53.5377E-03     30.8550E-03    -173.078E-03     28.4347E-03    -170.658E-03     53.5377E-03    -22.0696E-03     174.639E-03    -49.6353E-03    -125.029E-03    -124.296E-03     173.906E-03    -49.6353E-03     28.7741E-03     127.760E+06     61.9201E+06    -2.20012E+06    -1.61309E+06     61.3331E+06     127.760E+06    -5.74951E+06         47.8572
             198     17.1113E-03     117.765E-03     53.1014E-03     24.9170E-03    -158.410E-03     33.4664E-03    -158.042E-03     44.1841E-03     3.89043E-03     182.406E-03    -49.4110E-03    -133.014E-03    -131.664E-03     181.056E-03    -49.4110E-03     41.0171E-03     126.528E+06     47.2454E+06    -6.99523E+06    -5.80874E+06     46.0589E+06     126.528E+06    -7.92706E+06         48.0198
             199     17.1102E-03     118.969E-03     48.6865E-03     36.2705E-03    -131.163E-03     47.3747E-03    -129.851E-03     36.2705E-03    -24.3606E-03     184.179E-03    -49.3551E-03    -134.815E-03    -133.354E-03     182.717E-03    -49.3551E-03     43.0352E-03     139.271E+06     58.2280E+06    -7.82791E+06     5.01606E+06     45.3841E+06     139.271E+06     5.32740E+06         48.1361
             200     17.1143E-03     120.158E-03     31.7808E-03     25.9209E-03    -75.0513E-03     27.5803E-03    -73.2121E-03     28.2822E-03    -27.4777E-03     186.364E-03    -49.2383E-03    -137.138E-03    -135.485E-03     184.711E-03    -49.2383E-03     45.9263E-03     136.502E+06     61.5318E+06    -24.0901E+06    -11.2815E+06     48.7232E+06     136.502E+06     4.17838E+06         48.2427
             201     17.1122E-03     121.383E-03     32.8181E-03     17.6506E-03    -52.7556E-03     27.1171E-03    -49.4159E-03     20.0119E-03     13.5524E-03     182.255E-03    -49.1205E-03    -133.078E-03    -130.179E-03     179.356E-03    -49.1205E-03     59.1860E-03     115.746E+06     71.7455E+06    -33.6030E+06     9.66411E+06     28.4784E+06     115.746E+06    -11.0324E+06         48.4536
             202     17.1178E-03     122.597E-03     24.9813E-03     11.5616E-03    -37.3299E-03     17.8663E-03    -30.8285E-03     12.1751E-03     33.9929E-03     125.154E-03    -36.3360E-03    -88.9496E-03    -72.8386E-03     123.209E-03    -50.5018E-03     36.5351E-03     94.1146E+06     82.8547E+06    -22.4172E+06     20.4615E+06     39.9759E+06     94.1146E+06    -9.16452E+06         48.7548
             203     16.0679E-03     123.583E-03     11.4657E-03     8.71701E-03    -18.4251E-03    -4.34559E-03    -3.22739E-03     9.33055E-03    -4.25574E-03     95.4685E-03    -37.7651E-03    -57.8757E-03    -43.2715E-03     95.0302E-03    -51.9309E-03     14.7951E-03     57.0459E+06     23.8809E+06    -79.7488E+06    -38.7403E+06    -17.1275E+06     57.0459E+06    -10.1853E+06         47.3525
             204     15.1266E-03     123.356E-03     17.8256E-03     10.8895E-03    -16.5663E-03     6.03530E-03    -4.77599E-03     10.8895E-03    -10.7158E-03     101.714E-03    -44.3031E-03    -57.4564E-03    -49.7374E-03     101.203E-03    -51.5115E-03     17.2334E-03     76.5779E+06     11.3552E+06    -54.2475E+06    -13.4591E+06    -29.4332E+06     76.5779E+06    -7.24032E+06         43.9478
             205     14.1661E-03     123.116E-03     24.1679E-03     11.9310E-03    -16.1027E-03     22.8882E-03    -14.8230E-03     11.9310E-03    -3.96368E-03     81.9931E-03    -31.1498E-03    -50.9612E-03    -30.9837E-03     81.8270E-03    -50.9612E-03     2.08724E-03     97.6453E+06     17.9915E+06    -15.8907E+06    -6.50558E+06     8.60631E+06     97.6453E+06    -3.97142E+06         40.2803
             206     13.2068E-03     122.897E-03     20.5985E-03     11.9797E-03    -14.9128E-03     12.9958E-03    -8.49288E-03     13.1625E-03    -20.5596E-03     82.4732E-03    -31.8946E-03    -50.6745E-03    -31.4814E-03     82.0599E-03    -50.6745E-03    -12.7871E-03     102.164E+06     9.60835E+06    -9.83919E+06     296.779E+03    -527.615E+03     102.164E+06    -4.49612E+06         36.9307
             207     12.2683E-03     122.682E-03     16.5152E-03     14.0025E-03    -30.8486E-03     9.43193E-03    -24.9482E-03     15.1854E-03    -18.9988E-03     92.7138E-03    -42.9382E-03    -49.7784E-03    -42.0586E-03     91.8342E-03    -49.7784E-03    -21.7417E-03     111.447E+06     20.2726E+06    -8.71620E+06     10.9814E+06     575.011E+03     111.447E+06    -5.03754E+06         34.1344
             208     11.3462E-03     122.475E-03     18.4096E-03     17.0525E-03    -53.5802E-03     15.1227E-03    -50.2933E-03     17.0525E-03    -27.3631E-03     96.5526E-03    -47.5744E-03    -48.9534E-03    -47.1490E-03     95.4113E-03    -48.2375E-03    -25.5864E-03     113.286E+06     16.0464E+06    -7.09078E+06     15.6424E+06    -6.68678E+06     113.286E+06    -2.88268E+06         31.8711
             209     10.4221E-03     122.295E-03     19.9739E-03     11.6670E-03    -52.1332E-03    -15.7265E-03    -24.7124E-03     19.9467E-03    -33.4731E-03     97.2135E-03    -46.4850E-03    -50.7520E-03    -49.4871E-03     95.9486E-03    -46.4850E-03    -27.2442E-03     116.065E+06     14.7799E+06     -35.518E+03     14.5909E+06     153.499E+03     116.065E+06    -1.00392E+06         30.0041
             210     9.49439E-03     122.143E-03     32.3979E-03     16.1051E-03    -50.5007E-03    -13.6141E-03    -12.7684E-03     24.3847E-03    -56.5020E-03     98.6044E-03    -44.4561E-03    -54.1961E-03    -52.9418E-03     97.3501E-03    -44.4561E-03    -27.5703E-03     113.057E+06     16.9615E+06    -1.69140E+06     14.0046E+06     1.26552E+06     113.057E+06    -4.02095E+06         28.4399
             211     8.57016E-03     122.008E-03     55.8131E-03     26.2290E-03    -64.8732E-03     42.4655E-03    -51.5257E-03     26.2290E-03    -36.4508E-03     96.6933E-03    -42.1688E-03    -54.5388E-03    -53.4515E-03     95.6059E-03    -42.1688E-03    -25.5198E-03     110.571E+06     22.5057E+06    -4.01039E+06     18.6535E+06    -158.137E+03     110.571E+06    -7.85515E+06         27.2177
             212     7.64074E-03     121.898E-03     59.1160E-03     23.9683E-03    -62.8577E-03     58.8045E-03    -62.5462E-03     23.9683E-03     883.685E-06     91.8999E-03    -39.8729E-03    -52.0598E-03    -51.2299E-03     91.0700E-03    -39.8729E-03    -21.7589E-03     106.940E+06     26.4908E+06    -5.99173E+06     24.7981E+06    -4.29906E+06     106.940E+06    -7.21336E+06         26.3795
             213     6.70352E-03     121.810E-03     35.5129E-03     21.4326E-03    -33.1707E-03     33.6904E-03    -31.3482E-03     21.4326E-03     5.10951E-03     86.6778E-03    -37.6125E-03    -49.0887E-03    -48.4682E-03     86.0573E-03    -37.6125E-03    -18.2851E-03     100.088E+06     32.4017E+06    -2.22879E+06     30.9379E+06    -765.024E+03     100.088E+06    -6.89442E+06         25.7872
             214     5.76188E-03     121.740E-03     26.1479E-03     20.9079E-03    -28.9591E-03     20.5187E-03    -23.3299E-03     20.9079E-03    -11.7505E-03     80.7502E-03    -35.4503E-03    -45.2490E-03    -44.7981E-03     80.2993E-03    -35.4503E-03    -15.0135E-03     92.2295E+06     37.8418E+06    -3.00796E+06     36.6485E+06    -1.81473E+06     92.2295E+06    -6.86749E+06         25.2838
             215     4.81245E-03     121.685E-03     27.4840E-03     21.3214E-03    -41.0996E-03     22.0925E-03    -35.7081E-03     21.3214E-03    -9.20516E-03     74.5261E-03    -33.5163E-03    -40.9836E-03    -40.6702E-03     74.2128E-03    -33.5163E-03    -11.9860E-03     86.9215E+06     44.3726E+06    -914.418E+03     43.1476E+06     310.554E+03     86.9215E+06    -7.34539E+06         24.8300
             216     3.85800E-03     121.645E-03     24.9714E-03     9.15826E-03    -33.0192E-03     8.57562E-03    -31.0104E-03     23.5452E-03     8.39104E-03     68.7742E-03    -31.8876E-03    -36.9091E-03    -36.7062E-03     68.5714E-03    -31.8876E-03    -9.19553E-03     79.1468E+06     50.4798E+06    -3.31536E+06     49.3671E+06    -2.20267E+06     79.1468E+06    -7.54776E+06         24.4414
             217     2.89774E-03     121.614E-03     32.4943E-03     13.9554E-03    -35.5487E-03     11.0378E-03    -28.4791E-03     28.3424E-03     25.7089E-03     64.0147E-03    -30.5916E-03    -33.4098E-03    -33.2874E-03     63.8923E-03    -30.5916E-03    -6.86810E-03     72.9659E+06     56.9577E+06    -3.22698E+06     56.2905E+06    -2.55984E+06     72.9659E+06     -6.2364E+06         24.1320
             218     1.93368E-03     121.594E-03     64.0178E-03     22.5582E-03    -60.4768E-03     56.6662E-03    -53.1253E-03     22.5582E-03     13.8722E-03     60.5021E-03    -29.7011E-03    -30.7714E-03    -30.7066E-03     60.4374E-03    -29.7011E-03    -4.73888E-03     71.7633E+06     61.8410E+06    -296.476E+03     61.4983E+06     46.3134E+03     71.7633E+06    -4.46157E+06         23.9077
             219     967.217E-06     121.581E-03     109.067E-03     5.73831E-03    -108.104E-03     92.0923E-03    -21.7783E-03    -63.6130E-03     39.9352E-03     58.6646E-03    -28.9829E-03    -29.6783E-03    -29.6503E-03     58.6365E-03    -28.9829E-03    -3.12329E-03     68.8605E+06     62.5140E+06    -1.02451E+06     62.3012E+06    -811.642E+03     68.8605E+06    -3.66293E+06         23.7700
             220    -605.646E-09     120.518E-03     129.620E-03     248.263E-06    -111.510E-03     91.8235E-03    -4.36222E-03    -69.1030E-03     142.113E-03     49.7655E-03    -24.4040E-03    -25.3605E-03    -24.9501E-03     49.7508E-03    -24.7997E-03    -2.07690E-03     51.8566E+06     50.6655E+06    -9.98193E+06     49.9566E+06     -9.2731E+06     51.8566E+06    -6.00672E+06         23.3849
             221    -162.765E-09     119.477E-03     130.280E-03     41.6589E-03    -179.951E-03     81.2879E-03    -156.229E-03     66.9284E-03     47.4677E-03     34.2021E-03    -16.8649E-03    -17.3370E-03    -16.8594E-03     34.1965E-03    -17.3370E-03    -1.04849E-03     9.28763E+06     4.28044E+06    -28.1458E+06     7.79838E+06    -26.7083E+06     4.33220E+06    -6.71493E+06         22.6149
             222    -42.4254E-09     118.450E-03     135.139E-03     36.5795E-03    -187.544E-03     104.029E-03    -181.703E-03     61.8490E-03     3.81551E-03     22.5449E-03    -11.2276E-03    -11.3176E-03    -11.2398E-03     22.5435E-03    -11.3040E-03    -286.925E-06    -41.1988E+06    -52.3572E+06    -63.2650E+06    -53.4356E+06    -51.0281E+06    -52.3572E+06    -6.30377E+06         21.8677
             223     141.535E-09     117.433E-03     88.6959E-03    -26.5400E-03    -85.3063E-03     30.0743E-03    -68.6305E-03     15.4058E-03     48.8527E-03     15.2664E-03    -7.58609E-03    -7.67999E-03    -7.59607E-03     15.2628E-03    -7.66642E-03     410.848E-06    -72.8337E+06    -102.101E+06    -109.964E+06    -106.168E+06    -75.0723E+06    -103.658E+06    -8.52261E+06         21.3796
             224    -343.669E-09     116.420E-03     66.6779E-03     6.72884E-03    -129.361E-03    -6.22780E-03    -116.404E-03     66.6779E-03     13.7508E-03     12.1634E-03    -6.02452E-03    -6.13870E-03    -6.00206E-03     12.1410E-03    -6.13870E-03     1.17931E-03    -95.9656E+06    -160.721E+06    -163.974E+06    -161.179E+06    -97.2038E+06    -162.278E+06    -7.26752E+06         21.1808
             225     260.760E-09     115.409E-03     105.630E-03     82.5133E-03    -241.707E-03     79.1792E-03    -238.373E-03     105.630E-03    -44.1258E-03     13.6726E-03    -6.78860E-03    -6.88387E-03    -6.77738E-03     13.6000E-03    -6.82245E-03     2.39923E-03    -113.166E+06    -208.794E+06    -212.854E+06    -210.365E+06    -113.291E+06    -211.158E+06    -2.41620E+06         21.2734
             226    -275.632E-09     114.393E-03     100.967E-03     82.9910E-03    -277.858E-03     65.0486E-03    -247.052E-03     88.1043E-03     75.2972E-03     19.9009E-03    -9.87287E-03    -10.0284E-03    -9.93035E-03     19.8028E-03    -9.87287E-03     3.37819E-03    -108.161E+06    -228.793E+06    -232.818E+06    -228.068E+06    -108.887E+06    -232.818E+06     6.82579E+06         21.6575
             227     348.034E-09     113.370E-03     94.3731E-03     56.3242E-03    -253.803E-03     53.4363E-03    -212.866E-03     56.3242E-03     219.477E-03     30.6591E-03    -15.1825E-03    -15.4804E-03    -15.3952E-03     30.5739E-03    -15.1825E-03     3.92871E-03    -76.3692E+06    -158.111E+06    -165.186E+06    -160.613E+06    -79.2808E+06    -159.771E+06     13.2390E+06         22.3374
             228     17.1848E-09     112.331E-03     153.013E-03     42.8018E-03    -313.359E-03     54.1682E-03    -299.540E-03     127.827E-03     112.470E-03     43.8375E-03    -21.7774E-03    -22.0620E-03    -21.9753E-03     43.7508E-03    -21.7774E-03     4.77407E-03    -41.5044E+06    -59.4897E+06    -67.1673E+06    -63.8446E+06    -44.8271E+06    -59.4897E+06     8.47023E+06         23.2495
             229     71.4162E-09     111.279E-03     163.264E-03     64.5064E-03    -378.645E-03     69.1482E-03    -369.553E-03     149.532E-03    -72.6704E-03     57.3555E-03    -28.5199E-03    -28.8321E-03    -28.7485E-03     57.2718E-03    -28.5199E-03     5.33615E-03    -17.8511E+06    -21.4329E+06    -35.5186E+06    -22.8807E+06    -31.1326E+06    -20.7893E+06     227.603E+03         24.2584
             230     325.860E-09     110.213E-03     156.862E-03     95.2785E-03    -400.900E-03     140.523E-03    -384.560E-03     95.2785E-03    -187.512E-03     70.6543E-03    -35.0908E-03    -35.5636E-03    -35.4973E-03     70.5880E-03    -35.0908E-03     5.27039E-03     7.29144E+06     5.85730E+06    -39.0220E+06     6.17782E+06    -38.5520E+06     6.50093E+06    -4.16145E+06         25.2561
             231     82.1015E-09     109.133E-03     169.661E-03     99.6810E-03    -422.496E-03     132.190E-03    -407.154E-03     121.810E-03    -184.379E-03     82.3832E-03    -40.9900E-03    -41.3934E-03    -41.3487E-03     82.3385E-03    -40.9900E-03     4.63793E-03     19.8637E+06     18.9514E+06    -50.0805E+06     19.4834E+06    -49.8220E+06     19.0732E+06    -4.22262E+06         26.1601
             232     205.123E-09     108.041E-03     161.558E-03     114.920E-03    -424.302E-03     94.0576E-03    -378.931E-03     137.049E-03    -287.346E-03     91.7933E-03    -45.6261E-03    -46.1632E-03    -46.1294E-03     91.7595E-03    -45.6261E-03     4.31784E-03     13.8653E+06     11.1700E+06    -63.7562E+06     13.5081E+06    -63.5208E+06     11.2918E+06    -4.26436E+06         26.8972
             233     440.245E-09     106.940E-03     159.916E-03     128.277E-03    -451.408E-03     77.7709E-03    -376.392E-03     135.407E-03    -398.467E-03     98.5777E-03    -49.0051E-03    -49.5697E-03    -49.5419E-03     98.5499E-03    -49.0051E-03     4.01666E-03     9.59928E+06     4.84314E+06    -81.9299E+06     7.13251E+06    -81.6458E+06     7.02579E+06    -5.02904E+06         27.4427
             234    -66.3326E-09     105.835E-03     211.567E-03     180.556E-03    -572.140E-03     65.6916E-03    -457.276E-03     211.567E-03    -538.747E-03     103.119E-03    -51.3696E-03    -51.7488E-03    -51.7311E-03     103.102E-03    -51.3696E-03     3.30497E-03    -2.54191E+06    -5.35735E+06    -103.227E+06    -5.03983E+06    -102.911E+06    -3.17470E+06    -5.56299E+06         27.8217
             235     405.249E-09     104.725E-03     282.378E-03     245.002E-03    -730.517E-03     120.805E-03    -606.320E-03     282.378E-03    -638.505E-03     106.220E-03    -52.8178E-03    -53.4033E-03    -53.3937E-03     106.210E-03    -52.8178E-03     2.36334E-03    -15.5902E+06    -17.1453E+06    -124.974E+06    -16.1271E+06    -124.438E+06    -17.1453E+06    -7.52338E+06         28.0652
             236     335.448E-09     103.612E-03     264.802E-03     235.785E-03    -725.112E-03     39.4761E-03    -513.281E-03     249.280E-03    -732.456E-03     107.690E-03    -53.4498E-03    -54.2432E-03    -54.2385E-03     107.686E-03    -53.4498E-03     1.74593E-03    -34.5295E+06    -36.2461E+06    -149.340E+06    -35.0554E+06    -148.814E+06    -36.2461E+06    -7.56497E+06         28.1993
             237     405.394E-09     102.499E-03     294.046E-03     268.293E-03    -775.020E-03    -67.9351E-03    -413.039E-03     268.293E-03        -1.01026     108.500E-03    -53.9413E-03    -54.5600E-03    -54.5538E-03     108.494E-03    -53.9413E-03     2.00449E-03     -49.596E+06    -50.5576E+06    -171.237E+06    -50.0013E+06    -170.999E+06    -50.3903E+06    -5.30944E+06         28.2659
             238     13.4745E-09     101.383E-03     396.474E-03     339.304E-03    -964.847E-03     27.1917E-03    -595.564E-03     339.304E-03        -1.20369     109.097E-03    -54.3513E-03    -54.7425E-03    -54.7360E-03     109.090E-03    -54.3513E-03     2.05035E-03    -63.2875E+06    -63.6805E+06    -189.173E+06    -63.6893E+06    -188.939E+06    -63.5132E+06    -5.38013E+06         28.3001
             239     307.421E-09     100.270E-03     423.558E-03     323.728E-03    -986.630E-03    -24.0742E-03    -591.887E-03     376.617E-03        -1.21815     109.141E-03    -54.4140E-03    -54.7249E-03    -54.7194E-03     109.136E-03    -54.4140E-03     1.90496E-03    -83.0425E+06    -83.8109E+06    -206.966E+06    -83.2263E+06    -206.783E+06    -83.8109E+06    -4.55022E+06         28.3203
             240    -47.3325E-09     99.1543E-03     468.523E-03     360.351E-03        -1.09920    -100.363E-03    -638.487E-03     468.523E-03        -1.35138     109.201E-03    -54.4258E-03    -54.7737E-03    -54.7675E-03     109.195E-03    -54.4258E-03     2.01654E-03    -88.7233E+06    -89.3286E+06    -219.184E+06    -88.8438E+06    -219.126E+06    -89.2661E+06    -2.67319E+06         28.3377
             241     440.936E-09     98.0402E-03     558.976E-03     499.554E-03        -1.36543    -75.3345E-03    -786.399E-03     554.837E-03        -1.72573     109.560E-03    -54.4324E-03    -55.1229E-03    -55.1168E-03     109.554E-03    -54.4324E-03     2.00112E-03    -95.4680E+06    -96.1075E+06    -232.380E+06    -96.2189E+06    -232.269E+06    -95.4680E+06    -3.61607E+06         28.3548
             242     483.658E-09     96.9257E-03     614.213E-03     536.256E-03        -1.43632    -187.375E-03    -634.731E-03     536.256E-03        -1.98574     109.811E-03    -54.5035E-03    -55.3051E-03    -55.3013E-03     109.807E-03    -54.5035E-03     1.57709E-03    -102.940E+06    -103.568E+06    -249.534E+06    -103.741E+06    -249.311E+06    -102.991E+06    -5.70166E+06         28.3690
             243     120.453E-09     95.8102E-03     659.961E-03     559.828E-03        -1.51603    -244.216E-03    -638.169E-03     586.144E-03        -2.10616     109.824E-03    -54.6816E-03    -55.1422E-03    -55.1387E-03     109.821E-03    -54.6816E-03     1.51831E-03    -109.506E+06    -110.531E+06    -266.731E+06    -109.673E+06    -266.564E+06    -110.531E+06    -4.90329E+06         28.3790
             244     137.025E-09     94.6952E-03     764.105E-03     625.386E-03        -1.70803    -311.011E-03    -771.632E-03     764.105E-03        -2.28313     109.955E-03    -54.8391E-03    -55.1149E-03    -55.1115E-03     109.951E-03    -54.8391E-03     1.46285E-03    -108.915E+06    -109.986E+06    -277.361E+06    -109.059E+06    -277.314E+06    -109.889E+06    -2.64639E+06         28.3875
             245     118.800E-09     93.5801E-03     850.362E-03     707.862E-03        -1.86979    -435.523E-03    -726.408E-03     850.362E-03        -2.56032     110.082E-03    -54.7396E-03    -55.3440E-03    -55.3413E-03     110.080E-03    -54.7396E-03     1.33384E-03    -109.017E+06    -109.673E+06    -284.179E+06    -109.122E+06    -284.170E+06    -109.577E+06    -1.01474E+06         28.3943
             246     766.912E-09     92.4654E-03     911.037E-03     757.937E-03        -1.98948    -452.756E-03    -778.786E-03     911.037E-03        -2.72675     110.330E-03    -54.8052E-03    -55.5277E-03    -55.5233E-03     110.325E-03    -54.8052E-03     1.69629E-03    -110.222E+06    -111.789E+06    -289.164E+06    -111.246E+06    -289.147E+06    -110.782E+06    -1.36504E+06         28.3984
             247    -282.652E-09     91.3486E-03         1.02805     667.993E-03        -2.01861    -527.190E-03    -823.431E-03         1.02805        -2.66813     110.231E-03    -54.9334E-03    -55.3017E-03    -55.2966E-03     110.226E-03    -54.9334E-03     1.84701E-03    -106.409E+06    -109.180E+06    -294.569E+06    -107.434E+06    -294.552E+06    -108.173E+06    -1.32382E+06         28.4005
             248     483.797E-09     90.2332E-03         1.13610     674.097E-03        -2.16035    -640.161E-03    -846.093E-03         1.13610        -2.82695     109.932E-03    -54.7331E-03    -55.2006E-03    -55.1926E-03     109.924E-03    -54.7331E-03     2.24727E-03    -102.191E+06    -104.836E+06    -297.052E+06    -103.085E+06    -297.039E+06    -103.954E+06     1.01719E+06         28.4040
             249     178.940E-09     89.1188E-03         1.18832     776.704E-03        -2.31602    -685.931E-03    -853.385E-03         1.18832        -3.08754     110.057E-03    -54.7686E-03    -55.2895E-03    -55.2814E-03     110.049E-03    -54.7686E-03     2.27917E-03    -100.221E+06    -101.329E+06    -295.367E+06    -101.115E+06    -295.354E+06    -100.448E+06     1.02504E+06         28.4111
             250     140.177E-09     88.0035E-03         1.19862     852.458E-03        -2.40024    -727.744E-03    -820.043E-03         1.19862        -3.25135     110.085E-03    -54.8504E-03    -55.2373E-03    -55.2326E-03     110.080E-03    -54.8504E-03     1.76501E-03    -103.681E+06    -104.026E+06    -296.829E+06    -103.687E+06    -296.824E+06    -104.026E+06     627.287E+03         28.4177
             251     270.181E-09     86.8890E-03         1.29126     818.447E-03        -2.46778    -759.565E-03    -889.764E-03         1.29126        -3.28317     110.108E-03    -54.8245E-03    -55.2860E-03    -55.2816E-03     110.104E-03    -54.8245E-03     1.70676E-03    -101.468E+06    -102.202E+06    -296.034E+06    -102.090E+06    -296.029E+06    -101.586E+06     720.098E+03         28.4218
             252     198.104E-09     85.7735E-03         1.39784     830.974E-03        -2.60304    -825.055E-03    -947.008E-03         1.39784        -3.43115     110.150E-03    -54.6637E-03    -55.4931E-03    -55.4898E-03     110.146E-03    -54.6637E-03     1.46571E-03    -99.8888E+06    -101.254E+06    -296.033E+06    -100.507E+06    -296.031E+06    -100.638E+06    -450.514E+03         28.4254
             253     899.015E-09     84.6586E-03         1.41243     965.325E-03        -2.76746    -869.775E-03    -932.356E-03         1.41243        -3.73226     110.158E-03    -54.7220E-03    -55.4436E-03    -55.4375E-03     110.152E-03    -54.7220E-03     1.89408E-03    -100.248E+06    -101.334E+06    -296.536E+06    -100.589E+06    -296.533E+06    -100.997E+06    -67.9718E+03         28.4288
             254    -640.004E-09     83.5429E-03         1.40697     977.290E-03        -2.76912    -830.845E-03    -960.984E-03         1.40697        -3.74352     110.081E-03    -54.8990E-03    -55.1821E-03    -55.1756E-03     110.074E-03    -54.8990E-03     1.99620E-03    -98.8077E+06    -99.5694E+06    -294.354E+06    -99.1464E+06    -294.353E+06    -99.2324E+06     520.091E+03         28.4312
             255     914.829E-09     82.4274E-03         1.45477     863.029E-03        -2.73500    -881.264E-03    -990.709E-03         1.45477        -3.59537     109.889E-03    -54.6684E-03    -55.2198E-03    -55.2146E-03     109.884E-03    -54.6684E-03     1.81283E-03    -99.4880E+06    -100.599E+06    -294.792E+06    -100.175E+06    -294.791E+06    -99.9127E+06     301.861E+03         28.4342
             256    -146.137E-09     81.3141E-03         1.42355     790.056E-03        -2.64393    -936.706E-03    -917.167E-03         1.42355        -3.43367     110.188E-03    -54.7892E-03    -55.4026E-03    -55.3983E-03     110.183E-03    -54.7892E-03     1.55899E-03    -95.2863E+06    -96.2792E+06    -292.753E+06    -95.9736E+06    -292.752E+06    -95.5927E+06    -62.6603E+03         28.4376
             257     540.164E-09     80.1976E-03         1.36107     604.819E-03        -2.38444    -861.752E-03    -917.868E-03         1.36107        -2.98610     110.294E-03    -54.9303E-03    -55.3672E-03    -55.3629E-03     110.290E-03    -54.9303E-03     1.55450E-03    -94.3211E+06    -94.6605E+06    -292.213E+06    -94.3548E+06    -292.212E+06    -94.6274E+06    -362.155E+03         28.4388
             258    -105.852E-09     79.0816E-03         1.44209     279.537E-03        -2.17301    -782.205E-03        -1.11127         1.44209        -2.42376     110.026E-03    -54.7779E-03    -55.2484E-03    -55.2424E-03     110.020E-03    -54.7779E-03     1.97274E-03    -96.5598E+06    -97.2352E+06    -293.093E+06    -96.5989E+06    -293.087E+06    -97.2021E+06     629.369E+03         28.4397
             259     556.943E-09     77.9683E-03         1.41866     123.995E-03        -2.02004    -714.183E-03        -1.18186         1.41866        -2.09234     110.021E-03    -54.7756E-03    -55.2496E-03    -55.2462E-03     110.017E-03    -54.7756E-03     1.46545E-03    -94.8492E+06    -96.1037E+06    -289.637E+06    -95.4676E+06    -289.630E+06    -95.4916E+06     949.914E+03         28.4423
             260    -108.540E-09     76.8522E-03         1.17539    -35.4850E-03        -1.61755    -677.330E-03    -975.705E-03         1.17539        -1.55170     109.988E-03    -54.7722E-03    -55.2212E-03    -55.2169E-03     109.984E-03    -54.7722E-03     1.63250E-03    -94.2763E+06    -95.4254E+06    -287.651E+06    -94.8905E+06    -287.649E+06    -94.8132E+06     597.999E+03         28.4440
             261     507.656E-09     75.7369E-03         1.05943    -326.183E-03        -1.21416    -615.711E-03    -924.635E-03         1.05943    -770.691E-03     109.969E-03    -54.6997E-03    -55.2714E-03    -55.2654E-03     109.963E-03    -54.6997E-03     1.99203E-03    -93.2098E+06    -94.6676E+06    -286.422E+06    -94.1327E+06    -286.420E+06    -93.7468E+06     214.752E+03         28.4452
             262     176.835E-09     74.6225E-03         1.15205    -414.970E-03        -1.23258    -449.007E-03        -1.19854         1.15205    -218.780E-03     110.007E-03    -54.7585E-03    -55.2503E-03    -55.2451E-03     110.002E-03    -54.7585E-03     1.84026E-03    -92.5720E+06    -94.3006E+06    -287.138E+06    -93.4932E+06    -287.137E+06    -93.3798E+06    -204.616E+03         28.4464
             263     74.3549E-09     73.5073E-03         1.10645    -266.246E-03        -1.34535    -294.463E-03        -1.31713         1.10645     216.122E-03     110.065E-03    -54.7729E-03    -55.2953E-03    -55.2918E-03     110.062E-03    -54.7729E-03     1.49236E-03    -91.2006E+06    -92.3966E+06    -287.770E+06    -91.5898E+06    -287.769E+06    -92.0084E+06     287.610E+03         28.4446
             264     660.246E-09     72.3924E-03     909.262E-03    -127.296E-03        -1.27774    -298.725E-03        -1.10631     909.262E-03     748.426E-03     109.881E-03    -54.5174E-03    -55.3642E-03    -55.3609E-03     109.878E-03    -54.5174E-03     1.45387E-03    -92.3667E+06    -92.9589E+06    -287.266E+06    -92.9612E+06    -287.264E+06    -92.3667E+06    -57.0036E+03         28.4416
             265     220.142E-09     71.2769E-03     821.995E-03     15.1045E-03        -1.34400    -287.453E-03        -1.04144     821.995E-03         1.12898     109.816E-03    -54.6592E-03    -55.1602E-03    -55.1547E-03     109.811E-03    -54.6592E-03     1.89397E-03    -91.5232E+06    -92.4695E+06    -284.915E+06    -91.7312E+06    -284.911E+06    -92.2654E+06     144.040E+03         28.4428
             266    -153.780E-09     70.1632E-03     817.953E-03     231.194E-03        -1.57686    -101.442E-03        -1.24422     817.953E-03         1.39843     110.244E-03    -55.0107E-03    -55.2392E-03    -55.2339E-03     110.238E-03    -55.0107E-03     1.87231E-03    -90.7215E+06    -92.2900E+06    -283.991E+06    -91.5506E+06    -283.988E+06    -91.4637E+06     342.186E+03         28.4454
             267     524.094E-09     69.0455E-03     775.589E-03     462.798E-03        -1.78353     34.1038E-03        -1.35484     775.589E-03         1.76124     110.157E-03    -54.7791E-03    -55.3829E-03    -55.3784E-03     110.153E-03    -54.7791E-03     1.72842E-03    -91.6564E+06    -93.4317E+06    -285.417E+06    -92.4853E+06    -285.415E+06    -92.6054E+06     318.460E+03         28.4424
             268     251.616E-09     67.9327E-03     706.199E-03     549.444E-03        -1.80432     57.0983E-03        -1.31197     706.199E-03         1.91462     109.909E-03    -54.6054E-03    -55.3110E-03    -55.3077E-03     109.906E-03    -54.6054E-03     1.42552E-03    -90.6357E+06    -92.8591E+06    -284.468E+06    -91.9205E+06    -284.457E+06    -91.5847E+06    -400.319E+03         28.4368
             269     316.401E-09     66.8176E-03     647.842E-03     507.947E-03        -1.71184     109.333E-03        -1.31323     647.842E-03         1.69568     110.199E-03    -54.8512E-03    -55.3531E-03    -55.3510E-03     110.197E-03    -54.8512E-03     1.17056E-03    -91.3045E+06    -93.6192E+06    -284.941E+06    -92.5930E+06    -284.927E+06    -92.3448E+06    -1.64669E+06         28.4376
             270     77.0997E-09     65.7010E-03     656.990E-03     454.782E-03        -1.66928     245.763E-03        -1.32846     525.194E-03         1.61574     110.335E-03    -55.0518E-03    -55.2851E-03    -55.2801E-03     110.330E-03    -55.0518E-03     1.76940E-03    -92.1732E+06    -93.6153E+06    -286.812E+06    -92.5810E+06    -286.806E+06    -93.2136E+06    -756.040E+03         28.4450
             271    -31.8605E-09     64.5856E-03     628.126E-03     449.661E-03        -1.62943     303.037E-03        -1.30434     449.661E-03         1.58421     110.325E-03    -55.0137E-03    -55.3137E-03    -55.3076E-03     110.319E-03    -55.0137E-03     1.99080E-03    -92.7985E+06    -93.5568E+06    -287.508E+06    -93.2006E+06    -287.508E+06    -93.1550E+06     185.621E+03         28.4516
             272     557.636E-09     63.4704E-03     565.777E-03     468.409E-03        -1.62764     310.988E-03        -1.42355     519.108E-03         1.22238     110.467E-03    -54.8382E-03    -55.6292E-03    -55.6248E-03     110.463E-03    -54.8382E-03     1.72495E-03    -92.8885E+06    -93.8043E+06    -287.964E+06    -93.4492E+06    -287.962E+06    -93.2450E+06    -162.359E+03         28.4533
             273     423.296E-09     62.3550E-03     563.979E-03     450.748E-03        -1.62489     429.848E-03        -1.54145     501.447E-03     808.407E-03     110.329E-03    -54.7969E-03    -55.5340E-03    -55.5304E-03     110.325E-03    -54.7969E-03     1.54569E-03    -93.6062E+06    -95.3402E+06    -288.623E+06    -94.1668E+06    -288.622E+06    -94.7809E+06    -215.312E+03         28.4502
             274     16.1013E-03     60.5094E-03     440.267E-03     421.261E-03        -1.48286     434.260E-03        -1.48260     427.007E-03    -26.6025E-03     110.989E-03    -53.9520E-03    -57.1427E-03    -53.0478E-03     107.848E-03    -54.9060E-03     33.7505E-03     177.101E+06     123.620E+06    -7.49327E+06    -7.48562E+06     177.093E+06     123.620E+06     843.249E+03         42.0304
             275     15.1529E-03     60.4374E-03     446.448E-03     425.047E-03        -1.49679     444.678E-03        -1.49662     426.641E-03    -17.1285E-03     111.648E-03    -54.7258E-03    -57.0401E-03    -52.9692E-03     107.647E-03    -54.7954E-03     49.1357E-03     174.991E+06     101.542E+06    -14.6759E+06    -14.6654E+06     174.980E+06     101.542E+06     56.2784E+03         39.6200
             276     14.2050E-03     60.4015E-03     440.713E-03     421.657E-03        -1.49147     436.012E-03        -1.49128     426.169E-03    -24.4452E-03     110.251E-03    -54.5743E-03    -55.7839E-03    -53.0537E-03     107.591E-03    -54.6439E-03     41.0583E-03     166.070E+06     53.2521E+06    -21.1158E+06    -21.1086E+06     166.063E+06     53.2521E+06    -166.592E+03         37.4973
             277     13.2573E-03     60.3482E-03     431.865E-03     413.861E-03        -1.47483     419.137E-03        -1.47473     426.488E-03     9.03895E-03     110.890E-03    -54.6059E-03    -56.2933E-03    -53.5323E-03     108.129E-03    -54.6059E-03     42.1229E-03     123.068E+06     13.5642E+06    -26.6029E+06    -26.5911E+06     123.057E+06     13.5642E+06     874.175E+03         36.0217
             278     12.3099E-03     60.3092E-03     431.909E-03     415.714E-03        -1.47533     419.980E-03        -1.47509     427.402E-03    -8.17515E-03     110.287E-03    -54.7041E-03    -55.6037E-03    -53.9488E-03     108.632E-03    -54.7041E-03     32.8515E-03     43.6158E+06     2.49484E+06    -30.1785E+06    -30.1572E+06     43.2540E+06     2.83539E+06     429.795E+03         34.8886
             279     11.3627E-03     60.2767E-03     436.556E-03     424.198E-03        -1.48637     432.245E-03        -1.48563     427.769E-03     23.3540E-03     109.914E-03    -54.8028E-03    -55.1820E-03    -54.0237E-03     108.791E-03    -54.8378E-03     26.9674E-03     1.77854E+06    -16.3997E+06    -44.0690E+06    -32.5749E+06    -27.8938E+06     1.77854E+06    -140.335E+03         33.7825
             280     10.4153E-03     60.2513E-03     438.647E-03     426.044E-03        -1.49065     435.877E-03        -1.48922     427.386E-03    -8.97048E-03     109.715E-03    -54.8433E-03    -54.9467E-03    -54.0991E-03     108.965E-03    -54.9416E-03     22.0831E-03     1.97621E+06    -35.6081E+06    -77.4285E+06    -35.6092E+06    -77.4273E+06     1.97621E+06    -27.4441E+03         32.7146
             281     9.46799E-03     60.2297E-03     438.065E-03     425.380E-03        -1.49222     435.630E-03        -1.49112     426.723E-03    -25.8380E-03     109.858E-03    -54.8690E-03    -55.0411E-03    -54.3031E-03     109.287E-03    -55.0359E-03     19.3393E-03     1.95397E+06    -39.1568E+06    -113.510E+06    -39.1573E+06    -113.510E+06     1.95397E+06     66.5060E+03         31.7994
             282     8.52085E-03     60.2096E-03     431.020E-03     425.673E-03        -1.48373     430.203E-03        -1.48347     426.234E-03     25.9056E-03     109.867E-03    -54.7995E-03    -55.0922E-03    -54.3582E-03     109.426E-03    -55.0922E-03     16.9672E-03    -993.438E+03    -43.3567E+06    -144.015E+06    -43.3569E+06    -144.015E+06    -993.438E+03     81.2153E+03         31.0410
             283     7.57393E-03     60.1930E-03     427.647E-03     419.227E-03        -1.47090     420.231E-03        -1.47084     426.577E-03    -15.9613E-03     109.919E-03    -54.7768E-03    -55.1530E-03    -54.4439E-03     109.586E-03    -55.1530E-03     14.7721E-03    -5.26546E+06    -48.3749E+06    -172.258E+06    -48.3749E+06    -172.258E+06    -5.26546E+06    -9.11730E+03         30.4136
             284     6.62668E-03     60.1780E-03     428.752E-03     420.735E-03        -1.47318     421.673E-03        -1.47289     427.525E-03     12.0161E-03     110.055E-03    -54.8591E-03    -55.2211E-03    -54.5956E-03     109.791E-03    -55.2211E-03     13.1457E-03    -10.0140E+06    -54.0960E+06    -198.471E+06    -54.0965E+06    -198.470E+06    -10.0140E+06     29.2966E+03         29.8961
             285     5.67987E-03     60.1646E-03     437.466E-03     427.283E-03        -1.48798     436.425E-03        -1.48694     427.283E-03    -30.6871E-03     110.192E-03    -54.9474E-03    -55.2696E-03    -54.7501E-03     109.994E-03    -55.2696E-03     11.3679E-03    -17.5621E+06    -60.6091E+06    -225.624E+06    -60.6104E+06    -225.623E+06    -17.5621E+06     315.938E+03         29.4733
             286     4.73294E-03     60.1534E-03     438.292E-03     425.468E-03        -1.49136     436.957E-03        -1.49002     425.468E-03    -13.1122E-03     110.328E-03    -55.0444E-03    -55.2905E-03    -54.9002E-03     110.184E-03    -55.2905E-03     9.73470E-03    -28.7978E+06    -67.8047E+06    -246.861E+06    -67.8075E+06    -246.859E+06    -28.7978E+06     588.579E+03         29.1373
             287     3.78632E-03     60.1434E-03     431.795E-03     419.269E-03        -1.48527     426.274E-03        -1.48463     424.149E-03     61.4853E-03     110.333E-03    -55.0875E-03    -55.2467E-03    -54.9866E-03     110.232E-03    -55.2467E-03     8.11557E-03    -44.4766E+06    -75.4877E+06    -259.860E+06    -75.4913E+06    -259.856E+06    -44.4766E+06     564.291E+03         28.8793
             288     2.83985E-03     60.1356E-03     444.555E-03     416.032E-03        -1.50271     439.080E-03        -1.50211     420.912E-03     29.1952E-03     110.308E-03    -55.1007E-03    -55.2112E-03    -55.0605E-03     110.249E-03    -55.1917E-03     6.20143E-03    -62.9276E+06    -82.7838E+06    -270.978E+06    -82.7856E+06    -270.976E+06    -62.9276E+06     359.559E+03         28.6874
             289     1.89333E-03     60.1298E-03     443.581E-03     409.149E-03        -1.49412     435.388E-03        -1.48882     412.043E-03    -125.882E-03     110.243E-03    -55.0880E-03    -55.1581E-03    -55.0959E-03     110.215E-03    -55.1215E-03     4.24643E-03    -78.7916E+06    -88.9290E+06    -279.673E+06    -88.9298E+06    -279.672E+06    -78.7916E+06     316.526E+03         28.5529
             290     946.538E-06     60.1268E-03     449.474E-03     391.423E-03        -1.48221     375.201E-03        -1.45367     437.157E-03     138.480E-03     110.101E-03    -54.9356E-03    -55.1677E-03    -55.1543E-03     110.090E-03    -54.9382E-03     2.57293E-03    -88.7946E+06    -92.7487E+06    -284.070E+06    -92.7647E+06    -284.054E+06    -88.7946E+06     660.982E+03         28.4724
             291     16.1012E-03     59.3936E-03     460.109E-03     436.937E-03        -1.52210     459.737E-03        -1.52172     436.937E-03     561.291E-06     111.080E-03    -54.0427E-03    -57.0962E-03    -53.1180E-03     107.969E-03    -54.9103E-03     33.6882E-03     177.066E+06     124.293E+06    -6.73295E+06    -6.73026E+06     177.063E+06     124.293E+06     376.103E+03         42.0315
             292     15.1535E-03     59.3230E-03     457.963E-03     435.485E-03        -1.52323     457.254E-03        -1.52299     435.949E-03    -3.88123E-03     111.659E-03    -54.7250E-03    -57.0078E-03    -52.9623E-03     107.683E-03    -54.7946E-03     49.0290E-03     175.322E+06     101.258E+06    -15.1481E+06    -15.1312E+06     175.305E+06     101.258E+06     1.04819E+06         39.6195
             293     14.2049E-03     59.2862E-03     442.667E-03     429.070E-03        -1.50548     435.847E-03        -1.50529     435.696E-03    -16.5055E-03     110.323E-03    -54.5685E-03    -55.8622E-03    -53.1591E-03     107.690E-03    -54.6381E-03     40.9129E-03     165.433E+06     52.8868E+06    -23.1358E+06    -23.1074E+06     165.404E+06     52.8868E+06     1.84743E+06         37.4954
             294     13.2572E-03     59.2328E-03     441.047E-03     427.133E-03        -1.50349     431.825E-03        -1.50339     436.253E-03     15.1082E-03     110.808E-03    -54.5975E-03    -56.2301E-03    -53.4747E-03     108.052E-03    -54.5975E-03     42.1391E-03     124.191E+06     14.6276E+06    -28.0089E+06    -27.9853E+06     124.168E+06     14.6276E+06     1.31337E+06         36.0175
             295     12.3099E-03     59.1935E-03     447.633E-03     433.478E-03        -1.51630     444.481E-03        -1.51611     436.436E-03    -3.58836E-03     110.029E-03    -54.7020E-03    -55.3441E-03    -53.6701E-03     108.355E-03    -54.7020E-03     32.9604E-03     45.1721E+06     2.17313E+06    -30.4047E+06    -30.3837E+06     44.0149E+06     3.30926E+06    -85.0984E+03         34.8823
             296     11.3623E-03     59.1619E-03     445.883E-03     435.660E-03        -1.51650     444.891E-03        -1.51584     435.996E-03     26.0937E-03     109.842E-03    -54.8196E-03    -55.0851E-03    -53.9362E-03     108.723E-03    -54.8498E-03     26.9111E-03     1.89010E+06    -16.9737E+06    -43.9718E+06    -32.2506E+06    -28.6948E+06     1.89010E+06    -564.279E+03         33.7782
             297     10.4150E-03     59.1362E-03     439.309E-03     434.091E-03        -1.50915     435.920E-03        -1.50749     435.825E-03    -19.0685E-03     109.824E-03    -54.9070E-03    -54.9883E-03    -54.1863E-03     109.069E-03    -54.9541E-03     22.1792E-03     2.56499E+06    -34.9815E+06    -77.1363E+06    -34.9923E+06    -77.1254E+06     2.56499E+06    -208.074E+03         32.7132
             298     9.46822E-03     59.1142E-03     437.208E-03     430.457E-03        -1.50463     429.845E-03        -1.50314     436.334E-03    -28.5574E-03     109.909E-03    -54.9125E-03    -55.0471E-03    -54.3484E-03     109.340E-03    -55.0420E-03     19.3079E-03     2.28321E+06    -38.7499E+06    -113.491E+06    -38.7504E+06    -113.491E+06     2.28321E+06    -37.1101E+03         31.7998
             299     8.52101E-03     59.0948E-03     440.724E-03     431.885E-03        -1.51008     435.294E-03        -1.50969     436.925E-03     31.7808E-03     109.864E-03    -54.7923E-03    -55.0977E-03    -54.3540E-03     109.426E-03    -55.0977E-03     16.9168E-03    -844.313E+03    -43.2256E+06    -144.089E+06    -43.2257E+06    -144.089E+06    -844.313E+03    -60.3005E+03         31.0430
             300     7.57345E-03     59.0779E-03     450.856E-03     435.730E-03        -1.52217     450.288E-03        -1.52217     436.290E-03    -4.28350E-03     109.957E-03    -54.8128E-03    -55.1571E-03    -54.4787E-03     109.623E-03    -55.1571E-03     14.7987E-03    -5.00154E+06    -48.4032E+06    -171.758E+06    -48.4032E+06    -171.758E+06    -5.00154E+06     15.3556E+03         30.4165
             301     6.62684E-03     59.0626E-03     446.774E-03     434.676E-03        -1.51760     446.463E-03        -1.51729     434.676E-03     34.3204E-03     110.097E-03    -54.9078E-03    -55.2180E-03    -54.6466E-03     109.836E-03    -55.2180E-03     13.0850E-03    -10.2050E+06    -54.3862E+06    -198.810E+06    -54.3863E+06    -198.809E+06    -10.2050E+06    -39.2302E+03         29.8987
             302     5.67979E-03     59.0495E-03     436.555E-03     425.272E-03        -1.49895     426.212E-03        -1.49794     434.604E-03    -16.6635E-03     110.203E-03    -54.9717E-03    -55.2583E-03    -54.7763E-03     110.008E-03    -55.2583E-03     11.3225E-03    -17.8919E+06    -60.9666E+06    -225.945E+06    -60.9669E+06    -225.944E+06    -17.8919E+06     20.7899E+03         29.4748
             303     4.73319E-03     59.0378E-03     438.736E-03     425.214E-03        -1.50321     426.398E-03        -1.50205     436.385E-03    -23.4855E-03     110.312E-03    -55.0455E-03    -55.2699E-03    -54.9029E-03     110.169E-03    -55.2699E-03     9.67560E-03    -29.6319E+06    -68.2227E+06    -246.574E+06    -68.2230E+06    -246.574E+06    -29.6319E+06     179.312E+03         29.1380
             304     3.78655E-03     59.0282E-03     447.731E-03     434.528E-03        -1.52668     445.342E-03        -1.52613     436.367E-03     40.8308E-03     110.261E-03    -55.0305E-03    -55.2296E-03    -54.9308E-03     110.161E-03    -55.2296E-03     8.07774E-03    -45.3803E+06    -75.5491E+06    -259.698E+06    -75.5508E+06    -259.696E+06    -45.3803E+06      327.17E+03         28.8795
             305     2.83972E-03     59.0202E-03     458.141E-03     430.848E-03        -1.53530     457.417E-03        -1.53467     430.942E-03    -31.0008E-03     110.233E-03    -55.0299E-03    -55.2065E-03    -54.9689E-03     110.172E-03    -55.2065E-03     6.26404E-03    -62.2822E+06    -82.1968E+06    -271.033E+06    -82.1987E+06    -271.031E+06    -62.2822E+06     408.078E+03         28.6870
             306     1.89292E-03     59.0148E-03     442.475E-03     415.742E-03        -1.50517     429.236E-03        -1.50197     425.782E-03    -104.266E-03     110.276E-03    -55.0962E-03    -55.1811E-03    -55.0757E-03     110.248E-03    -55.1728E-03     4.22894E-03    -77.4820E+06    -87.6235E+06    -279.281E+06    -87.6239E+06    -279.280E+06    -77.4820E+06     263.351E+03         28.5534
             307     946.628E-06     59.0111E-03     463.479E-03     392.772E-03        -1.50178     409.155E-03        -1.49557     440.884E-03     13.8326E-03     110.233E-03    -54.9998E-03    -55.2340E-03    -55.2218E-03     110.223E-03    -55.0024E-03     2.36833E-03    -88.1763E+06    -91.8318E+06    -283.098E+06    -91.4601E+06    -283.087E+06    -88.5592E+06    -888.300E+03         28.4753
             308     16.1012E-03     58.2781E-03     454.436E-03     436.488E-03        -1.53001     446.259E-03        -1.52986     444.524E-03     21.0129E-03     111.050E-03    -53.9927E-03    -57.1425E-03    -53.1154E-03     107.957E-03    -54.9272E-03     33.8385E-03     175.966E+06     124.534E+06    -7.81189E+06    -7.80864E+06     175.963E+06     124.534E+06     286.142E+03         42.0303
             309     15.1529E-03     58.2081E-03     449.467E-03     432.781E-03        -1.52070     437.026E-03        -1.52054     445.063E-03     5.12405E-03     112.016E-03    -54.8495E-03    -57.2270E-03    -53.2258E-03     108.015E-03    -54.8495E-03     49.4296E-03     173.943E+06     105.197E+06    -15.5038E+06    -15.4568E+06     173.896E+06     105.197E+06     2.53246E+06         39.6144
             310     14.2056E-03     58.1705E-03     451.903E-03     437.463E-03        -1.53312     443.393E-03        -1.53296     445.811E-03    -18.5586E-03     110.648E-03    -54.6836E-03    -56.0271E-03    -53.3794E-03     108.000E-03    -54.6836E-03     41.1909E-03     166.752E+06     59.0682E+06    -22.1328E+06    -22.0778E+06     166.697E+06     59.0682E+06     2.91296E+06         37.4897
             311     13.2581E-03     58.1180E-03     461.487E-03     444.148E-03        -1.54989     459.682E-03        -1.54973     445.798E-03     1.97030E-03     110.669E-03    -54.5943E-03    -56.0943E-03    -53.3598E-03     107.934E-03    -54.5943E-03     41.9916E-03     126.282E+06     18.1139E+06    -25.7201E+06    -25.7066E+06     126.268E+06     18.1139E+06     488.192E+03         36.0146
             312     12.3096E-03     58.0788E-03     456.750E-03     444.238E-03        -1.54494     455.538E-03        -1.54475     445.257E-03    -9.40110E-03     109.868E-03    -54.6999E-03    -55.1812E-03    -53.5132E-03     108.200E-03    -54.6999E-03     32.8367E-03     46.3807E+06     3.32845E+06    -27.7503E+06    -27.7427E+06     44.6028E+06     5.09869E+06    -637.318E+03         34.8799
             313     11.3622E-03     58.0466E-03     447.465E-03     443.764E-03        -1.53548     445.644E-03        -1.53502     445.119E-03     16.3615E-03     109.846E-03    -54.8506E-03    -55.0561E-03    -53.9635E-03     108.753E-03    -54.8506E-03     26.5982E-03     2.71796E+06    -16.5163E+06    -43.2207E+06    -30.8149E+06    -28.9222E+06     2.71796E+06    -485.277E+03         33.7764
             314     10.4153E-03     58.0208E-03     450.898E-03     444.750E-03        -1.53934     449.253E-03        -1.53809     445.142E-03    -22.1773E-03     109.775E-03    -54.8530E-03    -54.9969E-03    -54.1525E-03     109.032E-03    -54.9541E-03     22.0096E-03     2.95021E+06    -34.0610E+06    -77.6045E+06    -34.0720E+06    -77.5935E+06     2.95021E+06    -273.361E+03         32.7126
             315     9.46776E-03     57.9989E-03     450.580E-03     438.830E-03        -1.53620     442.476E-03        -1.53454     445.274E-03    -4.86422E-03     109.829E-03    -54.8320E-03    -55.0509E-03    -54.2649E-03     109.262E-03    -55.0509E-03     19.2633E-03     2.87327E+06    -37.7792E+06    -113.901E+06    -37.7806E+06    -113.899E+06     2.87327E+06     44.3642E+03         31.8004
             316     8.52059E-03     57.9797E-03     448.723E-03     439.316E-03        -1.53707     441.345E-03        -1.53618     445.797E-03     35.9250E-03     109.993E-03    -54.9137E-03    -55.1032E-03    -54.4772E-03     109.557E-03    -55.1029E-03     16.8972E-03    -404.734E+03    -42.6645E+06    -143.947E+06    -42.6654E+06    -143.947E+06    -404.734E+03     119.396E+03         31.0460
             317     7.57410E-03     57.9626E-03     459.315E-03     444.050E-03        -1.55289     457.832E-03        -1.55275     445.393E-03    -20.0045E-03     110.069E-03    -54.9303E-03    -55.1476E-03    -54.6015E-03     109.740E-03    -55.1474E-03     14.6984E-03    -4.53464E+06    -48.0377E+06    -171.436E+06    -48.0379E+06    -171.436E+06    -4.53464E+06     43.4692E+03         30.4205
             318     6.62675E-03     57.9475E-03     455.242E-03     441.090E-03        -1.54732     452.009E-03        -1.54720     444.208E-03     18.5554E-03     110.076E-03    -54.9011E-03    -55.2006E-03    -54.6449E-03     109.820E-03    -55.2006E-03     12.9626E-03    -9.63760E+06    -53.8582E+06    -198.892E+06    -53.8583E+06    -198.892E+06    -9.63760E+06     7.65888E+03         29.9011
             319     5.68014E-03     57.9340E-03     444.909E-03     433.284E-03        -1.52970     432.203E-03        -1.52858     444.871E-03    -42.6482E-03     110.158E-03    -54.9467E-03    -55.2354E-03    -54.7510E-03     109.962E-03    -55.2354E-03     11.3345E-03    -17.9793E+06    -60.6791E+06    -226.110E+06    -60.6792E+06    -226.110E+06    -17.9793E+06    -65.4642E+03         29.4745
             320     4.73326E-03     57.9227E-03     451.482E-03     435.301E-03        -1.53833     438.861E-03        -1.53727     446.860E-03    -55.9251E-03     110.233E-03    -54.9866E-03    -55.2521E-03    -54.8417E-03     110.088E-03    -55.2521E-03     9.74680E-03    -29.5509E+06    -67.9443E+06    -246.546E+06    -67.9444E+06    -246.546E+06    -29.5509E+06    -28.0382E+03         29.1361
             321     3.78640E-03     57.9129E-03     458.927E-03     444.703E-03        -1.55586     456.110E-03        -1.55488     446.542E-03     51.1795E-03     110.206E-03    -54.9835E-03    -55.2247E-03    -54.8844E-03     110.107E-03    -55.2247E-03     8.04483E-03    -45.0528E+06    -75.6438E+06    -259.474E+06    -75.6440E+06    -259.473E+06    -45.0528E+06     87.1651E+03         28.8780
             322     2.83967E-03     57.9052E-03     453.485E-03     437.370E-03        -1.54476     443.790E-03        -1.54342     445.722E-03     10.9580E-03     110.216E-03    -55.0139E-03    -55.2079E-03    -54.9543E-03     110.156E-03    -55.2079E-03     6.19315E-03    -62.5152E+06    -82.8677E+06    -271.105E+06    -82.8689E+06    -271.104E+06    -62.5152E+06    -82.7139E+03         28.6869
             323     1.89318E-03     57.8993E-03     459.441E-03     431.619E-03        -1.54179     443.325E-03        -1.54108     447.022E-03    -46.5041E-03     110.244E-03    -55.0544E-03    -55.1929E-03    -55.0341E-03     110.215E-03    -55.1846E-03     4.22329E-03    -78.5121E+06    -88.2454E+06    -279.009E+06    -88.2469E+06    -279.008E+06    -78.5121E+06    -170.204E+03         28.5546
             324     946.489E-06     57.8960E-03     500.814E-03     396.268E-03        -1.54215     492.648E-03        -1.54104     403.319E-03     20.0058E-03     110.288E-03    -54.9456E-03    -55.3465E-03    -55.2903E-03     110.279E-03    -54.9924E-03     2.31068E-03    -89.1945E+06    -92.0638E+06    -283.295E+06    -91.6913E+06    -283.285E+06    -89.5775E+06    -464.227E+03         28.4779
             325     16.1003E-03     57.1626E-03     452.827E-03     437.790E-03        -1.54558     437.603E-03        -1.54506     452.491E-03    -4.41620E-03     110.929E-03    -53.8581E-03    -57.1771E-03    -53.0405E-03     107.868E-03    -54.9339E-03     33.6134E-03     174.158E+06     124.123E+06    -8.28657E+06    -8.28299E+06     174.154E+06     124.123E+06     540.264E+03         42.0249
             326     15.1528E-03     57.0926E-03     455.062E-03     441.792E-03        -1.55215     442.909E-03        -1.55181     453.611E-03     19.2493E-03     112.199E-03    -54.9035E-03    -57.3361E-03    -53.3401E-03     108.203E-03    -54.9035E-03     49.5508E-03     171.855E+06     108.922E+06    -15.2454E+06    -15.2140E+06     171.823E+06     108.922E+06     1.40192E+06         39.6052
             327     14.2052E-03     57.0542E-03     461.645E-03     443.120E-03        -1.56066     450.034E-03        -1.56037     454.438E-03    -1.86310E-03     110.761E-03    -54.7449E-03    -56.0472E-03    -53.3851E-03     108.099E-03    -54.7449E-03     41.3642E-03     169.137E+06     66.4305E+06    -19.1138E+06    -19.0835E+06     169.106E+06     66.4305E+06     1.20354E+06         37.4840
             328     13.2575E-03     57.0034E-03     465.671E-03     447.458E-03        -1.56772     458.103E-03        -1.56747     454.776E-03     13.3881E-03     110.852E-03    -54.6107E-03    -56.2597E-03    -53.5056E-03     108.098E-03    -54.6107E-03     42.2241E-03     128.564E+06     22.1723E+06    -22.3262E+06    -22.3231E+06     128.561E+06     22.1723E+06     265.047E+03         36.0176
             329     12.3103E-03     56.9636E-03     463.714E-03     451.512E-03        -1.56914     460.323E-03        -1.56901     454.765E-03    -1.59479E-03     110.123E-03    -54.6953E-03    -55.4485E-03    -53.7625E-03     108.437E-03    -54.6953E-03     33.0239E-03     46.6681E+06     4.00915E+06    -26.1873E+06    -26.1705E+06     44.4360E+06     6.22437E+06     155.839E+03         34.8844
             330     11.3627E-03     56.9314E-03     463.360E-03     453.496E-03        -1.57220     461.907E-03        -1.57176     454.515E-03     26.3463E-03     109.785E-03    -54.7841E-03    -55.0649E-03    -53.9289E-03     108.699E-03    -54.8341E-03     26.5357E-03     3.20837E+06    -16.0192E+06    -42.7005E+06    -29.6673E+06    -29.0523E+06     3.20837E+06     225.821E+03         33.7772
             331     10.4152E-03     56.9056E-03     464.273E-03     448.526E-03        -1.56819     457.568E-03        -1.56723     454.267E-03    -10.6771E-03     109.659E-03    -54.7805E-03    -54.9563E-03    -54.0543E-03     108.920E-03    -54.9426E-03     21.9218E-03     3.04658E+06    -33.4460E+06    -78.0222E+06    -33.4506E+06    -78.0175E+06     3.04658E+06     222.523E+03         32.7117
             332     9.46792E-03     56.8842E-03     460.516E-03     446.786E-03        -1.56304     451.798E-03        -1.56197     454.436E-03    -14.0346E-03     109.767E-03    -54.7801E-03    -55.0459E-03    -54.2233E-03     109.211E-03    -55.0459E-03     19.0890E-03     2.82043E+06    -37.7553E+06    -114.043E+06    -37.7587E+06    -114.040E+06     2.82043E+06     257.776E+03         31.7996
             333     8.52083E-03     56.8639E-03     455.644E-03     452.858E-03        -1.56764     452.745E-03        -1.56675     454.871E-03    -5.40123E-03     109.968E-03    -54.8934E-03    -55.0996E-03    -54.4529E-03     109.527E-03    -55.0994E-03     16.9803E-03    -181.279E+03    -42.2833E+06    -143.552E+06    -42.2853E+06    -143.550E+06    -181.279E+03     403.428E+03         31.0461
             334     7.57381E-03     56.8474E-03     455.602E-03     448.960E-03        -1.56605     448.499E-03        -1.56559     455.602E-03    -34.2548E-03     110.163E-03    -55.0217E-03    -55.1500E-03    -54.7013E-03     109.829E-03    -55.1364E-03     14.8071E-03    -4.49883E+06    -47.6784E+06    -171.330E+06    -47.6803E+06    -171.328E+06    -4.49883E+06     366.740E+03         30.4217
             335     6.62730E-03     56.8322E-03     457.307E-03     448.377E-03        -1.56784     448.618E-03        -1.56755     456.783E-03     34.2703E-03     110.116E-03    -54.9504E-03    -55.1926E-03    -54.7067E-03     109.859E-03    -55.1793E-03     12.9886E-03    -9.47732E+06    -53.6374E+06    -198.742E+06    -53.6380E+06    -198.741E+06    -9.47732E+06     163.959E+03         29.9019
             336     5.68004E-03     56.8190E-03     469.844E-03     454.408E-03        -1.58728     466.648E-03        -1.58634     456.664E-03    -24.3748E-03     110.060E-03    -54.8690E-03    -55.2160E-03    -54.6728E-03     109.864E-03    -55.2160E-03     11.3456E-03    -17.7070E+06    -60.4497E+06    -225.815E+06    -60.4503E+06    -225.814E+06    -17.7070E+06     133.071E+03         29.4735
             337     4.73320E-03     56.8074E-03     471.714E-03     452.695E-03        -1.58597     469.192E-03        -1.58519     454.437E-03    -34.9138E-03     110.161E-03    -54.9237E-03    -55.2413E-03    -54.7784E-03     110.015E-03    -55.2413E-03     9.75545E-03    -29.9612E+06    -68.5627E+06    -246.782E+06    -68.5634E+06    -246.782E+06    -29.9612E+06     121.356E+03         29.1338
             338     3.78650E-03     56.7977E-03     459.435E-03     446.867E-03        -1.56718     452.153E-03        -1.56616     453.133E-03     55.5721E-03     110.194E-03    -54.9808E-03    -55.2166E-03    -54.8821E-03     110.095E-03    -55.2166E-03     8.02139E-03    -45.6500E+06    -76.2270E+06    -259.347E+06    -76.2278E+06    -259.347E+06    -45.6500E+06    -61.9504E+03         28.8765
             339     2.83988E-03     56.7898E-03     463.371E-03     440.945E-03        -1.56584     449.244E-03        -1.56488     454.114E-03     29.2050E-03     110.201E-03    -55.0156E-03    -55.1965E-03    -54.9553E-03     110.141E-03    -55.1965E-03     6.25664E-03    -63.2589E+06    -83.2916E+06    -270.773E+06    -83.2936E+06    -270.771E+06    -63.2589E+06    -176.229E+03         28.6866
             340     1.89304E-03     56.7842E-03     473.443E-03     440.049E-03        -1.57257     459.490E-03        -1.57201     453.447E-03    -55.4315E-03     110.211E-03    -55.0418E-03    -55.1755E-03    -55.0119E-03     110.181E-03    -55.1755E-03     4.30078E-03    -78.9633E+06    -89.3673E+06    -279.211E+06    -89.3706E+06    -279.208E+06    -78.9633E+06    -487.802E+03         28.5540
             341     946.378E-06     56.7804E-03     528.178E-03     379.475E-03        -1.56192     519.356E-03        -1.55823     384.615E-03     65.4497E-03     110.266E-03    -54.9136E-03    -55.3551E-03    -55.2934E-03     110.257E-03    -54.9656E-03     2.41977E-03    -90.2278E+06    -93.4353E+06    -283.768E+06    -93.4388E+06    -283.764E+06    -90.2278E+06    -267.656E+03         28.4766
             342     16.1013E-03     56.0478E-03     467.537E-03     454.316E-03        -1.58947     460.318E-03        -1.58892     460.983E-03     1.67733E-03     110.989E-03    -53.9069E-03    -57.1833E-03    -53.0755E-03     107.898E-03    -54.9237E-03     33.6487E-03     174.237E+06     124.644E+06    -7.19951E+06    -7.19625E+06     174.233E+06     124.644E+06     723.550E+03         42.0176
             343     15.1528E-03     55.9767E-03     466.363E-03     461.140E-03        -1.59549     466.052E-03        -1.59518     461.140E-03     29.8664E-03     112.012E-03    -54.8100E-03    -57.2120E-03    -53.1306E-03     108.018E-03    -54.8979E-03     49.3514E-03     172.980E+06     108.881E+06    -14.5424E+06    -14.5279E+06     172.965E+06     108.881E+06    -724.731E+03         39.5991
             344     14.2050E-03     55.9391E-03     464.423E-03     455.917E-03        -1.58702     458.763E-03        -1.58683     461.382E-03     7.94690E-03     110.531E-03    -54.6685E-03    -55.8970E-03    -53.1895E-03     107.911E-03    -54.7564E-03     40.9374E-03     168.358E+06     65.3834E+06    -20.2045E+06    -20.1814E+06     168.335E+06     65.3834E+06    -1.62576E+06         37.4819
             345     13.2571E-03     55.8879E-03     462.139E-03     451.164E-03        -1.57758     450.838E-03        -1.57725     462.139E-03     35.4944E-03     110.956E-03    -54.6273E-03    -56.3539E-03    -53.6272E-03     108.229E-03    -54.6273E-03     42.0197E-03     127.848E+06     21.9345E+06    -23.3103E+06    -23.2846E+06     127.823E+06     21.9345E+06     206.392E+03         36.0204
             346     12.3100E-03     55.8476E-03     467.104E-03     454.461E-03        -1.58770     458.374E-03        -1.58747     462.959E-03     18.0777E-03     110.243E-03    -54.6993E-03    -55.5692E-03    -53.8939E-03     108.568E-03    -54.6993E-03     32.9721E-03     47.0129E+06     4.01730E+06    -26.2891E+06    -26.2461E+06     44.6212E+06     6.36603E+06     1.45634E+06         34.8879
             347     11.3629E-03     55.8169E-03     471.654E-03     457.497E-03        -1.59698     465.470E-03        -1.59656     463.259E-03     29.6959E-03     109.847E-03    -54.7796E-03    -55.1330E-03    -53.9808E-03     108.745E-03    -54.8297E-03     26.7464E-03     3.31389E+06    -16.0094E+06    -42.3930E+06    -29.5980E+06    -28.8044E+06     3.31389E+06     1.20087E+06         33.7786
             348     10.4153E-03     55.7905E-03     468.544E-03     455.068E-03        -1.59072     459.137E-03        -1.58983     463.584E-03    -6.31216E-03     109.701E-03    -54.7682E-03    -55.0076E-03    -54.0911E-03     108.950E-03    -54.9336E-03     22.0881E-03     3.12344E+06    -33.2827E+06    -77.7348E+06    -33.3296E+06    -77.6878E+06     3.12344E+06     1.01703E+06         32.7117
             349     9.46837E-03     55.7687E-03     465.888E-03     458.483E-03        -1.59164     459.352E-03        -1.59085     464.224E-03    -16.9810E-03     109.770E-03    -54.7911E-03    -55.0337E-03    -54.2268E-03     109.206E-03    -55.0337E-03     19.2176E-03     2.89749E+06    -37.7108E+06    -113.607E+06    -37.7204E+06    -113.598E+06     2.89749E+06     753.294E+03         31.7986
             350     8.52078E-03     55.7493E-03     466.565E-03     464.538E-03        -1.60103     465.986E-03        -1.60046     464.547E-03     5.74144E-03     109.910E-03    -54.8526E-03    -55.0855E-03    -54.4054E-03     109.463E-03    -55.0855E-03     17.0960E-03    -479.177E+03    -42.3990E+06    -143.577E+06    -42.4042E+06    -143.572E+06    -479.177E+03     521.167E+03         31.0440
             351     7.57379E-03     55.7314E-03     466.985E-03     459.523E-03        -1.59531     461.189E-03        -1.59481     464.821E-03     5.15225E-03     110.057E-03    -54.9242E-03    -55.1437E-03    -54.6048E-03     109.724E-03    -55.1305E-03     14.7630E-03    -4.41294E+06    -47.3207E+06    -171.271E+06    -47.3227E+06    -171.269E+06    -4.41294E+06     426.661E+03         30.4199
             352     6.62702E-03     55.7169E-03     469.559E-03     459.947E-03        -1.59807     463.845E-03        -1.59765     465.235E-03     51.6980E-03     110.137E-03    -54.9688E-03    -55.1964E-03    -54.7253E-03     109.880E-03    -55.1831E-03     12.9914E-03    -8.90046E+06    -53.3311E+06    -198.410E+06    -53.3346E+06    -198.407E+06    -8.90046E+06     584.659E+03         29.9017
             353     5.68041E-03     55.7038E-03     480.664E-03     464.076E-03        -1.61542     479.926E-03        -1.61468     464.076E-03    -22.9820E-03     110.135E-03    -54.9509E-03    -55.2159E-03    -54.7514E-03     109.936E-03    -55.2159E-03     11.4415E-03    -17.0999E+06    -60.4906E+06    -225.697E+06    -60.4945E+06    -225.694E+06    -17.0999E+06     668.232E+03         29.4740
             354     4.73331E-03     55.6923E-03     475.774E-03     454.086E-03        -1.60146     466.633E-03        -1.60064     462.410E-03    -15.7643E-03     110.134E-03    -54.9122E-03    -55.2287E-03    -54.7660E-03     109.988E-03    -55.2287E-03     9.78450E-03    -29.8855E+06    -67.9825E+06    -245.996E+06    -67.9839E+06    -245.994E+06    -29.8855E+06     307.508E+03         29.1338
             355     3.78652E-03     55.6823E-03     464.950E-03     442.468E-03        -1.57988     442.161E-03        -1.57957     464.950E-03     25.7258E-03     110.140E-03    -54.9371E-03    -55.2076E-03    -54.8372E-03     110.040E-03    -55.2076E-03     8.07165E-03    -45.9971E+06    -75.5316E+06    -259.634E+06    -75.5323E+06    -259.633E+06    -45.9971E+06    -209.237E+03         28.8759
             356     2.83963E-03     55.6748E-03     481.799E-03     453.950E-03        -1.60774     467.038E-03        -1.60714     468.108E-03    -44.1947E-03     110.218E-03    -55.0365E-03    -55.1925E-03    -54.9760E-03     110.158E-03    -55.1925E-03     6.25546E-03    -62.4627E+06    -82.7166E+06    -270.471E+06    -82.7176E+06    -270.470E+06    -62.4627E+06    -92.2071E+03         28.6853
             357     1.89316E-03     55.6686E-03     480.618E-03     460.058E-03        -1.60917     472.837E-03        -1.60826     466.927E-03    -54.8448E-03     110.227E-03    -55.0802E-03    -55.1517E-03    -55.0509E-03     110.198E-03    -55.1517E-03     4.26485E-03    -78.2552E+06    -88.7792E+06    -278.771E+06    -88.7813E+06    -278.769E+06    -78.2552E+06    -185.760E+03         28.5511
             358     946.732E-06     55.6654E-03     520.325E-03     413.979E-03        -1.59814     510.262E-03        -1.59495     420.848E-03     22.3165E-03     110.189E-03    -54.9604E-03    -55.2301E-03    -55.1990E-03     110.179E-03    -54.9812E-03     2.51913E-03    -90.3715E+06    -93.3388E+06    -285.053E+06    -93.3415E+06    -285.050E+06    -90.3715E+06    -565.080E+03         28.4719
             359     16.1009E-03     54.9329E-03     481.466E-03     466.077E-03        -1.62639     478.162E-03        -1.62630     469.292E-03     7.69486E-03     111.108E-03    -54.0004E-03    -57.2145E-03    -53.1538E-03     107.960E-03    -54.9131E-03     33.8562E-03     175.220E+06     124.562E+06    -7.35968E+06    -7.35791E+06     175.218E+06     124.562E+06     451.277E+03         42.0088
             360     15.1534E-03     54.8610E-03     473.268E-03     462.940E-03        -1.61130     466.624E-03        -1.61121     469.495E-03    -8.26197E-03     111.821E-03    -54.7258E-03    -57.1319E-03    -53.0197E-03     107.814E-03    -54.8305E-03     49.2054E-03     175.764E+06     105.111E+06    -14.6778E+06    -14.6574E+06     175.744E+06     105.111E+06    -1.28475E+06         39.5967
             361     14.2050E-03     54.8248E-03     476.868E-03     466.194E-03        -1.61819     473.040E-03        -1.61808     469.917E-03    -28.7119E-03     110.403E-03    -54.5761E-03    -55.9037E-03    -53.1617E-03     107.766E-03    -54.6808E-03     40.9333E-03     166.963E+06     57.7300E+06    -22.0468E+06    -22.0169E+06     166.933E+06     57.7300E+06    -2.15809E+06         37.4820
             362     13.2576E-03     54.7714E-03     477.715E-03     466.425E-03        -1.61901     473.859E-03        -1.61881     470.082E-03     3.20863E-03     110.798E-03    -54.6102E-03    -56.2085E-03    -53.4790E-03     108.069E-03    -54.6102E-03     41.8801E-03     124.700E+06     17.1912E+06    -26.7493E+06    -26.7202E+06     124.671E+06     17.1912E+06    -488.793E+03         36.0180
             363     12.3100E-03     54.7332E-03     473.266E-03     458.574E-03        -1.60912     460.876E-03        -1.60881     470.659E-03    -5.84243E-03     109.995E-03    -54.7094E-03    -55.3053E-03    -53.6459E-03     108.336E-03    -54.7094E-03     32.8509E-03     46.0549E+06     4.00124E+06    -28.4747E+06    -28.3838E+06     44.4545E+06     5.51071E+06     1.28653E+06         34.8858
             364     11.3621E-03     54.7008E-03     471.928E-03     457.352E-03        -1.60810     456.538E-03        -1.60729     471.928E-03     23.4493E-03     109.984E-03    -54.8433E-03    -55.2056E-03    -54.0785E-03     108.856E-03    -54.8433E-03     26.9790E-03     2.72343E+06    -16.1752E+06    -43.0020E+06    -30.9562E+06    -28.2210E+06     2.72343E+06     1.80248E+06         33.7793
             365     10.4156E-03     54.6756E-03     481.006E-03     466.948E-03        -1.62745     473.999E-03        -1.62621     472.714E-03    -1.22353E-03     109.831E-03    -54.8242E-03    -55.0802E-03    -54.2181E-03     109.083E-03    -54.9383E-03     22.1005E-03     2.61756E+06    -34.2762E+06    -77.4118E+06    -34.3435E+06    -77.3445E+06     2.61756E+06     1.36971E+06         32.7135
             366     9.46768E-03     54.6538E-03     486.006E-03     472.182E-03        -1.63839     484.724E-03        -1.63711     472.182E-03     2.97564E-03     109.867E-03    -54.8892E-03    -55.0317E-03    -54.3094E-03     109.287E-03    -55.0317E-03     19.4799E-03     2.94072E+06    -37.8962E+06    -113.152E+06    -37.9132E+06    -113.135E+06     2.94072E+06     1.08920E+06         31.7995
             367     8.52120E-03     54.6336E-03     478.296E-03     465.281E-03        -1.62342     471.067E-03        -1.62261     471.701E-03     38.4437E-03     109.983E-03    -54.9337E-03    -55.0735E-03    -54.4876E-03     109.537E-03    -55.0735E-03     17.0817E-03    -177.477E+03    -42.3987E+06    -142.920E+06    -42.4080E+06    -142.911E+06    -177.477E+03     813.453E+03         31.0429
             368     7.57414E-03     54.6166E-03     475.972E-03     465.586E-03        -1.62031     469.241E-03        -1.62000     472.005E-03     8.76248E-03     109.906E-03    -54.7947E-03    -55.1191E-03    -54.4626E-03     109.574E-03    -55.1191E-03     14.7428E-03    -4.73511E+06    -47.7214E+06    -171.490E+06    -47.7248E+06    -171.486E+06    -4.73511E+06     484.212E+03         30.4172
             369     6.62681E-03     54.6015E-03     479.183E-03     471.761E-03        -1.62890     478.992E-03        -1.62871     471.761E-03     23.2815E-03     110.013E-03    -54.8516E-03    -55.1915E-03    -54.5951E-03     109.757E-03    -55.1915E-03     12.9736E-03    -9.31291E+06    -53.8910E+06    -198.863E+06    -53.8946E+06    -198.859E+06    -9.31291E+06     652.142E+03         29.9000
             370     5.67991E-03     54.5885E-03     476.673E-03     465.416E-03        -1.62116     470.237E-03        -1.62075     471.445E-03    -38.7752E-03     110.214E-03    -55.0188E-03    -55.2302E-03    -54.8188E-03     110.014E-03    -55.2302E-03     11.4628E-03    -16.8432E+06    -60.2260E+06    -224.921E+06    -60.2298E+06    -224.917E+06    -16.8432E+06     658.491E+03         29.4753
             371     4.73350E-03     54.5770E-03     475.335E-03     459.774E-03        -1.61674     461.472E-03        -1.61588     472.774E-03     5.65831E-03     110.224E-03    -55.0063E-03    -55.2278E-03    -54.8593E-03     110.077E-03    -55.2278E-03     9.81299E-03    -29.7800E+06    -67.2367E+06    -245.034E+06    -67.2379E+06    -245.032E+06    -29.7800E+06     261.705E+03         29.1367
             372     3.78645E-03     54.5676E-03     479.655E-03     459.356E-03        -1.62138     462.795E-03        -1.62074     475.573E-03     63.4471E-03     110.159E-03    -54.9675E-03    -55.1963E-03    -54.8673E-03     110.058E-03    -55.1963E-03     8.08835E-03    -45.6469E+06    -74.8605E+06    -259.456E+06    -74.8620E+06    -259.454E+06    -45.6469E+06     254.270E+03         28.8772
             373     2.83991E-03     54.5592E-03     488.293E-03     456.016E-03        -1.62764     463.440E-03        -1.62672     479.949E-03    -34.0224E-03     110.197E-03    -55.0341E-03    -55.1698E-03    -54.9736E-03     110.137E-03    -55.1698E-03     6.23464E-03    -62.8063E+06    -82.1370E+06    -270.251E+06    -82.1398E+06    -270.248E+06    -62.8063E+06    -119.737E+03         28.6839
             374     1.89326E-03     54.5538E-03     495.791E-03     467.919E-03        -1.64545     477.896E-03        -1.64397     484.334E-03    -5.71320E-03     110.174E-03    -55.0438E-03    -55.1330E-03    -55.0145E-03     110.145E-03    -55.1330E-03     4.30751E-03    -78.7265E+06    -87.9336E+06    -278.956E+06    -87.9354E+06    -278.954E+06    -78.7265E+06    -276.570E+03         28.5480
             375     946.404E-06     54.5498E-03     552.502E-03     420.795E-03        -1.65302     549.417E-03        -1.65166     422.524E-03    -1.08181E-03     110.193E-03    -54.9971E-03    -55.1971E-03    -55.1401E-03     110.181E-03    -55.0426E-03     2.66326E-03    -88.1359E+06    -90.9745E+06    -285.687E+06    -90.7826E+06    -285.686E+06    -88.3289E+06    -24.6474E+03         28.4678
             376     16.1017E-03     53.8174E-03     485.783E-03     466.373E-03        -1.63683     473.803E-03        -1.63671     478.229E-03     18.6862E-03     110.965E-03    -54.0927E-03    -57.0158E-03    -53.0902E-03     107.853E-03    -54.9067E-03     33.7180E-03     175.811E+06     124.267E+06    -6.92964E+06    -6.92900E+06      175.81E+06     124.267E+06    -25.0013E+03         42.0001
             377     15.1532E-03     53.7460E-03     480.588E-03     469.793E-03        -1.63620     471.273E-03        -1.63608     478.990E-03    -2.97804E-03     111.728E-03    -54.7614E-03    -57.0073E-03    -52.9726E-03     107.710E-03    -54.7781E-03     49.4131E-03     176.630E+06     101.221E+06    -15.0759E+06    -15.0657E+06     176.620E+06     101.221E+06    -269.999E+03         39.5934
             378     14.2055E-03     53.7098E-03     484.808E-03     471.072E-03        -1.64229     475.959E-03        -1.64216     479.782E-03    -32.2660E-03     110.419E-03    -54.5989E-03    -55.8803E-03    -53.1976E-03     107.753E-03    -54.6157E-03     41.2482E-03     167.075E+06     52.3114E+06    -22.1820E+06    -22.1700E+06     167.063E+06     52.3114E+06    -588.367E+03         37.4802
             379     13.2576E-03     53.6558E-03     489.348E-03     477.358E-03        -1.65287     486.401E-03        -1.65265     480.086E-03    -2.64915E-03     110.595E-03    -54.5965E-03    -56.0112E-03    -53.2862E-03     107.870E-03    -54.5965E-03     41.8300E-03     122.968E+06     14.9507E+06    -26.8005E+06    -26.7941E+06     122.961E+06     14.9507E+06    -773.038E+03         36.0145
             380     12.3094E-03     53.6191E-03     488.960E-03     474.316E-03        -1.65192     482.778E-03        -1.65156     480.138E-03    -13.7322E-03     109.942E-03    -54.7153E-03    -55.2462E-03    -53.5798E-03     108.275E-03    -54.7153E-03     32.8837E-03     43.5347E+06     3.92792E+06    -29.9559E+06    -29.8904E+06     42.8477E+06     4.54945E+06     491.961E+03         34.8832
             381     11.3623E-03     53.5846E-03     486.274E-03     471.669E-03        -1.65067     476.494E-03        -1.64971     480.482E-03     21.2826E-03     109.904E-03    -54.7907E-03    -55.1830E-03    -54.0047E-03     108.789E-03    -54.8540E-03     26.8229E-03     2.21419E+06    -16.2258E+06    -43.8710E+06    -32.3234E+06    -27.7734E+06     2.21419E+06     1.44191E+06         33.7795
             382     10.4148E-03     53.5608E-03     489.951E-03     477.653E-03        -1.66096     484.943E-03        -1.65894     480.644E-03    -18.9829E-03     109.932E-03    -54.8596E-03    -55.1511E-03    -54.3245E-03     109.195E-03    -54.9493E-03     21.9409E-03     2.38173E+06    -35.2025E+06    -76.8162E+06    -35.2438E+06    -76.7749E+06     2.38173E+06     1.19660E+06         32.7157
             383     9.46836E-03     53.5381E-03     493.519E-03     479.900E-03        -1.66424     490.982E-03        -1.66187     480.067E-03    -5.68573E-03     110.003E-03    -54.8984E-03    -55.1642E-03    -54.4605E-03     109.432E-03    -55.0303E-03     19.3669E-03     2.46144E+06    -38.6569E+06    -112.859E+06    -38.6740E+06    -112.842E+06     2.46144E+06     1.04225E+06         31.8016
             384     8.52100E-03     53.5183E-03     485.220E-03     472.874E-03        -1.64764     476.730E-03        -1.64614     479.869E-03     25.6345E-03     109.877E-03    -54.8308E-03    -55.0727E-03    -54.3841E-03     109.431E-03    -55.0727E-03     17.0844E-03    -306.267E+03    -42.7565E+06    -142.649E+06    -42.7653E+06    -142.640E+06    -306.267E+03     934.359E+03         31.0431
             385     7.57399E-03     53.5014E-03     483.657E-03     473.631E-03        -1.64552     476.383E-03        -1.64507     480.458E-03    -32.4132E-03     109.944E-03    -54.8310E-03    -55.1215E-03    -54.4935E-03     109.606E-03    -55.1215E-03     14.8682E-03    -4.82331E+06    -48.0537E+06    -171.137E+06    -48.0601E+06    -171.131E+06    -4.82331E+06     818.673E+03         30.4159
             386     6.62703E-03     53.4866E-03     485.834E-03     476.329E-03        -1.65015     481.279E-03        -1.65008     480.816E-03     15.4493E-03     110.011E-03    -54.8550E-03    -55.1872E-03    -54.5960E-03     109.752E-03    -55.1872E-03     13.0279E-03    -9.68160E+06    -53.6646E+06    -198.541E+06    -53.6672E+06    -198.539E+06    -9.68160E+06     284.486E+03         29.8983
             387     5.68002E-03     53.4730E-03     486.428E-03     470.898E-03        -1.64598     475.338E-03        -1.64541     481.414E-03    -37.4420E-03     110.130E-03    -54.9271E-03    -55.2340E-03    -54.7308E-03     109.934E-03    -55.2340E-03     11.3480E-03    -17.1551E+06    -60.1855E+06    -224.913E+06    -60.1870E+06    -224.911E+06    -17.1551E+06     156.471E+03         29.4749
             388     4.73305E-03     53.4618E-03     496.023E-03     475.199E-03        -1.66040     489.119E-03        -1.65952     481.229E-03    -4.82091E-03     110.276E-03    -55.0441E-03    -55.2417E-03    -54.9005E-03     110.133E-03    -55.2417E-03     9.70242E-03    -29.2826E+06    -67.5709E+06    -245.036E+06    -67.5723E+06    -245.035E+06    -29.2826E+06     453.461E+03         29.1380
             389     3.78677E-03     53.4522E-03     501.499E-03     477.605E-03        -1.66954     500.603E-03        -1.66864     477.605E-03     86.7675E-03     110.223E-03    -55.0395E-03    -55.1915E-03    -54.9382E-03     110.122E-03    -55.1915E-03     8.14936E-03    -45.9225E+06    -75.3418E+06    -258.548E+06    -75.3441E+06    -258.546E+06    -45.9225E+06     632.839E+03         28.8785
             390     2.83984E-03     53.4442E-03     488.528E-03     455.525E-03        -1.63249     467.085E-03        -1.63175     476.233E-03     22.1480E-03     110.150E-03    -55.0044E-03    -55.1554E-03    -54.9413E-03     110.087E-03    -55.1554E-03     6.36334E-03    -63.9469E+06    -82.1309E+06    -269.198E+06    -82.1346E+06    -269.195E+06    -63.9469E+06     229.474E+03         28.6839
             391     1.89309E-03     53.4385E-03     490.586E-03     451.629E-03        -1.63639     455.097E-03        -1.63452     485.243E-03    -31.1873E-03     110.180E-03    -55.0286E-03    -55.1560E-03    -55.0288E-03     110.151E-03    -55.1262E-03     4.30986E-03    -79.0348E+06    -87.3167E+06    -279.375E+06    -87.3202E+06    -279.371E+06    -79.0348E+06    -320.739E+03         28.5471
             392     946.635E-06     53.4348E-03     584.458E-03     403.496E-03        -1.68372     569.123E-03        -1.68129     416.401E-03     18.4840E-03     110.175E-03    -54.9967E-03    -55.1788E-03    -55.1380E-03     110.164E-03    -55.0265E-03     2.57584E-03    -88.4189E+06    -91.0555E+06    -286.304E+06    -90.8642E+06    -286.302E+06    -88.6118E+06     2.69303E+03         28.4662
             393     16.1015E-03     52.7012E-03     488.764E-03     474.764E-03        -1.65868     476.177E-03        -1.65826     486.934E-03     12.1626E-03     110.896E-03    -53.9736E-03    -57.0177E-03    -53.0314E-03     107.843E-03    -54.9068E-03     33.6412E-03     175.695E+06     123.921E+06    -7.51041E+06    -7.50825E+06     175.692E+06     123.921E+06    -269.615E+03         41.9939
             394     15.1530E-03     52.6328E-03     489.503E-03     482.956E-03        -1.67268     484.555E-03        -1.67244     487.672E-03     24.1083E-03     111.791E-03    -54.7578E-03    -57.0259E-03    -52.9877E-03     107.790E-03    -54.7951E-03     49.5268E-03     176.431E+06     102.353E+06    -14.8175E+06    -14.8127E+06     176.426E+06     102.353E+06     705.099E+03         39.5897
             395     14.2053E-03     52.5918E-03     488.511E-03     477.101E-03        -1.66655     477.012E-03        -1.66646     488.511E-03    -20.2352E-03     110.335E-03    -54.5986E-03    -55.7629E-03    -53.0917E-03     107.701E-03    -54.6360E-03     41.1139E-03     167.477E+06     53.5153E+06    -21.3775E+06    -21.3708E+06     167.471E+06     53.5153E+06     568.283E+03         37.4780
             396     13.2573E-03     52.5436E-03     491.130E-03     480.365E-03        -1.67148     481.763E-03        -1.67125     489.501E-03     12.0062E-03     110.640E-03    -54.5983E-03    -56.0648E-03    -53.3804E-03     107.956E-03    -54.5983E-03     41.6391E-03     122.818E+06     14.8754E+06    -26.3037E+06    -26.2979E+06     122.812E+06     14.8754E+06     229.957E+03         36.0148
             397     12.3099E-03     52.5013E-03     496.589E-03     487.505E-03        -1.68599     493.775E-03        -1.68562     489.947E-03    -3.97861E-03     109.981E-03    -54.7009E-03    -55.3038E-03    -53.6375E-03     108.321E-03    -54.7073E-03     32.7693E-03     43.0496E+06     3.50673E+06    -29.6523E+06    -29.6431E+06     42.0725E+06     4.47468E+06     473.911E+03         34.8842
             398     11.3625E-03     52.4717E-03     497.500E-03     489.780E-03        -1.69062     496.980E-03        -1.69010     489.780E-03     5.72208E-03     109.809E-03    -54.7774E-03    -55.0964E-03    -53.9271E-03     108.709E-03    -54.8471E-03     26.7171E-03     2.17417E+06    -16.7119E+06    -43.5709E+06    -32.3929E+06    -27.8898E+06     2.17417E+06     489.667E+03         33.7790
             399     10.4149E-03     52.4439E-03     493.011E-03     487.426E-03        -1.68437     488.548E-03        -1.68226     489.785E-03    -52.0048E-03     109.900E-03    -54.7835E-03    -55.1954E-03    -54.2823E-03     109.153E-03    -54.9492E-03     22.0433E-03     2.79879E+06    -35.0109E+06    -76.1329E+06    -35.0301E+06    -76.1137E+06     2.79879E+06     765.478E+03         32.7149
             400     9.46835E-03     52.4232E-03     491.018E-03     484.185E-03        -1.67829     481.803E-03        -1.67539     490.499E-03    -19.2323E-03     109.923E-03    -54.8129E-03    -55.1678E-03    -54.3844E-03     109.361E-03    -55.0340E-03     19.2140E-03     2.66586E+06    -38.4670E+06    -112.442E+06    -38.4801E+06    -112.429E+06     2.66586E+06     933.249E+03         31.8018
             401     8.52097E-03     52.4034E-03     497.211E-03     486.778E-03        -1.68429     491.155E-03        -1.68260     491.140E-03     18.1267E-03     109.891E-03    -54.8385E-03    -55.0803E-03    -54.3854E-03     109.438E-03    -55.0803E-03     17.1998E-03    -622.789E+03      -42.81E+06    -143.041E+06    -42.8185E+06    -143.032E+06    -622.789E+03     878.404E+03         31.0440
             402     7.57378E-03     52.3862E-03     498.467E-03     489.243E-03        -1.68479     496.110E-03        -1.68419     491.000E-03    -42.9254E-03     109.990E-03    -54.8761E-03    -55.1273E-03    -54.5408E-03     109.655E-03    -55.1273E-03     14.8196E-03    -4.39642E+06    -47.3411E+06    -170.621E+06    -47.3454E+06    -170.617E+06    -4.39642E+06     657.987E+03         30.4165
             403     6.62704E-03     52.3711E-03     492.814E-03     481.884E-03        -1.67210     483.210E-03        -1.67203     491.418E-03     22.5018E-03     110.063E-03    -54.9087E-03    -55.1849E-03    -54.6486E-03     109.803E-03    -55.1849E-03     13.0698E-03    -9.24338E+06    -53.1565E+06    -197.614E+06    -53.1589E+06    -197.612E+06    -9.24338E+06     248.650E+03         29.8974
             404     5.68019E-03     52.3582E-03     503.174E-03     483.807E-03        -1.68651     493.711E-03        -1.68523     491.990E-03    -58.3594E-03     110.123E-03    -54.9228E-03    -55.2295E-03    -54.7227E-03     109.922E-03    -55.2295E-03     11.4511E-03    -17.2375E+06    -60.3258E+06    -225.203E+06    -60.3273E+06    -225.201E+06    -17.2375E+06     154.096E+03         29.4725
             405     4.73338E-03     52.3463E-03     517.831E-03     489.264E-03        -1.70637     516.126E-03        -1.70467     489.264E-03    -27.7394E-03     110.210E-03    -54.9699E-03    -55.2488E-03    -54.8254E-03     110.066E-03    -55.2488E-03     9.72692E-03    -28.9175E+06    -67.9598E+06    -245.471E+06    -67.9614E+06    -245.469E+06    -28.9175E+06     471.125E+03         29.1354
             406     3.78635E-03     52.3369E-03     510.791E-03     483.309E-03        -1.69307     509.905E-03        -1.69222     483.344E-03     71.5261E-03     110.243E-03    -55.0444E-03    -55.2082E-03    -54.9449E-03     110.143E-03    -55.2082E-03     8.06593E-03    -44.8139E+06    -75.3211E+06    -257.899E+06    -75.3226E+06    -257.898E+06    -44.8139E+06     517.616E+03         28.8777
             407     2.83985E-03     52.3291E-03     500.828E-03     471.198E-03        -1.67067     494.370E-03        -1.67027     477.254E-03     19.2149E-03     110.218E-03    -55.0747E-03    -55.1579E-03    -55.0140E-03     110.158E-03    -55.1579E-03     6.25546E-03    -62.9885E+06    -82.0766E+06    -268.569E+06    -82.0777E+06    -268.568E+06    -62.9885E+06     339.052E+03         28.6849
             408     1.89324E-03     52.3230E-03     496.925E-03     454.794E-03        -1.65163     476.590E-03        -1.65023     473.721E-03    -81.1072E-03     110.167E-03    -55.0373E-03    -55.1348E-03    -55.0380E-03     110.138E-03    -55.1050E-03     4.28137E-03    -78.8895E+06    -87.9242E+06    -278.980E+06    -87.9308E+06    -278.974E+06    -78.8895E+06     374.930E+03         28.5483
             409     946.707E-06     52.3195E-03     522.876E-03     430.246E-03        -1.65650     501.636E-03        -1.64930     444.290E-03     67.6676E-03     110.106E-03    -54.8762E-03    -55.2314E-03    -55.1926E-03     110.095E-03    -54.9043E-03     2.56009E-03    -89.5638E+06    -92.3691E+06    -286.657E+06    -92.1900E+06    -286.650E+06    -89.7490E+06     293.763E+03         28.4666
             410     16.1008E-03     51.5873E-03     498.688E-03     489.108E-03        -1.70161     491.805E-03        -1.70124     495.619E-03    -13.4053E-03     110.937E-03    -53.8782E-03    -57.1498E-03    -53.0235E-03     107.837E-03    -54.9042E-03     33.6886E-03     175.376E+06     123.320E+06    -7.73706E+06    -7.72906E+06     175.368E+06     123.320E+06    -579.590E+03         41.9895
             411     15.1539E-03     51.5155E-03     499.371E-03     491.103E-03        -1.70104     494.150E-03        -1.70088     496.159E-03     8.74798E-03     111.790E-03    -54.7574E-03    -57.0453E-03    -52.9759E-03     107.758E-03    -54.7948E-03     49.6299E-03     175.141E+06     102.061E+06    -14.5466E+06    -14.5355E+06     175.130E+06     102.061E+06     265.941E+03         39.5868
             412     14.2052E-03     51.4794E-03     500.916E-03     490.628E-03        -1.70163     494.842E-03        -1.70159     496.668E-03    -12.2161E-03     110.379E-03    -54.6087E-03    -55.8213E-03    -53.1049E-03     107.700E-03    -54.6461E-03     41.3962E-03     167.379E+06     54.6859E+06    -20.8820E+06    -20.8598E+06     167.357E+06     54.6859E+06     1.73583E+06         37.4781
             413     13.2576E-03     51.4256E-03     498.653E-03     486.767E-03        -1.69420     487.924E-03        -1.69409     497.384E-03     16.8539E-03     110.846E-03    -54.6046E-03    -56.2696E-03    -53.5635E-03     108.140E-03    -54.6046E-03     41.7427E-03     124.033E+06     16.4363E+06    -25.7964E+06    -25.7745E+06     124.011E+06     16.4363E+06     1.55119E+06         36.0184
             414     12.3104E-03     51.3885E-03     498.826E-03     487.721E-03        -1.69711     487.932E-03        -1.69689     498.399E-03     1.34517E-03     109.999E-03    -54.6919E-03    -55.3279E-03    -53.6788E-03     108.356E-03    -54.6982E-03     32.6636E-03     43.9296E+06     3.41752E+06    -29.0502E+06    -29.0456E+06     42.4366E+06     4.90592E+06     404.844E+03         34.8880
             415     11.3621E-03     51.3551E-03     501.147E-03     493.406E-03        -1.70507     494.801E-03        -1.70454     499.219E-03     21.2219E-03     109.845E-03    -54.8247E-03    -55.0801E-03    -53.9482E-03     108.721E-03    -54.8328E-03     26.9869E-03     2.30971E+06    -16.5658E+06    -42.9786E+06    -31.3700E+06    -28.1744E+06     2.30971E+06     91.5755E+03         33.7792
             416     10.4158E-03     51.3294E-03     501.508E-03     491.553E-03        -1.70363     491.476E-03        -1.70205     500.007E-03    -27.4681E-03     109.738E-03    -54.7593E-03    -55.0539E-03    -54.1244E-03     108.990E-03    -54.9416E-03     22.0240E-03     2.88348E+06    -34.3873E+06    -76.5350E+06    -34.3922E+06    -76.5301E+06     2.88348E+06     443.184E+03         32.7122
             417     9.46746E-03     51.3077E-03     504.133E-03     490.601E-03        -1.70546     491.675E-03        -1.70345     501.055E-03    -7.62096E-03     109.783E-03    -54.7947E-03    -55.0434E-03    -54.2349E-03     109.223E-03    -55.0434E-03     19.1495E-03     2.82838E+06    -38.2473E+06    -112.473E+06    -38.2543E+06    -112.466E+06     2.82838E+06     666.031E+03         31.8003
             418     8.52090E-03     51.2881E-03     511.909E-03     497.587E-03        -1.71882     506.949E-03        -1.71764     501.374E-03     26.8986E-03     110.023E-03    -54.9591E-03    -55.0916E-03    -54.5090E-03     109.573E-03    -55.0916E-03     17.1599E-03    -114.867E+03    -42.1716E+06    -142.467E+06    -42.1768E+06    -142.462E+06    -114.867E+03     551.846E+03         31.0450
             419     7.57409E-03     51.2709E-03     509.455E-03     499.426E-03        -1.71728     507.480E-03        -1.71666     500.776E-03    -5.17574E-03     110.032E-03    -54.9165E-03    -55.1271E-03    -54.5824E-03     109.698E-03    -55.1271E-03     14.7957E-03    -4.12261E+06    -47.0330E+06    -170.366E+06    -47.0349E+06    -170.364E+06    -4.12261E+06     397.066E+03         30.4175
             420     6.62684E-03     51.2563E-03     508.245E-03     495.237E-03        -1.71160     502.783E-03        -1.71119     500.284E-03     49.4755E-03     110.034E-03    -54.8774E-03    -55.1843E-03    -54.6209E-03     109.778E-03    -55.1843E-03     12.9718E-03    -8.84547E+06    -53.0969E+06    -197.485E+06    -53.0994E+06    -197.483E+06    -8.84547E+06     567.630E+03         29.8970
             421     5.68003E-03     51.2425E-03     514.221E-03     494.324E-03        -1.71860     507.702E-03        -1.71725     499.491E-03    -53.5156E-03     110.114E-03    -54.9083E-03    -55.2326E-03    -54.7093E-03     109.915E-03    -55.2326E-03     11.4265E-03    -16.7717E+06    -60.1572E+06    -225.082E+06    -60.1599E+06    -225.079E+06    -16.7717E+06     590.491E+03         29.4706
             422     4.73320E-03     51.2315E-03     514.355E-03     486.655E-03        -1.71010     500.173E-03        -1.70799     498.730E-03    -12.6440E-03     110.217E-03    -54.9727E-03    -55.2499E-03    -54.8251E-03     110.069E-03    -55.2499E-03     9.83585E-03    -29.2131E+06    -67.8010E+06    -245.203E+06    -67.8030E+06    -245.201E+06    -29.2131E+06     271.664E+03         29.1330
             423     3.78656E-03     51.2215E-03     507.312E-03     485.171E-03        -1.70067     491.902E-03        -1.69977     499.676E-03     50.2730E-03     110.264E-03    -55.0614E-03    -55.2125E-03    -54.9618E-03     110.164E-03    -55.2125E-03     8.05635E-03    -44.5902E+06    -75.1647E+06    -257.725E+06    -75.1658E+06    -257.724E+06    -44.5902E+06     41.0817E+03         28.8766
             424     2.83995E-03     51.2138E-03     519.610E-03     494.004E-03        -1.72555     515.369E-03        -1.72521     497.904E-03    -36.5792E-03     110.246E-03    -55.1000E-03    -55.1618E-03    -55.0408E-03     110.187E-03    -55.1618E-03     6.18355E-03    -61.4634E+06    -82.0298E+06    -268.766E+06    -82.0317E+06    -268.764E+06    -61.4634E+06     261.449E+03         28.6855
             425     1.89335E-03     51.2079E-03     535.441E-03     482.362E-03        -1.73079     533.535E-03        -1.72888     482.362E-03    -107.958E-03     110.148E-03    -55.0473E-03    -55.1056E-03    -55.0238E-03     110.119E-03    -55.0998E-03     4.29888E-03    -77.5337E+06    -88.2194E+06    -278.786E+06    -88.2260E+06    -278.780E+06    -77.5337E+06     770.231E+03         28.5497
             426     946.459E-06     51.2044E-03     492.437E-03     456.348E-03        -1.65915     478.292E-03        -1.64972     461.064E-03     93.6943E-03     110.076E-03    -54.8171E-03    -55.2598E-03    -55.2211E-03     110.065E-03    -54.8451E-03     2.52191E-03    -88.7580E+06    -92.6238E+06    -285.672E+06    -92.4437E+06    -285.667E+06    -88.9432E+06     569.206E+03         28.4686
             427     16.1018E-03     50.4714E-03     507.076E-03     499.014E-03        -1.73186     501.525E-03        -1.73151     504.216E-03     24.8076E-03     110.866E-03    -53.9730E-03    -57.0184E-03    -52.9960E-03     107.771E-03    -54.9007E-03     33.6714E-03     175.531E+06     123.129E+06    -7.75842E+06    -7.74932E+06     175.522E+06     123.129E+06    -230.076E+03         41.9859
             428     15.1523E-03     50.4011E-03     507.663E-03     500.547E-03        -1.72804     503.461E-03        -1.72795     504.659E-03     6.67492E-03     111.674E-03    -54.7867E-03    -56.9508E-03    -52.9436E-03     107.667E-03    -54.7867E-03     49.3834E-03     173.511E+06     99.9994E+06    -16.3822E+06    -16.3701E+06     173.498E+06     99.9994E+06     193.630E+03         39.5846
             429     14.2049E-03     50.3635E-03     510.370E-03     503.786E-03        -1.73515     509.190E-03        -1.73510     504.917E-03    -1.83199E-03     110.444E-03    -54.6508E-03    -55.8603E-03    -53.1582E-03     107.742E-03    -54.6508E-03     41.5236E-03     167.073E+06     55.1520E+06    -21.8364E+06    -21.8163E+06     167.052E+06     55.1520E+06     1.20777E+06         37.4776
             430     13.2575E-03     50.3104E-03     507.655E-03     500.790E-03        -1.72632     503.160E-03        -1.72622     505.181E-03     21.4860E-03     110.844E-03    -54.6198E-03    -56.2459E-03    -53.5050E-03     108.103E-03    -54.6198E-03     41.9631E-03     124.670E+06     18.3763E+06    -24.5348E+06    -24.5121E+06     124.648E+06     18.3763E+06     1.37181E+06         36.0200
             431     12.3098E-03     50.2730E-03     505.941E-03     495.793E-03        -1.71898     495.534E-03        -1.71872     505.941E-03    -3.16597E-03     110.238E-03    -54.7022E-03    -55.5505E-03    -53.9027E-03     108.591E-03    -54.7022E-03     32.7743E-03     44.4207E+06     3.91540E+06    -27.2847E+06    -27.2633E+06     42.6887E+06     5.62602E+06     830.472E+03         34.8916
             432     11.3632E-03     50.2401E-03     507.061E-03     495.799E-03        -1.72128     494.881E-03        -1.72036     507.061E-03     33.8953E-03     109.911E-03    -54.7573E-03    -55.2110E-03    -54.0188E-03     108.787E-03    -54.8256E-03     26.9768E-03     2.92359E+06    -16.0478E+06    -42.3508E+06    -30.5645E+06    -27.8341E+06     2.92359E+06     660.118E+03         33.7812
             433     10.4148E-03     50.2140E-03     508.380E-03     495.678E-03        -1.72274     494.239E-03        -1.72130     508.380E-03     2.88215E-03     109.608E-03    -54.7437E-03    -54.9336E-03    -54.0036E-03     108.868E-03    -54.9336E-03     21.9198E-03     2.78358E+06    -34.0534E+06    -76.8359E+06    -34.0686E+06    -76.8207E+06     2.78358E+06     514.395E+03         32.7115
             434     9.46840E-03     50.1930E-03     512.650E-03     499.652E-03        -1.73074     501.526E-03        -1.72954     509.572E-03    -8.56672E-03     109.820E-03    -54.8303E-03    -55.0417E-03    -54.2653E-03     109.255E-03    -55.0417E-03     19.2402E-03     3.01043E+06    -37.9033E+06    -112.426E+06    -37.9057E+06    -112.423E+06     3.01043E+06     381.246E+03         31.7997
             435     8.52078E-03     50.1723E-03     515.810E-03     507.267E-03        -1.74288     512.269E-03        -1.74206     509.990E-03     12.9870E-03     109.975E-03    -54.9080E-03    -55.0916E-03    -54.4629E-03     109.530E-03    -55.0916E-03     17.0458E-03     117.562E+03    -42.3012E+06    -141.994E+06    -42.3026E+06    -141.993E+06     117.562E+03     297.948E+03         31.0449
             436     7.57382E-03     50.1558E-03     522.564E-03     509.200E-03        -1.75067     521.945E-03        -1.75005     509.200E-03    -25.3450E-06     110.047E-03    -54.9283E-03    -55.1279E-03    -54.5974E-03     109.716E-03    -55.1279E-03     14.7377E-03    -4.08712E+06    -47.3448E+06    -170.342E+06    -47.3460E+06    -170.340E+06    -4.08712E+06     329.273E+03         30.4174
             437     6.62725E-03     50.1406E-03     528.351E-03     507.014E-03        -1.75334     527.929E-03        -1.75291     507.014E-03     48.1178E-03     110.071E-03    -54.9180E-03    -55.1818E-03    -54.6621E-03     109.816E-03    -55.1818E-03     12.9510E-03    -8.65165E+06    -53.1929E+06    -197.626E+06    -53.1958E+06    -197.623E+06    -8.65165E+06     622.921E+03         29.8972
             438     5.68010E-03     50.1279E-03     516.486E-03     493.973E-03        -1.72974     503.779E-03        -1.72883     505.771E-03    -44.5478E-03     110.084E-03    -54.8844E-03    -55.2272E-03    -54.6911E-03     109.891E-03    -55.2272E-03     11.2622E-03    -16.0703E+06    -59.6778E+06    -224.504E+06    -59.6807E+06    -224.501E+06    -16.0703E+06     619.570E+03         29.4709
             439     4.73319E-03     50.1158E-03     509.541E-03     475.994E-03        -1.70396     474.480E-03        -1.70245     509.541E-03    -6.04921E-03     110.182E-03    -54.9442E-03    -55.2450E-03    -54.7978E-03     110.036E-03    -55.2450E-03     9.80149E-03    -28.7928E+06    -66.9157E+06    -244.719E+06    -66.9173E+06    -244.718E+06    -28.7928E+06     173.089E+03         29.1328
             440     3.78656E-03     50.1063E-03     516.499E-03     490.501E-03        -1.72440     489.755E-03        -1.72366     516.499E-03     40.8030E-03     110.236E-03    -55.0371E-03    -55.2104E-03    -54.9354E-03     110.135E-03    -55.2104E-03     8.13914E-03    -45.0674E+06    -74.7422E+06    -257.913E+06    -74.7430E+06    -257.912E+06    -45.0674E+06    -22.8910E+03         28.8759
             441     2.83980E-03     50.0984E-03     529.204E-03     506.773E-03        -1.75416     514.609E-03        -1.75380     521.008E-03    -32.9860E-03     110.235E-03    -55.0765E-03    -55.1728E-03    -55.0173E-03     110.175E-03    -55.1728E-03     6.17651E-03    -61.5629E+06    -82.1882E+06    -269.041E+06    -82.1903E+06    -269.038E+06    -61.5629E+06     303.774E+03         28.6856
             442     1.89316E-03     50.0929E-03     550.207E-03     499.925E-03        -1.77191     527.782E-03        -1.76989     520.332E-03    -107.316E-03     110.202E-03    -55.0689E-03    -55.1386E-03    -55.0708E-03     110.174E-03    -55.1079E-03     4.26881E-03    -77.0928E+06    -87.8561E+06    -278.453E+06    -87.8592E+06    -278.450E+06    -77.0928E+06     544.183E+03         28.5514
             443     946.865E-06     50.0892E-03     576.374E-03     476.254E-03        -1.77440     482.635E-03        -1.75910     554.695E-03     147.224E-03     110.066E-03    -54.8497E-03    -55.2182E-03    -55.2080E-03     110.056E-03    -54.8497E-03     2.41681E-03    -88.8630E+06    -92.5216E+06    -284.879E+06    -92.1925E+06    -284.877E+06    -89.1942E+06     221.472E+03         28.4712
             444     16.1008E-03     49.3560E-03     511.714E-03     498.397E-03        -1.73777     498.079E-03        -1.73743     511.690E-03     45.0670E-03     110.922E-03    -53.9412E-03    -57.0971E-03    -53.0936E-03     107.876E-03    -54.8989E-03     33.4918E-03     175.559E+06     123.194E+06    -7.71846E+06    -7.71418E+06     175.555E+06     123.194E+06     347.974E+03         41.9841
             445     15.1538E-03     49.2866E-03     512.688E-03     504.438E-03        -1.74551     504.247E-03        -1.74530     512.664E-03     572.067E-06     111.748E-03    -54.7882E-03    -57.0344E-03    -53.0753E-03     107.788E-03    -54.7882E-03     49.1788E-03     174.046E+06     101.696E+06    -14.5477E+06    -14.5444E+06     174.043E+06     101.696E+06     346.529E+03         39.5844
             446     14.2054E-03     49.2475E-03     514.769E-03     504.722E-03        -1.75029     505.731E-03        -1.75010     513.564E-03    -17.6775E-03     110.264E-03    -54.6474E-03    -55.7010E-03    -53.0254E-03     107.588E-03    -54.6474E-03     41.3007E-03     166.187E+06     54.6050E+06    -21.3077E+06    -21.3073E+06     166.187E+06     54.6050E+06     70.8560E+03         37.4753
             447     13.2569E-03     49.1963E-03     515.458E-03     512.064E-03        -1.75415     513.162E-03        -1.75404     514.253E-03     13.4234E-03     110.735E-03    -54.6178E-03    -56.1320E-03    -53.3998E-03     108.003E-03    -54.6178E-03     41.9165E-03     123.598E+06     16.7571E+06    -25.5571E+06    -25.5506E+06     123.591E+06     16.7571E+06     549.899E+03         36.0159
             448     12.3098E-03     49.1562E-03     514.977E-03     507.498E-03        -1.74634     506.876E-03        -1.74572     514.977E-03    -29.7402E-03     110.252E-03    -54.7096E-03    -55.5552E-03    -53.9091E-03     108.606E-03    -54.7096E-03     32.7281E-03     44.4248E+06     4.35779E+06    -27.8590E+06    -27.8126E+06     43.0576E+06     5.67860E+06     1.33945E+06         34.8901
             449     11.3625E-03     49.1253E-03     516.282E-03     505.451E-03        -1.74588     504.684E-03        -1.74490     516.073E-03    -13.8549E-03     109.924E-03    -54.7660E-03    -55.2163E-03    -54.0430E-03     108.817E-03    -54.8326E-03     26.7982E-03     3.15180E+06    -15.5408E+06    -42.2517E+06    -30.5409E+06    -27.2516E+06     3.15180E+06     1.32300E+06         33.7826
             450     10.4157E-03     49.0995E-03     525.519E-03     510.151E-03        -1.76004     517.564E-03        -1.75870     516.758E-03    -30.4719E-03     109.722E-03    -54.8037E-03    -54.9816E-03    -54.0891E-03     108.961E-03    -54.9350E-03     22.2627E-03     3.00647E+06    -33.7757E+06    -76.2889E+06    -33.8063E+06    -76.2583E+06     3.00647E+06     829.036E+03         32.7133
             451     9.46772E-03     49.0772E-03     525.479E-03     509.610E-03        -1.76051     516.297E-03        -1.75864     516.928E-03    -4.97823E-03     109.916E-03    -54.9299E-03    -55.0331E-03    -54.3524E-03     109.339E-03    -55.0331E-03     19.4374E-03     3.01785E+06    -37.7416E+06    -112.274E+06    -37.7468E+06    -112.268E+06     3.01785E+06     482.037E+03         31.8001
             452     8.52121E-03     49.0576E-03     519.040E-03     506.806E-03        -1.75425     506.856E-03        -1.75295     517.685E-03     20.6545E-03     109.947E-03    -54.8912E-03    -55.0787E-03    -54.4517E-03     109.507E-03    -55.0787E-03     16.9410E-03     113.757E+03    -42.4382E+06    -141.753E+06    -42.4415E+06    -141.750E+06     113.757E+03     497.511E+03         31.0433
             453     7.57404E-03     49.0403E-03     531.031E-03     511.571E-03        -1.76927     524.172E-03        -1.76886     518.022E-03    -23.5194E-03     109.929E-03    -54.8154E-03    -55.1232E-03    -54.4852E-03     109.599E-03    -55.1232E-03     14.7078E-03    -4.11401E+06    -47.5709E+06    -170.192E+06    -47.5732E+06    -170.189E+06    -4.11401E+06     385.819E+03         30.4154
             454     6.62683E-03     49.0256E-03     533.693E-03     516.563E-03        -1.77420     533.574E-03        -1.77408     516.563E-03     27.4871E-03     110.067E-03    -54.9161E-03    -55.1837E-03    -54.6561E-03     109.807E-03    -55.1837E-03     13.0638E-03    -8.87115E+06    -53.1057E+06    -197.636E+06    -53.1067E+06    -197.635E+06    -8.87115E+06     185.203E+03         29.8970
             455     5.68034E-03     49.0124E-03     521.506E-03     504.607E-03        -1.75376     509.610E-03        -1.75329     516.032E-03    -27.2649E-03     110.189E-03    -55.0033E-03    -55.2176E-03    -54.8059E-03     109.992E-03    -55.2176E-03     11.3759E-03    -16.3530E+06    -59.3330E+06    -223.886E+06    -59.3338E+06    -223.885E+06    -16.3530E+06     109.527E+03         29.4725
             456     4.73351E-03     49.0011E-03     519.344E-03     493.660E-03        -1.74249     492.709E-03        -1.74154     519.344E-03     9.36879E-03     110.172E-03    -54.9536E-03    -55.2269E-03    -54.8087E-03     110.027E-03    -55.2269E-03     9.75076E-03    -28.2825E+06    -66.5482E+06    -244.416E+06    -66.5503E+06    -244.414E+06    -28.2825E+06     365.751E+03         29.1336
             457     3.78634E-03     48.9906E-03     524.236E-03     507.568E-03        -1.75985     506.857E-03        -1.75914     524.236E-03     25.7207E-03     110.118E-03    -54.9271E-03    -55.2019E-03    -54.8276E-03     110.019E-03    -55.2019E-03     8.03824E-03    -44.6230E+06    -74.6354E+06    -258.327E+06    -74.6379E+06    -258.325E+06    -44.6230E+06     407.628E+03         28.8750
             458     2.83985E-03     48.9833E-03     528.681E-03     516.146E-03        -1.77352     515.824E-03        -1.77306     528.540E-03     8.68997E-03     110.208E-03    -55.0468E-03    -55.1749E-03    -54.9890E-03     110.150E-03    -55.1748E-03     6.12071E-03    -62.3437E+06    -81.8047E+06    -269.198E+06    -81.8052E+06    -269.198E+06    -62.3437E+06     51.4934E+03         28.6853
             459     1.89327E-03     48.9776E-03     536.847E-03     515.581E-03        -1.77925     514.592E-03        -1.77740     535.988E-03    -51.5373E-03     110.211E-03    -55.0611E-03    -55.1539E-03    -55.0575E-03     110.183E-03    -55.1289E-03     4.23441E-03    -77.6453E+06    -86.9951E+06    -278.309E+06    -86.9965E+06    -278.307E+06    -77.6453E+06     198.661E+03         28.5526
             460     946.503E-06     48.9740E-03     640.673E-03     479.572E-03        -1.83917     442.591E-03        -1.80147     639.954E-03     310.648E-03     110.150E-03    -54.9457E-03    -55.2059E-03    -55.1486E-03     110.140E-03    -54.9927E-03     2.49070E-03    -87.5988E+06    -90.6822E+06    -283.704E+06    -90.2436E+06    -283.695E+06    -88.0472E+06     668.693E+03         28.4727
             461     16.1015E-03     48.2417E-03     519.838E-03     495.965E-03        -1.75278     495.411E-03        -1.75222     519.838E-03    -12.8893E-03     111.045E-03    -53.9589E-03    -57.1943E-03    -53.1851E-03     107.978E-03    -54.9016E-03     33.6379E-03     175.583E+06     123.726E+06    -7.00702E+06    -7.00530E+06     175.581E+06     123.726E+06     63.8975E+03         41.9821
             462     15.1530E-03     48.1700E-03     521.438E-03     505.856E-03        -1.76229     505.591E-03        -1.76203     521.438E-03    -17.9222E-03     111.781E-03    -54.7777E-03    -57.0824E-03    -53.1145E-03     107.819E-03    -54.7831E-03     49.1437E-03     174.119E+06     102.132E+06    -14.5831E+06    -14.5823E+06     174.118E+06     102.132E+06     38.8457E+03         39.5840
             463     14.2053E-03     48.1343E-03     522.984E-03     504.628E-03        -1.76525     504.382E-03        -1.76500     522.984E-03    -37.5764E-03     110.307E-03    -54.6270E-03    -55.7635E-03    -53.0733E-03     107.622E-03    -54.6324E-03     41.3324E-03     165.888E+06     54.0678E+06    -20.9463E+06    -20.9416E+06     165.883E+06     54.0678E+06     533.312E+03         37.4730
             464     13.2576E-03     48.0797E-03     524.310E-03     516.009E-03        -1.77503     515.936E-03        -1.77495     524.310E-03     7.80689E-03     110.744E-03    -54.6041E-03    -56.1528E-03    -53.3986E-03     107.990E-03    -54.6041E-03     42.0652E-03     122.962E+06     15.8774E+06    -25.5538E+06    -25.5440E+06     122.953E+06     15.8774E+06     996.226E+03         36.0100
             465     12.3100E-03     48.0417E-03     530.419E-03     518.693E-03        -1.78150     523.626E-03        -1.78104     525.025E-03    -9.39240E-03     109.959E-03    -54.7083E-03    -55.2647E-03    -53.6279E-03     108.322E-03    -54.7083E-03     32.5777E-03     43.8227E+06     4.42212E+06    -28.6129E+06    -28.5752E+06     42.9808E+06     5.22634E+06     1.21209E+06         34.8846
             466     11.3623E-03     48.0093E-03     530.994E-03     519.318E-03        -1.78239     523.986E-03        -1.78145     525.390E-03     14.0029E-03     109.864E-03    -54.8455E-03    -55.0810E-03    -53.9845E-03     108.767E-03    -54.8455E-03     26.6547E-03     2.97074E+06    -15.2897E+06    -42.5837E+06    -30.9070E+06    -26.9664E+06     2.97074E+06     1.14962E+06         33.7825
             467     10.4148E-03     47.9847E-03     534.097E-03     524.432E-03        -1.79193     531.739E-03        -1.79047     525.337E-03    -28.0651E-03     109.970E-03    -54.9191E-03    -55.1196E-03    -54.3438E-03     109.215E-03    -54.9404E-03     22.2001E-03     3.27611E+06    -33.6508E+06    -75.5912E+06    -33.6766E+06    -75.5654E+06     3.27611E+06     888.792E+03         32.7161
             468     9.46839E-03     47.9617E-03     539.074E-03     522.960E-03        -1.79598     535.333E-03        -1.79395     524.670E-03     2.51277E-03     109.938E-03    -54.8899E-03    -55.0999E-03    -54.3969E-03     109.369E-03    -55.0239E-03     19.2956E-03     3.17891E+06    -37.3966E+06    -111.948E+06    -37.4036E+06    -111.941E+06     3.17891E+06     622.716E+03         31.8003
             469     8.52112E-03     47.9423E-03     530.469E-03     514.196E-03        -1.77987     518.486E-03        -1.77831     524.617E-03     24.6009E-03     109.861E-03    -54.8163E-03    -55.0717E-03    -54.3791E-03     109.423E-03    -55.0717E-03     16.9096E-03     251.152E+03    -41.8384E+06    -141.825E+06    -41.8429E+06    -141.820E+06     251.152E+03     644.658E+03         31.0410
             470     7.57403E-03     47.9254E-03     528.154E-03     510.783E-03        -1.77382     512.514E-03        -1.77330     525.901E-03    -27.9898E-03     109.916E-03    -54.8022E-03    -55.1202E-03    -54.4665E-03     109.580E-03    -55.1202E-03     14.8259E-03    -3.78034E+06    -46.7862E+06    -169.366E+06    -46.7897E+06    -169.362E+06    -3.78034E+06     493.339E+03         30.4131
             471     6.62701E-03     47.9103E-03     530.908E-03     519.308E-03        -1.78635     522.734E-03        -1.78602     527.155E-03     50.2268E-03     110.023E-03    -54.8711E-03    -55.1820E-03    -54.6103E-03     109.762E-03    -55.1820E-03     13.0788E-03    -9.33429E+06    -52.6449E+06    -197.401E+06    -52.6459E+06    -197.400E+06    -9.33429E+06    -197.900E+03         29.8960
             472     5.67988E-03     47.8969E-03     536.375E-03     524.527E-03        -1.80032     533.215E-03        -1.79970     527.067E-03    -3.75625E-03     110.191E-03    -55.0046E-03    -55.2199E-03    -54.8068E-03     109.994E-03    -55.2199E-03     11.3869E-03    -17.2251E+06    -59.4501E+06    -224.482E+06    -59.4521E+06    -224.480E+06    -17.2251E+06    -40.7956E+03         29.4732
             473     4.73346E-03     47.8856E-03     540.895E-03     521.449E-03        -1.80288     535.410E-03        -1.80160     525.661E-03     27.3646E-03     110.252E-03    -55.0345E-03    -55.2257E-03    -54.8886E-03     110.106E-03    -55.2257E-03     9.79376E-03    -28.1002E+06    -67.0353E+06    -244.419E+06    -67.0389E+06    -244.415E+06    -28.1002E+06     648.718E+03         29.1356
             474     3.78691E-03     47.8761E-03     532.684E-03     519.333E-03        -1.79155     526.336E-03        -1.79034     524.474E-03     29.4953E-03     110.118E-03    -54.9410E-03    -55.1855E-03    -54.8387E-03     110.016E-03    -55.1855E-03     8.16107E-03    -44.4294E+06    -74.3270E+06    -257.447E+06    -74.3296E+06    -257.445E+06    -44.4294E+06     431.848E+03         28.8763
             475     2.83968E-03     47.8678E-03     525.933E-03     520.517E-03        -1.78469     520.263E-03        -1.78351     525.009E-03     27.0996E-03     110.135E-03    -54.9816E-03    -55.1653E-03    -54.9215E-03     110.074E-03    -55.1652E-03     6.22781E-03    -62.5359E+06    -80.8433E+06    -269.228E+06    -80.8434E+06    -269.228E+06    -62.5359E+06     4.17238E+03         28.6851
             476     1.89316E-03     47.8624E-03     532.478E-03     523.903E-03        -1.79528     523.975E-03        -1.78924     526.368E-03    -84.4773E-03     110.210E-03    -55.0457E-03    -55.1666E-03    -55.0419E-03     110.182E-03    -55.1431E-03     4.10068E-03    -77.1165E+06    -86.2988E+06    -278.797E+06    -86.2991E+06    -278.797E+06    -77.1165E+06    -130.856E+03         28.5524
             477     946.465E-06     47.8592E-03     670.817E-03     438.555E-03        -1.83439     389.048E-03        -1.77891     664.847E-03     313.670E-03     110.192E-03    -54.9885E-03    -55.2052E-03    -55.1493E-03     110.183E-03    -55.0354E-03     2.35699E-03    -86.2579E+06    -89.4786E+06    -282.631E+06    -89.3709E+06    -282.621E+06    -86.3752E+06     223.436E+03         28.4729
             478     16.1011E-03     47.1249E-03     535.482E-03     514.360E-03        -1.79591     519.996E-03        -1.79526     529.203E-03    -17.4350E-03     110.973E-03    -53.9260E-03    -57.1698E-03    -53.0921E-03     107.874E-03    -54.9045E-03     33.8460E-03     175.057E+06     123.153E+06    -7.61786E+06    -7.61715E+06     175.056E+06     123.153E+06     105.639E+03         41.9770
             479     15.1536E-03     47.0561E-03     530.423E-03     519.601E-03        -1.79169     519.680E-03        -1.79147     530.129E-03     5.35899E-03     111.880E-03    -54.7766E-03    -57.2021E-03    -53.2265E-03     107.910E-03    -54.7820E-03     49.0937E-03     173.583E+06     100.775E+06    -15.8351E+06    -15.8339E+06     173.582E+06     100.775E+06     304.475E+03         39.5806
             480     14.2054E-03     47.0179E-03     531.521E-03     517.825E-03        -1.79337     517.925E-03        -1.79318     531.227E-03    -1.74018E-03     110.455E-03    -54.6192E-03    -55.9152E-03    -53.2564E-03     107.801E-03    -54.6246E-03     41.0902E-03     165.979E+06     53.8270E+06    -21.9356E+06    -21.9296E+06     165.973E+06     53.8270E+06     792.733E+03         37.4715
             481     13.2576E-03     46.9655E-03     532.336E-03     521.202E-03        -1.80081     520.931E-03        -1.80054     532.336E-03     42.1301E-03     110.646E-03    -54.5935E-03    -56.0667E-03    -53.3088E-03     107.888E-03    -54.5935E-03     42.0952E-03     123.024E+06     16.3373E+06    -25.7003E+06    -25.6852E+06     123.009E+06     16.3373E+06     1.38814E+06         36.0080
             482     12.3098E-03     46.9260E-03     542.841E-03     529.837E-03        -1.81837     539.778E-03        -1.81816     532.687E-03     21.9304E-03     109.880E-03    -54.7010E-03    -55.1878E-03    -53.5543E-03     108.247E-03    -54.7010E-03     32.4997E-03     44.0941E+06     4.46901E+06    -28.5987E+06    -28.5798E+06     43.1495E+06     5.39472E+06     1.09594E+06         34.8824
             483     11.3622E-03     46.8952E-03     545.910E-03     531.168E-03        -1.81999     544.373E-03        -1.81935     532.069E-03     44.3041E-03     109.906E-03    -54.8401E-03    -55.1247E-03    -54.0376E-03     108.818E-03    -54.8401E-03     26.5670E-03     3.25481E+06    -15.3692E+06    -42.2204E+06    -31.1659E+06    -26.4238E+06     3.25481E+06     581.103E+03         33.7818
             484     10.4156E-03     46.8680E-03     535.810E-03     520.373E-03        -1.79998     522.746E-03        -1.79866     532.123E-03    -10.3015E-03     109.966E-03    -54.8970E-03    -55.1413E-03    -54.3686E-03     109.226E-03    -54.9299E-03     21.9560E-03     3.30272E+06    -33.7868E+06    -75.4826E+06    -33.7951E+06    -75.4743E+06     3.30272E+06     391.751E+03         32.7159
             485     9.46839E-03     46.8469E-03     539.101E-03     517.560E-03        -1.79970     522.164E-03        -1.79845     533.248E-03    -8.48869E-03     109.832E-03    -54.7957E-03    -55.0893E-03    -54.3176E-03     109.278E-03    -55.0133E-03     19.0556E-03     3.54680E+06    -36.8906E+06    -111.678E+06    -36.8936E+06    -111.675E+06     3.54680E+06     364.563E+03         31.7988
             486     8.52105E-03     46.8272E-03     547.058E-03     526.577E-03        -1.81773     538.943E-03        -1.81672     533.680E-03     2.92857E-03     109.787E-03    -54.7428E-03    -55.0692E-03    -54.3017E-03     109.346E-03    -55.0692E-03     16.9706E-03     757.832E+03    -40.8743E+06    -141.795E+06    -40.8771E+06    -141.792E+06     757.832E+03     326.391E+03         31.0388
             487     7.57394E-03     46.8102E-03     541.531E-03     519.684E-03        -1.80568     526.684E-03        -1.80515     534.005E-03    -35.5339E-03     109.970E-03    -54.8597E-03    -55.1184E-03    -54.5250E-03     109.636E-03    -55.1184E-03     14.8096E-03    -3.12510E+06    -45.3893E+06    -168.791E+06    -45.3912E+06    -168.789E+06    -3.12510E+06     225.449E+03         30.4119
             488     6.62710E-03     46.7952E-03     536.187E-03     514.107E-03        -1.79494     513.866E-03        -1.79470     536.187E-03     29.9623E-03     110.043E-03    -54.8897E-03    -55.1819E-03    -54.6304E-03     109.784E-03    -55.1819E-03     13.0433E-03    -7.58642E+06    -51.2742E+06    -197.073E+06    -51.2820E+06    -197.065E+06    -7.58642E+06     445.471E+03         29.8949
             489     5.68030E-03     46.7818E-03     552.632E-03     527.563E-03        -1.82729     541.406E-03        -1.82608     537.585E-03    -48.6709E-03     110.099E-03    -54.9040E-03    -55.2265E-03    -54.7060E-03     109.901E-03    -55.2265E-03     11.3917E-03    -16.0988E+06    -59.0835E+06    -225.203E+06    -59.0925E+06    -225.194E+06    -16.0988E+06     668.571E+03         29.4722
             490     4.73310E-03     46.7703E-03     571.894E-03     533.788E-03        -1.85358     569.770E-03        -1.85146     533.788E-03     6.33337E-03     110.234E-03    -55.0089E-03    -55.2319E-03    -54.8648E-03     110.090E-03    -55.2319E-03     9.71357E-03    -29.0663E+06    -66.8934E+06    -244.525E+06    -66.8953E+06    -244.523E+06    -29.0663E+06     381.649E+03         29.1369
             491     3.78639E-03     46.7608E-03     554.546E-03     527.025E-03        -1.83030     553.039E-03        -1.82879     527.025E-03     32.6920E-03     110.218E-03    -55.0395E-03    -55.1846E-03    -54.9395E-03     110.118E-03    -55.1846E-03     8.08732E-03    -45.0685E+06    -73.9594E+06    -256.574E+06    -73.9608E+06    -256.572E+06    -45.0685E+06     293.092E+03         28.8791
             492     2.84003E-03     46.7530E-03     530.051E-03     511.714E-03        -1.78934     514.996E-03        -1.78816     525.590E-03     16.6311E-03     110.142E-03    -54.9960E-03    -55.1552E-03    -54.9348E-03     110.081E-03    -55.1552E-03     6.26705E-03    -62.1623E+06    -80.7926E+06    -268.655E+06    -80.7936E+06    -268.654E+06    -62.1623E+06     131.591E+03         28.6864
             493     1.89310E-03     46.7470E-03     537.619E-03     517.183E-03        -1.79720     512.502E-03        -1.78727     532.369E-03    -148.767E-03     110.181E-03    -55.0327E-03    -55.1505E-03    -55.0281E-03     110.153E-03    -55.1271E-03     4.16762E-03    -76.8319E+06    -86.5558E+06    -279.070E+06    -86.5563E+06    -279.070E+06    -76.8319E+06    -277.990E+03         28.5522
             494     946.841E-06     46.7437E-03     732.014E-03     418.164E-03        -1.89021     347.923E-03        -1.81472     726.763E-03     321.467E-03     110.146E-03    -54.8870E-03    -55.2612E-03    -55.2474E-03     110.137E-03    -54.8917E-03     2.31115E-03    -87.1303E+06    -90.7379E+06    -283.178E+06    -90.5961E+06    -283.175E+06    -87.2747E+06    -641.912E+03         28.4726
             495     16.1013E-03     46.0115E-03     544.427E-03     534.417E-03        -1.82630     541.633E-03        -1.82580     536.710E-03     48.1148E-03     110.908E-03    -53.8682E-03    -57.1738E-03    -52.9857E-03     107.756E-03    -54.9037E-03     33.7440E-03     174.239E+06     122.582E+06    -8.08150E+06    -8.08056E+06     174.238E+06     122.582E+06     294.898E+03         41.9701
             496     15.1527E-03     45.9389E-03     538.651E-03     531.601E-03        -1.82148     533.055E-03        -1.82120     536.921E-03     34.7893E-03     111.930E-03    -54.7937E-03    -57.2379E-03    -53.2048E-03     107.897E-03    -54.7937E-03     49.4455E-03     173.117E+06     100.855E+06    -15.4507E+06    -15.4475E+06     173.114E+06     100.855E+06     726.310E+03         39.5748
             497     14.2061E-03     45.9035E-03     537.929E-03     527.637E-03        -1.81687     527.762E-03        -1.81670     537.635E-03     11.8055E-03     110.623E-03    -54.6351E-03    -56.0736E-03    -53.4043E-03     107.954E-03    -54.6351E-03     41.2587E-03     166.091E+06     54.4426E+06    -21.7678E+06    -21.7567E+06      166.08E+06     54.4426E+06     1.27557E+06         37.4689
             498     13.2577E-03     45.8501E-03     538.730E-03     524.946E-03        -1.81687     524.651E-03        -1.81657     538.730E-03     19.4905E-03     110.774E-03    -54.5872E-03    -56.2082E-03    -53.4665E-03     108.032E-03    -54.5872E-03     41.9602E-03     123.654E+06     16.9944E+06    -26.0726E+06    -26.0578E+06     123.639E+06     16.9944E+06     1.14782E+06         36.0095
             499     12.3101E-03     45.8115E-03     544.618E-03     526.433E-03        -1.82548     530.711E-03        -1.82500     539.857E-03    -24.9922E-03     109.917E-03    -54.6833E-03    -55.2443E-03    -53.6232E-03     108.296E-03    -54.6833E-03     32.4200E-03     44.8745E+06     5.24008E+06    -28.5694E+06    -28.5619E+06     44.2585E+06     5.84855E+06     476.577E+03         34.8830
             500     11.3630E-03     45.7793E-03     550.700E-03     533.975E-03        -1.83978     543.855E-03        -1.83929     540.335E-03    -5.89065E-03     109.883E-03    -54.8178E-03    -55.1268E-03    -54.0173E-03     108.773E-03    -54.8178E-03     26.8338E-03     3.38259E+06    -14.8352E+06    -42.1472E+06    -30.7644E+06    -26.2179E+06     3.38259E+06     213.949E+03         33.7788
             501     10.4155E-03     45.7531E-03     552.697E-03     529.569E-03        -1.83774     541.070E-03        -1.83696     540.414E-03    -24.6685E-03     109.745E-03    -54.7969E-03    -55.0228E-03    -54.1489E-03     108.992E-03    -54.9183E-03     22.1140E-03     3.30963E+06    -33.5837E+06    -75.6294E+06    -33.5843E+06    -75.6288E+06     3.30963E+06     45.5369E+03         32.7113
             502     9.46819E-03     45.7316E-03     547.905E-03     522.420E-03        -1.82522     528.060E-03        -1.82418     541.226E-03    -8.68548E-03     109.755E-03    -54.7916E-03    -55.0143E-03    -54.2316E-03     109.195E-03    -55.0143E-03     19.1437E-03     3.35810E+06    -37.1070E+06    -111.803E+06    -37.1075E+06    -111.803E+06     3.35810E+06    -44.1221E+03         31.7957
             503     8.52124E-03     45.7122E-03     549.980E-03     527.436E-03        -1.83176     534.385E-03        -1.83118     542.454E-03     19.8515E-03     109.907E-03    -54.8594E-03    -55.0673E-03    -54.4116E-03     109.459E-03    -55.0673E-03     17.1153E-03     874.404E+03    -41.1756E+06    -141.447E+06    -41.1763E+06    -141.446E+06     874.404E+03    -81.8825E+03         31.0379
             504     7.57412E-03     45.6949E-03     550.958E-03     529.648E-03        -1.83380     536.848E-03        -1.83348     543.432E-03    -1.50519E-03     109.962E-03    -54.8549E-03    -55.1142E-03    -54.5166E-03     109.624E-03    -55.1142E-03     14.8778E-03    -3.04460E+06    -46.1544E+06    -169.073E+06    -46.1554E+06    -169.072E+06    -3.04460E+06     126.759E+03         30.4113
             505     6.62711E-03     45.6799E-03     545.384E-03     525.770E-03        -1.82240     525.577E-03        -1.82221     545.384E-03     25.4153E-03     110.021E-03    -54.8667E-03    -55.1820E-03    -54.6077E-03     109.762E-03    -55.1820E-03     13.0374E-03    -7.08034E+06    -51.9812E+06    -197.666E+06    -51.9893E+06    -197.657E+06    -7.08034E+06     883.420E+03         29.8938
             506     5.68001E-03     45.6667E-03     555.068E-03     531.251E-03        -1.83979     536.779E-03        -1.83808     547.829E-03    -88.1236E-03     110.124E-03    -54.9296E-03    -55.2233E-03    -54.7303E-03     109.925E-03    -55.2233E-03     11.4301E-03    -15.1099E+06    -58.6001E+06    -224.609E+06    -58.6080E+06    -224.601E+06    -15.1099E+06     882.900E+03         29.4704
             507     4.73343E-03     45.6550E-03     570.339E-03     541.400E-03        -1.86889     561.488E-03        -1.86610     547.467E-03    -17.2047E-03     110.203E-03    -54.9820E-03    -55.2263E-03    -54.8402E-03     110.061E-03    -55.2263E-03     9.62532E-03    -28.4576E+06    -65.8237E+06    -244.009E+06    -65.8256E+06    -244.007E+06    -28.4576E+06     364.259E+03         29.1350
             508     3.78674E-03     45.6453E-03     569.789E-03     541.092E-03        -1.86668     565.582E-03        -1.86485     543.468E-03     13.6772E-03     110.200E-03    -55.0130E-03    -55.1906E-03    -54.9164E-03     110.103E-03    -55.1906E-03     7.95253E-03    -43.8980E+06    -73.6028E+06    -256.822E+06    -73.6050E+06    -256.820E+06    -43.8980E+06     368.997E+03         28.8786
             509     2.83984E-03     45.6377E-03     556.349E-03     529.065E-03        -1.83876     542.895E-03        -1.83671     540.476E-03     13.3098E-03     110.187E-03    -55.0383E-03    -55.1571E-03    -54.9783E-03     110.127E-03    -55.1571E-03     6.21297E-03    -60.5621E+06    -81.1024E+06    -268.179E+06    -81.1046E+06    -268.177E+06    -60.5621E+06     365.571E+03         28.6871
             510     1.89330E-03     45.6321E-03     560.886E-03     529.428E-03        -1.83928     534.249E-03        -1.82537     542.149E-03    -172.608E-03     110.131E-03    -55.0207E-03    -55.1114E-03    -54.9917E-03     110.102E-03    -55.1114E-03     4.27851E-03    -77.6683E+06    -87.3823E+06    -278.680E+06    -87.3840E+06    -278.678E+06    -77.6683E+06     161.222E+03         28.5526
             511     946.383E-06     45.6281E-03     778.507E-03     416.955E-03        -1.94153     323.196E-03        -1.83422     764.955E-03     387.718E-03     110.124E-03    -54.9051E-03    -55.2200E-03    -55.1738E-03     110.114E-03    -54.9416E-03     2.28745E-03    -88.9835E+06    -91.8281E+06    -283.809E+06    -91.6948E+06    -283.798E+06    -89.1280E+06    -909.614E+03         28.4731
             512     16.1013E-03     44.8960E-03     543.923E-03     522.539E-03        -1.82380     523.424E-03        -1.82325     542.487E-03     34.5312E-03     110.985E-03    -53.9401E-03    -57.1720E-03    -53.0485E-03     107.821E-03    -54.9000E-03     33.7781E-03     173.879E+06     123.088E+06    -6.63875E+06    -6.63510E+06     173.876E+06     123.088E+06     262.677E+03         41.9631
             513     15.1535E-03     44.8244E-03     545.298E-03     526.697E-03        -1.83299     527.633E-03        -1.83249     543.861E-03     10.1374E-03     111.786E-03    -54.7847E-03    -57.0903E-03    -53.0307E-03     107.741E-03    -54.7991E-03     49.4770E-03     171.618E+06     101.220E+06    -14.4018E+06    -14.3927E+06     171.609E+06     101.220E+06     1.21873E+06         39.5685
             514     14.2044E-03     44.7873E-03     545.299E-03     529.112E-03        -1.83681     528.745E-03        -1.83644     545.299E-03    -32.8847E-03     110.632E-03    -54.6397E-03    -56.0599E-03    -53.3830E-03     107.970E-03    -54.6540E-03     41.2252E-03     166.084E+06     55.9787E+06    -20.6740E+06    -20.6597E+06     166.070E+06     55.9787E+06     1.40639E+06         37.4645
             515     13.2581E-03     44.7346E-03     546.646E-03     534.955E-03        -1.84540     534.791E-03        -1.84523     546.646E-03    -9.15499E-03     110.964E-03    -54.5958E-03    -56.4053E-03    -53.6847E-03     108.244E-03    -54.5958E-03     41.8394E-03     124.962E+06     18.7118E+06    -24.3335E+06    -24.3245E+06     124.953E+06     18.7118E+06     754.061E+03         36.0096
             516     12.3106E-03     44.6968E-03     547.965E-03     533.172E-03        -1.84669     532.778E-03        -1.84630     547.965E-03    -22.9464E-03     110.013E-03    -54.6770E-03    -55.3528E-03    -53.6889E-03     108.349E-03    -54.6770E-03     32.9290E-03     45.5942E+06     5.57320E+06    -27.0396E+06    -27.0347E+06     44.7134E+06     6.44907E+06     278.056E+03         34.8829
             517     11.3627E-03     44.6637E-03     551.266E-03     534.148E-03        -1.85315     535.404E-03        -1.85249     549.349E-03     12.8203E-03     109.822E-03    -54.7969E-03    -55.0917E-03    -53.9238E-03     108.671E-03    -54.8129E-03     27.2485E-03     3.81810E+06     -14.622E+06    -41.6007E+06    -30.0338E+06    -26.1888E+06     3.81810E+06     344.921E+03         33.7755
             518     10.4156E-03     44.6382E-03     561.015E-03     543.684E-03        -1.87323     553.907E-03        -1.87237     549.934E-03    -6.69224E-03     109.624E-03    -54.7512E-03    -54.9502E-03    -54.0271E-03     108.874E-03    -54.9243E-03     22.0889E-03     3.82134E+06    -33.2663E+06    -75.0563E+06    -33.2689E+06    -75.0538E+06     3.82134E+06     121.860E+03         32.7075
             519     9.46804E-03     44.6165E-03     564.545E-03     546.244E-03        -1.87508     560.608E-03        -1.87427     549.366E-03    -7.80314E-03     109.784E-03    -54.8074E-03    -55.0281E-03    -54.2341E-03     109.211E-03    -55.0281E-03     19.3642E-03     3.49298E+06    -37.2920E+06    -111.509E+06    -37.2923E+06    -111.509E+06     3.49298E+06    -131.085E+03         31.7941
             520     8.52095E-03     44.5968E-03     555.687E-03     531.262E-03        -1.85031     536.770E-03        -1.84981     549.672E-03     14.3433E-03     109.995E-03    -54.9359E-03    -55.0768E-03    -54.4847E-03     109.544E-03    -55.0768E-03     17.1909E-03     607.199E+03    -41.8403E+06    -141.525E+06    -41.8409E+06    -141.524E+06     607.199E+03    -4.74907E+03         31.0385
             521     7.57414E-03     44.5796E-03     551.612E-03     534.319E-03        -1.85038     533.936E-03        -1.84999     551.612E-03     4.26741E-03     110.012E-03    -54.9005E-03    -55.1182E-03    -54.5580E-03     109.670E-03    -55.1182E-03     14.9780E-03    -3.63722E+06    -47.0814E+06    -169.764E+06    -47.0831E+06    -169.763E+06    -3.63722E+06     407.563E+03         30.4116
             522     6.62700E-03     44.5648E-03     561.916E-03     546.296E-03        -1.87187     555.346E-03        -1.87161     552.609E-03     44.2686E-03     110.069E-03    -54.9225E-03    -55.1740E-03    -54.6622E-03     109.809E-03    -55.1740E-03     13.0675E-03    -8.41415E+06    -52.9404E+06    -197.968E+06    -52.9430E+06    -197.965E+06    -8.41415E+06     324.283E+03         29.8931
             523     5.68033E-03     44.5512E-03     562.636E-03     534.876E-03        -1.86356     542.939E-03        -1.86232     553.328E-03    -57.1683E-03     110.130E-03    -54.9467E-03    -55.2086E-03    -54.7502E-03     109.934E-03    -55.2086E-03     11.3525E-03    -15.5414E+06     -58.954E+06    -223.797E+06    -58.9561E+06    -223.795E+06    -15.5414E+06     281.205E+03         29.4688
             524     4.73340E-03     44.5398E-03     557.836E-03     524.721E-03        -1.84879     521.743E-03        -1.84582     557.836E-03     18.2456E-03     110.163E-03    -54.9502E-03    -55.2203E-03    -54.8062E-03     110.019E-03    -55.2203E-03     9.71373E-03    -27.3639E+06    -66.1900E+06    -243.815E+06    -66.1925E+06    -243.812E+06    -27.3639E+06     390.053E+03         29.1318
             525     3.78651E-03     44.5303E-03     570.435E-03     543.695E-03        -1.87885     548.154E-03        -1.87630     563.424E-03     27.7894E-03     110.175E-03    -54.9908E-03    -55.1909E-03    -54.8924E-03     110.077E-03    -55.1909E-03     8.00934E-03    -42.5525E+06    -73.5881E+06    -257.100E+06    -73.5899E+06    -257.098E+06    -42.5525E+06     221.721E+03         28.8753
             526     2.83992E-03     44.5224E-03     578.873E-03     562.860E-03        -1.90222     574.628E-03        -1.89873     563.618E-03     53.7861E-03     110.171E-03    -55.0212E-03    -55.1583E-03    -54.9626E-03     110.112E-03    -55.1583E-03     6.15074E-03    -59.6591E+06    -80.6231E+06    -268.244E+06    -80.6247E+06    -268.242E+06    -59.6591E+06     429.467E+03         28.6854
             527     1.89325E-03     44.5168E-03     601.895E-03     557.661E-03        -1.91996     574.670E-03        -1.89274     557.661E-03    -230.192E-03     110.151E-03    -55.0216E-03    -55.1314E-03    -55.0146E-03     110.122E-03    -55.1096E-03     4.25959E-03    -76.1438E+06    -86.8518E+06    -277.777E+06    -86.8535E+06    -277.775E+06    -76.1438E+06     480.202E+03         28.5524
             528     946.718E-06     44.5133E-03     838.563E-03     432.789E-03        -2.03445     304.408E-03        -1.87007     802.574E-03     427.645E-03     110.096E-03    -54.9498E-03    -55.1484E-03    -55.1075E-03     110.087E-03    -54.9816E-03     2.17136E-03    -87.8515E+06    -91.9392E+06    -283.637E+06    -91.3230E+06    -283.621E+06    -88.4835E+06    -23.4409E+03         28.4733
             529     16.1013E-03     43.7802E-03     550.468E-03     519.454E-03        -1.84170     518.101E-03        -1.84035     550.468E-03    -45.4540E-03     111.037E-03    -53.9572E-03    -57.1799E-03    -53.1394E-03     107.937E-03    -54.8978E-03     33.7357E-03     173.058E+06     122.396E+06    -7.33683E+06     -7.3326E+06     173.054E+06     122.396E+06    -212.604E+03         41.9537
             530     15.1529E-03     43.7098E-03     553.553E-03     528.231E-03        -1.85597     528.761E-03        -1.85549     552.552E-03    -14.8181E-03     111.943E-03    -54.7761E-03    -57.2217E-03    -53.2028E-03     107.938E-03    -54.7905E-03     49.4167E-03     170.872E+06     101.439E+06    -13.6348E+06    -13.6259E+06     170.863E+06     101.439E+06     865.027E+03         39.5618
             531     14.2060E-03     43.6717E-03     559.954E-03     544.841E-03        -1.87735     550.542E-03        -1.87689     553.788E-03    -33.0240E-03     110.357E-03    -54.6336E-03    -55.7649E-03    -53.1233E-03     107.730E-03    -54.6480E-03     40.9627E-03     166.565E+06     56.4912E+06    -19.0328E+06    -19.0260E+06     166.558E+06     56.4912E+06      951.52E+03         37.4593
             532     13.2573E-03     43.6189E-03     559.297E-03     550.407E-03        -1.88275     555.317E-03        -1.88250     554.132E-03     31.3328E-03     110.607E-03    -54.6104E-03    -56.0294E-03    -53.3176E-03     107.895E-03    -54.6104E-03     41.7897E-03     125.011E+06     18.9743E+06    -23.3291E+06    -23.3235E+06     125.005E+06     18.9743E+06     720.460E+03         36.0064
             533     12.3098E-03     43.5819E-03     554.649E-03     545.953E-03        -1.87381     545.703E-03        -1.87356     554.649E-03     6.83166E-03     110.253E-03    -54.6988E-03    -55.5744E-03    -53.8787E-03     108.558E-03    -54.6988E-03     33.2200E-03     45.6079E+06     5.74160E+06    -26.9691E+06    -26.9466E+06     44.6609E+06     6.66611E+06     988.408E+03         34.8832
             534     11.3628E-03     43.5483E-03     555.843E-03     539.878E-03        -1.86931     539.411E-03        -1.86884     555.843E-03     20.4492E-03     109.909E-03    -54.7258E-03    -55.2487E-03    -54.0240E-03     108.783E-03    -54.8243E-03     26.9720E-03     4.13464E+06    -14.5247E+06    -41.0076E+06    -29.9508E+06    -25.5815E+06     4.13464E+06     626.815E+03         33.7775
             535     10.4152E-03     43.5234E-03     559.900E-03     539.372E-03        -1.87310     541.043E-03        -1.87229     557.415E-03    -7.26026E-03     109.612E-03    -54.7520E-03    -54.9328E-03    -54.0039E-03     108.864E-03    -54.9328E-03     22.0682E-03     4.17193E+06    -33.1891E+06    -74.4686E+06    -33.1924E+06    -74.4653E+06     4.17193E+06     244.143E+03         32.7091
             536     9.46802E-03     43.5012E-03     567.214E-03     543.067E-03        -1.88372     550.730E-03        -1.88289     558.714E-03    -3.87857E-03     109.845E-03    -54.8614E-03    -55.0364E-03    -54.2827E-03     109.266E-03    -55.0364E-03     19.4604E-03     3.78378E+06    -36.9660E+06    -111.211E+06    -36.9670E+06    -111.210E+06     3.78378E+06     98.5572E+03         31.7956
             537     8.52095E-03     43.4814E-03     572.266E-03     544.518E-03        -1.88972     556.587E-03        -1.88898     559.458E-03     1.34584E-03     109.971E-03    -54.9047E-03    -55.0861E-03    -54.4592E-03     109.525E-03    -55.0861E-03     17.0634E-03     458.705E+03    -41.5915E+06    -142.058E+06    -41.5919E+06    -142.058E+06     458.705E+03     108.728E+03         31.0399
             538     7.57380E-03     43.4644E-03     574.909E-03     550.245E-03        -1.89758     565.349E-03        -1.89718     559.408E-03    -32.1136E-03     110.081E-03    -54.9639E-03    -55.1244E-03    -54.6265E-03     109.744E-03    -55.1244E-03     14.8846E-03    -3.77880E+06    -46.6350E+06    -169.936E+06    -46.6362E+06    -169.935E+06    -3.77880E+06     320.917E+03         30.4124
             539     6.62720E-03     43.4493E-03     577.239E-03     556.898E-03        -1.90669     576.090E-03        -1.90647     557.829E-03     37.5708E-03     110.130E-03    -54.9863E-03    -55.1729E-03    -54.7248E-03     109.868E-03    -55.1729E-03     13.0969E-03    -8.08990E+06    -52.2126E+06    -197.366E+06    -52.2152E+06    -197.363E+06    -8.08990E+06     263.733E+03         29.8928
             540     5.68034E-03     43.4361E-03     568.252E-03     546.088E-03        -1.88815     557.043E-03        -1.88739     556.541E-03    -24.3790E-03     110.118E-03    -54.9406E-03    -55.2023E-03    -54.7441E-03     109.921E-03    -55.2023E-03     11.3575E-03    -15.9068E+06    -59.3657E+06    -224.247E+06    -59.3683E+06    -224.244E+06    -15.9068E+06     162.021E+03         29.4674
             541     4.73331E-03     43.4250E-03     560.914E-03     527.805E-03        -1.85982     526.126E-03        -1.85713     559.904E-03     46.9547E-03     110.144E-03    -54.9398E-03    -55.2102E-03    -54.7955E-03     109.999E-03    -55.2102E-03     9.71741E-03    -28.1819E+06    -66.9142E+06    -243.574E+06    -66.9155E+06    -243.572E+06    -28.1819E+06     63.7730E+03         29.1296
             542     3.78674E-03     43.4148E-03     566.981E-03     540.242E-03        -1.87382     537.191E-03        -1.87076     566.981E-03     32.8389E-03     110.128E-03    -54.9592E-03    -55.1796E-03    -54.8611E-03     110.030E-03    -55.1796E-03     7.99781E-03    -44.3583E+06    -74.5882E+06    -257.077E+06    -74.5892E+06    -257.076E+06    -44.3583E+06    -79.9174E+03         28.8725
             543     2.83994E-03     43.4076E-03     583.854E-03     565.889E-03        -1.91822     568.996E-03        -1.90846     570.982E-03     132.041E-03     110.169E-03    -55.0122E-03    -55.1683E-03    -54.9703E-03     110.109E-03    -55.1503E-03     6.21513E-03    -61.0831E+06    -81.2841E+06    -268.385E+06    -81.2847E+06    -268.384E+06    -61.0831E+06     8.60030E+03         28.6828
             544     1.89314E-03     43.4015E-03     613.849E-03     569.442E-03        -1.95663     576.769E-03        -1.91955     569.442E-03    -179.199E-03     110.157E-03    -55.0156E-03    -55.1440E-03    -55.0269E-03     110.128E-03    -55.1041E-03     4.20340E-03    -76.1331E+06    -86.8301E+06    -277.563E+06    -86.8310E+06    -277.562E+06    -76.1331E+06     302.589E+03         28.5504
             545     946.669E-06     43.3982E-03     889.815E-03     456.325E-03        -2.12983     276.816E-03        -1.91878     858.280E-03     532.166E-03     110.085E-03    -54.8866E-03    -55.2006E-03    -55.1439E-03     110.076E-03    -54.9339E-03     2.33360E-03    -86.6469E+06    -91.0397E+06    -282.674E+06    -90.4166E+06    -282.665E+06    -87.2789E+06     403.222E+03         28.4719
             546     16.1011E-03     42.6649E-03     563.321E-03     548.135E-03        -1.89459     550.694E-03        -1.89333     559.504E-03    -18.8643E-03     111.083E-03    -53.9991E-03    -57.1517E-03    -53.2009E-03     108.025E-03    -54.8918E-03     33.5552E-03     172.917E+06     121.978E+06    -7.76645E+06    -7.76215E+06     172.913E+06     121.978E+06    -651.982E+03         41.9406
             547     15.1538E-03     42.5944E-03     568.987E-03     549.648E-03        -1.90456     558.346E-03        -1.90436     560.084E-03     8.59392E-03     111.895E-03    -54.7292E-03    -57.1927E-03    -53.1241E-03     107.881E-03    -54.7837E-03     49.6655E-03     169.831E+06     100.518E+06    -14.6051E+06    -14.5999E+06     169.825E+06     100.518E+06    -404.613E+03         39.5532
             548     14.2057E-03     42.5556E-03     570.500E-03     554.493E-03        -1.90998     564.593E-03        -1.90983     560.249E-03    -3.20072E-03     110.188E-03    -54.5939E-03    -55.6401E-03    -52.9364E-03     107.539E-03    -54.6484E-03     41.1895E-03     165.969E+06     55.5410E+06    -19.9461E+06    -19.9391E+06     165.962E+06     55.5410E+06     767.699E+03         37.4541
             549     13.2573E-03     42.5065E-03     565.603E-03     552.750E-03        -1.90121     557.740E-03        -1.90103     560.437E-03     35.1075E-03     110.602E-03    -54.6192E-03    -56.0100E-03    -53.2757E-03     107.868E-03    -54.6192E-03     42.0420E-03     124.823E+06     18.1264E+06    -24.3132E+06    -24.2958E+06     124.805E+06     18.1264E+06     1.45812E+06         36.0036
             550     12.3095E-03     42.4639E-03     561.128E-03     552.445E-03        -1.89443     552.230E-03        -1.89421     561.128E-03    -1.15402E-03     110.235E-03    -54.7113E-03    -55.5463E-03    -53.8680E-03     108.556E-03    -54.7113E-03     32.9227E-03     46.1804E+06     6.15389E+06    -27.5083E+06    -27.4816E+06     45.5946E+06     6.71309E+06     1.06189E+06         34.8837
             551     11.3629E-03     42.4342E-03     562.174E-03     550.520E-03        -1.89447     550.239E-03        -1.89419     562.174E-03     5.52217E-03     109.892E-03    -54.7543E-03    -55.1986E-03    -54.0393E-03     108.816E-03    -54.8367E-03     26.4749E-03     4.15283E+06    -13.9861E+06    -41.2191E+06    -30.0834E+06    -25.1217E+06     4.15283E+06     436.570E+03         33.7812
             552     10.4152E-03     42.4080E-03     563.541E-03     548.209E-03        -1.89560     547.780E-03        -1.89517     563.541E-03    -3.05585E-03     109.760E-03    -54.8187E-03    -55.0140E-03    -54.1327E-03     108.999E-03    -54.9389E-03     22.2471E-03     4.21192E+06    -33.1261E+06    -74.3652E+06    -33.1332E+06    -74.3580E+06     4.21192E+06     380.660E+03         32.7140
             553     9.46807E-03     42.3861E-03     565.540E-03     543.168E-03        -1.89274     541.966E-03        -1.89154     565.540E-03     33.7216E-03     109.871E-03    -54.8914E-03    -55.0333E-03    -54.3194E-03     109.299E-03    -55.0333E-03     19.3578E-03     3.82183E+06    -36.9442E+06    -111.352E+06    -36.9465E+06    -111.350E+06     3.82183E+06     345.948E+03         31.7989
             554     8.52091E-03     42.3661E-03     576.406E-03     555.047E-03        -1.91295     563.313E-03        -1.91180     566.991E-03     42.3828E-03     109.963E-03    -54.9069E-03    -55.0804E-03    -54.4630E-03     109.520E-03    -55.0804E-03     17.0274E-03     537.412E+03    -41.4234E+06    -142.031E+06    -41.4245E+06    -142.030E+06     537.412E+03     229.629E+03         31.0408
             555     7.57409E-03     42.3492E-03     586.164E-03     566.011E-03        -1.93278     585.917E-03        -1.93253     566.011E-03    -13.9194E-03     110.052E-03    -54.9440E-03    -55.1200E-03    -54.6104E-03     109.718E-03    -55.1200E-03     14.8010E-03    -3.74080E+06    -46.6945E+06    -169.934E+06    -46.6959E+06    -169.932E+06    -3.74080E+06     305.167E+03         30.4118
             556     6.62705E-03     42.3336E-03     576.589E-03     558.032E-03        -1.91877     569.949E-03        -1.91855     564.457E-03     37.2012E-03     110.061E-03    -54.9200E-03    -55.1723E-03    -54.6619E-03     109.803E-03    -55.1723E-03     13.0044E-03    -8.62027E+06    -52.8347E+06    -197.563E+06    -52.8373E+06    -197.560E+06    -8.62027E+06     380.450E+03         29.8912
             557     5.68015E-03     42.3212E-03     573.698E-03     557.581E-03        -1.91621     565.994E-03        -1.91493     564.006E-03    -44.3210E-03     110.130E-03    -54.9518E-03    -55.2070E-03    -54.7559E-03     109.934E-03    -55.2070E-03     11.3467E-03    -15.8974E+06    -59.2800E+06    -223.870E+06    -59.2823E+06    -223.867E+06    -15.8974E+06     257.478E+03         29.4656
             558     4.73366E-03     42.3093E-03     582.586E-03     557.785E-03        -1.92098     573.807E-03        -1.91725     562.837E-03     39.6511E-03     110.155E-03    -54.9510E-03    -55.2110E-03    -54.8055E-03     110.010E-03    -55.2110E-03     9.76017E-03    -28.7042E+06    -66.7470E+06    -243.318E+06    -66.7484E+06    -243.317E+06    -28.7042E+06     297.378E+03         29.1280
             559     3.78654E-03     42.3002E-03     582.623E-03     551.552E-03        -1.91037     567.548E-03        -1.90468     560.938E-03    -4.98106E-03     110.117E-03    -54.9512E-03    -55.1747E-03    -54.8511E-03     110.017E-03    -55.1747E-03     8.08773E-03    -45.8132E+06    -74.8055E+06    -256.503E+06    -74.8069E+06    -256.501E+06    -45.8132E+06     241.426E+03         28.8704
             560     2.83972E-03     42.2918E-03     590.900E-03     553.577E-03        -1.92080     570.746E-03        -1.90498     557.911E-03     134.958E-03     110.175E-03    -55.0233E-03    -55.1634E-03    -54.9804E-03     110.114E-03    -55.1454E-03     6.25259E-03    -62.9411E+06    -82.0264E+06    -268.647E+06    -82.0290E+06    -268.645E+06    -62.9411E+06    -235.297E+03         28.6800
             561     1.89352E-03     42.2864E-03     611.492E-03     551.561E-03        -1.94856     567.968E-03        -1.90503     551.561E-03    -137.789E-03     110.128E-03    -55.0029E-03    -55.1292E-03    -54.9928E-03     110.100E-03    -55.1112E-03     4.17979E-03    -77.9326E+06    -87.1562E+06    -278.098E+06    -87.1599E+06    -278.094E+06    -77.9326E+06    -405.139E+03         28.5478
             562     946.412E-06     42.2832E-03     905.748E-03     453.812E-03        -2.14869     225.961E-03        -1.88366     868.572E-03     625.688E-03     110.137E-03    -54.9008E-03    -55.2384E-03    -55.1687E-03     110.126E-03    -54.9601E-03     2.53660E-03    -87.6670E+06    -90.7612E+06    -281.957E+06    -90.4322E+06    -281.950E+06    -88.0033E+06    -152.315E+03         28.4702
             563     16.1017E-03     41.5497E-03     570.905E-03     563.442E-03        -1.92668     568.837E-03        -1.92650     565.327E-03     41.4738E-03     111.019E-03    -53.9986E-03    -57.1301E-03    -53.1342E-03     107.918E-03    -54.8932E-03     33.8950E-03     173.216E+06     122.298E+06    -6.91356E+06    -6.90919E+06     173.212E+06     122.298E+06    -457.171E+03         41.9223
             564     15.1532E-03     41.4789E-03     575.065E-03     555.661E-03        -1.92198     565.183E-03        -1.92184     565.403E-03     21.4125E-03     111.672E-03    -54.7090E-03    -57.0297E-03    -52.8964E-03     107.623E-03    -54.7929E-03     49.7660E-03     168.439E+06     99.2071E+06    -15.0043E+06    -15.0005E+06     168.435E+06     99.2071E+06    -281.955E+03         39.5407
             565     14.2045E-03     41.4417E-03     570.382E-03     543.128E-03        -1.90758     547.183E-03        -1.90755     566.298E-03    -11.8158E-03     110.452E-03    -54.5798E-03    -55.9313E-03    -53.2018E-03     107.807E-03    -54.6637E-03     41.2378E-03     164.169E+06     54.9057E+06    -21.9705E+06    -21.9651E+06     164.163E+06     54.9057E+06     476.893E+03         37.4490
             566     13.2574E-03     41.3896E-03     570.030E-03     553.286E-03        -1.91743     555.583E-03        -1.91736     567.670E-03     5.42174E-03     110.976E-03    -54.6132E-03    -56.3959E-03    -53.7121E-03     108.292E-03    -54.6132E-03     41.6936E-03     125.835E+06     19.3150E+06    -25.1232E+06    -25.1104E+06     125.822E+06     19.3150E+06     999.894E+03         36.0034
             567     12.3104E-03     41.3495E-03     574.999E-03     564.817E-03        -1.93340     571.502E-03        -1.93334     568.254E-03     7.87889E-03     109.829E-03    -54.6241E-03    -55.2274E-03    -53.5158E-03     108.191E-03    -54.6977E-03     32.5096E-03     47.9719E+06     6.20235E+06    -26.8326E+06    -26.8226E+06     46.7959E+06     7.36839E+06     522.430E+03         34.8827
             568     11.3619E-03     41.3187E-03     572.919E-03     559.126E-03        -1.92661     563.351E-03        -1.92645     568.534E-03     21.3300E-03     109.736E-03    -54.7727E-03    -55.0216E-03    -53.8582E-03     108.647E-03    -54.8463E-03     26.5814E-03     4.60838E+06    -14.1981E+06    -40.3762E+06    -29.6038E+06    -24.9705E+06     4.60838E+06     281.679E+03         33.7814
             569     10.4154E-03     41.2929E-03     569.521E-03     555.955E-03        -1.91787     555.649E-03        -1.91757     569.521E-03     979.074E-06     109.985E-03    -54.9220E-03    -55.1363E-03    -54.3528E-03     109.225E-03    -54.9461E-03     22.2521E-03     4.31817E+06    -33.0620E+06    -74.4050E+06    -33.0712E+06    -74.3958E+06     4.31817E+06     481.281E+03         32.7178
             570     9.46818E-03     41.2710E-03     576.925E-03     558.721E-03        -1.92313     564.162E-03        -1.92224     570.595E-03     11.0929E-03     109.919E-03    -54.9215E-03    -55.0549E-03    -54.3847E-03     109.353E-03    -55.0253E-03     19.2690E-03     4.10500E+06    -36.8664E+06    -111.345E+06    -36.8698E+06    -111.341E+06     4.10500E+06     495.213E+03         31.8019
             571     8.52114E-03     41.2508E-03     579.828E-03     565.481E-03        -1.93124     573.333E-03        -1.93014     570.876E-03     6.99631E-03     109.938E-03    -54.9018E-03    -55.0663E-03    -54.4574E-03     109.494E-03    -55.0663E-03     17.0486E-03     837.003E+03    -41.2881E+06    -141.558E+06    -41.2921E+06    -141.554E+06     837.003E+03     563.066E+03         31.0404
             572     7.57408E-03     41.2336E-03     575.745E-03     562.448E-03        -1.92599     566.644E-03        -1.92553     571.094E-03    -9.69791E-03     109.970E-03    -54.8758E-03    -55.1109E-03    -54.5435E-03     109.637E-03    -55.1109E-03     14.7471E-03    -3.76136E+06    -46.6555E+06    -170.168E+06    -46.6588E+06    -170.165E+06    -3.76136E+06     525.167E+03         30.4092
             573     6.62713E-03     41.2192E-03     575.211E-03     557.427E-03        -1.92312     560.008E-03        -1.92283     572.338E-03     50.5087E-03     110.009E-03    -54.8695E-03    -55.1696E-03    -54.6123E-03     109.752E-03    -55.1696E-03     12.9920E-03    -8.59753E+06    -52.4608E+06    -197.186E+06    -52.4635E+06    -197.184E+06    -8.59753E+06     399.567E+03         29.8882
             574     5.68028E-03     41.2054E-03     581.727E-03     563.806E-03        -1.93707     570.208E-03        -1.93534     573.596E-03    -56.9344E-03     110.095E-03    -54.9095E-03    -55.2101E-03    -54.7124E-03     109.898E-03    -55.2101E-03     11.3558E-03    -16.1714E+06    -59.0555E+06    -223.649E+06    -59.0582E+06    -223.646E+06    -16.1714E+06     171.792E+03         29.4631
             575     4.73316E-03     41.1945E-03     591.700E-03     568.517E-03        -1.95032     583.220E-03        -1.94628     572.960E-03     22.9823E-03     110.180E-03    -54.9588E-03    -55.2244E-03    -54.8156E-03     110.037E-03    -55.2244E-03     9.69387E-03    -28.1212E+06    -66.2711E+06    -243.675E+06    -66.2737E+06    -243.673E+06    -28.1212E+06     334.136E+03         29.1263
             576     3.78656E-03     41.1845E-03     600.041E-03     568.637E-03        -1.95708     588.638E-03        -1.94676     569.715E-03    -85.2534E-03     110.187E-03    -55.0102E-03    -55.1828E-03    -54.9102E-03     110.087E-03    -55.1828E-03     8.07619E-03    -44.5952E+06    -73.5668E+06    -255.927E+06    -73.5688E+06    -255.926E+06    -44.5952E+06     439.955E+03         28.8686
             577     2.84015E-03     41.1767E-03     598.749E-03     556.347E-03        -1.94554     570.526E-03        -1.92791     566.934E-03     24.6985E-03     110.123E-03    -54.9760E-03    -55.1574E-03    -54.9162E-03     110.063E-03    -55.1574E-03     6.20799E-03    -61.9644E+06    -80.3776E+06    -268.160E+06    -80.3803E+06    -268.157E+06    -61.9644E+06     17.0810E+03         28.6782
             578     1.89281E-03     41.1713E-03     653.492E-03     551.671E-03        -2.00214     579.400E-03        -1.93864     562.259E-03    -312.651E-03     110.172E-03    -55.0102E-03    -55.1652E-03    -55.0008E-03     110.143E-03    -55.1455E-03     4.27400E-03    -76.6194E+06    -86.0630E+06    -278.070E+06    -86.0666E+06    -278.066E+06    -76.6194E+06    -418.484E+03         28.5471
             579     946.720E-06     41.1677E-03     959.536E-03     536.404E-03        -2.29606     234.852E-03        -1.91622     881.243E-03     712.493E-03     110.215E-03    -54.9441E-03    -55.2717E-03    -55.2493E-03     110.204E-03    -54.9561E-03     2.49457E-03    -87.2263E+06    -90.5005E+06    -282.557E+06    -90.1046E+06    -282.553E+06    -87.6269E+06    -173.369E+03         28.4702
             580     16.1007E-03     40.4339E-03     571.164E-03     554.674E-03        -1.93133     556.005E-03        -1.93091     569.403E-03     19.8466E-03     110.755E-03    -53.8643E-03    -57.0451E-03    -52.9364E-03     107.689E-03    -54.9070E-03     33.7542E-03     172.694E+06     121.724E+06    -8.06841E+06    -8.06215E+06     172.687E+06     121.724E+06    -481.693E+03         41.8989
             581     15.1527E-03     40.3645E-03     572.460E-03     547.374E-03        -1.92339     548.919E-03        -1.92317     570.699E-03     33.4150E-03     111.799E-03    -54.7826E-03    -57.1449E-03    -53.1281E-03     107.812E-03    -54.8120E-03     49.3631E-03     167.901E+06     99.7451E+06    -15.2935E+06    -15.2864E+06     167.894E+06     99.7451E+06     56.4079E+03         39.5252
             582     14.2051E-03     40.3266E-03     572.602E-03     543.547E-03        -1.92061     543.516E-03        -1.92057     572.602E-03    -1.41366E-03     110.740E-03    -54.6361E-03    -56.1772E-03    -53.4666E-03     108.059E-03    -54.6655E-03     41.4847E-03     164.666E+06     56.0153E+06    -21.0089E+06    -21.0060E+06     164.663E+06     56.0153E+06     276.439E+03         37.4426
             583     13.2585E-03     40.2728E-03     576.689E-03     557.130E-03        -1.93739     559.431E-03        -1.93733     574.329E-03     8.78957E-03     110.867E-03    -54.6064E-03    -56.2858E-03    -53.5714E-03     108.152E-03    -54.6064E-03     41.8132E-03     125.959E+06     19.5349E+06    -24.5035E+06    -24.5016E+06     125.957E+06     19.5349E+06    -292.853E+03         36.0030
             584     12.3101E-03     40.2366E-03     581.967E-03     564.865E-03        -1.94977     571.542E-03        -1.94970     575.221E-03     2.85766E-03     109.873E-03    -54.6223E-03    -55.2620E-03    -53.5351E-03     108.220E-03    -54.6959E-03     32.7538E-03     47.6735E+06     6.43589E+06    -26.6788E+06    -26.6725E+06     46.7599E+06     7.34322E+06     122.734E+03         34.8839
             585     11.3625E-03     40.2030E-03     580.251E-03     564.887E-03        -1.94767     569.161E-03        -1.94756     575.865E-03     9.21472E-03     109.838E-03    -54.7654E-03    -55.1312E-03    -53.9297E-03     108.713E-03    -54.8419E-03     26.9701E-03     4.46890E+06    -13.9989E+06     -40.457E+06    -29.4597E+06    -24.9962E+06     4.46890E+06     517.575E+03         33.7826
             586     10.4151E-03     40.1772E-03     577.040E-03     562.397E-03        -1.93889     562.016E-03        -1.93851     577.040E-03    -21.6796E-03     109.918E-03    -54.9379E-03    -55.0579E-03    -54.3100E-03     109.174E-03    -54.9427E-03     22.0073E-03     4.40007E+06    -32.7585E+06    -74.4592E+06    -32.7676E+06    -74.4500E+06     4.40007E+06     564.709E+03         32.7195
             587     9.46834E-03     40.1557E-03     584.486E-03     567.119E-03        -1.94899     573.095E-03        -1.94864     578.156E-03    -34.8684E-03     109.958E-03    -54.9655E-03    -55.0519E-03    -54.4311E-03     109.394E-03    -55.0224E-03     19.2383E-03     4.25274E+06    -36.7588E+06    -111.222E+06    -36.7654E+06    -111.215E+06     4.25274E+06     688.379E+03         31.8034
             588     8.52126E-03     40.1359E-03     585.550E-03     575.611E-03        -1.95546     582.364E-03        -1.95502     578.358E-03    -33.0834E-03     109.914E-03    -54.8806E-03    -55.0606E-03    -54.4313E-03     109.465E-03    -55.0606E-03     17.1396E-03     984.957E+03    -41.3058E+06    -141.246E+06    -41.3126E+06    -141.240E+06     984.957E+03     812.535E+03         31.0399
             589     7.57416E-03     40.1186E-03     583.561E-03     569.903E-03        -1.94945     574.460E-03        -1.94899     578.550E-03    -31.7764E-03     109.940E-03    -54.8444E-03    -55.1078E-03    -54.5085E-03     109.604E-03    -55.1078E-03     14.8246E-03    -3.37886E+06    -46.0932E+06    -169.609E+06    -46.0976E+06    -169.605E+06    -3.37886E+06     653.605E+03         30.4067
             590     6.62711E-03     40.1038E-03     584.570E-03     570.680E-03        -1.95463     575.658E-03        -1.95421     579.166E-03     48.5739E-03     110.003E-03    -54.8633E-03    -55.1696E-03    -54.6054E-03     109.745E-03    -55.1696E-03     13.0071E-03    -8.33399E+06    -51.9788E+06    -196.783E+06    -51.9810E+06    -196.780E+06    -8.33399E+06     371.345E+03         29.8852
             591     5.68007E-03     40.0905E-03     581.347E-03     573.175E-03        -1.95540     572.743E-03        -1.95371     580.093E-03    -38.2413E-03     110.077E-03    -54.8897E-03    -55.2119E-03    -54.6937E-03     109.881E-03    -55.2119E-03     11.3225E-03    -16.2485E+06    -58.9279E+06    -223.899E+06    -58.9302E+06    -223.896E+06    -16.2485E+06     118.713E+03         29.4607
             592     4.73346E-03     40.0793E-03     582.695E-03     568.459E-03        -1.95472     563.316E-03        -1.94958     582.695E-03     49.9205E-03     110.185E-03    -54.9577E-03    -55.2279E-03    -54.8143E-03     110.042E-03    -55.2279E-03     9.69870E-03    -28.2948E+06    -66.3161E+06    -243.853E+06    -66.3184E+06    -243.850E+06    -28.2948E+06     48.0584E+03         29.1246
             593     3.78670E-03     40.0693E-03     596.907E-03     578.233E-03        -1.97256     578.717E-03        -1.96169     585.550E-03    -52.1422E-03     110.152E-03    -54.9605E-03    -55.1982E-03    -54.8590E-03     110.051E-03    -55.1982E-03     8.13928E-03    -44.0067E+06    -73.1815E+06    -255.753E+06    -73.1831E+06    -255.751E+06    -44.0067E+06     148.233E+03         28.8678
             594     2.83959E-03     40.0618E-03     615.469E-03     577.831E-03        -1.98654     576.708E-03        -1.95837     588.418E-03     129.647E-03     110.185E-03    -54.9844E-03    -55.2128E-03    -54.9559E-03     110.124E-03    -55.1806E-03     6.23627E-03    -60.3982E+06    -79.7076E+06    -267.453E+06    -79.7085E+06    -267.452E+06    -60.3982E+06     144.434E+03         28.6785
             595     1.89332E-03     40.0560E-03     688.421E-03     582.771E-03        -2.07681     581.580E-03        -1.98056     593.358E-03    -331.473E-03     110.223E-03    -55.0173E-03    -55.2071E-03    -55.0403E-03     110.194E-03    -55.1553E-03     4.26618E-03    -75.4692E+06    -85.6867E+06    -277.727E+06    -85.6873E+06    -277.726E+06    -75.4692E+06     118.239E+03         28.5482
             596     946.492E-06     40.0520E-03         1.02910     684.991E-03        -2.52635     242.878E-03        -2.00487     949.730E-03     925.524E-03     110.216E-03    -54.9422E-03    -55.2722E-03    -55.1981E-03     110.205E-03    -55.0059E-03     2.49102E-03    -86.6002E+06    -90.0485E+06    -283.186E+06    -89.9869E+06    -283.183E+06    -86.6645E+06     143.596E+03         28.4705
             597     16.1012E-03     39.3190E-03     575.725E-03     550.310E-03        -1.94092     549.395E-03        -1.94001     575.725E-03    -34.5911E-03     110.763E-03    -53.8357E-03    -57.1027E-03    -52.9814E-03     107.709E-03    -54.9023E-03     33.3700E-03     172.942E+06     121.497E+06    -7.53900E+06    -7.53322E+06     172.937E+06     121.497E+06    -130.706E+03         41.8729
             598     15.1528E-03     39.2493E-03     578.898E-03     556.201E-03        -1.94631     557.407E-03        -1.94607     577.452E-03     10.3606E-03     111.905E-03    -54.8066E-03    -57.2351E-03    -53.2525E-03     107.923E-03    -54.8066E-03     49.3852E-03     168.156E+06     100.403E+06    -14.5391E+06    -14.5245E+06     168.141E+06     100.403E+06    -525.049E+03         39.5071
             599     14.2056E-03     39.2098E-03     580.299E-03     564.250E-03        -1.95436     565.514E-03        -1.95418     578.854E-03    -24.4320E-03     110.515E-03    -54.6620E-03    -55.9137E-03    -53.2164E-03     107.818E-03    -54.6620E-03     41.5304E-03     165.056E+06     56.5260E+06    -19.9206E+06    -19.9102E+06     165.046E+06     56.5260E+06    -601.838E+03         37.4327
             600     13.2566E-03     39.1591E-03     580.387E-03     557.615E-03        -1.94711     557.490E-03        -1.94699     580.387E-03    -5.81027E-03     110.624E-03    -54.6175E-03    -56.0220E-03    -53.3103E-03     107.913E-03    -54.6175E-03     41.6792E-03     125.195E+06     19.0071E+06    -23.8799E+06    -23.8775E+06     125.192E+06     19.0071E+06    -534.732E+03         36.0010
             601     12.3093E-03     39.1201E-03     582.640E-03     552.164E-03        -1.94568     552.021E-03        -1.94554     582.640E-03    -19.4497E-03     110.168E-03    -54.7086E-03    -55.4659E-03    -53.8303E-03     108.532E-03    -54.7086E-03     32.6381E-03     46.2336E+06     6.30058E+06    -27.3194E+06    -27.3140E+06     45.7762E+06     6.75254E+06     25.1308E+03         34.8883
             602     11.3628E-03     39.0885E-03     585.703E-03     568.753E-03        -1.96603     569.498E-03        -1.96576     584.691E-03     724.701E-06     110.043E-03    -54.8319E-03    -55.2642E-03    -54.1321E-03     108.914E-03    -54.8348E-03     27.0723E-03     4.02009E+06    -14.0177E+06    -41.1897E+06    -30.1429E+06    -25.0644E+06     4.02009E+06     649.546E+03         33.7864
             603     10.4154E-03     39.0618E-03     593.912E-03     580.748E-03        -1.98363     588.895E-03        -1.98323     585.365E-03    -10.8991E-03     109.773E-03    -54.8625E-03    -54.9882E-03    -54.1615E-03     109.019E-03    -54.9352E-03     22.1482E-03      4.1909E+06    -33.0468E+06    -74.6055E+06    -33.0692E+06    -74.5832E+06      4.1909E+06     776.829E+03         32.7197
             604     9.46814E-03     39.0403E-03     593.670E-03     579.344E-03        -1.97928     587.364E-03        -1.97886     585.232E-03    -7.10212E-03     109.900E-03    -54.9301E-03    -55.0265E-03    -54.3642E-03     109.332E-03    -55.0245E-03     19.2906E-03     4.15715E+06    -36.8921E+06    -111.152E+06    -36.9002E+06    -111.144E+06     4.15715E+06     770.209E+03         31.8029
             605     8.52111E-03     39.0205E-03     587.245E-03     578.956E-03        -1.97164     580.522E-03        -1.97144     585.480E-03     26.3551E-03     109.962E-03    -54.9168E-03    -55.0658E-03    -54.4765E-03     109.520E-03    -55.0638E-03     16.9985E-03     1.29984E+06    -41.2228E+06    -140.909E+06    -41.2295E+06    -140.902E+06     1.29984E+06     801.708E+03         31.0398
             606     7.57403E-03     39.0036E-03     590.827E-03     580.940E-03        -1.97804     585.911E-03        -1.97800     585.816E-03    -7.53676E-03     109.922E-03    -54.8205E-03    -55.1093E-03    -54.4859E-03     109.587E-03    -55.1093E-03     14.8118E-03    -3.15713E+06    -46.2855E+06    -169.204E+06    -46.2895E+06    -169.200E+06    -3.15713E+06     685.842E+03         30.4059
             607     6.62713E-03     38.9882E-03     590.425E-03     582.106E-03        -1.98160     586.218E-03        -1.98115     585.865E-03     41.3962E-03     109.993E-03    -54.8494E-03    -55.1710E-03    -54.5899E-03     109.734E-03    -55.1710E-03     13.0330E-03    -8.39284E+06    -52.2685E+06    -196.476E+06    -52.2709E+06    -196.474E+06    -8.39284E+06     435.095E+03         29.8837
             608     5.68031E-03     38.9756E-03     589.229E-03     580.068E-03        -1.98053     580.336E-03        -1.97801     586.441E-03    -53.0506E-03     110.089E-03    -54.9036E-03    -55.2141E-03    -54.7062E-03     109.892E-03    -55.2141E-03     11.3859E-03    -16.4124E+06    -59.2157E+06    -223.690E+06    -59.2171E+06    -223.688E+06    -16.4124E+06     303.984E+03         29.4594
             609     4.73326E-03     38.9635E-03     591.569E-03     578.565E-03        -1.98231     575.046E-03        -1.97558     588.357E-03     51.4345E-03     110.137E-03    -54.9110E-03    -55.2330E-03    -54.7647E-03     109.991E-03    -55.2330E-03     9.77556E-03    -29.0805E+06    -66.5893E+06    -243.566E+06    -66.5900E+06    -243.565E+06    -29.0805E+06     15.7060E+03         29.1243
             610     3.78633E-03     38.9546E-03     607.490E-03     583.782E-03        -2.00037     587.616E-03        -1.98674     590.021E-03    -53.3884E-03     110.158E-03    -54.9498E-03    -55.2150E-03    -54.8492E-03     110.058E-03    -55.2150E-03     8.11264E-03    -44.6067E+06    -74.0784E+06    -255.864E+06    -74.0791E+06    -255.863E+06    -44.6067E+06    -50.6946E+03         28.8687
             611     2.83980E-03     38.9463E-03     642.552E-03     588.124E-03        -2.02961     601.205E-03        -1.98826     588.124E-03     207.988E-03     110.260E-03    -55.0460E-03    -55.2232E-03    -55.0167E-03     110.198E-03    -55.1910E-03     6.27318E-03    -61.5347E+06    -81.3114E+06    -267.469E+06    -81.3118E+06    -267.468E+06    -61.5347E+06     109.200E+03         28.6801
             612     1.89323E-03     38.9410E-03     721.580E-03     587.518E-03        -2.11919     580.991E-03        -1.97860     587.518E-03    -355.406E-03     110.246E-03    -55.0238E-03    -55.2219E-03    -55.0832E-03     110.217E-03    -55.1342E-03     4.21413E-03    -77.8132E+06    -87.2538E+06    -277.556E+06    -87.2551E+06    -277.554E+06    -77.8132E+06     285.179E+03         28.5490
             613     946.454E-06     38.9375E-03         1.10089     766.168E-03        -2.68504     173.357E-03        -1.99596         1.00462         1.08129     110.152E-03    -54.8993E-03    -55.2528E-03    -55.1791E-03     110.142E-03    -54.9629E-03     2.44894E-03    -87.5181E+06    -91.0945E+06    -282.943E+06    -90.5335E+06    -282.936E+06    -88.0863E+06     144.754E+03         28.4697
             614     16.1011E-03     38.2051E-03     583.680E-03     559.903E-03        -1.96140     559.241E-03        -1.96073     583.680E-03    -16.5537E-03     111.039E-03    -53.9564E-03    -57.2528E-03    -53.2029E-03     107.925E-03    -54.8930E-03     33.5654E-03     173.900E+06     122.140E+06    -7.04954E+06    -7.04849E+06     173.899E+06     122.140E+06     95.2013E+03         41.8454
             615     15.1537E-03     38.1325E-03     586.780E-03     564.238E-03        -1.96543     565.539E-03        -1.96529     585.335E-03    -16.7402E-03     111.776E-03    -54.7011E-03    -57.1845E-03    -53.0728E-03     107.754E-03    -54.7913E-03     49.4869E-03     168.758E+06     99.9620E+06    -14.6180E+06    -14.6085E+06     168.748E+06     99.9620E+06    -718.146E+03         39.4848
             616     14.2049E-03     38.0962E-03     588.082E-03     576.058E-03        -1.97559     577.284E-03        -1.97537     586.637E-03    -43.7958E-03     110.274E-03    -54.5672E-03    -55.7533E-03    -52.9827E-03     107.594E-03    -54.6575E-03     41.3118E-03     164.033E+06     55.1220E+06    -20.7735E+06    -20.7611E+06     164.020E+06     55.1220E+06    -1.39040E+06         37.4184
             617     13.2578E-03     38.0429E-03     587.919E-03     570.716E-03        -1.97017     570.600E-03        -1.97006     587.919E-03    -15.3027E-03     110.746E-03    -54.6203E-03    -56.1432E-03    -53.4367E-03     108.040E-03    -54.6203E-03     41.6519E-03     124.057E+06     18.1833E+06    -24.8316E+06    -24.8261E+06     124.051E+06     18.1833E+06    -369.439E+03         35.9959
             618     12.3102E-03     38.0054E-03     589.657E-03     567.850E-03        -1.97218     567.748E-03        -1.97207     589.657E-03    -12.9055E-03     110.161E-03    -54.7079E-03    -55.4643E-03    -53.8390E-03     108.536E-03    -54.7079E-03     32.5475E-03     46.0954E+06     6.08191E+06    -27.8445E+06    -27.8385E+06     45.6076E+06     6.56370E+06     430.934E+03         34.8894
             619     11.3624E-03     37.9720E-03     592.144E-03     579.033E-03        -1.98730     579.720E-03        -1.98697     591.132E-03     19.3727E-03     109.983E-03    -54.8355E-03    -55.2087E-03    -54.0869E-03     108.861E-03    -54.8355E-03     26.9613E-03     3.99557E+06    -14.1577E+06    -41.4656E+06    -30.3388E+06    -25.2845E+06     3.99557E+06     459.785E+03         33.7879
             620     10.4154E-03     37.9474E-03     602.063E-03     590.132E-03        -2.00744     600.540E-03        -2.00707     591.285E-03     10.7300E-03     109.815E-03    -54.8678E-03    -55.0287E-03    -54.2062E-03     109.061E-03    -54.9357E-03     22.1816E-03     4.23010E+06    -33.3448E+06    -74.6669E+06    -33.3641E+06    -74.6477E+06     4.23010E+06     596.504E+03         32.7192
             621     9.46802E-03     37.9245E-03     604.676E-03     590.251E-03        -2.01071     604.304E-03        -2.01034     590.251E-03     11.0106E-03     109.866E-03    -54.8799E-03    -55.0420E-03    -54.3265E-03     109.295E-03    -55.0242E-03     19.3356E-03     4.35770E+06    -37.0295E+06    -110.603E+06    -37.0384E+06    -110.594E+06     4.35770E+06     802.158E+03         31.8014
             622     8.52124E-03     37.9051E-03     594.529E-03     581.292E-03        -1.99182     585.657E-03        -1.99152     589.870E-03     31.4385E-03     109.940E-03    -54.8962E-03    -55.0680E-03    -54.4611E-03     109.503E-03    -55.0661E-03     16.9012E-03     1.07499E+06    -41.5768E+06    -141.038E+06    -41.5827E+06    -141.033E+06     1.07499E+06     702.274E+03         31.0395
             623     7.57428E-03     37.8882E-03     591.269E-03     574.220E-03        -1.98431     573.962E-03        -1.98405     591.269E-03    -27.9885E-03     109.929E-03    -54.8289E-03    -55.1133E-03    -54.4950E-03     109.595E-03    -55.1133E-03     14.7985E-03    -3.25228E+06    -46.6322E+06    -169.210E+06    -46.6356E+06    -169.207E+06    -3.25228E+06     621.088E+03         30.4070
             624     6.62697E-03     37.8734E-03     594.026E-03     581.974E-03        -1.99486     581.692E-03        -1.99382     593.266E-03     40.6676E-03     109.960E-03    -54.8113E-03    -55.1774E-03    -54.5483E-03     109.697E-03    -55.1774E-03     13.1241E-03    -8.42609E+06    -52.5634E+06    -196.169E+06    -52.5670E+06    -196.166E+06    -8.42609E+06     697.969E+03         29.8847
             625     5.68000E-03     37.8600E-03     597.774E-03     589.682E-03        -2.00452     589.216E-03        -2.00092     594.636E-03    -55.6813E-03     110.086E-03    -54.8904E-03    -55.2228E-03    -54.6914E-03     109.887E-03    -55.2228E-03     11.4230E-03    -16.7808E+06    -59.3652E+06    -222.950E+06    -59.3668E+06    -222.948E+06    -16.7808E+06     425.781E+03         29.4604
             626     4.73329E-03     37.8488E-03     600.642E-03     593.577E-03        -2.01132     590.357E-03        -2.00317     595.711E-03     43.6780E-03     110.204E-03    -54.9640E-03    -55.2454E-03    -54.8188E-03     110.059E-03    -55.2454E-03     9.75058E-03    -28.5458E+06    -66.8238E+06    -243.414E+06    -66.8239E+06    -243.413E+06    -28.5458E+06     83.0478E+03         29.1260
             627     3.78649E-03     37.8389E-03     618.492E-03     596.079E-03        -2.02662     598.134E-03        -2.00626     596.079E-03    -117.941E-03     110.222E-03    -55.0167E-03    -55.2106E-03    -54.9176E-03     110.123E-03    -55.2106E-03     8.04373E-03    -45.0089E+06    -74.7376E+06    -256.164E+06    -74.7389E+06    -256.162E+06    -45.0089E+06     232.217E+03         28.8706
             628     2.83984E-03     37.8311E-03     658.229E-03     593.786E-03        -2.06376     606.616E-03        -2.01215     593.786E-03     161.855E-03     110.199E-03    -55.0263E-03    -55.1798E-03    -54.9663E-03     110.139E-03    -55.1798E-03     6.21422E-03    -62.9641E+06    -81.8397E+06    -267.484E+06    -81.8420E+06    -267.481E+06    -62.9641E+06     517.731E+03         28.6811
             629     1.89297E-03     37.8254E-03     788.143E-03     582.919E-03        -2.18858     618.215E-03        -2.01866     582.919E-03    -438.431E-03     110.255E-03    -55.0457E-03    -55.2095E-03    -55.0970E-03     110.226E-03    -55.1295E-03     4.23570E-03    -78.1330E+06    -87.4922E+06    -277.146E+06    -87.4947E+06    -277.144E+06    -78.1330E+06     385.982E+03         28.5489
             630     946.981E-06     37.8220E-03         1.15445     847.388E-03        -2.82287     154.115E-03        -1.96896     993.805E-03         1.20826     110.125E-03    -54.8848E-03    -55.2438E-03    -55.2343E-03     110.116E-03    -54.8848E-03     2.30967E-03    -88.3152E+06    -91.7559E+06    -282.753E+06    -91.1935E+06    -282.747E+06    -88.8833E+06    -216.629E+03         28.4698
             631     16.1015E-03     37.0883E-03     590.588E-03     565.744E-03        -1.97693     565.668E-03        -1.97686     590.588E-03     14.7755E-03     111.052E-03    -54.0617E-03    -57.1227E-03    -53.2404E-03     107.999E-03    -54.8910E-03     33.5945E-03     174.749E+06     122.832E+06    -7.82164E+06    -7.82022E+06     174.747E+06     122.832E+06    -267.013E+03         41.8175
             632     15.1532E-03     37.0187E-03     592.148E-03     573.468E-03        -1.98483     573.420E-03        -1.98479     592.148E-03    -3.59436E-03     111.602E-03    -54.6623E-03    -57.0203E-03    -52.9268E-03     107.635E-03    -54.7886E-03     49.1941E-03     169.547E+06     99.8504E+06    -15.4687E+06    -15.4645E+06     169.543E+06     99.8504E+06    -837.457E+03         39.4606
             633     14.2053E-03     36.9808E-03     593.399E-03     580.744E-03        -1.99441     580.579E-03        -1.99425     593.399E-03     4.98592E-03     110.258E-03    -54.5274E-03    -55.7838E-03    -52.9459E-03     107.546E-03    -54.6537E-03     41.5485E-03     163.184E+06     53.0750E+06    -21.8485E+06    -21.8388E+06     163.175E+06     53.0750E+06    -502.752E+03         37.4016
             634     13.2569E-03     36.9280E-03     596.233E-03     588.302E-03        -2.00677     590.190E-03        -2.00657     594.149E-03     32.6381E-03     110.806E-03    -54.6159E-03    -56.2110E-03    -53.4546E-03     108.050E-03    -54.6159E-03     42.0794E-03     122.814E+06     16.1195E+06    -26.7291E+06    -26.7154E+06     122.801E+06     16.1195E+06    -164.893E+03         35.9873
             635     12.3098E-03     36.8896E-03     596.583E-03     590.736E-03        -2.00965     592.741E-03        -2.00957     594.499E-03     18.5745E-03     110.151E-03    -54.7074E-03    -55.4578E-03    -53.8101E-03     108.503E-03    -54.7074E-03     32.7428E-03     45.7382E+06     5.89910E+06    -29.0383E+06    -29.0258E+06     45.5852E+06     6.03962E+06    -107.441E+03         34.8862
             636     11.3627E-03     36.8576E-03     595.073E-03     585.544E-03        -2.00333     585.433E-03        -2.00322     595.073E-03     13.1904E-03     109.968E-03    -54.8348E-03    -55.2024E-03    -54.0871E-03     108.853E-03    -54.8348E-03     26.8875E-03     3.66534E+06    -14.3761E+06    -42.1981E+06    -31.0032E+06    -25.4632E+06     3.55753E+06     88.4980E+03         33.7869
             637     10.4152E-03     36.8314E-03     598.300E-03     583.422E-03        -2.00526     585.328E-03        -2.00494     596.069E-03    -17.6069E-03     109.845E-03    -54.9002E-03    -55.0298E-03    -54.2537E-03     109.100E-03    -54.9318E-03     22.0233E-03     3.82204E+06    -33.9209E+06    -74.8111E+06    -33.9251E+06    -74.8068E+06     3.82204E+06     296.157E+03         32.7183
             638     9.46849E-03     36.8098E-03     603.094E-03     583.188E-03        -2.01087     588.844E-03        -2.01054     597.107E-03    -14.1061E-03     109.807E-03    -54.8312E-03    -55.0383E-03    -54.2783E-03     109.238E-03    -55.0225E-03     19.3019E-03     4.04448E+06    -37.3480E+06    -110.696E+06    -37.3540E+06    -110.690E+06     4.04448E+06     557.113E+03         31.8001
             639     8.52087E-03     36.7898E-03     603.142E-03     585.847E-03        -2.01293     590.697E-03        -2.01274     598.105E-03    -2.34162E-03     109.851E-03    -54.8024E-03    -55.0754E-03    -54.3560E-03     109.405E-03    -55.0754E-03     17.0617E-03     1.08449E+06    -41.4816E+06    -140.983E+06    -41.4853E+06    -140.979E+06     1.08449E+06     498.379E+03         31.0394
             640     7.57395E-03     36.7732E-03     604.534E-03     586.962E-03        -2.01584     591.890E-03        -2.01537     599.136E-03    -65.0347E-03     109.992E-03    -54.8787E-03    -55.1277E-03    -54.5443E-03     109.658E-03    -55.1277E-03     14.8086E-03    -3.06511E+06    -46.4404E+06    -168.980E+06    -46.4430E+06    -168.977E+06    -3.06511E+06     524.686E+03         30.4092
             641     6.62710E-03     36.7583E-03     604.917E-03     592.108E-03        -2.02384     595.294E-03        -2.02215     600.040E-03     37.0356E-03     110.008E-03    -54.8524E-03    -55.1891E-03    -54.5902E-03     109.746E-03    -55.1891E-03     13.1123E-03    -8.04005E+06    -52.1515E+06    -196.022E+06    -52.1557E+06    -196.018E+06    -8.04005E+06     734.935E+03         29.8881
             642     5.68004E-03     36.7450E-03     606.191E-03     597.986E-03        -2.03194     599.589E-03        -2.02787     600.519E-03    -38.3071E-03     110.095E-03    -54.8885E-03    -55.2307E-03    -54.6907E-03     109.897E-03    -55.2307E-03     11.3823E-03    -16.2763E+06    -59.0494E+06    -222.199E+06    -59.0534E+06    -222.195E+06    -16.2763E+06     712.684E+03         29.4632
             643     4.73316E-03     36.7334E-03     608.050E-03     597.560E-03        -2.03221     593.528E-03        -2.02155     601.419E-03     82.4307E-03     110.261E-03    -55.0182E-03    -55.2454E-03    -54.8732E-03     110.116E-03    -55.2454E-03     9.75887E-03    -28.4787E+06    -67.0822E+06    -243.001E+06    -67.0838E+06    -243.000E+06    -28.4787E+06     390.626E+03         29.1280
             644     3.78660E-03     36.7237E-03     618.691E-03     601.998E-03        -2.04643     591.773E-03        -2.02123     603.724E-03    -99.7857E-03     110.240E-03    -55.0417E-03    -55.2037E-03    -54.9419E-03     110.140E-03    -55.2037E-03     8.06576E-03    -44.4229E+06    -74.6114E+06    -256.406E+06    -74.6137E+06    -256.404E+06    -44.4229E+06     135.894E+03         28.8717
             645     2.83981E-03     36.7160E-03     661.509E-03     606.562E-03        -2.09163     598.656E-03        -2.02877     606.562E-03     194.527E-03     110.202E-03    -55.0412E-03    -55.1674E-03    -54.9820E-03     110.142E-03    -55.1674E-03     6.18344E-03    -61.5519E+06    -81.1958E+06    -267.630E+06    -81.2011E+06    -267.625E+06    -61.5519E+06     564.369E+03         28.6809
             646     1.89332E-03     36.7100E-03     837.225E-03     599.846E-03        -2.26184     632.185E-03        -2.05680     599.846E-03    -488.567E-03     110.160E-03    -54.9998E-03    -55.1599E-03    -54.9949E-03     110.131E-03    -55.1354E-03     4.29783E-03    -77.1435E+06    -86.6959E+06    -276.558E+06    -86.7007E+06    -276.553E+06    -77.1435E+06     654.197E+03         28.5484
             647     946.338E-06     36.7064E-03         1.23997     982.346E-03        -3.04146     170.904E-03        -2.00267         1.01262         1.44376     110.185E-03    -54.9061E-03    -55.2815E-03    -55.1867E-03     110.175E-03    -54.9915E-03     2.22685E-03    -88.2821E+06    -91.2518E+06    -282.407E+06    -91.2559E+06    -282.402E+06    -88.2821E+06    -87.8289E+03         28.4706
             648     16.1013E-03     35.9726E-03     596.934E-03     578.038E-03        -1.99818     578.220E-03        -1.99814     596.706E-03    -8.71401E-03     110.839E-03    -53.9892E-03    -57.0216E-03    -53.0965E-03     107.817E-03    -54.8923E-03     33.6612E-03     175.493E+06     123.108E+06    -7.55999E+06    -7.55822E+06     175.491E+06     123.108E+06     18.1791E+03         41.7904
             649     15.1537E-03     35.9037E-03     599.225E-03     592.337E-03        -2.01516     593.930E-03        -2.01511     597.587E-03    -3.82029E-03     111.612E-03    -54.7507E-03    -56.9753E-03    -53.0006E-03     107.673E-03    -54.7868E-03     49.0609E-03     170.474E+06     99.4797E+06    -16.0652E+06    -16.0611E+06     170.470E+06     99.4797E+06    -220.776E+03         39.4381
             650     14.2051E-03     35.8659E-03     599.467E-03     592.816E-03        -2.01644     594.057E-03        -2.01627     598.057E-03     3.18351E-03     110.346E-03    -54.6125E-03    -55.7992E-03    -53.0500E-03     107.633E-03    -54.6486E-03     41.5906E-03     163.089E+06     53.0022E+06    -22.9223E+06    -22.9132E+06     163.080E+06     53.0022E+06     52.1020E+03         37.3858
             651     13.2576E-03     35.8129E-03     600.714E-03     589.791E-03        -2.01609     591.661E-03        -2.01588     598.630E-03     15.1314E-03     110.714E-03    -54.6121E-03    -56.1219E-03    -53.3783E-03     107.970E-03    -54.6121E-03     41.9498E-03     122.946E+06     16.9731E+06    -26.1251E+06    -26.1113E+06     122.932E+06     16.9731E+06    -590.446E+03         35.9775
             652     12.3098E-03     35.7738E-03     601.515E-03     588.373E-03        -2.01956     590.266E-03        -2.01937     599.430E-03    -11.0409E-03     110.099E-03    -54.7032E-03    -55.4125E-03    -53.7881E-03     108.475E-03    -54.7032E-03     32.4959E-03     45.1729E+06     5.10054E+06    -28.3696E+06    -28.3577E+06     44.4378E+06     5.82376E+06    -905.932E+03         34.8811
             653     11.3625E-03     35.7421E-03     600.436E-03     589.438E-03        -2.02311     589.329E-03        -2.02300     600.436E-03    -16.0989E-03     109.963E-03    -54.8325E-03    -55.1919E-03    -54.0875E-03     108.859E-03    -54.8325E-03     26.7777E-03     3.68807E+06    -15.2070E+06    -41.5911E+06    -31.0362E+06    -25.6541E+06     3.58026E+06    -125.806E+03         33.7845
             654     10.4157E-03     35.7161E-03     602.060E-03     580.257E-03        -2.01699     580.071E-03        -2.01681     602.060E-03    -24.6577E-03     109.770E-03    -54.8455E-03    -55.0013E-03    -54.1627E-03     109.019E-03    -54.9330E-03     22.1122E-03     3.83367E+06    -34.1857E+06    -74.4201E+06    -34.1878E+06    -74.4180E+06     3.83367E+06     169.345E+03         32.7169
             655     9.46791E-03     35.6947E-03     604.437E-03     579.804E-03        -2.01613     579.423E-03        -2.01575     604.437E-03    -326.246E-06     109.774E-03    -54.8081E-03    -55.0276E-03    -54.2377E-03     109.204E-03    -55.0276E-03     19.3200E-03     3.61470E+06    -37.7064E+06    -111.202E+06    -37.7071E+06    -111.202E+06     3.61470E+06     40.9036E+03         31.7998
             656     8.52103E-03     35.6748E-03     609.382E-03     596.634E-03        -2.03578     599.493E-03        -2.03541     606.153E-03     31.6045E-03     109.868E-03    -54.8107E-03    -55.0837E-03    -54.3623E-03     109.420E-03    -55.0837E-03     17.1087E-03     845.420E+03    -41.7761E+06    -141.197E+06    -41.7769E+06    -141.196E+06     845.420E+03     174.189E+03         31.0402
             657     7.57384E-03     35.6576E-03     613.554E-03     605.425E-03        -2.04884     612.354E-03        -2.04842     606.209E-03    -26.2752E-03     110.005E-03    -54.8742E-03    -55.1383E-03    -54.5422E-03     109.673E-03    -55.1383E-03     14.7410E-03    -3.12739E+06    -46.8611E+06    -169.038E+06    -46.8620E+06    -169.037E+06    -3.12739E+06     301.926E+03         30.4113
             658     6.62691E-03     35.6430E-03     610.218E-03     604.566E-03        -2.04615     607.685E-03        -2.04480     605.749E-03     40.7411E-03     110.083E-03    -54.9138E-03    -55.1954E-03    -54.6566E-03     109.826E-03    -55.1954E-03     12.9988E-03    -8.12351E+06    -52.5913E+06    -196.103E+06    -52.5945E+06    -196.100E+06    -8.12351E+06     598.986E+03         29.8913
             659     5.68005E-03     35.6296E-03     616.169E-03     604.749E-03        -2.05245     611.481E-03        -2.04816     605.148E-03    -55.0036E-03     110.133E-03    -54.9294E-03    -55.2259E-03    -54.7290E-03     109.933E-03    -55.2259E-03     11.4608E-03    -16.6406E+06    -59.0574E+06    -221.949E+06    -59.0637E+06    -221.943E+06    -16.6406E+06     1.00166E+06         29.4658
             660     4.73333E-03     35.6180E-03     623.116E-03     602.541E-03        -2.05751     608.302E-03        -2.04442     604.266E-03     97.7407E-03     110.215E-03    -54.9792E-03    -55.2425E-03    -54.8329E-03     110.068E-03    -55.2425E-03     9.79447E-03    -28.1080E+06    -66.1168E+06    -241.940E+06    -66.1202E+06    -241.937E+06    -28.1080E+06     570.837E+03         29.1293
             661     3.78642E-03     35.6086E-03     640.790E-03     601.388E-03        -2.07242     609.176E-03        -2.04253     603.114E-03    -100.797E-03     110.241E-03    -55.0339E-03    -55.2165E-03    -54.9336E-03     110.141E-03    -55.2165E-03     8.09148E-03    -42.5833E+06    -73.9309E+06    -256.235E+06    -73.9321E+06    -256.234E+06    -42.5833E+06    -90.9295E+03         28.8721
             662     2.83993E-03     35.6007E-03     687.567E-03     602.823E-03        -2.11793     599.737E-03        -2.03010     602.823E-03     272.884E-03     110.244E-03    -55.0717E-03    -55.1776E-03    -55.0113E-03     110.184E-03    -55.1776E-03     6.24340E-03    -60.0845E+06    -81.3649E+06    -268.235E+06    -81.3682E+06    -268.232E+06    -60.0845E+06     184.689E+03         28.6809
             663     1.89321E-03     35.5951E-03     869.075E-03     605.236E-03        -2.30425     597.360E-03        -2.03254     605.236E-03    -517.252E-03     110.134E-03    -54.9909E-03    -55.1409E-03    -54.9617E-03     110.105E-03    -55.1409E-03     4.26826E-03    -76.9544E+06    -87.0751E+06    -276.188E+06    -87.0786E+06    -276.185E+06    -76.9544E+06     594.000E+03         28.5480
             664     946.448E-06     35.5916E-03         1.41174         1.08607        -3.32125     128.076E-03        -2.03758         1.08607         1.75149     110.212E-03    -54.9005E-03    -55.3111E-03    -55.1996E-03     110.202E-03    -55.0018E-03     2.42077E-03    -88.0770E+06    -91.2866E+06    -281.476E+06    -90.9731E+06    -281.469E+06    -88.3972E+06     341.738E+03         28.4704
             665     16.1012E-03     34.8583E-03     605.455E-03     595.153E-03        -2.03030     598.586E-03        -2.03022     601.948E-03    -3.45027E-03     110.823E-03    -53.8669E-03    -57.1273E-03    -52.9998E-03     107.727E-03    -54.8985E-03     33.7516E-03     174.411E+06     122.605E+06    -7.52802E+06    -7.51674E+06     174.400E+06     122.605E+06     711.412E+03         41.7654
             666     15.1527E-03     34.7877E-03     604.055E-03     594.324E-03        -2.03397     595.867E-03        -2.03388     602.417E-03     8.57554E-03     111.919E-03    -54.7908E-03    -57.2344E-03    -53.2682E-03     107.952E-03    -54.7908E-03     49.0651E-03     171.180E+06     100.244E+06    -15.3775E+06    -15.3656E+06     171.168E+06     100.244E+06     891.197E+03         39.4191
             667     14.2058E-03     34.7512E-03     604.609E-03     591.173E-03        -2.03130     592.505E-03        -2.03122     603.199E-03    -7.76386E-03     110.489E-03    -54.6391E-03    -55.9268E-03    -53.2492E-03     107.811E-03    -54.6391E-03     41.2454E-03     165.593E+06     54.7334E+06    -21.3799E+06    -21.3685E+06     165.582E+06     54.7334E+06    -734.279E+03         37.3723
             668     13.2575E-03     34.6972E-03     604.272E-03     591.341E-03        -2.02945     591.243E-03        -2.02935     604.272E-03    -2.30383E-03     110.653E-03    -54.5984E-03    -56.0757E-03    -53.2912E-03     107.869E-03    -54.5984E-03     42.2700E-03     123.128E+06     17.3681E+06    -24.8458E+06    -24.8325E+06     123.115E+06     17.3681E+06    -1.35199E+06         35.9665
             669     12.3101E-03     34.6592E-03     605.379E-03     594.705E-03        -2.03777     594.512E-03        -2.03758     605.379E-03    -16.0597E-03     110.028E-03    -54.6972E-03    -55.3393E-03    -53.6800E-03     108.369E-03    -54.6972E-03     32.8123E-03     44.1981E+06     4.64916E+06    -27.8569E+06    -27.8476E+06     43.1849E+06     5.65306E+06    -410.789E+03         34.8732
             670     11.3628E-03     34.6264E-03     606.212E-03     600.226E-03        -2.04736     599.883E-03        -2.04702     606.212E-03     6.58687E-03     109.863E-03    -54.8336E-03    -55.0838E-03    -53.9675E-03     108.749E-03    -54.8357E-03     26.8725E-03     3.56928E+06    -15.4538E+06    -41.5111E+06    -30.9680E+06    -25.9969E+06     3.56928E+06    -62.2117E+03         33.7811
             671     10.4150E-03     34.6013E-03     607.185E-03     594.087E-03        -2.04258     593.823E-03        -2.04232     607.185E-03     15.9019E-03     109.757E-03    -54.8745E-03    -54.9538E-03    -54.1321E-03     109.004E-03    -54.9434E-03     22.1315E-03     3.96026E+06    -34.1026E+06    -74.4058E+06    -34.1076E+06    -74.4008E+06     3.96026E+06    -87.7410E+03         32.7168
             672     9.46809E-03     34.5792E-03     608.549E-03     594.932E-03        -2.04425     594.700E-03        -2.04402     608.549E-03     15.4694E-03     109.843E-03    -54.8594E-03    -55.0384E-03    -54.2932E-03     109.277E-03    -55.0384E-03     19.2520E-03     3.85198E+06    -37.8313E+06    -110.936E+06    -37.8315E+06    -110.936E+06     3.85198E+06    -52.4533E+03         31.8015
             673     8.52082E-03     34.5598E-03     611.651E-03     600.532E-03        -2.05160     602.103E-03        -2.05123     609.705E-03     34.1288E-03     109.916E-03    -54.8496E-03    -55.0882E-03    -54.4028E-03     109.469E-03    -55.0882E-03     17.0966E-03     559.045E+03    -42.4484E+06    -141.441E+06    -42.4485E+06    -141.441E+06     559.045E+03    -38.5357E+03         31.0418
             674     7.57391E-03     34.5424E-03     612.582E-03     601.830E-03        -2.05507     603.291E-03        -2.05459     610.636E-03    -30.3805E-03     110.002E-03    -54.8629E-03    -55.1404E-03    -54.5269E-03     109.666E-03    -55.1404E-03     14.8269E-03    -3.40429E+06    -47.5213E+06    -169.218E+06    -47.5215E+06    -169.217E+06    -3.40429E+06     4.51782E+03         30.4125
             675     6.62692E-03     34.5281E-03     611.826E-03     608.280E-03        -2.05911     607.142E-03        -2.05762     611.474E-03     39.4756E-03     110.103E-03    -54.9231E-03    -55.2003E-03    -54.6666E-03     109.846E-03    -55.2003E-03     12.9796E-03    -7.91448E+06    -53.1821E+06    -196.608E+06    -53.1835E+06    -196.607E+06    -7.91448E+06     304.718E+03         29.8929
             676     5.68009E-03     34.5143E-03     623.169E-03     610.962E-03        -2.07154     616.837E-03        -2.06566     611.409E-03    -79.6565E-03     110.149E-03    -54.9446E-03    -55.2250E-03    -54.7444E-03     109.948E-03    -55.2250E-03     11.4633E-03    -17.0520E+06    -59.5053E+06    -222.091E+06    -59.5085E+06    -222.088E+06    -17.0520E+06     623.655E+03         29.4678
             677     4.73317E-03     34.5032E-03     643.877E-03     609.283E-03        -2.08836     626.723E-03        -2.07121     609.283E-03     102.403E-03     110.180E-03    -54.9456E-03    -55.2397E-03    -54.7969E-03     110.032E-03    -55.2397E-03     9.87197E-03    -29.4425E+06    -66.2956E+06    -241.042E+06    -66.2983E+06    -241.039E+06    -29.4425E+06     462.499E+03         29.1309
             678     3.78650E-03     34.4928E-03     668.662E-03     605.001E-03        -2.10546     625.799E-03        -2.06260     605.001E-03    -142.635E-03     110.209E-03    -54.9874E-03    -55.2291E-03    -54.8847E-03     110.106E-03    -55.2291E-03     8.18999E-03    -43.7006E+06    -73.7037E+06    -255.776E+06    -73.7047E+06    -255.775E+06    -43.7006E+06     142.100E+03         28.8732
             679     2.83973E-03     34.4855E-03     718.956E-03     601.375E-03        -2.15063     607.907E-03        -2.03958     601.375E-03     265.620E-03     110.267E-03    -55.0552E-03    -55.2178E-03    -54.9934E-03     110.205E-03    -55.2178E-03     6.30571E-03    -59.4591E+06    -81.1520E+06    -268.418E+06    -81.1524E+06    -268.417E+06    -59.4591E+06    -52.2946E+03         28.6822
             680     1.89311E-03     34.4797E-03     935.735E-03     601.974E-03        -2.36670     595.435E-03        -2.02640     601.974E-03    -607.827E-03     110.294E-03    -55.0878E-03    -55.2060E-03    -55.0999E-03     110.265E-03    -55.1643E-03     4.30869E-03    -75.2838E+06    -87.2463E+06    -276.102E+06    -87.2464E+06    -276.102E+06    -75.2838E+06    -34.3709E+03         28.5494
             681     946.672E-06     34.4761E-03         1.56961         1.13580        -3.53207     71.1947E-03        -2.03365         1.13580         1.89456     110.179E-03    -54.9678E-03    -55.2098E-03    -55.1828E-03     110.168E-03    -54.9838E-03     2.59403E-03    -87.6968E+06    -91.5101E+06    -280.859E+06    -91.0546E+06    -280.855E+06    -88.1556E+06     445.678E+03         28.4706
             682     16.1010E-03     33.7440E-03     608.069E-03     591.350E-03        -2.04841     594.405E-03        -2.04818     604.790E-03     36.0726E-03     111.087E-03    -53.8716E-03    -57.3169E-03    -53.1461E-03     107.945E-03    -54.8999E-03     33.7758E-03     173.518E+06     122.470E+06    -7.55375E+06    -7.53985E+06     173.504E+06     122.470E+06     623.255E+03         41.7412
             683     15.1534E-03     33.6714E-03     605.962E-03     581.465E-03        -2.03976     581.292E-03        -2.03958     605.962E-03     41.7344E-03     112.053E-03    -54.7435E-03    -57.3595E-03    -53.3337E-03     108.071E-03    -54.7869E-03     49.0568E-03     172.067E+06     101.565E+06    -13.5599E+06    -13.5471E+06     172.054E+06     101.565E+06     142.066E+03         39.4020
             684     14.2056E-03     33.6357E-03     607.799E-03     579.835E-03        -2.03690     579.763E-03        -2.03683     607.799E-03     17.7531E-03     110.410E-03    -54.5833E-03    -55.9066E-03    -53.2284E-03     107.776E-03    -54.6267E-03     40.8533E-03     167.318E+06     55.0025E+06    -19.3415E+06    -19.3298E+06     167.306E+06     55.0025E+06    -539.220E+03         37.3616
             685     13.2578E-03     33.5833E-03     609.372E-03     595.798E-03        -2.04840     595.702E-03        -2.04831     609.372E-03     21.0242E-03     110.586E-03    -54.5901E-03    -56.0193E-03    -53.2203E-03     107.787E-03    -54.5901E-03     42.4120E-03     122.591E+06     16.0792E+06    -24.9411E+06    -24.9289E+06     122.579E+06     16.0792E+06    -223.539E+03         35.9576
             686     12.3097E-03     33.5426E-03     610.223E-03     605.030E-03        -2.05662     604.597E-03        -2.05618     610.223E-03    -10.4715E-03     109.888E-03    -54.7065E-03    -55.1877E-03    -53.4942E-03     108.194E-03    -54.7065E-03     33.1084E-03     43.5351E+06     4.51055E+06    -28.8909E+06    -28.8714E+06     42.6182E+06     5.40800E+06    -186.776E+03         34.8653
             687     11.3621E-03     33.5122E-03     610.837E-03     604.975E-03        -2.05850     604.337E-03        -2.05786     610.837E-03     5.43693E-03     109.934E-03    -54.8475E-03    -55.1403E-03    -54.0113E-03     108.807E-03    -54.8495E-03     27.0252E-03     3.44006E+06    -15.3103E+06    -42.2834E+06    -31.4912E+06    -26.1025E+06     3.44006E+06    -285.176E+03         33.7775
             688     10.4153E-03     33.4855E-03     611.752E-03     606.200E-03        -2.06146     606.019E-03        -2.06099     611.466E-03     10.5039E-03     109.860E-03    -54.8665E-03    -55.0659E-03    -54.2385E-03     109.118E-03    -54.9514E-03     21.9713E-03     3.94280E+06    -34.0618E+06    -74.7706E+06    -34.0675E+06    -74.7648E+06     3.94280E+06    -219.707E+03         32.7175
             689     9.46789E-03     33.4644E-03     612.374E-03     606.440E-03        -2.06415     606.516E-03        -2.06394     612.089E-03    -14.4234E-03     109.836E-03    -54.8439E-03    -55.0450E-03    -54.2820E-03     109.274E-03    -55.0450E-03     19.1942E-03     4.03604E+06    -38.0275E+06    -110.991E+06    -38.0292E+06    -110.989E+06     4.03604E+06    -56.4145E+03         31.8038
             690     8.52096E-03     33.4440E-03     613.477E-03     595.329E-03        -2.05625     595.074E-03        -2.05600     613.477E-03     24.0479E-03     109.925E-03    -54.8480E-03    -55.0963E-03    -54.3980E-03     109.475E-03    -55.0963E-03     17.1372E-03     959.716E+03    -42.5212E+06    -141.052E+06    -42.5217E+06    -141.051E+06     959.716E+03    -60.6282E+03         31.0435
             691     7.57375E-03     33.4277E-03     615.679E-03     599.501E-03        -2.05923     598.466E-03        -2.05818     615.655E-03    -55.3743E-03     110.006E-03    -54.8611E-03    -55.1477E-03    -54.5233E-03     109.668E-03    -55.1477E-03     14.8871E-03    -3.23935E+06    -47.5891E+06    -169.171E+06    -47.5898E+06    -169.170E+06    -3.23935E+06    -44.6566E+03         30.4132
             692     6.62686E-03     33.4122E-03     623.967E-03     614.259E-03        -2.08008     618.475E-03        -2.07700     616.669E-03     42.9206E-03     110.097E-03    -54.9111E-03    -55.2089E-03    -54.6491E-03     109.835E-03    -55.2089E-03     13.1013E-03    -7.96146E+06    -53.7900E+06    -196.819E+06    -53.7920E+06    -196.817E+06    -7.96146E+06    -26.8062E+03         29.8937
             693     5.68004E-03     33.3994E-03     629.314E-03     613.514E-03        -2.08574     618.724E-03        -2.07803     616.390E-03    -62.6249E-03     110.157E-03    -54.9405E-03    -55.2394E-03    -54.7409E-03     109.958E-03    -55.2394E-03     11.4546E-03    -16.7153E+06    -60.4372E+06    -222.241E+06    -60.4394E+06    -222.239E+06    -16.7153E+06     98.9768E+03         29.4699
             694     4.73319E-03     33.3875E-03     637.226E-03     612.120E-03        -2.09182     613.315E-03        -2.07236     616.571E-03     103.838E-03     110.192E-03    -54.9486E-03    -55.2467E-03    -54.7985E-03     110.042E-03    -55.2467E-03     9.91192E-03    -30.9939E+06    -67.4327E+06    -240.958E+06    -67.4343E+06    -240.957E+06    -30.9939E+06     469.905E+03         29.1333
             695     3.78631E-03     33.3782E-03     664.393E-03     615.595E-03        -2.12074     612.653E-03        -2.07102     617.617E-03    -167.071E-03     110.195E-03    -54.9646E-03    -55.2377E-03    -54.8627E-03     110.094E-03    -55.2377E-03     8.14781E-03    -45.6977E+06    -74.4482E+06    -255.304E+06    -74.4492E+06    -255.303E+06    -45.6977E+06     174.994E+03         28.8756
             696     2.83951E-03     33.3700E-03     731.628E-03     620.121E-03        -2.18747     609.673E-03        -2.06551     620.121E-03     256.375E-03     110.282E-03    -55.0536E-03    -55.2396E-03    -54.9925E-03     110.221E-03    -55.2396E-03     6.27602E-03    -60.5938E+06    -81.4995E+06    -268.196E+06    -81.5035E+06    -268.192E+06    -60.5938E+06    -562.749E+03         28.6851
             697     1.89304E-03     33.3645E-03         1.00188     621.299E-03        -2.45635     624.158E-03        -2.07863     621.299E-03    -691.449E-03     110.365E-03    -55.1339E-03    -55.2326E-03    -55.1495E-03     110.335E-03    -55.1873E-03     4.31975E-03    -76.3452E+06    -87.7661E+06    -276.351E+06    -87.7704E+06    -276.346E+06    -76.3452E+06    -619.455E+03         28.5531
             698     946.669E-06     33.3605E-03         1.70241         1.16234        -3.69347     78.8741E-03        -2.06993         1.16234         1.96564     110.220E-03    -54.9962E-03    -55.2243E-03    -55.2147E-03     110.211E-03    -54.9962E-03     2.30017E-03    -87.6850E+06    -91.4350E+06    -280.746E+06    -91.2970E+06    -280.746E+06    -87.8235E+06    -25.7303E+03         28.4739
             699     16.1012E-03     32.6278E-03     607.606E-03     572.765E-03        -2.03566     572.335E-03        -2.03523     607.606E-03    -3.20156E-03     111.136E-03    -53.9939E-03    -57.2730E-03    -53.2202E-03     107.984E-03    -54.8955E-03     33.9433E-03     174.384E+06     122.639E+06    -7.29624E+06    -7.29298E+06     174.381E+06     122.639E+06         830.873         41.7129
             700     15.1537E-03     32.5563E-03     609.768E-03     580.458E-03        -2.04364     580.264E-03        -2.04344     609.768E-03     9.06257E-03     111.869E-03    -54.7338E-03    -57.2118E-03    -53.1506E-03     107.851E-03    -54.7772E-03     49.3171E-03     172.133E+06     100.334E+06    -14.7135E+06    -14.7095E+06     172.129E+06     100.334E+06    -771.020E+03         39.3812
             701     14.2052E-03     32.5210E-03     611.631E-03     589.558E-03        -2.05437     589.495E-03        -2.05430     611.631E-03     1.18826E-03     110.355E-03    -54.5861E-03    -55.8673E-03    -53.1977E-03     107.729E-03    -54.6295E-03     40.8719E-03     166.013E+06     54.5432E+06    -20.8601E+06    -20.8496E+06     166.002E+06     54.5432E+06     307.149E+03         37.3522
             702     13.2579E-03     32.4674E-03     613.198E-03     594.548E-03        -2.05749     594.458E-03        -2.05740     613.198E-03     12.0857E-03     110.639E-03    -54.5971E-03    -56.0686E-03    -53.3158E-03     107.886E-03    -54.5971E-03     42.0979E-03     123.183E+06     17.3234E+06    -24.7960E+06    -24.7875E+06     123.174E+06     17.3234E+06     990.044E+03         35.9550
             703     12.3097E-03     32.4294E-03     614.609E-03     599.722E-03        -2.06083     599.286E-03        -2.06040     614.609E-03    -18.5907E-03     109.860E-03    -54.7071E-03    -55.1605E-03    -53.4731E-03     108.172E-03    -54.7071E-03     33.0564E-03     44.7806E+06     4.88454E+06    -27.5926E+06    -27.5770E+06     43.3928E+06     6.25685E+06    -215.749E+03         34.8609
             704     11.3621E-03     32.3954E-03     615.772E-03     605.953E-03        -2.06791     605.415E-03        -2.06738     615.772E-03    -7.90278E-03     109.867E-03    -54.7918E-03    -55.1332E-03    -53.9455E-03     108.744E-03    -54.8561E-03     26.9584E-03     4.06359E+06    -15.2934E+06    -41.4267E+06    -30.7121E+06    -26.0080E+06     4.06359E+06    -437.309E+03         33.7720
             705     10.4153E-03     32.3707E-03     616.868E-03     611.115E-03        -2.07800     611.007E-03        -2.07761     616.583E-03    -3.31228E-03     109.851E-03    -54.8249E-03    -55.0968E-03    -54.2163E-03     109.107E-03    -54.9610E-03     22.0176E-03     3.72884E+06    -34.3675E+06    -75.1878E+06    -34.3713E+06    -75.1840E+06     3.72884E+06    -204.595E+03         32.7152
             706     9.46794E-03     32.3491E-03     617.473E-03     612.313E-03        -2.07987     612.322E-03        -2.07959     617.188E-03    -16.2436E-03     109.900E-03    -54.8774E-03    -55.0743E-03    -54.3302E-03     109.331E-03    -55.0530E-03     19.3040E-03     3.96544E+06    -37.9753E+06    -111.294E+06    -37.9773E+06    -111.292E+06     3.96544E+06    -160.497E+03         31.8043
             707     8.52072E-03     32.3291E-03     620.682E-03     606.603E-03        -2.07403     609.024E-03        -2.07379     618.016E-03     45.5189E-03     109.937E-03    -54.8531E-03    -55.1039E-03    -54.4041E-03     109.489E-03    -55.1039E-03     17.1234E-03     1.24784E+06    -42.2857E+06    -140.913E+06    -42.2870E+06    -140.911E+06     1.24784E+06      6.5355E+03         31.0450
             708     7.57384E-03     32.3122E-03     621.691E-03     610.583E-03        -2.08162     611.941E-03        -2.08029     619.002E-03    -50.8432E-03     110.001E-03    -54.8468E-03    -55.1562E-03    -54.5090E-03     109.663E-03    -55.1562E-03     14.8809E-03    -3.17807E+06    -47.4895E+06    -169.421E+06    -47.4910E+06    -169.420E+06    -3.17807E+06     23.2230E+03         30.4145
             709     6.62673E-03     32.2971E-03     629.707E-03     618.724E-03        -2.10060     625.252E-03        -2.09643     619.010E-03     50.0480E-03     110.082E-03    -54.8867E-03    -55.2174E-03    -54.6246E-03     109.820E-03    -55.2174E-03     13.1075E-03    -8.23886E+06    -53.5002E+06    -196.592E+06    -53.5023E+06    -196.590E+06    -8.23886E+06    -165.147E+03         29.8951
             710     5.67985E-03     32.2839E-03     629.785E-03     609.828E-03        -2.09401     612.722E-03        -2.08623     619.111E-03    -30.5481E-03     110.189E-03    -54.9546E-03    -55.2583E-03    -54.7567E-03     109.991E-03    -55.2583E-03     11.3955E-03    -15.8610E+06    -60.2870E+06    -222.337E+06    -60.2902E+06    -222.334E+06    -15.8610E+06    -231.204E+03         29.4718
             711     4.73311E-03     32.2726E-03     623.494E-03     604.009E-03        -2.08421     585.378E-03        -2.06558     623.494E-03     112.695E-03     110.255E-03    -54.9956E-03    -55.2658E-03    -54.8484E-03     110.108E-03    -55.2658E-03     9.82948E-03    -29.2226E+06    -67.8113E+06    -241.297E+06    -67.8151E+06    -241.293E+06    -29.2226E+06     291.510E+03         29.1360
             712     3.78638E-03     32.2622E-03     664.692E-03     620.151E-03        -2.13778     606.442E-03        -2.08973     630.353E-03    -166.689E-03     110.237E-03    -55.0190E-03    -55.2286E-03    -54.9193E-03     110.137E-03    -55.2286E-03     8.05114E-03    -46.7081E+06    -75.5589E+06    -254.746E+06    -75.5608E+06    -254.745E+06    -46.7081E+06     353.902E+03         28.8790
             713     2.83979E-03     32.2550E-03     758.098E-03     635.478E-03        -2.24202     622.957E-03        -2.10688     635.478E-03     327.919E-03     110.252E-03    -55.0563E-03    -55.2075E-03    -54.9973E-03     110.192E-03    -55.2075E-03     6.19039E-03    -63.6730E+06    -82.4291E+06    -267.316E+06    -82.4330E+06    -267.312E+06    -63.6730E+06    -443.475E+03         28.6886
             714     1.89306E-03     32.2485E-03         1.04822     637.388E-03        -2.52798     638.158E-03        -2.11792     637.388E-03    -686.817E-03     110.252E-03    -55.0582E-03    -55.1920E-03    -55.0322E-03     110.223E-03    -55.1884E-03     4.29280E-03    -78.8754E+06    -88.0666E+06    -276.796E+06    -88.0726E+06    -276.790E+06    -78.8754E+06    -863.290E+03         28.5566
             715     946.447E-06     32.2458E-03         1.86030         1.17108        -3.86552     102.920E-03        -2.10814         1.17108         2.16301     110.305E-03    -54.9380E-03    -55.3649E-03    -55.3019E-03     110.296E-03    -54.9916E-03     2.29400E-03    -89.0663E+06    -92.3095E+06    -281.870E+06    -92.3180E+06    -281.862E+06    -89.0663E+06    -879.664E+03         28.4787
             716     16.1016E-03     31.5123E-03     613.472E-03     579.330E-03        -2.05155     579.000E-03        -2.05122     613.472E-03    -56.0868E-03     110.882E-03    -54.0296E-03    -57.0107E-03    -52.9898E-03     107.729E-03    -54.8982E-03     33.8851E-03     175.137E+06     123.003E+06    -7.82544E+06    -7.82448E+06     175.136E+06     123.003E+06     189.986E+03         41.6805
             717     15.1526E-03     31.4420E-03     615.339E-03     596.755E-03        -2.06995     596.611E-03        -2.06980     615.339E-03    -33.2899E-03     111.802E-03    -54.7956E-03    -57.0543E-03    -52.9873E-03     107.735E-03    -54.7956E-03     49.7121E-03     172.067E+06     99.9537E+06    -16.2356E+06    -16.2327E+06     172.064E+06     99.9537E+06     34.3389E+03         39.3538
             718     14.2054E-03     31.4042E-03     616.394E-03     610.192E-03        -2.08486     610.163E-03        -2.08483     616.394E-03    -16.1726E-03     110.550E-03    -54.6538E-03    -55.9540E-03    -53.3325E-03     107.928E-03    -54.6538E-03     41.0030E-03     164.691E+06     54.6895E+06    -22.5881E+06    -22.5719E+06     164.674E+06     54.6895E+06    -216.483E+03         37.3392
             719     13.2575E-03     31.3534E-03     617.241E-03     604.886E-03        -2.08425     604.802E-03        -2.08417     617.241E-03     9.28996E-03     110.774E-03    -54.6067E-03    -56.2033E-03    -53.4998E-03     108.070E-03    -54.6067E-03     41.8002E-03     124.156E+06     18.4197E+06    -25.6551E+06    -25.6413E+06     124.142E+06     18.4197E+06    -76.6067E+03         35.9554
             720     12.3101E-03     31.3137E-03     618.473E-03     601.828E-03        -2.08042     601.681E-03        -2.08028     618.473E-03    -2.11696E-03     109.995E-03    -54.6964E-03    -55.3128E-03    -53.6182E-03     108.300E-03    -54.6964E-03     33.1581E-03     45.5393E+06     5.12782E+06    -27.5494E+06    -27.5485E+06     44.3307E+06     6.33556E+06     117.600E+03         34.8605
             721     11.3627E-03     31.2814E-03     619.848E-03     604.719E-03        -2.08371     604.500E-03        -2.08349     619.848E-03     5.02845E-03     109.699E-03    -54.7418E-03    -55.0212E-03    -53.7882E-03     108.571E-03    -54.8474E-03     26.9794E-03     3.91836E+06    -15.1741E+06    -41.5927E+06    -30.3558E+06    -26.4110E+06     3.91836E+06    -153.936E+03         33.7666
             722     10.4145E-03     31.2551E-03     620.983E-03     611.937E-03        -2.09112     611.713E-03        -2.09090     620.983E-03     6.96815E-03     109.701E-03    -54.7880E-03    -54.9891E-03    -54.0649E-03     108.956E-03    -54.9678E-03     21.9937E-03     3.88360E+06    -33.8832E+06    -75.2815E+06    -33.8867E+06    -75.2779E+06     3.88360E+06    -264.527E+03         32.7103
             723     9.46776E-03     31.2335E-03     621.668E-03     617.965E-03        -2.09398     617.777E-03        -2.09379     621.668E-03     3.32120E-03     109.946E-03    -54.9076E-03    -55.0858E-03    -54.3655E-03     109.383E-03    -55.0645E-03     19.2194E-03     4.05839E+06    -37.6846E+06    -111.303E+06    -37.6856E+06    -111.302E+06     4.05839E+06    -175.126E+03         31.8024
             724     8.52092E-03     31.2141E-03     627.841E-03     620.860E-03        -2.10009     626.815E-03        -2.09984     621.635E-03     47.9962E-03     110.014E-03    -54.9195E-03    -55.1114E-03    -54.4709E-03     109.566E-03    -55.1114E-03     17.1374E-03     1.33936E+06    -42.0931E+06    -141.036E+06    -42.0940E+06    -141.035E+06     1.33936E+06    -17.4043E+03         31.0460
             725     7.57365E-03     31.1969E-03     627.387E-03     620.235E-03        -2.10245     624.629E-03        -2.10064     621.181E-03    -67.7834E-03     110.065E-03    -54.9086E-03    -55.1571E-03    -54.5733E-03     109.729E-03    -55.1571E-03     14.8159E-03    -2.87216E+06    -47.0856E+06    -169.172E+06    -47.0867E+06    -169.171E+06    -2.87216E+06    -122.358E+03         30.4164
             726     6.62680E-03     31.1820E-03     625.659E-03     605.592E-03        -2.09330     604.976E-03        -2.08928     622.259E-03     17.2079E-03     110.090E-03    -54.8971E-03    -55.2133E-03    -54.6431E-03     109.836E-03    -55.2133E-03     12.9122E-03    -7.67053E+06    -52.7986E+06    -196.350E+06    -52.7995E+06    -196.349E+06    -7.67053E+06    -244.776E+03         29.8965
             727     5.67986E-03     31.1686E-03     635.676E-03     602.658E-03        -2.10029     605.450E-03        -2.09264     625.232E-03    -59.1050E-03     110.160E-03    -54.9290E-03    -55.2547E-03    -54.7350E-03     109.966E-03    -55.2547E-03     11.2770E-03    -15.5025E+06    -60.0120E+06    -222.782E+06    -60.0141E+06    -222.780E+06    -15.5025E+06    -139.275E+03         29.4729
             728     4.73318E-03     31.1571E-03     649.411E-03     613.407E-03        -2.12235     613.635E-03        -2.10161     628.441E-03     120.476E-03     110.261E-03    -54.9992E-03    -55.2670E-03    -54.8549E-03     110.116E-03    -55.2670E-03     9.73732E-03    -28.2101E+06    -68.0729E+06    -241.754E+06    -68.0764E+06    -241.750E+06    -28.2101E+06     195.142E+03         29.1375
             729     3.78646E-03     31.1472E-03     676.260E-03     623.814E-03        -2.16029     615.487E-03        -2.10770     631.994E-03    -166.432E-03     110.244E-03    -55.0321E-03    -55.2194E-03    -54.9306E-03     110.142E-03    -55.2194E-03     8.13548E-03    -46.4197E+06    -75.7212E+06    -254.030E+06    -75.7239E+06    -254.027E+06    -46.4197E+06     511.421E+03         28.8811
             730     2.83982E-03     31.1394E-03     786.360E-03     633.265E-03        -2.27625     637.776E-03        -2.12766     633.265E-03     363.179E-03     110.233E-03    -55.0546E-03    -55.1857E-03    -54.9935E-03     110.172E-03    -55.1857E-03     6.27956E-03    -64.9552E+06    -82.5435E+06    -266.411E+06    -82.5447E+06    -266.410E+06    -64.9552E+06     194.073E+03         28.6907
             731     1.89313E-03     31.1339E-03         1.09350     626.390E-03        -2.57823     650.651E-03        -2.13538     626.390E-03    -689.796E-03     110.223E-03    -55.0439E-03    -55.1749E-03    -55.0138E-03     110.193E-03    -55.1749E-03     4.35065E-03    -79.3034E+06    -87.6759E+06    -277.247E+06    -87.6778E+06    -277.245E+06    -79.3034E+06    -380.546E+03         28.5582
             732     946.347E-06     31.1297E-03         1.97440         1.16431        -4.00024     75.8749E-03        -2.10171         1.16431         2.33334     110.295E-03    -54.9607E-03    -55.3317E-03    -55.2537E-03     110.285E-03    -55.0286E-03     2.36760E-03    -88.7266E+06    -92.6607E+06    -282.878E+06    -91.6455E+06    -282.869E+06    -89.7508E+06    -674.518E+03         28.4806
             733     16.1011E-03     30.3982E-03     619.068E-03     604.674E-03        -2.09258     604.498E-03        -2.09240     619.068E-03    -6.38383E-03     110.803E-03    -53.9070E-03    -57.0179E-03    -52.9017E-03     107.685E-03    -54.9051E-03     33.5778E-03     174.679E+06     123.200E+06    -7.47227E+06    -7.46808E+06     174.675E+06     123.200E+06     650.752E+03         41.6505
             734     15.1529E-03     30.3266E-03     620.095E-03     605.307E-03        -2.09260     605.194E-03        -2.09248     620.095E-03    -6.97960E-03     111.800E-03    -54.7830E-03    -57.0145E-03    -52.9192E-03     107.735E-03    -54.8127E-03     49.8335E-03     172.620E+06     100.818E+06    -14.8600E+06    -14.8553E+06     172.615E+06     100.818E+06     766.287E+03         39.3271
             735     14.2048E-03     30.2885E-03     621.072E-03     610.678E-03        -2.09456     610.608E-03        -2.09449     621.072E-03    -2.92216E-03     110.608E-03    -54.6404E-03    -55.9805E-03    -53.3281E-03     107.985E-03    -54.6701E-03     41.0973E-03     164.941E+06     54.7854E+06    -21.5249E+06    -21.5150E+06     164.931E+06     54.7854E+06    -419.479E+03         37.3238
             736     13.2576E-03     30.2380E-03     621.879E-03     617.766E-03        -2.09985     617.858E-03        -2.09980     621.736E-03     3.91180E-03     110.911E-03    -54.6138E-03    -56.3385E-03    -53.6645E-03     108.237E-03    -54.6138E-03     41.6361E-03     124.490E+06     18.1747E+06    -25.7945E+06    -25.7813E+06     124.477E+06     18.1747E+06    -933.660E+03         35.9547
             737     12.3100E-03     30.1984E-03     622.550E-03     616.978E-03        -2.10063     617.149E-03        -2.10049     622.238E-03    -11.0941E-03     110.061E-03    -54.6958E-03    -55.3892E-03    -53.6929E-03     108.364E-03    -54.6958E-03     33.1905E-03     45.6908E+06     5.05425E+06    -28.5211E+06    -28.5147E+06     44.7132E+06     6.02544E+06    -299.749E+03         34.8638
             738     11.3622E-03     30.1664E-03     623.216E-03     611.213E-03        -2.09522     611.196E-03        -2.09503     623.047E-03    -3.42080E-03     109.800E-03    -54.7974E-03    -55.0612E-03    -53.8917E-03     108.672E-03    -54.8388E-03     27.0022E-03     3.35645E+06    -15.5497E+06    -42.2749E+06    -31.0996E+06    -26.7250E+06     3.35645E+06    -169.286E+03         33.7657
             739     10.4156E-03     30.1401E-03     624.301E-03     609.547E-03        -2.09316     609.406E-03        -2.09302     624.301E-03     4.21159E-03     109.642E-03    -54.7265E-03    -54.9907E-03    -54.0170E-03     108.900E-03    -54.9582E-03     21.9502E-03     4.01640E+06    -33.8135E+06    -75.1334E+06    -33.8153E+06    -75.1316E+06     4.01640E+06    -196.812E+03         32.7066
             740     9.46758E-03     30.1181E-03     630.053E-03     617.825E-03        -2.10574     622.527E-03        -2.10557     625.179E-03    -9.97468E-03     109.807E-03    -54.7954E-03    -55.0610E-03    -54.2355E-03     109.247E-03    -55.0610E-03     19.1442E-03     4.07356E+06    -37.3459E+06    -111.419E+06    -37.3472E+06    -111.418E+06     4.07356E+06    -201.137E+03         31.7990
             741     8.52048E-03     30.0986E-03     635.223E-03     624.584E-03        -2.11860     634.639E-03        -2.11826     624.825E-03     42.0004E-03     110.075E-03    -54.9842E-03    -55.1087E-03    -54.5441E-03     109.635E-03    -55.1087E-03     16.9671E-03     1.41972E+06    -41.7941E+06    -141.187E+06    -41.7953E+06    -141.185E+06     1.41972E+06    -282.091E+03         31.0445
             742     7.57394E-03     30.0814E-03     630.016E-03     618.056E-03        -2.10977     621.883E-03        -2.10807     624.493E-03    -50.0446E-03     110.095E-03    -54.9493E-03    -55.1483E-03    -54.6204E-03     109.766E-03    -55.1483E-03     14.6885E-03    -2.52075E+06    -47.0524E+06    -168.666E+06    -47.0532E+06    -168.665E+06    -2.52075E+06    -192.915E+03         30.4164
             743     6.62702E-03     30.0665E-03     626.742E-03     603.640E-03        -2.09163     598.157E-03        -2.08615     626.742E-03     53.2876E-03     110.068E-03    -54.8894E-03    -55.2011E-03    -54.6335E-03     109.812E-03    -55.2011E-03     12.9606E-03    -7.83357E+06    -53.2982E+06    -196.462E+06    -53.2987E+06    -196.462E+06    -7.83357E+06    -143.408E+03         29.8965
             744     5.68012E-03     30.0534E-03     638.593E-03     613.773E-03        -2.11296     610.899E-03        -2.10193     630.439E-03    -57.6302E-03     110.135E-03    -54.9222E-03    -55.2381E-03    -54.7239E-03     109.936E-03    -55.2381E-03     11.4053E-03    -16.4973E+06    -60.0262E+06    -223.169E+06    -60.0273E+06    -223.168E+06    -16.4973E+06    -93.2157E+03         29.4724
             745     4.73314E-03     30.0419E-03     670.260E-03     630.793E-03        -2.16111     643.601E-03        -2.13445     630.793E-03     136.689E-03     110.220E-03    -54.9697E-03    -55.2569E-03    -54.8232E-03     110.073E-03    -55.2569E-03     9.79867E-03    -28.3087E+06    -66.9629E+06    -242.075E+06    -66.9638E+06    -242.074E+06    -28.3087E+06     37.4662E+03         29.1369
             746     3.78642E-03     30.0320E-03     698.093E-03     628.871E-03        -2.18331     633.988E-03        -2.11921     628.871E-03    -164.530E-03     110.225E-03    -54.9923E-03    -55.2336E-03    -54.8913E-03     110.124E-03    -55.2336E-03     8.12420E-03    -43.2450E+06    -74.2718E+06    -253.971E+06    -74.2729E+06    -253.970E+06    -43.2450E+06     256.398E+03         28.8809
             747     2.83959E-03     30.0243E-03     784.354E-03     627.700E-03        -2.27280     630.815E-03        -2.11927     627.700E-03     311.478E-03     110.267E-03    -55.0706E-03    -55.2020E-03    -55.0100E-03     110.207E-03    -55.2020E-03     6.24449E-03    -61.5429E+06    -81.0108E+06    -265.802E+06    -81.0119E+06    -265.801E+06    -61.5429E+06     233.250E+03         28.6909
             748     1.89309E-03     30.0186E-03         1.08594     623.505E-03        -2.57837     638.221E-03        -2.13065     623.505E-03    -714.157E-03     110.277E-03    -55.1134E-03    -55.1655E-03    -55.0991E-03     110.248E-03    -55.1510E-03     4.27121E-03    -77.7058E+06    -86.8640E+06    -277.191E+06    -86.8644E+06    -277.191E+06    -77.7058E+06     71.2423E+03         28.5578
             749     946.718E-06     30.0148E-03         1.97115         1.18258        -4.02064     57.0890E-03        -2.10658         1.18258         2.33585     110.184E-03    -55.0126E-03    -55.1740E-03    -55.1492E-03     110.173E-03    -55.0268E-03     2.45343E-03    -87.4303E+06    -92.0340E+06    -283.407E+06    -91.0127E+06    -283.404E+06    -88.4545E+06     568.510E+03         28.4781
             750     16.1010E-03     29.2820E-03     621.929E-03     613.012E-03        -2.10217     612.906E-03        -2.10206     621.929E-03     18.7950E-03     110.920E-03    -53.9118E-03    -57.1160E-03    -53.0766E-03     107.876E-03    -54.9070E-03     33.4472E-03     174.287E+06     122.847E+06    -7.24525E+06    -7.24052E+06     174.283E+06     122.847E+06     286.962E+03         41.6240
             751     15.1531E-03     29.2124E-03     622.833E-03     605.346E-03        -2.09372     605.260E-03        -2.09364     622.833E-03     17.8253E-03     111.751E-03    -54.7372E-03    -57.0114E-03    -52.9549E-03     107.760E-03    -54.8024E-03     49.4746E-03     172.932E+06     101.188E+06    -14.0908E+06    -14.0832E+06     172.924E+06     101.188E+06     599.455E+03         39.3054
             752     14.2048E-03     29.1729E-03     624.502E-03     594.459E-03        -2.08860     594.330E-03        -2.08847     624.502E-03     5.71146E-03     110.283E-03    -54.6051E-03    -55.7077E-03    -52.9703E-03     107.610E-03    -54.6702E-03     41.3554E-03     165.868E+06     55.2327E+06    -20.2024E+06    -20.1989E+06     165.865E+06     55.2327E+06     472.308E+03         37.3092
             753     13.2573E-03     29.1219E-03     626.364E-03     610.205E-03        -2.10209     610.286E-03        -2.10203     626.220E-03    -5.93692E-03     110.927E-03    -54.6345E-03    -56.3356E-03    -53.6129E-03     108.204E-03    -54.6345E-03     41.9578E-03     124.621E+06     17.6955E+06    -25.7454E+06    -25.7410E+06     124.616E+06     17.6955E+06    -355.678E+03         35.9510
             754     12.3100E-03     29.0839E-03     627.327E-03     625.329E-03        -2.11875     625.436E-03        -2.11854     627.015E-03    -21.8551E-03     110.361E-03    -54.7088E-03    -55.6865E-03    -53.9999E-03     108.674E-03    -54.7088E-03     33.1439E-03     45.3637E+06     4.73367E+06    -29.2019E+06    -29.1921E+06     44.6424E+06     5.44526E+06    -693.486E+03         34.8684
             755     11.3628E-03     29.0505E-03     628.251E-03     624.308E-03        -2.12125     624.968E-03        -2.12098     627.323E-03    -10.5565E-03     109.907E-03    -54.7851E-03    -55.1794E-03    -54.0098E-03     108.785E-03    -54.8329E-03     26.9631E-03     2.95104E+06    -15.5269E+06    -42.7196E+06    -31.3822E+06    -26.8643E+06     2.95104E+06    -574.234E+03         33.7697
             756     10.4151E-03     29.0250E-03     629.816E-03     619.145E-03        -2.11536     620.956E-03        -2.11520     627.844E-03    -4.48246E-06     109.724E-03    -54.7782E-03    -55.0143E-03    -54.0994E-03     108.973E-03    -54.9422E-03     22.0957E-03     3.85337E+06    -33.9851E+06    -75.3170E+06    -33.9952E+06    -75.3070E+06     3.85337E+06    -323.016E+03         32.7068
             757     9.46796E-03     29.0033E-03     634.566E-03     617.508E-03        -2.11701     623.478E-03        -2.11689     628.480E-03    -25.1575E-03     109.839E-03    -54.8161E-03    -55.0792E-03    -54.2913E-03     109.275E-03    -55.0396E-03     19.2246E-03     3.94055E+06    -37.5774E+06    -111.051E+06    -37.5783E+06    -111.050E+06     3.94055E+06    -199.397E+03         31.7962
             758     8.52108E-03     28.9825E-03     635.714E-03     621.206E-03        -2.12003     627.821E-03        -2.11979     628.856E-03     29.3467E-03     109.906E-03    -54.8449E-03    -55.0895E-03    -54.4086E-03     109.469E-03    -55.0895E-03     16.8742E-03     816.007E+03    -42.0460E+06    -141.571E+06    -42.0484E+06    -141.569E+06     816.007E+03    -456.403E+03         31.0403
             759     7.57395E-03     28.9666E-03     639.480E-03     620.718E-03        -2.12161     629.569E-03        -2.11993     628.954E-03    -52.9706E-03     109.982E-03    -54.8493E-03    -55.1423E-03    -54.5193E-03     109.652E-03    -55.1423E-03     14.7143E-03    -3.01931E+06    -47.1011E+06    -169.354E+06    -47.1028E+06    -169.353E+06    -3.01931E+06    -279.701E+03         30.4137
             760     6.62681E-03     28.9511E-03     645.541E-03     621.967E-03        -2.13104     632.577E-03        -2.12479     628.688E-03     72.9388E-03     110.064E-03    -54.8905E-03    -55.2034E-03    -54.6299E-03     109.803E-03    -55.2034E-03     13.0706E-03    -7.84469E+06    -52.8671E+06    -196.185E+06    -52.8680E+06    -196.184E+06    -7.84469E+06    -171.100E+03         29.8956
             761     5.67993E-03     28.9383E-03     638.668E-03     623.036E-03        -2.12923     619.132E-03        -2.11591     629.247E-03    -56.0579E-03     110.169E-03    -54.9606E-03    -55.2390E-03    -54.7606E-03     109.969E-03    -55.2390E-03     11.4609E-03    -16.4166E+06    -59.6612E+06    -223.333E+06    -59.6625E+06    -223.332E+06    -16.4166E+06    -245.588E+03         29.4716
             762     4.73328E-03     28.9264E-03     650.378E-03     624.019E-03        -2.14077     613.830E-03        -2.11208     631.881E-03     118.989E-03     110.247E-03    -55.0130E-03    -55.2409E-03    -54.8668E-03     110.101E-03    -55.2409E-03     9.77928E-03    -29.8107E+06    -67.2739E+06    -242.361E+06    -67.2744E+06    -242.360E+06    -29.8107E+06    -67.0249E+03         29.1365
             763     3.78642E-03     28.9168E-03     712.252E-03     629.977E-03        -2.20516     641.749E-03        -2.13725     632.574E-03    -191.908E-03     110.202E-03    -54.9997E-03    -55.2038E-03    -54.9022E-03     110.104E-03    -55.2038E-03     7.97917E-03    -45.4858E+06    -74.5904E+06    -253.727E+06    -74.5924E+06    -253.725E+06    -45.4858E+06    -288.957E+03         28.8810
             764     2.83984E-03     28.9088E-03     800.929E-03     629.508E-03        -2.29188     641.365E-03        -2.13231     629.508E-03     285.339E-03     110.227E-03    -55.0505E-03    -55.1846E-03    -54.9906E-03     110.167E-03    -55.1846E-03     6.22768E-03    -60.5337E+06    -81.2831E+06    -266.105E+06    -81.2854E+06    -266.102E+06    -60.5337E+06    -146.335E+03         28.6901
             765     1.89326E-03     28.9033E-03         1.05660     633.181E-03        -2.55459     610.717E-03        -2.10871     633.181E-03    -689.410E-03     110.238E-03    -55.0895E-03    -55.1491E-03    -55.0838E-03     110.209E-03    -55.1262E-03     4.20004E-03    -76.2596E+06    -87.5623E+06    -277.065E+06    -87.5634E+06    -277.064E+06    -76.2596E+06     419.607E+03         28.5553
             766     946.574E-06     28.8997E-03         1.91817         1.20712        -3.99926     70.2515E-03        -2.15134         1.20712         2.29650     110.101E-03    -54.9247E-03    -55.1777E-03    -55.1683E-03     110.091E-03    -54.9247E-03     2.37757E-03    -87.3326E+06    -91.7819E+06    -282.820E+06    -91.0278E+06    -282.818E+06    -88.0896E+06     428.639E+03         28.4745
             767     16.1011E-03     28.1668E-03     625.059E-03     607.141E-03        -2.10737     606.951E-03        -2.10718     625.059E-03    -25.3237E-03     111.018E-03    -53.9648E-03    -57.1986E-03    -53.1591E-03     107.924E-03    -54.9098E-03     33.8487E-03     174.773E+06     122.987E+06    -7.76958E+06    -7.76564E+06     174.769E+06     122.987E+06     295.821E+03         41.5961
             768     15.1535E-03     28.0965E-03     628.346E-03     615.616E-03        -2.11603     617.837E-03        -2.11593     626.031E-03     4.03834E-03     111.846E-03    -54.7668E-03    -57.1143E-03    -53.0674E-03     107.834E-03    -54.8023E-03     49.4888E-03     173.308E+06     101.347E+06    -15.1136E+06    -15.1058E+06     173.300E+06     101.347E+06     287.540E+03         39.2855
             769     14.2052E-03     28.0592E-03     629.711E-03     607.092E-03        -2.11179     609.696E-03        -2.11169     627.011E-03     12.0586E-03     110.216E-03    -54.6322E-03    -55.6361E-03    -52.9193E-03     107.535E-03    -54.6677E-03     41.3300E-03     165.316E+06     54.2136E+06    -21.4612E+06    -21.4553E+06     165.310E+06     54.2136E+06     518.810E+03         37.2959
             770     13.2559E-03     28.0065E-03     628.779E-03     607.019E-03        -2.11213     607.062E-03        -2.11179     628.395E-03     28.6091E-03     110.804E-03    -54.6398E-03    -56.1948E-03    -53.4729E-03     108.082E-03    -54.6398E-03     41.8253E-03     124.782E+06     17.4803E+06    -25.4714E+06    -25.4693E+06     124.780E+06     17.4803E+06     197.693E+03         35.9439
             771     12.3096E-03     27.9668E-03     630.070E-03     607.239E-03        -2.11511     606.800E-03        -2.11467     630.070E-03     16.0739E-03     110.315E-03    -54.7202E-03    -55.6266E-03    -54.0013E-03     108.690E-03    -54.7202E-03     32.5322E-03     45.8679E+06     5.73564E+06    -28.3488E+06    -28.3393E+06     45.3238E+06     6.27013E+06    -542.859E+03         34.8699
             772     11.3626E-03     27.9364E-03     632.365E-03     617.023E-03        -2.12960     617.614E-03        -2.12943     631.604E-03    -5.76052E-03     109.970E-03    -54.7910E-03    -55.2463E-03    -54.0859E-03     108.857E-03    -54.8388E-03     26.9044E-03     3.19692E+06    -14.9562E+06    -42.7937E+06    -31.1829E+06    -26.5669E+06     3.19692E+06    -708.423E+03         33.7748
             773     10.4152E-03     27.9097E-03     639.956E-03     630.614E-03        -2.14652     638.501E-03        -2.14643     631.984E-03    -5.70566E-03     109.890E-03    -54.8700E-03    -55.0851E-03    -54.2564E-03     109.126E-03    -54.9347E-03     22.2948E-03     3.32834E+06    -34.3696E+06    -75.5582E+06    -34.3822E+06    -75.5456E+06     3.32834E+06    -529.140E+03         32.7096
             774     9.46852E-03     27.8878E-03     639.195E-03     620.629E-03        -2.13226     627.779E-03        -2.13220     631.983E-03    -15.2078E-03     109.873E-03    -54.8619E-03    -55.0660E-03    -54.3306E-03     109.302E-03    -55.0264E-03     19.3459E-03     3.52120E+06    -38.0477E+06    -110.889E+06    -38.0505E+06    -110.886E+06     3.52120E+06    -389.297E+03         31.7957
             775     8.52106E-03     27.8684E-03     633.422E-03     612.725E-03        -2.11907     612.565E-03        -2.11891     633.422E-03     30.4279E-03     109.799E-03    -54.7541E-03    -55.0822E-03    -54.3028E-03     109.348E-03    -55.0822E-03     17.1575E-03     313.521E+03    -42.1389E+06    -141.728E+06    -42.1415E+06    -141.725E+06     313.521E+03    -480.836E+03         31.0381
             776     7.57370E-03     27.8513E-03     644.637E-03     625.410E-03        -2.14105     633.211E-03        -2.13897     634.754E-03    -75.5920E-03     109.972E-03    -54.8487E-03    -55.1392E-03    -54.5147E-03     109.638E-03    -55.1392E-03     14.7851E-03    -3.62208E+06    -47.0694E+06    -170.032E+06    -47.0718E+06    -170.029E+06    -3.62208E+06    -490.592E+03         30.4123
             777     6.62697E-03     27.8363E-03     656.272E-03     633.666E-03        -2.16289     651.620E-03        -2.15824     633.666E-03     19.8490E-03     110.113E-03    -54.9492E-03    -55.1968E-03    -54.6986E-03     109.863E-03    -55.1968E-03     12.8182E-03    -7.97733E+06    -52.9979E+06    -196.266E+06    -52.9997E+06    -196.264E+06    -7.97733E+06    -321.777E+03         29.8954
             778     5.68006E-03     27.8230E-03     649.671E-03     627.067E-03        -2.15081     634.244E-03        -2.14065     632.333E-03    -77.2546E-03     110.163E-03    -54.9668E-03    -55.2261E-03    -54.7752E-03     109.972E-03    -55.2261E-03     11.2208E-03    -16.0272E+06    -60.3350E+06    -223.631E+06    -60.3366E+06    -223.630E+06    -16.0272E+06     110.777E+03         29.4717
             779     4.73325E-03     27.8112E-03     644.087E-03     626.517E-03        -2.14211     613.068E-03        -2.11895     634.379E-03     91.9973E-03     110.204E-03    -54.9901E-03    -55.2181E-03    -54.8480E-03     110.062E-03    -55.2181E-03     9.64324E-03    -30.2908E+06    -68.3152E+06    -242.198E+06    -68.3160E+06    -242.198E+06    -30.2908E+06     217.760E+03         29.1360
             780     3.78676E-03     27.8015E-03     698.427E-03     633.762E-03        -2.20200     637.709E-03        -2.14388     636.358E-03    -204.618E-03     110.159E-03    -54.9960E-03    -55.1646E-03    -54.8980E-03     110.061E-03    -55.1646E-03     8.00669E-03    -47.8501E+06    -75.9606E+06    -252.891E+06    -75.9628E+06    -252.889E+06    -47.8501E+06    -210.937E+03         28.8802
             781     2.83984E-03     27.7938E-03     811.647E-03     633.447E-03        -2.31338     649.880E-03        -2.15161     633.447E-03     349.569E-03     110.167E-03    -55.0383E-03    -55.1360E-03    -54.9768E-03     110.106E-03    -55.1360E-03     6.29531E-03    -63.8778E+06    -83.0710E+06    -266.717E+06    -83.0744E+06    -266.713E+06    -63.8778E+06    -277.068E+03         28.6886
             782     1.89317E-03     27.7875E-03         1.08422     633.097E-03        -2.59309     623.551E-03        -2.13242     633.097E-03    -681.963E-03     110.149E-03    -55.0511E-03    -55.0982E-03    -55.0312E-03     110.121E-03    -55.0898E-03     4.15737E-03    -77.8439E+06    -88.0879E+06    -277.411E+06    -88.0934E+06    -277.406E+06    -77.8439E+06    -357.612E+03         28.5530
             783     946.739E-06     27.7844E-03         1.93465         1.18665        -3.99893     83.8795E-03        -2.14816         1.18665         2.25333     110.047E-03    -54.8790E-03    -55.1676E-03    -55.1555E-03     110.038E-03    -54.8823E-03     2.29185E-03    -87.8583E+06    -92.2751E+06    -282.556E+06    -91.5271E+06    -282.547E+06    -88.6153E+06     40.4111E+03         28.4730
             784     16.1008E-03     27.0524E-03     628.909E-03     606.057E-03        -2.12124     605.880E-03        -2.12106     628.909E-03    -25.8687E-03     110.973E-03    -53.9258E-03    -57.1755E-03    -53.0546E-03     107.840E-03    -54.9129E-03     33.8670E-03     174.713E+06     122.823E+06    -7.23680E+06    -7.23239E+06     174.709E+06     122.823E+06     412.436E+03         41.5638
             785     15.1524E-03     26.9806E-03     633.001E-03     618.320E-03        -2.13340     621.260E-03        -2.13334     630.000E-03    -1.60918E-03     111.847E-03    -54.7901E-03    -57.0971E-03    -53.0703E-03     107.842E-03    -54.8114E-03     49.2505E-03     172.908E+06     100.793E+06    -15.1267E+06    -15.1215E+06     172.903E+06     100.793E+06     122.295E+03         39.2653
             786     14.2048E-03     26.9449E-03     635.307E-03     630.287E-03        -2.14702     635.146E-03        -2.14686     630.287E-03    -10.6146E-03     110.626E-03    -54.6466E-03    -56.0317E-03    -53.3034E-03     107.919E-03    -54.6679E-03     41.4837E-03     165.727E+06     54.7575E+06    -20.8298E+06    -20.8263E+06     165.723E+06     54.7575E+06     165.075E+03         37.2837
             787     13.2585E-03     26.8906E-03     632.653E-03     619.995E-03        -2.13366     621.438E-03        -2.13308     630.633E-03    -7.04504E-03     110.914E-03    -54.6193E-03    -56.3175E-03    -53.5509E-03     108.147E-03    -54.6193E-03     42.1052E-03     125.657E+06     18.2789E+06    -23.9318E+06    -23.9297E+06     125.655E+06     18.2789E+06     160.077E+03         35.9352
             788     12.3098E-03     26.8522E-03     632.196E-03     604.440E-03        -2.11935     603.849E-03        -2.11876     632.196E-03    -10.7734E-03     109.960E-03    -54.7073E-03    -55.2702E-03    -53.6744E-03     108.364E-03    -54.7073E-03     32.1880E-03     46.2001E+06     5.72344E+06    -26.9183E+06    -26.9093E+06     45.3091E+06     6.60542E+06    -82.4911E+03         34.8668
             789     11.3620E-03     26.8207E-03     634.420E-03     609.374E-03        -2.12447     609.214E-03        -2.12431     634.420E-03    -16.3231E-03     109.966E-03    -54.8400E-03    -55.1874E-03    -54.0975E-03     108.877E-03    -54.8400E-03     26.5923E-03     3.58800E+06    -14.8821E+06    -41.8572E+06    -30.3816E+06    -26.3577E+06     3.58800E+06    -184.047E+03         33.7766
             790     10.4155E-03     26.7945E-03     642.044E-03     618.934E-03        -2.14046     624.890E-03        -2.14042     636.044E-03    -12.4192E-03     109.836E-03    -54.8190E-03    -55.0778E-03    -54.2041E-03     109.079E-03    -54.9358E-03     22.2234E-03     2.94653E+06    -34.0716E+06    -75.5491E+06    -34.0773E+06    -75.5434E+06     2.94653E+06    -477.734E+03         32.7116
             791     9.46791E-03     26.7726E-03     646.571E-03     621.587E-03        -2.15146     631.179E-03        -2.15141     636.932E-03    -13.3361E-03     109.824E-03    -54.8345E-03    -55.0347E-03    -54.2536E-03     109.243E-03    -55.0347E-03     19.4900E-03     3.06442E+06    -37.8766E+06    -111.445E+06    -37.8829E+06    -111.439E+06     3.06442E+06    -658.863E+03         31.7976
             792     8.52085E-03     26.7532E-03     645.589E-03     624.552E-03        -2.15416     632.459E-03        -2.15408     637.598E-03     22.0964E-03     109.999E-03    -54.9382E-03    -55.0862E-03    -54.4899E-03     109.551E-03    -55.0862E-03     17.1282E-03     128.644E+03    -42.5109E+06    -141.665E+06    -42.5139E+06    -141.662E+06     128.644E+03    -381.203E+03         31.0408
             793     7.57409E-03     26.7358E-03     644.166E-03     625.316E-03        -2.15235     629.807E-03        -2.15115     638.473E-03    -56.4412E-03     110.060E-03    -54.9483E-03    -55.1221E-03    -54.6157E-03     109.727E-03    -55.1221E-03     14.7580E-03    -4.22614E+06    -47.9650E+06    -169.966E+06    -47.9665E+06    -169.964E+06    -4.22614E+06    -236.714E+03         30.4134
             794     6.62714E-03     26.7209E-03     645.573E-03     627.100E-03        -2.15281     628.950E-03        -2.14891     639.821E-03     47.0289E-03     110.121E-03    -54.9784E-03    -55.1683E-03    -54.7287E-03     109.872E-03    -55.1683E-03     12.8022E-03    -8.79886E+06    -54.2241E+06    -196.836E+06    -54.2252E+06    -196.835E+06    -8.79886E+06    -53.0860E+03         29.8951
             795     5.68042E-03     26.7078E-03     662.985E-03     633.506E-03        -2.17454     648.310E-03        -2.16632     639.953E-03    -52.2681E-03     110.151E-03    -54.9870E-03    -55.1895E-03    -54.7971E-03     109.961E-03    -55.1895E-03     11.1621E-03    -16.5761E+06    -61.2458E+06    -223.945E+06    -61.2468E+06    -223.944E+06    -16.5761E+06     387.102E+03         29.4711
             796     4.73359E-03     26.6961E-03     683.647E-03     636.563E-03        -2.19589     663.936E-03        -2.17618     636.563E-03     109.023E-03     110.083E-03    -54.9053E-03    -55.1848E-03    -54.7666E-03     109.944E-03    -55.1848E-03     9.52872E-03    -29.5785E+06    -68.5289E+06    -241.705E+06    -68.5298E+06    -241.705E+06    -29.5785E+06     313.696E+03         29.1343
             797     3.78643E-03     26.6866E-03     697.751E-03     632.462E-03        -2.20413     643.255E-03        -2.14964     632.462E-03    -192.195E-03     110.073E-03    -54.9329E-03    -55.1425E-03    -54.8357E-03     109.976E-03    -55.1425E-03     7.97265E-03    -46.7545E+06    -76.0584E+06    -252.545E+06    -76.0587E+06    -252.545E+06    -46.7545E+06     175.679E+03         28.8772
             798     2.84005E-03     26.6784E-03     785.339E-03     632.954E-03        -2.29315     621.673E-03        -2.12948     632.954E-03     381.702E-03     110.098E-03    -54.9955E-03    -55.1105E-03    -54.9348E-03     110.038E-03    -55.1105E-03     6.24731E-03    -64.8556E+06    -82.9384E+06    -266.310E+06    -82.9396E+06    -266.309E+06    -64.8556E+06    -119.731E+03         28.6860
             799     1.89345E-03     26.6725E-03         1.10441     637.477E-03        -2.61435     626.928E-03        -2.13687     637.477E-03    -712.031E-03     110.053E-03    -54.9728E-03    -55.0836E-03    -54.9431E-03     110.023E-03    -55.0836E-03     4.32148E-03    -81.0396E+06    -89.1297E+06    -277.999E+06    -89.1355E+06    -277.993E+06    -81.0396E+06    -450.464E+03         28.5519
             800     946.571E-06     26.6691E-03         1.93278         1.19340        -3.99417     86.6356E-03        -2.14803         1.19340         2.16350     110.100E-03    -54.8900E-03    -55.2106E-03    -55.1524E-03     110.090E-03    -54.9377E-03     2.35956E-03    -89.9270E+06    -93.4040E+06    -282.724E+06    -92.9067E+06    -282.711E+06    -90.4372E+06    -176.083E+03         28.4734
             801     16.1011E-03     25.9364E-03     639.488E-03     621.739E-03        -2.14393     628.942E-03        -2.14387     632.222E-03    -7.57429E-03     110.942E-03    -53.9245E-03    -57.1782E-03    -53.0711E-03     107.819E-03    -54.9079E-03     33.7800E-03     174.785E+06     122.301E+06    -7.36303E+06    -7.36106E+06     174.783E+06     122.301E+06     81.7526E+03         41.5233
             802     15.1531E-03     25.8661E-03     635.035E-03     614.196E-03        -2.13380     616.156E-03        -2.13365     632.933E-03     3.62449E-03     111.869E-03    -54.7840E-03    -57.1676E-03    -53.1783E-03     107.901E-03    -54.8053E-03     48.9467E-03     173.652E+06     101.627E+06    -14.3032E+06    -14.2972E+06     173.646E+06     101.627E+06    -376.804E+03         39.2384
             803     14.2049E-03     25.8289E-03     636.570E-03     612.284E-03        -2.13447     614.368E-03        -2.13423     634.250E-03     108.436E-06     110.575E-03    -54.6365E-03    -56.0049E-03    -53.2906E-03     107.882E-03    -54.6578E-03     41.2963E-03     165.916E+06     55.2383E+06    -19.6828E+06    -19.6764E+06     165.909E+06     55.2383E+06    -89.6708E+03         37.2688
             804     13.2568E-03     25.7747E-03     637.410E-03     615.872E-03        -2.14164     617.123E-03        -2.14126     635.774E-03    -16.7117E-03     110.835E-03    -54.6035E-03    -56.2576E-03    -53.4696E-03     108.047E-03    -54.6035E-03     42.2470E-03     125.097E+06     16.5584E+06    -24.1515E+06    -24.1499E+06     125.095E+06     16.5584E+06     316.809E+03         35.9269
             805     12.3100E-03     25.7381E-03     643.044E-03     625.831E-03        -2.15854     631.393E-03        -2.15793     636.867E-03    -51.0790E-03     110.093E-03    -54.6916E-03    -55.4174E-03    -53.7807E-03     108.456E-03    -54.6916E-03     32.6487E-03     45.3280E+06     4.34783E+06    -27.4593E+06    -27.4449E+06     44.7735E+06     4.88794E+06     604.730E+03         34.8630
             806     11.3630E-03     25.7044E-03     645.949E-03     626.766E-03        -2.16044     634.899E-03        -2.15995     637.329E-03    -29.9036E-03     109.883E-03    -54.7561E-03    -55.1876E-03    -54.0113E-03     108.780E-03    -54.8296E-03     26.6712E-03     3.19251E+06    -14.7928E+06    -41.6984E+06    -30.1372E+06    -26.1066E+06     2.94521E+06     497.111E+03         33.7766
             807     10.4152E-03     25.6799E-03     640.959E-03     613.773E-03        -2.14038     616.102E-03        -2.14026     638.515E-03     10.5063E-03     109.679E-03    -54.7644E-03    -54.9797E-03    -54.0636E-03     108.936E-03    -54.9377E-03     22.0219E-03     2.91397E+06    -33.4729E+06    -74.7866E+06    -33.4782E+06    -74.7814E+06     2.91397E+06    -37.5933E+03         32.7140
             808     9.46786E-03     25.6572E-03     644.518E-03     622.067E-03        -2.15580     626.315E-03        -2.15579     640.252E-03    -1.23150E-03     109.942E-03    -54.9353E-03    -55.0478E-03    -54.3667E-03     109.362E-03    -55.0369E-03     19.4652E-03     2.48900E+06    -38.2814E+06    -111.664E+06    -38.2860E+06    -111.659E+06     2.48900E+06    -198.891E+03         31.8012
             809     8.52110E-03     25.6376E-03     655.456E-03     640.132E-03        -2.18507     655.058E-03        -2.18467     640.132E-03     46.4049E-03     110.114E-03    -55.0567E-03    -55.0747E-03    -54.6211E-03     109.679E-03    -55.0745E-03     16.9030E-03    -542.193E+03    -43.5840E+06    -141.967E+06    -43.5868E+06    -141.964E+06    -542.193E+03     123.218E+03         31.0437
             810     7.57420E-03     25.6203E-03     651.781E-03     632.691E-03        -2.16853     644.465E-03        -2.16749     638.965E-03    -18.4132E-03     110.072E-03    -54.9803E-03    -55.0965E-03    -54.6532E-03     109.745E-03    -55.0965E-03     14.6445E-03    -4.85253E+06    -48.9987E+06    -169.651E+06    -49.0000E+06    -169.650E+06    -4.85253E+06     257.889E+03         30.4130
             811     6.62725E-03     25.6056E-03     641.566E-03     625.587E-03        -2.15040     622.908E-03        -2.14596     639.808E-03     84.3364E-03     110.060E-03    -54.9405E-03    -55.1393E-03    -54.6895E-03     109.809E-03    -55.1393E-03     12.8370E-03    -9.43589E+06    -55.1672E+06    -197.136E+06    -55.1673E+06    -197.136E+06    -9.43589E+06     81.0657E+03         29.8923
             812     5.68045E-03     25.5920E-03     655.388E-03     632.420E-03        -2.16915     636.497E-03        -2.15922     641.383E-03    -41.4381E-03     110.110E-03    -54.9721E-03    -55.1601E-03    -54.7821E-03     109.920E-03    -55.1601E-03     11.1565E-03    -16.9908E+06    -61.9137E+06    -223.815E+06    -61.9147E+06    -223.814E+06    -16.9908E+06         654.763         29.4686
             813     4.73370E-03     25.5813E-03     681.767E-03     638.711E-03        -2.19934     660.347E-03        -2.17894     639.727E-03     100.310E-03     110.089E-03    -54.9528E-03    -55.1438E-03    -54.8150E-03     109.952E-03    -55.1438E-03     9.50461E-03    -30.3407E+06    -69.0445E+06    -241.420E+06    -69.0454E+06    -241.419E+06    -30.3407E+06    -14.1186E+03         29.1322
             814     3.78705E-03     25.5715E-03     704.013E-03     636.503E-03        -2.21879     646.390E-03        -2.16116     636.503E-03    -211.043E-03     109.970E-03    -54.8764E-03    -55.0955E-03    -54.7798E-03     109.873E-03    -55.0955E-03     7.93857E-03    -47.7579E+06    -76.1781E+06    -252.471E+06    -76.1784E+06    -252.471E+06    -47.7579E+06    -10.4995E+03         28.8745
             815     2.83998E-03     25.5635E-03     795.782E-03     634.790E-03        -2.30768     638.170E-03        -2.15006     634.790E-03     332.554E-03     109.942E-03    -54.8560E-03    -55.0933E-03    -54.7973E-03     109.883E-03    -55.0933E-03     6.13828E-03    -64.1202E+06    -82.8586E+06    -266.454E+06    -82.8591E+06    -266.454E+06    -64.1202E+06     14.4550E+03         28.6830
             816     1.89296E-03     25.5578E-03         1.06597     636.710E-03        -2.58336     626.813E-03        -2.14420     636.710E-03    -652.304E-03     110.024E-03    -54.9222E-03    -55.1062E-03    -54.8931E-03     109.995E-03    -55.1062E-03     4.27479E-03    -78.3496E+06    -88.2625E+06    -277.806E+06    -88.2639E+06    -277.805E+06    -78.3496E+06     310.539E+03         28.5497
             817     946.394E-06     25.5539E-03         1.82092         1.20693        -3.90800     70.9530E-03        -2.15803         1.20693         2.12932     110.157E-03    -54.8870E-03    -55.2713E-03    -55.1964E-03     110.146E-03    -54.9512E-03     2.41629E-03    -88.8138E+06    -92.4538E+06    -282.888E+06    -91.9489E+06    -282.883E+06    -89.3240E+06    -342.374E+03         28.4718
             818     16.1009E-03     24.8217E-03     644.155E-03     624.160E-03        -2.14800     632.839E-03        -2.14789     635.361E-03    -12.4997E-03     111.057E-03    -53.9887E-03    -57.2101E-03    -53.1633E-03     107.924E-03    -54.9029E-03     33.8543E-03     175.436E+06     123.040E+06    -7.30021E+06    -7.30007E+06     175.435E+06     123.040E+06     34.8201E+03         41.4770
             819     15.1529E-03     24.7498E-03     638.783E-03     625.295E-03        -2.15301     628.060E-03        -2.15283     635.838E-03    -1.98598E-03     111.911E-03    -54.7975E-03    -57.2153E-03    -53.1963E-03     107.892E-03    -54.7975E-03     49.4063E-03     174.483E+06     101.552E+06    -15.0450E+06    -15.0405E+06     174.479E+06     101.552E+06    -490.412E+03         39.2055
             820     14.2060E-03     24.7137E-03     637.174E-03     608.670E-03        -2.13729     608.527E-03        -2.13715     637.174E-03     18.0987E-03     110.424E-03    -54.6456E-03    -55.8570E-03    -53.1426E-03     107.710E-03    -54.6456E-03     41.5159E-03     164.529E+06     52.9088E+06      -21.55E+06    -21.5442E+06     164.523E+06     52.9088E+06    -401.102E+03         37.2522
             821     13.2577E-03     24.6606E-03     639.156E-03     612.380E-03        -2.14556     612.217E-03        -2.14540     639.156E-03     21.3632E-03     110.783E-03    -54.5953E-03    -56.1981E-03    -53.3931E-03     107.978E-03    -54.5953E-03     42.4240E-03     123.637E+06     14.1229E+06    -25.4045E+06    -25.3887E+06     123.621E+06     14.1229E+06     841.226E+03         35.9209
             822     12.3097E-03     24.6212E-03     646.665E-03     626.068E-03        -2.16585     631.821E-03        -2.16543     640.489E-03    -17.4596E-03     110.150E-03    -54.6925E-03    -55.4634E-03    -53.8140E-03     108.500E-03    -54.6925E-03     32.7192E-03     45.0294E+06     3.65380E+06    -28.3796E+06    -28.3521E+06     45.0018E+06     3.65380E+06     1.16631E+06         34.8620
             823     11.3624E-03     24.5900E-03     653.228E-03     634.996E-03        -2.17674     647.158E-03        -2.17628     640.602E-03    -12.4321E-03     109.872E-03    -54.7620E-03    -55.1689E-03    -53.9940E-03     108.771E-03    -54.8355E-03     26.7119E-03     2.58467E+06    -15.2104E+06    -41.4909E+06    -31.3984E+06    -24.9964E+06     2.27812E+06     816.458E+03         33.7785
             824     10.4151E-03     24.5647E-03     656.996E-03     631.028E-03        -2.17423     647.840E-03        -2.17408     640.030E-03     25.2001E-03     109.896E-03    -54.8633E-03    -55.1055E-03    -54.2774E-03     109.141E-03    -54.9368E-03     22.1868E-03     1.93304E+06    -35.0971E+06    -74.2492E+06    -35.1192E+06    -74.2272E+06     1.93304E+06     680.760E+03         32.7180
             825     9.46828E-03     24.5420E-03     650.986E-03     625.565E-03        -2.16293     636.686E-03        -2.16290     639.843E-03    -9.37743E-03     110.058E-03    -54.9924E-03    -55.1210E-03    -54.5278E-03     109.489E-03    -55.0165E-03     19.3220E-03     1.70265E+06    -39.3193E+06    -111.795E+06    -39.3268E+06    -111.788E+06     1.70265E+06     647.934E+03         31.8036
             826     8.52120E-03     24.5215E-03     647.716E-03     626.427E-03        -2.16234     633.182E-03        -2.16176     640.382E-03     49.5258E-03     110.017E-03    -54.9928E-03    -55.0475E-03    -54.5643E-03     109.588E-03    -55.0473E-03     16.7393E-03    -863.283E+03    -44.1005E+06    -141.975E+06    -44.1061E+06    -141.969E+06    -863.283E+03     641.336E+03         31.0418
             827     7.57439E-03     24.5045E-03     649.425E-03     632.042E-03        -2.17451     638.461E-03        -2.17246     640.960E-03    -32.3247E-03     110.026E-03    -54.9592E-03    -55.0698E-03    -54.6414E-03     109.708E-03    -55.0698E-03     14.4404E-03    -5.01502E+06    -49.6245E+06    -169.213E+06    -49.6272E+06    -169.210E+06    -5.01502E+06     497.817E+03         30.4084
             828     6.62764E-03     24.4897E-03     649.437E-03     639.280E-03        -2.18109     643.295E-03        -2.17668     641.018E-03     35.8384E-03     109.992E-03    -54.9013E-03    -55.1092E-03    -54.6542E-03     109.744E-03    -55.1092E-03     12.7295E-03    -9.91191E+06    -55.8102E+06    -197.050E+06    -55.8114E+06    -197.048E+06    -9.91191E+06     102.183E+03         29.8866
             829     5.68054E-03     24.4767E-03     648.485E-03     634.732E-03        -2.17063     630.915E-03        -2.16015     641.824E-03    -81.1896E-03     110.006E-03    -54.9009E-03    -55.1293E-03    -54.7140E-03     109.819E-03    -55.1293E-03     11.0670E-03    -18.4305E+06    -62.9403E+06    -223.622E+06    -62.9413E+06    -223.620E+06    -18.4305E+06    -355.722E+03         29.4630
             830     4.73376E-03     24.4654E-03     650.237E-03     639.497E-03        -2.17441     622.009E-03        -2.15177     645.088E-03     85.4947E-03     110.062E-03    -54.9574E-03    -55.1110E-03    -54.8201E-03     109.925E-03    -55.1110E-03     9.48681E-03    -32.1157E+06    -70.1932E+06    -241.075E+06    -70.1993E+06    -241.069E+06    -32.1157E+06    -738.375E+03         29.1281
             831     3.78703E-03     24.4562E-03     693.009E-03     648.636E-03        -2.22412     639.206E-03        -2.17032     648.636E-03    -181.668E-03     109.968E-03    -54.9117E-03    -55.0578E-03    -54.8161E-03     109.873E-03    -55.0578E-03     7.88826E-03    -47.8584E+06    -76.8089E+06    -252.824E+06    -76.8145E+06    -252.818E+06    -47.8584E+06    -457.730E+03         28.8715
             832     2.84012E-03     24.4484E-03     794.590E-03     646.813E-03        -2.32932     665.345E-03        -2.20007     646.813E-03     274.288E-03     109.888E-03    -54.8551E-03    -55.0387E-03    -54.7986E-03     109.832E-03    -55.0387E-03     6.01302E-03    -63.3583E+06    -83.5050E+06    -266.710E+06    -83.5061E+06    -266.709E+06    -63.3583E+06     10.4767E+03         28.6796
             833     1.89352E-03     24.4426E-03         1.04219     635.891E-03        -2.57148     667.587E-03        -2.19688     635.891E-03    -642.024E-03     109.914E-03    -54.8954E-03    -55.0222E-03    -54.8679E-03     109.886E-03    -55.0222E-03     4.17294E-03    -78.3090E+06    -89.2695E+06    -277.529E+06    -89.2704E+06    -277.528E+06    -78.3090E+06    -111.837E+03         28.5447
             834     946.779E-06     24.4390E-03         1.72851         1.16206        -3.78034     93.7808E-03        -2.14561         1.16206         2.03904     109.946E-03    -54.8928E-03    -55.0576E-03    -55.0102E-03     109.935E-03    -54.9294E-03     2.46622E-03    -90.0031E+06    -93.7965E+06    -283.463E+06    -93.5166E+06    -283.462E+06    -90.2840E+06    -132.941E+03         28.4647
             835     16.1014E-03     23.7062E-03     639.098E-03     601.090E-03        -2.12941     602.336E-03        -2.12913     637.570E-03    -22.7985E-03     110.962E-03    -54.0183E-03    -57.0245E-03    -53.0510E-03     107.873E-03    -54.9027E-03     33.8526E-03     175.034E+06     122.796E+06    -6.79435E+06    -6.79178E+06     175.032E+06     122.796E+06    -113.919E+03         41.4310
             836     15.1532E-03     23.6356E-03     640.746E-03     621.523E-03        -2.15195     622.962E-03        -2.15186     639.218E-03     9.90023E-03     111.669E-03    -54.7960E-03    -56.9513E-03    -52.9278E-03     107.645E-03    -54.7960E-03     49.5712E-03     174.353E+06     100.107E+06    -14.8885E+06    -14.8781E+06     174.342E+06     100.107E+06     745.721E+03         39.1751
             837     14.2040E-03     23.5978E-03     644.749E-03     630.510E-03        -2.16789     635.142E-03        -2.16779     640.025E-03     1.86938E-03     110.457E-03    -54.6442E-03    -55.8997E-03    -53.2063E-03     107.764E-03    -54.6442E-03     41.5220E-03     163.942E+06     51.2858E+06    -23.0110E+06    -22.9993E+06     163.930E+06     51.2858E+06     777.569E+03         37.2387
             838     13.2569E-03     23.5456E-03     648.997E-03     630.841E-03        -2.17092     639.405E-03        -2.17081     640.323E-03     5.13650E-03     110.883E-03    -54.5987E-03    -56.2893E-03    -53.4881E-03     108.082E-03    -54.5987E-03     42.5741E-03     122.938E+06     12.7060E+06    -27.9887E+06    -27.9718E+06     122.921E+06     12.7060E+06     960.545E+03         35.9172
             839     12.3099E-03     23.5056E-03     644.679E-03     627.939E-03        -2.15616     631.734E-03        -2.15600     640.729E-03     5.41560E-03     110.079E-03    -54.7008E-03    -55.3770E-03    -53.6993E-03     108.401E-03    -54.7008E-03     32.8756E-03     45.4227E+06     2.26269E+06    -30.4280E+06    -30.4092E+06     45.4038E+06     2.26269E+06     1.04367E+06         34.8612
             840     11.3622E-03     23.4753E-03     645.558E-03     625.791E-03        -2.15462     629.601E-03        -2.15442     641.551E-03     10.7401E-03     110.075E-03    -54.8444E-03    -55.2837E-03    -54.2079E-03     108.999E-03    -54.8444E-03     26.4984E-03     1.92926E+06    -16.3344E+06    -41.8142E+06    -32.9084E+06    -24.6863E+06     1.37524E+06     777.182E+03         33.7794
             841     10.4152E-03     23.4481E-03     656.352E-03     632.323E-03        -2.18055     646.708E-03        -2.18042     641.830E-03     13.6164E-03     110.161E-03    -54.9225E-03    -55.3184E-03    -54.5715E-03     109.415E-03    -54.9225E-03     22.0619E-03     1.53368E+06    -35.9129E+06    -73.9101E+06    -35.9591E+06    -73.8640E+06     1.53368E+06     1.15745E+06         32.7186
             842     9.46867E-03     23.4266E-03     652.188E-03     631.276E-03        -2.17966     641.650E-03        -2.17952     641.672E-03    -34.9172E-03     110.032E-03    -54.9483E-03    -55.1430E-03    -54.5673E-03     109.487E-03    -54.9788E-03     18.9258E-03     1.09519E+06    -40.1754E+06    -111.919E+06    -40.1998E+06    -111.895E+06     1.09519E+06     1.23773E+06         31.8001
             843     8.52167E-03     23.4063E-03     643.051E-03     620.279E-03        -2.15391     619.957E-03        -2.15359     643.051E-03     4.27088E-03     109.883E-03    -54.9001E-03    -55.0063E-03    -54.4742E-03     109.457E-03    -55.0063E-03     16.6740E-03    -1.69129E+06    -44.8537E+06    -141.636E+06    -44.8638E+06    -141.626E+06    -1.69129E+06     889.048E+03         31.0340
             844     7.57473E-03     23.3895E-03     645.884E-03     630.664E-03        -2.16636     629.298E-03        -2.16453     645.424E-03    -65.5861E-03     109.916E-03    -54.8834E-03    -55.0372E-03    -54.5669E-03     109.599E-03    -55.0372E-03     14.4021E-03    -5.44988E+06    -49.9324E+06    -168.815E+06    -49.9351E+06    -168.812E+06    -5.44988E+06     530.848E+03         30.3996
             845     6.62763E-03     23.3749E-03     656.104E-03     645.905E-03        -2.19743     651.047E-03        -2.19261     646.142E-03     36.1741E-03     109.957E-03    -54.9002E-03    -55.0757E-03    -54.6553E-03     109.712E-03    -55.0757E-03     12.6696E-03    -10.5383E+06    -56.1138E+06    -196.581E+06    -56.1169E+06    -196.578E+06    -10.5383E+06     413.392E+03         29.8776
             846     5.68090E-03     23.3620E-03     660.523E-03     641.139E-03        -2.19436     647.236E-03        -2.18565     645.714E-03    -41.9927E-03     109.946E-03    -54.8865E-03    -55.0887E-03    -54.7022E-03     109.761E-03    -55.0887E-03     10.9865E-03    -19.6461E+06    -62.9922E+06    -222.475E+06    -62.9996E+06    -222.467E+06    -19.6461E+06    -386.246E+03         29.4531
             847     4.73385E-03     23.3504E-03     660.292E-03     641.989E-03        -2.19278     636.961E-03        -2.17403     646.564E-03     98.6002E-03     109.957E-03    -54.8920E-03    -55.0765E-03    -54.7581E-03     109.823E-03    -55.0765E-03     9.35800E-03    -32.6028E+06    -70.5538E+06    -241.076E+06    -70.5645E+06    -241.065E+06    -32.6028E+06    -1.13370E+06         29.1188
             848     3.78709E-03     23.3412E-03     678.450E-03     648.995E-03        -2.22178     636.932E-03        -2.18026     648.995E-03    -132.685E-03     109.941E-03    -54.9261E-03    -55.0210E-03    -54.8353E-03     109.850E-03    -55.0210E-03     7.69145E-03    -48.2428E+06    -78.6004E+06    -254.217E+06    -78.6066E+06    -254.211E+06    -48.2428E+06    -614.014E+03         28.8638
             849     2.84057E-03     23.3336E-03     749.005E-03     652.904E-03        -2.29789     638.154E-03        -2.18704     652.904E-03     300.586E-03     109.880E-03    -54.9106E-03    -54.9764E-03    -54.8795E-03     109.825E-03    -54.9522E-03     5.97027E-03    -65.6732E+06    -85.6832E+06    -266.276E+06    -85.6848E+06    -266.274E+06    -65.6732E+06    -14.7553E+03         28.6723
             850     1.89357E-03     23.3280E-03     990.809E-03     656.566E-03        -2.54249     651.764E-03        -2.20345     656.566E-03    -615.263E-03     109.747E-03    -54.8232E-03    -54.9241E-03    -54.8530E-03     109.719E-03    -54.8664E-03     4.17478E-03    -82.2293E+06    -91.8590E+06    -277.425E+06    -91.8601E+06    -277.424E+06    -82.2293E+06    -104.950E+03         28.5352
             851     946.686E-06     23.3241E-03         1.62248         1.18559        -3.70801     129.860E-03        -2.21539         1.18559         1.93380     109.587E-03    -54.6262E-03    -54.9644E-03    -54.9381E-03     109.578E-03    -54.6430E-03     2.24844E-03    -93.2366E+06    -96.4373E+06    -284.291E+06    -96.1570E+06    -284.290E+06    -93.5176E+06     16.7029E+03         28.4514
             852     16.1009E-03     22.5899E-03     640.131E-03     605.362E-03        -2.15205     606.308E-03        -2.15180     638.938E-03    -26.6574E-03     110.803E-03    -53.9318E-03    -56.9533E-03    -52.8991E-03     107.729E-03    -54.9128E-03     33.8420E-03     173.713E+06     121.651E+06    -8.12125E+06    -8.11843E+06     173.710E+06     121.651E+06     18.3389E+03         41.3853
             853     15.1524E-03     22.5219E-03     640.869E-03     610.386E-03        -2.14853     610.306E-03        -2.14845     640.869E-03     25.8302E-03     111.789E-03    -54.8081E-03    -57.0736E-03    -53.0577E-03     107.773E-03    -54.8081E-03     49.5861E-03     173.277E+06     99.5613E+06    -15.9755E+06    -15.9453E+06     173.246E+06     99.5613E+06     1.83261E+06         39.1428
             854     14.2053E-03     22.4820E-03     646.801E-03     630.550E-03        -2.17337     635.187E-03        -2.17328     642.076E-03     11.5586E-03     110.539E-03    -54.6464E-03    -55.9914E-03    -53.3842E-03     107.931E-03    -54.6464E-03     40.9807E-03     165.187E+06     52.5818E+06    -23.0372E+06    -22.9924E+06     165.143E+06     52.5818E+06     2.73057E+06         37.2234
             855     13.2575E-03     22.4308E-03     650.898E-03     637.571E-03        -2.18791     646.188E-03        -2.18785     642.224E-03     2.83921E-03     110.672E-03    -54.5955E-03    -56.0843E-03    -53.4102E-03     107.998E-03    -54.5955E-03     41.6023E-03     123.865E+06     13.4975E+06    -27.8446E+06    -27.8286E+06     123.849E+06     13.4975E+06     1.24909E+06         35.9116
             856     12.3089E-03     22.3904E-03     651.572E-03     637.181E-03        -2.18640     646.266E-03        -2.18593     642.016E-03    -22.3805E-03     110.070E-03    -54.6949E-03    -55.3755E-03    -53.7198E-03     108.414E-03    -54.6949E-03     32.6976E-03     45.4032E+06     2.06524E+06    -30.6398E+06    -30.6377E+06     45.4010E+06     2.06524E+06     271.369E+03         34.8557
             857     11.3625E-03     22.3596E-03     647.755E-03     631.932E-03        -2.17533     637.048E-03        -2.17484     642.149E-03    -20.6554E-03     110.296E-03    -54.8232E-03    -55.5247E-03    -54.4529E-03     109.224E-03    -54.8232E-03     26.4587E-03     1.65495E+06    -16.8378E+06    -42.1839E+06    -33.3980E+06    -24.8528E+06     884.012E+03     748.871E+03         33.7716
             858     10.4159E-03     22.3327E-03     643.415E-03     621.305E-03        -2.16166     621.214E-03        -2.16157     643.415E-03     1.32053E-03     110.184E-03    -54.8838E-03    -55.3754E-03    -54.6516E-03     109.460E-03    -54.8838E-03     21.7286E-03     768.455E+03    -36.4232E+06    -74.5045E+06    -36.4946E+06    -74.4330E+06     768.455E+03     1.42673E+06         32.7075
             859     9.46899E-03     22.3112E-03     645.644E-03     622.336E-03        -2.16712     622.018E-03        -2.16680     645.644E-03    -5.22152E-03     109.896E-03    -54.9128E-03    -55.0374E-03    -54.4852E-03     109.367E-03    -54.9355E-03     18.6416E-03     695.256E+03    -40.0157E+06    -111.439E+06    -40.0491E+06    -111.406E+06     695.256E+03     1.49403E+06         31.7857
             860     8.52195E-03     22.2917E-03     653.228E-03     632.914E-03        -2.18166     638.369E-03        -2.18127     647.378E-03     28.1329E-03     109.817E-03    -54.8778E-03    -54.9647E-03    -54.4547E-03     109.394E-03    -54.9647E-03     16.6279E-03    -2.08550E+06    -44.3328E+06    -140.737E+06    -44.3471E+06    -140.723E+06    -2.08550E+06     1.04375E+06         31.0191
             861     7.57471E-03     22.2746E-03     655.874E-03     642.015E-03        -2.19134     648.688E-03        -2.18999     647.856E-03    -61.9354E-03     109.860E-03    -54.8740E-03    -54.9942E-03    -54.5620E-03     109.548E-03    -54.9942E-03     14.2771E-03    -6.05329E+06    -49.5777E+06    -168.856E+06    -49.5823E+06    -168.851E+06    -6.05329E+06     683.821E+03         30.3849
             862     6.62801E-03     22.2603E-03     658.648E-03     647.352E-03        -2.19878     653.561E-03        -2.19370     647.352E-03     63.3840E-03     109.893E-03    -54.8871E-03    -55.0280E-03    -54.6537E-03     109.660E-03    -55.0280E-03     12.3661E-03    -10.7523E+06    -55.6111E+06    -195.734E+06    -55.6157E+06    -195.729E+06    -10.7523E+06     540.413E+03         29.8619
             863     5.68097E-03     22.2468E-03     660.825E-03     644.739E-03        -2.19574     652.319E-03        -2.18888     646.388E-03     16.1515E-03     109.885E-03    -54.8862E-03    -55.0321E-03    -54.7099E-03     109.709E-03    -55.0321E-03     10.7387E-03    -19.8691E+06    -62.4832E+06    -221.113E+06    -62.4903E+06    -221.106E+06    -19.8691E+06    -229.367E+03         29.4359
             864     4.73431E-03     22.2365E-03     659.376E-03     640.916E-03        -2.19757     643.631E-03        -2.18704     646.134E-03     75.4252E-03     109.880E-03    -54.8762E-03    -55.0147E-03    -54.7487E-03     109.752E-03    -55.0147E-03     9.12706E-03    -32.2614E+06    -70.3638E+06    -241.409E+06    -70.3699E+06    -241.403E+06    -32.2614E+06    -694.469E+03         29.1010
             865     3.78741E-03     22.2264E-03     670.655E-03     644.730E-03        -2.22204     633.218E-03        -2.18817     648.300E-03    -182.518E-03     109.798E-03    -54.8510E-03    -54.9528E-03    -54.7641E-03     109.711E-03    -54.9528E-03     7.51545E-03    -48.3156E+06    -78.4205E+06    -255.194E+06    -78.4220E+06    -255.192E+06    -48.3156E+06    -430.221E+03         28.8467
             866     2.84042E-03     22.2196E-03     730.477E-03     652.950E-03        -2.28827     636.647E-03        -2.19444     652.950E-03     242.904E-03     109.777E-03    -54.8426E-03    -54.9450E-03    -54.8683E-03     109.724E-03    -54.8669E-03     5.80605E-03    -66.5976E+06    -85.4618E+06    -266.405E+06    -85.4628E+06    -266.404E+06    -66.5976E+06     9.28505E+03         28.6560
             867     1.89401E-03     22.2134E-03     905.653E-03     668.361E-03        -2.47101     617.672E-03        -2.18303     668.361E-03    -553.830E-03     109.617E-03    -54.7470E-03    -54.8724E-03    -54.8473E-03     109.591E-03    -54.7470E-03     3.94626E-03    -81.4876E+06    -90.6264E+06    -277.359E+06    -90.6273E+06    -277.358E+06    -81.4876E+06     278.722E+03         28.5188
             868     947.326E-06     22.2098E-03         1.44738         1.20576        -3.54052     135.407E-03        -2.24909         1.22631         1.79872     109.303E-03    -54.4758E-03    -54.8294E-03    -54.8202E-03     109.294E-03    -54.4758E-03     2.38026E-03    -91.5103E+06    -94.4477E+06    -284.205E+06    -94.3304E+06    -284.204E+06    -91.6283E+06     257.695E+03         28.4343
             869     16.1006E-03     21.4772E-03     645.202E-03     630.487E-03        -2.18885     634.126E-03        -2.18870     641.421E-03    -29.9035E-03     111.103E-03    -53.9115E-03    -57.2725E-03    -53.1645E-03     108.008E-03    -54.9240E-03     33.6857E-03     172.769E+06     122.211E+06    -7.64591E+06    -7.63424E+06     172.757E+06     122.211E+06     748.950E+03         41.3419
             870     15.1527E-03     21.4051E-03     646.382E-03     627.831E-03        -2.18215     631.991E-03        -2.18199     642.066E-03    -12.8533E-03     112.136E-03    -54.7702E-03    -57.4133E-03    -53.3247E-03     108.132E-03    -54.8547E-03     49.4812E-03     170.552E+06     103.276E+06    -15.6595E+06    -15.6242E+06     170.517E+06     103.276E+06     2.11946E+06         39.1040
             871     14.2052E-03     21.3667E-03     644.685E-03     626.550E-03        -2.17725     628.217E-03        -2.17719     642.955E-03    -3.26229E-03     110.612E-03    -54.6102E-03    -56.0639E-03    -53.3272E-03     107.960E-03    -54.6946E-03     41.2023E-03     165.988E+06     58.4533E+06    -21.4766E+06    -21.4329E+06     165.944E+06     58.4533E+06     2.74307E+06         37.1984
             872     13.2575E-03     21.3150E-03     644.272E-03     622.746E-03        -2.17253     622.693E-03        -2.17248     644.272E-03     6.67652E-03     110.893E-03    -54.5909E-03    -56.3187E-03    -53.6133E-03     108.188E-03    -54.5909E-03     41.7600E-03     126.841E+06     17.1543E+06    -25.0003E+06    -24.9717E+06     126.812E+06     17.1543E+06     1.86402E+06         35.9000
             873     12.3107E-03     21.2762E-03     651.136E-03     630.220E-03        -2.18545     635.276E-03        -2.18490     645.529E-03    -38.0412E-03     110.311E-03    -54.6580E-03    -55.6645E-03    -54.0255E-03     108.672E-03    -54.6580E-03     32.6801E-03     45.9080E+06     3.40657E+06    -28.4201E+06    -28.3914E+06     45.8793E+06     3.40657E+06     912.376E+03         34.8423
             874     11.3628E-03     21.2427E-03     652.144E-03     641.685E-03        -2.19437     647.297E-03        -2.19383     645.998E-03    -40.3026E-03     110.227E-03    -54.7636E-03    -55.5216E-03    -54.4576E-03     109.163E-03    -54.7636E-03     26.2312E-03     1.46450E+06    -15.9366E+06    -42.1455E+06    -31.7616E+06    -25.9151E+06     1.05913E+06     1.02722E+06         33.7492
             875     10.4163E-03     21.2172E-03     647.833E-03     633.994E-03        -2.18149     635.021E-03        -2.18128     646.597E-03    -16.8728E-03     109.945E-03    -54.8267E-03    -55.1910E-03    -54.5140E-03     109.268E-03    -54.8267E-03     21.0254E-03     807.358E+03    -35.0218E+06    -75.1505E+06    -35.0929E+06    -75.0794E+06     807.358E+03     1.48531E+06         32.6798
             876     9.46924E-03     21.1963E-03     651.579E-03     629.761E-03        -2.18172     632.910E-03        -2.18124     647.948E-03    -20.8892E-03     109.814E-03    -54.8684E-03    -55.0015E-03    -54.4717E-03     109.301E-03    -54.8846E-03     18.3427E-03     720.351E+03    -38.6790E+06    -110.675E+06    -38.7153E+06    -110.638E+06     720.351E+03     1.53518E+06         31.7573
             877     8.52213E-03     21.1766E-03     660.214E-03     642.751E-03        -2.20239     654.051E-03        -2.20188     648.397E-03     40.3137E-03     109.872E-03    -54.8816E-03    -55.0191E-03    -54.6005E-03     109.474E-03    -54.9026E-03     16.1152E-03    -2.00251E+06    -43.2207E+06    -139.914E+06    -43.2464E+06    -139.888E+06    -2.00251E+06     1.44832E+06         30.9919
             878     7.57555E-03     21.1598E-03     658.619E-03     639.625E-03        -2.20078     648.772E-03        -2.19934     648.029E-03    -47.7847E-03     109.804E-03    -54.8625E-03    -54.9539E-03    -54.6180E-03     109.515E-03    -54.9100E-03     13.7219E-03    -6.38104E+06    -48.6651E+06    -168.272E+06    -48.6824E+06    -168.255E+06    -6.38104E+06     1.19471E+06         30.3564
             879     6.62843E-03     21.1451E-03     656.308E-03     639.153E-03        -2.19678     643.999E-03        -2.19363     648.312E-03     19.5003E-03     109.723E-03    -54.8240E-03    -54.9295E-03    -54.6097E-03     109.508E-03    -54.9295E-03     11.8412E-03    -11.7270E+06    -55.0898E+06    -195.214E+06    -55.0957E+06    -195.208E+06    -11.7270E+06     667.069E+03         29.8313
             880     5.68163E-03     21.1322E-03     659.049E-03     645.968E-03        -2.20623     652.023E-03        -2.20161     648.373E-03    -21.9361E-03     109.711E-03    -54.8168E-03    -54.9304E-03    -54.6543E-03     109.548E-03    -54.9304E-03     10.3066E-03    -20.1458E+06    -62.4093E+06    -220.501E+06    -62.4121E+06    -220.498E+06    -20.1458E+06     360.362E+03         29.4048
             881     4.73468E-03     21.1210E-03     655.822E-03     643.627E-03        -2.20424     641.632E-03        -2.19527     648.846E-03     64.4028E-03     109.695E-03    -54.8046E-03    -54.9054E-03    -54.6878E-03     109.578E-03    -54.9054E-03     8.72361E-03    -32.4306E+06    -70.1021E+06    -241.170E+06    -70.1032E+06    -241.169E+06    -32.4306E+06    -121.646E+03         29.0699
             882     3.78781E-03     21.1120E-03     661.871E-03     647.477E-03        -2.21443     629.695E-03        -2.18721     652.432E-03    -154.395E-03     109.598E-03    -54.7677E-03    -54.8409E-03    -54.6939E-03     109.518E-03    -54.8346E-03     7.21954E-03    -48.1887E+06    -77.5597E+06    -255.716E+06    -77.5606E+06    -255.715E+06    -48.1887E+06    -312.201E+03         28.8156
             883     2.84101E-03     21.1042E-03     717.834E-03     656.435E-03        -2.27502     642.595E-03        -2.20117     657.821E-03     218.768E-03     109.486E-03    -54.6817E-03    -54.8196E-03    -54.6930E-03     109.438E-03    -54.7594E-03     5.58478E-03    -65.6795E+06    -84.5036E+06    -267.097E+06    -84.5045E+06    -267.096E+06    -65.6795E+06     144.511E+03         28.6260
             884     1.89407E-03     21.0983E-03     882.884E-03     663.015E-03        -2.43501     652.438E-03        -2.20457     663.015E-03    -501.106E-03     109.348E-03    -54.5999E-03    -54.7533E-03    -54.6444E-03     109.324E-03    -54.6855E-03     3.82638E-03    -80.7814E+06    -90.2371E+06    -277.256E+06    -90.2383E+06    -277.254E+06    -80.7814E+06     393.732E+03         28.4922
             885     946.830E-06     21.0958E-03         1.31703         1.11888        -3.31390     180.644E-03        -2.20896         1.15033         1.59086     109.248E-03    -54.4881E-03    -54.7632E-03    -54.7294E-03     109.239E-03    -54.5130E-03     2.26989E-03    -90.5618E+06    -93.7145E+06    -282.912E+06    -93.4266E+06    -282.911E+06    -90.8512E+06     131.072E+03         28.4121
             886     16.1004E-03     20.3602E-03     646.725E-03     632.864E-03        -2.18430     635.251E-03        -2.18410     644.138E-03    -8.10445E-03     111.428E-03    -54.0234E-03    -57.5236E-03    -53.4833E-03     108.295E-03    -54.9300E-03     34.1496E-03     171.969E+06     122.561E+06    -7.48870E+06    -7.47617E+06     171.957E+06     122.561E+06     861.921E+03         41.3025
             887     15.1537E-03     20.2890E-03     648.894E-03     637.941E-03        -2.19215     642.129E-03        -2.19202     644.577E-03    -19.0667E-03     112.285E-03    -54.8035E-03    -57.5115E-03    -53.4175E-03     108.275E-03    -54.8879E-03     49.4432E-03     169.487E+06     107.086E+06    -14.0239E+06    -14.0084E+06     169.472E+06     107.086E+06     1.24873E+06         39.0640
             888     14.2049E-03     20.2526E-03     646.965E-03     630.287E-03        -2.18425     631.899E-03        -2.18413     645.235E-03    -20.1761E-03     110.666E-03    -54.6536E-03    -56.0508E-03    -53.3040E-03     108.004E-03    -54.7380E-03     41.2078E-03     165.278E+06     63.1738E+06    -19.0982E+06    -19.0820E+06     165.262E+06     63.1738E+06     1.58271E+06         37.1673
             889     13.2574E-03     20.1989E-03     649.719E-03     627.834E-03        -2.18039     631.067E-03        -2.18025     646.352E-03    -5.01315E-03     111.295E-03    -54.5829E-03    -56.7349E-03    -54.0374E-03     108.597E-03    -54.5829E-03     41.6805E-03     127.820E+06     19.6772E+06    -23.4853E+06    -23.4443E+06     127.779E+06     19.6772E+06     2.33109E+06         35.8808
             890     12.3104E-03     20.1606E-03     650.872E-03     630.069E-03        -2.18256     633.276E-03        -2.18240     647.505E-03    -13.1836E-03     110.701E-03    -54.5971E-03    -56.1251E-03    -54.5396E-03     109.115E-03    -54.5971E-03     32.2574E-03     47.5434E+06     4.39673E+06    -26.9116E+06    -26.8248E+06     47.4567E+06     4.39673E+06     2.21502E+06         34.8165
             891     11.3644E-03     20.1269E-03     649.358E-03     630.460E-03        -2.18542     630.516E-03        -2.18493     648.819E-03     15.1769E-03     110.135E-03    -54.6715E-03    -55.5328E-03    -54.5055E-03     109.108E-03    -54.6715E-03     25.7174E-03     1.48906E+06    -14.8546E+06    -42.1638E+06    -29.7383E+06    -26.6374E+06     846.306E+03     1.75408E+06         33.7082
             892     10.4171E-03     20.1025E-03     651.422E-03     636.625E-03        -2.19637     637.313E-03        -2.19583     650.186E-03     13.8016E-03     109.743E-03    -54.7241E-03    -55.0937E-03    -54.4765E-03     109.125E-03    -54.7241E-03     20.0506E-03     698.358E+03    -32.9253E+06    -75.4218E+06    -33.0180E+06    -75.3290E+06     698.358E+03     1.77266E+06         32.6322
             893     9.46990E-03     20.0808E-03     658.864E-03     646.989E-03        -2.21432     654.888E-03        -2.21397     650.610E-03    -58.0413E-03     109.831E-03    -54.7646E-03    -55.1158E-03    -54.6593E-03     109.374E-03    -54.7646E-03     17.2820E-03     274.531E+03    -37.1649E+06    -110.191E+06    -37.2306E+06    -110.126E+06     274.531E+03     2.06873E+06         31.7085
             894     8.52348E-03     20.0614E-03     662.876E-03     649.751E-03        -2.21681     662.485E-03        -2.21642     649.751E-03     3.23972E-03     109.760E-03    -54.7546E-03    -55.0291E-03    -54.6887E-03     109.420E-03    -54.7546E-03     14.8814E-03    -2.91819E+06    -42.2908E+06    -139.683E+06    -42.3530E+06    -139.621E+06    -2.91819E+06     2.32063E+06         30.9402
             895     7.57645E-03     20.0452E-03     655.413E-03     633.389E-03        -2.19193     637.868E-03        -2.19084     649.845E-03    -34.8831E-03     109.533E-03    -54.7131E-03    -54.8337E-03    -54.5575E-03     109.288E-03    -54.7433E-03     12.6591E-03    -7.22686E+06    -48.0863E+06    -167.349E+06    -48.1323E+06    -167.303E+06    -7.22686E+06     2.13074E+06         30.3012
             896     6.62959E-03     20.0304E-03     652.698E-03     625.597E-03        -2.18338     623.985E-03        -2.18177     652.698E-03    -7.36940E-03     109.418E-03    -54.6985E-03    -54.7501E-03    -54.5105E-03     109.230E-03    -54.7501E-03     11.0676E-03    -13.0105E+06    -54.7582E+06    -194.662E+06    -54.7828E+06    -194.637E+06    -13.0105E+06     1.54521E+06         29.7754
             897     5.68249E-03     20.0178E-03     669.132E-03     644.103E-03        -2.21990     655.517E-03        -2.21693     654.747E-03    -51.5257E-03     109.365E-03    -54.6598E-03    -54.7417E-03    -54.5191E-03     109.224E-03    -54.7417E-03     9.56063E-03    -21.3550E+06    -61.8405E+06    -220.044E+06    -61.8502E+06    -220.034E+06    -21.3550E+06     1.13700E+06         29.3501
             898     4.73552E-03     20.0066E-03     687.787E-03     652.000E-03        -2.25187     679.325E-03        -2.24341     652.000E-03     77.1393E-03     109.306E-03    -54.6119E-03    -54.7131E-03    -54.5108E-03     109.205E-03    -54.7131E-03     8.10247E-03    -33.3577E+06    -69.7404E+06    -240.427E+06    -69.7479E+06    -240.419E+06    -33.3577E+06     790.350E+03         29.0168
             899     3.78851E-03     19.9979E-03     675.845E-03     647.165E-03        -2.23773     654.195E-03        -2.21747     648.551E-03    -91.1388E-03     109.194E-03    -54.5545E-03    -54.6525E-03    -54.4902E-03     109.123E-03    -54.6462E-03     6.76422E-03    -48.9185E+06    -78.2072E+06    -255.809E+06    -78.2102E+06    -255.806E+06    -48.9185E+06     250.865E+03         28.7638
             900     2.84142E-03     19.9896E-03     699.439E-03     648.530E-03        -2.25768     637.003E-03        -2.19663     649.916E-03     243.184E-03     109.043E-03    -54.4554E-03    -54.6020E-03    -54.4186E-03     109.000E-03    -54.5957E-03     5.22970E-03    -65.7201E+06    -85.3483E+06    -267.640E+06    -85.3493E+06    -267.639E+06    -65.7201E+06     238.734E+03         28.5766
             901     1.89396E-03     19.9848E-03     843.964E-03     653.178E-03        -2.39637     648.347E-03        -2.20075     653.178E-03    -441.468E-03     109.029E-03    -54.4330E-03    -54.6017E-03    -54.4680E-03     109.010E-03    -54.5472E-03     3.45483E-03    -81.2142E+06    -90.5696E+06    -276.468E+06    -90.5708E+06    -276.467E+06    -81.2142E+06     411.535E+03         28.4475
             902     947.082E-06     19.9811E-03         1.22953         1.02807        -3.14646     225.970E-03        -2.19721         1.08238         1.43077     108.982E-03    -54.3166E-03    -54.6692E-03    -54.6385E-03     108.976E-03    -54.3415E-03     1.73025E-03    -92.3303E+06    -94.9897E+06    -282.629E+06    -94.8198E+06    -282.628E+06    -92.5016E+06     121.753E+03         28.3719
             903     16.1006E-03     19.2437E-03     645.539E-03     630.166E-03        -2.18423     629.951E-03        -2.18401     645.539E-03    -7.35661E-03     111.247E-03    -54.0273E-03    -57.3104E-03    -53.2935E-03     108.131E-03    -54.9283E-03     34.3924E-03     171.577E+06     122.181E+06    -7.78376E+06    -7.77972E+06     171.573E+06     122.181E+06     310.763E+03         41.2665
             904     15.1524E-03     19.1737E-03     646.590E-03     628.990E-03        -2.18246     628.955E-03        -2.18243     646.590E-03     8.57948E-03     112.475E-03    -54.8819E-03    -57.6048E-03    -53.6179E-03     108.488E-03    -54.8819E-03     49.3319E-03     169.722E+06     106.585E+06    -14.4924E+06    -14.4882E+06     169.717E+06     106.585E+06    -475.592E+03         39.0288
             905     14.2057E-03     19.1366E-03     647.703E-03     632.637E-03        -2.18932     632.512E-03        -2.18919     647.703E-03     1.94586E-03     111.296E-03    -54.7053E-03    -56.6431E-03    -54.0593E-03     108.712E-03    -54.7053E-03     40.8281E-03     164.228E+06     62.6231E+06    -19.7769E+06    -19.7661E+06     164.217E+06     62.6231E+06     533.155E+03         37.1328
             906     13.2584E-03     19.0829E-03     651.643E-03     644.828E-03        -2.20460     648.074E-03        -2.20447     648.276E-03    -1.45949E-03     111.530E-03    -54.5048E-03    -57.0582E-03    -54.4790E-03     108.951E-03    -54.5048E-03     40.8509E-03     126.980E+06     18.9493E+06    -23.2477E+06    -23.2079E+06     126.940E+06     18.9493E+06     2.16681E+06         35.8426
             907     12.3123E-03     19.0434E-03     651.843E-03     641.821E-03        -2.20552     644.965E-03        -2.20529     648.476E-03    -23.0440E-03     110.673E-03    -54.4808E-03    -56.2145E-03    -54.7493E-03     109.208E-03    -54.4808E-03     30.9673E-03     48.1729E+06     3.49506E+06    -25.9022E+06    -25.7033E+06     47.9740E+06     3.49506E+06     2.88533E+06         34.7654
             908     11.3654E-03     19.0119E-03     649.377E-03     632.562E-03        -2.19660     632.003E-03        -2.19604     649.377E-03     6.82591E-03     110.223E-03    -54.5225E-03    -55.7678E-03    -54.8545E-03     109.310E-03    -54.5225E-03     24.2886E-03     1.48917E+06    -14.8164E+06    -41.3979E+06    -28.7701E+06    -26.0937E+06     138.687E+03     2.89009E+06         33.6415
             909     10.4187E-03     18.9863E-03     650.798E-03     636.003E-03        -2.19885     635.594E-03        -2.19844     650.798E-03     23.4075E-03     109.868E-03    -54.5218E-03    -55.4192E-03    -54.8847E-03     109.333E-03    -54.5218E-03     18.6098E-03    -534.555E+03    -32.3399E+06    -75.3343E+06    -32.5687E+06    -75.1056E+06    -534.555E+03     2.77527E+06         32.5553
             910     9.47261E-03     18.9653E-03     656.484E-03     639.545E-03        -2.20470     644.053E-03        -2.20458     651.861E-03    -28.7980E-03     109.665E-03    -54.5116E-03    -55.2032E-03    -54.8337E-03     109.295E-03    -54.5116E-03     15.5353E-03    -1.04332E+06    -36.5056E+06    -110.101E+06    -36.6377E+06    -109.969E+06    -1.04332E+06     2.99955E+06         31.6231
             911     8.52558E-03     18.9464E-03     659.866E-03     637.698E-03        -2.20565     644.583E-03        -2.20538     652.707E-03     20.7729E-03     109.312E-03    -54.4707E-03    -54.8669E-03    -54.5990E-03     109.044E-03    -54.4707E-03     13.1407E-03    -4.49559E+06    -41.3807E+06    -139.864E+06    -41.5140E+06    -139.730E+06    -4.49559E+06     3.50277E+06         30.8472
             912     7.57869E-03     18.9305E-03     659.274E-03     639.379E-03        -2.20894     644.076E-03        -2.20818     653.812E-03    -20.0464E-03     109.046E-03    -54.4268E-03    -54.6356E-03    -54.4388E-03     108.860E-03    -54.4372E-03     10.9759E-03    -8.91085E+06    -47.5000E+06    -166.782E+06    -47.6324E+06    -166.650E+06    -8.91085E+06     3.80395E+06         30.2059
             913     6.63136E-03     18.9158E-03     661.977E-03     637.411E-03        -2.20914     642.829E-03        -2.20794     655.353E-03     5.08325E-03     108.872E-03    -54.4107E-03    -54.4878E-03    -54.3347E-03     108.730E-03    -54.4222E-03     9.53285E-03    -14.2546E+06    -54.4902E+06    -193.189E+06    -54.5794E+06    -193.100E+06    -14.2546E+06     3.23607E+06         29.6819
             914     5.68434E-03     18.9027E-03     670.411E-03     639.805E-03        -2.21530     651.033E-03        -2.21283     656.714E-03    -42.8599E-03     108.702E-03    -54.3404E-03    -54.3952E-03    -54.2391E-03     108.600E-03    -54.3939E-03     8.09400E-03    -23.7820E+06    -62.3719E+06    -219.339E+06    -62.4225E+06    -219.288E+06    -23.7820E+06     2.55700E+06         29.2586
             915     4.73692E-03     18.8925E-03     686.959E-03     648.316E-03        -2.24199     673.837E-03        -2.23589     655.336E-03     53.3857E-03     108.571E-03    -54.2264E-03    -54.3646E-03    -54.1515E-03     108.496E-03    -54.3646E-03     6.91913E-03    -35.1428E+06    -70.3778E+06    -239.448E+06    -70.4032E+06    -239.422E+06    -35.1428E+06     1.92533E+06         28.9278
             916     3.78956E-03     18.8834E-03     688.123E-03     650.962E-03        -2.25763     671.623E-03        -2.24113     650.962E-03    -110.781E-03     108.429E-03    -54.1228E-03    -54.3185E-03    -54.0705E-03     108.377E-03    -54.3185E-03     5.74500E-03    -48.8593E+06    -77.9422E+06    -254.940E+06    -77.9492E+06    -254.933E+06    -48.8593E+06     970.533E+03         28.6781
             917     2.84198E-03     18.8763E-03     701.784E-03     646.393E-03        -2.26828     658.836E-03        -2.22533     646.393E-03     149.813E-03     108.407E-03    -54.1393E-03    -54.2787E-03    -54.1084E-03     108.375E-03    -54.2779E-03     4.48536E-03    -65.7149E+06    -85.4233E+06    -267.431E+06    -85.4250E+06    -267.430E+06    -65.7149E+06     458.848E+03         28.4946
             918     1.89494E-03     18.8704E-03     776.719E-03     649.615E-03        -2.33322     628.667E-03        -2.18517     649.615E-03    -417.615E-03     108.405E-03    -54.1404E-03    -54.2700E-03    -54.1803E-03     108.390E-03    -54.2145E-03     3.06932E-03    -81.6120E+06    -91.6719E+06    -276.096E+06    -91.6731E+06    -276.095E+06    -81.6120E+06     439.146E+03         28.3684
             919     947.695E-06     18.8672E-03         1.16855     878.329E-03        -2.95983     228.365E-03        -2.22262         1.08130         1.21465     108.284E-03    -54.0468E-03    -54.2403E-03    -54.1905E-03     108.280E-03    -54.0923E-03     1.51508E-03    -92.3877E+06    -95.6760E+06    -281.890E+06    -95.3726E+06    -281.889E+06    -92.6928E+06     558.118E+03         28.2948
             920     16.1007E-03     18.1289E-03     646.767E-03     634.190E-03        -2.19222     633.949E-03        -2.19198     646.767E-03    -9.58953E-03     111.213E-03    -53.9901E-03    -57.2965E-03    -53.3122E-03     108.142E-03    -54.9027E-03     34.2414E-03     172.061E+06     121.538E+06    -7.13969E+06    -7.13621E+06     172.058E+06     121.538E+06     313.918E+03         41.2366
             921     15.1530E-03     18.0578E-03     647.738E-03     630.659E-03        -2.18744     630.488E-03        -2.18727     647.738E-03     9.54122E-03     112.736E-03    -54.7894E-03    -57.9722E-03    -54.0404E-03     108.804E-03    -54.7894E-03     49.0747E-03     170.474E+06     100.835E+06    -15.5190E+06    -15.5146E+06     170.469E+06     100.835E+06    -581.349E+03         38.9977
             922     14.2064E-03     18.0188E-03     648.633E-03     639.188E-03        -2.19557     639.107E-03        -2.19549     648.633E-03    -3.17553E-03     111.890E-03    -54.5599E-03    -57.4151E-03    -54.9385E-03     109.414E-03    -54.5599E-03     40.2268E-03     162.562E+06     54.9907E+06    -22.1235E+06    -22.1172E+06     162.555E+06     54.9907E+06    -399.022E+03         37.0877
             923     13.2611E-03     17.9668E-03     649.358E-03     638.513E-03        -2.19531     638.466E-03        -2.19526     649.358E-03     8.22484E-03     111.943E-03    -54.3441E-03    -57.6373E-03    -55.1999E-03     109.505E-03    -54.3441E-03     39.8656E-03     125.396E+06     14.8960E+06    -25.3116E+06    -25.2862E+06     125.371E+06     14.8960E+06     1.21979E+06         35.7727
             924     12.3140E-03     17.9271E-03     650.483E-03     632.728E-03        -2.19267     632.475E-03        -2.19241     650.483E-03    -26.7669E-03     110.854E-03    -54.2663E-03    -56.6128E-03    -55.2844E-03     109.526E-03    -54.2663E-03     29.4333E-03     47.7850E+06     1.12870E+06    -27.5459E+06    -27.2947E+06     47.5338E+06     1.12870E+06     3.05206E+06         34.6758
             925     11.3683E-03     17.8954E-03     658.441E-03     642.092E-03        -2.21108     648.934E-03        -2.21083     651.346E-03    -24.8017E-03     110.504E-03    -54.2349E-03    -56.3377E-03    -55.5995E-03     109.766E-03    -54.2349E-03     21.7612E-03     1.03683E+06    -16.0147E+06    -41.7994E+06    -29.8610E+06    -25.5094E+06    -1.40688E+06     3.76623E+06         33.5379
             926     10.4226E-03     17.8706E-03     663.874E-03     649.739E-03        -2.22720     662.567E-03        -2.22713     650.973E-03    -5.12998E-03     109.884E-03    -54.1563E-03    -55.8045E-03    -55.4167E-03     109.496E-03    -54.1563E-03     15.7667E-03    -1.49059E+06    -32.4908E+06    -74.6775E+06    -32.9144E+06    -74.2538E+06    -1.49059E+06     3.74027E+06         32.4352
             927     9.47604E-03     17.8500E-03     656.740E-03     635.650E-03        -2.20820     641.386E-03        -2.20813     650.933E-03    -7.51317E-03     109.182E-03    -54.0735E-03    -55.1616E-03    -54.9117E-03     108.932E-03    -54.0735E-03     12.6320E-03    -2.34409E+06    -36.5398E+06    -110.327E+06    -36.7739E+06    -110.093E+06    -2.34409E+06     4.04825E+06         31.4866
             928     8.52946E-03     17.8314E-03     653.276E-03     619.599E-03        -2.18999     619.383E-03        -2.18977     653.276E-03     41.0286E-03     108.664E-03    -53.9749E-03    -54.7202E-03    -54.5488E-03     108.492E-03    -53.9749E-03     10.3273E-03    -5.65936E+06    -40.9817E+06    -140.217E+06    -41.2069E+06    -139.992E+06    -5.65936E+06     4.61996E+06         30.7014
             929     7.58219E-03     17.8157E-03     663.257E-03     637.418E-03        -2.21678     644.155E-03        -2.21614     655.878E-03    -17.1813E-03     108.322E-03    -53.8878E-03    -54.4549E-03    -54.3469E-03     108.214E-03    -53.8878E-03     8.14691E-03    -9.67143E+06    -45.9273E+06    -165.812E+06    -46.1464E+06    -165.593E+06    -9.67143E+06     5.08820E+06         30.0575
             930     6.63525E-03     17.8020E-03     675.979E-03     655.204E-03        -2.24416     674.815E-03        -2.24299     655.204E-03     13.8093E-03     107.915E-03    -53.8291E-03    -54.1058E-03    -54.0316E-03     107.840E-03    -53.8291E-03     6.65526E-03    -13.7250E+06    -52.2453E+06    -192.307E+06    -52.4784E+06    -192.074E+06    -13.7250E+06     5.56987E+06         29.5339
             931     5.68746E-03     17.7899E-03     667.247E-03     641.484E-03        -2.21831     653.040E-03        -2.21647     653.850E-03    -12.3382E-03     107.504E-03    -53.7234E-03    -53.8064E-03    -53.7025E-03     107.452E-03    -53.7747E-03     5.61643E-03    -22.4781E+06    -60.2995E+06    -217.199E+06    -60.4796E+06    -217.019E+06    -22.4781E+06     5.02682E+06         29.1119
             932     4.73977E-03     17.7792E-03     659.285E-03     631.609E-03        -2.19852     630.649E-03        -2.19475     656.474E-03     46.2819E-03     107.289E-03    -53.5747E-03    -53.7350E-03    -53.5357E-03     107.250E-03    -53.7350E-03     4.84778E-03    -34.9385E+06    -68.7434E+06    -237.022E+06    -68.8100E+06    -236.955E+06    -34.9385E+06     2.96584E+06         28.7832
             933     3.79171E-03     17.7707E-03     673.662E-03     642.225E-03        -2.22659     644.085E-03        -2.21600     661.206E-03    -85.4752E-03     107.173E-03    -53.4972E-03    -53.6871E-03    -53.4702E-03     107.146E-03    -53.6871E-03     4.03698E-03    -48.6907E+06    -76.7841E+06    -253.953E+06    -76.8041E+06    -253.933E+06    -48.6907E+06     1.76918E+06         28.5373
             934     2.84382E-03     17.7633E-03     699.757E-03     656.008E-03        -2.27281     668.054E-03        -2.24759     662.491E-03     112.594E-03     107.114E-03    -53.4803E-03    -53.6438E-03    -53.4638E-03     107.097E-03    -53.6429E-03     3.21841E-03    -65.2902E+06    -84.3372E+06    -266.338E+06    -84.3498E+06    -266.325E+06    -65.2902E+06     1.26696E+06         28.3570
             935     1.89575E-03     17.7581E-03     767.524E-03     657.113E-03        -2.34132     675.275E-03        -2.24908     657.113E-03    -343.852E-03     107.045E-03    -53.4266E-03    -53.6257E-03    -53.4182E-03     107.036E-03    -53.6249E-03     2.27340E-03    -80.8565E+06    -90.4692E+06    -275.964E+06    -90.4716E+06    -275.962E+06    -80.8565E+06     373.455E+03         28.2334
             936     947.450E-06     17.7553E-03         1.09098     764.670E-03        -2.77032     296.821E-03        -2.21968         1.00819         1.04781     107.191E-03    -53.4285E-03    -53.7672E-03    -53.6476E-03     107.188E-03    -53.5451E-03     1.25283E-03    -90.5096E+06    -94.5336E+06    -280.861E+06    -94.2349E+06    -280.854E+06    -90.8147E+06    -306.741E+03         28.1633
             937     16.1012E-03     17.0133E-03     648.161E-03     630.946E-03        -2.20007     630.818E-03        -2.19994     648.161E-03     3.57643E-03     111.958E-03    -54.1494E-03    -57.8622E-03    -54.1013E-03     108.911E-03    -54.8631E-03     34.5870E-03     172.322E+06     121.109E+06    -7.34819E+06    -7.33787E+06     172.312E+06     121.109E+06     883.821E+03         41.2172
             938     15.1545E-03     16.9410E-03     649.163E-03     635.791E-03        -2.20483     635.622E-03        -2.20466     649.163E-03    -5.52042E-03     113.548E-03    -54.6349E-03    -58.9608E-03    -55.1056E-03     109.693E-03    -54.6349E-03     48.7312E-03     171.878E+06     96.4584E+06    -15.9618E+06    -15.9502E+06     171.866E+06     96.4584E+06     940.377E+03         38.9665
             939     14.2085E-03     16.9018E-03     650.026E-03     639.648E-03        -2.20639     639.561E-03        -2.20630     650.026E-03    -30.4776E-03     112.249E-03    -54.3230E-03    -58.0342E-03    -55.7674E-03     109.982E-03    -54.3230E-03     38.6524E-03     161.814E+06     47.8446E+06    -23.2494E+06    -23.2465E+06     161.811E+06     47.8446E+06     6.87748E+03         37.0264
             940     13.2627E-03     16.8486E-03     651.098E-03     633.865E-03        -2.19773     633.788E-03        -2.19765     651.098E-03    -2.86742E-03     112.522E-03    -54.0755E-03    -58.4752E-03    -56.3383E-03     110.385E-03    -54.0755E-03     37.3363E-03     123.079E+06     10.4282E+06    -27.6499E+06    -27.6326E+06     123.061E+06     10.4282E+06     804.686E+03         35.6716
             941     12.3187E-03     16.8108E-03     655.126E-03     634.421E-03        -2.20062     636.704E-03        -2.20017     652.402E-03    -33.7303E-03     111.649E-03    -53.8858E-03    -57.7842E-03    -56.7248E-03     110.590E-03    -53.8858E-03     26.2568E-03     46.8931E+06    -990.659E+03    -30.2535E+06    -30.0887E+06     46.7284E+06    -990.659E+03     2.54514E+06         34.5447
             942     11.3739E-03     16.7782E-03     662.813E-03     644.684E-03        -2.21929     654.042E-03        -2.21883     652.994E-03    -29.1579E-03     110.702E-03    -53.7183E-03    -57.0588E-03    -56.5511E-03     110.194E-03    -53.7183E-03     17.8066E-03     471.074E+03    -17.3268E+06    -42.8395E+06    -31.5713E+06    -25.2673E+06    -2.85656E+06     3.40406E+06         33.3858
             943     10.4288E-03     16.7554E-03     665.669E-03     644.608E-03        -2.22375     657.318E-03        -2.22356     652.768E-03    -7.45130E-03     109.591E-03    -53.5330E-03    -56.1403E-03    -55.9252E-03     109.376E-03    -53.5330E-03     11.4624E-03    -2.31428E+06    -33.1781E+06    -74.4678E+06    -33.6536E+06    -73.9923E+06    -2.31428E+06     4.03246E+06         32.2638
             944     9.48297E-03     16.7354E-03     660.747E-03     639.899E-03        -2.21923     647.526E-03        -2.21899     652.886E-03    -30.9158E-03     108.686E-03    -53.3387E-03    -55.3847E-03    -55.2735E-03     108.575E-03    -53.3387E-03     8.01356E-03    -2.71079E+06    -36.6644E+06    -110.494E+06    -36.9947E+06    -110.164E+06    -2.71079E+06     4.87112E+06         31.2980
             945     8.53606E-03     16.7177E-03     659.948E-03     635.255E-03        -2.21801     641.082E-03        -2.21781     653.924E-03     11.7154E-03     107.805E-03    -53.1214E-03    -54.7010E-03    -54.6384E-03     107.742E-03    -53.1214E-03     5.53209E-03    -6.09427E+06    -40.9525E+06    -139.834E+06    -41.2672E+06    -139.519E+06    -6.09427E+06     5.49756E+06         30.4988
             946     7.58925E-03     16.7026E-03     663.557E-03     639.763E-03        -2.22094     647.376E-03        -2.22013     655.135E-03    -44.4887E-03     106.974E-03    -52.9401E-03    -54.0492E-03    -54.0170E-03     106.942E-03    -52.9401E-03     3.53679E-03    -10.3495E+06    -45.9459E+06    -165.625E+06    -46.2622E+06    -165.308E+06    -10.3495E+06     6.08070E+06         29.8447
             947     6.64161E-03     16.6896E-03     670.839E-03     651.503E-03        -2.23543     666.218E-03        -2.23410     654.795E-03    -4.49972E-03     106.229E-03    -52.8110E-03    -53.4291E-03    -53.4109E-03     106.211E-03    -52.8110E-03     2.42821E-03    -14.2082E+06    -51.3423E+06    -191.772E+06    -51.6865E+06    -191.427E+06    -14.2082E+06     6.93518E+06         29.3151
             948     5.69339E-03     16.6783E-03     669.516E-03     647.807E-03        -2.23260     663.167E-03        -2.23160     653.153E-03     12.9376E-03     105.606E-03    -52.6802E-03    -52.9397E-03    -52.8976E-03     105.593E-03    -52.7089E-03     1.93875E-03    -21.1001E+06    -57.5019E+06    -214.207E+06    -57.7887E+06    -213.920E+06    -21.1001E+06     6.61005E+06         28.8898
             949     4.74449E-03     16.6679E-03     658.894E-03     633.418E-03        -2.21035     636.104E-03        -2.20826     654.122E-03     45.4968E-03     105.209E-03    -52.5492E-03    -52.6739E-03    -52.5771E-03     105.198E-03    -52.6356E-03     1.64079E-03    -33.1964E+06    -65.3986E+06    -234.020E+06    -65.5908E+06    -233.828E+06    -33.1964E+06     5.29882E+06         28.5599
             950     3.79581E-03     16.6596E-03     659.943E-03     632.930E-03        -2.21131     627.468E-03        -2.20585     659.943E-03    -54.4612E-03     104.978E-03    -52.4257E-03    -52.5591E-03    -52.4181E-03     104.971E-03    -52.5591E-03     1.51378E-03    -48.3518E+06    -74.5410E+06    -251.746E+06    -74.6438E+06    -251.643E+06    -48.3518E+06     3.62096E+06         28.3153
             951     2.84693E-03     16.6522E-03     683.499E-03     654.143E-03        -2.25553     654.606E-03        -2.23829     665.798E-03     134.911E-03     104.828E-03    -52.3257E-03    -52.5103E-03    -52.3209E-03     104.824E-03    -52.5103E-03     1.28789E-03    -64.2120E+06    -82.3677E+06    -264.713E+06    -82.3934E+06    -264.688E+06    -64.2120E+06     2.05134E+06         28.1378
             952     1.89775E-03     16.6472E-03     735.917E-03     666.340E-03        -2.32150     671.466E-03        -2.25705     666.340E-03    -273.206E-03     104.801E-03    -52.2999E-03    -52.5103E-03    -52.3282E-03     104.799E-03    -52.4799E-03     854.562E-06    -79.8325E+06    -88.7275E+06    -274.308E+06    -88.7412E+06    -274.295E+06    -79.8325E+06     1.14295E+06         28.0188
             953     948.937E-06     16.6433E-03         1.00484     734.988E-03        -2.64983     376.978E-03        -2.23995     952.967E-03     908.867E-03     104.866E-03    -52.1969E-03    -52.6752E-03    -52.6032E-03     104.866E-03    -52.2681E-03     478.179E-06    -90.8955E+06    -95.0360E+06    -280.620E+06    -94.0248E+06    -280.609E+06    -91.9173E+06    -55.0446E+03         27.9527
             954     16.1017E-03     15.8970E-03     649.912E-03     632.827E-03        -2.20505     632.783E-03        -2.20500     649.912E-03    -19.6496E-03     113.315E-03    -54.5278E-03    -58.8381E-03    -55.5714E-03     110.323E-03    -54.8029E-03     35.3078E-03     170.684E+06     120.952E+06    -6.83357E+06    -6.82326E+06     170.674E+06     120.952E+06     645.759E+03         41.2161
             955     15.1569E-03     15.8231E-03     650.911E-03     637.630E-03        -2.21147     637.601E-03        -2.21144     650.911E-03    -10.3143E-03     115.051E-03    -54.4741E-03    -60.6401E-03    -56.9464E-03     111.357E-03    -54.4741E-03     47.8761E-03     171.696E+06     98.4032E+06    -14.2231E+06    -14.1610E+06     171.634E+06     98.4032E+06     2.59276E+06         38.9392
             956     14.2130E-03     15.7846E-03     652.066E-03     632.260E-03        -2.20712     632.218E-03        -2.20708     652.066E-03    -14.3844E-03     113.507E-03    -54.0202E-03    -59.6048E-03    -57.6523E-03     111.555E-03    -54.0202E-03     36.2571E-03     163.406E+06     49.2935E+06    -21.9215E+06    -21.8553E+06     163.340E+06     49.2935E+06     2.66693E+06         36.9538
             957     13.2693E-03     15.7320E-03     654.743E-03     638.897E-03        -2.21135     640.288E-03        -2.21125     653.254E-03     9.19700E-03     113.622E-03    -53.6001E-03    -60.0494E-03    -58.3297E-03     111.902E-03    -53.6001E-03     33.5129E-03     122.926E+06     9.48613E+06    -27.2998E+06    -27.2784E+06     122.905E+06     9.48613E+06     1.49204E+06         35.5504
             958     12.3262E-03     15.6918E-03     660.955E-03     650.896E-03        -2.22461     657.578E-03        -2.22395     653.610E-03    -38.0190E-03     112.349E-03    -53.2309E-03    -59.1412E-03    -58.4384E-03     111.646E-03    -53.2309E-03     21.1425E-03     46.1667E+06    -1.44062E+06    -29.6022E+06    -29.5377E+06     46.1023E+06    -1.44062E+06     1.54214E+06         34.3873
             959     11.3834E-03     15.6627E-03     659.475E-03     645.121E-03        -2.21623     650.264E-03        -2.21552     653.620E-03    -32.0502E-03     110.762E-03    -52.8874E-03    -57.9570E-03    -57.7022E-03     110.507E-03    -52.8874E-03     11.9359E-03    -298.571E+03    -17.1797E+06    -42.3066E+06    -31.0061E+06    -25.6988E+06    -3.07993E+06     2.51871E+06         33.2015
             960     10.4386E-03     15.6396E-03     654.881E-03     630.874E-03        -2.20103     630.626E-03        -2.20079     654.881E-03     4.23695E-03     109.240E-03    -52.5321E-03    -56.7866E-03    -56.7158E-03     109.169E-03    -52.5321E-03     5.35675E-03    -2.69391E+06    -32.9915E+06    -74.9239E+06    -33.3994E+06    -74.5159E+06    -2.69391E+06     3.90346E+06         32.0575
             961     9.49357E-03     15.6220E-03     658.768E-03     640.949E-03        -2.21776     642.792E-03        -2.21755     656.713E-03    -40.1040E-03     108.053E-03    -52.1614E-03    -55.9121E-03    -55.8850E-03     108.026E-03    -52.1614E-03     1.69761E-03    -2.66741E+06    -36.2569E+06    -110.619E+06    -36.6476E+06    -110.228E+06    -2.66741E+06     5.31255E+06         31.0679
             962     8.54804E-03     15.6049E-03     671.613E-03     656.392E-03        -2.24713     671.202E-03        -2.24697     656.647E-03    -281.334E-06     106.529E-03    -51.7689E-03    -54.7637E-03    -54.7410E-03     106.506E-03    -51.7689E-03    -895.453E-06    -6.29304E+06    -40.3833E+06    -139.174E+06    -40.8200E+06    -138.738E+06    -6.29304E+06     6.50688E+06         30.2425
             963     7.60046E-03     15.5920E-03     670.519E-03     651.876E-03        -2.24200     666.461E-03        -2.24123     655.168E-03    -45.1927E-03     104.901E-03    -51.4448E-03    -53.4605E-03    -53.4307E-03     104.872E-03    -51.4448E-03    -2.63561E-03    -10.8991E+06    -45.3307E+06    -165.851E+06    -45.7999E+06    -165.381E+06    -10.8991E+06     7.47633E+06         29.5670
             964     6.65181E-03     15.5796E-03     659.257E-03     645.363E-03        -2.22524     648.608E-03        -2.22415     654.924E-03    -20.9027E-03     103.688E-03    -51.2010E-03    -52.4849E-03    -52.4501E-03     103.653E-03    -51.2010E-03    -3.24613E-03    -15.6930E+06    -51.0108E+06    -190.203E+06    -51.4373E+06    -189.777E+06    -15.6930E+06     7.62000E+06         29.0209
             965     5.70264E-03     15.5690E-03     664.175E-03     648.935E-03        -2.23445     657.371E-03        -2.23391     655.203E-03     16.6161E-03     102.760E-03    -51.0034E-03    -51.7618E-03    -51.7301E-03     102.729E-03    -51.0034E-03    -3.21568E-03    -22.8825E+06    -57.4056E+06    -211.820E+06    -57.7438E+06    -211.482E+06    -22.8825E+06     7.19067E+06         28.5826
             966     4.75300E-03     15.5594E-03     671.555E-03     650.786E-03        -2.23771     667.597E-03        -2.23662     653.646E-03     47.8927E-03     101.994E-03    -50.8490E-03    -51.1567E-03    -51.1234E-03     101.972E-03    -50.8598E-03    -2.74399E-03    -32.7194E+06    -64.2653E+06    -231.832E+06    -64.5836E+06    -231.514E+06    -32.7194E+06     7.27797E+06         28.2428
             967     3.80259E-03     15.5516E-03     664.694E-03     644.218E-03        -2.22612     652.223E-03        -2.22168     652.251E-03    -67.8217E-03     101.450E-03    -50.6710E-03    -50.7885E-03    -50.7098E-03     101.436E-03    -50.7356E-03    -2.06171E-03    -46.8599E+06    -71.9102E+06    -247.683E+06    -72.1503E+06    -247.443E+06    -46.8599E+06     6.09535E+06         27.9930
             968     2.85181E-03     15.5446E-03     662.444E-03     646.422E-03        -2.23026     641.764E-03        -2.21745     654.300E-03     89.9969E-03     101.235E-03    -50.5706E-03    -50.6739E-03    -50.5850E-03     101.227E-03    -50.6515E-03    -1.42641E-03    -62.5990E+06    -80.4879E+06    -262.013E+06    -80.5917E+06    -261.910E+06    -62.5990E+06     3.81386E+06         27.8148
             969     1.90143E-03     15.5395E-03     680.213E-03     657.070E-03        -2.25645     623.465E-03        -2.20993     667.304E-03    -221.345E-03     101.140E-03    -50.5267E-03    -50.6235E-03    -50.5929E-03     101.137E-03    -50.5538E-03    -911.912E-06     -77.993E+06    -87.9299E+06    -272.115E+06    -87.9720E+06    -272.073E+06     -77.993E+06     2.71454E+06         27.6967
             970     950.886E-06     15.5359E-03     957.062E-03     678.162E-03        -2.56804     405.653E-03        -2.28915     950.684E-03     763.277E-03     100.909E-03    -50.3199E-03    -50.5943E-03    -50.5933E-03     100.908E-03    -50.3199E-03    -421.402E-06    -89.5155E+06    -93.5902E+06    -278.192E+06    -92.5946E+06    -278.165E+06    -90.5373E+06     1.94579E+06         27.6302
             971     16.1035E-03     14.7768E-03     654.023E-03     643.424E-03        -2.21165     645.812E-03        -2.21161     651.593E-03    -10.8620E-03     115.412E-03    -54.6953E-03    -60.7857E-03    -57.8909E-03     112.517E-03    -54.6953E-03     36.4279E-03     168.803E+06     120.888E+06    -8.06586E+06    -8.06384E+06     168.801E+06     120.888E+06     267.511E+03         41.2414
             972     15.1608E-03     14.7032E-03     652.133E-03     641.284E-03        -2.20941     641.274E-03        -2.20940     652.133E-03     7.69829E-03     117.349E-03    -54.2574E-03    -63.1408E-03    -59.7250E-03     113.933E-03    -54.2574E-03     46.0893E-03     169.140E+06     102.878E+06    -14.8572E+06    -14.8019E+06     169.084E+06     102.878E+06     2.27774E+06         38.9300
             973     14.2189E-03     14.6639E-03     652.986E-03     638.053E-03        -2.20836     638.029E-03        -2.20833     652.986E-03     8.85092E-03     115.614E-03    -53.6013E-03    -62.0890E-03    -60.4792E-03     114.004E-03    -53.6013E-03     33.2747E-03     165.253E+06     57.2674E+06    -19.6940E+06    -19.6024E+06     165.162E+06     57.2674E+06     3.75988E+06         36.8913
             974     13.2793E-03     14.6104E-03     655.328E-03     642.137E-03        -2.21684     643.576E-03        -2.21679     653.839E-03     13.3168E-03     115.162E-03    -52.8880E-03    -62.2970E-03    -60.9382E-03     113.803E-03    -52.8880E-03     29.7887E-03     125.764E+06     13.4342E+06    -23.3497E+06    -23.2990E+06     125.713E+06     13.4342E+06     2.62831E+06         35.4382
             975     12.3389E-03     14.5734E-03     659.057E-03     644.102E-03        -2.22147     648.308E-03        -2.22106     654.436E-03    -37.2270E-03     113.167E-03    -52.2713E-03    -60.9267E-03    -60.5077E-03     112.748E-03    -52.2713E-03     16.0033E-03      46.503E+06    -849.878E+03    -26.3948E+06    -26.3179E+06     46.4260E+06    -849.878E+03     1.67862E+06         34.2393
             976     11.3968E-03     14.5444E-03     658.518E-03     636.173E-03        -2.20957     638.844E-03        -2.20911     655.387E-03    -26.9829E-03     111.212E-03    -51.6860E-03    -59.6100E-03    -59.5159E-03     111.118E-03    -51.6860E-03     5.48261E-03    -536.403E+03    -16.2822E+06    -41.3965E+06    -29.0710E+06    -26.1853E+06    -2.95881E+06     2.51526E+06         33.0257
             977     10.4545E-03     14.5257E-03     660.566E-03     635.092E-03        -2.21112     638.416E-03        -2.21082     656.952E-03    -8.95937E-03     109.128E-03    -51.0715E-03    -58.1249E-03    -58.0923E-03     109.095E-03    -51.0715E-03    -1.83226E-03    -2.88200E+06    -31.5086E+06    -75.8793E+06    -31.9110E+06    -75.4769E+06    -2.88200E+06     4.02562E+06         31.8516
             978     9.51000E-03     14.5080E-03     662.677E-03     648.689E-03        -2.22736     653.054E-03        -2.22711     658.054E-03    -41.4550E-03     106.956E-03    -50.4577E-03    -56.5052E-03    -56.4265E-03     106.878E-03    -50.4577E-03    -5.78108E-03    -2.59316E+06    -34.9084E+06    -111.628E+06    -35.3391E+06    -111.197E+06    -2.59316E+06     5.70071E+06         30.8225
             979     8.56411E-03     14.4949E-03     667.793E-03     656.198E-03        -2.23884     666.031E-03        -2.23872     657.843E-03     6.48536E-03     104.671E-03    -49.8502E-03    -54.8096E-03    -54.6666E-03     104.528E-03    -49.8502E-03    -8.49953E-03    -5.60626E+06    -38.5889E+06    -139.286E+06    -39.1355E+06    -138.739E+06    -5.60626E+06     7.36533E+06         29.9539
             980     7.61668E-03     14.4835E-03     668.294E-03     653.694E-03        -2.24270     664.637E-03        -2.24226     656.912E-03    -24.1887E-03     102.420E-03    -49.3180E-03    -53.0930E-03    -52.9073E-03     102.234E-03    -49.3180E-03    -9.94905E-03    -10.1851E+06    -43.0336E+06    -165.144E+06    -43.6252E+06    -164.552E+06    -10.1851E+06     8.44408E+06         29.2418
             981     6.66752E-03     14.4732E-03     659.992E-03     640.184E-03        -2.22590     642.225E-03        -2.22550     657.552E-03    -36.1779E-03     100.403E-03    -48.8830E-03    -51.5053E-03    -51.3132E-03     100.211E-03    -48.8830E-03    -10.1250E-03    -14.8921E+06    -48.4876E+06    -188.272E+06    -49.0774E+06    -187.682E+06    -14.8921E+06     8.97369E+06         28.6640
             982     5.71682E-03     14.4641E-03     664.672E-03     644.070E-03        -2.23095     648.525E-03        -2.23034     659.609E-03    -38.7669E-03     98.7352E-03    -48.5285E-03    -50.1990E-03    -50.0284E-03     98.5646E-03    -48.5285E-03    -9.45105E-03    -22.8145E+06    -55.3281E+06    -209.919E+06    -55.8459E+06    -209.401E+06    -22.8145E+06     8.79055E+06         28.1969
             983     4.76514E-03     14.4560E-03     685.991E-03     657.908E-03        -2.26218     684.597E-03        -2.26079     657.908E-03     20.3946E-03     97.4531E-03    -48.2609E-03    -49.1988E-03    -49.0695E-03     97.3238E-03    -48.2609E-03    -8.08040E-03    -32.8184E+06    -62.8459E+06    -229.894E+06    -63.2869E+06    -229.453E+06    -32.8184E+06     8.51919E+06         27.8318
             984     3.81270E-03     14.4487E-03     682.398E-03     651.934E-03        -2.25316     678.712E-03        -2.24948     651.934E-03    -61.0114E-03     96.5059E-03    -48.0306E-03    -48.4854E-03    -48.4015E-03     96.4219E-03    -48.0306E-03    -6.44104E-03    -45.9039E+06    -70.7043E+06    -243.487E+06    -71.1044E+06    -243.087E+06    -45.9039E+06     8.22781E+06         27.5630
             985     2.85999E-03     14.4420E-03     663.813E-03     645.113E-03        -2.23682     652.526E-03        -2.22824     647.818E-03     50.5652E-03     95.9008E-03    -47.8535E-03    -48.0552E-03    -48.0071E-03     95.8527E-03    -47.8535E-03    -4.80990E-03    -61.6651E+06    -79.0323E+06    -257.571E+06    -79.2944E+06    -257.309E+06    -61.6651E+06     6.53296E+06         27.3726
             986     1.90673E-03     14.4370E-03     680.490E-03     637.247E-03        -2.24897     645.523E-03        -2.22424     647.482E-03    -152.607E-03     95.4913E-03    -47.6999E-03    -47.7980E-03    -47.7515E-03     95.4693E-03    -47.7244E-03    -3.17981E-03    -76.6089E+06    -86.0183E+06    -268.667E+06    -86.1239E+06    -268.561E+06    -76.6089E+06     3.99489E+06         27.2458
             987     953.378E-06     14.4341E-03     859.220E-03     611.994E-03        -2.40319     460.869E-03        -2.22761     834.761E-03     602.597E-03     95.2736E-03    -47.5884E-03    -47.6883E-03    -47.6364E-03     95.2663E-03    -47.6329E-03    -1.67129E-03    -86.3362E+06    -90.5980E+06    -273.824E+06    -89.5389E+06    -273.795E+06    -87.4250E+06     2.20744E+06         27.1733
             988     16.1056E-03     13.6544E-03     654.901E-03     638.822E-03        -2.21149     641.215E-03        -2.21146     652.471E-03    -3.03426E-03     118.320E-03    -54.5237E-03    -63.8366E-03    -61.0721E-03     115.556E-03    -54.5237E-03     37.9048E-03     168.493E+06     121.377E+06    -7.54602E+06    -7.54433E+06     168.491E+06     121.377E+06     285.391E+03         41.2864
             989     15.1672E-03     13.5788E-03     653.213E-03     641.731E-03        -2.21488     641.702E-03        -2.21485     653.213E-03    -5.36988E-03     120.240E-03    -53.9121E-03    -66.3153E-03    -63.1839E-03     117.108E-03    -53.9121E-03     44.6839E-03     166.600E+06     106.294E+06    -13.7241E+06    -13.7194E+06     166.595E+06     106.294E+06     469.039E+03         38.9504
             990     14.2300E-03     13.5407E-03     653.842E-03     647.728E-03        -2.22282     647.589E-03        -2.22268     653.842E-03    -13.9955E-03     118.079E-03    -53.0129E-03    -65.1023E-03    -63.7366E-03     116.713E-03    -53.0129E-03     31.2122E-03     164.272E+06     63.2941E+06    -17.9216E+06    -17.8861E+06     164.236E+06     63.2941E+06     1.94430E+06         36.8677
             991     13.2913E-03     13.4878E-03     654.691E-03     638.546E-03        -2.21999     638.408E-03        -2.21985     654.691E-03    -16.1949E-03     116.955E-03    -51.9801E-03    -64.9839E-03    -63.9066E-03     115.878E-03    -51.9801E-03     26.3502E-03     127.924E+06     16.8173E+06    -21.2309E+06    -21.1513E+06     127.844E+06     16.8173E+06     3.25803E+06         35.3726
             992     12.3533E-03     13.4524E-03     656.479E-03     627.074E-03        -2.21071     626.582E-03        -2.21022     656.479E-03    -56.1942E-03     114.596E-03    -51.0601E-03    -63.5508E-03    -63.3164E-03     114.362E-03    -51.0601E-03     11.0069E-03     48.2633E+06    -88.1758E+03    -24.3052E+06    -24.1252E+06     48.0833E+06    -88.1758E+03     2.96873E+06         34.1387
             993     11.4150E-03     13.4268E-03     662.185E-03     636.919E-03        -2.21990     640.166E-03        -2.21941     658.441E-03    -42.3368E-03     112.106E-03    -50.1583E-03    -62.0106E-03    -61.9547E-03     112.050E-03    -50.1583E-03    -563.866E-06     49.1773E+03     -15.263E+06    -40.8354E+06    -27.3166E+06    -26.1791E+06    -2.55356E+06     3.53064E+06         32.8907
             994     10.4744E-03     13.4100E-03     669.349E-03     653.050E-03        -2.24012     663.084E-03        -2.23987     659.063E-03    -25.1596E-03     109.158E-03    -49.2141E-03    -59.9938E-03    -59.8638E-03     109.028E-03    -49.2141E-03    -8.47434E-03    -2.36848E+06    -30.0348E+06    -76.3710E+06    -30.6520E+06    -75.7539E+06    -2.36848E+06     4.97387E+06         31.6767
             995     9.53172E-03     13.3975E-03     666.126E-03     658.009E-03        -2.24055     665.262E-03        -2.24025     658.575E-03    -52.1420E-03     105.914E-03    -48.2809E-03    -57.6215E-03    -57.3416E-03     105.635E-03    -48.2809E-03    -12.9306E-03    -2.02825E+06    -33.7132E+06    -112.370E+06    -34.2241E+06    -111.860E+06    -2.02825E+06     6.28609E+06         30.5983
             996     8.58581E-03     13.3870E-03     659.370E-03     655.547E-03        -2.23280     656.463E-03        -2.23271     658.362E-03    -19.9369E-03     102.592E-03    -47.3791E-03    -55.1921E-03    -54.7519E-03     102.152E-03    -47.3791E-03    -16.1600E-03    -5.19748E+06    -37.6601E+06    -140.188E+06    -38.2455E+06    -139.603E+06    -5.19748E+06     7.69552E+06         29.6736
             997     7.63801E-03     13.3784E-03     659.197E-03     647.758E-03        -2.22844     647.649E-03        -2.22833     659.197E-03    -16.6900E-03     99.4636E-03    -46.5661E-03    -52.8854E-03    -52.3504E-03     98.9286E-03    -46.5661E-03    -17.5816E-03    -9.42847E+06    -41.8132E+06    -164.697E+06    -42.5104E+06    -164.000E+06    -9.42847E+06     9.17322E+06         28.9039
             998     6.68805E-03     13.3713E-03     661.384E-03     641.089E-03        -2.22428     640.981E-03        -2.22417     661.384E-03    -8.64905E-03     96.4602E-03    -45.8628E-03    -50.5768E-03    -50.0458E-03     95.9293E-03    -45.8628E-03    -17.2156E-03    -13.6575E+06    -46.7255E+06    -186.330E+06    -47.4553E+06    -185.600E+06    -13.6575E+06     9.99735E+06         28.2720
             999     5.73584E-03     13.3642E-03     666.484E-03     651.184E-03        -2.23921     653.255E-03        -2.23852     663.727E-03    -50.4857E-03     93.8023E-03    -45.2725E-03    -48.5153E-03    -48.0445E-03     93.3316E-03    -45.2725E-03    -15.9267E-03    -20.9239E+06    -52.4729E+06    -207.809E+06    -53.1749E+06    -207.107E+06    -20.9239E+06     10.3424E+06         27.7562
            1000     4.78184E-03     13.3578E-03     683.077E-03     661.446E-03        -2.26780     680.277E-03        -2.26644     662.883E-03     5.53527E-03     91.6990E-03    -44.8000E-03    -46.8978E-03    -46.5264E-03     91.3276E-03    -44.8000E-03    -13.8905E-03    -30.8736E+06    -59.6596E+06    -227.651E+06    -60.3539E+06    -226.956E+06    -30.8736E+06     10.6999E+06         27.3455
            1001     3.82687E-03     13.3516E-03     693.057E-03     656.921E-03        -2.27686     691.000E-03        -2.27480     656.921E-03    -20.5924E-03     90.0168E-03    -44.3923E-03    -45.6257E-03    -45.3757E-03     89.7669E-03    -44.3923E-03    -11.1999E-03    -44.3012E+06    -67.6887E+06    -239.586E+06    -68.3096E+06    -238.966E+06    -44.3012E+06     10.2410E+06         27.0364
            1002     2.87087E-03     13.3464E-03     677.734E-03     648.504E-03        -2.25934     673.661E-03        -2.25526     648.504E-03     40.6518E-03     88.7689E-03    -44.0825E-03    -44.6823E-03    -44.5369E-03     88.6235E-03    -44.0825E-03    -8.42210E-03    -59.4425E+06    -74.9886E+06    -251.863E+06    -75.4123E+06    -251.440E+06    -59.4425E+06     8.48827E+06         26.8161
            1003     1.91416E-03     13.3415E-03     676.571E-03     636.983E-03        -2.25011     652.625E-03        -2.23076     641.580E-03    -186.452E-03     87.9539E-03    -43.8609E-03    -44.0897E-03    -43.9956E-03     87.8842E-03    -43.8855E-03    -5.68786E-03    -73.5303E+06    -81.5146E+06    -262.620E+06    -81.7189E+06    -262.416E+06    -73.5303E+06     5.72118E+06         26.6690
            1004     956.986E-06     13.3390E-03     779.372E-03     604.285E-03        -2.32248     522.841E-03        -2.21658     754.913E-03     389.842E-03     87.5763E-03    -43.7022E-03    -43.8735E-03    -43.8063E-03     87.5537E-03    -43.7467E-03    -3.12423E-03    -83.7704E+06    -87.1469E+06    -268.763E+06    -86.1275E+06    -268.693E+06    -84.8592E+06     3.03929E+06         26.5830
            1005     16.1098E-03     12.5258E-03     653.500E-03     624.241E-03        -2.19404     624.137E-03        -2.19394     653.500E-03    -21.4767E-03     121.585E-03    -54.3042E-03    -67.2678E-03    -64.5991E-03     118.916E-03    -54.3042E-03     39.5915E-03     169.260E+06     122.398E+06    -6.83213E+06    -6.83043E+06     169.258E+06     122.398E+06    -280.693E+03         41.3346
            1006     15.1741E-03     12.4522E-03     655.036E-03     635.806E-03        -2.20902     635.712E-03        -2.20893     655.036E-03    -30.1331E-03     122.896E-03    -53.4544E-03    -69.4376E-03    -66.5141E-03     119.972E-03    -53.4544E-03     43.9992E-03     166.043E+06     104.987E+06    -13.9801E+06    -13.9740E+06     166.037E+06     104.987E+06    -864.783E+03         38.9966
            1007     14.2385E-03     12.4123E-03     656.093E-03     645.575E-03        -2.22375     645.383E-03        -2.22356     656.093E-03    -42.1767E-03     120.811E-03    -52.2940E-03    -68.5662E-03    -67.3389E-03     119.584E-03    -52.2940E-03     30.1888E-03     160.890E+06     61.4223E+06    -19.9877E+06    -19.9737E+06     160.876E+06     61.4223E+06     296.056E+03         36.8917
            1008     13.3059E-03     12.3625E-03     658.840E-03     643.185E-03        -2.22586     644.771E-03        -2.22559     656.984E-03    -9.60419E-03     119.428E-03    -50.9594E-03    -68.4698E-03    -67.5895E-03     118.548E-03    -50.9594E-03     23.8233E-03     127.671E+06     17.4282E+06    -22.7382E+06    -22.6751E+06     127.608E+06     17.4282E+06     2.60542E+06         35.3680
            1009     12.3714E-03     12.3287E-03     660.036E-03     638.274E-03        -2.22205     639.628E-03        -2.22155     658.181E-03    -17.4394E-03     116.471E-03    -49.6930E-03    -66.7746E-03    -66.6360E-03     116.332E-03    -49.6930E-03     6.93966E-03     50.6785E+06     864.698E+03    -24.8469E+06    -24.4780E+06     50.3095E+06     864.698E+03     3.88105E+06         34.1030
            1010     11.4354E-03     12.3072E-03     663.052E-03     645.722E-03        -2.23271     649.066E-03        -2.23231     659.308E-03    -18.7473E-03     113.120E-03    -48.4322E-03    -64.7377E-03    -64.6400E-03     113.022E-03    -48.4322E-03    -5.78193E-03     824.875E+03    -14.6397E+06    -41.5155E+06    -27.2469E+06    -26.1154E+06    -1.96796E+06     4.65394E+06         32.8162
            1011     10.4969E-03     12.2945E-03     666.345E-03     654.074E-03        -2.24397     660.631E-03        -2.24385     659.673E-03    -6.84904E-03     109.288E-03    -47.1218E-03    -62.2094E-03    -61.8927E-03     108.971E-03    -47.1218E-03    -14.1556E-03    -1.40055E+06    -29.2746E+06    -76.7167E+06    -30.0661E+06    -75.9252E+06    -1.40055E+06     5.77595E+06         31.5568
            1012     9.55535E-03     12.2862E-03     662.574E-03     656.424E-03        -2.24233     659.236E-03        -2.24222     659.646E-03    -36.2383E-03     105.224E-03    -45.8109E-03    -59.3853E-03    -58.7978E-03     104.636E-03    -45.8109E-03    -19.2273E-03    -406.738E+03    -32.7668E+06    -111.961E+06    -33.3833E+06    -111.344E+06    -406.738E+03     6.89972E+06         30.4261
            1013     8.61146E-03     12.2804E-03     660.205E-03     650.580E-03        -2.23160     650.491E-03        -2.23151     660.205E-03    -14.9464E-03     100.705E-03    -44.5380E-03    -56.1425E-03    -55.3009E-03     99.8629E-03    -44.5380E-03    -22.6430E-03    -3.21298E+06    -36.6450E+06    -140.295E+06    -37.2458E+06    -139.694E+06    -3.21298E+06     7.85267E+06         29.4404
            1014     7.66347E-03     12.2772E-03     661.810E-03     644.826E-03        -2.22677     644.654E-03        -2.22660     661.810E-03    -18.4225E-03     96.2203E-03    -43.3754E-03    -52.8399E-03    -51.8558E-03     95.2362E-03    -43.3754E-03    -23.9525E-03    -7.31926E+06    -40.4130E+06    -164.504E+06    -41.1033E+06    -163.814E+06    -7.31926E+06     9.18295E+06         28.5985
            1015     6.71240E-03     12.2740E-03     676.039E-03     652.163E-03        -2.24883     665.350E-03        -2.24867     662.685E-03    -16.2729E-03     92.1398E-03    -42.3389E-03    -49.7858E-03    -48.8005E-03     91.1545E-03    -42.3389E-03    -23.3630E-03    -11.2124E+06    -44.8433E+06    -185.008E+06    -45.6404E+06    -184.211E+06    -11.2124E+06     10.4438E+06         27.8915
            1016     5.75870E-03     12.2708E-03     680.703E-03     657.876E-03        -2.26067     677.296E-03        -2.26054     661.148E-03    -11.6208E-03     88.4110E-03    -41.4277E-03    -46.9664E-03    -46.0820E-03     87.5266E-03    -41.4277E-03    -21.5907E-03    -17.9058E+06    -50.6562E+06    -206.064E+06    -51.5077E+06    -205.212E+06    -17.9058E+06     11.4153E+06         27.3077
            1017     4.80263E-03     12.2668E-03     670.962E-03     651.566E-03        -2.24996     662.250E-03        -2.24919     659.514E-03     44.6803E-03     85.0988E-03    -40.6610E-03    -44.4280E-03    -43.7210E-03     84.3917E-03    -40.6610E-03    -18.8427E-03    -27.2032E+06    -56.8441E+06    -224.494E+06    -57.6906E+06    -223.648E+06    -27.2032E+06     11.8770E+06         26.8344
            1018     3.84427E-03     12.2631E-03     676.342E-03     649.052E-03        -2.25319     666.142E-03        -2.25217     658.228E-03     14.2457E-03     82.3175E-03    -40.0197E-03    -42.2906E-03    -41.7998E-03     81.8268E-03    -40.0197E-03    -15.3286E-03    -39.4744E+06    -62.9718E+06    -234.950E+06    -63.7062E+06    -234.216E+06    -39.4744E+06     11.1939E+06         26.4688
            1019     2.88431E-03     12.2589E-03     677.831E-03     651.337E-03        -2.26044     673.437E-03        -2.25872     654.002E-03     43.0038E-03     80.2840E-03    -39.5339E-03    -40.7391E-03    -40.4430E-03     79.9879E-03    -39.5339E-03    -11.6594E-03    -53.4286E+06    -69.0556E+06    -245.696E+06    -69.5724E+06    -245.179E+06    -53.4286E+06     9.42491E+06         26.2045
            1020     1.92345E-03     12.2560E-03     672.733E-03     643.912E-03        -2.25393     657.617E-03        -2.24341     648.509E-03    -111.555E-03     78.9207E-03    -39.1905E-03    -39.7202E-03    -39.5769E-03     78.7774E-03    -39.1905E-03    -7.88582E-03    -66.4307E+06    -74.3208E+06    -255.616E+06    -74.6049E+06    -255.332E+06    -66.4307E+06     7.04008E+06         26.0264
            1021     962.027E-06     12.2532E-03     734.823E-03     631.674E-03        -2.31185     570.834E-03        -2.23775     721.560E-03     410.496E-03     78.0804E-03    -38.8621E-03    -39.2145E-03    -39.1693E-03     78.0352E-03    -38.8621E-03    -4.20534E-03    -75.4950E+06    -78.1214E+06    -261.792E+06    -78.2305E+06    -261.683E+06    -75.4950E+06     4.11141E+06         25.9203
            1022     16.1139E-03     11.3959E-03     655.051E-03     631.150E-03        -2.20657     630.994E-03        -2.20641     655.051E-03    -34.5299E-03     124.839E-03    -54.0739E-03    -70.7092E-03    -68.0382E-03     122.168E-03    -54.0739E-03     41.2348E-03     169.843E+06     123.293E+06    -7.44488E+06    -7.44265E+06     169.841E+06     123.293E+06    -352.850E+03         41.3723
            1023     15.1812E-03     11.3218E-03     656.417E-03     636.321E-03        -2.20733     636.249E-03        -2.20726     656.417E-03    -19.8689E-03     125.713E-03    -52.9928E-03    -72.7378E-03    -69.9008E-03     122.876E-03    -52.9928E-03     44.0397E-03     166.250E+06     104.551E+06    -15.4815E+06    -15.4749E+06     166.243E+06     104.551E+06    -465.491E+03         39.0485
            1024     14.2503E-03     11.2826E-03     657.696E-03     638.363E-03        -2.21303     638.285E-03        -2.21295     657.696E-03    -23.9830E-03     123.664E-03    -51.5577E-03    -72.1580E-03    -71.0460E-03     122.552E-03    -51.5577E-03     29.3325E-03     159.374E+06     59.5065E+06    -22.2395E+06    -22.2289E+06     159.363E+06     59.5065E+06    -535.009E+03         36.9398
            1025     13.3191E-03     11.2333E-03     660.491E-03     648.692E-03        -2.22934     650.378E-03        -2.22917     658.636E-03     2.80021E-03     121.876E-03    -49.9154E-03    -71.9629E-03    -71.2186E-03     121.132E-03    -49.9154E-03     22.0383E-03     125.663E+06     15.6050E+06    -26.0252E+06    -25.9981E+06     125.636E+06     15.6050E+06     844.281E+03         35.4027
            1026     12.3888E-03     11.2027E-03     664.970E-03     657.539E-03        -2.24496     662.988E-03        -2.24422     658.782E-03    -28.7448E-03     118.488E-03    -48.3129E-03    -70.1761E-03    -70.0621E-03     118.374E-03    -48.3129E-03     4.30354E-03     50.7035E+06     1.16101E+06    -27.3495E+06    -26.9902E+06     50.3443E+06     1.16101E+06     3.35781E+06         34.1181
            1027     11.4560E-03     11.1861E-03     663.036E-03     653.120E-03        -2.24103     656.746E-03        -2.24032     658.703E-03    -45.6501E-03     114.355E-03    -46.6839E-03    -67.7256E-03    -67.5406E-03     114.170E-03    -46.6839E-03    -9.73243E-03     2.28325E+06    -14.1981E+06    -42.0570E+06    -28.1681E+06    -25.3429E+06    -460.777E+03     4.97647E+06         32.8013
            1028     10.5200E-03     11.1794E-03     659.219E-03     649.439E-03        -2.23391     649.275E-03        -2.23374     659.219E-03    -15.7364E-03     109.536E-03    -44.9942E-03    -64.5735E-03    -64.0708E-03     109.033E-03    -44.9942E-03    -18.3523E-03     163.716E+03    -29.7749E+06    -76.6005E+06    -30.6284E+06    -75.7470E+06     163.716E+03     5.77535E+06         31.5027
            1029     9.58092E-03     11.1759E-03     660.182E-03     649.667E-03        -2.23471     649.576E-03        -2.23462     660.182E-03    -28.1986E-03     104.424E-03    -43.3061E-03    -61.0713E-03    -60.2118E-03     103.565E-03    -43.3061E-03    -23.5479E-03     2.23505E+06    -32.5718E+06    -111.472E+06    -33.1471E+06    -110.897E+06     2.23505E+06     6.64122E+06         30.3254
            1030     8.63732E-03     11.1770E-03     661.486E-03     647.324E-03        -2.23567     647.213E-03        -2.23556     661.486E-03     2.88441E-03     98.8791E-03    -41.6612E-03    -57.1846E-03    -56.0043E-03     97.6989E-03    -41.6612E-03    -26.9390E-03       965.9E+03    -35.6027E+06    -139.297E+06    -36.1481E+06    -138.752E+06       965.9E+03     7.45396E+06         29.2836
            1031     7.68977E-03     11.1791E-03     669.046E-03     652.495E-03        -2.24947     658.836E-03        -2.24927     662.503E-03    -5.20874E-03     93.2473E-03    -40.1203E-03    -53.1241E-03    -51.7738E-03     91.8970E-03    -40.1203E-03    -27.9261E-03    -3.16168E+06    -39.1718E+06    -163.973E+06    -39.7344E+06    -163.411E+06    -3.16168E+06     8.32666E+06         28.3739
            1032     6.73812E-03     11.1818E-03     684.114E-03     659.904E-03        -2.27269     682.639E-03        -2.27254     661.231E-03    -31.1561E-03     87.8629E-03    -38.7064E-03    -49.1452E-03    -47.7791E-03     86.4968E-03    -38.7064E-03    -27.1731E-03    -6.92627E+06    -43.3277E+06    -184.845E+06    -44.0739E+06    -184.099E+06    -6.92627E+06     10.1899E+06         27.5937
            1033     5.78298E-03     11.1829E-03     683.437E-03     657.588E-03        -2.27057     683.369E-03        -2.27050     657.588E-03    -17.9061E-03     82.8466E-03    -37.4452E-03    -45.3782E-03    -44.1449E-03     81.6133E-03    -37.4452E-03    -24.9669E-03    -12.1396E+06    -48.3032E+06    -204.261E+06    -49.1966E+06    -203.367E+06    -12.1396E+06     11.7408E+06         26.9420
            1034     4.82435E-03     11.1839E-03     665.532E-03     640.868E-03        -2.23794     650.174E-03        -2.23774     656.022E-03     10.7458E-03     78.3460E-03    -36.3577E-03    -41.9784E-03    -40.9874E-03     77.3550E-03    -36.3577E-03    -21.6560E-03    -20.4593E+06    -54.1606E+06    -220.632E+06    -54.9538E+06    -219.838E+06    -20.4593E+06     11.4223E+06         26.4118
            1035     3.86293E-03     11.1833E-03     660.849E-03     627.484E-03        -2.22591     626.644E-03        -2.22507     660.849E-03    -37.4738E-03     74.4336E-03    -35.4274E-03    -39.0042E-03    -38.3000E-03     73.7293E-03    -35.4274E-03    -17.6886E-03    -31.8815E+06    -59.7362E+06    -229.830E+06    -60.3416E+06    -229.225E+06    -31.8815E+06     10.0474E+06         25.9981
            1036     2.89922E-03     11.1821E-03     678.511E-03     648.083E-03        -2.26520     659.133E-03        -2.26403     666.295E-03    -25.1729E-03     71.3833E-03    -34.6969E-03    -36.6796E-03    -36.2468E-03     70.9505E-03    -34.6969E-03    -13.4633E-03    -45.5180E+06    -64.5997E+06    -239.612E+06    -65.0187E+06    -239.193E+06    -45.5180E+06     8.40960E+06         25.6944
            1037     1.93368E-03     11.1803E-03     690.969E-03     661.493E-03        -2.29069     685.460E-03        -2.28518     661.493E-03    -124.745E-03     69.2306E-03    -34.1603E-03    -35.0613E-03    -34.8492E-03     69.0185E-03    -34.1603E-03    -9.12357E-03    -58.9202E+06    -68.3217E+06    -248.683E+06    -68.5459E+06    -248.459E+06    -58.9202E+06     6.01581E+06         25.4875
            1038     967.079E-06     11.1787E-03     712.828E-03     639.000E-03        -2.29353     615.386E-03        -2.25266     695.567E-03     268.307E-03     67.8921E-03    -33.6836E-03    -34.2022E-03    -34.1336E-03     67.8235E-03    -33.6836E-03    -4.80043E-03    -67.5661E+06    -70.7482E+06    -254.873E+06    -70.8117E+06    -254.809E+06    -67.5661E+06     2.84036E+06         25.3638
            1039     16.1176E-03     10.2637E-03     657.375E-03     650.708E-03        -2.22757     651.407E-03        -2.22748     656.582E-03    -20.0152E-03     128.161E-03    -53.8550E-03    -74.3604E-03    -71.7390E-03     125.540E-03    -53.8550E-03     41.8862E-03     169.481E+06     124.369E+06    -7.72425E+06    -7.72076E+06     169.478E+06     124.369E+06     113.400E+03         41.3829
            1040     15.1877E-03     10.1885E-03     657.128E-03     645.898E-03        -2.22332     645.774E-03        -2.22320     657.128E-03    -25.7857E-03     128.532E-03    -52.5372E-03    -76.0651E-03    -73.3089E-03     125.776E-03    -52.5372E-03     44.1431E-03     166.601E+06     105.408E+06    -15.6275E+06    -15.6231E+06     166.596E+06     105.408E+06     302.153E+03         39.0769
            1041     14.2598E-03     10.1481E-03     658.175E-03     637.875E-03        -2.22059     637.754E-03        -2.22047     658.175E-03    -27.7362E-03     126.221E-03    -50.8449E-03    -75.4338E-03    -74.3898E-03     125.177E-03    -50.8449E-03     28.8867E-03     160.024E+06     60.2303E+06    -22.1304E+06    -22.1238E+06     160.017E+06     60.2303E+06    -632.751E+03         36.9730
            1042     13.3334E-03     10.1030E-03     659.635E-03     637.727E-03        -2.22598     637.627E-03        -2.22588     659.635E-03    -30.1727E-03     123.858E-03    -48.9338E-03    -74.9334E-03    -74.2782E-03     123.203E-03    -48.9338E-03     20.6762E-03     124.403E+06     16.6063E+06    -26.0220E+06    -26.0120E+06     124.393E+06     16.6063E+06    -384.095E+03         35.4336
            1043     12.4045E-03     10.0741E-03     666.605E-03     650.784E-03        -2.25160     656.106E-03        -2.25093     660.609E-03    -65.1960E-03     119.852E-03    -47.0516E-03    -72.8033E-03    -72.6993E-03     119.748E-03    -47.0516E-03     2.20110E-03     48.6321E+06     2.35441E+06    -28.5270E+06    -28.3414E+06     48.1898E+06     2.61102E+06     1.85655E+06         34.1430
            1044     11.4751E-03     10.0647E-03     677.020E-03     659.162E-03        -2.26692     675.311E-03        -2.26626     660.203E-03    -59.4359E-03     115.086E-03    -45.1286E-03    -70.0090E-03    -69.7783E-03     114.855E-03    -45.1286E-03    -11.7800E-03     3.86850E+06    -13.8313E+06    -41.7966E+06    -29.6223E+06    -24.8136E+06     2.67649E+06     4.16231E+06         32.8162
            1045     10.5412E-03     10.0642E-03     671.113E-03     655.093E-03        -2.25603     666.833E-03        -2.25593     659.274E-03    -7.20310E-03     109.409E-03    -43.1365E-03    -66.2906E-03    -65.7343E-03     108.853E-03    -43.1365E-03    -19.5081E-03     4.34712E+06    -30.3373E+06     -75.133E+06    -31.0590E+06    -74.4113E+06     4.34712E+06     5.02559E+06         31.5031
            1046     9.60279E-03     10.0674E-03     660.450E-03     648.654E-03        -2.24207     649.607E-03        -2.24200     659.432E-03    -8.05769E-03     103.308E-03    -41.1488E-03    -62.1176E-03    -61.2042E-03     102.395E-03    -41.1488E-03    -24.3038E-03     6.12886E+06    -33.1709E+06    -111.437E+06    -33.5795E+06    -111.028E+06     6.12886E+06     5.54043E+06         30.3027
            1047     8.66019E-03     10.0759E-03     668.552E-03     651.083E-03        -2.25637     659.490E-03        -2.25619     659.966E-03     12.0686E-03     96.9657E-03    -39.2071E-03    -57.7355E-03    -56.5105E-03     95.7407E-03    -39.2071E-03    -27.3592E-03     6.19715E+06    -36.1236E+06    -138.157E+06    -36.5139E+06    -137.766E+06     6.19715E+06     6.21234E+06         29.2263
            1048     7.71297E-03     10.0850E-03     679.814E-03     657.586E-03        -2.27189     678.410E-03        -2.27173     658.830E-03     16.0439E-03     90.5113E-03    -37.3522E-03    -53.1540E-03    -51.7888E-03     89.1461E-03    -37.3522E-03    -27.8388E-03     3.49958E+06    -39.8590E+06    -163.091E+06    -40.2534E+06    -162.697E+06     3.49958E+06     6.85158E+06         28.2749
            1049     6.76121E-03     10.0944E-03     672.508E-03     649.514E-03        -2.25236     664.862E-03        -2.25233     657.125E-03    -7.45007E-03     84.0481E-03    -35.6054E-03    -48.4346E-03    -47.0644E-03     82.6780E-03    -35.6054E-03    -26.7797E-03     682.468E+03    -43.0252E+06    -184.817E+06    -43.5032E+06    -184.339E+06     682.468E+03     8.02458E+06         27.4547
            1050     5.80438E-03     10.1024E-03     663.804E-03     640.351E-03        -2.23429     646.575E-03        -2.23422     657.509E-03    -5.35005E-03     77.9273E-03    -34.0229E-03    -43.8910E-03    -42.6461E-03     76.6824E-03    -34.0229E-03    -24.4825E-03    -3.54296E+06    -46.1406E+06    -202.173E+06     -46.743E+06    -201.570E+06    -3.54296E+06     9.49741E+06         26.7700
            1051     4.84370E-03     10.1080E-03     666.149E-03     641.436E-03        -2.23350     647.485E-03        -2.23303     659.626E-03     26.7304E-03     72.4415E-03    -32.6371E-03    -39.8092E-03    -38.7920E-03     71.4243E-03    -32.6371E-03    -21.2464E-03    -10.5053E+06    -50.3606E+06    -216.156E+06    -50.8840E+06    -215.633E+06    -10.5053E+06     8.96720E+06         26.2160
            1052     3.87979E-03     10.1123E-03     669.650E-03     638.997E-03        -2.23210     644.462E-03        -2.23111     663.187E-03    -11.5655E-03     67.5753E-03    -31.4238E-03    -36.1548E-03    -35.4210E-03     66.8414E-03    -31.4238E-03    -17.3213E-03    -21.2264E+06    -55.1601E+06    -225.195E+06    -55.4692E+06    -224.886E+06    -21.2264E+06     6.77642E+06         25.7826
            1053     2.91253E-03     10.1147E-03     676.269E-03     639.543E-03        -2.24171     644.507E-03        -2.24018     669.782E-03     233.963E-06     63.5674E-03    -30.4311E-03    -33.1286E-03    -32.6790E-03     63.1178E-03    -30.4311E-03    -13.0366E-03    -36.0081E+06    -59.3617E+06    -234.714E+06    -59.5424E+06    -234.533E+06    -36.0081E+06     5.15756E+06         25.4606
            1054     1.94313E-03     10.1156E-03     690.804E-03     643.590E-03        -2.26248     645.539E-03        -2.25719     683.570E-03    -63.1967E-03     60.6196E-03    -29.6738E-03    -30.9429E-03    -30.7208E-03     60.3975E-03    -29.6738E-03    -8.80751E-03    -51.9297E+06    -63.1823E+06    -243.301E+06    -63.2728E+06    -243.210E+06    -51.9297E+06     3.76132E+06         25.2394
            1055     971.974E-06     10.1160E-03     733.860E-03     670.749E-03        -2.34498     656.519E-03        -2.32675     729.862E-03     181.188E-03     58.7365E-03    -29.0795E-03    -29.6541E-03    -29.5791E-03     58.6615E-03    -29.0795E-03    -4.75954E-03    -62.6246E+06    -66.9074E+06    -249.601E+06    -65.8773E+06    -249.568E+06    -63.6872E+06     2.20367E+06         25.1073
            1056     16.1213E-03     9.12634E-03     657.791E-03     638.647E-03        -2.21222     639.397E-03        -2.21218     656.998E-03     4.62388E-03     131.836E-03    -53.6791E-03    -78.3622E-03    -75.7511E-03     129.225E-03    -53.6791E-03     42.8105E-03     168.784E+06     126.905E+06    -7.36001E+06    -7.35671E+06     168.781E+06     126.905E+06     402.128E+03         41.3454
            1057     15.1957E-03     9.05281E-03     658.137E-03     638.339E-03        -2.22457     638.064E-03        -2.22430     658.137E-03    -37.4465E-03     131.220E-03    -52.1245E-03    -79.2808E-03    -76.5558E-03     128.495E-03    -52.1245E-03     44.6341E-03     167.356E+06     107.643E+06    -15.2412E+06    -15.2341E+06     167.349E+06     107.643E+06     551.624E+03         39.0529
            1058     14.2697E-03     9.01300E-03     659.336E-03     643.446E-03        -2.23307     643.205E-03        -2.23282     659.325E-03    -39.3768E-03     127.937E-03    -50.2128E-03    -77.8048E-03    -76.7656E-03     126.898E-03    -50.2128E-03     29.1223E-03     161.106E+06     60.7128E+06    -22.4917E+06    -22.4849E+06     161.099E+06     60.7128E+06    -237.836E+03         36.9511
            1059     13.3444E-03     8.96950E-03     663.326E-03     645.161E-03        -2.23830     648.014E-03        -2.23814     660.315E-03    -31.2083E-03     124.835E-03    -48.1264E-03    -76.7186E-03    -76.0661E-03     124.182E-03    -48.1264E-03     20.8422E-03     123.126E+06     18.0180E+06    -27.5579E+06    -27.5446E+06     123.113E+06     18.0180E+06    -17.8126E+03         35.4108
            1060     12.4189E-03     8.94674E-03     666.902E-03     651.459E-03        -2.24814     657.289E-03        -2.24795     660.878E-03    -43.5729E-03     119.775E-03    -46.0998E-03    -73.6836E-03    -73.5822E-03     119.674E-03    -46.0998E-03     2.64753E-03     49.1548E+06     5.35048E+06    -31.0961E+06    -31.0036E+06     47.4725E+06     6.94038E+06     1.23110E+06         34.1264
            1061     11.4884E-03     8.94284E-03     674.462E-03     656.337E-03        -2.26051     670.120E-03        -2.26045     660.616E-03    -20.5661E-03     114.164E-03    -44.0641E-03    -70.1582E-03    -69.9893E-03     113.995E-03    -44.0641E-03    -10.0046E-03     8.00309E+06    -14.7887E+06    -42.9205E+06    -32.9239E+06    -24.7852E+06     8.00309E+06     1.59019E+06         32.8202
            1062     10.5550E-03     8.95036E-03     675.187E-03     655.447E-03        -2.26344     670.874E-03        -2.26340     659.726E-03     3.74300E-03     108.147E-03    -41.9728E-03    -66.2214E-03    -65.8282E-03     107.754E-03    -41.9728E-03    -16.1095E-03     11.3223E+06    -33.1059E+06    -74.3137E+06    -33.3675E+06    -74.0520E+06     11.3223E+06     2.22206E+06         31.5368
            1063     9.61746E-03     8.96213E-03     671.715E-03     655.819E-03        -2.26149     668.576E-03        -2.26127     658.738E-03    -20.9702E-03     101.638E-03    -39.8806E-03    -61.7607E-03    -61.1458E-03     101.023E-03    -39.8806E-03    -19.4423E-03     14.2139E+06    -34.0432E+06    -110.707E+06    -34.2168E+06    -110.533E+06     14.2139E+06     3.09093E+06         30.3579
            1064     8.67466E-03     8.97847E-03     674.539E-03     652.685E-03        -2.26213     669.224E-03        -2.26175     657.616E-03    -29.6626E-03     94.9521E-03    -37.8220E-03    -57.1198E-03    -56.3303E-03     94.1625E-03    -37.8220E-03    -21.2518E-03     15.4632E+06    -35.8082E+06    -137.470E+06    -35.9664E+06    -137.312E+06     15.4632E+06     3.38556E+06         29.2904
            1065     7.72714E-03     8.99523E-03     670.799E-03     652.064E-03        -2.26036     666.214E-03        -2.26007     656.358E-03    -21.9023E-03     88.2308E-03    -35.8274E-03    -52.3893E-03    -51.5372E-03     87.3787E-03    -35.8274E-03    -21.2295E-03     15.2051E+06    -38.0405E+06    -161.974E+06    -38.1933E+06    -161.822E+06     15.2051E+06     3.60226E+06         28.3438
            1066     6.77455E-03     9.01168E-03     664.489E-03     645.908E-03        -2.24473     654.450E-03        -2.24458     655.802E-03    -26.8408E-03     81.5378E-03    -33.9008E-03    -47.6295E-03    -46.7866E-03     80.6949E-03    -33.9008E-03    -20.2194E-03     12.4401E+06    -41.6739E+06    -184.840E+06    -41.8240E+06    -184.690E+06     12.4401E+06     3.90975E+06         27.5313
            1067     5.81777E-03     9.02652E-03     661.537E-03     639.747E-03        -2.22979     644.332E-03        -2.22974     656.905E-03     1.35726E-03     75.0206E-03    -32.0882E-03    -42.9238E-03    -42.1552E-03     74.2521E-03    -32.0882E-03    -18.4319E-03     6.70213E+06    -45.1465E+06    -200.497E+06    -45.3394E+06    -200.304E+06     6.70213E+06     4.42201E+06         26.8565
            1068     4.85629E-03     9.03862E-03     665.504E-03     648.704E-03        -2.24546     655.453E-03        -2.24496     658.251E-03     56.1714E-03     68.8550E-03    -30.4531E-03    -38.4044E-03    -37.7671E-03     68.2177E-03    -30.4531E-03    -16.0053E-03    -2.31383E+06    -47.9586E+06    -211.923E+06    -48.1130E+06    -211.769E+06    -2.31383E+06     3.37781E+06         26.3111
            1069     3.89037E-03     9.04804E-03     674.677E-03     656.405E-03        -2.26768     673.993E-03        -2.26699     656.405E-03     20.5585E-03     63.3707E-03    -29.0143E-03    -34.3556E-03    -33.8871E-03     62.9021E-03    -29.0143E-03    -13.1132E-03    -14.1514E+06    -51.2937E+06    -222.160E+06    -51.3619E+06    -222.092E+06    -14.1514E+06     1.73123E+06         25.8834
            1070     2.92135E-03     9.05532E-03     674.944E-03     638.631E-03        -2.25283     659.089E-03        -2.25167     653.323E-03     32.1718E-03     58.7839E-03    -27.8067E-03    -30.9629E-03    -30.6720E-03     58.4930E-03    -27.8067E-03    -9.90432E-03    -30.4836E+06    -55.7300E+06    -232.244E+06    -55.7589E+06    -232.215E+06    -30.4836E+06     1.21298E+06         25.5635
            1071     1.94909E-03     9.05979E-03     680.704E-03     616.830E-03        -2.24214     639.349E-03        -2.24076     656.809E-03     30.6341E-03     55.2448E-03    -26.8629E-03    -28.3830E-03    -28.2387E-03     55.1005E-03    -26.8629E-03    -6.64030E-03    -47.7569E+06    -60.0104E+06    -241.121E+06    -60.0372E+06    -241.094E+06    -47.7569E+06     1.67522E+06         25.3426
            1072     975.342E-06     9.06165E-03     688.454E-03     644.422E-03        -2.27714     652.089E-03        -2.26686     670.504E-03     208.649E-03     52.9266E-03    -26.1723E-03    -26.7543E-03    -26.7035E-03     52.8757E-03    -26.1723E-03    -3.79416E-03    -58.1755E+06    -64.3426E+06    -245.629E+06    -63.3019E+06    -245.607E+06    -59.2381E+06     1.75289E+06         25.2104
            1073     16.1230E-03     7.98430E-03     656.959E-03     618.338E-03        -2.18702     617.808E-03        -2.18649     656.959E-03    -37.2814E-03     135.260E-03    -53.6376E-03    -81.8668E-03    -79.0071E-03     132.400E-03    -53.6376E-03     45.2586E-03     168.491E+06     128.639E+06    -6.42950E+06    -6.42669E+06     168.488E+06     128.639E+06    -216.586E+03         41.2422
            1074     15.1998E-03     7.91217E-03     658.985E-03     630.341E-03        -2.20888     629.992E-03        -2.20853     658.985E-03    -44.8746E-03     133.577E-03    -51.9229E-03    -81.9123E-03    -78.8503E-03     130.515E-03    -51.9229E-03     48.1566E-03     166.546E+06     110.835E+06    -13.6858E+06    -13.6761E+06     166.536E+06     110.835E+06     714.906E+03         38.9491
            1075     14.2769E-03     7.87657E-03     663.920E-03     647.337E-03        -2.23627     650.732E-03        -2.23593     660.188E-03    -49.0402E-03     128.901E-03    -49.8905E-03    -79.1082E-03    -77.7450E-03     127.538E-03    -49.8905E-03     33.2509E-03     161.293E+06     64.2363E+06    -21.6460E+06    -21.5775E+06     161.225E+06     64.2363E+06     2.19012E+06         36.8359
            1076     13.3520E-03     7.83484E-03     674.077E-03     660.005E-03        -2.26235     673.942E-03        -2.26222     660.005E-03    -28.3053E-03     124.015E-03    -47.7870E-03    -76.2327E-03    -75.2608E-03     123.044E-03    -47.7870E-03     25.8532E-03     122.881E+06     22.0558E+06    -29.5489E+06    -29.4720E+06     122.804E+06     22.0558E+06     2.33439E+06         35.2872
            1077     12.4240E-03     7.81871E-03     670.797E-03     658.675E-03        -2.25669     670.188E-03        -2.25650     659.096E-03    -44.2576E-03     117.642E-03    -45.8617E-03    -71.7918E-03    -71.5861E-03     117.437E-03    -45.8617E-03     8.99456E-03     53.0357E+06     10.3665E+06    -34.0272E+06    -34.0079E+06     49.0886E+06     14.2943E+06     890.958E+03         34.0223
            1078     11.4929E-03     7.82340E-03     660.267E-03     652.281E-03        -2.24109     653.499E-03        -2.24095     658.906E-03    -21.7355E-03     111.309E-03    -44.0005E-03    -67.3630E-03    -67.2741E-03     111.220E-03    -44.0005E-03    -521.658E-06     16.0649E+06    -14.8995E+06    -44.8131E+06    -36.6303E+06    -23.0823E+06     16.0649E+06    -1.21983E+06         32.7776
            1079     10.5569E-03     7.83696E-03     662.929E-03     652.195E-03        -2.25307     655.777E-03        -2.25303     659.307E-03     6.26321E-03     105.310E-03    -42.1248E-03    -63.2345E-03    -63.0825E-03     105.158E-03    -42.1248E-03    -3.68388E-03     18.7789E+06    -38.0135E+06    -75.1108E+06    -38.4787E+06    -74.6456E+06     18.7789E+06    -2.67420E+06         31.5826
            1080     9.61674E-03     7.85762E-03     671.696E-03     658.003E-03        -2.27439     670.608E-03        -2.27422     658.912E-03    -20.9621E-03     99.5226E-03    -40.2579E-03    -59.2847E-03    -59.0802E-03     99.3182E-03    -40.2579E-03    -4.75064E-03     23.4655E+06    -37.0890E+06    -110.348E+06    -37.6136E+06    -109.824E+06     23.4655E+06    -3.59984E+06         30.4931
            1081     8.67258E-03     7.88105E-03     667.192E-03     654.618E-03        -2.26745     663.512E-03        -2.26718     658.030E-03    -41.4457E-03     93.7499E-03    -38.3845E-03    -55.3674E-03    -55.1245E-03     93.5070E-03    -38.3845E-03    -5.25103E-03     26.2729E+06    -35.2035E+06    -138.306E+06    -35.6386E+06    -137.871E+06     26.2729E+06    -3.85115E+06         29.5034
            1082     7.72442E-03     7.90558E-03     658.340E-03     647.968E-03        -2.25251     647.787E-03        -2.25233     658.340E-03    -31.6085E-03     87.9914E-03    -36.5127E-03    -51.4773E-03    -51.2191E-03     87.7332E-03    -36.5127E-03    -5.28297E-03     28.0429E+06    -35.2060E+06    -163.474E+06    -35.3711E+06    -163.309E+06     28.0429E+06    -2.17977E+06         28.6190
            1083     6.77229E-03     7.92969E-03     663.706E-03     652.145E-03        -2.25773     656.618E-03        -2.25760     659.106E-03    -28.4804E-03     82.1147E-03    -34.6255E-03    -47.4941E-03    -47.2460E-03     81.8667E-03    -34.6255E-03    -5.27675E-03     25.7462E+06    -38.1613E+06    -184.645E+06    -38.2143E+06    -184.592E+06     25.7462E+06    -1.04291E+06         27.8552
            1084     5.81592E-03     7.95140E-03     674.529E-03     657.843E-03        -2.26695     674.457E-03        -2.26687     657.843E-03    -21.6403E-03     76.0323E-03    -32.7492E-03    -43.2786E-03    -43.0618E-03     75.8155E-03    -32.7492E-03    -5.18131E-03     15.8362E+06    -42.3059E+06    -199.388E+06    -42.4223E+06    -199.272E+06     15.8362E+06    -2.25341E+06         27.2203
            1085     4.85517E-03     7.97040E-03     673.657E-03     654.544E-03        -2.26805     673.534E-03        -2.26792     654.544E-03     5.00734E-03     69.9451E-03    -30.9815E-03    -38.9584E-03    -38.7834E-03     69.7700E-03    -30.9815E-03    -4.77182E-03     1.67454E+06    -46.0506E+06    -210.450E+06    -46.1807E+06    -210.320E+06     1.67454E+06    -3.20539E+06         26.7064
            1086     3.89040E-03     7.98596E-03     667.236E-03     650.530E-03        -2.26933     666.849E-03        -2.26905     650.641E-03    -17.6586E-03     64.2967E-03    -29.3859E-03    -34.9157E-03    -34.7842E-03     64.1651E-03    -29.3859E-03    -4.16260E-03    -14.8781E+06    -50.6929E+06    -221.999E+06    -50.7731E+06    -221.918E+06    -14.8781E+06    -3.09428E+06         26.3022
            1087     2.92150E-03     7.99739E-03     673.702E-03     643.600E-03        -2.26722     673.295E-03        -2.26692     643.711E-03    -5.07802E-03     59.4561E-03    -28.0240E-03    -31.4301E-03    -31.3459E-03     59.3718E-03    -28.0240E-03    -3.43795E-03    -31.9591E+06    -55.9067E+06    -233.031E+06    -55.9511E+06    -232.986E+06    -31.9591E+06    -2.06504E+06         25.9995
            1088     1.94993E-03     8.00591E-03     679.407E-03     625.739E-03        -2.24181     677.910E-03        -2.24032     625.739E-03    -62.1887E-03     55.5249E-03    -26.9571E-03    -28.5689E-03    -28.5267E-03     55.4827E-03    -26.9571E-03    -2.47827E-03    -47.0230E+06    -60.3926E+06    -241.664E+06    -60.4190E+06    -241.637E+06    -47.0230E+06    -1.01973E+06         25.7895
            1089     975.364E-06     8.01033E-03     650.678E-03     588.071E-03        -2.16859     637.303E-03        -2.15522     588.071E-03     160.780E-03     52.9545E-03    -26.2300E-03    -26.7241E-03    -26.7026E-03     52.9390E-03    -26.2360E-03    -1.44382E-03    -56.8419E+06    -64.5338E+06    -244.305E+06    -63.0430E+06    -244.282E+06    -58.3564E+06    -91.9916E+03         25.6636
            1090     16.1210E-03     6.84263E-03     658.722E-03     637.838E-03        -2.20927     637.404E-03        -2.20827     658.148E-03    -88.4623E-03     137.894E-03    -53.9637E-03    -84.1275E-03    -80.3720E-03     134.138E-03    -53.9637E-03     51.4567E-03     169.546E+06     129.688E+06    -9.42509E+06    -9.41840E+06     169.539E+06     129.688E+06     74.8192E+03         41.0678
            1091     15.1975E-03     6.76811E-03     668.240E-03     646.315E-03        -2.23047     655.394E-03        -2.23018     658.870E-03    -51.8115E-03     134.928E-03    -52.2525E-03    -82.9457E-03    -78.6439E-03     130.626E-03    -52.2525E-03     57.7627E-03     164.148E+06     112.534E+06    -18.0366E+06    -18.0283E+06     164.140E+06     112.534E+06     594.641E+03         38.7509
            1092     14.2737E-03     6.73855E-03     673.793E-03     652.283E-03        -2.25035     667.120E-03        -2.25005     658.658E-03    -43.2196E-03     128.466E-03    -50.3377E-03    -78.2871E-03    -75.8725E-03     126.051E-03    -50.3377E-03     43.5060E-03     158.197E+06     69.4628E+06    -24.8835E+06    -24.7794E+06     158.093E+06     69.4628E+06     3.73203E+06         36.6001
            1093     13.3463E-03     6.70320E-03     671.487E-03     657.754E-03        -2.26152     671.321E-03        -2.26144     657.841E-03    -4.99133E-03     121.395E-03    -48.4893E-03    -72.9490E-03    -70.7989E-03     119.245E-03    -48.4893E-03     38.8192E-03     125.340E+06     30.7407E+06    -29.7321E+06    -29.5935E+06     125.202E+06     30.7407E+06     4.48784E+06         35.0183
            1094     12.4141E-03     6.69536E-03     664.452E-03     656.025E-03        -2.25826     663.288E-03        -2.25819     657.111E-03    -11.2971E-03     113.414E-03    -47.0147E-03    -66.4179E-03    -65.2953E-03     112.291E-03    -47.0147E-03     25.2577E-03     60.3036E+06     16.2244E+06    -35.0057E+06    -34.8824E+06     52.9116E+06     23.4930E+06     365.937E+03         33.7788
            1095     11.4763E-03     6.70703E-03     658.982E-03     654.016E-03        -2.25491     655.917E-03        -2.25477     656.940E-03    -16.8344E-03     107.269E-03    -45.7512E-03    -61.5715E-03    -60.6017E-03     106.300E-03    -45.7512E-03     20.7491E-03     26.1435E+06    -12.6677E+06    -46.4951E+06    -38.2914E+06    -20.8715E+06     26.1435E+06    -4.47265E+06         32.6482
            1096     10.5348E-03     6.72877E-03     661.220E-03     654.132E-03        -2.26224     658.301E-03        -2.26216     656.965E-03    -2.20764E-03     103.080E-03    -44.5084E-03    -58.6164E-03    -57.4820E-03     101.946E-03    -44.5084E-03     21.5181E-03     28.8678E+06    -36.0455E+06    -75.8459E+06    -38.9281E+06    -72.9632E+06     28.8678E+06    -9.19222E+06         31.6158
            1097     9.59035E-03     6.75345E-03     659.999E-03     654.347E-03        -2.26429     657.358E-03        -2.26426     656.962E-03     9.03926E-03     99.6618E-03    -43.2404E-03    -56.4407E-03    -55.2789E-03     98.5000E-03    -43.2404E-03     21.5276E-03     32.6225E+06    -36.1461E+06    -112.037E+06    -38.7945E+06    -109.389E+06     32.6225E+06    -13.1749E+06         30.6977
            1098     8.64415E-03     6.78346E-03     659.009E-03     654.010E-03        -2.25941     655.784E-03        -2.25929     657.115E-03     22.5755E-03     96.2912E-03    -41.8948E-03    -54.4014E-03    -53.2483E-03     95.1382E-03    -41.8948E-03     21.2525E-03     34.7282E+06    -36.2644E+06    -143.141E+06    -38.3427E+06    -141.062E+06     34.7282E+06    -13.7528E+06         29.8725
            1099     7.69560E-03     6.81315E-03     658.882E-03     651.530E-03        -2.25225     652.667E-03        -2.25212     657.608E-03     28.1255E-03     92.8078E-03    -40.4432E-03    -52.3702E-03    -51.3020E-03     91.7395E-03    -40.4432E-03     20.3038E-03     36.2440E+06    -36.8009E+06    -169.247E+06    -38.0225E+06    -168.025E+06     36.2440E+06    -11.1686E+06         29.1240
            1100     6.74515E-03     6.84302E-03     660.630E-03     648.084E-03        -2.24688     649.972E-03        -2.24680     658.657E-03     18.2466E-03     88.6457E-03    -38.8359E-03    -49.8170E-03    -48.9375E-03     87.7662E-03    -38.8359E-03     18.0416E-03     32.8839E+06    -37.0727E+06    -186.514E+06    -37.8268E+06    -185.760E+06     32.8839E+06    -9.05530E+06         28.4536
            1101     5.79165E-03     6.87132E-03     671.276E-03     648.986E-03        -2.26182     660.890E-03        -2.26167     659.222E-03    -18.9221E-03     83.7974E-03    -37.1097E-03    -46.6826E-03    -46.0058E-03     83.1205E-03    -37.1097E-03     15.2276E-03     17.9101E+06    -39.4432E+06    -200.308E+06    -40.0109E+06    -199.740E+06     17.9101E+06    -8.84557E+06         27.8824
            1102     4.83491E-03     6.89621E-03     675.849E-03     653.343E-03        -2.27651     671.366E-03        -2.27637     657.685E-03    -18.3579E-03     78.5282E-03    -35.3855E-03    -43.1358E-03    -42.6592E-03     78.0516E-03    -35.3855E-03     12.2240E-03    -935.802E+03    -44.2363E+06    -212.902E+06    -44.6638E+06    -212.475E+06    -935.802E+03    -8.21095E+06         27.4198
            1103     3.87403E-03     6.91842E-03     663.784E-03     655.081E-03        -2.25916     662.990E-03        -2.25848     655.192E-03    -44.6183E-03     73.1305E-03    -33.7616E-03    -39.3755E-03    -39.0711E-03     72.8262E-03    -33.7616E-03     9.31271E-03    -17.8874E+06    -49.8848E+06    -225.313E+06    -50.1420E+06    -225.056E+06    -17.8874E+06    -6.39184E+06         27.0570
            1104     2.90995E-03     6.93492E-03     665.684E-03     645.658E-03        -2.24158     657.258E-03        -2.24084     653.349E-03    -29.5651E-03     68.1957E-03    -32.3476E-03    -35.8530E-03    -35.6786E-03     68.0213E-03    -32.3476E-03     6.57494E-03    -34.1409E+06    -55.5993E+06    -236.296E+06    -55.7226E+06    -236.173E+06    -34.1409E+06    -4.43503E+06         26.7837
            1105     1.94206E-03     6.94778E-03     679.554E-03     632.758E-03        -2.23273     660.245E-03        -2.23045     649.781E-03    -91.2775E-03     64.1555E-03    -31.2211E-03    -32.9366E-03    -32.8567E-03     64.0756E-03    -31.2211E-03     4.09803E-03    -48.5454E+06    -60.1951E+06    -243.396E+06    -60.2666E+06    -243.324E+06    -48.5454E+06    -3.36467E+06         26.5942
            1106     971.878E-06     6.95555E-03     687.110E-03     620.445E-03        -2.24482     663.515E-03        -2.23067     629.889E-03     142.337E-03     61.3972E-03    -30.4424E-03    -30.9560E-03    -30.9251E-03     61.3724E-03    -30.4484E-03     2.15349E-03    -57.8879E+06    -65.1408E+06    -247.069E+06    -63.6575E+06    -247.038E+06    -59.4023E+06    -1.48087E+06         26.4818
            1107     16.1055E-03     5.69831E-03     659.778E-03     657.858E-03        -2.22642     658.420E-03        -2.22573     658.528E-03    -74.1033E-03     138.836E-03    -54.9882E-03    -83.9795E-03    -78.6102E-03     133.467E-03    -54.9882E-03     61.3530E-03     170.837E+06     131.084E+06    -9.76469E+06    -9.69655E+06     170.768E+06     131.084E+06     2.90145E+06         40.8372
            1108     15.1795E-03     5.62590E-03     674.909E-03     657.350E-03        -2.25674     673.368E-03        -2.25587     658.020E-03    -80.5338E-03     134.530E-03    -53.5020E-03    -81.2013E-03    -74.5121E-03     127.841E-03    -53.5020E-03     72.6069E-03     163.645E+06     110.906E+06    -20.6221E+06    -20.5820E+06     163.604E+06     110.906E+06     2.11114E+06         38.4798
            1109     14.2522E-03     5.60195E-03     680.261E-03     656.773E-03        -2.26935     679.273E-03        -2.26836     656.773E-03    -79.9102E-03     125.899E-03    -52.0349E-03    -74.0036E-03    -69.2226E-03     121.118E-03    -52.0349E-03     59.6160E-03     154.044E+06     67.8906E+06    -29.4185E+06    -29.3367E+06     153.962E+06     67.8906E+06     3.41524E+06         36.2605
            1110     13.3172E-03     5.57773E-03     668.587E-03     655.474E-03        -2.26171     668.113E-03        -2.26132     655.561E-03    -34.6634E-03     117.195E-03    -50.8731E-03    -66.4073E-03    -61.4228E-03     112.210E-03    -50.8731E-03     58.0458E-03     127.285E+06     33.0727E+06    -35.1164E+06    -34.9983E+06     127.167E+06     33.0727E+06     4.26835E+06         34.5953
            1111     12.3752E-03     5.57852E-03     665.850E-03     654.047E-03        -2.26369     665.002E-03        -2.26351     654.712E-03    -14.3859E-03     108.908E-03    -50.2471E-03    -58.7049E-03    -54.4263E-03     104.664E-03    -50.2814E-03     50.0232E-03     67.9369E+06     19.4125E+06    -38.6166E+06    -38.0130E+06     58.4742E+06     28.2716E+06    -1.92015E+06         33.3648
            1112     11.4275E-03     5.59933E-03     662.119E-03     653.466E-03        -2.26904     661.473E-03        -2.26897     654.045E-03    -5.55097E-03     105.964E-03    -49.9970E-03    -56.0092E-03    -51.3469E-03     101.336E-03    -50.0313E-03     50.9476E-03     32.9462E+06    -6.90775E+06    -49.6380E+06    -38.6586E+06    -17.8871E+06     32.9462E+06    -10.9647E+06         32.3982
            1113     10.4780E-03     5.62099E-03     659.812E-03     653.528E-03        -2.26332     659.695E-03        -2.26320     653.528E-03     4.56230E-03     105.700E-03    -49.7635E-03    -55.9219E-03    -51.0757E-03     100.854E-03    -49.7635E-03     52.8603E-03     36.1464E+06    -29.3467E+06    -79.4364E+06    -38.2023E+06    -70.5808E+06     36.1464E+06    -17.5207E+06         31.6025
            1114     9.53033E-03     5.65030E-03     657.003E-03     651.533E-03        -2.25406     655.210E-03        -2.25397     653.239E-03     14.1800E-03     105.366E-03    -49.3901E-03    -55.9469E-03    -51.3144E-03     100.733E-03    -49.3901E-03     52.0882E-03     39.2897E+06    -32.4213E+06    -116.338E+06    -38.5997E+06    -110.160E+06     39.2897E+06    -21.4156E+06         30.9292
            1115     8.58223E-03     5.68166E-03     655.078E-03     651.537E-03        -2.25184     653.226E-03        -2.25169     653.243E-03     25.1841E-03     105.169E-03    -48.8603E-03    -56.2977E-03    -51.8545E-03     100.726E-03    -48.8603E-03     51.3099E-03     40.3885E+06    -35.1357E+06    -150.894E+06    -40.0764E+06    -145.954E+06     40.3885E+06    -22.8984E+06         30.3492
            1116     7.63548E-03     5.71378E-03     658.266E-03     653.048E-03        -2.25655     658.110E-03        -2.25639     653.048E-03     29.5003E-03     104.473E-03    -48.0930E-03    -56.3719E-03    -52.4029E-03     100.504E-03    -48.0930E-03     48.6543E-03     36.4056E+06    -36.9275E+06    -178.757E+06    -40.6796E+06    -175.005E+06     36.4056E+06    -22.1156E+06         29.8273
            1117     6.68849E-03     5.74654E-03     665.303E-03     646.522E-03        -2.25892     659.236E-03        -2.25875     652.417E-03     32.8924E-03     102.551E-03    -47.0412E-03    -55.5014E-03    -52.2265E-03     99.2757E-03    -47.0412E-03     43.9503E-03     24.6630E+06    -39.0102E+06    -194.024E+06    -41.4767E+06    -191.557E+06     24.6630E+06    -18.7732E+06         29.3344
            1118     5.74068E-03     5.77946E-03     662.014E-03     636.621E-03        -2.24880     645.467E-03        -2.24845     652.816E-03     32.4367E-03     99.5955E-03    -45.7705E-03    -53.8163E-03    -51.2515E-03     97.0307E-03    -45.7705E-03     38.4177E-03     6.95266E+06    -42.1121E+06    -205.807E+06    -43.5820E+06    -204.337E+06     6.95266E+06    -15.0121E+06         28.8809
            1119     4.79078E-03     5.80954E-03     658.874E-03     633.445E-03        -2.24083     635.411E-03        -2.23971     655.784E-03     64.8048E-03     95.7640E-03    -44.3700E-03    -51.3901E-03    -49.5195E-03     93.8934E-03    -44.3700E-03     32.1350E-03    -10.8875E+06    -46.6539E+06    -219.079E+06    -47.4867E+06    -218.247E+06    -10.8875E+06    -11.5524E+06         28.4940
            1120     3.83879E-03     5.83640E-03     663.796E-03     641.959E-03        -2.24882     644.174E-03        -2.24723     659.992E-03     2.21034E-03     91.2567E-03    -42.9574E-03    -48.3034E-03    -47.0678E-03     90.0211E-03    -42.9574E-03     25.4349E-03    -25.2729E+06    -51.9113E+06    -230.835E+06    -52.3001E+06    -230.446E+06    -25.2729E+06    -8.11658E+06         28.1845
            1121     2.88263E-03     5.85886E-03     665.922E-03     646.861E-03        -2.24923     645.768E-03        -2.24743     665.207E-03     7.05884E-03     86.7256E-03    -41.6784E-03    -45.0489E-03    -44.3291E-03     86.0059E-03    -41.6784E-03     18.7962E-03    -40.5777E+06    -57.0139E+06    -240.633E+06    -57.2041E+06    -240.443E+06    -40.5777E+06    -5.77340E+06         27.9560
            1122     1.92390E-03     5.87637E-03     677.604E-03     652.019E-03        -2.26876     652.059E-03        -2.26501     673.814E-03    -61.1166E-03     82.9364E-03    -40.6422E-03    -42.2952E-03    -41.9576E-03     82.5989E-03    -40.6422E-03     12.3980E-03    -55.2691E+06    -61.9282E+06    -247.079E+06    -62.0102E+06    -246.997E+06    -55.2691E+06    -3.62038E+06         27.8037
            1123     962.738E-06     5.88714E-03     742.370E-03     649.540E-03        -2.33066     699.742E-03        -2.29747     658.985E-03     265.696E-03     80.3765E-03    -39.7629E-03    -40.6135E-03    -40.5007E-03     80.2637E-03    -39.7629E-03     6.74678E-03    -62.7174E+06    -66.5983E+06    -251.139E+06    -66.2498E+06    -251.118E+06    -63.0865E+06    -1.78116E+06         27.7143
            1124     16.0751E-03     4.55435E-03     661.802E-03     639.033E-03        -2.21320     642.637E-03        -2.21181     656.803E-03    -115.263E-03     137.125E-03    -56.9772E-03    -80.2516E-03    -72.4010E-03     129.275E-03    -56.9772E-03     73.3699E-03     171.094E+06     130.903E+06    -9.81418E+06    -9.62917E+06     170.909E+06     130.903E+06     5.51418E+06         40.5872
            1125     15.1428E-03     4.48914E-03     672.797E-03     656.062E-03        -2.25954     670.831E-03        -2.25825     656.732E-03    -107.174E-03     132.249E-03    -56.0493E-03    -76.2353E-03    -66.0449E-03     122.059E-03    -56.0493E-03     88.2301E-03     164.370E+06     110.080E+06    -20.1281E+06    -19.9223E+06     164.164E+06     110.080E+06     5.34525E+06         38.1953
            1126     14.2040E-03     4.47296E-03     678.742E-03     655.544E-03        -2.27278     677.683E-03        -2.27172     655.544E-03    -56.4090E-03     121.470E-03    -55.2872E-03    -66.2170E-03    -57.8904E-03     113.238E-03    -55.3817E-03     75.5443E-03     152.367E+06     66.9118E+06    -31.6803E+06     -31.403E+06     152.090E+06     66.9118E+06     6.42940E+06         35.9215
            1127     13.2584E-03     4.46041E-03     676.882E-03     654.027E-03        -2.27547     676.366E-03        -2.27495     654.027E-03    -21.9104E-03     112.951E-03    -52.8971E-03    -60.1225E-03    -48.6434E-03     103.828E-03    -55.2525E-03     75.9486E-03     130.900E+06     28.9366E+06    -39.6195E+06    -39.4640E+06     130.744E+06     28.9366E+06     2.97432E+06         34.1723
            1128     12.3023E-03     4.47480E-03     675.791E-03     652.357E-03        -2.28114     675.603E-03        -2.28095     652.357E-03    -24.0454E-03     107.924E-03    -51.1466E-03    -56.8155E-03    -43.3993E-03     99.1496E-03    -55.7883E-03     72.1436E-03     71.6754E+06     16.9508E+06    -42.6537E+06    -40.4675E+06     65.3042E+06     21.1358E+06    -8.02093E+06         32.9377
            1129     11.3444E-03     4.49345E-03     668.075E-03     650.770E-03        -2.27387     668.048E-03        -2.27385     650.770E-03    -417.924E-06     109.800E-03    -52.5467E-03    -57.2702E-03    -43.7527E-03     100.434E-03    -56.6980E-03     75.4078E-03     28.8953E+06    -1.52432E+06    -54.6646E+06    -39.5052E+06    -15.5426E+06     27.7541E+06    -18.8617E+06         32.1178
            1130     10.3922E-03     4.51423E-03     656.380E-03     648.708E-03        -2.25678     655.162E-03        -2.25672     649.863E-03     19.8967E-03     112.970E-03    -54.2372E-03    -58.7129E-03    -46.4351E-03     103.977E-03    -57.5224E-03     75.4273E-03     30.3908E+06    -24.5403E+06    -86.1666E+06    -40.2835E+06    -70.4234E+06     30.3908E+06    -25.2867E+06         31.5456
            1131     9.44117E-03     4.54222E-03     652.671E-03     648.458E-03        -2.25263     651.439E-03        -2.25256     649.613E-03     14.4670E-03     115.495E-03    -55.6732E-03    -59.7781E-03    -49.0479E-03     107.248E-03    -58.1571E-03     73.5265E-03     31.6864E+06    -29.6837E+06    -123.872E+06    -40.7170E+06    -112.839E+06     31.6864E+06    -29.7020E+06         31.1317
            1132     8.49395E-03     4.57133E-03     656.334E-03     649.230E-03        -2.25582     656.153E-03        -2.25563     649.230E-03     26.2169E-03     118.319E-03    -57.2311E-03    -61.0682E-03    -51.9489E-03     110.587E-03    -58.6187E-03     72.4326E-03     31.8881E+06    -31.4321E+06    -160.068E+06    -40.3222E+06    -151.178E+06     31.8881E+06    -32.1448E+06         30.8405
            1133     7.54922E-03     4.60247E-03     657.298E-03     646.790E-03        -2.25536     655.402E-03        -2.25519     648.522E-03     20.6206E-03     120.312E-03    -58.3455E-03    -61.9585E-03    -54.7241E-03     113.539E-03    -58.8073E-03     68.7316E-03     24.2964E+06    -34.2541E+06    -191.338E+06    -40.9451E+06    -184.647E+06     24.2964E+06    -31.3404E+06         30.6106
            1134     6.60706E-03     4.63518E-03     660.522E-03     645.660E-03        -2.26436     658.606E-03        -2.26417     647.391E-03    -6.02209E-03     121.164E-03    -58.6276E-03    -62.5201E-03    -56.8364E-03     115.523E-03    -58.6711E-03     63.2323E-03     8.57333E+06    -38.2035E+06    -206.707E+06    -42.4792E+06    -202.431E+06     8.57333E+06    -26.1708E+06         30.3923
            1135     5.66598E-03     4.66869E-03     659.128E-03     640.136E-03        -2.25915     652.729E-03        -2.25871     646.095E-03     3.02453E-03     120.928E-03    -58.2563E-03    -62.6656E-03    -58.1866E-03     116.449E-03    -58.2563E-03     56.4964E-03    -6.75661E+06    -42.9250E+06    -216.434E+06    -45.2390E+06    -214.120E+06    -6.75661E+06    -19.4668E+06         30.1663
            1136     4.72535E-03     4.70114E-03     650.617E-03     628.943E-03        -2.23202     631.150E-03        -2.23085     647.233E-03     63.7359E-03     119.477E-03    -57.6024E-03    -61.8730E-03    -58.5364E-03     116.140E-03    -57.6024E-03     48.5583E-03    -19.9644E+06    -48.2915E+06    -228.844E+06    -49.3298E+06    -227.805E+06    -19.9644E+06    -13.2436E+06         29.9406
            1137     3.78347E-03     4.73154E-03     651.767E-03     633.164E-03        -2.22655     632.284E-03        -2.22540     651.490E-03     24.7062E-03     117.186E-03    -56.8098E-03    -60.3700E-03    -58.0977E-03     114.914E-03    -56.8098E-03     39.6662E-03    -34.7741E+06    -54.4381E+06    -237.621E+06    -54.8355E+06    -237.224E+06    -34.7741E+06    -8.12654E+06         29.7433
            1138     2.84072E-03     4.75902E-03     664.823E-03     644.420E-03        -2.24471     650.130E-03        -2.24078     655.187E-03     107.151E-03     114.423E-03    -55.9851E-03    -58.4386E-03    -57.0835E-03     113.067E-03    -55.9851E-03     30.1386E-03    -49.8739E+06    -60.2336E+06    -245.491E+06    -60.3758E+06    -245.349E+06    -49.8739E+06    -4.74106E+06         29.6007
            1139     1.89513E-03     4.77938E-03     671.377E-03     651.712E-03        -2.25312     656.904E-03        -2.24342     656.484E-03    -35.5715E-03     111.755E-03    -55.2652E-03    -56.4920E-03    -55.8423E-03     111.105E-03    -55.2652E-03     20.3200E-03    -60.7838E+06    -64.5839E+06    -251.895E+06    -64.6297E+06    -251.849E+06    -60.7838E+06    -2.70642E+06         29.5069
            1140     947.833E-06     4.79224E-03     719.004E-03     644.469E-03        -2.29236     667.302E-03        -2.24263     646.438E-03     330.878E-03     109.927E-03    -54.4844E-03    -55.4471E-03    -54.9366E-03     109.709E-03    -54.7767E-03     11.2946E-03    -65.8277E+06    -67.6134E+06    -254.431E+06    -66.7741E+06    -254.417E+06    -66.6818E+06    -1.23326E+06         29.4484
            1141     16.0255E-03     3.41866E-03     670.606E-03     636.537E-03        -2.23921     650.600E-03        -2.23631     653.637E-03    -169.619E-03     133.142E-03    -59.9233E-03    -73.3191E-03    -60.8289E-03     120.894E-03    -60.1661E-03     91.0211E-03     170.348E+06     129.539E+06    -10.1574E+06    -9.77639E+06     169.967E+06     129.539E+06     7.92925E+06         40.3764
            1142     15.0816E-03     3.35756E-03     682.033E-03     652.675E-03        -2.28075     681.383E-03        -2.28010     652.675E-03    -66.0232E-03     130.082E-03    -58.6839E-03    -71.3608E-03    -54.6346E-03     114.787E-03    -60.1148E-03     104.844E-03     162.592E+06     110.096E+06    -21.2030E+06    -20.6980E+06     162.087E+06     110.096E+06     9.09857E+06         37.9903
            1143     14.1348E-03     3.35593E-03     679.685E-03     650.716E-03        -2.28951     679.471E-03        -2.28930     650.716E-03     24.2683E-03     118.880E-03    -56.3662E-03    -62.4761E-03    -45.6755E-03     106.173E-03    -60.4589E-03     90.3368E-03     154.997E+06     72.6378E+06    -29.7275E+06    -29.2576E+06     154.527E+06     72.6378E+06     8.75482E+06         35.7409
            1144     13.1726E-03     3.35553E-03     670.869E-03     648.965E-03        -2.28143     670.578E-03        -2.28114     648.965E-03     52.3492E-03     113.914E-03    -52.6028E-03    -61.3392E-03    -39.4224E-03     100.734E-03    -61.3392E-03     89.5821E-03     139.368E+06     21.6120E+06    -34.4356E+06    -34.2359E+06     139.169E+06     21.6120E+06     482.387E+03         33.9952
            1145     12.2107E-03     3.37134E-03     662.984E-03     642.157E-03        -2.26730     657.063E-03        -2.26710     647.874E-03     29.3487E-03     113.638E-03    -50.9382E-03    -62.7247E-03    -39.2501E-03     101.950E-03    -62.7247E-03     84.5025E-03     75.1738E+06    -4.80591E+06    -40.8610E+06    -37.4239E+06     71.7367E+06    -4.80591E+06    -12.7747E+06         32.7700
            1146     11.2514E-03     3.38489E-03     658.670E-03     640.503E-03        -2.26113     651.583E-03        -2.26094     647.397E-03     24.4927E-03     117.270E-03    -52.8304E-03    -64.4566E-03    -41.9542E-03     106.394E-03    -64.4566E-03     83.0530E-03     15.5162E+06    -12.3766E+06    -58.3862E+06    -38.7201E+06    -15.0380E+06    -1.48845E+06    -24.3200E+06         32.0107
            1147     10.2938E-03     3.39949E-03     658.363E-03     644.507E-03        -2.25957     655.938E-03        -2.25948     646.840E-03     16.4954E-03     120.537E-03    -54.3510E-03    -66.2328E-03    -44.9185E-03     111.105E-03    -66.2328E-03     78.7333E-03     6.02480E+06    -21.6174E+06    -90.8995E+06    -37.6827E+06    -70.5235E+06     1.71400E+06    -31.4742E+06         31.5553
            1148     9.34346E-03     3.42432E-03     654.730E-03     644.936E-03        -2.25364     653.552E-03        -2.25362     646.091E-03     11.4963E-03     125.230E-03    -57.3838E-03    -67.9108E-03    -48.8053E-03     116.651E-03    -67.9108E-03     77.0905E-03     2.56913E+06    -24.0253E+06    -131.251E+06    -37.7447E+06    -116.628E+06     1.66487E+06    -36.4681E+06         31.3197
            1149     8.39595E-03     3.44786E-03     652.017E-03     642.963E-03        -2.24764     649.231E-03        -2.24747     645.582E-03     26.1507E-03     130.758E-03    -61.3706E-03    -69.4460E-03    -53.4002E-03     122.787E-03    -69.4460E-03     76.3524E-03    -1.03619E+06    -28.4376E+06    -170.216E+06    -39.7246E+06    -158.929E+06    -1.03619E+06    -38.0038E+06         31.2739
            1150     7.45361E-03     3.47375E-03     650.309E-03     640.366E-03        -2.24236     645.003E-03        -2.24217     645.478E-03     2.99123E-03     135.448E-03    -64.7176E-03    -70.7774E-03    -57.7982E-03     128.528E-03    -70.7774E-03     72.8194E-03    -5.56275E+06    -34.1257E+06    -204.791E+06    -42.3166E+06    -196.600E+06    -5.56275E+06    -36.1346E+06         31.3343
            1151     6.51478E-03     3.50340E-03     646.709E-03     635.970E-03        -2.23567     636.278E-03        -2.23553     646.258E-03    -24.1181E-03     139.512E-03    -67.3247E-03    -72.2056E-03    -61.8698E-03     133.696E-03    -71.8445E-03     68.1089E-03    -14.6092E+06    -40.1496E+06    -223.181E+06    -45.1357E+06    -218.194E+06    -14.6092E+06    -29.2623E+06         31.4306
            1152     5.58002E-03     3.53406E-03     651.380E-03     636.586E-03        -2.24583     640.157E-03        -2.24556     647.545E-03    -16.3392E-03     142.773E-03    -69.2354E-03    -73.5355E-03    -65.4451E-03     138.083E-03    -72.6363E-03     62.1366E-03    -25.8883E+06    -46.7970E+06    -230.737E+06    -49.0521E+06    -228.482E+06    -25.8883E+06    -19.5917E+06         31.5264
            1153     4.64765E-03     3.56559E-03     659.883E-03     643.655E-03        -2.26468     656.145E-03        -2.26440     647.113E-03     20.4935E-03     145.049E-03    -70.7976E-03    -74.2449E-03    -68.3071E-03     141.483E-03    -73.1694E-03     54.7874E-03    -36.4399E+06     -53.234E+06    -239.773E+06    -54.0939E+06    -238.913E+06    -36.4399E+06    -12.1898E+06         31.5993
            1154     3.71732E-03     3.59483E-03     655.474E-03     639.233E-03        -2.25214     647.743E-03        -2.25099     645.811E-03    -46.4759E-03     146.499E-03    -71.9546E-03    -74.5340E-03    -70.5064E-03     144.005E-03    -73.4878E-03     46.0926E-03    -47.1723E+06    -58.1918E+06    -245.780E+06    -58.4767E+06    -245.495E+06    -47.1723E+06    -6.71249E+06         31.6518
            1155     2.78762E-03     3.62208E-03     656.768E-03     631.040E-03        -2.23669     636.989E-03        -2.23300     647.132E-03     27.9620E-03     147.247E-03    -72.7972E-03    -74.4480E-03    -72.1113E-03     145.722E-03    -73.6091E-03     36.0264E-03    -55.6616E+06    -62.3666E+06    -250.500E+06    -62.4220E+06    -250.445E+06    -55.6616E+06    -2.89182E+06         31.6967
            1156     1.85891E-03     3.64397E-03     664.478E-03     636.975E-03        -2.24121     634.190E-03        -2.22732     653.376E-03    -152.935E-03     147.326E-03    -73.2772E-03    -74.0531E-03    -72.9977E-03     146.577E-03    -73.5833E-03     24.9516E-03    -61.6131E+06    -65.6394E+06    -255.011E+06    -65.6599E+06    -254.991E+06    -61.6131E+06    -815.507E+03         31.7295
            1157     929.916E-06     3.65721E-03     704.348E-03     663.865E-03        -2.31053     643.162E-03        -2.25790     672.427E-03     246.375E-03     147.073E-03    -73.2486E-03    -73.8318E-03    -73.1350E-03     146.819E-03    -73.6920E-03     13.9003E-03    -66.2464E+06    -69.1773E+06    -257.078E+06    -67.5846E+06    -257.063E+06    -67.8540E+06    -198.842E+03         31.7458
            1158     15.9484E-03     2.28401E-03     701.539E-03     647.968E-03        -2.32980     697.999E-03        -2.32626     647.968E-03    -164.136E-03     128.959E-03    -61.2074E-03    -67.8466E-03    -49.7447E-03     113.964E-03    -64.3141E-03     101.728E-03     169.635E+06     129.877E+06    -8.85595E+06    -8.21535E+06     168.995E+06     129.877E+06     10.6176E+06         40.2934
            1159     14.9963E-03     2.23743E-03     681.403E-03     642.345E-03        -2.31516     678.384E-03        -2.31503     645.229E-03    -23.1536E-03     125.811E-03    -57.1003E-03    -68.6640E-03    -45.9416E-03     111.120E-03    -65.1314E-03     99.2492E-03     162.836E+06     110.293E+06    -17.1883E+06    -16.6219E+06     162.270E+06     110.293E+06     9.56387E+06         38.0195
            1160     14.0341E-03     2.24461E-03     664.212E-03     640.619E-03        -2.29415     661.235E-03        -2.29406     643.503E-03     20.5088E-03     117.200E-03    -50.8397E-03    -66.2126E-03    -39.5030E-03     105.864E-03    -66.2126E-03     82.9100E-03     161.641E+06     71.9643E+06    -20.2799E+06    -19.9976E+06     161.359E+06     71.9643E+06     4.31759E+06         35.9010
            1161     13.0742E-03     2.24701E-03     656.862E-03     642.400E-03        -2.28028     656.676E-03        -2.28010     642.400E-03     38.7511E-03     117.445E-03    -49.6590E-03    -67.7159E-03    -38.7284E-03     106.515E-03    -67.7159E-03     80.8180E-03     145.987E+06     14.8398E+06    -26.8419E+06    -19.9786E+06     145.878E+06     8.08528E+06    -1.61760E+06         34.2299
            1162     12.1158E-03     2.25728E-03     646.995E-03     633.259E-03        -2.25418     637.984E-03        -2.25399     642.076E-03     36.7725E-03     120.775E-03    -51.1573E-03    -69.6355E-03    -41.7669E-03     111.385E-03    -69.6355E-03     76.8949E-03     80.1435E+06    -18.6597E+06    -44.1066E+06    -22.8817E+06     77.3153E+06    -37.0565E+06    -10.3829E+06         33.0155
            1163     11.1626E-03     2.26301E-03     643.031E-03     625.821E-03        -2.23876     625.632E-03        -2.23858     643.031E-03     39.8435E-03     124.780E-03    -53.0478E-03    -71.7461E-03    -45.0233E-03     116.756E-03    -71.7461E-03     72.5833E-03     11.5826E+06    -32.7776E+06    -65.4823E+06    -27.9584E+06    -10.8190E+06    -47.8998E+06    -24.0788E+06         32.2345
            1164     10.2108E-03     2.27836E-03     651.028E-03     633.474E-03        -2.24899     640.412E-03        -2.24889     643.993E-03     12.6115E-03     127.446E-03    -53.3975E-03    -74.0785E-03    -46.9238E-03     120.972E-03    -74.0785E-03     66.2573E-03    -11.7255E+06    -47.4268E+06    -94.9698E+06    -31.2602E+06    -71.9551E+06    -50.9068E+06    -32.6449E+06         31.7887
            1165     9.25622E-03     2.29245E-03     653.935E-03     641.659E-03        -2.25879     651.787E-03        -2.25877     643.786E-03     2.99754E-03     132.759E-03    -56.2238E-03    -76.5928E-03    -50.3615E-03     126.896E-03    -76.5928E-03     64.5366E-03    -20.3485E+06    -50.6492E+06    -135.442E+06    -33.6492E+06    -122.697E+06    -50.0941E+06    -35.1908E+06         31.6085
            1166     8.30981E-03     2.30819E-03     650.232E-03     640.525E-03        -2.25437     647.510E-03        -2.25427     643.144E-03     20.1727E-03     139.807E-03    -60.7810E-03    -79.0771E-03    -55.5288E-03     134.555E-03    -79.0771E-03     62.7842E-03    -26.6486E+06    -53.2989E+06    -177.486E+06    -37.5898E+06    -168.384E+06    -51.4601E+06    -34.9475E+06         31.6862
            1167     7.36767E-03     2.32733E-03     646.867E-03     639.472E-03        -2.24982     643.221E-03        -2.24960     642.894E-03     16.1671E-03     146.877E-03    -65.3613E-03    -81.5318E-03    -60.8587E-03     142.375E-03    -81.5318E-03     59.8336E-03    -32.3806E+06    -55.0586E+06    -216.213E+06    -43.3909E+06    -209.840E+06    -50.4206E+06    -32.3402E+06         31.9642
            1168     6.43163E-03     2.34844E-03     643.613E-03     634.307E-03        -2.24062     634.130E-03        -2.24045     643.613E-03     19.6615E-03     153.920E-03    -70.0254E-03    -83.8940E-03    -66.2379E-03     150.133E-03    -83.8940E-03     56.4250E-03    -39.4811E+06    -54.0706E+06    -240.082E+06    -49.8718E+06    -236.412E+06    -47.3504E+06    -25.3210E+06         32.3434
            1169     5.50022E-03     2.37326E-03     645.890E-03     628.554E-03        -2.23263     628.447E-03        -2.23252     645.890E-03     21.7719E-03     160.825E-03    -74.7577E-03    -86.0671E-03    -71.6577E-03     157.725E-03    -86.0671E-03     52.4214E-03    -47.5270E+06    -56.1220E+06    -245.750E+06    -55.0989E+06    -244.306E+06    -49.9940E+06    -15.7589E+06         32.7647
            1170     4.57413E-03     2.39803E-03     657.484E-03     633.229E-03        -2.24524     642.157E-03        -2.24478     648.098E-03     51.6001E-03     167.523E-03    -79.4913E-03    -88.0286E-03    -77.0828E-03     165.114E-03    -88.0286E-03     47.3207E-03    -54.1732E+06    -59.8715E+06    -249.241E+06    -59.0863E+06    -248.759E+06    -55.4403E+06    -8.86755E+06         33.1881
            1171     3.65282E-03     2.42369E-03     659.555E-03     630.477E-03        -2.24613     638.597E-03        -2.24486     650.170E-03    -11.2938E-03     173.581E-03    -83.8649E-03    -89.7308E-03    -82.1464E-03     171.862E-03    -89.7308E-03     40.7570E-03    -59.1621E+06    -62.6681E+06    -253.032E+06    -62.5137E+06    -252.902E+06    -59.4460E+06    -4.40379E+06         33.5787
            1172     2.73576E-03     2.44581E-03     656.028E-03     631.744E-03        -2.24431     628.740E-03        -2.24131     656.028E-03     35.4204E-03     178.665E-03    -87.5599E-03    -91.1152E-03    -86.4868E-03     177.592E-03    -91.1152E-03     32.6138E-03    -61.3488E+06    -64.8143E+06    -255.266E+06    -64.8391E+06    -255.241E+06    -61.3488E+06    -1.38238E+06         33.9153
            1173     1.82187E-03     2.46497E-03     667.950E-03     649.229E-03        -2.26811     637.670E-03        -2.25655     667.950E-03    -138.525E-03     182.603E-03    -90.4618E-03    -92.1467E-03    -89.9229E-03     182.064E-03    -92.1467E-03     23.1141E-03    -63.6067E+06    -66.8822E+06    -256.481E+06    -66.8897E+06    -256.473E+06    -63.6067E+06     233.889E+03         34.1769
            1174     910.048E-06     2.47725E-03     721.656E-03     674.747E-03        -2.32654     659.515E-03        -2.28113     691.478E-03     230.605E-03     185.094E-03    -92.1901E-03    -92.9061E-03    -92.2123E-03     184.907E-03    -92.6971E-03     13.1349E-03    -66.7029E+06    -69.7039E+06    -257.456E+06    -68.5988E+06    -257.438E+06    -67.8255E+06     575.822E+03         34.3427
            1175     15.8785E-03     1.14372E-03     699.243E-03     640.759E-03        -2.41173     697.115E-03        -2.40960     640.759E-03    -96.3964E-03     136.629E-03    -62.2931E-03    -74.4569E-03    -56.7055E-03     125.195E-03    -68.6110E-03     91.0954E-03     172.851E+06     135.805E+06    -4.59679E+06    -4.04237E+06     172.296E+06     135.805E+06     9.70781E+06         40.5820
            1176     14.9260E-03     1.12446E-03     654.402E-03     632.774E-03        -2.32457     648.443E-03        -2.32450     638.664E-03    -4.41346E-03     122.562E-03    -53.0519E-03    -69.4710E-03    -46.1994E-03     115.709E-03    -69.4710E-03     63.4604E-03     171.576E+06     113.269E+06    -6.70084E+06    -6.33214E+06     171.207E+06     113.269E+06     4.20523E+06         38.5430
            1177     13.9673E-03     1.12715E-03     641.541E-03     625.776E-03        -2.27653     628.553E-03        -2.27644     638.676E-03     270.675E-06     117.079E-03    -46.2447E-03    -70.7006E-03    -41.9044E-03     112.738E-03    -70.7006E-03     48.3305E-03     167.103E+06     60.4416E+06    -9.54625E+06    -9.43023E+06     166.987E+06     60.4416E+06    -1.81890E+06         36.6164
            1178     13.0074E-03     1.12866E-03     644.281E-03     626.777E-03        -2.26397     631.687E-03        -2.26391     639.310E-03     6.42018E-03     119.174E-03    -46.7328E-03    -72.3877E-03    -42.9415E-03     115.383E-03    -72.3877E-03     43.9499E-03     144.031E+06     7.60655E+06    -27.8374E+06    -10.7890E+06     144.008E+06    -9.41841E+06    -1.47658E+06         35.0233
            1179     12.0503E-03     1.13108E-03     644.529E-03     631.123E-03        -2.25829     635.874E-03        -2.25826     639.745E-03     3.77816E-03     122.528E-03    -47.9560E-03    -74.5702E-03    -44.4743E-03     119.046E-03    -74.5702E-03     42.4105E-03     84.2051E+06    -12.1356E+06    -63.3978E+06    -11.0238E+06     83.0933E+06    -63.3978E+06    -4.37226E+06         33.8084
            1180     11.0955E-03     1.13068E-03     645.875E-03     629.785E-03        -2.24779     635.504E-03        -2.24774     640.101E-03     3.61636E-03     126.680E-03    -49.7417E-03    -76.9664E-03    -46.6534E-03     123.591E-03    -76.9664E-03     40.8379E-03     18.5053E+06    -34.4744E+06    -89.9313E+06    -14.3117E+06    -1.65742E+06    -89.9313E+06    -13.9628E+06         32.9708
            1181     10.1439E-03     1.14436E-03     643.855E-03     628.253E-03        -2.24016     631.262E-03        -2.24008     640.758E-03     197.367E-06     132.191E-03    -52.5875E-03    -79.6678E-03    -49.9971E-03     129.601E-03    -79.6678E-03     39.1085E-03    -12.3150E+06    -76.6693E+06    -109.472E+06    -22.1547E+06    -74.9670E+06    -101.334E+06    -21.8919E+06         32.4733
            1182     9.19730E-03     1.15180E-03     644.580E-03     631.960E-03        -2.23874     634.883E-03        -2.23865     641.564E-03     21.5347E-03     138.840E-03    -56.2370E-03    -82.5809E-03    -53.8819E-03     136.485E-03    -82.5809E-03     38.8305E-03    -24.0721E+06    -99.5333E+06    -139.639E+06    -30.1946E+06    -130.071E+06    -102.979E+06    -22.9646E+06         32.2770
            1183     8.25022E-03     1.15775E-03     648.896E-03     635.437E-03        -2.24286     642.231E-03        -2.24267     641.907E-03     15.3935E-03     145.697E-03    -59.9876E-03    -85.6442E-03    -58.0545E-03     143.763E-03    -85.6442E-03     35.8402E-03    -34.1409E+06    -99.3958E+06    -180.697E+06    -38.0463E+06    -176.791E+06    -99.3958E+06    -21.2731E+06         32.3763
            1184     7.30978E-03     1.16720E-03     645.874E-03     638.781E-03        -2.24435     642.201E-03        -2.24380     641.900E-03    -12.2553E-03     153.668E-03    -64.6569E-03    -88.9166E-03    -63.0575E-03     152.069E-03    -88.9166E-03     33.3174E-03    -43.7202E+06    -91.1448E+06    -223.397E+06    -46.2018E+06    -220.915E+06    -91.1448E+06    -18.6387E+06         32.7409
            1185     6.37364E-03     1.17838E-03     642.125E-03     639.755E-03        -2.24131     639.307E-03        -2.24086     642.125E-03    -10.6231E-03     162.780E-03    -70.3974E-03    -92.2962E-03    -69.0555E-03     161.438E-03    -92.2962E-03     31.6041E-03    -52.3574E+06    -78.7571E+06    -251.644E+06    -53.7378E+06    -250.264E+06    -78.7571E+06    -14.8922E+06         33.2793
            1186     5.44448E-03     1.19136E-03     643.013E-03     635.348E-03        -2.23333     635.245E-03        -2.23323     643.013E-03    -13.9896E-03     172.641E-03    -76.9919E-03    -95.6170E-03    -75.8789E-03     171.528E-03    -95.6170E-03     29.7868E-03    -58.5765E+06    -70.0893E+06    -257.420E+06    -59.1694E+06    -256.828E+06    -70.0893E+06    -9.42133E+06         33.9154
            1187     4.52145E-03     1.20570E-03     649.066E-03     632.239E-03        -2.23067     636.329E-03        -2.23023     644.536E-03     26.9869E-03     182.832E-03    -84.0345E-03    -98.7850E-03    -83.1572E-03     181.955E-03    -98.7850E-03     27.3035E-03    -62.3714E+06    -66.5829E+06    -256.714E+06    -62.5094E+06    -256.576E+06    -66.5829E+06    -4.19982E+06         34.5980
            1188     3.60609E-03     1.21973E-03     655.930E-03     632.524E-03        -2.23693     642.123E-03        -2.23653     645.932E-03     36.4638E-03     192.772E-03    -91.1022E-03    -101.669E-03    -90.4684E-03     192.138E-03    -101.669E-03     23.8723E-03    -64.7309E+06    -65.5648E+06    -257.393E+06    -64.8634E+06    -257.357E+06    -65.4674E+06    -1.54724E+06         35.2680
            1189     2.69738E-03     1.23338E-03     666.533E-03     636.508E-03        -2.25546     656.163E-03        -2.25328     644.700E-03     87.6736E-03     201.658E-03    -97.5350E-03    -104.123E-03    -97.1327E-03     201.255E-03    -104.123E-03     19.3821E-03    -65.5540E+06    -66.5939E+06    -257.924E+06    -66.3935E+06    -257.920E+06    -65.7586E+06    -336.316E+03         35.8707
            1190     1.79402E-03     1.24411E-03     659.158E-03     638.183E-03        -2.24567     651.110E-03        -2.23994     640.504E-03    -41.7766E-03     208.862E-03    -102.815E-03    -106.049E-03    -102.611E-03     208.659E-03    -106.049E-03     13.7359E-03    -65.6896E+06    -67.2038E+06    -257.459E+06    -67.0023E+06    -257.456E+06    -65.8943E+06    -481.839E+03         36.3548
            1191     896.011E-06     1.25166E-03     661.609E-03     638.940E-03        -2.24958     617.234E-03        -2.22559     659.319E-03     206.392E-03     213.719E-03    -106.241E-03    -107.474E-03    -106.534E-03     213.649E-03    -107.111E-03     7.74019E-03    -66.5980E+06    -67.7039E+06    -256.644E+06    -67.7136E+06    -256.635E+06    -66.5980E+06     180.772E+03         36.6734
            1192     946.327E-06     62.3566E-03     501.206E-03     426.150E-03        -1.53719     406.932E-03        -1.48670     469.940E-03     224.926E-03     110.292E-03    -54.9393E-03    -55.3537E-03    -55.3005E-03     110.281E-03    -54.9818E-03     2.47251E-03    -89.9819E+06    -93.5761E+06    -286.094E+06    -92.9913E+06    -286.091E+06    -90.5693E+06     196.061E+03         28.4760
            1193     1.89308E-03     62.3608E-03     426.668E-03     389.106E-03        -1.42556     379.787E-03        -1.41624     426.668E-03    -141.573E-03     110.272E-03    -55.0810E-03    -55.1946E-03    -55.0562E-03     110.244E-03    -55.1914E-03     4.22571E-03    -78.6801E+06    -88.8819E+06    -279.588E+06    -88.8843E+06    -279.586E+06    -78.6801E+06     507.409E+03         28.5540
            1194     2.83975E-03     62.3662E-03     410.994E-03     388.573E-03        -1.41106     387.736E-03        -1.41022     410.994E-03     22.1533E-03     110.296E-03    -55.0770E-03    -55.2277E-03    -55.0175E-03     110.237E-03    -55.2277E-03     6.17453E-03    -62.4547E+06    -82.9669E+06    -271.851E+06    -82.9690E+06    -271.849E+06    -62.4547E+06     591.576E+03         28.6860
            1195     3.78630E-03     62.3743E-03     413.634E-03     403.881E-03        -1.42621     408.081E-03        -1.42395     407.181E-03     69.3163E-03     110.254E-03    -55.0053E-03    -55.2510E-03    -54.9055E-03     110.155E-03    -55.2510E-03     8.08007E-03    -45.7300E+06    -76.1024E+06    -261.113E+06    -76.1046E+06    -261.111E+06    -45.7300E+06     620.593E+03         28.8754
            1196     4.73310E-03     62.3837E-03     414.174E-03     404.097E-03        -1.42167     407.754E-03        -1.41846     407.308E-03     19.4690E-03     110.226E-03    -54.9568E-03    -55.2741E-03    -54.8114E-03     110.081E-03    -55.2741E-03     9.75794E-03    -29.5653E+06    -68.1146E+06    -246.464E+06    -68.1156E+06    -246.463E+06    -29.5653E+06     317.609E+03         29.1321
            1197     5.68013E-03     62.3954E-03     413.634E-03     404.177E-03        -1.41979     408.186E-03        -1.41755     407.388E-03    -7.84764E-03     110.186E-03    -54.9547E-03    -55.2537E-03    -54.7564E-03     109.988E-03    -55.2537E-03     11.4118E-03    -17.1633E+06     -60.517E+06    -225.197E+06    -60.5176E+06    -225.197E+06    -17.1633E+06     201.655E+03         29.4703
            1198     6.62677E-03     62.4085E-03     418.825E-03     408.099E-03        -1.43022     417.780E-03        -1.42918     408.099E-03     58.8711E-03     110.117E-03    -54.9233E-03    -55.2149E-03    -54.6693E-03     109.863E-03    -55.2149E-03     12.9176E-03    -9.31539E+06    -53.6296E+06    -198.402E+06    -53.6298E+06    -198.402E+06    -9.31539E+06     178.603E+03         29.8974
            1199     7.57382E-03     62.4231E-03     417.758E-03     407.268E-03        -1.43182     415.762E-03        -1.43169     409.132E-03    -13.5473E-03     110.033E-03    -54.8839E-03    -55.1586E-03    -54.5550E-03     109.704E-03    -55.1586E-03     14.6784E-03    -4.49385E+06    -47.7216E+06    -171.761E+06    -47.7217E+06    -171.760E+06    -4.49385E+06     9.09482E+03         30.4179
            1200     8.52073E-03     62.4404E-03     416.877E-03     406.241E-03        -1.43114     412.938E-03        -1.43058     409.617E-03     24.2346E-03     109.937E-03    -54.8513E-03    -55.1068E-03    -54.4154E-03     109.501E-03    -55.1068E-03     16.8851E-03    -474.734E+03    -42.5748E+06    -144.014E+06    -42.5753E+06    -144.013E+06    -474.734E+03    -186.856E+03         31.0454
            1201     9.46777E-03     62.4598E-03     417.742E-03     408.348E-03        -1.43268     414.306E-03        -1.43075     409.861E-03    -32.6633E-03     109.879E-03    -54.8677E-03    -55.0576E-03    -54.3199E-03     109.325E-03    -55.0514E-03     19.0502E-03     2.66023E+06    -37.8095E+06    -113.915E+06    -37.8105E+06    -113.914E+06     2.66023E+06    -216.757E+03         31.8035
            1202     10.4150E-03     62.4816E-03     414.950E-03     409.986E-03        -1.42801     412.316E-03        -1.42538     409.986E-03    -6.80286E-03     109.945E-03    -54.9067E-03    -55.1092E-03    -54.3135E-03     109.205E-03    -54.9625E-03     21.9607E-03     2.95475E+06    -33.9629E+06    -77.0160E+06    -33.9653E+06    -77.0136E+06     2.95475E+06    -161.398E+03         32.7193
            1203     11.3618E-03     62.5079E-03     414.719E-03     402.055E-03        -1.41683     405.777E-03        -1.41553     409.698E-03     45.2880E-03     110.033E-03    -54.8738E-03    -55.2185E-03    -54.1003E-03     108.915E-03    -54.8738E-03     26.9180E-03     3.06096E+06    -16.5600E+06    -42.3507E+06    -30.5148E+06    -28.3958E+06     3.06096E+06    -314.100E+03         33.7848
            1204     12.3093E-03     62.5401E-03     417.889E-03     401.689E-03        -1.42436     410.092E-03        -1.42421     409.331E-03    -6.94004E-03     109.993E-03    -54.7319E-03    -55.2791E-03    -53.5971E-03     108.311E-03    -54.7319E-03     33.0254E-03     44.1231E+06     2.79107E+06    -27.5026E+06    -27.4983E+06     41.9931E+06     4.91683E+06    -288.482E+03         34.8859
            1205     13.2574E-03     62.5791E-03     420.020E-03     405.786E-03        -1.43618     416.236E-03        -1.43597     409.353E-03     968.155E-06     110.612E-03    -54.6234E-03    -56.0134E-03    -53.2713E-03     107.870E-03    -54.6234E-03     42.0046E-03     123.471E+06     16.2832E+06    -25.1624E+06    -25.1527E+06     123.461E+06     16.2832E+06     413.779E+03         36.0187
            1206     14.2051E-03     62.6304E-03     417.324E-03     405.871E-03        -1.43270     413.549E-03        -1.43249     409.438E-03    -1.71112E-03     110.364E-03    -54.6361E-03    -55.7909E-03    -53.0955E-03     107.683E-03    -54.6499E-03     41.4041E-03     166.447E+06     54.0524E+06    -22.1743E+06    -22.1621E+06     166.435E+06     54.0524E+06     866.300E+03         37.4969
            1207     15.1533E-03     62.6690E-03     417.652E-03     407.003E-03        -1.43242     415.143E-03        -1.43231     409.406E-03     25.7504E-03     111.783E-03    -54.7796E-03    -57.0174E-03    -53.0438E-03     107.823E-03    -54.7935E-03     49.2440E-03     174.247E+06     100.915E+06    -16.1901E+06    -16.1855E+06     174.243E+06     100.915E+06    -41.2431E+03         39.6205
            1208     16.1012E-03     62.7390E-03     424.309E-03     407.224E-03        -1.43784     421.488E-03        -1.43743     409.627E-03     45.6954E-03     110.813E-03    -53.8675E-03    -57.0422E-03    -52.9648E-03     107.780E-03    -54.9122E-03     33.6447E-03     177.048E+06     124.070E+06    -7.91544E+06    -7.91243E+06     177.045E+06     124.070E+06    -427.121E+03         42.0327
            1209     946.461E-06     63.4723E-03     502.407E-03     423.326E-03        -1.51391     344.285E-03        -1.39327     460.802E-03     363.478E-03     110.407E-03    -54.9809E-03    -55.4263E-03    -55.3660E-03     110.396E-03    -55.0308E-03     2.50642E-03    -89.4917E+06    -92.3950E+06    -286.011E+06    -92.2176E+06    -286.010E+06    -89.6700E+06    -159.335E+03         28.4780
            1210     1.89293E-03     63.4757E-03     430.483E-03     387.359E-03        -1.40604     395.980E-03        -1.38533     401.158E-03    -163.003E-03     110.294E-03    -55.0699E-03    -55.2270E-03    -55.0411E-03     110.265E-03    -55.2270E-03     4.25727E-03    -79.9988E+06    -88.7838E+06    -280.461E+06    -88.7847E+06    -280.461E+06    -79.9988E+06     187.514E+03         28.5540
            1211     2.83960E-03     63.4817E-03     410.322E-03     388.003E-03        -1.39442     396.168E-03        -1.39153     399.267E-03     32.9985E-03     110.245E-03    -55.0209E-03    -55.2351E-03    -54.9609E-03     110.185E-03    -55.2351E-03     6.21800E-03    -63.6970E+06    -83.0076E+06    -272.288E+06    -83.0096E+06    -272.286E+06    -63.6970E+06     385.118E+03         28.6856
            1212     3.78643E-03     63.4894E-03     412.898E-03     389.355E-03        -1.39965     401.172E-03        -1.39752     398.946E-03     12.6363E-03     110.255E-03    -55.0086E-03    -55.2536E-03    -54.9105E-03     110.157E-03    -55.2536E-03     8.01054E-03    -44.8467E+06    -75.3256E+06    -260.715E+06    -75.3275E+06    -260.713E+06    -44.8467E+06     129.981E+03         28.8756
            1213     4.73317E-03     63.4990E-03     421.818E-03     397.482E-03        -1.41568     416.313E-03        -1.41338     400.693E-03     6.14768E-03     110.261E-03    -54.9909E-03    -55.2796E-03    -54.8467E-03     110.117E-03    -55.2796E-03     9.71520E-03    -28.7906E+06    -67.2685E+06    -246.453E+06    -67.2694E+06    -246.452E+06    -28.7906E+06     81.9130E+03         29.1324
            1214     5.67981E-03     63.5107E-03     411.598E-03     397.230E-03        -1.40480     404.673E-03        -1.40300     402.363E-03    -30.3917E-03     110.164E-03    -54.9344E-03    -55.2596E-03    -54.7384E-03     109.968E-03    -55.2596E-03     11.3462E-03    -16.8498E+06    -59.8038E+06    -225.474E+06    -59.8045E+06    -225.473E+06    -16.8498E+06     224.552E+03         29.4702
            1215     6.62693E-03     63.5237E-03     406.130E-03     400.610E-03        -1.40361     403.333E-03        -1.40273     402.532E-03     36.6847E-03     110.116E-03    -54.9246E-03    -55.2192E-03    -54.6697E-03     109.862E-03    -55.2192E-03     12.9332E-03    -8.97234E+06    -53.3103E+06    -198.205E+06    -53.3107E+06    -198.205E+06    -8.97234E+06     231.518E+03         29.8975
            1216     7.57356E-03     63.5387E-03     403.739E-03     396.219E-03        -1.39656     397.591E-03        -1.39640     402.202E-03    -12.8570E-03     110.063E-03    -54.9126E-03    -55.1639E-03    -54.5824E-03     109.733E-03    -55.1639E-03     14.7168E-03    -4.08160E+06    -47.4135E+06    -171.487E+06    -47.4138E+06    -171.487E+06    -4.08160E+06    -26.0187E+03         30.4186
            1217     8.52068E-03     63.5555E-03     401.258E-03     392.407E-03        -1.39064     391.733E-03        -1.38997     401.258E-03     18.4439E-03     109.942E-03    -54.8542E-03    -55.1126E-03    -54.4124E-03     109.500E-03    -55.1126E-03     16.9890E-03    -331.100E+03    -42.4613E+06    -144.114E+06    -42.4619E+06    -144.113E+06    -331.100E+03    -233.472E+03         31.0467
            1218     9.46788E-03     63.5752E-03     403.176E-03     395.627E-03        -1.39596     396.535E-03        -1.39407     400.381E-03    -27.5431E-03     109.930E-03    -54.9142E-03    -55.0628E-03    -54.3490E-03     109.358E-03    -55.0565E-03     19.3508E-03     2.60099E+06    -38.1132E+06    -113.877E+06    -38.1161E+06    -113.874E+06     2.60099E+06    -397.306E+03         31.8041
            1219     10.4148E-03     63.5971E-03     407.497E-03     398.235E-03        -1.39912     402.761E-03        -1.39627     400.123E-03     5.98813E-03     109.934E-03    -54.9508E-03    -55.0532E-03    -54.2663E-03     109.162E-03    -54.9660E-03     22.4185E-03     3.24483E+06    -33.9326E+06    -77.0597E+06    -33.9368E+06    -77.0555E+06     3.24483E+06    -377.712E+03         32.7183
            1220     11.3623E-03     63.6232E-03     424.016E-03     400.923E-03        -1.41408     422.217E-03        -1.41228     400.923E-03     42.9143E-03     109.919E-03    -54.8679E-03    -55.1091E-03    -53.9778E-03     108.788E-03    -54.8679E-03     27.1010E-03     3.33710E+06    -15.9511E+06    -43.1037E+06    -30.9961E+06    -28.0586E+06     3.33710E+06    -449.125E+03         33.7825
            1221     12.3097E-03     63.6549E-03     426.655E-03     402.514E-03        -1.41981     426.161E-03        -1.41932     402.514E-03    -5.41494E-03     109.885E-03    -54.7230E-03    -55.1819E-03    -53.5122E-03     108.215E-03    -54.7230E-03     32.8769E-03     43.2066E+06     3.51775E+06    -28.6936E+06    -28.6858E+06     41.5260E+06     5.19062E+06    -330.454E+03         34.8836
            1222     13.2577E-03     63.6938E-03     408.642E-03     392.383E-03        -1.39826     397.787E-03        -1.39804     403.014E-03     26.7118E-03     110.677E-03    -54.6133E-03    -56.0996E-03    -53.3672E-03     107.945E-03    -54.6133E-03     41.9575E-03     122.179E+06     15.7518E+06    -25.4956E+06    -25.4865E+06     122.170E+06     15.7518E+06     566.952E+03         36.0182
            1223     14.2053E-03     63.7462E-03     402.683E-03     389.781E-03        -1.39011     390.227E-03        -1.39005     402.174E-03     10.2246E-03     110.497E-03    -54.6099E-03    -55.9319E-03    -53.2240E-03     107.829E-03    -54.6504E-03     41.3253E-03     166.784E+06     53.9717E+06    -20.5121E+06    -20.5013E+06     166.773E+06     53.9717E+06     885.968E+03         37.4980
            1224     15.1525E-03     63.7844E-03     410.600E-03     399.916E-03        -1.40658     408.755E-03        -1.40650     401.679E-03     15.2483E-03     111.845E-03    -54.7632E-03    -57.0905E-03    -53.0341E-03     107.829E-03    -54.8038E-03     49.5105E-03     175.475E+06     102.239E+06    -14.3296E+06    -14.3271E+06     175.473E+06     102.239E+06     98.2260E+03         39.6231
            1225     16.1010E-03     63.8537E-03     420.922E-03     402.137E-03        -1.41763     420.864E-03        -1.41758     402.137E-03     12.2411E-03     110.908E-03    -53.9259E-03    -57.1087E-03    -53.0236E-03     107.813E-03    -54.9158E-03     33.8097E-03     177.049E+06     124.615E+06    -7.47408E+06    -7.47275E+06     177.047E+06     124.615E+06    -394.558E+03         42.0376
            1226     946.480E-06     64.5880E-03     543.428E-03     418.054E-03        -1.52347     354.797E-03        -1.33484     418.054E-03     483.995E-03     110.351E-03    -55.0965E-03    -55.2550E-03    -55.2363E-03     110.340E-03    -55.1050E-03     2.53695E-03    -89.0590E+06    -91.7738E+06    -285.824E+06    -91.5968E+06    -285.823E+06    -89.2373E+06    -208.599E+03         28.4762
            1227     1.89300E-03     64.5911E-03     441.467E-03     390.975E-03        -1.40774     409.030E-03        -1.37531     390.975E-03    -162.079E-03     110.337E-03    -55.1194E-03    -55.2211E-03    -55.0913E-03     110.309E-03    -55.2211E-03     4.17471E-03    -78.1507E+06    -87.4997E+06    -280.855E+06    -87.5014E+06    -280.853E+06    -78.1507E+06    -311.215E+03         28.5527
            1228     2.83970E-03     64.5968E-03     408.765E-03     380.437E-03        -1.37353     387.880E-03        -1.36662     394.415E-03     108.345E-03     110.272E-03    -55.0391E-03    -55.2440E-03    -54.9786E-03     110.212E-03    -55.2440E-03     6.24253E-03    -62.1363E+06    -81.6176E+06    -272.146E+06    -81.6188E+06    -272.145E+06    -62.1363E+06     6.79459E+03         28.6854
            1229     3.78631E-03     64.6048E-03     399.336E-03     370.176E-03        -1.35745     376.926E-03        -1.35635     391.491E-03     4.73207E-03     110.271E-03    -55.0255E-03    -55.2530E-03    -54.9265E-03     110.172E-03    -55.2530E-03     8.04474E-03    -45.7242E+06    -74.7190E+06    -260.227E+06    -74.7198E+06    -260.226E+06    -45.7242E+06    -145.490E+03         28.8765
            1230     4.73301E-03     64.6143E-03     408.598E-03     383.212E-03        -1.37789     400.021E-03        -1.37665     390.550E-03    -4.22080E-03     110.264E-03    -54.9977E-03    -55.2775E-03    -54.8534E-03     110.119E-03    -55.2775E-03     9.72325E-03    -30.2644E+06    -67.6218E+06    -247.046E+06    -67.6224E+06    -247.046E+06    -30.2644E+06    -59.2686E+03         29.1332
            1231     5.67999E-03     64.6259E-03     405.397E-03     390.322E-03        -1.38395     402.701E-03        -1.38317     392.244E-03    -51.4989E-03     110.128E-03    -54.9012E-03    -55.2605E-03    -54.7033E-03     109.930E-03    -55.2605E-03     11.3914E-03    -17.0482E+06    -59.9995E+06    -226.051E+06    -60.0003E+06    -226.051E+06    -17.0482E+06     156.932E+03         29.4695
            1232     6.62670E-03     64.6390E-03     397.622E-03     391.221E-03        -1.37713     395.620E-03        -1.37705     393.142E-03     179.814E-06     110.053E-03    -54.8731E-03    -55.2146E-03    -54.6102E-03     109.790E-03    -55.2146E-03     13.1264E-03    -8.52825E+06    -52.8960E+06    -198.015E+06    -52.8968E+06    -198.014E+06    -8.52825E+06     217.525E+03         29.8955
            1233     7.57392E-03     64.6540E-03     402.687E-03     389.365E-03        -1.37942     398.438E-03        -1.37929     393.486E-03    -15.6293E-03     110.019E-03    -54.8757E-03    -55.1535E-03    -54.5422E-03     109.686E-03    -55.1535E-03     14.7973E-03    -3.61433E+06    -47.1750E+06    -171.208E+06    -47.1757E+06    -171.207E+06    -3.61433E+06     159.818E+03         30.4171
            1234     8.52083E-03     64.6706E-03     401.167E-03     383.717E-03        -1.37333     390.317E-03        -1.37226     393.495E-03     36.9759E-03     109.962E-03    -54.8812E-03    -55.1064E-03    -54.4344E-03     109.515E-03    -55.1064E-03     17.0722E-03     576.113E+03     -42.102E+06    -143.453E+06    -42.1025E+06    -143.452E+06     576.113E+03    -113.884E+03         31.0462
            1235     9.46779E-03     64.6906E-03     392.432E-03     379.261E-03        -1.35934     377.160E-03        -1.35724     392.432E-03    -4.17490E-03     109.923E-03    -54.9281E-03    -55.0543E-03    -54.3481E-03     109.343E-03    -55.0543E-03     19.5002E-03     3.31500E+06    -37.7984E+06    -113.635E+06    -37.8007E+06    -113.632E+06     3.31500E+06    -254.647E+03         31.8031
            1236     10.4153E-03     64.7124E-03     404.644E-03     384.155E-03        -1.37249     394.895E-03        -1.37026     391.669E-03     129.720E-06     109.816E-03    -54.9190E-03    -54.9722E-03    -54.1719E-03     109.053E-03    -54.9555E-03     22.2988E-03     3.02920E+06    -34.5477E+06    -77.5338E+06    -34.5546E+06    -77.5269E+06     3.02920E+06    -320.587E+03         32.7162
            1237     11.3623E-03     64.7383E-03     426.566E-03     392.974E-03        -1.39741     425.062E-03        -1.39591     392.974E-03     22.8952E-03     109.832E-03    -54.8455E-03    -55.0455E-03    -53.9250E-03     108.716E-03    -54.8498E-03     26.9024E-03     3.14386E+06    -16.5080E+06    -43.4270E+06    -31.7228E+06    -28.2122E+06     3.14386E+06    -186.907E+03         33.7817
            1238     12.3098E-03     64.7700E-03     418.823E-03     393.226E-03        -1.38981     416.468E-03        -1.38913     394.901E-03    -8.68214E-03     110.058E-03    -54.7149E-03    -55.3585E-03    -53.7136E-03     108.413E-03    -54.7149E-03     32.6833E-03     43.2048E+06     3.66152E+06    -29.1499E+06    -29.1399E+06     41.3706E+06     5.48571E+06    -116.862E+03         34.8855
            1239     13.2573E-03     64.8086E-03     399.414E-03     386.469E-03        -1.36909     390.142E-03        -1.36856     395.207E-03     4.95317E-03     110.806E-03    -54.6159E-03    -56.2210E-03    -53.4689E-03     108.054E-03    -54.6159E-03     42.0698E-03     121.989E+06     15.7226E+06    -25.9879E+06    -25.9838E+06     121.985E+06     15.7226E+06    -586.885E+03         36.0199
            1240     14.2048E-03     64.8624E-03     400.150E-03     385.706E-03        -1.36781     391.033E-03        -1.36752     394.533E-03    -30.6351E-03     110.272E-03    -54.5362E-03    -55.7826E-03    -52.9963E-03     107.592E-03    -54.6421E-03     41.2944E-03     165.830E+06     52.7753E+06    -21.1406E+06    -21.1353E+06     165.825E+06     52.7753E+06    -279.002E+03         37.4995
            1241     15.1539E-03     64.8982E-03     401.110E-03     392.456E-03        -1.37379     399.284E-03        -1.37373     394.219E-03     771.653E-06     111.778E-03    -54.6804E-03    -57.1282E-03    -52.9461E-03     107.702E-03    -54.7862E-03     49.7154E-03     175.568E+06     101.788E+06    -14.6085E+06    -14.6023E+06     175.561E+06     101.788E+06     632.072E+03         39.6272
            1242     16.1013E-03     64.9707E-03     400.112E-03     391.140E-03        -1.37526     396.881E-03        -1.37506     394.165E-03     23.6456E-03     111.084E-03    -53.9990E-03    -57.2472E-03    -53.1636E-03     107.907E-03    -54.9052E-03     33.8393E-03     177.865E+06     125.307E+06    -7.27274E+06    -7.26771E+06     177.859E+06     125.307E+06     238.131E+03         42.0440
            1243     946.586E-06     65.7033E-03     558.882E-03     420.912E-03        -1.53788     317.924E-03        -1.33213     456.118E-03     457.246E-03     110.282E-03    -55.0545E-03    -55.2271E-03    -55.1612E-03     110.272E-03    -55.1105E-03     2.45107E-03    -87.8013E+06    -91.6233E+06    -285.303E+06    -91.1073E+06    -285.299E+06    -88.3214E+06    -698.876E+03         28.4706
            1244     1.89308E-03     65.7066E-03     426.824E-03     385.823E-03        -1.38164     385.323E-03        -1.34097     386.663E-03    -228.047E-03     110.296E-03    -55.1038E-03    -55.1978E-03    -55.0774E-03     110.267E-03    -55.1961E-03     4.18330E-03    -77.0118E+06    -87.2566E+06    -280.948E+06    -87.2582E+06    -280.946E+06    -77.0118E+06    -400.410E+03         28.5499
            1245     2.83956E-03     65.7121E-03     399.987E-03     380.273E-03        -1.35953     387.627E-03        -1.35333     386.433E-03     75.7928E-03     110.320E-03    -55.0997E-03    -55.2325E-03    -55.0406E-03     110.259E-03    -55.2308E-03     6.25749E-03    -62.1333E+06    -81.5697E+06    -272.274E+06    -81.5704E+06    -272.273E+06    -62.1333E+06    -8.37937E+03         28.6851
            1246     3.78640E-03     65.7201E-03     396.273E-03     372.960E-03        -1.34896     381.667E-03        -1.34741     386.015E-03     877.973E-06     110.265E-03    -55.0173E-03    -55.2529E-03    -54.9163E-03     110.164E-03    -55.2529E-03     8.12321E-03    -45.4629E+06    -74.5414E+06    -260.066E+06    -74.5418E+06    -260.065E+06    -45.4629E+06     4.55216E+03         28.8764
            1247     4.73310E-03     65.7297E-03     387.276E-03     370.402E-03        -1.33562     372.401E-03        -1.33460     384.248E-03     13.5601E-03     110.220E-03    -54.9566E-03    -55.2756E-03    -54.8115E-03     110.075E-03    -55.2756E-03     9.75485E-03    -29.4742E+06    -66.9057E+06    -247.111E+06    -66.9063E+06    -247.111E+06    -29.4742E+06    -237.917E+03         29.1322
            1248     5.67982E-03     65.7410E-03     391.327E-03     377.040E-03        -1.34351     384.706E-03        -1.34300     383.151E-03    -13.6555E-03     110.110E-03    -54.8976E-03    -55.2491E-03    -54.6976E-03     109.910E-03    -55.2491E-03     11.4454E-03    -16.8411E+06    -59.4515E+06    -226.174E+06    -59.4522E+06    -226.174E+06    -16.8411E+06    -187.380E+03         29.4681
            1249     6.62711E-03     65.7541E-03     390.375E-03     383.674E-03        -1.35190     390.185E-03        -1.35171     383.674E-03     31.5451E-03     110.011E-03    -54.8439E-03    -55.1981E-03    -54.5814E-03     109.748E-03    -55.1981E-03     13.1212E-03    -8.37818E+06    -52.6649E+06    -198.376E+06    -52.6654E+06    -198.375E+06    -8.37818E+06     82.0277E+03         29.8939
            1250     7.57386E-03     65.7693E-03     393.815E-03     384.496E-03        -1.35681     393.455E-03        -1.35655     384.590E-03    -16.2531E-03     109.959E-03    -54.8282E-03    -55.1338E-03    -54.4956E-03     109.626E-03    -55.1338E-03     14.7648E-03    -3.27849E+06    -46.8484E+06    -171.342E+06    -46.8489E+06    -171.341E+06    -3.27849E+06     175.844E+03         30.4155
            1251     8.52097E-03     65.7858E-03     394.759E-03     380.812E-03        -1.35414     388.887E-03        -1.35267     385.210E-03     37.8832E-03     109.977E-03    -54.9126E-03    -55.0903E-03    -54.4647E-03     109.529E-03    -55.0903E-03     17.1005E-03     1.09321E+06    -41.7432E+06    -143.120E+06    -41.7442E+06    -143.119E+06     1.09321E+06     133.021E+03         31.0448
            1252     9.46809E-03     65.8060E-03     393.382E-03     375.119E-03        -1.34656     380.778E-03        -1.34388     385.049E-03    -4.86656E-03     109.908E-03    -54.9271E-03    -55.0448E-03    -54.3478E-03     109.329E-03    -55.0448E-03     19.4861E-03     3.64634E+06    -37.5717E+06    -113.635E+06    -37.5726E+06    -113.634E+06     3.64634E+06     69.6886E+03         31.8011
            1253     10.4149E-03     65.8277E-03     401.673E-03     379.469E-03        -1.35455     393.745E-03        -1.35225     385.096E-03    -14.6188E-03     109.772E-03    -54.8768E-03    -54.9712E-03    -54.1403E-03     109.010E-03    -54.9456E-03     22.2739E-03     3.24948E+06    -34.2476E+06    -77.5160E+06    -34.2615E+06    -77.5022E+06     3.24948E+06     73.5339E+03         32.7141
            1254     11.3625E-03     65.8534E-03     402.451E-03     381.719E-03        -1.35349     397.277E-03        -1.35241     385.817E-03     30.7489E-03     109.923E-03    -54.8382E-03    -55.1484E-03    -54.0302E-03     108.809E-03    -54.8424E-03     26.8904E-03     3.48810E+06    -16.3675E+06    -43.1124E+06    -31.2650E+06    -28.2149E+06     3.48810E+06     72.3727E+03         33.7824
            1255     12.3101E-03     65.8854E-03     392.536E-03     379.098E-03        -1.34061     385.060E-03        -1.34006     386.023E-03     9.01858E-03     110.184E-03    -54.7171E-03    -55.4855E-03    -53.8458E-03     108.544E-03    -54.7171E-03     32.6585E-03     43.7349E+06     4.19630E+06    -28.3576E+06    -28.3483E+06     41.7373E+06     6.18459E+06    -22.0515E+03         34.8887
            1256     13.2570E-03     65.9246E-03     392.915E-03     382.959E-03        -1.34841     389.447E-03        -1.34777     385.786E-03     5.14903E-03     110.684E-03    -54.6191E-03    -56.0842E-03    -53.3487E-03     107.949E-03    -54.6191E-03     41.9073E-03     122.284E+06     16.7412E+06    -25.7521E+06    -25.7473E+06     122.279E+06     16.7412E+06    -599.280E+03         36.0221
            1257     14.2057E-03     65.9762E-03     402.630E-03     386.107E-03        -1.35957     402.311E-03        -1.35925     386.107E-03    -30.5057E-03     110.222E-03    -54.5770E-03    -55.7065E-03    -52.9586E-03     107.539E-03    -54.6423E-03     41.3226E-03     165.127E+06     53.3322E+06    -21.8901E+06    -21.8806E+06     165.118E+06     53.3322E+06    -1.14857E+06         37.5006
            1258     15.1528E-03     66.0141E-03     402.940E-03     386.807E-03        -1.35555     402.868E-03        -1.35548     386.807E-03     3.97283E-03     111.784E-03    -54.7194E-03    -57.1317E-03    -53.0393E-03     107.757E-03    -54.7847E-03     49.5186E-03     174.851E+06     101.651E+06    -14.8264E+06    -14.8164E+06     174.841E+06     101.651E+06    -146.566E+03         39.6297
            1259     16.1015E-03     66.0851E-03     397.863E-03     384.203E-03        -1.34623     394.334E-03        -1.34573     387.228E-03     45.3059E-03     110.957E-03    -53.9515E-03    -57.1597E-03    -53.0972E-03     107.843E-03    -54.8998E-03     33.4749E-03     177.915E+06     125.094E+06    -6.78394E+06    -6.77569E+06     177.906E+06     125.094E+06     650.722E+03         42.0493
            1260     946.334E-06     66.8183E-03     537.762E-03     437.071E-03        -1.53405     225.373E-03        -1.29161     507.019E-03     465.291E-03     110.176E-03    -54.9295E-03    -55.2484E-03    -55.1835E-03     110.166E-03    -54.9844E-03     2.30083E-03    -87.5199E+06    -91.5408E+06    -284.776E+06    -91.0283E+06    -284.768E+06    -88.0401E+06    -794.603E+03         28.4648
            1261     1.89327E-03     66.8219E-03     407.650E-03     363.912E-03        -1.33661     359.197E-03        -1.28899     364.752E-03    -270.542E-03     110.249E-03    -55.0881E-03    -55.1690E-03    -55.0734E-03     110.219E-03    -55.1542E-03     4.32293E-03    -77.2014E+06    -87.1587E+06    -281.388E+06    -87.1600E+06    -281.386E+06    -77.2014E+06    -109.527E+03         28.5469
            1262     2.83982E-03     66.8275E-03     394.570E-03     365.882E-03        -1.33068     387.591E-03        -1.32454     366.722E-03     35.9303E-03     110.317E-03    -55.1229E-03    -55.2100E-03    -55.0645E-03     110.257E-03    -55.2083E-03     6.22843E-03    -61.5004E+06    -81.1671E+06    -272.148E+06    -81.1685E+06    -272.147E+06    -61.5004E+06    -352.438E+03         28.6838
            1263     3.78632E-03     66.8352E-03     403.326E-03     373.049E-03        -1.34549     400.474E-03        -1.34304     373.447E-03    -23.7334E-03     110.227E-03    -54.9923E-03    -55.2407E-03    -54.8916E-03     110.127E-03    -55.2407E-03     8.10888E-03    -43.8147E+06    -73.6767E+06    -260.182E+06    -73.6776E+06    -260.181E+06    -43.8147E+06    -335.615E+03         28.8752
            1264     4.73318E-03     66.8449E-03     393.648E-03     371.015E-03        -1.32862     385.639E-03        -1.32712     377.524E-03     4.08074E-03     110.170E-03    -54.9227E-03    -55.2614E-03    -54.7771E-03     110.024E-03    -55.2614E-03     9.76820E-03    -28.2327E+06    -66.1888E+06    -246.940E+06    -66.1897E+06    -246.939E+06    -28.2327E+06    -206.309E+03         29.1312
            1265     5.68024E-03     66.8560E-03     382.078E-03     370.850E-03        -1.31453     374.142E-03        -1.31369     377.942E-03    -30.9216E-03     110.126E-03    -54.9336E-03    -55.2336E-03    -54.7320E-03     109.924E-03    -55.2336E-03     11.4939E-03    -16.6162E+06    -59.1087E+06    -225.906E+06    -59.1095E+06    -225.905E+06    -16.6162E+06     10.5803E+03         29.4682
            1266     6.62675E-03     66.8695E-03     379.878E-03     374.025E-03        -1.31632     376.147E-03        -1.31603     377.465E-03     38.9535E-03     110.011E-03    -54.8546E-03    -55.1840E-03    -54.5946E-03     109.751E-03    -55.1840E-03     13.0682E-03    -8.53057E+06    -52.6478E+06    -198.850E+06    -52.6480E+06    -198.850E+06    -8.53057E+06     105.533E+03         29.8943
            1267     7.57410E-03     66.8840E-03     376.561E-03     361.752E-03        -1.30344     361.500E-03        -1.30297     376.345E-03    -10.5097E-03     109.927E-03    -54.8105E-03    -55.1198E-03    -54.4754E-03     109.592E-03    -55.1198E-03     14.8037E-03    -3.34996E+06    -46.7441E+06    -171.776E+06    -46.7450E+06    -171.776E+06    -3.34996E+06     188.950E+03         30.4151
            1268     8.52115E-03     66.9014E-03     386.535E-03     363.029E-03        -1.31682     373.295E-03        -1.31571     375.163E-03     11.0411E-03     109.969E-03    -54.9182E-03    -55.0751E-03    -54.4670E-03     109.518E-03    -55.0751E-03     17.1792E-03     794.957E+03    -41.8524E+06    -143.553E+06    -41.8539E+06    -143.552E+06     794.957E+03     303.839E+03         31.0437
            1269     9.46795E-03     66.9209E-03     406.166E-03     376.267E-03        -1.34847     403.961E-03        -1.34626     376.267E-03    -27.4382E-03     109.866E-03    -54.8939E-03    -55.0318E-03    -54.3249E-03     109.297E-03    -55.0318E-03     19.3079E-03     3.77244E+06    -37.6187E+06    -113.557E+06    -37.6210E+06    -113.555E+06     3.77244E+06     272.163E+03         31.7997
            1270     10.4157E-03     66.9428E-03     397.816E-03     373.157E-03        -1.33291     390.867E-03        -1.33086     378.056E-03    -25.9823E-03     109.785E-03    -54.8414E-03    -55.0223E-03    -54.1677E-03     109.027E-03    -54.9379E-03     22.2026E-03     3.73662E+06    -33.7706E+06    -77.5778E+06    -33.7813E+06    -77.5671E+06     3.73662E+06     412.442E+03         32.7125
            1271     11.3626E-03     66.9687E-03     379.300E-03     368.906E-03        -1.30891     369.295E-03        -1.30806     378.066E-03     20.1603E-03     110.062E-03    -54.8405E-03    -55.2850E-03    -54.1600E-03     108.937E-03    -54.8405E-03     27.0421E-03     3.80702E+06    -15.4531E+06    -43.3831E+06    -30.8678E+06    -27.9684E+06     3.80702E+06     319.312E+03         33.7817
            1272     12.3092E-03     67.0012E-03     387.276E-03     372.190E-03        -1.32139     381.295E-03        -1.32082     377.604E-03     10.1109E-03     110.055E-03    -54.7152E-03    -55.3561E-03    -53.7153E-03     108.414E-03    -54.7152E-03     32.6518E-03     43.8944E+06     5.14863E+06    -28.1425E+06    -28.1240E+06     42.2767E+06     6.74778E+06    -324.275E+03         34.8908
            1273     13.2576E-03     67.0391E-03     396.837E-03     376.961E-03        -1.33766     395.280E-03        -1.33725     378.114E-03     22.5727E-03     110.647E-03    -54.6111E-03    -56.0499E-03    -53.3065E-03     107.904E-03    -54.6111E-03     41.9488E-03     122.864E+06     17.7902E+06    -24.4729E+06     -24.464E+06     122.855E+06     17.7902E+06    -643.277E+03         36.0244
            1274     14.2051E-03     67.0913E-03     392.552E-03     375.598E-03        -1.33097     389.236E-03        -1.33088     378.823E-03     74.4537E-06     110.525E-03    -54.6502E-03    -55.9305E-03    -53.2378E-03     107.832E-03    -54.6502E-03     41.4538E-03     165.837E+06     55.0903E+06    -20.6751E+06    -20.6686E+06     165.830E+06     55.0903E+06    -669.209E+03         37.4990
            1275     15.1534E-03     67.1298E-03     390.565E-03     375.865E-03        -1.32421     387.151E-03        -1.32402     379.089E-03    -5.64032E-03     111.863E-03    -54.8016E-03    -57.1143E-03    -53.0943E-03     107.843E-03    -54.8016E-03     49.4669E-03     173.185E+06     101.716E+06    -15.8274E+06    -15.8217E+06     173.180E+06     101.716E+06    -459.272E+03         39.6281
            1276     16.1009E-03     67.1999E-03     396.755E-03     379.488E-03        -1.32622     396.283E-03        -1.32575     379.488E-03     12.5318E-03     110.832E-03    -53.8477E-03    -57.0941E-03    -52.9250E-03     107.719E-03    -54.9037E-03     33.6789E-03     177.028E+06     124.157E+06    -8.16575E+06    -8.16242E+06     177.024E+06     124.157E+06     376.171E+03         42.0533
            1277     946.963E-06     67.9335E-03     569.082E-03     461.629E-03        -1.58490     207.315E-03        -1.30151     540.007E-03     599.670E-03     110.092E-03    -54.8402E-03    -55.2576E-03    -55.2475E-03     110.082E-03    -54.8402E-03     2.36979E-03    -87.1708E+06    -91.1437E+06    -284.626E+06    -90.6761E+06    -284.620E+06    -87.6453E+06    -318.500E+03         28.4636
            1278     1.89315E-03     67.9373E-03     411.880E-03     362.876E-03        -1.33411     357.689E-03        -1.28769     370.651E-03    -183.456E-03     110.261E-03    -55.0746E-03    -55.1954E-03    -55.1102E-03     110.232E-03    -55.1308E-03     4.26430E-03    -76.2810E+06    -86.5200E+06    -280.908E+06    -86.5230E+06    -280.905E+06    -76.2810E+06    -476.519E+03         28.5446
            1279     2.83975E-03     67.9428E-03     383.250E-03     347.008E-03        -1.28981     354.419E-03        -1.27964     365.661E-03     120.953E-03     110.211E-03    -55.0354E-03    -55.1918E-03    -54.9759E-03     110.151E-03    -55.1918E-03     6.19096E-03    -60.2846E+06    -80.2110E+06    -271.720E+06    -80.2140E+06    -271.717E+06    -60.2846E+06    -750.887E+03         28.6809
            1280     3.78655E-03     67.9505E-03     383.425E-03     346.320E-03        -1.28492     363.705E-03        -1.28268     363.804E-03     10.9188E-03     110.175E-03    -54.9723E-03    -55.2105E-03    -54.8725E-03     110.075E-03    -55.2105E-03     8.06333E-03    -43.5753E+06    -73.2704E+06    -260.710E+06    -73.2724E+06    -260.708E+06    -43.5753E+06    -461.929E+03         28.8739
            1281     4.73342E-03     67.9599E-03     391.287E-03     358.788E-03        -1.29841     382.269E-03        -1.29600     365.396E-03     2.05805E-03     110.196E-03    -54.9714E-03    -55.2409E-03    -54.8264E-03     110.051E-03    -55.2409E-03     9.75226E-03    -27.8086E+06    -65.9315E+06    -247.248E+06    -65.9322E+06    -247.247E+06    -27.8086E+06     111.469E+03         29.1324
            1282     5.68003E-03     67.9716E-03     383.891E-03     367.091E-03        -1.29679     381.662E-03        -1.29555     368.072E-03    -72.2081E-03     110.083E-03    -54.9078E-03    -55.2242E-03    -54.7085E-03     109.884E-03    -55.2242E-03     11.4255E-03    -16.0163E+06    -58.7792E+06    -226.124E+06    -58.7798E+06    -226.123E+06    -16.0163E+06     282.872E+03         29.4703
            1283     6.62730E-03     67.9846E-03     373.131E-03     364.619E-03        -1.28475     368.459E-03        -1.28448     369.019E-03     13.8386E-03     109.971E-03    -54.8392E-03    -55.1691E-03    -54.5786E-03     109.710E-03    -55.1691E-03     13.0734E-03    -8.12049E+06    -52.0603E+06    -198.929E+06    -52.0607E+06    -198.929E+06    -8.12049E+06     228.445E+03         29.8960
            1284     7.57404E-03     67.9994E-03     368.743E-03     352.456E-03        -1.27407     352.953E-03        -1.27374     367.914E-03     9.45309E-03     109.988E-03    -54.8859E-03    -55.1058E-03    -54.5473E-03     109.650E-03    -55.1058E-03     14.8894E-03    -3.19899E+06    -46.4826E+06    -172.052E+06    -46.4839E+06    -172.051E+06    -3.19899E+06     356.744E+03         30.4161
            1285     8.52110E-03     68.0166E-03     376.809E-03     349.568E-03        -1.28308     359.708E-03        -1.28290     366.485E-03    -4.86880E-03     109.948E-03    -54.9003E-03    -55.0681E-03    -54.4484E-03     109.496E-03    -55.0681E-03     17.1932E-03     955.088E+03    -41.7067E+06    -143.762E+06    -41.7111E+06    -143.758E+06     955.088E+03     510.768E+03         31.0436
            1286     9.46839E-03     68.0365E-03     388.282E-03     361.241E-03        -1.30427     381.811E-03        -1.30327     366.717E-03    -45.0647E-03     109.869E-03    -54.8837E-03    -55.0414E-03    -54.3374E-03     109.307E-03    -55.0254E-03     19.2017E-03     4.38366E+06    -37.2168E+06    -113.408E+06    -37.2219E+06    -113.403E+06     4.38366E+06     465.694E+03         31.7994
            1287     10.4151E-03     68.0576E-03     386.335E-03     362.289E-03        -1.29917     379.543E-03        -1.29787     367.785E-03    -21.5679E-03     109.830E-03    -54.8851E-03    -55.0175E-03    -54.2096E-03     109.071E-03    -54.9342E-03     22.1995E-03     4.09417E+06    -33.5450E+06    -77.7224E+06    -33.5477E+06    -77.7197E+06     4.09417E+06     288.485E+03         32.7109
            1288     11.3624E-03     68.0846E-03     382.559E-03     363.338E-03        -1.29649     376.693E-03        -1.29569     368.400E-03    -6.47602E-03     109.839E-03    -54.8274E-03    -55.0680E-03    -53.9118E-03     108.685E-03    -54.8297E-03     27.3362E-03     3.95941E+06    -15.8906E+06    -42.8041E+06    -30.1248E+06    -28.5699E+06     3.95941E+06     423.147E+03         33.7789
            1289     12.3103E-03     68.1163E-03     392.820E-03     369.186E-03        -1.31425     392.074E-03        -1.31367     369.349E-03    -25.5990E-03     110.039E-03    -54.6911E-03    -55.3656E-03    -53.7076E-03     108.383E-03    -54.6933E-03     32.8314E-03     45.7106E+06     4.98859E+06    -27.3420E+06    -27.3262E+06     43.4149E+06     7.26846E+06    -132.254E+03         34.8927
            1290     13.2579E-03     68.1535E-03     391.774E-03     370.654E-03        -1.31455     391.560E-03        -1.31433     370.654E-03    -3.02742E-03     110.961E-03    -54.6080E-03    -56.3894E-03    -53.6666E-03     108.238E-03    -54.6080E-03     41.8735E-03     123.948E+06     18.8731E+06    -25.4266E+06    -25.4161E+06     123.938E+06     18.8731E+06    -884.870E+03         36.0300
            1291     14.2054E-03     68.2082E-03     377.314E-03     367.910E-03        -1.30022     373.925E-03        -1.30005     371.134E-03    -14.9302E-03     110.569E-03    -54.6334E-03    -55.9773E-03    -53.2901E-03     107.910E-03    -54.6619E-03     41.1901E-03     165.235E+06     55.2926E+06    -21.4420E+06    -21.4392E+06     165.232E+06     55.2926E+06    -344.991E+03         37.4999
            1292     15.1526E-03     68.2438E-03     372.302E-03     366.603E-03        -1.29119     367.955E-03        -1.29099     370.750E-03    -13.9232E-03     111.756E-03    -54.7765E-03    -57.0088E-03    -52.9653E-03     107.741E-03    -54.8050E-03     49.3276E-03     172.247E+06     101.400E+06    -14.4489E+06    -14.4475E+06     172.246E+06     101.400E+06     285.305E+03         39.6271
            1293     16.1017E-03     68.3160E-03     377.581E-03     363.062E-03        -1.29209     370.065E-03        -1.29182     370.309E-03     4.12034E-03     110.838E-03    -53.9074E-03    -57.0714E-03    -52.9476E-03     107.710E-03    -54.9028E-03     33.7714E-03     176.612E+06     124.334E+06    -7.24421E+06    -7.24270E+06     176.611E+06     124.334E+06     354.843E+03         42.0573
            1294     946.518E-06     69.0493E-03     611.739E-03     431.506E-03        -1.58879     212.383E-03        -1.34583     587.902E-03     562.967E-03     110.157E-03    -54.8621E-03    -55.3001E-03    -55.2061E-03     110.147E-03    -54.9466E-03     2.40072E-03    -87.0139E+06    -91.3662E+06    -284.409E+06    -90.8944E+06    -284.406E+06    -87.4884E+06    -25.2243E+03         28.4670
            1295     1.89312E-03     69.0523E-03     417.108E-03     376.562E-03        -1.33715     365.445E-03        -1.30220     393.271E-03    -183.424E-03     110.142E-03    -54.9670E-03    -55.1876E-03    -54.9896E-03     110.113E-03    -55.1361E-03     4.21747E-03    -75.8318E+06    -86.6432E+06    -280.005E+06    -86.6452E+06    -280.003E+06    -75.8318E+06    -416.533E+03         28.5443
            1296     2.83992E-03     69.0582E-03     378.962E-03     341.164E-03        -1.26243     334.639E-03        -1.25590     378.962E-03     112.888E-03     110.116E-03    -54.9762E-03    -55.1608E-03    -54.9161E-03     110.056E-03    -55.1608E-03     6.23760E-03    -60.4305E+06    -80.9176E+06    -271.963E+06    -80.9198E+06    -271.961E+06    -60.4305E+06    -594.886E+03         28.6791
            1297     3.78676E-03     69.0655E-03     366.549E-03     327.744E-03        -1.23726     325.950E-03        -1.23546     366.549E-03     49.3371E-03     110.154E-03    -54.9824E-03    -55.1833E-03    -54.8829E-03     110.055E-03    -55.1833E-03     8.04822E-03    -43.3701E+06    -73.9533E+06    -261.160E+06    -73.9549E+06    -261.159E+06    -43.3701E+06    -387.138E+03         28.8735
            1298     4.73328E-03     69.0754E-03     369.783E-03     337.649E-03        -1.24565     345.066E-03        -1.24330     360.016E-03     43.4248E-03     110.218E-03    -55.0103E-03    -55.2240E-03    -54.8638E-03     110.072E-03    -55.2240E-03     9.79899E-03    -27.6920E+06    -66.0941E+06    -247.567E+06    -66.0945E+06    -247.566E+06    -27.6920E+06     95.5061E+03         29.1343
            1299     5.68026E-03     69.0866E-03     372.580E-03     348.451E-03        -1.25630     361.097E-03        -1.25507     358.701E-03    -14.4256E-03     110.080E-03    -54.9130E-03    -55.2167E-03    -54.7189E-03     109.885E-03    -55.2167E-03     11.2895E-03    -15.5341E+06    -58.3347E+06    -226.308E+06    -58.3353E+06    -226.308E+06    -15.5341E+06     279.207E+03         29.4729
            1300     6.62720E-03     69.0996E-03     366.683E-03     352.305E-03        -1.25580     359.563E-03        -1.25524     358.864E-03     26.3527E-03     109.953E-03    -54.8317E-03    -55.1616E-03    -54.5750E-03     109.696E-03    -55.1616E-03     12.9579E-03     -7.8853E+06    -51.8648E+06    -199.387E+06    -51.8668E+06    -199.385E+06     -7.8853E+06     475.286E+03         29.8980
            1301     7.57430E-03     69.1148E-03     374.340E-03     358.690E-03        -1.27391     373.243E-03        -1.27377     359.649E-03     3.61691E-03     109.997E-03    -54.9029E-03    -55.0985E-03    -54.5640E-03     109.658E-03    -55.0985E-03     14.9067E-03    -2.87171E+06    -46.3524E+06    -172.170E+06    -46.3555E+06    -172.167E+06    -2.87171E+06     574.913E+03         30.4174
            1302     8.52114E-03     69.1318E-03     371.637E-03     354.468E-03        -1.27065     365.132E-03        -1.27033     360.653E-03     12.7348E-03     109.944E-03    -54.9001E-03    -55.0654E-03    -54.4531E-03     109.497E-03    -55.0654E-03     17.0987E-03     1.57042E+06    -41.2375E+06    -143.620E+06    -41.2425E+06    -143.615E+06     1.57042E+06     606.744E+03         31.0441
            1303     9.46826E-03     69.1515E-03     359.944E-03     342.777E-03        -1.24701     342.329E-03        -1.24657     359.944E-03     2.01088E-03     109.825E-03    -54.8421E-03    -55.0345E-03    -54.2887E-03     109.256E-03    -55.0185E-03     19.3067E-03     4.48419E+06    -36.7946E+06    -113.737E+06    -36.8001E+06    -113.731E+06     4.48419E+06     546.102E+03         31.7999
            1304     10.4155E-03     69.1734E-03     371.576E-03     348.010E-03        -1.26024     359.582E-03        -1.25923     358.991E-03     29.1410E-03     109.778E-03    -54.8560E-03    -54.9905E-03    -54.1548E-03     109.009E-03    -54.9235E-03     22.3452E-03     4.60873E+06    -33.0471E+06    -77.2517E+06    -33.0513E+06    -77.2475E+06     4.60873E+06     363.655E+03         32.7120
            1305     11.3629E-03     69.1990E-03     387.014E-03     359.954E-03        -1.28494     385.857E-03        -1.28378     359.954E-03     18.6214E-03     109.753E-03    -54.8145E-03    -54.9948E-03    -53.8753E-03     108.636E-03    -54.8167E-03     26.9142E-03     4.23158E+06    -16.2144E+06    -42.4007E+06    -30.0242E+06    -28.5909E+06     4.23158E+06     117.207E+03         33.7797
            1306     12.3110E-03     69.2310E-03     382.080E-03     358.445E-03        -1.27922     378.396E-03        -1.27857     361.486E-03    -9.30046E-03     110.196E-03    -54.6831E-03    -55.5383E-03    -53.8841E-03     108.544E-03    -54.6853E-03     32.7600E-03     46.2251E+06     4.58885E+06    -27.5908E+06    -27.5833E+06     43.6144E+06     7.19216E+06     270.110E+03         34.8940
            1307     13.2570E-03     69.2709E-03     370.727E-03     358.991E-03        -1.26966     367.288E-03        -1.26926     362.032E-03     5.97036E-03     111.067E-03    -54.6172E-03    -56.4929E-03    -53.8154E-03     108.389E-03    -54.6172E-03     41.6554E-03     124.615E+06     19.8208E+06    -25.4488E+06    -25.4415E+06     124.607E+06     19.8208E+06     247.325E+03         36.0338
            1308     14.2046E-03     69.3216E-03     368.166E-03     362.058E-03        -1.27576     368.041E-03        -1.27563     362.058E-03    -19.0281E-03     110.422E-03    -54.6342E-03    -55.8239E-03    -53.1581E-03     107.797E-03    -54.6741E-03     41.0403E-03     164.741E+06     55.5890E+06    -21.9245E+06    -21.9201E+06     164.737E+06     55.5890E+06    -218.613E+03         37.5050
            1309     15.1535E-03     69.3602E-03     369.554E-03     361.144E-03        -1.27704     368.596E-03        -1.27700     362.068E-03    -7.66501E-03     111.702E-03    -54.7691E-03    -56.9704E-03    -52.9464E-03     107.718E-03    -54.8090E-03     49.3476E-03     171.672E+06     100.604E+06    -15.6425E+06    -15.6405E+06     171.670E+06     100.604E+06    -58.9827E+03         39.6321
            1310     16.1009E-03     69.4295E-03     371.218E-03     354.732E-03        -1.27350     363.650E-03        -1.27318     361.979E-03     26.9019E-03     110.796E-03    -53.9075E-03    -57.0676E-03    -53.0123E-03     107.739E-03    -54.9062E-03     33.7080E-03     176.633E+06     124.097E+06    -7.66784E+06    -7.66583E+06     176.631E+06     124.097E+06     277.864E+03         42.0626
            1311     946.312E-06     70.1639E-03     611.497E-03     294.548E-03        -1.43402     128.063E-03        -1.24396     587.928E-03     420.140E-03     110.137E-03    -54.9717E-03    -55.1707E-03    -55.0759E-03     110.127E-03    -55.0562E-03     2.52553E-03    -86.8793E+06    -90.5550E+06    -283.922E+06    -90.1864E+06    -283.920E+06    -87.2504E+06     19.0123E+03         28.4699
            1312     1.89340E-03     70.1676E-03     391.037E-03     348.634E-03        -1.26685     356.839E-03        -1.24158     357.567E-03    -264.306E-03     110.045E-03    -54.9449E-03    -55.1142E-03    -54.9169E-03     110.016E-03    -55.1139E-03     4.19612E-03    -75.7002E+06    -86.3201E+06    -280.346E+06    -86.3247E+06    -280.342E+06    -75.7002E+06     197.648E+03         28.5467
            1313     2.84007E-03     70.1730E-03     382.340E-03     338.481E-03        -1.25059     360.841E-03        -1.24824     357.627E-03    -27.0985E-03     110.100E-03    -54.9873E-03    -55.1373E-03    -54.9278E-03     110.041E-03    -55.1373E-03     6.18678E-03    -59.0459E+06    -80.9490E+06    -271.857E+06    -80.9532E+06    -271.853E+06    -59.0459E+06     324.137E+03         28.6808
            1314     3.78667E-03     70.1809E-03     381.420E-03     336.638E-03        -1.24990     358.125E-03        -1.24792     357.958E-03    -27.9586E-03     110.162E-03    -55.0029E-03    -55.1716E-03    -54.9036E-03     110.063E-03    -55.1716E-03     8.04843E-03    -42.0062E+06    -74.0342E+06    -260.964E+06    -74.0349E+06    -260.963E+06    -42.0062E+06    -142.700E+03         28.8748
            1315     4.73365E-03     70.1903E-03     365.524E-03     340.446E-03        -1.23448     347.055E-03        -1.23244     356.874E-03    -15.5250E-03     110.161E-03    -54.9683E-03    -55.2118E-03    -54.8227E-03     110.015E-03    -55.2118E-03     9.76790E-03    -27.3504E+06    -66.2236E+06    -247.916E+06    -66.2237E+06    -247.916E+06    -27.3504E+06    -100.090E+03         29.1356
            1316     5.68026E-03     70.2019E-03     354.389E-03     338.409E-03        -1.22045     337.069E-03        -1.21911     354.389E-03     3.99263E-03     110.105E-03    -54.9541E-03    -55.2048E-03    -54.7587E-03     109.910E-03    -55.2048E-03     11.3261E-03    -15.6954E+06    -58.9476E+06    -227.005E+06    -58.9490E+06    -227.003E+06    -15.6954E+06     331.270E+03         29.4748
            1317     6.62712E-03     70.2146E-03     356.023E-03     340.938E-03        -1.22382     344.186E-03        -1.22336     352.316E-03     37.4276E-03     110.074E-03    -54.9497E-03    -55.1637E-03    -54.6922E-03     109.816E-03    -55.1637E-03     12.9928E-03    -7.55577E+06    -52.3162E+06    -199.458E+06    -52.3208E+06    -199.454E+06    -7.55577E+06     779.404E+03         29.9004
            1318     7.57411E-03     70.2299E-03     366.169E-03     349.008E-03        -1.24447     362.708E-03        -1.24431     352.308E-03    -18.1739E-03     109.983E-03    -54.8842E-03    -55.1087E-03    -54.5503E-03     109.649E-03    -55.1087E-03     14.7955E-03    -2.39291E+06    -46.3076E+06    -171.899E+06    -46.3121E+06    -171.894E+06    -2.39291E+06     723.758E+03         30.4191
            1319     8.52126E-03     70.2471E-03     370.325E-03     349.637E-03        -1.25201     366.039E-03        -1.25161     353.525E-03    -731.107E-06     109.877E-03    -54.8365E-03    -55.0702E-03    -54.3994E-03     109.440E-03    -55.0702E-03     16.9015E-03     1.58589E+06    -41.2349E+06    -144.096E+06    -41.2376E+06    -144.094E+06     1.58589E+06     485.213E+03         31.0455
            1320     9.46831E-03     70.2665E-03     365.200E-03     342.322E-03        -1.23996     352.825E-03        -1.23928     354.012E-03    -7.88734E-03     109.813E-03    -54.8385E-03    -55.0262E-03    -54.2863E-03     109.253E-03    -55.0187E-03     19.1406E-03     4.52349E+06    -37.1009E+06    -113.514E+06    -37.1067E+06    -113.508E+06     4.52349E+06     597.647E+03         31.8023
            1321     10.4158E-03     70.2883E-03     364.344E-03     341.221E-03        -1.23539     350.798E-03        -1.23432     353.697E-03     4.40936E-03     109.770E-03    -54.8581E-03    -54.9768E-03    -54.1723E-03     109.034E-03    -54.9268E-03     21.8927E-03     4.94747E+06    -33.2285E+06    -77.1516E+06    -33.2347E+06    -77.1454E+06     4.94747E+06     430.979E+03         32.7157
            1322     11.3628E-03     70.3145E-03     368.925E-03     351.844E-03        -1.24706     365.992E-03        -1.24622     353.937E-03     8.91069E-03     109.952E-03    -54.8275E-03    -55.1761E-03    -54.0868E-03     108.863E-03    -54.8287E-03     26.5558E-03     4.36141E+06    -15.7456E+06    -43.3245E+06    -30.2893E+06    -28.7808E+06     4.36141E+06     144.351E+03         33.7813
            1323     12.3093E-03     70.3462E-03     365.507E-03     351.487E-03        -1.24391     361.718E-03        -1.24317     354.528E-03     16.4203E-03     110.174E-03    -54.7002E-03    -55.4917E-03    -53.7961E-03     108.478E-03    -54.7002E-03     33.1352E-03     45.1328E+06     5.12130E+06    -27.7674E+06    -27.7542E+06     42.9985E+06     7.24242E+06     382.320E+03         34.8896
            1324     13.2578E-03     70.3869E-03     356.535E-03     347.566E-03        -1.23229     349.099E-03        -1.23165     354.367E-03     25.9272E-03     110.746E-03    -54.6100E-03    -56.1613E-03    -53.4484E-03     108.033E-03    -54.6100E-03     41.9139E-03     123.975E+06     19.3170E+06    -24.0378E+06    -24.0329E+06     123.970E+06     19.3170E+06     646.746E+03         36.0290
            1325     14.2054E-03     70.4368E-03     356.542E-03     347.982E-03        -1.23476     350.626E-03        -1.23466     353.790E-03    -9.21285E-03     110.462E-03    -54.6462E-03    -55.8376E-03    -53.1891E-03     107.825E-03    -54.6576E-03     41.1685E-03     165.107E+06     55.9262E+06    -19.9503E+06    -19.9417E+06     165.099E+06     55.9262E+06     765.529E+03         37.5092
            1326     15.1528E-03     70.4751E-03     365.008E-03     351.580E-03        -1.25049     362.853E-03        -1.25038     353.628E-03    -9.42072E-03     111.871E-03    -54.7934E-03    -57.1245E-03    -53.0910E-03     107.848E-03    -54.8047E-03     49.6687E-03     172.021E+06     101.462E+06    -14.9203E+06    -14.9126E+06     172.013E+06     101.462E+06     398.551E+03         39.6418
            1327     16.1013E-03     70.5452E-03     379.652E-03     354.318E-03        -1.26586     379.282E-03        -1.26549     354.318E-03     13.3340E-03     110.832E-03    -53.9062E-03    -57.1107E-03    -53.0364E-03     107.758E-03    -54.9061E-03     33.8562E-03     176.974E+06     123.765E+06    -8.20022E+06    -8.19918E+06     176.973E+06     123.765E+06    -4.86330E+03         42.0702
            1328     947.001E-06     71.2795E-03     600.792E-03     154.365E-03        -1.26429     29.3831E-03        -1.09633     557.810E-03     346.977E-03     109.965E-03    -54.8353E-03    -55.1312E-03    -55.1206E-03     109.955E-03    -54.8353E-03     2.55745E-03    -87.8135E+06    -91.0635E+06    -284.482E+06    -90.6982E+06    -284.476E+06    -88.1846E+06     226.700E+03         28.4696
            1329     1.89315E-03     71.2822E-03     379.358E-03     307.046E-03        -1.20151     360.870E-03        -1.18302     307.046E-03    -197.865E-03     110.109E-03    -55.0124E-03    -55.1066E-03    -55.0306E-03     110.082E-03    -55.0612E-03     4.13633E-03    -77.3444E+06    -87.3962E+06    -281.170E+06    -87.4038E+06    -281.162E+06    -77.3444E+06     447.390E+03         28.5498
            1330     2.84000E-03     71.2882E-03     381.768E-03     328.478E-03        -1.22877     376.709E-03        -1.22371     328.478E-03     45.0628E-03     110.098E-03    -54.9931E-03    -55.1276E-03    -54.9333E-03     110.039E-03    -55.1276E-03     6.17662E-03    -59.9633E+06    -81.1255E+06    -271.770E+06    -81.1323E+06    -271.764E+06    -59.9633E+06     769.720E+03         28.6848
            1331     3.78684E-03     71.2960E-03     371.987E-03     334.212E-03        -1.22666     362.903E-03        -1.22274     339.377E-03     26.3359E-03     110.148E-03    -54.9916E-03    -55.1670E-03    -54.8926E-03     110.049E-03    -55.1670E-03     8.04799E-03    -41.9742E+06    -73.7711E+06    -260.429E+06    -73.7755E+06    -260.425E+06    -41.9742E+06     650.450E+03         28.8781
            1332     4.73332E-03     71.3057E-03     354.264E-03     336.750E-03        -1.21002     346.742E-03        -1.20833     342.585E-03    -51.7629E-03     110.130E-03    -54.9398E-03    -55.2073E-03    -54.7990E-03     109.989E-03    -55.2073E-03     9.60357E-03    -27.3309E+06    -66.6931E+06    -248.549E+06    -66.6950E+06    -248.547E+06    -27.3309E+06     345.669E+03         29.1378
            1333     5.68057E-03     71.3168E-03     359.945E-03     337.857E-03        -1.21495     352.872E-03        -1.21360     343.586E-03    -65.4337E-03     110.080E-03    -54.9321E-03    -55.1977E-03    -54.7344E-03     109.882E-03    -55.1977E-03     11.3767E-03    -15.4446E+06    -59.4637E+06    -227.651E+06    -59.4658E+06    -227.649E+06    -15.4446E+06     502.611E+03         29.4763
            1334     6.62730E-03     71.3304E-03     364.557E-03     339.375E-03        -1.22305     358.456E-03        -1.22273     345.154E-03    -10.3280E-03     110.163E-03    -55.0400E-03    -55.1612E-03    -54.7797E-03     109.903E-03    -55.1612E-03     13.0836E-03    -7.29990E+06    -52.5163E+06    -199.580E+06    -52.5202E+06    -199.576E+06    -7.29990E+06     720.596E+03         29.9019
            1335     7.57384E-03     71.3449E-03     351.760E-03     334.766E-03        -1.20591     340.755E-03        -1.20582     345.686E-03    -8.85998E-03     110.069E-03    -54.9560E-03    -55.1169E-03    -54.6238E-03     109.737E-03    -55.1169E-03     14.7613E-03    -2.40173E+06    -46.5842E+06    -171.923E+06    -46.5902E+06    -171.917E+06    -2.40173E+06     776.229E+03         30.4205
            1336     8.52102E-03     71.3622E-03     351.491E-03     330.772E-03        -1.20323     337.315E-03        -1.20312     344.845E-03    -4.29041E-03     109.905E-03    -54.8454E-03    -55.0858E-03    -54.4110E-03     109.471E-03    -55.0858E-03     16.8565E-03     1.82581E+06    -41.5358E+06    -144.165E+06    -41.5409E+06    -144.160E+06     1.82581E+06     650.888E+03         31.0468
            1337     9.46830E-03     71.3817E-03     362.968E-03     341.070E-03        -1.22526     358.570E-03        -1.22473     344.942E-03    -30.1912E-03     109.945E-03    -54.9281E-03    -55.0766E-03    -54.4083E-03     109.390E-03    -55.0411E-03     19.0769E-03     5.02700E+06    -36.8982E+06    -113.333E+06    -36.9041E+06    -113.327E+06     5.02700E+06     628.785E+03         31.8040
            1338     10.4149E-03     71.4039E-03     362.768E-03     343.968E-03        -1.22434     360.165E-03        -1.22383     346.061E-03    -37.7786E-03     109.768E-03    -54.8526E-03    -54.9852E-03    -54.1661E-03     109.046E-03    -54.9497E-03     21.6959E-03     4.92961E+06    -33.3322E+06    -77.2749E+06    -33.3382E+06    -77.2690E+06     4.92961E+06     418.766E+03         32.7169
            1339     11.3624E-03     71.4292E-03     355.165E-03     344.641E-03        -1.21576     352.769E-03        -1.21546     346.734E-03    -31.1591E-03     109.841E-03    -54.7443E-03    -55.1516E-03    -53.9115E-03     108.698E-03    -54.8415E-03     27.0945E-03     4.54803E+06    -15.8765E+06    -42.9789E+06    -30.0283E+06    -28.8272E+06     4.54803E+06     498.701E+03         33.7793
            1340     12.3104E-03     71.4623E-03     353.806E-03     346.969E-03        -1.21682     352.953E-03        -1.21597     346.969E-03     11.0775E-03     110.050E-03    -54.6976E-03    -55.3623E-03    -53.6546E-03     108.342E-03    -54.6976E-03     33.3349E-03     44.6490E+06     4.90060E+06    -27.3258E+06    -27.3118E+06     42.3758E+06     7.15964E+06     501.819E+03         34.8823
            1341     13.2576E-03     71.5005E-03     350.565E-03     342.013E-03        -1.20961     345.002E-03        -1.20887     346.831E-03     17.4834E-03     110.557E-03    -54.5932E-03    -55.9841E-03    -53.2542E-03     107.827E-03    -54.5932E-03     41.8534E-03     123.051E+06     18.4888E+06    -25.0112E+06    -25.0103E+06     123.050E+06     18.4888E+06     305.303E+03         36.0217
            1342     14.2058E-03     71.5532E-03     349.050E-03     339.433E-03        -1.20672     341.978E-03        -1.20652     346.299E-03    -24.5898E-03     110.398E-03    -54.6264E-03    -55.8010E-03    -53.1386E-03     107.736E-03    -54.6264E-03     41.2032E-03     165.141E+06     55.5469E+06    -20.6532E+06    -20.6458E+06     165.133E+06     55.5469E+06     880.225E+03         37.5102
            1343     15.1536E-03     71.5899E-03     358.184E-03     344.097E-03        -1.22181     356.009E-03        -1.22169     346.146E-03    -18.5413E-03     111.993E-03    -54.7817E-03    -57.2533E-03    -53.2124E-03     107.952E-03    -54.7817E-03     49.6112E-03     172.487E+06     101.936E+06    -14.1933E+06    -14.1848E+06     172.479E+06     101.936E+06     1.01913E+06         39.6487
            1344     16.1014E-03     71.6609E-03     367.333E-03     344.003E-03        -1.23233     364.081E-03        -1.23177     346.697E-03     16.2889E-03     111.051E-03    -53.9784E-03    -57.2340E-03    -53.1750E-03     107.914E-03    -54.9006E-03     33.8628E-03     177.540E+06     124.797E+06    -6.70069E+06    -6.69870E+06     177.538E+06     124.797E+06     388.503E+03         42.0765
            1345     946.639E-06     72.3938E-03     647.351E-03     101.169E-03        -1.25117     39.2579E-03        -1.16135     619.448E-03     280.928E-03     109.926E-03    -54.7051E-03    -55.2203E-03    -55.1635E-03     109.916E-03    -54.7518E-03     2.39476E-03    -88.6374E+06    -91.7172E+06    -285.804E+06    -91.7212E+06    -285.800E+06    -88.6374E+06     361.985E+03         28.4694
            1346     1.89354E-03     72.3981E-03     383.500E-03     319.860E-03        -1.20798     361.708E-03        -1.20250     336.167E-03    -54.0797E-03     110.094E-03    -54.9903E-03    -55.1109E-03    -55.0327E-03     110.067E-03    -55.0410E-03     4.18621E-03    -77.8271E+06    -87.6453E+06    -281.132E+06    -87.6486E+06    -281.129E+06    -77.8271E+06     322.342E+03         28.5513
            1347     2.83993E-03     72.4029E-03     369.493E-03     305.875E-03        -1.18329     329.704E-03        -1.17854     340.915E-03     137.125E-03     110.157E-03    -55.0296E-03    -55.1441E-03    -54.9951E-03     110.097E-03    -55.1192E-03     6.16106E-03    -61.5125E+06    -81.3534E+06    -272.003E+06    -81.3567E+06    -272.000E+06    -61.5125E+06     369.825E+03         28.6876
            1348     3.78670E-03     72.4115E-03     344.743E-03     301.834E-03        -1.16025     307.215E-03        -1.15648     335.595E-03     113.554E-03     110.085E-03    -54.9333E-03    -55.1620E-03    -54.8335E-03     109.986E-03    -55.1620E-03     8.07373E-03    -44.0290E+06    -74.1822E+06    -261.108E+06    -74.1909E+06    -261.099E+06    -44.0290E+06     1.12951E+06         28.8813
            1349     4.73364E-03     72.4207E-03     338.459E-03     316.182E-03        -1.16547     322.860E-03        -1.16490     331.210E-03    -1.16229E-03     110.163E-03    -54.9697E-03    -55.2097E-03    -54.8327E-03     110.022E-03    -55.2055E-03     9.62348E-03    -27.4983E+06    -66.7808E+06    -248.623E+06    -66.7892E+06    -248.615E+06    -27.4983E+06     1.16032E+06         29.1406
            1350     5.68028E-03     72.4318E-03     354.837E-03     332.177E-03        -1.19748     354.364E-03        -1.19701     332.177E-03    -30.9909E-03     110.172E-03    -55.0038E-03    -55.2089E-03    -54.8113E-03     109.975E-03    -55.2047E-03     11.3532E-03    -15.2675E+06    -59.6415E+06    -227.668E+06    -59.6447E+06    -227.665E+06    -15.2675E+06     669.001E+03         29.4776
            1351     6.62723E-03     72.4457E-03     363.152E-03     335.861E-03        -1.20788     362.757E-03        -1.20748     335.861E-03    -502.392E-06     110.079E-03    -54.9441E-03    -55.1678E-03    -54.6863E-03     109.821E-03    -55.1678E-03     13.0150E-03    -7.69628E+06    -52.7538E+06    -200.223E+06    -52.7556E+06    -200.221E+06    -7.69628E+06     495.845E+03         29.9012
            1352     7.57420E-03     72.4605E-03     356.087E-03     330.681E-03        -1.19428     348.377E-03        -1.19419     338.301E-03     13.9003E-03     110.044E-03    -54.9318E-03    -55.1180E-03    -54.6012E-03     109.713E-03    -55.1180E-03     14.7193E-03    -2.33755E+06    -46.4750E+06    -172.191E+06     -46.481E+06    -172.185E+06    -2.33755E+06     802.770E+03         30.4193
            1353     8.52100E-03     72.4773E-03     344.255E-03     323.733E-03        -1.17711     329.605E-03        -1.17708     338.348E-03     10.4277E-03     110.025E-03    -54.9652E-03    -55.0892E-03    -54.5190E-03     109.579E-03    -55.0892E-03     17.0808E-03     2.01769E+06    -41.3496E+06    -143.965E+06    -41.3583E+06    -143.957E+06     2.01769E+06     893.779E+03         31.0459
            1354     9.46777E-03     72.4971E-03     344.504E-03     328.587E-03        -1.18389     335.315E-03        -1.18378     337.665E-03    -2.39828E-03     109.900E-03    -54.8926E-03    -55.0736E-03    -54.3354E-03     109.315E-03    -55.0457E-03     19.5682E-03     4.53778E+06    -37.1717E+06    -114.123E+06    -37.1807E+06    -114.114E+06     4.53778E+06     784.273E+03         31.8031
            1355     10.4152E-03     72.5196E-03     353.579E-03     335.953E-03        -1.19766     351.048E-03        -1.19721     338.035E-03     9.03586E-03     109.829E-03    -54.7566E-03    -55.1494E-03    -54.2142E-03     109.089E-03    -54.9521E-03     21.9928E-03     4.81151E+06    -33.5000E+06    -76.7876E+06    -33.5223E+06    -76.7652E+06     4.81151E+06     786.097E+03         32.7176
            1356     11.3629E-03     72.5432E-03     348.396E-03     334.645E-03        -1.18808     343.731E-03        -1.18744     338.676E-03    -6.39962E-03     109.846E-03    -54.7525E-03    -55.1535E-03    -53.9406E-03     108.729E-03    -54.8485E-03     26.8011E-03     4.81069E+06    -16.4808E+06    -42.1445E+06    -30.4631E+06    -28.1622E+06     4.81069E+06     606.518E+03         33.7804
            1357     12.3100E-03     72.5783E-03     341.117E-03     331.674E-03        -1.17920     333.710E-03        -1.17858     338.464E-03     1.74550E-03     109.758E-03    -54.6943E-03    -55.0729E-03    -53.4103E-03     108.095E-03    -54.6943E-03     32.8260E-03     44.2870E+06     3.73756E+06    -27.7956E+06    -27.7825E+06     41.4335E+06     6.57793E+06     695.719E+03         34.8804
            1358     13.2579E-03     72.6150E-03     352.587E-03     334.500E-03        -1.19436     348.212E-03        -1.19380     338.315E-03     4.57999E-03     110.584E-03    -54.5819E-03    -56.0201E-03    -53.2733E-03     107.837E-03    -54.5819E-03     41.9445E-03     122.747E+06     18.1578E+06    -25.6357E+06    -25.6230E+06     122.735E+06     18.1578E+06     1.15848E+06         36.0185
            1359     14.2058E-03     72.6686E-03     360.154E-03     337.954E-03        -1.20644     358.836E-03        -1.20618     339.011E-03    -20.0628E-03     110.434E-03    -54.6165E-03    -55.8684E-03    -53.2001E-03     107.766E-03    -54.6165E-03     41.1871E-03     165.315E+06     54.9346E+06    -22.6748E+06    -22.6684E+06     165.308E+06     54.9346E+06     759.674E+03         37.5099
            1360     15.1536E-03     72.7050E-03     352.831E-03     339.495E-03        -1.19867     352.390E-03        -1.19851     339.780E-03    -11.5762E-03     111.847E-03    -54.7731E-03    -57.1333E-03    -53.1487E-03     107.863E-03    -54.7731E-03     49.1627E-03     172.584E+06     100.988E+06    -16.5364E+06    -16.5348E+06     172.583E+06     100.988E+06     300.222E+03         39.6513
            1361     16.1014E-03     72.7766E-03     344.811E-03     336.982E-03        -1.19117     340.921E-03        -1.19026     339.960E-03     33.0442E-03     111.007E-03    -53.9778E-03    -57.2006E-03    -53.1708E-03     107.897E-03    -54.8970E-03     33.6519E-03     177.739E+06     124.614E+06    -8.42587E+06    -8.42406E+06     177.737E+06     124.614E+06     397.265E+03         42.0804
            1362     946.564E-06     73.5092E-03     746.261E-03     31.9990E-03        -1.28189     19.7163E-03        -1.26763     744.281E-03     89.0058E-03     110.025E-03    -54.8591E-03    -55.1693E-03    -55.1126E-03     110.015E-03    -54.9058E-03     2.39860E-03    -87.1330E+06    -90.6539E+06    -286.164E+06    -90.2508E+06    -286.163E+06    -87.5369E+06     285.026E+03         28.4713
            1363     1.89336E-03     73.5125E-03     366.942E-03     303.303E-03        -1.17025     296.684E-03        -1.16165     364.962E-03    -130.546E-03     110.051E-03    -54.9646E-03    -55.0960E-03    -54.9628E-03     110.022E-03    -55.0688E-03     4.26350E-03    -76.3072E+06    -86.5146E+06    -281.465E+06    -86.5154E+06    -281.464E+06    -76.3072E+06     338.566E+03         28.5518
            1364     2.84002E-03     73.5190E-03     342.078E-03     283.205E-03        -1.12398     277.492E-03        -1.11386     337.663E-03    -42.4291E-03     110.131E-03    -55.0081E-03    -55.1395E-03    -54.9734E-03     110.071E-03    -55.1147E-03     6.19009E-03    -61.6178E+06    -81.3761E+06    -272.967E+06    -81.3795E+06    -272.964E+06    -61.6178E+06     626.521E+03         28.6882
            1365     3.78665E-03     73.5259E-03     345.868E-03     297.396E-03        -1.14277     314.500E-03        -1.14000     325.992E-03     20.9419E-03     110.118E-03    -54.9722E-03    -55.1567E-03    -54.8735E-03     110.019E-03    -55.1567E-03     8.02416E-03    -44.8386E+06    -74.5805E+06    -261.871E+06    -74.5881E+06    -261.864E+06    -44.8386E+06     975.036E+03         28.8826
            1366     4.73369E-03     73.5360E-03     361.006E-03     316.912E-03        -1.17885     350.016E-03        -1.17773     326.775E-03    -56.5402E-03     110.208E-03    -55.0095E-03    -55.2165E-03    -54.8692E-03     110.063E-03    -55.2123E-03     9.73313E-03    -27.2580E+06    -66.4672E+06    -248.680E+06    -66.4756E+06    -248.671E+06    -27.2580E+06     1.11488E+06         29.1417
            1367     5.68016E-03     73.5473E-03     351.126E-03     323.925E-03        -1.17713     344.523E-03        -1.17688     330.275E-03     14.8382E-03     110.236E-03    -55.0536E-03    -55.2230E-03    -54.8594E-03     110.038E-03    -55.2187E-03     11.4161E-03    -14.4520E+06    -58.9496E+06    -227.165E+06    -58.9583E+06    -227.156E+06    -14.4520E+06     1.08631E+06         29.4777
            1368     6.62697E-03     73.5607E-03     338.932E-03     317.692E-03        -1.15489     325.231E-03        -1.15454     331.044E-03     42.9435E-03     110.022E-03    -54.8742E-03    -55.1795E-03    -54.6167E-03     109.765E-03    -55.1795E-03     12.9992E-03    -7.47545E+06    -52.5215E+06    -200.346E+06    -52.5276E+06    -200.339E+06    -7.47545E+06     775.550E+03         29.8998
            1369     7.57407E-03     73.5757E-03     348.587E-03     324.211E-03        -1.16920     341.448E-03        -1.16906     331.213E-03     22.3918E-03     109.905E-03    -54.8072E-03    -55.1143E-03    -54.4708E-03     109.568E-03    -55.1143E-03     14.8295E-03    -2.83106E+06    -46.6340E+06    -173.156E+06    -46.6414E+06    -173.149E+06    -2.83106E+06     835.583E+03         30.4168
            1370     8.52116E-03     73.5927E-03     349.746E-03     329.413E-03        -1.17962     346.599E-03        -1.17960     332.536E-03     9.93614E-03     109.963E-03    -54.9260E-03    -55.0707E-03    -54.4710E-03     109.508E-03    -55.0707E-03     17.2456E-03     1.52203E+06    -41.6927E+06    -144.176E+06    -41.7063E+06    -144.162E+06     1.52203E+06     1.14426E+06         31.0439
            1371     9.46838E-03     73.6125E-03     339.753E-03     328.069E-03        -1.16895     334.324E-03        -1.16873     333.275E-03    -11.9406E-03     109.848E-03    -54.8781E-03    -55.0271E-03    -54.3054E-03     109.275E-03    -55.0271E-03     19.3643E-03     4.48325E+06    -37.6626E+06    -114.050E+06    -37.6808E+06    -114.032E+06     4.48325E+06     1.14440E+06         31.8022
            1372     10.4160E-03     73.6338E-03     337.170E-03     323.401E-03        -1.15943     326.720E-03        -1.15853     332.955E-03     26.0951E-03     109.997E-03    -54.8396E-03    -55.2298E-03    -54.3671E-03     109.238E-03    -54.9434E-03     22.2271E-03     4.74320E+06    -34.0488E+06    -76.6352E+06    -34.0982E+06    -76.5858E+06     4.74320E+06     1.22831E+06         32.7188
            1373     11.3615E-03     73.6608E-03     335.287E-03     314.181E-03        -1.14613     316.734E-03        -1.14531     331.910E-03     28.8449E-03     109.981E-03    -54.8555E-03    -55.1808E-03    -54.1058E-03     108.906E-03    -54.8555E-03     26.4498E-03     4.97893E+06    -16.4314E+06    -42.3788E+06    -31.2528E+06    -27.5573E+06     4.97893E+06     927.766E+03         33.7849
            1374     12.3099E-03     73.6905E-03     337.250E-03     317.813E-03        -1.15262     323.948E-03        -1.15233     330.829E-03     4.49708E-03     109.732E-03    -54.7053E-03    -55.0318E-03    -53.3743E-03     108.075E-03    -54.7053E-03     32.6286E-03     43.6319E+06     3.38047E+06    -28.5728E+06    -28.5502E+06     40.7465E+06     6.24325E+06     1.11350E+06         34.8853
            1375     13.2584E-03     73.7317E-03     355.548E-03     328.353E-03        -1.18193     352.532E-03        -1.18168     331.112E-03     9.66053E-03     110.627E-03    -54.5874E-03    -56.0528E-03    -53.3315E-03     107.906E-03    -54.5874E-03     41.9405E-03     121.870E+06     16.8153E+06    -25.5402E+06    -25.5203E+06     121.850E+06     16.8153E+06     1.60355E+06         36.0205
            1376     14.2054E-03     73.7832E-03     356.469E-03     332.436E-03        -1.18349     356.310E-03        -1.18333     332.436E-03     881.549E-06     110.404E-03    -54.6278E-03    -55.8415E-03    -53.2422E-03     107.807E-03    -54.6304E-03     40.7649E-03     166.193E+06     54.5801E+06    -21.6945E+06    -21.6858E+06     166.185E+06     54.5801E+06     1.03316E+06         37.5109
            1377     15.1532E-03     73.8211E-03     341.968E-03     332.899E-03        -1.16558     341.337E-03        -1.16523     333.184E-03    -16.2484E-03     111.735E-03    -54.7848E-03    -57.0268E-03    -53.0515E-03     107.763E-03    -54.7873E-03     49.1804E-03     173.127E+06     101.417E+06    -15.9900E+06    -15.9884E+06     173.126E+06     101.417E+06     186.521E+03         39.6539
            1378     16.1016E-03     73.8909E-03     338.145E-03     332.962E-03        -1.16205     336.933E-03        -1.16112     333.247E-03     14.8104E-03     110.915E-03    -53.9582E-03    -57.1071E-03    -53.0913E-03     107.842E-03    -54.9010E-03     33.4978E-03     177.563E+06     124.756E+06    -8.32714E+06    -8.32623E+06     177.562E+06     124.756E+06    -143.517E+03         42.0853
            1379     946.748E-06     74.6242E-03     752.207E-03    -68.9557E-03        -1.17919    -82.5275E-03        -1.15390     740.489E-03    -5.54861E-03     110.064E-03    -54.9084E-03    -55.1569E-03    -55.1465E-03     110.053E-03    -54.9084E-03     2.53455E-03    -88.4255E+06    -92.1227E+06    -286.647E+06    -91.7200E+06    -286.646E+06    -88.8293E+06     203.313E+03         28.4728
            1380     1.89315E-03     74.6279E-03     345.264E-03     273.829E-03        -1.10849     280.664E-03        -1.08925     319.180E-03    -61.2930E-03     110.061E-03    -54.9833E-03    -55.0852E-03    -54.9567E-03     110.032E-03    -55.0826E-03     4.26447E-03    -77.7011E+06    -87.7573E+06    -282.604E+06    -87.7602E+06    -282.602E+06    -77.7011E+06     713.756E+03         28.5527
            1381     2.84016E-03     74.6334E-03     349.229E-03     290.316E-03        -1.12522     311.705E-03        -1.10711     309.734E-03    -31.9110E-03     110.054E-03    -54.9591E-03    -55.1157E-03    -54.8991E-03     109.994E-03    -55.1157E-03     6.22428E-03    -61.8511E+06    -81.8534E+06    -273.558E+06    -81.8580E+06    -273.553E+06    -61.8511E+06     824.115E+03         28.6886
            1382     3.78687E-03     74.6414E-03     363.646E-03     315.066E-03        -1.16627     355.221E-03        -1.15784     315.066E-03     73.4004E-03     110.205E-03    -55.0612E-03    -55.1585E-03    -54.9621E-03     110.106E-03    -55.1585E-03     8.04144E-03    -44.1965E+06    -74.4427E+06    -262.057E+06    -74.4477E+06    -262.052E+06    -44.1965E+06     809.242E+03         28.8826
            1383     4.73320E-03     74.6509E-03     361.363E-03     319.452E-03        -1.16875     356.119E-03        -1.16741     323.364E-03    -66.5301E-03     110.234E-03    -55.0287E-03    -55.2204E-03    -54.8816E-03     110.087E-03    -55.2204E-03     9.81710E-03    -27.5366E+06    -66.9713E+06    -248.864E+06    -66.9765E+06    -248.859E+06    -27.5366E+06     904.236E+03         29.1405
            1384     5.68038E-03     74.6629E-03     343.878E-03     316.844E-03        -1.15155     333.386E-03        -1.15132     327.106E-03     5.94586E-03     110.090E-03    -54.9105E-03    -55.2172E-03    -54.7081E-03     109.887E-03    -55.2172E-03     11.5186E-03    -14.5091E+06    -59.2253E+06    -227.838E+06    -59.2368E+06    -227.826E+06    -14.5091E+06     1.33650E+06         29.4760
            1385     6.62711E-03     74.6761E-03     333.106E-03     313.656E-03        -1.13442     319.515E-03        -1.13418     327.008E-03     20.9232E-03     110.028E-03    -54.8872E-03    -55.1699E-03    -54.6269E-03     109.768E-03    -55.1699E-03     13.0707E-03    -6.98323E+06    -52.4641E+06    -200.341E+06    -52.4823E+06    -200.322E+06    -6.98323E+06     1.49253E+06         29.8993
            1386     7.57423E-03     74.6905E-03     335.742E-03     313.535E-03        -1.13579     323.022E-03        -1.13574     326.204E-03     10.0738E-03     109.955E-03    -54.8575E-03    -55.1077E-03    -54.5201E-03     109.617E-03    -55.1077E-03     14.8586E-03    -2.95414E+06    -47.2317E+06    -173.511E+06    -47.2475E+06    -173.495E+06    -2.95414E+06     1.22370E+06         30.4165
            1387     8.52140E-03     74.7081E-03     338.318E-03     320.610E-03        -1.14971     332.623E-03        -1.14968     326.277E-03     9.50793E-03     109.903E-03    -54.8645E-03    -55.0638E-03    -54.4189E-03     109.457E-03    -55.0638E-03     17.0729E-03     1.31884E+06    -42.2395E+06    -144.592E+06    -42.2580E+06    -144.574E+06     1.31884E+06     1.28404E+06         31.0429
            1388     9.46825E-03     74.7277E-03     333.846E-03     322.528E-03        -1.14623     329.284E-03        -1.14577     326.629E-03    -27.8866E-03     109.968E-03    -54.9457E-03    -55.0761E-03    -54.4400E-03     109.413E-03    -55.0266E-03     19.0851E-03     4.93376E+06    -37.5964E+06    -113.885E+06    -37.6241E+06    -113.857E+06     4.93376E+06     1.42500E+06         31.8009
            1389     10.4148E-03     74.7494E-03     326.836E-03     313.225E-03        -1.12724     313.292E-03        -1.12647     325.998E-03    -10.2364E-03     109.830E-03    -54.7961E-03    -55.1077E-03    -54.1922E-03     109.059E-03    -54.9410E-03     22.3430E-03     4.79484E+06    -33.9338E+06    -77.3416E+06    -34.0195E+06    -77.2558E+06     4.79484E+06     1.59038E+06         32.7168
            1390     11.3633E-03     74.7763E-03     338.795E-03     310.258E-03        -1.13569     323.443E-03        -1.13524     325.155E-03     9.18387E-03     109.820E-03    -54.6973E-03    -55.1799E-03    -53.9559E-03     108.736E-03    -54.8380E-03     26.5773E-03     4.85967E+06    -16.0124E+06    -42.8842E+06    -31.2263E+06    -27.6703E+06     4.85967E+06     1.55793E+06         33.7865
            1391     12.3099E-03     74.8052E-03     348.929E-03     319.355E-03        -1.15683     342.367E-03        -1.15649     325.581E-03     9.29902E-03     110.278E-03    -54.7036E-03    -55.5831E-03    -53.9112E-03     108.606E-03    -54.7036E-03     32.8439E-03     43.9126E+06     3.72899E+06    -28.7824E+06    -28.7421E+06     41.2117E+06     6.38964E+06     1.38997E+06         34.8917
            1392     13.2568E-03     74.8467E-03     341.395E-03     317.738E-03        -1.14890     332.610E-03        -1.14869     326.306E-03     25.8403E-03     110.826E-03    -54.6091E-03    -56.2325E-03    -53.4766E-03     108.070E-03    -54.6091E-03     42.2560E-03     121.540E+06     16.5328E+06    -25.6105E+06    -25.5992E+06     121.528E+06     16.5328E+06     985.377E+03         36.0250
            1393     14.2051E-03     74.8982E-03     331.739E-03     313.903E-03        -1.13352     319.483E-03        -1.13346     326.098E-03     12.2670E-03     110.206E-03    -54.6436E-03    -55.6153E-03    -52.9939E-03     107.587E-03    -54.6462E-03     40.8882E-03     166.403E+06     54.7296E+06    -20.7048E+06    -20.7007E+06     166.399E+06     54.7296E+06     764.109E+03         37.5120
            1394     15.1535E-03     74.9359E-03     331.235E-03     321.975E-03        -1.13771     327.079E-03        -1.13718     325.602E-03    -25.3648E-03     111.783E-03    -54.7903E-03    -57.0681E-03    -53.0492E-03     107.767E-03    -54.7929E-03     49.4774E-03     174.166E+06      102.46E+06    -13.9963E+06    -13.9934E+06     174.163E+06      102.46E+06     567.726E+03         39.6566
            1395     16.1010E-03     75.0069E-03     333.467E-03     325.528E-03        -1.14183     332.495E-03        -1.14086     325.528E-03     1.01686E-03     110.938E-03    -53.9233E-03    -57.1772E-03    -53.0954E-03     107.835E-03    -54.9023E-03     33.6122E-03     177.596E+06     125.247E+06    -6.67617E+06    -6.67520E+06     177.595E+06     125.247E+06    -40.9789E+03         42.0912
            1396     946.550E-06     75.7395E-03     741.582E-03    -26.9041E-03        -1.19940    -121.326E-03        -1.02930     665.903E-03    -106.570E-03     110.003E-03    -54.8526E-03    -55.1489E-03    -55.1277E-03     109.992E-03    -54.8628E-03     2.61432E-03    -89.2511E+06    -92.9609E+06    -287.355E+06    -92.6943E+06    -287.353E+06    -89.5196E+06     227.971E+03         28.4717
            1397     1.89340E-03     75.7428E-03     399.261E-03     290.654E-03        -1.17204     363.573E-03        -1.13635     290.654E-03     106.912E-03     110.094E-03    -55.0129E-03    -55.0824E-03    -55.0008E-03     110.064E-03    -55.0651E-03     4.27708E-03    -78.5860E+06    -88.4815E+06    -283.186E+06    -88.4846E+06    -283.183E+06    -78.5860E+06     589.135E+03         28.5524
            1398     2.83990E-03     75.7486E-03     376.703E-03     315.722E-03        -1.16980     355.954E-03        -1.14905     315.722E-03     6.05541E-03     110.133E-03    -55.0096E-03    -55.1397E-03    -54.9663E-03     110.073E-03    -55.1228E-03     6.24230E-03    -62.9878E+06    -82.6739E+06    -273.606E+06    -82.6773E+06    -273.602E+06    -62.9878E+06     753.486E+03         28.6886
            1399     3.78671E-03     75.7566E-03     359.979E-03     310.651E-03        -1.15140     334.930E-03        -1.13963     323.938E-03     119.644E-03     110.158E-03    -54.9992E-03    -55.1696E-03    -54.8979E-03     110.056E-03    -55.1696E-03     8.12110E-03    -44.9195E+06    -75.6948E+06    -262.799E+06    -75.7004E+06    -262.793E+06    -44.9195E+06     925.554E+03         28.8811
            1400     4.73356E-03     75.7666E-03     331.061E-03     293.882E-03        -1.10423     300.194E-03        -1.10256     323.072E-03    -37.0761E-03     110.183E-03    -54.9759E-03    -55.2161E-03    -54.8289E-03     110.036E-03    -55.2161E-03     9.82142E-03    -27.8768E+06    -67.9132E+06    -249.252E+06    -67.9213E+06    -249.244E+06    -27.8768E+06     1.20553E+06         29.1380
            1401     5.68016E-03     75.7776E-03     321.387E-03     298.566E-03        -1.09857     300.352E-03        -1.09813     319.165E-03     4.92830E-03     110.027E-03    -54.8570E-03    -55.2028E-03    -54.6575E-03     109.827E-03    -55.2028E-03     11.4296E-03    -15.2845E+06    -60.4060E+06    -228.722E+06    -60.4158E+06    -228.712E+06    -15.2845E+06     1.25963E+06         29.4743
            1402     6.62765E-03     75.7912E-03     334.130E-03     313.573E-03        -1.12642     329.307E-03        -1.12630     318.268E-03    -18.3100E-03     110.021E-03    -54.8879E-03    -55.1588E-03    -54.6292E-03     109.762E-03    -55.1588E-03     13.0324E-03    -7.18735E+06    -53.2512E+06    -200.924E+06    -53.2701E+06    -200.905E+06    -7.18735E+06     1.60109E+06         29.8992
            1403     7.57408E-03     75.8061E-03     335.565E-03     313.896E-03        -1.12781     329.797E-03        -1.12771     319.563E-03    -14.5357E-03     110.091E-03    -54.9847E-03    -55.1102E-03    -54.6551E-03     109.762E-03    -55.1102E-03     14.7090E-03    -2.20447E+06    -46.9908E+06    -173.091E+06    -47.0140E+06    -173.068E+06    -2.20447E+06     1.60092E+06         30.4174
            1404     8.52091E-03     75.8230E-03     322.758E-03     309.105E-03        -1.10929     312.086E-03        -1.10917     319.657E-03    -5.07815E-03     109.940E-03    -54.8947E-03    -55.0742E-03    -54.4498E-03     109.496E-03    -55.0742E-03     17.0432E-03     1.58568E+06    -42.0473E+06    -145.227E+06    -42.0747E+06    -145.200E+06     1.58568E+06     1.57237E+06         31.0423
            1405     9.46822E-03     75.8432E-03     319.244E-03     306.142E-03        -1.10024     306.529E-03        -1.09988     318.505E-03     428.254E-06     109.846E-03    -54.8283E-03    -55.0762E-03    -54.2985E-03     109.266E-03    -55.0267E-03     19.4744E-03     4.56828E+06    -37.8861E+06    -114.579E+06    -37.9292E+06    -114.536E+06     4.56828E+06     1.76121E+06         31.7978
            1406     10.4155E-03     75.8650E-03     323.093E-03     308.916E-03        -1.10833     314.001E-03        -1.10792     317.596E-03     7.26205E-03     109.683E-03    -54.7110E-03    -55.0439E-03    -54.0722E-03     108.930E-03    -54.9298E-03     22.1406E-03     4.74924E+06    -34.1068E+06    -77.7269E+06    -34.2052E+06    -77.6285E+06     4.74924E+06     1.81166E+06         32.7134
            1407     11.3628E-03     75.8898E-03     346.977E-03     317.194E-03        -1.14162     345.212E-03        -1.14106     318.394E-03    -22.4952E-03     109.885E-03    -54.6844E-03    -55.2565E-03    -54.0300E-03     108.799E-03    -54.8251E-03     26.5406E-03     4.76008E+06    -15.9435E+06    -43.2466E+06    -30.9173E+06    -28.2728E+06     4.76008E+06     1.85349E+06         33.7854
            1408     12.3103E-03     75.9228E-03     346.599E-03     318.099E-03        -1.14400     343.716E-03        -1.14325     320.226E-03    -8.79849E-03     110.303E-03    -54.6981E-03    -55.6123E-03    -53.9642E-03     108.655E-03    -54.6981E-03     32.7168E-03     44.5202E+06     4.49119E+06    -28.5365E+06    -28.4729E+06     41.9762E+06     6.97156E+06     1.44128E+06         34.8930
            1409     13.2573E-03     75.9610E-03     323.743E-03     306.255E-03        -1.11121     309.109E-03        -1.11077     320.456E-03     12.1007E-03     110.743E-03    -54.6033E-03    -56.1504E-03    -53.3481E-03     107.940E-03    -54.6033E-03     42.4173E-03     122.406E+06     17.3007E+06    -25.6063E+06    -25.6014E+06     122.401E+06     17.3007E+06     493.382E+03         36.0268
            1410     14.2054E-03     76.0136E-03     319.199E-03     303.158E-03        -1.10324     302.944E-03        -1.10302     319.199E-03    -4.47214E-03     110.429E-03    -54.6389E-03    -55.8179E-03    -53.0740E-03     107.685E-03    -54.6389E-03     41.8203E-03     166.312E+06     55.1993E+06    -20.6740E+06    -20.6727E+06     166.311E+06     55.1993E+06     139.881E+03         37.5144
            1411     15.1530E-03     76.0509E-03     320.879E-03     313.816E-03        -1.11162     315.989E-03        -1.11118     318.270E-03    -21.0739E-03     111.907E-03    -54.7904E-03    -57.1708E-03    -53.1461E-03     107.883E-03    -54.7904E-03     49.6005E-03     174.170E+06     102.668E+06    -13.9451E+06    -13.9405E+06     174.165E+06     102.668E+06     654.001E+03         39.6600
            1412     16.1016E-03     76.1224E-03     326.750E-03     317.643E-03        -1.12188     325.058E-03        -1.12068     318.129E-03     16.1124E-03     110.830E-03    -53.8997E-03    -57.1001E-03    -53.0063E-03     107.735E-03    -54.8988E-03     33.5453E-03     177.935E+06     124.915E+06    -6.95054E+06    -6.94706E+06     177.931E+06     124.915E+06     576.484E+03         42.0958
            1413     946.817E-06     76.8543E-03     826.039E-03     128.471E-03        -1.43238    -149.394E-03        -1.06239     733.908E-03    -383.156E-03     109.998E-03    -54.8739E-03    -55.1245E-03    -55.0882E-03     109.987E-03    -54.8999E-03     2.45168E-03    -89.6133E+06    -93.5477E+06    -287.756E+06    -93.2824E+06    -287.752E+06    -89.8818E+06     555.375E+03         28.4703
            1414     1.89337E-03     76.8579E-03     444.142E-03     307.572E-03        -1.22561     368.069E-03        -1.14953     307.572E-03     109.619E-03     110.100E-03    -55.0153E-03    -55.0869E-03    -55.0027E-03     110.070E-03    -55.0699E-03     4.30161E-03    -78.6330E+06    -89.3303E+06    -283.822E+06    -89.3359E+06    -283.816E+06    -78.6330E+06     814.173E+03         28.5507
            1415     2.83998E-03     76.8639E-03     384.450E-03     325.746E-03        -1.17623     344.089E-03        -1.13587     325.746E-03    -88.7115E-03     110.186E-03    -55.0481E-03    -55.1506E-03    -55.0032E-03     110.124E-03    -55.1337E-03     6.31586E-03    -63.2098E+06    -83.5843E+06    -274.271E+06    -83.5904E+06    -274.265E+06    -63.2098E+06     1.05485E+06         28.6867
            1416     3.78657E-03     76.8716E-03     339.767E-03     302.729E-03        -1.10670     299.722E-03        -1.08943     325.502E-03     94.9725E-03     110.141E-03    -54.9706E-03    -55.1791E-03    -54.8684E-03     110.039E-03    -55.1791E-03     8.16455E-03    -45.2362E+06    -76.5703E+06    -263.288E+06    -76.5768E+06    -263.281E+06    -45.2362E+06     1.08988E+06         28.8788
            1417     4.73347E-03     76.8816E-03     320.080E-03     283.670E-03        -1.06782     280.940E-03        -1.06345     318.435E-03    -64.4096E-03     110.128E-03    -54.9204E-03    -55.2165E-03    -54.7759E-03     109.984E-03    -55.2165E-03     9.73853E-03    -28.1971E+06    -68.7601E+06    -250.024E+06    -68.7686E+06    -250.015E+06    -28.1971E+06     1.23576E+06         29.1361
            1418     5.68047E-03     76.8930E-03     314.620E-03     292.294E-03        -1.07286     293.244E-03        -1.07216     312.974E-03     9.85576E-03     110.116E-03    -54.9409E-03    -55.2045E-03    -54.7468E-03     109.922E-03    -55.2045E-03     11.2818E-03    -15.3953E+06    -60.7106E+06     -228.88E+06    -60.7200E+06    -228.871E+06    -15.3953E+06     1.25658E+06         29.4736
            1419     6.62693E-03     76.9060E-03     320.709E-03     296.868E-03        -1.08831     306.263E-03        -1.08794     310.946E-03    -13.8602E-03     110.052E-03    -54.9082E-03    -55.1693E-03    -54.6489E-03     109.793E-03    -55.1693E-03     13.0374E-03    -7.43157E+06    -53.5484E+06    -201.530E+06    -53.5609E+06    -201.517E+06    -7.43157E+06     1.34175E+06         29.8988
            1420     7.57428E-03     76.9215E-03     324.436E-03     305.620E-03        -1.10066     318.748E-03        -1.10036     311.009E-03     9.01273E-03     109.998E-03    -54.8868E-03    -55.1154E-03    -54.5543E-03     109.665E-03    -55.1154E-03     14.7712E-03    -2.55121E+06    -47.5258E+06    -173.682E+06    -47.5492E+06    -173.658E+06    -2.55121E+06     1.67332E+06         30.4168
            1421     8.52111E-03     76.9382E-03     318.926E-03     306.608E-03        -1.09190     313.872E-03        -1.09173     311.492E-03    -2.76670E-03     109.934E-03    -54.8881E-03    -55.0725E-03    -54.4399E-03     109.486E-03    -55.0725E-03     17.0982E-03     1.61995E+06    -42.3422E+06    -145.499E+06    -42.3769E+06    -145.464E+06     1.61995E+06     1.87412E+06         31.0412
            1422     9.46834E-03     76.9579E-03     320.952E-03     303.283E-03        -1.08788     312.588E-03        -1.08778     311.545E-03     12.2233E-03     109.769E-03    -54.8025E-03    -55.0213E-03    -54.2297E-03     109.196E-03    -55.0213E-03     19.3664E-03     4.68660E+06    -37.7114E+06    -114.826E+06    -37.7600E+06    -114.777E+06     4.68660E+06     1.88586E+06         31.7955
            1423     10.4158E-03     76.9800E-03     324.693E-03     308.534E-03        -1.09833     321.069E-03        -1.09808     311.911E-03     12.4398E-03     109.735E-03    -54.8040E-03    -55.0007E-03    -54.1475E-03     109.002E-03    -54.9249E-03     21.8426E-03     4.95644E+06    -33.7594E+06    -78.0205E+06    -33.8410E+06    -77.9390E+06     4.95644E+06     1.77006E+06         32.7108
            1424     11.3626E-03     77.0055E-03     329.050E-03     302.669E-03        -1.09974     318.568E-03        -1.09904     312.458E-03    -38.7866E-03     109.990E-03    -54.8250E-03    -55.2176E-03    -54.0888E-03     108.861E-03    -54.8250E-03     26.9993E-03     4.75484E+06    -16.1463E+06    -43.2572E+06    -30.4588E+06    -28.9447E+06     4.75484E+06     1.66972E+06         33.7824
            1425     12.3095E-03     77.0381E-03     322.148E-03     300.457E-03        -1.09026     309.376E-03        -1.08941     312.374E-03    -8.82910E-03     109.957E-03    -54.6885E-03    -55.2668E-03    -53.6121E-03     108.302E-03    -54.6885E-03     32.8063E-03     45.1775E+06     5.34334E+06    -26.8187E+06    -26.7627E+06     42.5933E+06     7.87153E+06     1.22622E+06         34.8911
            1426     13.2581E-03     77.0756E-03     318.971E-03     306.325E-03        -1.09071     312.797E-03        -1.09017     311.958E-03     4.96259E-03     110.705E-03    -54.5864E-03    -56.1332E-03    -53.3773E-03     107.949E-03    -54.5864E-03     42.0185E-03     123.909E+06     19.2859E+06    -23.7879E+06    -23.7818E+06     123.903E+06     19.2859E+06     741.177E+03         36.0288
            1427     14.2061E-03     77.1289E-03     323.425E-03     308.049E-03        -1.09435     319.246E-03        -1.09402     311.896E-03    -9.87298E-03     110.669E-03    -54.6352E-03    -56.1003E-03    -53.3909E-03     107.960E-03    -54.6352E-03     41.5719E-03     166.294E+06     55.8452E+06    -21.0007E+06    -20.9947E+06     166.288E+06     55.8452E+06     634.301E+03         37.5181
            1428     15.1533E-03     77.1675E-03     320.740E-03     311.268E-03        -1.09465     319.609E-03        -1.09435     312.096E-03    -8.55935E-03     111.740E-03    -54.7920E-03    -57.0263E-03    -53.0951E-03     107.809E-03    -54.7920E-03     48.9207E-03     172.847E+06     101.472E+06    -15.8529E+06    -15.8467E+06     172.841E+06     101.472E+06     474.022E+03         39.6623
            1429     16.1012E-03     77.2360E-03     323.648E-03     311.919E-03        -1.10003     322.024E-03        -1.09889     312.405E-03     28.3905E-03     110.724E-03    -53.9482E-03    -56.9533E-03    -52.9642E-03     107.686E-03    -54.8988E-03     33.5410E-03     178.112E+06     124.363E+06    -7.98473E+06    -7.97820E+06     178.106E+06     124.363E+06     589.097E+03         42.0982
            1430     946.427E-06     77.9689E-03     926.898E-03     224.851E-03        -1.62215    -221.158E-03        -1.12142     872.182E-03    -555.479E-03     110.070E-03    -54.9039E-03    -55.1685E-03    -55.1419E-03     110.059E-03    -54.9197E-03     2.46534E-03    -90.7164E+06    -94.7271E+06    -289.263E+06    -94.4135E+06    -289.255E+06    -91.0376E+06     1.12685E+06         28.4687
            1431     1.89321E-03     77.9734E-03     423.433E-03     317.577E-03        -1.19843     285.168E-03        -1.06017     317.577E-03     89.6771E-03     110.122E-03    -55.0145E-03    -55.1133E-03    -54.9967E-03     110.093E-03    -55.1015E-03     4.33740E-03    -79.1346E+06    -90.2944E+06    -284.688E+06    -90.3013E+06    -284.681E+06    -79.1346E+06     1.03449E+06         28.5488
            1432     2.84000E-03     77.9787E-03     387.062E-03     308.997E-03        -1.14953     306.824E-03        -1.06930     308.997E-03    -141.702E-03     110.160E-03    -55.0170E-03    -55.1532E-03    -54.9556E-03     110.098E-03    -55.1532E-03     6.27915E-03    -62.1509E+06    -83.6950E+06    -275.067E+06    -83.7048E+06    -275.057E+06    -62.1509E+06     1.17459E+06         28.6845
            1433     3.78675E-03     77.9871E-03     342.623E-03     298.345E-03        -1.09173     302.795E-03        -1.06139     307.831E-03     124.924E-03     110.176E-03    -54.9937E-03    -55.1881E-03    -54.8944E-03     110.077E-03    -55.1881E-03     8.06546E-03    -44.5044E+06    -76.2217E+06    -263.661E+06    -76.2323E+06    -263.651E+06    -44.5044E+06     1.34226E+06         28.8774
            1434     4.73337E-03     77.9964E-03     323.320E-03     297.553E-03        -1.07103     306.867E-03        -1.06406     307.039E-03    -109.173E-03     110.161E-03    -54.9469E-03    -55.2229E-03    -54.8014E-03     110.016E-03    -55.2229E-03     9.74650E-03    -28.5663E+06    -68.3950E+06    -250.369E+06    -68.4032E+06    -250.361E+06    -28.5663E+06     1.21415E+06         29.1356
            1435     5.68018E-03     78.0084E-03     317.466E-03     303.404E-03        -1.07772     313.043E-03        -1.07730     307.398E-03     2.00321E-03     110.138E-03    -54.9547E-03    -55.2128E-03    -54.7558E-03     109.940E-03    -55.2128E-03     11.4282E-03    -15.9528E+06    -60.9352E+06    -229.435E+06    -60.9474E+06    -229.423E+06    -15.9528E+06     1.40844E+06         29.4728
            1436     6.62717E-03     78.0214E-03     308.480E-03     291.832E-03        -1.05979     293.105E-03        -1.05940     306.824E-03    -17.9727E-03     110.052E-03    -54.9015E-03    -55.1781E-03    -54.6405E-03     109.791E-03    -55.1781E-03     13.0780E-03     -7.7537E+06    -53.9946E+06    -201.908E+06    -54.0099E+06    -201.892E+06     -7.7537E+06     1.48809E+06         29.8974
            1437     7.57400E-03     78.0365E-03     306.267E-03     290.848E-03        -1.05763     291.822E-03        -1.05731     304.965E-03     24.9617E-03     109.919E-03    -54.8092E-03    -55.1171E-03    -54.4747E-03     109.584E-03    -55.1171E-03     14.8091E-03    -2.77513E+06    -47.7286E+06    -174.164E+06    -47.7481E+06    -174.144E+06    -2.77513E+06     1.55707E+06         30.4150
            1438     8.52137E-03     78.0534E-03     313.767E-03     301.286E-03        -1.07222     310.430E-03        -1.07200     304.404E-03     27.1164E-03     109.894E-03    -54.8517E-03    -55.0666E-03    -54.4101E-03     109.452E-03    -55.0666E-03     16.9810E-03     1.44040E+06    -42.3418E+06    -145.569E+06    -42.3675E+06    -145.544E+06     1.44040E+06     1.59053E+06         31.0397
            1439     9.46818E-03     78.0733E-03     321.265E-03     305.429E-03        -1.08114     321.187E-03        -1.08106     305.429E-03     7.67100E-03     109.834E-03    -54.8688E-03    -55.0192E-03    -54.3015E-03     109.267E-03    -55.0192E-03     19.2736E-03     4.58418E+06    -37.4409E+06    -115.140E+06    -37.4782E+06    -115.103E+06     4.58418E+06     1.63929E+06         31.7945
            1440     10.4151E-03     78.0949E-03     315.829E-03     304.029E-03        -1.07535     313.370E-03        -1.07527     306.404E-03    -11.0177E-03     109.718E-03    -54.8474E-03    -54.9457E-03    -54.1153E-03     108.966E-03    -54.9256E-03     22.1144E-03     4.79129E+06    -33.2862E+06    -78.5618E+06    -33.3713E+06    -78.4767E+06     4.79129E+06     1.75832E+06         32.7090
            1441     11.3630E-03     78.1209E-03     307.634E-03     291.026E-03        -1.05666     292.359E-03        -1.05634     305.985E-03    -35.4458E-03     109.799E-03    -54.8157E-03    -55.0450E-03    -53.9105E-03     108.664E-03    -54.8157E-03     27.0782E-03     4.87377E+06    -15.3184E+06    -43.3581E+06    -30.3237E+06    -28.3528E+06     4.87377E+06     1.58491E+06         33.7800
            1442     12.3110E-03     78.1531E-03     307.782E-03     292.244E-03        -1.05877     294.427E-03        -1.05800     304.827E-03     13.1483E-03     109.998E-03    -54.6745E-03    -55.3281E-03    -53.7112E-03     108.381E-03    -54.6745E-03     32.4460E-03     45.1286E+06     5.33584E+06    -27.6453E+06    -27.6127E+06     42.9226E+06     7.50924E+06     844.956E+03         34.8911
            1443     13.2581E-03     78.1904E-03     316.895E-03     304.633E-03        -1.07459     316.189E-03        -1.07389     304.633E-03     39.1121E-03     111.054E-03    -54.5926E-03    -56.4826E-03    -53.7478E-03     108.319E-03    -54.5926E-03     41.8965E-03     123.708E+06     19.0336E+06    -24.8781E+06    -24.8669E+06     123.697E+06     19.0336E+06     1.12348E+06         36.0311
            1444     14.2045E-03     78.2455E-03     324.082E-03     305.433E-03        -1.07904     323.794E-03        -1.07875     305.433E-03     9.09075E-03     110.517E-03    -54.5050E-03    -56.0999E-03    -53.2778E-03     107.843E-03    -54.6532E-03     41.2123E-03     166.507E+06     56.0492E+06    -21.0654E+06    -21.0523E+06     166.494E+06     56.0492E+06     1.44215E+06         37.5196
            1445     15.1529E-03     78.2814E-03     323.349E-03     306.307E-03        -1.08108     322.976E-03        -1.08071     306.307E-03    -18.8151E-03     111.564E-03    -54.6494E-03    -57.0010E-03    -52.8756E-03     107.587E-03    -54.7976E-03     48.9668E-03     172.470E+06     101.592E+06    -15.0931E+06    -15.0850E+06     172.462E+06     101.592E+06     764.691E+03         39.6633
            1446     16.1016E-03     78.3521E-03     316.625E-03     303.480E-03        -1.07140     312.515E-03        -1.07056     306.752E-03     13.0929E-03     110.945E-03    -54.0262E-03    -57.0992E-03    -53.1042E-03     107.820E-03    -54.8969E-03     34.0066E-03     178.317E+06     124.636E+06    -7.86101E+06    -7.85297E+06     178.309E+06     124.636E+06     624.456E+03         42.1011
            1447     946.885E-06     79.0847E-03     987.703E-03     299.498E-03        -1.73619    -242.025E-03        -1.08774     880.774E-03    -599.355E-03     110.090E-03    -54.9188E-03    -55.1736E-03    -55.1543E-03     110.079E-03    -54.9266E-03     2.66521E-03    -91.1840E+06    -94.5854E+06    -291.150E+06    -94.2696E+06    -291.145E+06    -91.5052E+06     717.446E+03         28.4659
            1448     1.89317E-03     79.0879E-03     457.818E-03     308.572E-03        -1.21448     265.093E-03        -1.02175     308.572E-03     160.219E-03     110.188E-03    -55.0652E-03    -55.1288E-03    -55.0479E-03     110.157E-03    -55.1157E-03     4.36586E-03    -79.2682E+06    -89.6666E+06    -285.368E+06    -89.6745E+06    -285.360E+06    -79.2682E+06     954.292E+03         28.5461
            1449     2.83985E-03     79.0942E-03     377.209E-03     293.185E-03        -1.11430     266.332E-03        -1.00342     293.185E-03    -137.998E-03     110.194E-03    -55.0299E-03    -55.1697E-03    -54.9692E-03     110.132E-03    -55.1685E-03     6.32648E-03    -63.3073E+06    -84.0560E+06    -276.112E+06    -84.0690E+06    -276.099E+06    -63.3073E+06     1.35430E+06         28.6829
            1450     3.78647E-03     79.1021E-03     361.804E-03     291.958E-03        -1.09693     318.393E-03        -1.05352     291.958E-03     166.115E-03     110.157E-03    -54.9599E-03    -55.1974E-03    -54.8614E-03     110.059E-03    -55.1974E-03     8.03043E-03    -45.4835E+06    -76.6673E+06    -264.067E+06    -76.6787E+06    -264.056E+06    -45.4835E+06     1.40791E+06         28.8769
            1451     4.73344E-03     79.1117E-03     338.374E-03     298.304E-03        -1.08303     329.230E-03        -1.07389     298.304E-03    -94.0140E-03     110.177E-03    -54.9551E-03    -55.2254E-03    -54.8089E-03     110.031E-03    -55.2254E-03     9.77096E-03    -29.4339E+06    -68.8658E+06    -250.738E+06    -68.8776E+06    -250.726E+06    -29.4339E+06     1.42886E+06         29.1348
            1452     5.68028E-03     79.1233E-03     315.490E-03     296.521E-03        -1.05628     308.538E-03        -1.05471     301.905E-03     38.3088E-03     110.101E-03    -54.9127E-03    -55.2119E-03    -54.7115E-03     109.900E-03    -55.2119E-03     11.4929E-03    -16.5375E+06    -61.1918E+06    -229.818E+06    -61.2060E+06    -229.804E+06    -16.5375E+06     1.49781E+06         29.4710
            1453     6.62707E-03     79.1366E-03     303.207E-03     288.376E-03        -1.03699     289.776E-03        -1.03673     301.551E-03    -12.4997E-03     109.997E-03    -54.8515E-03    -55.1721E-03    -54.5916E-03     109.737E-03    -55.1721E-03     13.0533E-03    -8.01241E+06    -53.9642E+06    -201.895E+06    -53.9778E+06    -201.882E+06    -8.01241E+06     1.38136E+06         29.8954
            1454     7.57426E-03     79.1514E-03     299.829E-03     287.386E-03        -1.03322     287.059E-03        -1.03289     299.829E-03     2.28237E-03     109.944E-03    -54.8443E-03    -55.1120E-03    -54.5061E-03     109.606E-03    -55.1120E-03     14.8824E-03    -3.18686E+06    -47.6909E+06    -174.663E+06    -47.7047E+06    -174.650E+06    -3.18686E+06     1.29495E+06         30.4137
            1455     8.52099E-03     79.1687E-03     303.457E-03     294.266E-03        -1.04308     298.538E-03        -1.04281     298.917E-03     3.36214E-03     109.886E-03    -54.8501E-03    -55.0629E-03    -54.4000E-03     109.436E-03    -55.0629E-03     17.1496E-03     1.10015E+06    -42.1697E+06    -145.846E+06    -42.1874E+06    -145.828E+06     1.10015E+06     1.28937E+06         31.0394
            1456     9.46843E-03     79.1884E-03     305.741E-03     298.074E-03        -1.04972     304.635E-03        -1.04960     299.062E-03    -2.35646E-03     109.760E-03    -54.8040E-03    -55.0104E-03    -54.2376E-03     109.194E-03    -55.0104E-03     19.2515E-03     4.12106E+06    -37.5421E+06    -115.758E+06    -37.5721E+06    -115.728E+06     4.12106E+06     1.47978E+06         31.7954
            1457     10.4160E-03     79.2101E-03     301.705E-03     295.793E-03        -1.04586     298.317E-03        -1.04584     299.155E-03    -8.02357E-03     109.738E-03    -54.8057E-03    -55.0082E-03    -54.1396E-03     108.981E-03    -54.9169E-03     22.1822E-03     4.18895E+06    -33.7775E+06    -79.0430E+06    -33.8772E+06    -78.9433E+06     4.18895E+06     1.77679E+06         32.7099
            1458     11.3629E-03     79.2358E-03     304.706E-03     293.795E-03        -1.04778     299.365E-03        -1.04761     298.964E-03    -22.4933E-03     109.888E-03    -54.8154E-03    -55.1335E-03    -54.0331E-03     108.788E-03    -54.8154E-03     26.7452E-03     5.00376E+06    -15.1711E+06    -43.1048E+06    -30.6259E+06    -27.6499E+06     5.00376E+06     1.77942E+06         33.7808
            1459     12.3100E-03     79.2682E-03     310.901E-03     296.339E-03        -1.05181     307.513E-03        -1.05122     299.133E-03     8.25873E-03     110.176E-03    -54.6854E-03    -55.4970E-03    -53.8831E-03     108.562E-03    -54.6854E-03     32.3773E-03     45.7522E+06     5.19140E+06    -28.8354E+06    -28.7721E+06     43.5426E+06     7.33771E+06     1.59581E+06         34.8907
            1460     13.2570E-03     79.3070E-03     308.565E-03     297.513E-03        -1.04768     306.042E-03        -1.04715     299.504E-03     44.2627E-03     110.925E-03    -54.6003E-03    -56.3378E-03    -53.5484E-03     108.136E-03    -54.6003E-03     42.2978E-03     123.054E+06     17.6467E+06    -26.6857E+06    -26.6559E+06     123.024E+06     17.6467E+06     1.43670E+06         36.0294
            1461     14.2053E-03     79.3604E-03     306.801E-03     297.510E-03        -1.04357     304.470E-03        -1.04341     299.682E-03     3.11354E-03     110.258E-03    -54.4960E-03    -55.8255E-03    -52.9570E-03     107.538E-03    -54.6443E-03     41.5298E-03     166.286E+06     55.2581E+06    -21.9164E+06    -21.9076E+06     166.277E+06     55.2581E+06     1.04248E+06         37.5202
            1462     15.1539E-03     79.3955E-03     309.856E-03     299.674E-03        -1.04540     309.395E-03        -1.04512     299.855E-03    -35.3291E-03     111.825E-03    -54.6379E-03    -57.2538E-03    -53.0717E-03     107.792E-03    -54.7862E-03     49.4863E-03     172.753E+06     101.709E+06    -15.2212E+06    -15.2144E+06     172.746E+06     101.709E+06     956.359E+03         39.6669
            1463     16.1014E-03     79.4680E-03     305.628E-03     296.633E-03        -1.04189     301.328E-03        -1.04087     299.906E-03     20.4510E-03     111.109E-03    -53.9389E-03    -57.3314E-03    -53.2322E-03     107.963E-03    -54.8925E-03     33.8211E-03     178.493E+06     124.788E+06    -7.52556E+06    -7.52042E+06     178.488E+06     124.788E+06     645.398E+03         42.1053
            1464     946.358E-06     80.1995E-03         1.00474     442.163E-03        -1.87789    -261.230E-03    -990.041E-03     820.289E-03    -767.487E-03     110.182E-03    -54.9423E-03    -55.2408E-03    -55.1506E-03     110.171E-03    -55.0224E-03     2.40245E-03    -90.8539E+06    -93.6014E+06    -291.822E+06    -93.4491E+06    -291.821E+06    -91.0071E+06     33.6905E+03         28.4641
            1465     1.89334E-03     80.2033E-03     539.532E-03     283.831E-03        -1.26066     301.365E-03        -1.02249     283.831E-03     239.486E-03     110.153E-03    -55.0222E-03    -55.1373E-03    -54.9926E-03     110.122E-03    -55.1360E-03     4.37756E-03    -80.2479E+06    -89.8963E+06    -286.878E+06    -89.9047E+06    -286.869E+06    -80.2479E+06     1.07574E+06         28.5433
            1466     2.83978E-03     80.2092E-03     393.484E-03     286.208E-03        -1.11338     274.604E-03    -994.496E-03     286.208E-03    -177.769E-03     110.181E-03    -55.0284E-03    -55.1633E-03    -54.9668E-03     110.119E-03    -55.1620E-03     6.38305E-03    -64.7437E+06    -84.0527E+06    -276.754E+06    -84.0634E+06    -276.743E+06    -64.7437E+06     1.38192E+06         28.6805
            1467     3.78666E-03     80.2172E-03     355.903E-03     286.950E-03        -1.07759     308.550E-03        -1.03024     286.950E-03     128.107E-03     110.162E-03    -54.9736E-03    -55.1909E-03    -54.8713E-03     110.060E-03    -55.1909E-03     8.16643E-03    -46.9249E+06    -77.0210E+06    -264.692E+06    -77.0307E+06    -264.682E+06    -46.9249E+06     1.30322E+06         28.8747
            1468     4.73334E-03     80.2267E-03     332.786E-03     292.195E-03        -1.06057     318.130E-03        -1.04591     292.195E-03    -96.8754E-03     110.191E-03    -54.9664E-03    -55.2301E-03    -54.8189E-03     110.044E-03    -55.2301E-03     9.83573E-03    -29.5879E+06    -69.2750E+06    -251.042E+06    -69.2878E+06    -251.029E+06    -29.5879E+06     1.44139E+06         29.1321
            1469     5.68013E-03     80.2386E-03     303.997E-03     289.326E-03        -1.02887     294.928E-03        -1.02519     294.710E-03     40.4010E-03     110.053E-03    -54.8705E-03    -55.2104E-03    -54.6702E-03     109.853E-03    -55.2104E-03     11.4540E-03    -17.0944E+06    -61.3943E+06    -229.948E+06    -61.4039E+06    -229.939E+06    -17.0944E+06     1.19707E+06         29.4683
            1470     6.62726E-03     80.2517E-03     296.373E-03     286.580E-03        -1.01489     287.540E-03        -1.01362     294.146E-03    -22.6409E-03     109.950E-03    -54.8154E-03    -55.1586E-03    -54.5527E-03     109.687E-03    -55.1586E-03     13.1219E-03    -8.85330E+06    -54.1533E+06    -202.120E+06    -54.1614E+06    -202.112E+06    -8.85330E+06     1.05817E+06         29.8938
            1471     7.57414E-03     80.2668E-03     293.716E-03     285.466E-03        -1.00960     285.737E-03        -1.00926     293.106E-03    -1.12791E-03     109.936E-03    -54.8415E-03    -55.0981E-03    -54.5027E-03     109.597E-03    -55.0981E-03     14.8972E-03    -3.66805E+06    -47.9721E+06    -174.781E+06    -47.9804E+06    -174.773E+06    -3.66805E+06     988.623E+03         30.4138
            1472     8.52155E-03     80.2838E-03     292.403E-03     285.407E-03        -1.00983     285.447E-03        -1.00962     292.155E-03    -29.9454E-03     109.885E-03    -54.8578E-03    -55.0543E-03    -54.4082E-03     109.435E-03    -55.0543E-03     17.1405E-03     598.689E+03    -42.4823E+06    -146.262E+06    -42.4958E+06    -146.249E+06     598.689E+03     1.10071E+06         31.0414
            1473     9.46844E-03     80.3037E-03     293.281E-03     289.333E-03        -1.01872     290.950E-03        -1.01867     291.610E-03    -13.5500E-03     109.846E-03    -54.8444E-03    -55.0618E-03    -54.3422E-03     109.291E-03    -55.0099E-03     19.0669E-03     3.79239E+06    -37.7877E+06    -116.014E+06    -37.8090E+06    -115.993E+06     3.79239E+06     1.24676E+06         31.7987
            1474     10.4155E-03     80.3247E-03     296.493E-03     290.612E-03        -1.02532     295.477E-03        -1.02529     291.600E-03    -7.96641E-03     109.789E-03    -54.8073E-03    -55.0567E-03    -54.2015E-03     109.049E-03    -54.9223E-03     21.9227E-03     4.15191E+06    -33.4373E+06     -79.366E+06    -33.5094E+06    -79.2939E+06     4.15191E+06     1.46170E+06         32.7128
            1475     11.3627E-03     80.3520E-03     300.726E-03     291.278E-03        -1.03094     299.687E-03        -1.03055     291.924E-03    -34.2170E-03     109.927E-03    -54.7815E-03    -55.2010E-03    -54.0441E-03     108.809E-03    -54.8207E-03     26.9301E-03     4.34383E+06    -15.6886E+06    -43.6145E+06    -30.2342E+06    -29.0689E+06     4.34383E+06     1.97966E+06         33.7815
            1476     12.3099E-03     80.3828E-03     301.319E-03     287.757E-03        -1.02561     296.482E-03        -1.02519     292.176E-03    -23.8183E-03     110.137E-03    -54.6874E-03    -55.4552E-03    -53.7738E-03     108.456E-03    -54.6874E-03     33.0291E-03     45.7661E+06     4.96579E+06    -27.5926E+06    -27.4627E+06     43.2196E+06     7.38239E+06     2.52888E+06         34.8895
            1477     13.2579E-03     80.4231E-03     306.561E-03     286.528E-03        -1.02484     300.316E-03        -1.02436     292.292E-03    -14.2504E-03     110.634E-03    -54.5926E-03    -56.0566E-03    -53.2973E-03     107.874E-03    -54.5926E-03     42.1397E-03     124.200E+06     19.0851E+06    -24.9020E+06    -24.8613E+06     124.159E+06     19.0851E+06     1.95371E+06         36.0286
            1478     14.2063E-03     80.4734E-03     308.816E-03     290.495E-03        -1.03190     306.157E-03        -1.03142     292.667E-03    -28.2498E-03     110.364E-03    -54.6331E-03    -55.7890E-03    -53.1445E-03     107.720E-03    -54.6331E-03     41.0309E-03     166.532E+06     55.9762E+06    -21.6663E+06    -21.6578E+06     166.524E+06     55.9762E+06     1.10589E+06         37.5226
            1479     15.1534E-03     80.5127E-03     300.269E-03     291.979E-03        -1.02522     299.035E-03        -1.02498     292.972E-03    -28.7389E-03     111.907E-03    -54.7823E-03    -57.1879E-03    -53.2328E-03     107.952E-03    -54.7823E-03     49.0753E-03     173.069E+06     101.211E+06    -15.7421E+06    -15.7362E+06     173.063E+06     101.211E+06     974.766E+03         39.6714
            1480     16.1011E-03     80.5826E-03     300.706E-03     292.245E-03        -1.02884     298.825E-03        -1.02778     293.057E-03     24.7047E-03     110.839E-03    -53.8502E-03    -57.1364E-03    -53.0251E-03     107.770E-03    -54.8927E-03     33.4849E-03     179.078E+06     124.203E+06    -7.95465E+06    -7.95068E+06     179.074E+06     124.203E+06     360.515E+03         42.1092
            1481     946.463E-06     81.3147E-03         1.05648     523.998E-03        -2.00834    -325.339E-03    -943.278E-03     840.747E-03    -901.459E-03     110.213E-03    -54.8892E-03    -55.3258E-03    -55.2423E-03     110.202E-03    -54.9616E-03     2.50858E-03    -91.6958E+06    -95.0773E+06    -292.832E+06    -94.9264E+06    -292.829E+06    -91.8490E+06     379.071E+03         28.4630
            1482     1.89307E-03     81.3184E-03     588.903E-03     266.812E-03        -1.28307     302.341E-03    -996.503E-03     266.812E-03     309.225E-03     110.165E-03    -54.9674E-03    -55.2065E-03    -54.9942E-03     110.134E-03    -55.1489E-03     4.40596E-03    -81.6000E+06    -91.1119E+06    -287.942E+06    -91.1163E+06    -287.937E+06    -81.6000E+06     827.314E+03         28.5417
            1483     2.84000E-03     81.3245E-03     438.152E-03     281.463E-03        -1.14920     316.116E-03        -1.02716     281.463E-03    -183.298E-03     110.105E-03    -54.9624E-03    -55.1600E-03    -54.9014E-03     110.044E-03    -55.1600E-03     6.27491E-03    -65.9191E+06    -84.9792E+06    -277.220E+06    -84.9844E+06    -277.215E+06    -65.9191E+06     923.930E+03         28.6770
            1484     3.78663E-03     81.3321E-03     350.586E-03     277.225E-03        -1.05557     290.468E-03        -1.00584     287.609E-03     145.565E-03     110.139E-03    -54.9695E-03    -55.1783E-03    -54.8672E-03     110.036E-03    -55.1783E-03     8.16234E-03    -47.9359E+06    -77.9255E+06    -265.598E+06    -77.9350E+06    -265.588E+06    -47.9359E+06     1.28642E+06         28.8696
            1485     4.73343E-03     81.3424E-03     301.580E-03     272.763E-03        -1.00076     271.141E-03    -983.977E-03     286.424E-03    -77.0115E-03     110.137E-03    -54.9358E-03    -55.2173E-03    -54.7865E-03     109.988E-03    -55.2173E-03     9.89446E-03    -30.8618E+06    -69.9512E+06    -251.373E+06    -69.9601E+06    -251.364E+06    -30.8618E+06     1.19952E+06         29.1275
            1486     5.68030E-03     81.3534E-03     292.073E-03     281.428E-03    -998.355E-03     283.380E-03    -992.940E-03     284.706E-03     49.8592E-03     110.043E-03    -54.8875E-03    -55.2003E-03    -54.6859E-03     109.842E-03    -55.2003E-03     11.4960E-03    -18.1180E+06    -62.0303E+06    -229.750E+06    -62.0350E+06    -229.746E+06    -18.1180E+06     629.154E+03         29.4661
            1487     6.62727E-03     81.3669E-03     294.406E-03     285.050E-03        -1.00044     293.037E-03    -999.073E-03     285.050E-03    -30.4233E-03     109.978E-03    -54.8588E-03    -55.1483E-03    -54.5965E-03     109.715E-03    -55.1483E-03     13.1162E-03    -9.90774E+06    -54.8176E+06    -202.329E+06    -54.8217E+06    -202.325E+06    -9.90774E+06     530.762E+03         29.8938
            1488     7.57439E-03     81.3818E-03     295.692E-03     281.939E-03    -998.963E-03     291.526E-03    -998.722E-03     285.864E-03     8.05803E-03     109.950E-03    -54.8549E-03    -55.0912E-03    -54.5206E-03     109.616E-03    -55.0912E-03     14.8004E-03    -4.22829E+06    -48.1590E+06    -174.583E+06    -48.1630E+06    -174.579E+06    -4.22829E+06     591.379E+03         30.4150
            1489     8.52106E-03     81.3991E-03     291.590E-03     280.926E-03    -998.250E-03     286.258E-03    -998.132E-03     286.140E-03    -9.12901E-03     109.899E-03    -54.8720E-03    -55.0549E-03    -54.4302E-03     109.457E-03    -55.0549E-03     16.9919E-03     146.884E+03    -42.4202E+06    -146.557E+06    -42.4250E+06    -146.552E+06     146.884E+03     562.629E+03         31.0431
            1490     9.46852E-03     81.4188E-03     287.533E-03     282.932E-03        -1.00007     284.206E-03    -999.807E-03     285.993E-03     20.5180E-03     109.922E-03    -54.9230E-03    -55.0678E-03    -54.4086E-03     109.356E-03    -55.0158E-03     19.2674E-03     3.34761E+06    -37.3016E+06    -116.403E+06    -37.3102E+06    -116.394E+06     3.34761E+06     727.197E+03         31.8006
            1491     10.4150E-03     81.4409E-03     290.126E-03     277.438E-03    -997.723E-03     281.673E-03    -997.475E-03     285.644E-03     19.1207E-03     109.858E-03    -54.8836E-03    -55.0520E-03    -54.2634E-03     109.117E-03    -54.9312E-03     21.9814E-03     3.52349E+06    -33.2743E+06    -79.9022E+06    -33.3146E+06    -79.8619E+06     3.52349E+06     1.11171E+06         32.7147
            1492     11.3629E-03     81.4657E-03     288.120E-03     275.971E-03    -991.773E-03     278.651E-03    -991.392E-03     285.060E-03    -27.9330E-03     109.787E-03    -54.7854E-03    -55.0584E-03    -53.9013E-03     108.669E-03    -54.8246E-03     26.8656E-03     3.62030E+06    -16.5606E+06    -43.7255E+06    -29.9616E+06    -30.3244E+06     3.62030E+06     1.72322E+06         33.7814
            1493     12.3105E-03     81.4995E-03     289.592E-03     278.075E-03    -991.744E-03     281.924E-03    -990.503E-03     284.502E-03     5.48592E-03     109.934E-03    -54.6784E-03    -55.2610E-03    -53.6100E-03     108.283E-03    -54.6784E-03     32.7497E-03     44.8251E+06     3.91424E+06    -26.8606E+06    -26.7462E+06     41.8453E+06     6.77960E+06     2.24611E+06         34.8889
            1494     13.2579E-03     81.5362E-03     300.111E-03     280.777E-03        -1.00180     295.018E-03        -1.00048     284.550E-03     9.77601E-03     110.842E-03    -54.5889E-03    -56.2784E-03    -53.5826E-03     108.146E-03    -54.5889E-03     41.6789E-03     124.914E+06     19.3209E+06    -24.1100E+06    -24.0528E+06     124.856E+06     19.3209E+06     2.79944E+06         36.0299
            1495     14.2050E-03     81.5905E-03     307.364E-03     285.392E-03        -1.01438     306.812E-03        -1.01383     285.392E-03    -12.9381E-03     110.601E-03    -54.6032E-03    -56.0547E-03    -53.3783E-03     107.971E-03    -54.6496E-03     41.0153E-03     167.720E+06     56.1844E+06    -20.7735E+06    -20.7357E+06     167.682E+06     56.1844E+06     2.35921E+06         37.5240
            1496     15.1527E-03     81.6273E-03     298.554E-03     285.357E-03        -1.00782     297.458E-03        -1.00754     286.170E-03    -6.99345E-03     111.672E-03    -54.7529E-03    -56.9691E-03    -52.9413E-03     107.691E-03    -54.7993E-03     49.1332E-03     173.530E+06     101.300E+06    -14.8812E+06    -14.8711E+06     173.520E+06     101.300E+06     920.273E+03         39.6735
            1497     16.1015E-03     81.6983E-03     293.025E-03     282.092E-03        -1.00182     288.384E-03        -1.00140     286.314E-03    -699.389E-06     110.745E-03    -53.9450E-03    -56.9325E-03    -52.8878E-03     107.652E-03    -54.8960E-03     33.7380E-03     179.802E+06     124.709E+06    -7.24475E+06    -7.23970E+06     179.797E+06     124.709E+06     147.766E+03         42.1134
            1498     946.969E-06     82.4303E-03         1.07850     572.718E-03        -2.07063    -304.250E-03    -983.753E-03     868.587E-03    -949.632E-03     110.069E-03    -54.8671E-03    -55.2024E-03    -55.1889E-03     110.057E-03    -54.8691E-03     2.61569E-03    -94.1822E+06    -98.0529E+06    -294.103E+06    -97.8422E+06    -294.101E+06    -94.3945E+06     459.215E+03         28.4603
            1499     1.89306E-03     82.4336E-03     592.372E-03     282.649E-03        -1.29606     283.373E-03    -987.062E-03     282.649E-03     322.500E-03     110.210E-03    -55.0358E-03    -55.1859E-03    -55.0781E-03     110.180E-03    -55.1133E-03     4.37107E-03    -82.9308E+06    -93.0483E+06    -287.968E+06    -93.0499E+06    -287.966E+06    -82.9308E+06     409.681E+03         28.5394
            1500     2.83978E-03     82.4390E-03     427.919E-03     283.948E-03        -1.13209     290.286E-03    -994.460E-03     283.948E-03    -181.500E-03     110.135E-03    -54.9749E-03    -55.1798E-03    -54.9277E-03     110.073E-03    -55.1647E-03     6.33049E-03    -66.7979E+06    -86.7920E+06    -277.960E+06    -86.7939E+06    -277.958E+06    -66.7979E+06     476.850E+03         28.6732
            1501     3.78659E-03     82.4477E-03     339.783E-03     272.885E-03        -1.03187     269.780E-03    -972.252E-03     283.269E-03     148.859E-03     110.069E-03    -54.8977E-03    -55.1817E-03    -54.7963E-03     109.968E-03    -55.1817E-03     8.13658E-03    -48.1908E+06    -78.9604E+06    -266.613E+06    -78.9645E+06    -266.609E+06    -48.1908E+06     801.766E+03         28.8644
            1502     4.73354E-03     82.4571E-03     294.619E-03     265.970E-03    -978.530E-03     261.037E-03    -958.610E-03     279.631E-03    -105.875E-03     110.066E-03    -54.8871E-03    -55.1998E-03    -54.7392E-03     109.918E-03    -55.1998E-03     9.83429E-03    -32.0123E+06    -70.6761E+06    -251.084E+06    -70.6798E+06    -251.080E+06    -32.0123E+06     669.697E+03         29.1237
            1503     5.68044E-03     82.4689E-03     290.127E-03     274.839E-03    -976.511E-03     282.970E-03    -972.631E-03     278.116E-03     66.0095E-03     110.083E-03    -54.9473E-03    -55.1866E-03    -54.7472E-03     109.883E-03    -55.1866E-03     11.4628E-03    -19.3060E+06    -62.6174E+06    -229.021E+06    -62.6195E+06    -229.019E+06    -19.3060E+06         357.004         29.4650
            1504     6.62720E-03     82.4818E-03     297.029E-03     279.672E-03    -985.573E-03     296.146E-03    -984.690E-03     279.672E-03     14.9662E-03     110.042E-03    -54.9290E-03    -55.1480E-03    -54.6697E-03     109.783E-03    -55.1480E-03     13.0421E-03    -10.8559E+06    -55.0791E+06    -202.235E+06    -55.0846E+06    -202.230E+06    -10.8559E+06    -470.079E+03         29.8942
            1505     7.57404E-03     82.4970E-03     294.919E-03     281.546E-03    -987.367E-03     294.077E-03    -986.589E-03     281.611E-03     47.9689E-03     109.969E-03    -54.8729E-03    -55.0937E-03    -54.5373E-03     109.633E-03    -55.0937E-03     14.8295E-03    -5.49233E+06    -48.2266E+06    -174.963E+06    -48.2321E+06    -174.958E+06    -5.49233E+06    -371.121E+03         30.4159
            1506     8.52135E-03     82.5138E-03     287.999E-03     280.904E-03    -984.269E-03     286.058E-03    -983.974E-03     282.549E-03     1.44066E-03     109.901E-03    -54.8654E-03    -55.0586E-03    -54.4212E-03     109.457E-03    -55.0586E-03     17.0402E-03    -712.779E+03    -42.2536E+06    -146.706E+06    -42.2557E+06    -146.704E+06    -712.779E+03    -237.380E+03         31.0433
            1507     9.46808E-03     82.5339E-03     282.394E-03     274.584E-03    -977.629E-03     274.243E-03    -977.171E-03     282.277E-03     15.7964E-03     109.826E-03    -54.8738E-03    -55.0127E-03    -54.2974E-03     109.250E-03    -55.0127E-03     19.4195E-03     2.45220E+06    -37.3306E+06    -117.152E+06    -37.3337E+06    -117.149E+06     2.45220E+06     120.879E+03         31.7997
            1508     10.4159E-03     82.5559E-03     280.993E-03     263.905E-03    -964.957E-03     263.622E-03    -964.674E-03     280.993E-03     28.3424E-03     109.887E-03    -54.8818E-03    -55.0798E-03    -54.2864E-03     109.137E-03    -54.9255E-03     22.1290E-03     2.94179E+06    -33.2416E+06    -80.3142E+06    -33.2689E+06    -80.2870E+06     2.94179E+06     772.894E+03         32.7151
            1509     11.3621E-03     82.5814E-03     283.657E-03     266.731E-03    -968.127E-03     270.528E-03    -967.982E-03     279.715E-03    -13.7811E-03     109.883E-03    -54.8271E-03    -55.1148E-03    -54.0150E-03     108.784E-03    -54.8271E-03     26.6799E-03     3.21253E+06    -17.3023E+06    -43.6039E+06    -29.9105E+06    -30.9957E+06     3.21253E+06     1.28625E+06         33.7835
            1510     12.3101E-03     82.6130E-03     296.803E-03     277.749E-03    -985.110E-03     293.345E-03    -983.660E-03     279.757E-03     39.4853E-03     110.044E-03    -54.6867E-03    -55.3670E-03    -53.7011E-03     108.378E-03    -54.6867E-03     32.8734E-03     43.7709E+06     2.40220E+06    -27.5361E+06    -27.4517E+06     40.3766E+06     5.71219E+06     2.22943E+06         34.8897
            1511     13.2577E-03     82.6533E-03     293.480E-03     273.565E-03    -976.341E-03     285.365E-03    -975.024E-03     280.362E-03     56.2742E-03     110.942E-03    -54.5961E-03    -56.3774E-03    -53.6629E-03     108.228E-03    -54.5961E-03     41.8936E-03     124.087E+06     17.2357E+06    -25.0602E+06    -24.9803E+06     124.007E+06     17.2357E+06     3.34884E+06         36.0289
            1512     14.2050E-03     82.7053E-03     285.896E-03     264.331E-03    -960.486E-03     270.024E-03    -960.356E-03     280.073E-03     5.48696E-03     110.302E-03    -54.4922E-03    -55.8828E-03    -53.0894E-03     107.664E-03    -54.6483E-03     41.0544E-03     168.936E+06     54.6712E+06    -20.4873E+06    -20.4435E+06     168.892E+06     54.6712E+06     2.56487E+06         37.5229
            1513     15.1537E-03     82.7421E-03     291.736E-03     270.644E-03    -970.859E-03     282.606E-03    -970.674E-03     279.589E-03    -4.96019E-03     111.602E-03    -54.6363E-03    -57.0650E-03    -52.8818E-03     107.575E-03    -54.7924E-03     49.4827E-03     174.831E+06     101.497E+06    -13.9286E+06    -13.9187E+06     174.821E+06     101.497E+06     890.464E+03         39.6749
            1514     16.1015E-03     82.8125E-03     285.724E-03     272.789E-03    -969.771E-03     278.695E-03    -969.338E-03     279.385E-03     9.85136E-03     110.964E-03    -53.9662E-03    -57.1635E-03    -53.1212E-03     107.846E-03    -54.8909E-03     33.8689E-03     179.918E+06     124.766E+06    -7.05778E+06    -7.05317E+06     179.913E+06     124.766E+06     442.401E+03         42.1185
            1515     946.376E-06     83.5450E-03         1.05846     634.428E-03        -2.08887    -266.157E-03    -979.087E-03     849.270E-03        -1.03390     110.053E-03    -54.9325E-03    -55.1214E-03    -55.0624E-03     110.041E-03    -54.9798E-03     2.66273E-03    -94.1176E+06    -97.9318E+06    -294.325E+06    -97.7203E+06    -294.324E+06    -94.3300E+06     278.540E+03         28.4566
            1516     1.89353E-03     83.5490E-03     593.429E-03     287.701E-03        -1.28388     272.426E-03    -962.873E-03     287.701E-03     268.893E-03     110.115E-03    -55.0152E-03    -55.1117E-03    -55.0005E-03     110.085E-03    -55.0966E-03     4.32053E-03    -82.2136E+06    -93.2299E+06    -288.288E+06    -93.2305E+06    -288.287E+06    -82.2136E+06     207.828E+03         28.5353
            1517     2.83984E-03     83.5544E-03     406.250E-03     278.085E-03        -1.08573     243.931E-03    -923.414E-03     278.085E-03    -226.434E-03     110.164E-03    -55.0208E-03    -55.1626E-03    -54.9729E-03     110.101E-03    -55.1476E-03     6.36313E-03    -65.9847E+06    -87.1048E+06    -278.442E+06    -87.1056E+06    -278.442E+06    -65.9847E+06     330.825E+03         28.6700
            1518     3.78663E-03     83.5623E-03     321.856E-03     270.814E-03    -996.855E-03     259.057E-03    -934.056E-03     270.814E-03     150.451E-03     110.106E-03    -54.9369E-03    -55.1776E-03    -54.8353E-03     110.005E-03    -55.1776E-03     8.15258E-03    -48.3980E+06    -79.8537E+06    -267.011E+06    -79.8543E+06    -267.010E+06    -48.3980E+06     273.028E+03         28.8625
            1519     4.73348E-03     83.5722E-03     298.614E-03     270.269E-03    -972.867E-03     280.457E-03    -954.710E-03     270.269E-03    -117.097E-03     110.122E-03    -54.9377E-03    -55.2016E-03    -54.7901E-03     109.974E-03    -55.2016E-03     9.82096E-03    -32.8594E+06    -71.4479E+06    -250.381E+06    -71.4506E+06    -250.378E+06    -32.8594E+06    -190.557E+03         29.1224
            1520     5.68028E-03     83.5839E-03     291.493E-03     272.483E-03    -968.192E-03     287.862E-03    -964.561E-03     272.483E-03     26.4108E-03     110.075E-03    -54.9374E-03    -55.1882E-03    -54.7371E-03     109.875E-03    -55.1882E-03     11.4686E-03    -20.8195E+06    -63.0472E+06    -227.960E+06    -63.0582E+06    -227.949E+06    -20.8195E+06    -1.02634E+06         29.4635
            1521     6.62715E-03     83.5976E-03     292.585E-03     274.797E-03    -971.215E-03     290.635E-03    -969.266E-03     274.797E-03    -34.4991E-03     110.005E-03    -54.8922E-03    -55.1467E-03    -54.6315E-03     109.744E-03    -55.1467E-03     13.0722E-03    -12.1726E+06    -55.1569E+06    -201.771E+06    -55.1828E+06    -201.745E+06    -12.1726E+06    -1.75249E+06         29.8928
            1522     7.57421E-03     83.6121E-03     285.200E-03     276.219E-03    -964.372E-03     283.922E-03    -963.159E-03     276.283E-03     3.35082E-03     109.989E-03    -54.8979E-03    -55.0911E-03    -54.5559E-03     109.647E-03    -55.0911E-03     14.9687E-03    -6.77000E+06    -48.2527E+06    -175.233E+06    -48.2818E+06    -175.204E+06    -6.77000E+06    -1.76281E+06         30.4155
            1523     8.52097E-03     83.6297E-03     277.570E-03     271.544E-03    -951.722E-03     271.871E-03    -950.844E-03     276.365E-03    -40.5726E-03     109.903E-03    -54.8729E-03    -55.0553E-03    -54.4291E-03     109.459E-03    -55.0553E-03     17.0440E-03    -2.19636E+06    -42.4279E+06    -147.441E+06    -42.4472E+06    -147.422E+06    -2.19636E+06    -1.26679E+06         31.0441
            1524     9.46849E-03     83.6489E-03     275.425E-03     265.390E-03    -946.270E-03     264.979E-03    -945.860E-03     275.425E-03    -23.7897E-03     109.782E-03    -54.8315E-03    -55.0069E-03    -54.2592E-03     109.209E-03    -55.0069E-03     19.3373E-03     1.39940E+06    -37.3488E+06    -117.760E+06    -37.3577E+06    -117.751E+06     1.39940E+06    -635.321E+03         31.8002
            1525     10.4153E-03     83.6712E-03     281.313E-03     264.765E-03    -953.238E-03     271.418E-03    -953.163E-03     274.585E-03     1.48918E-06     109.733E-03    -54.8059E-03    -54.9990E-03    -54.1278E-03     108.970E-03    -54.9137E-03     22.3021E-03     1.94354E+06    -33.1991E+06    -81.2104E+06    -33.2077E+06    -81.2018E+06     1.94354E+06     228.978E+03         32.7155
            1526     11.3632E-03     83.6972E-03     287.677E-03     270.053E-03    -962.831E-03     282.145E-03    -961.841E-03     274.595E-03    -47.1460E-03     110.009E-03    -54.7741E-03    -55.3000E-03    -54.1521E-03     108.903E-03    -54.8154E-03     26.8179E-03     2.23454E+06    -17.3218E+06    -44.5807E+06    -30.1365E+06    -31.7659E+06     2.23454E+06     1.18170E+06         33.7862
            1527     12.3098E-03     83.7281E-03     289.393E-03     269.957E-03    -964.503E-03     282.885E-03    -963.064E-03     275.024E-03    -10.0436E-03     110.365E-03    -54.6916E-03    -55.6884E-03    -53.9923E-03     108.668E-03    -54.6916E-03     33.1944E-03     41.7534E+06     1.64795E+06    -27.8617E+06    -27.7351E+06     38.6402E+06     4.63462E+06     2.75869E+06         34.8914
            1528     13.2571E-03     83.7693E-03     287.399E-03     263.171E-03    -957.096E-03     274.725E-03    -956.286E-03     275.035E-03     9.98091E-03     110.643E-03    -54.5971E-03    -56.0657E-03    -53.3305E-03     107.908E-03    -54.5971E-03     42.0216E-03     122.981E+06     15.9482E+06    -24.6801E+06    -24.5996E+06     122.901E+06     15.9482E+06     2.91889E+06         36.0269
            1529     14.2054E-03     83.8198E-03     278.911E-03     258.584E-03    -945.741E-03     262.817E-03    -945.389E-03     274.325E-03    -23.7966E-03     110.134E-03    -54.5220E-03    -55.6849E-03    -52.9386E-03     107.498E-03    -54.6317E-03     41.0234E-03     170.382E+06     54.4315E+06    -20.2125E+06    -20.1905E+06     170.360E+06     54.4315E+06     1.85272E+06         37.5212
            1530     15.1536E-03     83.8570E-03     279.097E-03     260.084E-03    -944.988E-03     265.655E-03    -944.869E-03     273.407E-03    -17.7298E-03     111.832E-03    -54.6725E-03    -57.2754E-03    -53.1737E-03     107.840E-03    -54.7823E-03     49.4244E-03     175.618E+06     101.252E+06    -14.8424E+06    -14.8232E+06     175.599E+06     101.252E+06     1.80127E+06         39.6760
            1531     16.1013E-03     83.9291E-03     288.497E-03     265.551E-03    -952.592E-03     279.693E-03    -951.355E-03     273.118E-03     37.5645E-03     110.923E-03    -53.8667E-03    -57.2030E-03    -53.1103E-03     107.856E-03    -54.8921E-03     33.5597E-03     180.479E+06     124.578E+06    -7.76397E+06    -7.75297E+06     180.468E+06     124.578E+06     1.05569E+06         42.1224
            1532     946.685E-06     84.6602E-03         1.05300     616.404E-03        -2.05344    -305.348E-03    -918.644E-03     839.958E-03        -1.03337     110.107E-03    -54.8506E-03    -55.2625E-03    -55.1996E-03     110.095E-03    -54.9017E-03     2.65335E-03    -95.6913E+06    -98.9614E+06    -294.653E+06    -98.5888E+06    -294.651E+06    -96.0658E+06    -64.5683E+03         28.4535
            1533     1.89303E-03     84.6639E-03     585.047E-03     266.685E-03        -1.23951     263.659E-03    -918.126E-03     266.685E-03     293.420E-03     110.064E-03    -54.9722E-03    -55.1037E-03    -54.9427E-03     110.035E-03    -55.1037E-03     4.31876E-03    -83.9156E+06    -94.3785E+06    -288.677E+06    -94.3800E+06    -288.675E+06    -83.9156E+06     350.885E+03         28.5316
            1534     2.84014E-03     84.6697E-03     423.356E-03     266.265E-03        -1.08358     268.556E-03    -928.779E-03     266.265E-03    -177.321E-03     110.111E-03    -54.9919E-03    -55.1360E-03    -54.9318E-03     110.051E-03    -55.1360E-03     6.21935E-03    -66.9662E+06    -88.5789E+06    -278.682E+06    -88.5805E+06    -278.680E+06    -66.9662E+06     417.888E+03         28.6680
            1535     3.78668E-03     84.6775E-03     331.884E-03     266.913E-03    -991.593E-03     268.898E-03    -928.607E-03     266.913E-03     191.946E-03     110.193E-03    -55.0253E-03    -55.1736E-03    -54.9252E-03     110.093E-03    -55.1736E-03     8.08358E-03    -48.7280E+06    -80.6472E+06    -266.169E+06    -80.6518E+06    -266.164E+06    -48.7280E+06    -403.180E+03         28.8624
            1536     4.73331E-03     84.6874E-03     286.782E-03     265.148E-03    -943.736E-03     268.143E-03    -927.231E-03     267.281E-03    -70.4965E-03     110.177E-03    -54.9823E-03    -55.2112E-03    -54.8341E-03     110.029E-03    -55.2112E-03     9.84927E-03    -33.6296E+06    -71.8025E+06    -249.341E+06    -71.8186E+06    -249.325E+06    -33.6296E+06    -1.38560E+06         29.1218
            1537     5.68016E-03     84.6992E-03     276.942E-03     254.234E-03    -925.197E-03     258.861E-03    -919.582E-03     266.701E-03     44.0764E-03     110.010E-03    -54.8697E-03    -55.1905E-03    -54.6669E-03     109.807E-03    -55.1905E-03     11.5299E-03    -22.2285E+06    -62.9505E+06    -226.563E+06    -62.9996E+06    -226.514E+06    -22.2285E+06    -2.57313E+06         29.4614
            1538     6.62727E-03     84.7122E-03     273.125E-03     254.261E-03    -926.367E-03     260.073E-03    -924.619E-03     265.565E-03    -54.1411E-03     109.960E-03    -54.8612E-03    -55.1384E-03    -54.5972E-03     109.696E-03    -55.1384E-03     13.1551E-03    -13.6805E+06    -55.0094E+06    -200.944E+06    -55.0849E+06    -200.868E+06    -13.6805E+06    -3.21609E+06         29.8907
            1539     7.57415E-03     84.7274E-03     279.261E-03     264.787E-03    -939.933E-03     277.538E-03    -939.181E-03     265.759E-03    -13.7544E-03     109.945E-03    -54.8759E-03    -55.0813E-03    -54.5342E-03     109.603E-03    -55.0813E-03     14.9601E-03    -8.32616E+06    -48.3798E+06    -175.361E+06    -48.4591E+06    -175.282E+06    -8.32616E+06    -3.10205E+06         30.4142
            1540     8.52129E-03     84.7445E-03     280.306E-03     263.690E-03    -940.222E-03     276.462E-03    -939.553E-03     266.866E-03    -26.3562E-03     109.930E-03    -54.8879E-03    -55.0736E-03    -54.4658E-03     109.480E-03    -55.0453E-03     17.1622E-03    -3.92204E+06    -42.6419E+06    -148.347E+06    -42.7026E+06    -148.286E+06    -3.92204E+06    -2.45148E+06         31.0445
            1541     9.46803E-03     84.7640E-03     274.543E-03     263.282E-03    -934.904E-03     270.090E-03    -934.566E-03     267.397E-03    -533.733E-06     109.858E-03    -54.8834E-03    -55.0308E-03    -54.3440E-03     109.290E-03    -55.0025E-03     19.2808E-03    -384.518E+03    -37.7517E+06    -118.608E+06    -37.7911E+06    -118.569E+06    -384.518E+03    -1.63862E+06         31.8026
            1542     10.4158E-03     84.7862E-03     278.100E-03     265.895E-03    -938.986E-03     276.041E-03    -938.818E-03     267.785E-03     9.36764E-03     109.700E-03    -54.8065E-03    -54.9696E-03    -54.1178E-03     108.956E-03    -54.9145E-03     21.9947E-03     359.298E+03    -33.2726E+06    -82.7034E+06    -33.2992E+06    -82.6768E+06     359.298E+03    -796.621E+03         32.7173
            1543     11.3630E-03     84.8118E-03     277.400E-03     266.272E-03    -936.441E-03     274.252E-03    -935.282E-03     268.261E-03    -49.7741E-03     110.007E-03    -54.7735E-03    -55.2984E-03    -54.1520E-03     108.902E-03    -54.8149E-03     26.7826E-03     961.883E+03    -18.0730E+06    -45.1464E+06    -29.5617E+06    -33.6578E+06     961.883E+03     732.019E+03         33.7861
            1544     12.3097E-03     84.8453E-03     271.464E-03     262.010E-03    -922.652E-03     263.141E-03    -920.434E-03     268.115E-03    -6.00600E-03     110.157E-03    -54.6851E-03    -55.4791E-03    -53.8052E-03     108.483E-03    -54.6851E-03     32.9621E-03     40.2169E+06     541.387E+03    -26.3551E+06    -26.2512E+06     36.7465E+06     3.90789E+06     2.20668E+06         34.8904
            1545     13.2576E-03     84.8831E-03     272.898E-03     261.999E-03    -924.989E-03     265.844E-03    -923.547E-03     267.611E-03     21.3813E-03     110.536E-03    -54.5817E-03    -55.9685E-03    -53.2368E-03     107.804E-03    -54.5817E-03     41.9264E-03     122.691E+06     15.8524E+06    -23.5251E+06    -23.4498E+06     122.615E+06     15.8524E+06     2.84658E+06         36.0255
            1546     14.2064E-03     84.9347E-03     279.381E-03     267.105E-03    -937.446E-03     278.415E-03    -937.025E-03     267.649E-03    -8.20537E-03     110.467E-03    -54.6217E-03    -55.9148E-03    -53.2650E-03     107.817E-03    -54.6217E-03     41.1671E-03     170.731E+06     54.3499E+06    -21.1433E+06    -21.0883E+06     170.676E+06     54.3499E+06     2.96002E+06         37.5202
            1547     15.1529E-03     84.9741E-03     275.112E-03     259.765E-03    -929.114E-03     266.922E-03    -928.889E-03     267.731E-03    -4.54188E-03     111.841E-03    -54.7876E-03    -57.1644E-03    -53.2090E-03     107.886E-03    -54.7876E-03     49.1599E-03     176.659E+06     101.316E+06    -15.9807E+06    -15.9482E+06     176.627E+06     101.316E+06     2.27752E+06         39.6760
            1548     16.1013E-03     85.0429E-03     281.019E-03     259.663E-03    -933.697E-03     272.092E-03    -932.737E-03     267.628E-03     22.6193E-03     110.705E-03    -53.8513E-03    -57.0047E-03    -52.9118E-03     107.661E-03    -54.8997E-03     33.5650E-03     182.047E+06     124.982E+06    -7.94517E+06    -7.93614E+06     182.038E+06     124.982E+06     919.674E+03         42.1251
            1549     946.488E-06     85.7755E-03         1.03181     548.663E-03        -1.95901    -299.917E-03    -910.713E-03     832.094E-03    -891.915E-03     110.125E-03    -54.8406E-03    -55.2930E-03    -55.2455E-03     110.115E-03    -54.8783E-03     2.37079E-03    -96.1469E+06    -99.6801E+06    -294.871E+06    -99.3076E+06    -294.869E+06    -96.5213E+06    -23.5315E+03         28.4504
            1550     1.89337E-03     85.7791E-03     570.131E-03     263.529E-03        -1.21331     252.149E-03    -895.326E-03     263.529E-03     303.559E-03     110.117E-03    -55.0113E-03    -55.1190E-03    -54.9818E-03     110.088E-03    -55.1190E-03     4.29367E-03    -85.1784E+06    -95.5574E+06    -289.245E+06    -95.5593E+06    -289.243E+06    -85.1784E+06     466.990E+03         28.5292
            1551     2.83972E-03     85.7848E-03     415.222E-03     262.017E-03        -1.05648     269.987E-03    -911.247E-03     262.017E-03    -173.857E-03     110.150E-03    -55.0111E-03    -55.1556E-03    -54.9501E-03     110.089E-03    -55.1556E-03     6.27442E-03    -67.8899E+06    -89.2206E+06    -278.193E+06    -89.2217E+06    -278.192E+06    -67.8899E+06     212.088E+03         28.6663
            1552     3.78660E-03     85.7925E-03     332.137E-03     263.342E-03    -978.592E-03     263.896E-03    -910.352E-03     263.342E-03     121.957E-03     110.195E-03    -55.0119E-03    -55.1892E-03    -54.9110E-03     110.094E-03    -55.1892E-03     8.11757E-03    -49.1162E+06    -81.1485E+06    -264.267E+06    -81.1628E+06    -264.253E+06    -49.1162E+06    -1.16331E+06         28.8615
            1553     4.73322E-03     85.8029E-03     291.388E-03     261.267E-03    -940.720E-03     264.321E-03    -915.787E-03     263.401E-03    -124.511E-03     110.141E-03    -54.9429E-03    -55.2134E-03    -54.7964E-03     109.994E-03    -55.2134E-03     9.79526E-03    -34.6851E+06    -72.0930E+06    -247.003E+06    -72.1668E+06    -246.929E+06    -34.6851E+06    -3.18862E+06         29.1214
            1554     5.68028E-03     85.8141E-03     267.553E-03     244.882E-03    -903.643E-03     245.591E-03    -898.841E-03     262.043E-03     64.0039E-03     109.990E-03    -54.8568E-03    -55.1824E-03    -54.6545E-03     109.788E-03    -55.1824E-03     11.5062E-03    -24.2857E+06    -63.2253E+06    -224.866E+06    -63.3656E+06    -224.726E+06    -24.2857E+06    -4.54233E+06         29.4610
            1555     6.62717E-03     85.8275E-03     259.197E-03     240.020E-03    -888.182E-03     239.218E-03    -887.379E-03     259.197E-03    -29.1053E-03     109.959E-03    -54.8686E-03    -55.1296E-03    -54.6018E-03     109.693E-03    -55.1296E-03     13.2279E-03    -16.0290E+06    -55.4931E+06    -200.465E+06    -55.6658E+06    -200.292E+06    -16.0290E+06    -4.89330E+06         29.8900
            1556     7.57409E-03     85.8426E-03     267.873E-03     253.912E-03    -908.849E-03     263.451E-03    -908.577E-03     258.061E-03     16.2162E-03     109.913E-03    -54.8553E-03    -55.0722E-03    -54.5200E-03     109.577E-03    -55.0722E-03     14.8290E-03    -10.5925E+06    -48.9150E+06    -175.836E+06    -49.0763E+06    -175.674E+06    -10.5925E+06    -4.44067E+06         30.4132
            1557     8.52131E-03     85.8595E-03     278.523E-03     259.384E-03    -921.923E-03     278.450E-03    -921.850E-03     259.384E-03     10.5501E-03     109.898E-03    -54.8656E-03    -55.0635E-03    -54.4414E-03     109.446E-03    -55.0352E-03     17.1759E-03    -5.97758E+06    -43.4040E+06    -149.014E+06    -43.5475E+06    -148.870E+06    -5.97758E+06    -3.75878E+06         31.0439
            1558     9.46836E-03     85.8802E-03     280.859E-03     261.314E-03    -921.408E-03     280.690E-03    -921.239E-03     261.314E-03     6.55885E-03     109.969E-03    -54.9082E-03    -55.1200E-03    -54.4644E-03     109.405E-03    -54.9998E-03     19.2538E-03    -2.18162E+06    -38.0205E+06    -119.111E+06    -38.1524E+06    -118.979E+06    -2.18162E+06    -3.13066E+06         31.8037
            1559     10.4149E-03     85.9006E-03     273.310E-03     261.661E-03    -914.373E-03     272.101E-03    -914.116E-03     262.612E-03     21.1349E-03     109.917E-03    -54.8922E-03    -55.1059E-03    -54.3328E-03     109.179E-03    -54.9278E-03     21.9049E-03    -1.14661E+06    -33.2230E+06    -83.9539E+06    -33.3047E+06    -83.8722E+06    -1.14661E+06    -1.98088E+06         32.7181
            1560     11.3621E-03     85.9280E-03     263.218E-03     258.025E-03    -902.366E-03     258.033E-03    -901.895E-03     262.739E-03    -13.0145E-03     109.856E-03    -54.8263E-03    -55.0866E-03    -53.9541E-03     108.723E-03    -54.8263E-03     27.0650E-03    -1.18660E+06    -20.1154E+06    -46.3642E+06    -29.8245E+06    -36.6551E+06    -1.18660E+06    -280.589E+03         33.7830
            1561     12.3100E-03     85.9596E-03     266.485E-03     258.598E-03    -904.183E-03     260.945E-03    -902.405E-03     262.361E-03     27.1919E-03     109.829E-03    -54.6786E-03    -55.1500E-03    -53.5197E-03     108.199E-03    -54.6786E-03     32.5349E-03     38.2031E+06    -1.98434E+06    -27.1605E+06    -27.1127E+06     34.2704E+06     1.90055E+06     1.35945E+06         34.8866
            1562     13.2585E-03     85.9979E-03     266.377E-03     261.683E-03    -904.346E-03     264.295E-03    -902.809E-03     262.227E-03     43.4775E-03     110.714E-03    -54.5692E-03    -56.1576E-03    -53.4473E-03     108.004E-03    -54.5692E-03     41.6822E-03     121.321E+06     13.5288E+06    -25.0613E+06    -24.9791E+06     121.239E+06     13.5288E+06     3.41765E+06         36.0240
            1563     14.2044E-03     86.0513E-03     269.389E-03     258.085E-03    -901.269E-03     265.048E-03    -901.060E-03     262.217E-03     339.346E-06     110.513E-03    -54.5745E-03    -55.9958E-03    -53.2713E-03     107.829E-03    -54.6149E-03     41.4015E-03     171.055E+06     52.0419E+06    -21.7422E+06    -21.6419E+06     170.954E+06     52.0419E+06     4.36306E+06         37.5195
            1564     15.1533E-03     86.0883E-03     271.822E-03     254.973E-03    -902.418E-03     264.477E-03    -902.249E-03     262.148E-03     4.38805E-03     111.685E-03    -54.7423E-03    -57.0350E-03    -52.9906E-03     107.681E-03    -54.7827E-03     49.3404E-03     178.927E+06     101.120E+06    -15.6070E+06    -15.5643E+06     178.884E+06     101.120E+06     2.43174E+06         39.6767
            1565     16.1014E-03     86.1584E-03     267.804E-03     250.147E-03    -893.098E-03     255.997E-03    -892.955E-03     261.811E-03    -1.66174E-03     110.822E-03    -53.9241E-03    -57.0548E-03    -52.9846E-03     107.720E-03    -54.8922E-03     33.8933E-03     183.439E+06     125.382E+06    -7.97070E+06    -7.96781E+06     183.436E+06     125.382E+06     464.761E+03         42.1294
            1566     946.598E-06     86.8906E-03     970.054E-03     542.395E-03        -1.87484    -246.247E-03    -894.945E-03     778.803E-03    -874.240E-03     110.157E-03    -54.9376E-03    -55.2200E-03    -55.1780E-03     110.147E-03    -54.9696E-03     2.45781E-03    -96.2368E+06    -100.236E+06    -295.452E+06    -100.181E+06    -295.448E+06    -96.2958E+06     397.352E+03         28.4476
            1567     1.89303E-03     86.8940E-03     542.196E-03     263.147E-03        -1.17127     250.468E-03    -879.544E-03     263.147E-03     256.447E-03     110.197E-03    -55.0385E-03    -55.1671E-03    -55.0295E-03     110.168E-03    -55.1475E-03     4.23041E-03    -83.7441E+06    -95.2330E+06    -289.889E+06    -95.2358E+06    -289.886E+06    -83.7441E+06     329.128E+03         28.5271
            1568     2.83997E-03     86.9000E-03     386.169E-03     256.953E-03        -1.01063     239.097E-03    -863.561E-03     256.953E-03    -177.189E-03     110.181E-03    -55.0161E-03    -55.1811E-03    -54.9530E-03     110.118E-03    -55.1811E-03     6.36203E-03    -67.3704E+06    -88.5393E+06    -276.967E+06    -88.5428E+06    -276.963E+06    -67.3704E+06    -78.3110E+03         28.6641
            1569     3.78639E-03     86.9079E-03     317.320E-03     253.752E-03    -945.025E-03     252.335E-03    -880.040E-03     253.752E-03     124.265E-03     110.150E-03    -54.9645E-03    -55.1925E-03    -54.8602E-03     110.046E-03    -55.1925E-03     8.25791E-03    -50.2547E+06    -80.6305E+06    -261.552E+06    -80.6584E+06    -261.524E+06    -50.2547E+06    -1.86880E+06         28.8601
            1570     4.73334E-03     86.9178E-03     283.841E-03     254.208E-03    -913.822E-03     261.178E-03    -891.159E-03     254.208E-03    -114.396E-03     110.113E-03    -54.9257E-03    -55.2021E-03    -54.7786E-03     109.966E-03    -55.2021E-03     9.81850E-03    -36.5156E+06    -72.5273E+06    -243.549E+06    -72.6526E+06    -243.423E+06    -36.5156E+06    -4.35777E+06         29.1222
            1571     5.68011E-03     86.9288E-03     272.977E-03     250.842E-03    -898.381E-03     264.050E-03    -894.149E-03     255.537E-03     71.1091E-03     110.042E-03    -54.9152E-03    -55.1746E-03    -54.7114E-03     109.838E-03    -55.1746E-03     11.5482E-03    -26.4365E+06    -64.5337E+06    -222.330E+06    -64.8297E+06    -222.034E+06    -26.4365E+06    -6.58326E+06         29.4632
            1572     6.62708E-03     86.9426E-03     266.111E-03     246.127E-03    -888.612E-03     255.683E-03    -888.213E-03     256.155E-03    -26.0556E-03     109.961E-03    -54.8655E-03    -55.1286E-03    -54.5991E-03     109.695E-03    -55.1286E-03     13.2225E-03    -18.6190E+06    -56.8426E+06    -200.465E+06    -57.1902E+06    -200.117E+06    -18.6190E+06    -6.92339E+06         29.8917
            1573     7.57417E-03     86.9577E-03     256.659E-03     245.634E-03    -875.706E-03     246.425E-03    -875.361E-03     255.522E-03     17.0860E-03     109.954E-03    -54.8888E-03    -55.0728E-03    -54.5524E-03     109.618E-03    -55.0728E-03     14.8497E-03    -13.0845E+06    -50.0234E+06    -176.222E+06    -50.3434E+06    -175.902E+06    -13.0845E+06    -6.19728E+06         30.4141
            1574     8.52089E-03     86.9746E-03     261.880E-03     249.520E-03    -876.401E-03     256.113E-03    -876.090E-03     254.976E-03     21.8634E-03     109.954E-03    -54.9370E-03    -55.0438E-03    -54.4954E-03     109.506E-03    -55.0369E-03     17.1209E-03    -8.00824E+06    -43.5932E+06    -148.882E+06    -43.9390E+06    -148.536E+06    -8.00824E+06    -5.84613E+06         31.0438
            1575     9.46822E-03     86.9947E-03     268.976E-03     254.673E-03    -883.974E-03     268.001E-03    -883.899E-03     255.573E-03    -3.07297E-03     109.948E-03    -54.9032E-03    -55.0998E-03    -54.4329E-03     109.379E-03    -55.0009E-03     19.3251E-03    -4.27327E+06    -37.9611E+06    -120.216E+06    -38.2680E+06    -119.909E+06    -4.27327E+06    -4.93719E+06         31.8026
            1576     10.4151E-03     87.0171E-03     270.500E-03     256.685E-03    -889.964E-03     270.377E-03    -889.841E-03     256.685E-03     4.60972E-03     109.854E-03    -54.8845E-03    -55.0495E-03    -54.2652E-03     109.112E-03    -54.9264E-03     21.9916E-03    -3.74121E+06    -33.8152E+06    -86.3142E+06    -34.0307E+06    -86.0987E+06    -3.74121E+06    -3.26311E+06         32.7162
            1577     11.3626E-03     87.0416E-03     263.430E-03     254.233E-03    -888.619E-03     259.732E-03    -887.938E-03     257.251E-03    -25.2215E-03     109.740E-03    -54.8188E-03    -54.9816E-03    -53.8418E-03     108.600E-03    -54.8190E-03     27.1010E-03    -3.41234E+06    -21.6410E+06    -47.7640E+06    -30.5174E+06    -38.8877E+06    -3.41234E+06    -1.26550E+06         33.7803
            1578     12.3103E-03     87.0751E-03     260.046E-03     246.881E-03    -883.211E-03     249.001E-03    -882.144E-03     256.859E-03    -3.39146E-03     110.019E-03    -54.6735E-03    -55.3482E-03    -53.6925E-03     108.364E-03    -54.6735E-03     32.8332E-03     35.5042E+06    -4.67956E+06    -27.8622E+06    -27.8166E+06     31.3358E+06    -556.799E+03     1.39494E+06         34.8837
            1579     13.2567E-03     87.1129E-03     259.283E-03     248.155E-03    -882.554E-03     250.299E-03    -881.485E-03     256.070E-03    -2.38257E-03     110.782E-03    -54.5680E-03    -56.2248E-03    -53.4912E-03     108.048E-03    -54.5680E-03     41.8665E-03     118.942E+06     10.5473E+06    -25.5541E+06    -25.4593E+06     118.847E+06     10.5473E+06     3.64292E+06         36.0218
            1580     14.2062E-03     87.1667E-03     258.765E-03     250.897E-03    -882.121E-03     253.234E-03    -881.133E-03     255.440E-03    -53.7306E-03     110.193E-03    -54.5221E-03    -55.7179E-03    -52.9440E-03     107.501E-03    -54.6044E-03     41.3588E-03     171.616E+06     50.3020E+06    -21.0255E+06    -20.9462E+06     171.537E+06     50.3020E+06     3.75988E+06         37.5176
            1581     15.1538E-03     87.2026E-03     262.765E-03     251.509E-03    -880.524E-03     258.638E-03    -879.985E-03     255.097E-03    -30.7193E-03     111.636E-03    -54.6840E-03    -57.0178E-03    -52.9401E-03     107.640E-03    -54.7663E-03     49.2811E-03     181.228E+06     101.206E+06    -14.2438E+06    -14.2064E+06     181.190E+06     101.206E+06     2.44117E+06         39.6767
            1582     16.1018E-03     87.2744E-03     260.378E-03     246.712E-03    -865.137E-03     251.820E-03    -864.656E-03     254.788E-03     5.64769E-03     110.939E-03    -53.9365E-03    -57.1310E-03    -53.0920E-03     107.843E-03    -54.8795E-03     33.7195E-03     184.808E+06     125.924E+06    -6.95965E+06    -6.95107E+06     184.799E+06     125.924E+06     797.864E+03         42.1337
            1583     946.650E-06     88.0058E-03     918.311E-03     548.086E-03        -1.81628    -233.894E-03    -837.157E-03     721.165E-03    -876.979E-03     110.151E-03    -54.9569E-03    -55.1947E-03    -55.1594E-03     110.141E-03    -54.9816E-03     2.53325E-03    -97.4947E+06    -101.312E+06    -295.354E+06    -101.144E+06    -295.350E+06    -97.6669E+06    -54.4060E+03         28.4443
            1584     1.89314E-03     88.0096E-03     536.240E-03     246.175E-03        -1.13746     256.172E-03    -857.391E-03     246.175E-03     263.413E-03     110.243E-03    -55.0738E-03    -55.1765E-03    -55.0688E-03     110.213E-03    -55.1520E-03     4.30177E-03    -84.5781E+06    -95.5400E+06    -290.148E+06    -95.5499E+06    -290.138E+06    -84.5781E+06    -716.795E+03         28.5250
            1585     2.83960E-03     88.0148E-03     385.314E-03     249.747E-03    -997.729E-03     256.506E-03    -868.921E-03     249.747E-03    -183.785E-03     110.178E-03    -55.0040E-03    -55.1856E-03    -54.9455E-03     110.114E-03    -55.1807E-03     6.37875E-03    -68.7661E+06    -87.9553E+06    -274.997E+06    -87.9836E+06    -274.968E+06    -68.7661E+06    -1.54652E+06         28.6624
            1586     3.78667E-03     88.0234E-03     303.508E-03     251.247E-03    -920.909E-03     254.283E-03    -871.684E-03     251.247E-03     140.526E-03     110.099E-03    -54.9170E-03    -55.1834E-03    -54.8134E-03     109.995E-03    -55.1834E-03     8.23038E-03    -51.1345E+06    -79.1813E+06    -258.780E+06    -79.2448E+06    -258.716E+06    -51.1345E+06    -3.16039E+06         28.8592
            1587     4.73335E-03     88.0328E-03     262.647E-03     249.115E-03    -876.164E-03     245.263E-03    -860.724E-03     251.059E-03    -67.1922E-03     110.130E-03    -54.9550E-03    -55.1880E-03    -54.8060E-03     109.981E-03    -55.1880E-03     9.87650E-03    -36.7794E+06    -70.6025E+06    -239.704E+06    -70.7994E+06    -239.507E+06    -36.7794E+06     -5.3874E+06         29.1233
            1588     5.68019E-03     88.0446E-03     263.771E-03     249.084E-03    -874.659E-03     257.674E-03    -870.506E-03     251.028E-03     75.2921E-03     110.087E-03    -54.9646E-03    -55.1675E-03    -54.7601E-03     109.883E-03    -55.1675E-03     11.5803E-03    -26.3984E+06    -63.1149E+06    -218.750E+06    -63.4979E+06    -218.367E+06    -26.3984E+06    -7.55854E+06         29.4659
            1589     6.62700E-03     88.0575E-03     264.810E-03     250.113E-03    -875.871E-03     262.455E-03    -875.671E-03     252.268E-03    -13.3320E-03     110.012E-03    -54.9153E-03    -55.1321E-03    -54.6486E-03     109.745E-03    -55.1321E-03     13.2284E-03    -19.7796E+06    -56.8232E+06    -200.112E+06    -57.3353E+06    -199.600E+06    -19.7796E+06    -8.38022E+06         29.8946
            1590     7.57395E-03     88.0729E-03     254.226E-03     243.376E-03    -854.873E-03     244.790E-03    -854.515E-03     252.453E-03     13.1763E-03     110.000E-03    -54.9371E-03    -55.0718E-03    -54.5935E-03     109.657E-03    -55.0718E-03     15.0090E-03    -15.6613E+06    -50.0083E+06    -175.302E+06    -50.6690E+06    -174.642E+06    -15.6613E+06    -8.86126E+06         30.4157
            1591     8.52110E-03     88.0901E-03     251.399E-03     242.636E-03    -849.469E-03     242.232E-03    -849.066E-03     251.399E-03     7.73509E-03     110.027E-03    -55.0039E-03    -55.0447E-03    -54.5565E-03     109.573E-03    -55.0377E-03     17.2470E-03    -10.4986E+06    -43.1907E+06    -149.132E+06    -43.8928E+06    -148.430E+06    -10.4986E+06    -8.49912E+06         31.0435
            1592     9.46754E-03     88.1100E-03     251.658E-03     246.489E-03    -853.670E-03     247.326E-03    -853.504E-03     250.654E-03     10.1080E-03     109.882E-03    -54.9204E-03    -55.0089E-03    -54.3513E-03     109.306E-03    -55.0019E-03     19.4297E-03    -6.94066E+06    -37.9498E+06    -122.098E+06    -38.5377E+06    -121.510E+06    -6.94066E+06    -6.93537E+06         31.8005
            1593     10.4153E-03     88.1320E-03     257.129E-03     244.553E-03    -856.582E-03     251.160E-03    -856.485E-03     250.425E-03     11.8400E-03     109.712E-03    -54.8417E-03    -54.9449E-03    -54.1377E-03     108.983E-03    -54.9204E-03     21.8029E-03    -6.31527E+06    -33.5893E+06    -88.8167E+06    -34.0615E+06    -88.3445E+06    -6.31527E+06    -4.99559E+06         32.7150
            1594     11.3625E-03     88.1573E-03     257.192E-03     246.567E-03    -862.823E-03     252.850E-03    -862.321E-03     250.408E-03    -29.5759E-03     109.780E-03    -54.8126E-03    -55.0281E-03    -53.9332E-03     108.685E-03    -54.8128E-03     26.5659E-03    -5.63323E+06    -22.7908E+06    -48.9603E+06    -30.1788E+06    -41.5723E+06    -5.63323E+06    -2.29402E+06         33.7811
            1595     12.3100E-03     88.1896E-03     251.046E-03     241.181E-03    -855.233E-03     241.097E-03    -854.065E-03     249.961E-03     4.93051E-03     110.017E-03    -54.6687E-03    -55.3531E-03    -53.6623E-03     108.326E-03    -54.6687E-03     33.1122E-03     32.0280E+06    -7.61528E+06    -27.4865E+06    -27.4130E+06     27.3822E+06    -3.04297E+06     1.03798E+06         34.8837
            1596     13.2581E-03     88.2292E-03     248.915E-03     236.995E-03    -851.029E-03     235.850E-03    -849.884E-03     248.915E-03     13.4821E-03     110.713E-03    -54.5590E-03    -56.1664E-03    -53.4484E-03     107.995E-03    -54.5590E-03     41.8939E-03     117.415E+06     8.90047E+06    -24.6983E+06    -24.6243E+06     117.341E+06     8.90047E+06     3.12756E+06         36.0195
            1597     14.2048E-03     88.2798E-03     251.422E-03     243.793E-03    -859.540E-03     245.606E-03    -858.054E-03     248.123E-03    -17.9853E-03     110.298E-03    -54.5631E-03    -55.7827E-03    -53.1148E-03     107.672E-03    -54.6049E-03     40.9655E-03     172.243E+06     49.5018E+06    -21.1440E+06    -21.0908E+06     172.190E+06     49.5018E+06     3.12843E+06         37.5139
            1598     15.1536E-03     88.3196E-03     253.453E-03     246.984E-03    -860.558E-03     251.344E-03    -859.346E-03     247.882E-03     113.423E-06     111.583E-03    -54.7326E-03    -56.8938E-03    -52.9375E-03     107.668E-03    -54.7744E-03     48.8698E-03     182.452E+06     100.709E+06    -15.3439E+06    -15.3144E+06     182.423E+06     100.709E+06     2.29315E+06         39.6736
            1599     16.1015E-03     88.3883E-03     258.574E-03     248.014E-03    -863.970E-03     257.278E-03    -862.674E-03     248.014E-03     44.4803E-03     110.723E-03    -53.8691E-03    -56.9404E-03    -52.9179E-03     107.717E-03    -54.8852E-03     33.3442E-03     186.399E+06     126.085E+06    -7.87860E+06    -7.86922E+06     186.390E+06     126.085E+06     1.11923E+06         42.1353
            1600     946.442E-06     89.1212E-03     894.679E-03     508.434E-03        -1.75426    -234.227E-03    -831.163E-03     714.243E-03    -809.063E-03     110.104E-03    -54.8967E-03    -55.2108E-03    -55.1739E-03     110.091E-03    -54.9215E-03     2.78181E-03    -97.2162E+06    -100.412E+06    -294.064E+06    -100.308E+06    -294.054E+06    -97.3295E+06    -47.0660E+03         28.4389
            1601     1.89325E-03     89.1244E-03     519.474E-03     240.880E-03        -1.10829     243.700E-03    -832.512E-03     240.880E-03     268.476E-03     110.213E-03    -55.0708E-03    -55.1539E-03    -55.0737E-03     110.182E-03    -55.1201E-03     4.38390E-03    -86.7055E+06    -96.2710E+06    -288.602E+06    -96.2917E+06    -288.582E+06    -86.7055E+06    -1.83579E+06         28.5218
            1602     2.83981E-03     89.1307E-03     376.095E-03     243.917E-03    -967.308E-03     257.963E-03    -849.176E-03     243.917E-03    -185.943E-03     110.188E-03    -55.0405E-03    -55.1581E-03    -54.9827E-03     110.125E-03    -55.1532E-03     6.37481E-03    -72.1936E+06    -89.6303E+06    -272.015E+06    -89.7130E+06    -271.932E+06    -72.1936E+06    -3.58245E+06         28.6607
            1603     3.78638E-03     89.1381E-03     293.861E-03     245.970E-03    -892.872E-03     244.230E-03    -843.240E-03     245.970E-03     97.8023E-03     110.089E-03    -54.9282E-03    -55.1614E-03    -54.8247E-03     109.985E-03    -55.1614E-03     8.20746E-03    -55.8311E+06    -81.3028E+06    -255.264E+06    -81.5460E+06    -255.021E+06    -55.8311E+06     -5.9389E+06         28.8583
            1604     4.73340E-03     89.1482E-03     266.412E-03     243.814E-03    -866.677E-03     246.881E-03    -849.090E-03     245.759E-03    -120.862E-03     110.078E-03    -54.9216E-03    -55.1649E-03    -54.7696E-03     109.926E-03    -55.1649E-03     9.97607E-03    -40.8131E+06    -71.9551E+06    -236.029E+06    -72.3918E+06    -235.593E+06    -40.8131E+06    -8.05691E+06         29.1231
            1605     5.68004E-03     89.1596E-03     253.516E-03     242.730E-03    -850.753E-03     247.750E-03    -848.177E-03     245.921E-03     30.0247E-03     110.085E-03    -54.9730E-03    -55.1481E-03    -54.7678E-03     109.880E-03    -55.1481E-03     11.6047E-03    -29.0749E+06    -63.5136E+06    -216.365E+06    -64.0208E+06    -215.858E+06    -29.0749E+06    -8.70007E+06         29.4670
            1606     6.62707E-03     89.1729E-03     248.493E-03     242.942E-03    -843.069E-03     244.990E-03    -842.532E-03     245.907E-03    -24.1866E-03     110.109E-03    -55.0173E-03    -55.1282E-03    -54.7509E-03     109.843E-03    -55.1282E-03     13.2270E-03    -20.9707E+06    -55.7801E+06    -197.122E+06    -56.5223E+06    -196.380E+06    -20.9707E+06    -9.89917E+06         29.8967
            1607     7.57389E-03     89.1880E-03     249.578E-03     241.617E-03    -840.713E-03     245.364E-03    -840.584E-03     245.703E-03     308.085E-06     110.031E-03    -54.9766E-03    -55.0717E-03    -54.6345E-03     109.689E-03    -55.0717E-03     14.9796E-03    -17.8532E+06    -48.9108E+06    -173.185E+06    -50.0463E+06    -172.050E+06    -17.8532E+06    -11.7049E+06         30.4166
            1608     8.52066E-03     89.2056E-03     248.449E-03     242.208E-03    -834.470E-03     244.881E-03    -834.210E-03     245.515E-03    -26.1213E-03     109.908E-03    -54.9066E-03    -55.0306E-03    -54.4490E-03     109.450E-03    -55.0306E-03     17.2897E-03    -13.9441E+06    -42.9841E+06    -150.987E+06    -44.1963E+06    -149.775E+06    -13.9441E+06    -11.2935E+06         31.0422
            1609     9.46810E-03     89.2255E-03     246.026E-03     241.601E-03    -830.563E-03     242.119E-03    -830.250E-03     245.195E-03    -14.7383E-03     109.868E-03    -54.8905E-03    -55.0284E-03    -54.3516E-03     109.291E-03    -54.9903E-03     19.4524E-03    -10.0709E+06    -37.7795E+06    -123.896E+06    -38.8234E+06    -122.852E+06    -10.0709E+06    -9.33655E+06         31.7989
            1610     10.4150E-03     89.2470E-03     245.320E-03     238.453E-03    -828.951E-03     238.982E-03    -828.813E-03     244.654E-03     2.48066E-03     109.841E-03    -54.8816E-03    -55.0318E-03    -54.2646E-03     109.111E-03    -54.9182E-03     21.8384E-03    -9.02096E+06    -33.3702E+06    -91.1312E+06    -34.2858E+06    -90.2156E+06    -9.02096E+06    -7.07823E+06         32.7155
            1611     11.3622E-03     89.2730E-03     245.907E-03     239.998E-03    -831.267E-03     241.596E-03    -831.114E-03     244.155E-03    -19.2844E-03     109.914E-03    -54.8224E-03    -55.1454E-03    -54.0695E-03     108.838E-03    -54.8224E-03     26.3995E-03    -8.78251E+06    -25.1338E+06    -50.9782E+06    -30.4894E+06    -45.6226E+06    -8.78251E+06    -3.94892E+06         33.7845
            1612     12.3096E-03     89.3043E-03     247.701E-03     241.768E-03    -838.167E-03     244.012E-03    -836.614E-03     243.904E-03     37.4487E-03     109.921E-03    -54.6818E-03    -55.2446E-03    -53.5990E-03     108.275E-03    -54.6818E-03     32.6337E-03     28.6221E+06    -10.5926E+06    -27.5542E+06    -27.2573E+06     23.1506E+06    -5.41795E+06     148.209E+03         34.8865
            1613     13.2576E-03     89.3443E-03     248.272E-03     239.685E-03    -838.004E-03     242.262E-03    -835.999E-03     243.689E-03     30.2501E-03     110.570E-03    -54.5565E-03    -56.0293E-03    -53.3341E-03     107.875E-03    -54.5565E-03     41.6650E-03     115.761E+06     5.94948E+06    -25.1077E+06    -25.0405E+06     115.693E+06     5.94948E+06     3.02976E+06         36.0194
            1614     14.2056E-03     89.3964E-03     245.201E-03     238.386E-03    -833.299E-03     239.027E-03    -832.070E-03     243.330E-03     5.71709E-03     110.496E-03    -54.6066E-03    -55.9262E-03    -53.3020E-03     107.872E-03    -54.6066E-03     40.9953E-03     172.511E+06     45.7184E+06    -22.1124E+06    -22.0500E+06     172.449E+06     45.7184E+06     3.40647E+06         37.5107
            1615     15.1525E-03     89.4337E-03     243.573E-03     240.469E-03    -830.713E-03     240.355E-03    -829.962E-03     242.936E-03     31.0957E-03     111.659E-03    -54.7935E-03    -56.8912E-03    -52.9722E-03     107.740E-03    -54.7935E-03     48.8876E-03     183.854E+06     99.1923E+06    -16.2024E+06    -16.1757E+06     183.828E+06     99.1923E+06     2.04273E+06         39.6699
            1616     16.1013E-03     89.5039E-03     251.830E-03     242.925E-03    -839.982E-03     250.636E-03    -838.789E-03     242.925E-03     48.6712E-03     110.552E-03    -53.7815E-03    -56.8364E-03    -52.7045E-03     107.540E-03    -54.9006E-03     33.4850E-03     187.734E+06     126.270E+06    -8.18121E+06    -8.17779E+06     187.730E+06     126.270E+06     730.001E+03         42.1354
            1617     946.904E-06     90.2361E-03     847.887E-03     458.492E-03        -1.64916    -203.863E-03    -828.406E-03     689.493E-03    -743.926E-03     110.064E-03    -54.8893E-03    -55.1753E-03    -55.1627E-03     110.052E-03    -54.8893E-03     2.81714E-03    -98.9458E+06    -102.710E+06    -292.917E+06    -101.841E+06    -292.905E+06    -99.8275E+06    -246.047E+03         28.4326
            1618     1.89311E-03     90.2397E-03     489.938E-03     242.370E-03        -1.07143     240.315E-03    -821.804E-03     242.370E-03     205.516E-03     110.198E-03    -55.0539E-03    -55.1495E-03    -55.0763E-03     110.168E-03    -55.0972E-03     4.34300E-03    -88.5998E+06    -98.1969E+06    -285.191E+06    -98.2299E+06    -285.158E+06    -88.5998E+06    -2.31869E+06         28.5173
            1619     2.83982E-03     90.2457E-03     369.704E-03     241.674E-03    -952.047E-03     240.583E-03    -822.926E-03     241.674E-03    -152.009E-03     110.136E-03    -55.0173E-03    -55.1292E-03    -54.9554E-03     110.074E-03    -55.1292E-03     6.30702E-03    -75.3972E+06    -92.1882E+06    -267.733E+06    -92.3431E+06    -267.578E+06    -75.3972E+06    -4.78378E+06         28.6580
            1620     3.78651E-03     90.2534E-03     288.926E-03     236.583E-03    -868.453E-03     228.022E-03    -810.962E-03     239.997E-03     142.011E-03     110.071E-03    -54.9458E-03    -55.1283E-03    -54.8410E-03     109.966E-03    -55.1283E-03     8.25871E-03    -61.4452E+06    -84.7043E+06    -249.243E+06    -85.1882E+06    -248.759E+06    -61.4452E+06    -8.58055E+06         28.8569
            1621     4.73320E-03     90.2632E-03     254.573E-03     230.350E-03    -831.282E-03     230.160E-03    -814.237E-03     237.718E-03    -104.086E-03     110.042E-03    -54.9086E-03    -55.1349E-03    -54.7526E-03     109.886E-03    -55.1349E-03     10.1011E-03    -47.5843E+06    -76.5384E+06    -232.820E+06    -77.3530E+06    -232.006E+06    -47.5843E+06    -11.1014E+06         29.1217
            1622     5.68030E-03     90.2749E-03     244.385E-03     231.606E-03    -821.366E-03     235.929E-03    -818.112E-03     236.808E-03     31.0263E-03     110.084E-03    -54.9863E-03    -55.1228E-03    -54.7763E-03     109.874E-03    -55.1228E-03     11.7444E-03    -35.1815E+06    -67.3635E+06    -214.289E+06    -68.4502E+06    -213.203E+06    -35.1815E+06    -12.2188E+06         29.4658
            1623     6.62678E-03     90.2883E-03     238.099E-03     233.497E-03    -816.568E-03     234.386E-03    -815.821E-03     236.462E-03    -37.7421E-03     110.143E-03    -55.0576E-03    -55.1161E-03    -54.7874E-03     109.873E-03    -55.1161E-03     13.3212E-03    -24.9721E+06    -57.8390E+06    -193.537E+06    -59.2845E+06    -192.091E+06    -24.9721E+06    -13.5384E+06         29.8966
            1624     7.57348E-03     90.3036E-03     247.860E-03     235.037E-03    -821.995E-03     245.944E-03    -821.798E-03     236.756E-03    -6.86884E-03     110.011E-03    -54.9530E-03    -55.0706E-03    -54.6102E-03     109.668E-03    -55.0706E-03     14.9988E-03    -20.3518E+06    -49.8550E+06    -171.349E+06    -51.6012E+06    -169.603E+06    -20.3518E+06    -14.3325E+06         30.4168
            1625     8.52079E-03     90.3205E-03     254.728E-03     238.121E-03    -826.593E-03     254.498E-03    -826.362E-03     238.121E-03    -9.25523E-03     109.895E-03    -54.8809E-03    -55.0392E-03    -54.4391E-03     109.438E-03    -55.0240E-03     17.2725E-03    -17.3352E+06    -43.9444E+06    -151.721E+06    -45.8414E+06    -149.824E+06    -17.3352E+06    -14.0645E+06         31.0416
            1626     9.46787E-03     90.3408E-03     246.901E-03     238.937E-03    -819.709E-03     245.974E-03    -819.111E-03     239.266E-03     8.63044E-03     109.871E-03    -54.8884E-03    -55.0359E-03    -54.3682E-03     109.298E-03    -54.9826E-03     19.3964E-03    -13.7861E+06    -38.4225E+06    -126.367E+06    -40.2714E+06    -124.518E+06    -13.7861E+06    -12.4846E+06         31.7973
            1627     10.4150E-03     90.3627E-03     241.410E-03     236.790E-03    -812.835E-03     238.179E-03    -812.267E-03     239.453E-03     23.3563E-03     109.855E-03    -54.8787E-03    -55.0474E-03    -54.2792E-03     109.121E-03    -54.9129E-03     21.8787E-03    -12.3587E+06    -33.2618E+06    -94.6146E+06    -34.9808E+06    -92.8956E+06    -12.3587E+06    -9.95441E+06         32.7148
            1628     11.3621E-03     90.3874E-03     239.612E-03     230.722E-03    -806.759E-03     230.843E-03    -806.213E-03     238.945E-03    -16.5075E-03     110.077E-03    -54.8251E-03    -55.3081E-03    -54.2083E-03     108.977E-03    -54.8251E-03     26.7117E-03    -11.7633E+06    -26.0433E+06    -54.1111E+06    -30.7412E+06    -49.4132E+06    -11.7633E+06    -6.38268E+06         33.7872
            1629     12.3092E-03     90.4197E-03     241.089E-03     232.382E-03    -808.535E-03     233.871E-03    -807.207E-03     238.271E-03     13.7176E-03     110.168E-03    -54.6999E-03    -55.4771E-03    -53.8560E-03     108.547E-03    -54.6999E-03     32.4890E-03     23.6645E+06    -13.5235E+06    -28.4977E+06    -27.1225E+06     17.3979E+06    -8.63203E+06    -1.15625E+06         34.8920
            1630     13.2570E-03     90.4580E-03     242.803E-03     237.957E-03    -815.943E-03     240.927E-03    -814.066E-03     237.957E-03    -4.14559E-03     110.586E-03    -54.5694E-03    -56.0318E-03    -53.3103E-03     107.865E-03    -54.5694E-03     41.7438E-03     112.683E+06     1.68855E+06    -24.5480E+06    -24.4657E+06     112.601E+06     1.68855E+06     3.34522E+06         36.0233
            1631     14.2048E-03     90.5121E-03     241.493E-03     236.237E-03    -815.500E-03     238.967E-03    -814.544E-03     237.806E-03    -35.9676E-03     110.202E-03    -54.4598E-03    -55.7704E-03    -52.9642E-03     107.537E-03    -54.6009E-03     41.1359E-03     173.849E+06     42.4752E+06    -21.2943E+06    -21.2230E+06     173.778E+06     42.4752E+06     3.41837E+06         37.5100
            1632     15.1532E-03     90.5488E-03     239.384E-03     235.564E-03    -814.854E-03     237.140E-03    -814.565E-03     237.518E-03    -14.2662E-03     111.596E-03    -54.6460E-03    -56.9651E-03    -52.8640E-03     107.636E-03    -54.7871E-03     48.9972E-03     185.675E+06     98.8306E+06    -15.0429E+06    -15.0302E+06     185.663E+06     98.8306E+06     1.39479E+06         39.6671
            1633     16.1011E-03     90.6182E-03     238.625E-03     236.128E-03    -815.513E-03     236.949E-03    -814.927E-03     237.219E-03    -1.01661E-03     110.642E-03    -53.7166E-03    -56.9796E-03    -52.7174E-03     107.563E-03    -54.8995E-03     33.8784E-03     188.673E+06     126.806E+06    -7.21572E+06    -7.21360E+06     188.671E+06     126.806E+06     620.688E+03         42.1354
            1634     946.409E-06     91.3509E-03     797.992E-03     458.169E-03        -1.57846    -141.636E-03    -818.861E-03     638.200E-03    -664.877E-03     110.143E-03    -54.9229E-03    -55.2184E-03    -55.1182E-03     110.131E-03    -55.0108E-03     2.70363E-03    -102.312E+06    -106.874E+06    -290.675E+06    -106.005E+06    -290.661E+06    -103.194E+06    -1.31290E+06         28.4280
            1635     1.89320E-03     91.3556E-03     486.376E-03     246.683E-03        -1.06150     239.937E-03    -815.062E-03     246.683E-03     215.347E-03     110.115E-03    -54.9849E-03    -55.1322E-03    -54.9780E-03     110.085E-03    -55.1088E-03     4.39171E-03    -91.4147E+06    -101.121E+06    -281.300E+06    -101.207E+06    -281.214E+06    -91.4147E+06    -3.20489E+06         28.5120
            1636     2.83970E-03     91.3603E-03     365.275E-03     243.711E-03    -946.425E-03     235.800E-03    -816.951E-03     243.711E-03    -133.038E-03     110.083E-03    -54.9854E-03    -55.1069E-03    -54.9231E-03     110.021E-03    -55.1069E-03     6.31954E-03    -78.1424E+06    -93.8020E+06    -261.999E+06    -94.0931E+06    -261.708E+06    -78.1424E+06    -6.58444E+06         28.6549
            1637     3.78654E-03     91.3689E-03     288.189E-03     237.370E-03    -860.840E-03     227.786E-03    -803.850E-03     240.783E-03     166.320E-03     110.034E-03    -54.9313E-03    -55.1046E-03    -54.8266E-03     109.929E-03    -55.1046E-03     8.26523E-03    -63.7747E+06    -86.4428E+06    -242.309E+06    -87.1093E+06    -241.642E+06    -63.7747E+06    -9.92333E+06         28.8565
            1638     4.73333E-03     91.3781E-03     242.213E-03     219.477E-03    -793.295E-03     209.454E-03    -777.528E-03     236.470E-03    -68.9515E-03     110.086E-03    -54.9665E-03    -55.1194E-03    -54.8103E-03     109.930E-03    -55.1194E-03     10.1020E-03    -50.3685E+06    -78.4723E+06    -227.388E+06    -79.8057E+06    -226.054E+06    -50.3685E+06    -13.6833E+06         29.1216
            1639     5.67994E-03     91.3903E-03     232.394E-03     208.849E-03    -773.075E-03     205.571E-03    -769.001E-03     231.599E-03     72.4395E-03     110.075E-03    -54.9857E-03    -55.1104E-03    -54.7687E-03     109.858E-03    -55.1104E-03     11.9311E-03    -39.1211E+06    -69.2943E+06    -210.632E+06    -71.3663E+06    -208.560E+06    -39.1211E+06    -16.7393E+06         29.4637
            1640     6.62680E-03     91.4039E-03     234.305E-03     219.909E-03    -785.242E-03     224.646E-03    -784.754E-03     229.079E-03    -12.3561E-03     110.051E-03    -54.9754E-03    -55.1014E-03    -54.6997E-03     109.775E-03    -55.1014E-03     13.4576E-03    -29.0405E+06    -60.0667E+06    -191.458E+06    -62.6351E+06    -188.889E+06    -29.0405E+06    -18.0182E+06         29.8937
            1641     7.57388E-03     91.4185E-03     247.648E-03     229.798E-03    -806.374E-03     247.342E-03    -806.068E-03     229.798E-03     1.91635E-03     110.045E-03    -54.9546E-03    -55.0849E-03    -54.6369E-03     109.703E-03    -55.0601E-03     14.9955E-03    -23.3036E+06    -52.0314E+06    -170.287E+06    -54.7949E+06    -167.523E+06    -23.3036E+06    -17.7148E+06         30.4156
            1642     8.52060E-03     91.4355E-03     250.722E-03     230.586E-03    -809.268E-03     249.390E-03    -809.138E-03     231.788E-03     5.75607E-03     109.973E-03    -54.9228E-03    -55.0613E-03    -54.5084E-03     109.519E-03    -55.0212E-03     17.2348E-03    -19.9290E+06    -45.1817E+06    -151.051E+06    -48.1544E+06    -148.079E+06    -19.9290E+06    -17.3239E+06         31.0409
            1643     9.46749E-03     91.4556E-03     239.590E-03     230.485E-03    -800.945E-03     235.732E-03    -799.388E-03     232.786E-03    -9.50191E-03     109.837E-03    -54.8844E-03    -55.0044E-03    -54.3251E-03     109.251E-03    -54.9781E-03     19.5807E-03    -17.5166E+06    -38.9953E+06    -128.873E+06    -42.1119E+06    -125.756E+06    -17.5166E+06    -16.3057E+06         31.7946
            1644     10.4148E-03     91.4772E-03     233.837E-03     228.791E-03    -795.165E-03     228.018E-03    -793.103E-03     232.547E-03    -21.4682E-03     109.830E-03    -54.8700E-03    -55.0295E-03    -54.2506E-03     109.085E-03    -54.9042E-03     22.0540E-03    -16.1429E+06    -33.3292E+06    -98.6464E+06    -36.3608E+06    -95.6148E+06    -16.1429E+06    -13.5502E+06         32.7112
            1645     11.3622E-03     91.5029E-03     234.992E-03     223.926E-03    -787.929E-03     225.642E-03    -786.516E-03     231.863E-03    -48.4970E-03     110.069E-03    -54.8169E-03    -55.3085E-03    -54.1914E-03     108.951E-03    -54.8169E-03     26.8893E-03    -15.0654E+06    -26.1684E+06    -58.6520E+06    -31.6344E+06    -53.1860E+06    -15.0654E+06    -9.48117E+06         33.7861
            1646     12.3092E-03     91.5353E-03     235.824E-03     226.004E-03    -786.171E-03     229.155E-03    -784.781E-03     231.284E-03    -10.5267E-03     110.345E-03    -54.6986E-03    -55.6612E-03    -54.0231E-03     108.707E-03    -54.6986E-03     32.7208E-03     16.6374E+06    -16.1339E+06    -31.1977E+06    -27.9418E+06     9.92960E+06    -12.6820E+06    -3.67154E+06         34.8952
            1647     13.2564E-03     91.5734E-03     233.824E-03     231.006E-03    -786.913E-03     232.767E-03    -785.855E-03     231.006E-03    -1.61541E-03     110.795E-03    -54.5685E-03    -56.2442E-03    -53.5106E-03     108.061E-03    -54.5685E-03     41.8614E-03     107.871E+06    -3.50938E+06    -24.1551E+06    -24.0808E+06     107.796E+06    -3.50938E+06     2.08364E+06         36.0268
            1648     14.2047E-03     91.6267E-03     233.867E-03     228.450E-03    -785.586E-03     230.986E-03    -785.057E-03     230.801E-03    -29.7125E-03     109.920E-03    -54.2512E-03    -55.6883E-03    -52.6650E-03     107.243E-03    -54.5979E-03     41.1414E-03     175.990E+06     39.7675E+06    -20.1003E+06    -20.0357E+06     175.926E+06     39.7675E+06     3.27819E+06         37.5092
            1649     15.1535E-03     91.6634E-03     232.084E-03     226.810E-03    -787.623E-03     228.157E-03    -787.312E-03     230.425E-03    -21.8492E-03     111.273E-03    -54.4336E-03    -56.8546E-03    -52.5225E-03     107.288E-03    -54.7803E-03     49.0327E-03     187.111E+06     98.4475E+06    -15.0686E+06    -15.0534E+06     187.096E+06     98.4475E+06     1.58556E+06         39.6642
            1650     16.1018E-03     91.7340E-03     229.971E-03     227.698E-03    -785.740E-03     226.946E-03    -784.988E-03     229.971E-03    -776.059E-06     110.655E-03    -53.7435E-03    -56.9596E-03    -52.7118E-03     107.549E-03    -54.8854E-03     33.6598E-03     188.796E+06     126.610E+06    -8.08107E+06    -8.07746E+06     188.792E+06     126.610E+06     622.453E+03         42.1353
            1651     946.290E-06     92.4663E-03     729.733E-03     499.809E-03        -1.54977    -93.1043E-03    -803.483E-03     576.359E-03    -742.667E-03     110.184E-03    -54.8644E-03    -55.3206E-03    -55.2138E-03     110.172E-03    -54.9593E-03     2.63559E-03    -105.443E+06    -109.068E+06    -286.806E+06    -108.840E+06    -286.754E+06    -105.722E+06    -2.30373E+06         28.4249
            1652     1.89315E-03     92.4701E-03     462.920E-03     241.083E-03        -1.02556     238.888E-03    -801.527E-03     241.083E-03     183.645E-03     110.030E-03    -54.9246E-03    -55.1086E-03    -54.8928E-03     109.998E-03    -55.1086E-03     4.49115E-03    -93.8680E+06    -102.908E+06    -275.901E+06    -103.098E+06    -275.711E+06    -93.8680E+06    -5.11373E+06         28.5077
            1653     2.83989E-03     92.4762E-03     324.698E-03     235.965E-03    -880.409E-03     209.255E-03    -764.966E-03     235.965E-03    -180.359E-03     110.023E-03    -54.9460E-03    -55.0820E-03    -54.8827E-03     109.960E-03    -55.0820E-03     6.38464E-03    -80.2855E+06    -95.7124E+06    -255.192E+06    -96.2770E+06    -254.628E+06    -80.2855E+06    -8.97526E+06         28.6516
            1654     3.78648E-03     92.4836E-03     272.979E-03     230.794E-03    -819.055E-03     226.282E-03    -772.357E-03     230.794E-03     82.5645E-03     110.067E-03    -54.9778E-03    -55.0882E-03    -54.8701E-03     109.959E-03    -55.0882E-03     8.37025E-03    -64.5882E+06    -86.9547E+06    -235.484E+06    -88.0408E+06    -234.398E+06    -64.5882E+06    -12.3677E+06         28.8559
            1655     4.73316E-03     92.4939E-03     257.775E-03     220.559E-03    -792.928E-03     231.213E-03    -775.991E-03     230.183E-03    -102.836E-03     110.136E-03    -55.0167E-03    -55.1177E-03    -54.8581E-03     109.978E-03    -55.1177E-03     10.1960E-03    -49.9807E+06    -77.7282E+06    -219.517E+06    -79.6534E+06    -217.592E+06    -49.9807E+06    -16.0853E+06         29.1217
            1656     5.68000E-03     92.5055E-03     236.653E-03     210.235E-03    -763.155E-03     214.960E-03    -760.257E-03     229.029E-03     56.8356E-03     110.062E-03    -54.9711E-03    -55.1113E-03    -54.7549E-03     109.846E-03    -55.1113E-03     11.9018E-03    -39.8981E+06    -69.2539E+06    -204.745E+06    -72.3190E+06    -201.680E+06    -39.8981E+06    -19.9641E+06         29.4615
            1657     6.62692E-03     92.5193E-03     232.960E-03     216.553E-03    -770.786E-03     221.585E-03    -770.283E-03     227.425E-03    -11.6038E-03     109.983E-03    -54.9132E-03    -55.0934E-03    -54.6403E-03     109.710E-03    -55.0934E-03     13.3895E-03    -32.0930E+06    -61.0283E+06    -189.323E+06    -64.9134E+06    -185.438E+06    -32.0930E+06    -21.8296E+06         29.8891
            1658     7.57360E-03     92.5340E-03     235.684E-03     215.712E-03    -775.929E-03     224.150E-03    -775.518E-03     226.834E-03     22.2474E-03     110.004E-03    -54.9303E-03    -55.0730E-03    -54.6083E-03     109.657E-03    -55.0481E-03     15.0709E-03    -26.6532E+06    -53.0986E+06    -169.972E+06    -57.4165E+06    -165.654E+06    -26.6532E+06    -21.8854E+06         30.4112
            1659     8.52036E-03     92.5515E-03     231.028E-03     205.719E-03    -761.375E-03     210.755E-03    -761.151E-03     225.768E-03     17.8452E-03     109.938E-03    -54.9077E-03    -55.0470E-03    -54.4910E-03     109.482E-03    -55.0074E-03     17.2840E-03    -22.4881E+06    -45.4538E+06    -150.533E+06    -50.1129E+06    -145.873E+06    -22.4881E+06    -21.4626E+06         31.0382
            1660     9.46795E-03     92.5704E-03     223.989E-03     209.366E-03    -757.006E-03     207.991E-03    -755.631E-03     223.989E-03    -20.4651E-03     109.822E-03    -54.8758E-03    -54.9912E-03    -54.3149E-03     109.235E-03    -54.9654E-03     19.5898E-03    -20.2605E+06    -38.7885E+06    -130.235E+06    -43.6047E+06    -125.419E+06    -20.2605E+06    -20.3020E+06         31.7923
            1661     10.4149E-03     92.5934E-03     226.119E-03     218.542E-03    -765.073E-03     219.904E-03    -763.176E-03     222.859E-03    -27.8893E-03     109.869E-03    -54.8640E-03    -55.0662E-03    -54.2753E-03     109.108E-03    -54.8940E-03     22.2969E-03    -20.2171E+06    -33.4559E+06    -103.335E+06    -38.3400E+06    -98.4508E+06    -20.2171E+06    -17.6236E+06         32.7074
            1662     11.3618E-03     92.6177E-03     240.191E-03     222.836E-03    -781.405E-03     238.564E-03    -780.101E-03     223.158E-03    -48.2108E-03     110.028E-03    -54.8066E-03    -55.2737E-03    -54.1582E-03     108.913E-03    -54.8066E-03     26.8886E-03    -19.4027E+06    -26.4969E+06    -65.2680E+06    -33.4225E+06    -58.3424E+06    -19.4027E+06    -13.1156E+06         33.7812
            1663     12.3095E-03     92.6509E-03     244.742E-03     224.300E-03    -783.951E-03     242.543E-03    -781.751E-03     224.300E-03     13.5460E-03     110.249E-03    -54.6867E-03    -55.5777E-03    -53.9154E-03     108.587E-03    -54.6867E-03     32.9050E-03     10.4578E+06      -18.52E+06    -35.2094E+06    -28.9438E+06     2.51814E+06    -16.8459E+06    -7.23620E+06         34.8909
            1664     13.2568E-03     92.6889E-03     232.793E-03     221.196E-03    -766.867E-03     227.200E-03    -764.952E-03     224.874E-03     22.1710E-03     110.715E-03    -54.5393E-03    -56.1999E-03    -53.4796E-03     107.995E-03    -54.5393E-03     41.8394E-03     101.894E+06    -9.77559E+06    -25.3985E+06    -25.2080E+06     101.703E+06    -9.77559E+06    -1.01810E+06         36.0233
            1665     14.2044E-03     92.7407E-03     225.797E-03     218.492E-03    -757.820E-03     219.074E-03    -757.152E-03     224.548E-03    -18.2554E-03     109.937E-03    -54.3337E-03    -55.6416E-03    -52.7370E-03     107.265E-03    -54.5659E-03     41.2275E-03     175.604E+06     34.4683E+06    -21.0042E+06    -20.9480E+06     175.548E+06     34.4683E+06     2.96929E+06         37.5047
            1666     15.1531E-03     92.7781E-03     223.763E-03     213.379E-03    -749.896E-03     213.048E-03    -749.564E-03     223.763E-03    -4.52687E-03     111.256E-03    -54.5396E-03    -56.7390E-03    -52.4868E-03     107.236E-03    -54.7718E-03     49.3705E-03     188.971E+06     96.9596E+06    -15.3538E+06    -15.3137E+06     188.931E+06     96.9596E+06     2.33452E+06         39.6607
            1667     16.1018E-03     92.8489E-03     222.783E-03     210.273E-03    -739.596E-03     209.586E-03    -738.909E-03     222.783E-03     13.0637E-03     110.542E-03    -53.7294E-03    -56.8506E-03    -52.6014E-03     107.446E-03    -54.8835E-03     33.4469E-03     189.711E+06     126.945E+06    -7.95738E+06    -7.95488E+06     189.709E+06     126.945E+06     387.324E+03         42.1355
            1668     946.748E-06     93.5817E-03     664.823E-03     460.829E-03        -1.43727    -104.658E-03    -739.040E-03     532.079E-03    -724.582E-03     110.093E-03    -54.8882E-03    -55.2058E-03    -55.1801E-03     110.083E-03    -54.9036E-03     2.39001E-03    -104.524E+06    -107.601E+06    -280.365E+06    -107.404E+06    -280.282E+06    -104.804E+06    -3.09638E+06         28.4215
            1669     1.89297E-03     93.5851E-03     415.932E-03     216.373E-03    -942.949E-03     226.924E-03    -753.941E-03     216.373E-03     191.838E-03     110.053E-03    -54.9776E-03    -55.0767E-03    -54.9457E-03     110.021E-03    -55.0767E-03     4.47417E-03    -94.2990E+06    -102.738E+06    -268.153E+06    -103.091E+06      -267.8E+06    -94.2990E+06    -7.15066E+06         28.5049
            1670     2.83987E-03     93.5910E-03     311.312E-03     218.914E-03    -833.009E-03     218.886E-03    -740.583E-03     218.914E-03    -120.295E-03     110.009E-03    -54.9389E-03    -55.0697E-03    -54.8740E-03     109.944E-03    -55.0697E-03     6.46864E-03    -80.8459E+06    -95.7510E+06    -246.790E+06    -96.7001E+06    -245.841E+06    -80.8459E+06    -11.4282E+06         28.6481
            1671     3.78657E-03     93.5993E-03     260.969E-03     218.922E-03    -775.158E-03     221.957E-03    -736.440E-03     219.215E-03     112.919E-03     110.063E-03    -54.9818E-03    -55.0791E-03    -54.8722E-03     109.953E-03    -55.0791E-03     8.44111E-03    -65.4001E+06    -87.2139E+06    -228.183E+06    -89.0186E+06    -226.378E+06    -65.4001E+06    -15.5823E+06         28.8518
            1672     4.73318E-03     93.6092E-03     245.023E-03     220.475E-03    -764.490E-03     233.186E-03    -752.946E-03     220.768E-03    -56.3645E-03     110.141E-03    -55.0289E-03    -55.1089E-03    -54.8652E-03     109.977E-03    -55.1089E-03     10.3529E-03    -50.6611E+06    -77.4951E+06    -211.855E+06    -80.3212E+06    -209.029E+06    -50.6611E+06    -18.9641E+06         29.1178
            1673     5.67977E-03     93.6210E-03     237.868E-03     222.879E-03    -767.291E-03     234.165E-03    -763.588E-03     222.879E-03     31.8386E-03     110.100E-03    -55.0010E-03    -55.1146E-03    -54.7861E-03     109.885E-03    -55.1146E-03     11.8865E-03    -39.0489E+06    -67.9555E+06    -197.423E+06    -71.8924E+06    -193.486E+06    -39.0489E+06    -22.0990E+06         29.4576
            1674     6.62652E-03     93.6342E-03     230.741E-03     219.718E-03    -759.589E-03     225.404E-03    -758.371E-03     223.836E-03    -65.2886E-03     109.958E-03    -54.8852E-03    -55.0957E-03    -54.6093E-03     109.682E-03    -55.0957E-03     13.4429E-03    -32.8563E+06    -59.8932E+06    -185.510E+06    -65.0682E+06    -180.335E+06    -32.8563E+06    -24.8147E+06         29.8843
            1675     7.57364E-03     93.6496E-03     222.571E-03     202.872E-03    -735.331E-03     202.215E-03    -734.674E-03     222.571E-03     2.64884E-03     109.840E-03    -54.8251E-03    -55.0319E-03    -54.4698E-03     109.485E-03    -55.0319E-03     15.2526E-03    -29.5265E+06    -52.0979E+06    -168.841E+06    -58.3162E+06    -162.622E+06    -29.5265E+06    -26.0894E+06         30.4058
            1676     8.52101E-03     93.6662E-03     219.776E-03     194.529E-03    -727.443E-03     194.165E-03    -727.079E-03     219.776E-03     25.5599E-03     109.925E-03    -54.9027E-03    -55.0503E-03    -54.5070E-03     109.461E-03    -54.9828E-03     17.4065E-03    -25.1889E+06    -44.8295E+06    -150.291E+06    -51.6047E+06    -143.516E+06    -25.1889E+06    -25.7316E+06         31.0353
            1677     9.46726E-03     93.6863E-03     221.043E-03     205.235E-03    -739.241E-03     208.104E-03    -738.864E-03     217.796E-03     26.5360E-03     109.965E-03    -54.9236E-03    -55.0813E-03    -54.4747E-03     109.389E-03    -54.9537E-03     19.4550E-03    -22.9425E+06    -38.4117E+06    -131.513E+06    -45.4540E+06    -124.471E+06    -22.9425E+06    -24.4952E+06         31.7918
            1678     10.4149E-03     93.7076E-03     223.823E-03     212.341E-03    -746.222E-03     218.291E-03    -745.665E-03     217.317E-03     45.0109E-03     109.849E-03    -54.8628E-03    -55.0479E-03    -54.2598E-03     109.091E-03    -54.8929E-03     22.2153E-03    -23.6473E+06    -32.5542E+06    -107.851E+06    -39.8162E+06    -100.589E+06    -23.6473E+06    -22.0372E+06         32.7049
            1679     11.3622E-03     93.7344E-03     231.445E-03     209.902E-03    -746.890E-03     223.185E-03    -746.270E-03     217.542E-03    -10.7774E-03     109.977E-03    -54.8032E-03    -55.2363E-03    -54.1262E-03     108.867E-03    -54.8032E-03     26.8644E-03    -22.4035E+06    -27.0271E+06    -73.0295E+06    -34.6387E+06    -64.0729E+06    -23.7485E+06    -17.5607E+06         33.7749
            1680     12.3091E-03     93.7649E-03     236.079E-03     212.484E-03    -748.954E-03     228.696E-03    -747.131E-03     218.042E-03     22.0109E-03     110.064E-03    -54.6757E-03    -55.4055E-03    -53.7460E-03     108.404E-03    -54.6757E-03     32.8037E-03     5.40823E+06    -22.2366E+06    -41.3001E+06    -30.4014E+06    -5.89720E+06    -21.8298E+06    -10.8019E+06         34.8823
            1681     13.2572E-03     93.8050E-03     228.607E-03     214.675E-03    -744.393E-03     222.708E-03    -742.173E-03     218.353E-03     11.7254E-03     110.402E-03    -54.4975E-03    -55.9163E-03    -53.2218E-03     107.708E-03    -54.4975E-03     41.6331E-03     95.8474E+06    -16.0600E+06    -27.5613E+06    -27.1502E+06     95.4363E+06    -16.0600E+06    -4.30798E+06         36.0148
            1682     14.2056E-03     93.8547E-03     220.969E-03     213.066E-03    -730.546E-03     214.914E-03    -729.533E-03     218.108E-03    -27.1397E-03     110.037E-03    -54.4770E-03    -55.6103E-03    -52.9357E-03     107.389E-03    -54.5036E-03     41.1330E-03     173.099E+06     26.8963E+06    -22.0165E+06    -21.9601E+06     173.043E+06     26.8963E+06    -128.075E+03         37.4974
            1683     15.1535E-03     93.8936E-03     217.248E-03     203.340E-03    -716.023E-03     203.072E-03    -715.755E-03     217.248E-03    -168.364E-06     111.416E-03    -54.7178E-03    -56.7326E-03    -52.7157E-03     107.426E-03    -54.7445E-03     49.3297E-03     189.833E+06     93.8382E+06    -14.0406E+06    -13.9905E+06     189.782E+06     93.8382E+06     1.84820E+06         39.6554
            1684     16.1016E-03     93.9631E-03     216.012E-03     199.156E-03    -714.095E-03     198.520E-03    -713.459E-03     216.012E-03     17.2230E-03     110.383E-03    -53.6217E-03    -56.7941E-03    -52.4803E-03     107.333E-03    -54.8855E-03     33.4882E-03     191.186E+06     128.289E+06    -6.48121E+06    -6.46158E+06     191.167E+06     128.289E+06     1.33785E+06         42.1338
            1685     946.398E-06     94.6971E-03     583.095E-03     413.046E-03        -1.30754    -81.0131E-03    -712.795E-03     482.406E-03    -624.695E-03     109.974E-03    -54.9115E-03    -55.0629E-03    -55.0437E-03     109.963E-03    -54.9199E-03     2.46755E-03    -104.975E+06    -107.661E+06    -272.026E+06    -107.313E+06    -271.886E+06    -105.462E+06    -4.31024E+06         28.4157
            1686     1.89337E-03     94.7005E-03     389.192E-03     201.464E-03    -888.027E-03     204.552E-03    -703.387E-03     201.464E-03     160.595E-03     110.042E-03    -55.0062E-03    -55.0366E-03    -54.9790E-03     110.010E-03    -55.0314E-03     4.50288E-03    -94.6258E+06    -102.440E+06    -258.042E+06    -103.003E+06    -257.479E+06    -94.6258E+06    -8.73443E+06         28.5002
            1687     2.83969E-03     94.7063E-03     346.850E-03     209.728E-03    -847.997E-03     254.815E-03    -755.961E-03     209.728E-03    -86.1986E-03     110.027E-03    -54.9716E-03    -55.0539E-03    -54.9036E-03     109.959E-03    -55.0539E-03     6.60809E-03    -81.1058E+06    -95.6983E+06    -237.343E+06    -97.0413E+06    -236.000E+06    -81.1058E+06    -13.3982E+06         28.6425
            1688     3.78641E-03     94.7145E-03     268.001E-03     217.461E-03    -773.931E-03     223.409E-03    -729.796E-03     217.917E-03     137.646E-03     110.019E-03    -54.9497E-03    -55.0686E-03    -54.8352E-03     109.904E-03    -55.0686E-03     8.63377E-03    -65.8093E+06    -87.4073E+06    -219.284E+06    -89.9027E+06    -216.789E+06    -65.8093E+06    -17.7028E+06         28.8446
            1689     4.73314E-03     94.7244E-03     219.802E-03     215.825E-03    -723.410E-03     205.471E-03    -710.648E-03     217.395E-03    -63.2998E-03     110.057E-03    -54.9688E-03    -55.0879E-03    -54.8000E-03     109.888E-03    -55.0879E-03     10.5064E-03    -52.0878E+06    -78.1856E+06    -204.101E+06    -82.2312E+06    -200.055E+06    -52.0878E+06    -21.9344E+06         29.1100
            1690     5.67991E-03     94.7369E-03     223.253E-03     208.669E-03    -723.302E-03     212.713E-03    -719.981E-03     215.888E-03     33.7327E-03     110.011E-03    -54.9392E-03    -55.0866E-03    -54.7158E-03     109.787E-03    -55.0866E-03     12.1119E-03    -40.8521E+06    -68.3994E+06    -191.367E+06    -73.8617E+06    -185.905E+06    -40.8521E+06    -25.1098E+06         29.4512
            1691     6.62665E-03     94.7497E-03     220.007E-03     204.516E-03    -716.664E-03     208.381E-03    -715.570E-03     215.049E-03    -60.2519E-03     109.945E-03    -54.8949E-03    -55.0731E-03    -54.6131E-03     109.663E-03    -55.0731E-03     13.5919E-03    -33.1396E+06    -58.8149E+06    -179.999E+06    -65.6259E+06    -173.188E+06    -33.1396E+06    -27.6662E+06         29.8802
            1692     7.57376E-03     94.7645E-03     217.446E-03     203.365E-03    -714.202E-03     206.164E-03    -713.508E-03     213.953E-03     529.083E-06     109.887E-03    -54.8786E-03    -55.0277E-03    -54.5345E-03     109.530E-03    -55.0149E-03     15.2914E-03    -30.6001E+06    -50.5266E+06    -165.544E+06    -58.7672E+06    -157.303E+06    -30.6001E+06    -29.5308E+06         30.4034
            1693     8.52051E-03     94.7815E-03     221.285E-03     206.981E-03    -721.721E-03     214.101E-03    -720.937E-03     213.380E-03     3.77608E-03     109.964E-03    -54.9301E-03    -55.0597E-03    -54.5536E-03     109.497E-03    -54.9700E-03     17.4672E-03    -27.6209E+06    -43.2051E+06    -150.268E+06    -52.5528E+06    -140.920E+06    -27.6209E+06    -30.0839E+06         31.0338
            1694     9.46784E-03     94.8018E-03     222.633E-03     213.480E-03    -733.685E-03     221.818E-03    -733.110E-03     213.720E-03    -10.2506E-03     110.042E-03    -54.9476E-03    -55.1348E-03    -54.5604E-03     109.468E-03    -54.9476E-03     19.4334E-03    -25.2516E+06    -36.3431E+06    -133.012E+06    -46.2765E+06    -123.078E+06    -25.2516E+06    -29.2464E+06         31.7909
            1695     10.4143E-03     94.8230E-03     218.948E-03     212.056E-03    -728.974E-03     216.667E-03    -728.774E-03     214.137E-03     20.4817E-03     109.931E-03    -54.8961E-03    -55.0989E-03    -54.3487E-03     109.181E-03    -54.8961E-03     22.1105E-03    -25.2180E+06    -30.6057E+06    -111.525E+06    -40.1796E+06    -101.256E+06    -25.9131E+06    -26.9203E+06         32.7025
            1696     11.3617E-03     94.8487E-03     213.790E-03     198.010E-03    -704.829E-03     197.856E-03    -704.365E-03     213.480E-03    -17.5171E-03     109.841E-03    -54.8061E-03    -55.0984E-03    -53.9885E-03     108.731E-03    -54.8061E-03     26.8263E-03    -22.3703E+06    -27.8830E+06    -80.7065E+06    -34.9610E+06    -68.9313E+06    -27.0674E+06    -22.5728E+06         33.7691
            1697     12.3095E-03     94.8811E-03     213.914E-03     190.923E-03    -699.058E-03     191.656E-03    -697.763E-03     211.885E-03     13.4357E-03     109.852E-03    -54.6640E-03    -55.2039E-03    -53.5655E-03     108.214E-03    -54.6640E-03     32.5798E-03     1.19823E+06    -26.2231E+06    -46.3761E+06    -29.9436E+06    -15.2343E+06    -26.2231E+06    -15.2197E+06         34.8758
            1698     13.2572E-03     94.9182E-03     219.995E-03     203.281E-03    -716.171E-03     210.859E-03    -714.610E-03     210.855E-03     6.08194E-03     110.527E-03    -54.4747E-03    -56.0557E-03    -53.3574E-03     107.829E-03    -54.4747E-03     41.6446E-03     89.7495E+06    -20.3062E+06    -26.7861E+06    -25.3234E+06     88.2868E+06    -20.3062E+06    -7.36998E+06         36.0093
            1699     14.2052E-03     94.9710E-03     219.147E-03     209.415E-03    -719.498E-03     216.861E-03    -718.549E-03     210.753E-03    -18.6752E-03     110.158E-03    -54.3607E-03    -55.8368E-03    -53.0794E-03     107.556E-03    -54.5165E-03     40.6651E-03     170.020E+06     25.2247E+06    -22.2338E+06    -22.1820E+06     169.968E+06     25.2247E+06    -2.75064E+06         37.4903
            1700     15.1530E-03     95.0078E-03     211.837E-03     203.713E-03    -709.781E-03     204.754E-03    -709.454E-03     210.469E-03     14.1094E-03     111.230E-03    -54.6108E-03    -56.6562E-03    -52.5412E-03     107.270E-03    -54.7666E-03     48.7878E-03     187.624E+06     93.3252E+06    -16.9652E+06    -16.9421E+06     187.601E+06     93.3252E+06     334.435E+03         39.6467
            1701     16.1019E-03     95.0779E-03     213.951E-03     204.448E-03    -715.386E-03     207.913E-03    -714.875E-03     209.976E-03     17.9190E-03     110.175E-03    -53.5210E-03    -56.6886E-03    -52.2377E-03     107.082E-03    -54.8785E-03     33.6062E-03     191.748E+06     128.216E+06    -8.61978E+06    -8.59825E+06     191.727E+06     128.216E+06     1.59888E+06         42.1267
            1702     946.848E-06     95.8118E-03     533.177E-03     369.306E-03        -1.20175    -24.8121E-03    -656.918E-03     382.464E-03    -575.852E-03     109.856E-03    -54.8090E-03    -55.0493E-03    -55.0375E-03     109.845E-03    -54.8090E-03     2.57738E-03    -105.663E+06    -107.715E+06    -261.320E+06    -107.528E+06    -260.995E+06    -106.176E+06    -6.63075E+06         28.4072
            1703     1.89309E-03     95.8158E-03     399.174E-03     185.666E-03    -876.608E-03     213.372E-03    -690.806E-03     185.666E-03     58.5157E-03     109.933E-03    -54.9497E-03    -54.9840E-03    -54.9250E-03     109.898E-03    -54.9741E-03     4.66574E-03    -94.5471E+06    -101.737E+06    -247.268E+06    -102.572E+06    -246.432E+06    -94.5471E+06    -10.5802E+06         28.4913
            1704     2.83993E-03     95.8217E-03     349.388E-03     198.181E-03    -827.334E-03     232.397E-03    -710.343E-03     198.181E-03    -145.130E-03     109.954E-03    -54.9480E-03    -55.0083E-03    -54.8764E-03     109.882E-03    -55.0083E-03     6.78462E-03    -79.8977E+06    -94.2477E+06    -226.859E+06    -96.1453E+06    -224.961E+06    -79.8977E+06    -15.2623E+06         28.6336
            1705     3.78662E-03     95.8296E-03     277.993E-03     206.027E-03    -763.443E-03     225.921E-03    -711.534E-03     206.190E-03     105.237E-03     109.970E-03    -54.9427E-03    -55.0299E-03    -54.8201E-03     109.847E-03    -55.0299E-03     8.92591E-03    -64.3972E+06    -85.3006E+06    -209.576E+06    -88.5013E+06    -206.376E+06    -64.3972E+06    -19.5049E+06         28.8363
            1706     4.73319E-03     95.8400E-03     229.279E-03     207.509E-03    -716.578E-03     211.686E-03    -700.262E-03     208.786E-03    -117.097E-03     109.967E-03    -54.9164E-03    -55.0501E-03    -54.7427E-03     109.793E-03    -55.0501E-03     10.6752E-03    -50.8760E+06    -75.9637E+06    -195.088E+06    -81.0111E+06    -190.040E+06    -50.8760E+06    -23.6905E+06         29.1024
            1707     5.68010E-03     95.8516E-03     208.077E-03     196.928E-03    -688.368E-03     195.097E-03    -686.344E-03     207.883E-03     22.1174E-03     109.908E-03    -54.8792E-03    -55.0447E-03    -54.6536E-03     109.682E-03    -55.0447E-03     12.1590E-03    -40.7072E+06    -66.8238E+06    -184.197E+06    -73.9625E+06    -177.058E+06    -40.7072E+06    -27.9761E+06         29.4448
            1708     6.62711E-03     95.8653E-03     205.735E-03     193.072E-03    -684.472E-03     192.167E-03    -683.567E-03     205.735E-03    -54.4767E-03     109.981E-03    -54.9432E-03    -55.0588E-03    -54.6822E-03     109.700E-03    -55.0383E-03     13.5992E-03    -33.2602E+06    -57.7775E+06    -174.531E+06    -66.7164E+06    -165.592E+06    -33.2602E+06    -30.8813E+06         29.8768
            1709     7.57363E-03     95.8799E-03     214.111E-03     202.184E-03    -699.250E-03     210.678E-03    -698.640E-03     205.006E-03    -4.80134E-03     110.056E-03    -54.9896E-03    -55.0785E-03    -54.7073E-03     109.697E-03    -55.0015E-03     15.3477E-03    -30.4410E+06    -48.6351E+06    -161.000E+06    -59.4918E+06    -150.143E+06    -30.4410E+06    -33.0253E+06         30.4022
            1710     8.52066E-03     95.8974E-03     225.712E-03     206.279E-03    -714.353E-03     224.949E-03    -713.590E-03     206.279E-03    -9.28035E-03     110.025E-03    -54.9687E-03    -55.0753E-03    -54.6016E-03     109.551E-03    -54.9687E-03     17.6199E-03    -28.6946E+06    -40.1749E+06    -149.122E+06    -52.6271E+06    -136.670E+06    -28.6946E+06    -34.5505E+06         31.0317
            1711     9.46710E-03     95.9169E-03     218.982E-03     200.679E-03    -704.886E-03     211.652E-03    -704.277E-03     207.400E-03    -22.1076E-03     109.992E-03    -54.9419E-03    -55.0872E-03    -54.5039E-03     109.409E-03    -54.9419E-03     19.5739E-03    -26.8563E+06    -32.9403E+06    -134.687E+06    -46.1845E+06    -121.225E+06    -27.0742E+06    -34.4084E+06         31.7870
            1712     10.4148E-03     95.9387E-03     208.724E-03     199.522E-03    -693.744E-03     200.768E-03    -693.426E-03     207.159E-03    -4.80968E-03     109.901E-03    -54.8864E-03    -55.0719E-03    -54.3195E-03     109.149E-03    -54.8867E-03     22.1527E-03    -24.8666E+06    -29.2434E+06    -115.734E+06    -40.1359E+06    -101.760E+06    -27.9484E+06    -32.3943E+06         32.6985
            1713     11.3614E-03     95.9639E-03     211.037E-03     197.720E-03    -692.763E-03     201.734E-03    -692.206E-03     206.465E-03    -36.0770E-03     109.819E-03    -54.7970E-03    -55.0740E-03    -53.9536E-03     108.699E-03    -54.7972E-03     26.9227E-03    -19.2550E+06    -29.4385E+06    -88.0818E+06    -34.2831E+06    -73.0537E+06    -29.4385E+06    -28.0391E+06         33.7661
            1714     12.3095E-03     95.9951E-03     209.767E-03     187.938E-03    -682.437E-03     191.233E-03    -681.471E-03     205.505E-03     8.89178E-03     110.048E-03    -54.6626E-03    -55.4011E-03    -53.7829E-03     108.430E-03    -54.6626E-03     32.4652E-03     997.091E+03    -29.1356E+06    -52.1422E+06    -28.4103E+06    -22.7348E+06    -29.1356E+06    -21.5431E+06         34.8763
            1715     13.2574E-03     96.0335E-03     208.531E-03     188.386E-03    -681.923E-03     191.549E-03    -680.836E-03     204.280E-03     5.16143E-03     110.680E-03    -54.4917E-03    -56.2050E-03    -53.5323E-03     108.008E-03    -54.4917E-03     41.4145E-03     81.2303E+06    -23.9940E+06    -27.7180E+06    -23.7647E+06     77.2770E+06    -23.9940E+06    -11.4022E+06         36.0105
            1716     14.2043E-03     96.0867E-03     210.921E-03     197.434E-03    -692.921E-03     204.033E-03    -692.189E-03     203.590E-03    -7.47567E-03     109.964E-03    -54.2794E-03    -55.7220E-03    -52.8217E-03     107.345E-03    -54.5603E-03     40.7538E-03     164.119E+06     25.1634E+06    -21.0574E+06    -20.9605E+06     164.022E+06     25.1634E+06    -1.69042E+06         37.4853
            1717     15.1533E-03     96.1215E-03     215.934E-03     203.678E-03    -702.573E-03     215.359E-03    -701.998E-03     203.678E-03     8.16447E-03     111.030E-03    -54.5127E-03    -56.5517E-03    -52.2971E-03     107.056E-03    -54.7935E-03     48.8377E-03     186.792E+06     94.2446E+06    -17.2807E+06    -17.2580E+06     186.770E+06     94.2446E+06     642.084E+03         39.6364
            1718     16.1023E-03     96.1928E-03     217.197E-03     203.743E-03    -699.564E-03     216.016E-03    -698.771E-03     204.131E-03     7.63763E-03     109.994E-03    -53.4132E-03    -56.6285E-03    -52.0714E-03     106.894E-03    -54.8703E-03     33.5995E-03     191.330E+06     127.372E+06    -9.74047E+06    -9.73538E+06     191.325E+06     127.372E+06    -131.455E+03         42.1161
            1719     946.479E-06     96.9270E-03     522.695E-03     362.971E-03        -1.17394     16.0743E-03    -667.320E-03     362.971E-03    -504.350E-03     109.784E-03    -54.6735E-03    -55.1110E-03    -55.0673E-03     109.772E-03    -54.7054E-03     2.59235E-03    -99.7989E+06    -102.220E+06    -247.233E+06    -102.650E+06    -246.778E+06    -99.8242E+06    -7.80685E+06         28.3970
            1720     1.89350E-03     96.9304E-03     365.126E-03     191.506E-03    -840.525E-03     198.556E-03    -673.955E-03     191.506E-03     151.431E-03     109.769E-03    -54.8421E-03    -54.9271E-03    -54.8108E-03     109.733E-03    -54.9223E-03     4.74223E-03    -90.1933E+06    -97.1536E+06    -235.591E+06    -98.3543E+06    -234.390E+06    -90.1933E+06    -12.3994E+06         28.4804
            1721     2.84010E-03     96.9368E-03     276.303E-03     191.167E-03    -741.877E-03     178.168E-03    -643.741E-03     191.167E-03    -78.8619E-03     109.822E-03    -54.8786E-03    -54.9488E-03    -54.8178E-03     109.745E-03    -54.9334E-03     6.99012E-03    -76.7576E+06    -89.5062E+06    -215.372E+06    -92.0814E+06    -212.797E+06    -76.7576E+06    -17.3906E+06         28.6227
            1722     3.78673E-03     96.9452E-03     255.823E-03     191.076E-03    -716.324E-03     207.912E-03    -668.412E-03     191.076E-03     118.564E-03     109.873E-03    -54.9036E-03    -54.9774E-03    -54.7934E-03     109.747E-03    -54.9620E-03     9.04316E-03    -61.6549E+06    -80.6143E+06    -199.992E+06    -84.8356E+06    -195.771E+06    -61.6549E+06    -21.8618E+06         28.8269
            1723     4.73369E-03     96.9553E-03     230.599E-03     195.337E-03    -695.916E-03     217.867E-03    -683.184E-03     195.337E-03    -80.1739E-03     109.904E-03    -54.9116E-03    -54.9936E-03    -54.7342E-03     109.726E-03    -54.9936E-03     10.7780E-03    -47.6484E+06    -70.5489E+06    -185.619E+06    -76.6461E+06    -179.522E+06    -47.6484E+06    -25.5214E+06         29.0950
            1724     5.68025E-03     96.9673E-03     205.349E-03     193.832E-03    -672.799E-03     198.732E-03    -669.918E-03     197.569E-03     25.5735E-03     109.950E-03    -54.9400E-03    -55.0250E-03    -54.7301E-03     109.721E-03    -55.0062E-03     12.2538E-03    -36.9662E+06    -62.0583E+06    -175.157E+06    -69.9638E+06    -167.252E+06    -36.9662E+06    -28.8098E+06         29.4392
            1725     6.62696E-03     96.9802E-03     204.913E-03     193.139E-03    -669.767E-03     199.418E-03    -668.820E-03     197.686E-03    -44.5648E-03     110.046E-03    -54.9789E-03    -55.0854E-03    -54.7599E-03     109.756E-03    -55.0149E-03     13.7859E-03    -30.6307E+06    -53.7848E+06    -167.088E+06    -64.4358E+06    -156.437E+06    -30.6307E+06    -32.7968E+06         29.8723
            1726     7.57388E-03     96.9957E-03     206.899E-03     197.385E-03    -670.863E-03     205.721E-03    -670.497E-03     198.196E-03    -5.80182E-03     110.085E-03    -54.9861E-03    -55.1069E-03    -54.7417E-03     109.720E-03    -54.9861E-03     15.4910E-03    -28.9492E+06    -44.4361E+06    -155.580E+06    -58.3712E+06    -141.645E+06    -28.9492E+06    -36.6871E+06         30.3983
            1727     8.52029E-03     97.0123E-03     213.296E-03     199.327E-03    -678.726E-03     212.966E-03    -678.397E-03     199.327E-03    -15.8773E-03     110.036E-03    -54.9583E-03    -55.0941E-03    -54.6102E-03     109.552E-03    -54.9583E-03     17.7928E-03    -28.0843E+06    -35.8792E+06    -146.757E+06    -51.9445E+06    -130.691E+06    -28.0843E+06    -38.9173E+06         31.0274
            1728     9.46787E-03     97.0324E-03     209.031E-03     193.320E-03    -673.441E-03     201.679E-03    -672.812E-03     200.042E-03     3.74452E-03     109.941E-03    -54.9253E-03    -55.0496E-03    -54.4491E-03     109.340E-03    -54.9253E-03     19.8612E-03    -26.5170E+06    -30.2243E+06    -135.787E+06    -45.9281E+06    -118.583E+06    -28.0172E+06    -39.2488E+06         31.7818
            1729     10.4141E-03     97.0537E-03     200.943E-03     186.678E-03    -661.649E-03     187.488E-03    -660.961E-03     199.444E-03     17.3336E-03     109.787E-03    -54.8644E-03    -54.9743E-03    -54.2222E-03     109.035E-03    -54.8647E-03     22.1435E-03    -22.4111E+06    -29.4088E+06    -119.768E+06    -40.3887E+06    -101.790E+06    -29.4088E+06    -37.6701E+06         32.6952
            1730     11.3625E-03     97.0785E-03     202.762E-03     188.953E-03    -666.471E-03     192.732E-03    -665.987E-03     198.500E-03    -24.8053E-03     110.045E-03    -54.7851E-03    -55.3093E-03    -54.1986E-03     108.935E-03    -54.7853E-03     26.8466E-03    -14.9319E+06    -31.1534E+06    -95.5738E+06    -34.6008E+06    -75.9050E+06    -31.1534E+06    -34.3250E+06         33.7668
            1731     12.3092E-03     97.1103E-03     207.608E-03     192.507E-03    -677.389E-03     201.566E-03    -677.012E-03     198.172E-03    -1.44588E-03     110.427E-03    -54.6775E-03    -55.7752E-03    -54.1464E-03     108.798E-03    -54.6775E-03     32.6239E-03     1.29527E+06    -32.0351E+06    -61.1918E+06    -29.8187E+06    -30.0779E+06    -32.0351E+06    -27.6204E+06         34.8800
            1732     13.2555E-03     97.1493E-03     202.996E-03     187.205E-03    -664.586E-03     191.875E-03    -664.082E-03     197.823E-03    -2.30915E-03     110.434E-03    -54.5106E-03    -55.9451E-03    -53.2907E-03     107.779E-03    -54.5106E-03     41.2470E-03     68.9885E+06    -28.4024E+06    -33.8429E+06    -26.3964E+06     62.1749E+06    -29.0353E+06    -15.7763E+06         36.0131
            1733     14.2055E-03     97.1994E-03     198.801E-03     185.426E-03    -651.674E-03     186.899E-03    -651.350E-03     197.004E-03    -14.4673E-03     109.584E-03    -54.2722E-03    -55.3363E-03    -52.4408E-03     106.944E-03    -54.5276E-03     40.9342E-03     154.503E+06     17.4140E+06    -22.0392E+06    -21.1078E+06     154.204E+06     16.7811E+06    -3.63092E+06         37.4807
            1734     15.1537E-03     97.2379E-03     208.819E-03     193.509E-03    -669.776E-03     205.296E-03    -669.377E-03     196.633E-03    -21.8084E-03     110.924E-03    -54.5002E-03    -56.4533E-03    -52.2911E-03     107.018E-03    -54.7556E-03     48.7110E-03     188.369E+06     89.5098E+06    -13.5083E+06    -13.4833E+06     188.344E+06     89.5098E+06     601.426E+03         39.6265
            1735     16.1023E-03     97.3053E-03     207.125E-03     191.940E-03    -667.403E-03     201.381E-03    -666.455E-03     196.736E-03     1.73105E-03     109.802E-03    -53.3125E-03    -56.5592E-03    -52.0272E-03     106.819E-03    -54.8616E-03     33.3362E-03     191.773E+06     127.916E+06    -6.24422E+06    -6.23912E+06     191.768E+06     127.916E+06    -75.5990E+03         42.1063
            1736     946.783E-06     98.0420E-03     438.637E-03     357.038E-03        -1.08700     44.2934E-03    -720.301E-03     384.679E-03    -482.388E-03     109.625E-03    -54.6031E-03    -55.0208E-03    -54.9762E-03     109.613E-03    -54.6350E-03     2.77800E-03    -91.2920E+06    -94.3581E+06    -231.499E+06    -94.8135E+06    -231.043E+06    -91.2920E+06    -7.03315E+06         28.3842
            1737     1.89334E-03     98.0455E-03     284.744E-03     204.903E-03    -759.578E-03     166.537E-03    -641.372E-03     204.903E-03     111.895E-03     109.679E-03    -54.7851E-03    -54.8956E-03    -54.7887E-03     109.642E-03    -54.8550E-03     4.77287E-03    -82.5139E+06    -89.6377E+06    -221.804E+06    -91.0767E+06    -220.365E+06    -82.5139E+06    -13.2599E+06         28.4692
            1738     2.84038E-03     98.0520E-03     229.909E-03     190.936E-03    -684.297E-03     164.929E-03    -619.317E-03     190.936E-03    -73.0890E-03     109.672E-03    -54.7995E-03    -54.8796E-03    -54.7357E-03     109.593E-03    -54.8643E-03     7.12305E-03    -71.3194E+06    -82.8199E+06    -202.935E+06    -85.9040E+06    -199.851E+06    -71.3194E+06    -18.6088E+06         28.6117
            1739     3.78710E-03     98.0602E-03     210.914E-03     185.694E-03    -658.816E-03     178.661E-03    -626.563E-03     185.694E-03     77.5209E-03     109.727E-03    -54.8322E-03    -54.9034E-03    -54.7194E-03     109.599E-03    -54.8881E-03     9.13676E-03    -57.2675E+06    -74.7616E+06    -188.968E+06    -79.9271E+06    -183.803E+06    -57.2675E+06    -23.5632E+06         28.8165
            1740     4.73375E-03     98.0703E-03     213.769E-03     186.378E-03    -660.357E-03     202.478E-03    -649.066E-03     186.378E-03    -45.9480E-03     109.829E-03    -54.8901E-03    -54.9392E-03    -54.7208E-03     109.644E-03    -54.9240E-03     10.9736E-03    -44.7408E+06    -66.1612E+06    -176.990E+06    -73.5188E+06    -169.633E+06    -44.7408E+06    -27.4048E+06         29.0860
            1741     5.68068E-03     98.0823E-03     211.394E-03     189.474E-03    -659.718E-03     208.050E-03    -656.374E-03     189.474E-03     48.5237E-03     109.964E-03    -54.9469E-03    -55.0275E-03    -54.7837E-03     109.725E-03    -54.9517E-03     12.5335E-03    -33.7142E+06    -56.6489E+06    -167.111E+06    -65.9447E+06    -157.815E+06    -33.7142E+06    -30.5732E+06         29.4315
            1742     6.62732E-03     98.0958E-03     207.310E-03     192.027E-03    -657.306E-03     206.902E-03    -656.898E-03     192.027E-03    -25.0670E-03     110.074E-03    -54.9801E-03    -55.1106E-03    -54.8076E-03     109.771E-03    -54.9801E-03     14.1031E-03    -25.3986E+06    -46.4533E+06    -157.657E+06    -58.3069E+06    -145.803E+06    -25.3986E+06    -34.1263E+06         29.8649
            1743     7.57382E-03     98.1112E-03     200.712E-03     190.335E-03    -647.219E-03     197.453E-03    -646.917E-03     193.291E-03     8.54486E-03     110.064E-03    -54.9594E-03    -55.1125E-03    -54.7358E-03     109.688E-03    -54.9594E-03     15.7429E-03     -24.201E+06    -37.7434E+06    -147.634E+06    -53.3367E+06    -132.040E+06     -24.201E+06    -38.2483E+06         30.3917
            1744     8.52103E-03     98.1279E-03     195.448E-03     182.770E-03    -633.598E-03     184.697E-03    -633.085E-03     193.007E-03    -10.9237E-03     109.998E-03    -54.9324E-03    -55.0823E-03    -54.5928E-03     109.508E-03    -54.9324E-03     17.8907E-03    -24.9860E+06    -30.8910E+06    -141.935E+06    -49.7442E+06    -123.081E+06    -24.9860E+06    -41.6362E+06         31.0224
            1745     9.46741E-03     98.1478E-03     198.968E-03     185.076E-03    -641.703E-03     191.103E-03    -641.119E-03     192.357E-03    -6.26976E-03     109.879E-03    -54.8987E-03    -55.0109E-03    -54.4046E-03     109.272E-03    -54.8987E-03     19.9507E-03    -23.0851E+06    -27.7628E+06    -134.590E+06    -45.4102E+06    -113.797E+06    -26.2306E+06    -42.9911E+06         31.7785
            1746     10.4154E-03     98.1689E-03     205.076E-03     187.334E-03    -653.557E-03     199.484E-03    -653.094E-03     192.464E-03     13.2841E-03     110.030E-03    -54.8457E-03    -55.2266E-03    -54.4733E-03     109.276E-03    -54.8457E-03     22.2050E-03    -17.9692E+06    -28.9199E+06    -122.073E+06    -40.4464E+06    -99.5960E+06    -28.9199E+06    -42.7002E+06         32.6937
            1747     11.3616E-03     98.1934E-03     199.998E-03     179.791E-03    -645.113E-03     187.119E-03    -644.865E-03     192.422E-03    -3.56792E-03     110.309E-03    -54.7904E-03    -55.5631E-03    -54.4579E-03     109.204E-03    -54.7904E-03     26.8245E-03    -11.1141E+06    -31.5200E+06    -101.834E+06    -35.6144E+06    -77.3337E+06    -31.5200E+06    -40.0889E+06         33.7654
            1748     12.3084E-03     98.2267E-03     196.832E-03     176.882E-03    -639.004E-03     181.326E-03    -638.275E-03     191.658E-03     23.1796E-03     110.116E-03    -54.6835E-03    -55.4524E-03    -53.8065E-03     108.470E-03    -54.6835E-03     32.7070E-03     414.686E+03      -34.61E+06    -70.6031E+06    -31.0246E+06    -39.1637E+06      -34.61E+06    -33.2816E+06         34.8783
            1749     13.2575E-03     98.2630E-03     198.233E-03     181.368E-03    -638.986E-03     188.012E-03    -638.339E-03     190.942E-03     24.4735E-03     110.395E-03    -54.4965E-03    -55.9167E-03    -53.2529E-03     107.731E-03    -54.4965E-03     41.3759E-03     57.1370E+06    -30.5853E+06    -41.2673E+06    -26.1822E+06     45.2588E+06    -33.7922E+06    -20.6310E+06         36.0109
            1750     14.2045E-03     98.3139E-03     193.701E-03     185.062E-03    -637.229E-03     187.784E-03    -636.733E-03     190.483E-03    -20.2617E-03     109.733E-03    -54.1868E-03    -55.5751E-03    -52.6693E-03     107.127E-03    -54.4864E-03     40.7068E-03     144.091E+06     11.0372E+06    -25.9660E+06    -22.0948E+06     143.427E+06     7.83034E+06    -7.24542E+06         37.4730
            1751     15.1538E-03     98.3518E-03     192.052E-03     173.745E-03    -630.096E-03     175.536E-03    -629.490E-03     189.654E-03    -27.5677E-03     110.569E-03    -54.4086E-03    -56.2059E-03    -52.0191E-03     106.682E-03    -54.7082E-03     48.4127E-03     187.543E+06     80.0472E+06    -16.7956E+06    -16.7811E+06     187.528E+06     80.0472E+06    -1.28680E+06         39.6136
            1752     16.1028E-03     98.4201E-03     189.713E-03     170.181E-03    -635.933E-03     171.063E-03    -635.519E-03     188.416E-03     12.6109E-03     109.401E-03    -53.1751E-03    -56.3268E-03    -51.6892E-03     106.418E-03    -54.8292E-03     33.1437E-03     191.565E+06     124.838E+06    -8.55343E+06    -8.54490E+06     191.556E+06     124.838E+06    -118.849E+03         42.0938
            1753     947.034E-06     99.1569E-03     372.645E-03     270.079E-03    -910.271E-03     35.6061E-03    -627.318E-03     324.165E-03    -370.801E-03     109.339E-03    -54.5582E-03    -54.7805E-03    -54.7661E-03     109.325E-03    -54.5582E-03     2.92715E-03    -83.9854E+06    -87.3774E+06    -216.589E+06    -87.4947E+06    -216.200E+06    -84.2568E+06    -6.11127E+06         28.3682
            1754     1.89376E-03     99.1608E-03     267.126E-03     180.613E-03    -707.262E-03     184.088E-03    -624.224E-03     180.613E-03     75.0054E-03     109.580E-03    -54.7357E-03    -54.8474E-03    -54.7988E-03     109.541E-03    -54.7448E-03     4.96487E-03    -73.8160E+06    -81.8705E+06    -206.350E+06    -83.5062E+06    -204.715E+06    -73.8160E+06    -13.3942E+06         28.4555
            1755     2.84034E-03     99.1667E-03     233.408E-03     182.016E-03    -668.978E-03     185.812E-03    -621.383E-03     182.016E-03    -62.2365E-03     109.570E-03    -54.7266E-03    -54.8504E-03    -54.6999E-03     109.489E-03    -54.7961E-03     7.20590E-03    -62.4492E+06    -74.1994E+06    -189.571E+06    -77.7990E+06    -185.971E+06    -62.4492E+06    -19.6992E+06         28.5999
            1756     3.78739E-03     99.1754E-03     201.069E-03     181.843E-03    -635.532E-03     175.811E-03    -610.274E-03     181.843E-03     54.4522E-03     109.553E-03    -54.7365E-03    -54.8230E-03    -54.6045E-03     109.421E-03    -54.8230E-03     9.26442E-03    -49.1498E+06    -66.8208E+06    -177.858E+06    -72.1656E+06    -172.513E+06    -49.1498E+06    -23.7039E+06         28.8062
            1757     4.73437E-03     99.1857E-03     200.337E-03     181.883E-03    -632.867E-03     190.142E-03    -622.672E-03     181.883E-03    -54.1183E-03     109.744E-03    -54.8309E-03    -54.9128E-03    -54.6944E-03     109.552E-03    -54.8570E-03     11.2033E-03    -37.3814E+06    -58.6148E+06    -166.422E+06    -66.5629E+06    -158.474E+06    -37.3814E+06    -27.8398E+06         29.0758
            1758     5.68097E-03     99.1978E-03     202.915E-03     184.049E-03    -637.513E-03     200.707E-03    -635.306E-03     184.049E-03     45.2847E-03     109.916E-03    -54.8869E-03    -55.0357E-03    -54.7843E-03     109.665E-03    -54.8869E-03     12.8508E-03    -28.5295E+06    -48.9257E+06    -157.707E+06    -60.2644E+06    -146.369E+06    -28.5295E+06    -33.1533E+06         29.4195
            1759     6.62766E-03     99.2116E-03     197.953E-03     186.148E-03    -632.381E-03     197.263E-03    -631.691E-03     186.148E-03    -40.2181E-03     110.007E-03    -54.9223E-03    -55.1001E-03    -54.7894E-03     109.696E-03    -54.9223E-03     14.2890E-03    -20.7406E+06    -39.2989E+06    -150.564E+06    -53.2776E+06    -136.586E+06    -20.7406E+06    -36.7277E+06         29.8516
            1760     7.57460E-03     99.2267E-03     194.531E-03     184.099E-03    -623.179E-03     190.596E-03    -622.200E-03     187.055E-03    -981.197E-06     110.024E-03    -54.9181E-03    -55.1168E-03    -54.7318E-03     109.640E-03    -54.9181E-03     15.9042E-03    -17.2022E+06    -30.6567E+06    -139.116E+06    -47.1164E+06    -122.657E+06    -17.2022E+06    -38.8248E+06         30.3798
            1761     8.52091E-03     99.2437E-03     188.345E-03     171.449E-03    -603.468E-03     172.610E-03    -602.679E-03     186.394E-03     1.79481E-03     110.006E-03    -54.9006E-03    -55.1195E-03    -54.6291E-03     109.516E-03    -54.9006E-03     17.9264E-03    -17.4978E+06    -24.0848E+06    -133.550E+06    -43.4408E+06    -114.194E+06    -17.4978E+06    -41.7259E+06         31.0153
            1762     9.46856E-03     99.2627E-03     188.356E-03     167.946E-03    -600.043E-03     171.095E-03    -599.654E-03     184.818E-03    -26.2773E-03     110.038E-03    -54.8729E-03    -55.1862E-03    -54.5841E-03     109.436E-03    -54.8729E-03     19.8950E-03    -16.5347E+06    -22.6543E+06    -129.455E+06    -40.9895E+06    -106.642E+06    -21.0123E+06    -44.8656E+06         31.7746
            1763     10.4149E-03     99.2841E-03     201.895E-03     179.650E-03    -630.150E-03     196.798E-03    -629.936E-03     184.533E-03    -21.5061E-03     110.267E-03    -54.8385E-03    -55.4633E-03    -54.6821E-03     109.486E-03    -54.8385E-03     22.6166E-03    -12.2887E+06    -26.0445E+06    -121.256E+06    -38.1304E+06    -95.4144E+06    -26.0445E+06    -46.2972E+06         32.6876
            1764     11.3614E-03     99.3104E-03     204.220E-03     181.494E-03    -638.087E-03     199.945E-03    -637.811E-03     185.495E-03    -19.0335E-03     110.186E-03    -54.7854E-03    -55.4402E-03    -54.3261E-03     109.071E-03    -54.7854E-03     26.9537E-03    -6.35426E+06    -30.4646E+06    -105.850E+06    -34.5840E+06    -77.6202E+06    -30.4646E+06    -44.7124E+06         33.7560
            1765     12.3095E-03     99.3396E-03     190.257E-03     167.678E-03    -608.303E-03     171.858E-03    -607.581E-03     185.355E-03     16.0017E-03     109.952E-03    -54.6694E-03    -55.2940E-03    -53.6722E-03     108.330E-03    -54.6694E-03     32.4282E-03     3.75705E+06    -35.3391E+06    -79.0946E+06    -29.6679E+06    -45.6697E+06    -35.3391E+06    -39.7775E+06         34.8708
            1766     13.2571E-03     99.3781E-03     186.113E-03     166.908E-03    -603.152E-03     167.902E-03    -602.029E-03     183.996E-03    -643.145E-06     110.571E-03    -54.4861E-03    -56.1001E-03    -53.4546E-03     107.926E-03    -54.4861E-03     41.2817E-03     45.3136E+06    -32.1260E+06    -50.2572E+06    -25.0316E+06     26.0032E+06    -38.0411E+06    -26.6729E+06         36.0040
            1767     14.2050E-03     99.4294E-03     188.381E-03     179.732E-03    -617.386E-03     183.988E-03    -616.404E-03     183.143E-03    -41.7514E-03     109.718E-03    -54.0852E-03    -55.6680E-03    -52.7470E-03     107.153E-03    -54.4404E-03     40.3691E-03     130.487E+06     3.06622E+06    -28.4590E+06    -21.0112E+06     128.955E+06    -2.84892E+06    -9.67848E+06         37.4593
            1768     15.1534E-03     99.4648E-03     185.617E-03     168.837E-03    -606.190E-03     171.392E-03    -605.623E-03     182.496E-03    -16.8933E-03     110.207E-03    -54.2654E-03    -56.0030E-03    -51.6760E-03     106.235E-03    -54.6206E-03     48.6096E-03     186.155E+06     68.9318E+06    -16.1383E+06    -16.1153E+06     186.132E+06     68.9318E+06    -2.04674E+06         39.5940
            1769     16.1035E-03     99.5338E-03     181.328E-03     163.179E-03    -602.783E-03     162.830E-03    -602.434E-03     181.328E-03     15.1815E-03     108.924E-03    -52.8898E-03    -56.1361E-03    -51.1771E-03     105.829E-03    -54.7537E-03     33.3725E-03     190.579E+06     120.832E+06    -9.16870E+06    -9.15687E+06     190.567E+06     120.832E+06    -1.26440E+06         42.0739
            1770     946.930E-06     100.271E-03     374.043E-03     251.207E-03    -868.708E-03     79.5315E-03    -600.641E-03     277.651E-03    -245.963E-03     109.147E-03    -54.4836E-03    -54.6635E-03    -54.6319E-03     109.132E-03    -54.5003E-03     2.95124E-03    -78.0350E+06    -80.4758E+06    -202.266E+06    -80.6562E+06    -201.701E+06    -78.4192E+06    -7.45527E+06         28.3499
            1771     1.89405E-03     100.276E-03     273.696E-03     178.964E-03    -699.101E-03     179.854E-03    -605.259E-03     178.964E-03     168.542E-03     109.259E-03    -54.5724E-03    -54.6883E-03    -54.5918E-03     109.216E-03    -54.6262E-03     5.16079E-03    -65.7009E+06    -73.1717E+06    -189.892E+06    -75.1889E+06    -187.875E+06    -65.7009E+06    -14.3899E+06         28.4370
            1772     2.84077E-03     100.282E-03     226.280E-03     179.914E-03    -652.914E-03     183.816E-03    -610.451E-03     179.914E-03    -13.4345E-03     109.393E-03    -54.6114E-03    -54.7868E-03    -54.6303E-03     109.308E-03    -54.6822E-03     7.41663E-03    -51.9218E+06    -65.0315E+06    -176.258E+06    -69.0786E+06    -172.211E+06    -51.9218E+06    -20.6379E+06         28.5838
            1773     3.78773E-03     100.290E-03     210.345E-03     181.143E-03    -638.051E-03     185.500E-03    -613.206E-03     181.143E-03     87.3424E-03     109.499E-03    -54.6874E-03    -54.8186E-03    -54.6250E-03     109.359E-03    -54.7413E-03     9.52279E-03    -38.5202E+06    -56.3014E+06    -166.989E+06    -62.0266E+06    -161.264E+06    -38.5202E+06    -24.4333E+06         28.7932
            1774     4.73461E-03     100.301E-03     187.396E-03     172.291E-03    -602.373E-03     171.451E-03    -594.908E-03     180.771E-03    -40.3334E-03     109.630E-03    -54.7643E-03    -54.8688E-03    -54.6479E-03     109.429E-03    -54.7845E-03     11.4455E-03    -26.9071E+06    -46.4167E+06    -154.262E+06    -54.7496E+06    -145.929E+06    -26.9071E+06    -28.4643E+06         29.0624
            1775     5.68155E-03     100.313E-03     183.577E-03     167.318E-03    -586.148E-03     169.865E-03    -584.163E-03     179.045E-03     45.1851E-03     109.769E-03    -54.8166E-03    -54.9558E-03    -54.6926E-03     109.506E-03    -54.8166E-03     13.1342E-03    -18.4107E+06    -38.0885E+06    -145.902E+06    -49.4649E+06    -134.526E+06    -18.4107E+06    -33.0521E+06         29.4012
            1776     6.62822E-03     100.327E-03     181.749E-03     172.382E-03    -584.103E-03     175.328E-03    -583.300E-03     178.001E-03    -41.4443E-03     109.868E-03    -54.8468E-03    -55.0304E-03    -54.7026E-03     109.540E-03    -54.8468E-03     14.6664E-03    -13.2020E+06    -30.8013E+06    -141.285E+06    -45.8516E+06    -126.234E+06    -13.2020E+06    -37.6365E+06         29.8286
            1777     7.57480E-03     100.342E-03     180.805E-03     175.188E-03    -588.555E-03     177.394E-03    -587.616E-03     177.659E-03    -19.0235E-03     109.944E-03    -54.8457E-03    -55.1074E-03    -54.6991E-03     109.536E-03    -54.8457E-03     16.3663E-03    -11.3166E+06    -23.2759E+06    -132.650E+06    -41.1757E+06    -114.750E+06    -11.3166E+06    -40.4561E+06         30.3561
            1778     8.52217E-03     100.359E-03     188.767E-03     172.994E-03    -597.243E-03     183.473E-03    -596.754E-03     177.800E-03    -5.83802E-03     110.170E-03    -54.8472E-03    -55.3266E-03    -54.8171E-03     109.660E-03    -54.8472E-03     18.3072E-03    -10.6232E+06    -16.5032E+06    -125.337E+06    -36.2944E+06    -105.545E+06    -10.6232E+06    -41.9044E+06         30.9945
            1779     9.46817E-03     100.378E-03     189.667E-03     168.473E-03    -592.140E-03     179.769E-03    -591.833E-03     178.064E-03    -22.3469E-03     110.309E-03    -54.8451E-03    -55.4693E-03    -54.8516E-03     109.692E-03    -54.8451E-03     20.1774E-03    -8.70860E+06    -15.1204E+06    -120.528E+06    -33.3980E+06    -97.1047E+06    -13.8544E+06    -45.1217E+06         31.7564
            1780     10.4152E-03     100.400E-03     186.518E-03     161.238E-03    -585.297E-03     169.920E-03    -585.143E-03     177.682E-03    -16.8094E-03     110.062E-03    -54.8230E-03    -55.2796E-03    -54.4690E-03     109.252E-03    -54.8230E-03     23.0074E-03    -5.27214E+06    -20.4913E+06    -116.921E+06    -31.8233E+06    -90.3700E+06    -20.4913E+06    -47.5011E+06         32.6671
            1781     11.3628E-03     100.425E-03     188.010E-03     158.721E-03    -590.515E-03     169.566E-03    -590.210E-03     176.860E-03    -10.5101E-03     109.982E-03    -54.7509E-03    -55.2878E-03    -54.1571E-03     108.851E-03    -54.7509E-03     27.1578E-03    -296.660E+03    -27.0668E+06    -105.996E+06    -30.3855E+06    -75.9068E+06    -27.0668E+06    -47.5102E+06         33.7344
            1782     12.3097E-03     100.455E-03     188.058E-03     163.251E-03    -593.733E-03     174.856E-03    -593.512E-03     176.231E-03     3.43331E-03     110.305E-03    -54.6496E-03    -55.6748E-03    -54.0317E-03     108.661E-03    -54.6496E-03     32.6935E-03     6.58360E+06    -33.4560E+06    -84.8529E+06    -29.0846E+06    -49.1847E+06    -33.4560E+06    -44.0304E+06         34.8547
            1783     13.2568E-03     100.493E-03     187.173E-03     166.060E-03    -591.112E-03     176.659E-03    -590.411E-03     175.873E-03    -30.7262E-03     110.589E-03    -54.4765E-03    -56.1168E-03    -53.4074E-03     107.880E-03    -54.4765E-03     41.7513E-03     32.4957E+06    -34.4780E+06    -57.5480E+06    -26.6129E+06     7.13586E+06    -40.0531E+06    -32.3203E+06         35.9888
            1784     14.2053E-03     100.543E-03     182.064E-03     172.100E-03    -589.653E-03     177.796E-03    -588.954E-03     175.668E-03    -30.3462E-03     109.306E-03    -53.9907E-03    -55.3343E-03    -52.3639E-03     106.679E-03    -54.3343E-03     40.7351E-03     114.426E+06    -13.2844E+06    -30.6852E+06    -21.0207E+06     110.337E+06    -18.8596E+06    -15.5010E+06         37.4362
            1785     15.1550E-03     100.579E-03     177.387E-03     170.982E-03    -584.079E-03     172.785E-03    -583.861E-03     175.367E-03     14.5258E-03     109.899E-03    -54.1093E-03    -55.8297E-03    -51.4677E-03     105.881E-03    -54.4528E-03     48.8593E-03     183.368E+06     51.6558E+06    -13.3859E+06    -13.1921E+06     183.174E+06     51.6558E+06    -4.47784E+06         39.5653
            1786     16.1045E-03     100.646E-03     174.527E-03     158.083E-03    -563.760E-03     157.786E-03    -563.462E-03     174.527E-03     451.881E-06     108.461E-03    -52.5082E-03    -56.0120E-03    -50.7598E-03     105.336E-03    -54.6351E-03     33.7448E-03     189.748E+06     116.637E+06    -6.00248E+06    -5.98891E+06     189.734E+06     116.637E+06    -1.22123E+06         42.0454
            1787     947.000E-06     101.386E-03     327.388E-03     257.533E-03    -815.298E-03     94.1694E-03    -582.079E-03     257.533E-03    -325.922E-03     108.994E-03    -54.3740E-03    -54.6209E-03    -54.5533E-03     108.978E-03    -54.4254E-03     3.08665E-03    -60.7673E+06    -62.1810E+06    -185.084E+06    -62.7909E+06    -184.362E+06    -60.8801E+06    -8.68231E+06         28.3284
            1788     1.89401E-03     101.390E-03     253.563E-03     175.425E-03    -660.312E-03     174.405E-03    -581.154E-03     175.425E-03     49.0816E-03     108.894E-03    -54.4021E-03    -54.4940E-03    -54.3548E-03     108.847E-03    -54.4940E-03     5.40731E-03    -52.7347E+06    -58.0383E+06    -173.115E+06    -60.2335E+06    -170.919E+06    -52.7347E+06    -15.2001E+06         28.4128
            1789     2.84161E-03     101.397E-03     231.027E-03     176.602E-03    -639.797E-03     185.963E-03    -594.733E-03     176.602E-03    -76.0052E-03     109.110E-03    -54.4889E-03    -54.6232E-03    -54.4890E-03     109.017E-03    -54.5294E-03     7.75489E-03    -39.5455E+06    -51.7255E+06    -162.837E+06    -55.7797E+06    -158.783E+06    -39.5455E+06    -20.7027E+06         28.5568
            1790     3.78824E-03     101.405E-03     195.661E-03     173.585E-03    -605.310E-03     171.267E-03    -584.642E-03     177.311E-03     55.7435E-03     109.401E-03    -54.6118E-03    -54.7911E-03    -54.6404E-03     109.251E-03    -54.6118E-03     9.88530E-03    -26.6872E+06    -42.8524E+06    -154.779E+06    -49.4326E+06    -148.198E+06    -26.6872E+06    -26.0413E+06         28.7643
            1791     4.73513E-03     101.415E-03     174.911E-03     157.507E-03    -563.174E-03     150.980E-03    -555.854E-03     174.118E-03    -66.3561E-03     109.423E-03    -54.6619E-03    -54.7655E-03    -54.5468E-03     109.204E-03    -54.6619E-03     11.9316E-03    -16.9715E+06    -34.1259E+06    -143.788E+06    -42.9534E+06    -134.961E+06    -16.9715E+06    -29.7435E+06         29.0327
            1792     5.68215E-03     101.429E-03     173.379E-03     154.215E-03    -551.737E-03     154.619E-03    -549.109E-03     170.346E-03    -7.18293E-03     109.453E-03    -54.6951E-03    -54.7604E-03    -54.4701E-03     109.162E-03    -54.6951E-03     13.7606E-03    -7.83750E+06    -26.3948E+06    -134.948E+06    -37.1876E+06    -124.155E+06    -7.83750E+06    -32.3325E+06         29.3694
            1793     6.62924E-03     101.442E-03     179.009E-03     163.469E-03    -566.406E-03     171.669E-03    -564.685E-03     169.088E-03    -46.1666E-03     109.643E-03    -54.7127E-03    -54.9264E-03    -54.5644E-03     109.281E-03    -54.7127E-03     15.3936E-03    -2.13754E+06     -18.135E+06    -128.276E+06    -32.3986E+06    -114.012E+06    -2.13754E+06    -36.7551E+06         29.7933
            1794     7.57646E-03     101.457E-03     176.280E-03     166.892E-03    -564.803E-03     172.889E-03    -563.912E-03     169.392E-03     13.4289E-03     109.932E-03    -54.7235E-03    -55.2075E-03    -54.7647E-03     109.489E-03    -54.7235E-03     17.0560E-03    -2.01508E+06    -12.2329E+06    -123.755E+06    -29.5077E+06    -106.480E+06    -2.01508E+06    -40.2673E+06         30.3172
            1795     8.52270E-03     101.474E-03     180.720E-03     169.924E-03    -575.630E-03     179.594E-03    -574.632E-03     170.052E-03     2.91105E-03     110.183E-03    -54.7462E-03    -55.4388E-03    -54.8761E-03     109.620E-03    -54.7462E-03     19.2225E-03    -2.32621E+06    -6.72942E+06    -117.499E+06    -27.0892E+06    -97.1393E+06    -2.32621E+06    -42.7837E+06         30.9503
            1796     9.46937E-03     101.495E-03     187.209E-03     171.247E-03    -586.711E-03     186.829E-03    -586.330E-03     171.247E-03    -16.4214E-03     110.212E-03    -54.7583E-03    -55.4574E-03    -54.7713E-03     109.526E-03    -54.7583E-03     21.2512E-03    -704.909E+03    -5.09947E+06    -111.850E+06    -24.6111E+06    -88.6521E+06    -4.39093E+06    -44.9672E+06         31.7086
            1797     10.4161E-03     101.515E-03     176.610E-03     153.814E-03    -558.585E-03     158.833E-03    -558.309E-03     171.315E-03    -11.6298E-03     109.967E-03    -54.7409E-03    -55.2646E-03    -54.4150E-03     109.117E-03    -54.7409E-03     23.5724E-03     1.93007E+06    -11.1581E+06    -109.259E+06    -23.6247E+06    -83.7039E+06    -11.1581E+06    -46.7212E+06         32.6190
            1798     11.3636E-03     101.540E-03     169.302E-03     138.834E-03    -538.803E-03     138.403E-03    -538.372E-03     169.302E-03     509.733E-06     110.015E-03    -54.6692E-03    -55.4028E-03    -54.1928E-03     108.805E-03    -54.6692E-03     28.0371E-03     4.53650E+06    -19.6703E+06    -101.667E+06    -24.2732E+06    -72.8573E+06    -19.6703E+06    -47.0803E+06         33.6885
            1799     12.3108E-03     101.571E-03     177.845E-03     154.751E-03    -562.716E-03     164.610E-03    -562.447E-03     167.718E-03     26.7255E-03     110.276E-03    -54.5726E-03    -55.7243E-03    -53.9950E-03     108.547E-03    -54.5726E-03     33.5905E-03     8.00319E+06    -28.0849E+06    -84.9462E+06    -25.6284E+06    -51.3146E+06    -28.0849E+06     -44.104E+06         34.8175
            1800     13.2584E-03     101.607E-03     185.971E-03     168.001E-03    -581.138E-03     185.728E-03    -580.895E-03     168.001E-03    -2.85548E-03     110.433E-03    -54.4010E-03    -56.0329E-03    -53.2517E-03     107.651E-03    -54.4010E-03     42.2386E-03     25.8086E+06    -35.5427E+06    -58.7873E+06    -25.0161E+06    -5.72867E+06    -37.7767E+06    -36.4840E+06         35.9567
            1801     14.2072E-03     101.656E-03     176.278E-03     163.624E-03    -566.376E-03     170.755E-03    -565.665E-03     168.435E-03    -26.6186E-03     109.157E-03    -53.9812E-03    -55.1978E-03    -52.2767E-03     106.439E-03    -54.1837E-03     41.4192E-03     100.259E+06    -27.7906E+06    -36.4232E+06    -21.5019E+06     91.8296E+06    -34.2828E+06    -23.1946E+06         37.3965
            1802     15.1562E-03     101.692E-03     167.777E-03     155.845E-03    -549.688E-03     155.173E-03    -549.016E-03     167.777E-03    -334.914E-06     109.511E-03    -54.0240E-03    -55.5058E-03    -51.2720E-03     105.480E-03    -54.2266E-03     48.9647E-03     174.083E+06     30.9208E+06    -20.9801E+06    -15.9844E+06     173.346E+06     26.6625E+06    -9.31210E+06         39.5199
            1803     16.1068E-03     101.758E-03     169.343E-03     150.770E-03    -548.005E-03     153.225E-03    -547.774E-03     166.657E-03     2.67876E-03     107.732E-03    -52.0264E-03    -55.7406E-03    -50.1986E-03     104.625E-03    -54.4614E-03     33.7898E-03     186.944E+06     107.153E+06    -8.57383E+06    -8.54285E+06     186.913E+06     107.153E+06    -1.71718E+06         42.0021
            1804     947.239E-06     102.500E-03     254.303E-03     195.420E-03    -666.615E-03     49.8228E-03    -462.136E-03     195.420E-03    -320.567E-03     108.503E-03    -54.0625E-03    -54.4424E-03    -54.3895E-03     108.485E-03    -54.0971E-03     3.21729E-03    -46.5672E+06    -47.9745E+06    -166.855E+06    -48.4047E+06    -166.028E+06    -46.9643E+06    -8.98740E+06         28.2936
            1805     1.89487E-03     102.504E-03     239.533E-03     135.943E-03    -598.124E-03     189.884E-03    -548.475E-03     135.943E-03    -24.1415E-03     108.567E-03    -54.2299E-03    -54.3363E-03    -54.2457E-03     108.514E-03    -54.2680E-03     5.70768E-03    -39.0632E+06    -42.8770E+06    -156.521E+06    -45.1561E+06    -154.242E+06    -39.0632E+06    -15.5022E+06         28.3752
            1806     2.84176E-03     102.511E-03     219.740E-03     154.265E-03    -600.499E-03     184.463E-03    -565.221E-03     154.265E-03    -94.2714E-03     108.696E-03    -54.2991E-03    -54.3951E-03    -54.2664E-03     108.588E-03    -54.3192E-03     8.29639E-03    -27.5051E+06    -36.4156E+06    -148.783E+06    -40.7506E+06    -144.448E+06    -27.5051E+06    -21.3945E+06         28.5124
            1807     3.78921E-03     102.520E-03     176.428E-03     155.200E-03    -556.175E-03     157.676E-03    -541.149E-03     158.926E-03     23.8271E-03     108.861E-03    -54.3626E-03    -54.4967E-03    -54.3029E-03     108.684E-03    -54.3793E-03     10.6769E-03    -14.6551E+06    -28.2248E+06    -141.221E+06    -35.1697E+06    -134.276E+06    -14.6551E+06    -26.8838E+06         28.7105
            1808     4.73623E-03     102.530E-03     179.369E-03     150.936E-03    -550.841E-03     163.912E-03    -543.515E-03     159.068E-03    -56.9498E-03     108.968E-03    -54.4186E-03    -54.5551E-03    -54.3008E-03     108.714E-03    -54.4186E-03     12.8259E-03    -5.11950E+06    -20.4282E+06    -134.426E+06    -29.3540E+06    -125.501E+06    -5.11950E+06    -30.5903E+06         28.9733
            1809     5.68371E-03     102.543E-03     178.656E-03     155.941E-03    -553.958E-03     171.304E-03    -551.011E-03     160.346E-03     6.25173E-03     109.073E-03    -54.4395E-03    -54.6375E-03    -54.2974E-03     108.733E-03    -54.4395E-03     14.8644E-03     1.79013E+06    -12.0107E+06    -124.695E+06    -23.3458E+06    -113.360E+06     1.79013E+06    -33.6801E+06         29.3086
            1810     6.63111E-03     102.557E-03     177.631E-03     162.179E-03    -557.187E-03     176.047E-03    -555.602E-03     162.179E-03    -30.7839E-03     109.336E-03    -54.4746E-03    -54.8531E-03    -54.4354E-03     108.918E-03    -54.4746E-03     16.5118E-03     9.07657E+06    -5.09057E+06    -117.052E+06    -18.5346E+06    -103.608E+06     9.07657E+06    -36.3708E+06         29.7279
            1811     7.57767E-03     102.572E-03     176.768E-03     163.825E-03    -556.703E-03     175.919E-03    -555.882E-03     163.854E-03     27.1728E-03     109.613E-03    -54.5048E-03    -55.1034E-03    -54.5809E-03     109.091E-03    -54.5048E-03     18.4431E-03     11.2035E+06     73.2442E+03    -113.197E+06    -15.2125E+06    -97.9118E+06     11.2035E+06    -38.5887E+06         30.2415
            1812     8.52458E-03     102.591E-03     171.290E-03     160.106E-03    -545.950E-03     165.150E-03    -544.259E-03     164.556E-03    -4.42737E-03     109.740E-03    -54.5171E-03    -55.2335E-03    -54.5624E-03     109.069E-03    -54.5171E-03     20.9244E-03     9.59171E+06     4.90650E+06    -106.819E+06    -13.7388E+06    -88.1733E+06     9.59171E+06    -41.5428E+06         30.8629
            1813     9.47184E-03     102.610E-03     168.397E-03     152.375E-03    -535.662E-03     155.282E-03    -534.210E-03     164.038E-03    -11.9554E-03     109.797E-03    -54.5234E-03    -55.2825E-03    -54.4766E-03     108.991E-03    -54.5234E-03     22.9724E-03     9.23405E+06     5.19768E+06    -103.602E+06    -13.5828E+06    -82.4686E+06     6.88119E+06    -43.5521E+06         31.6137
            1814     10.4188E-03     102.631E-03     165.545E-03     147.893E-03    -531.903E-03     149.664E-03    -530.967E-03     162.838E-03    -475.085E-06     109.977E-03    -54.5071E-03    -55.4697E-03    -54.4856E-03     108.993E-03    -54.5071E-03     25.3638E-03     9.04753E+06    -118.755E+03    -99.8911E+06    -14.0342E+06    -76.8094E+06    -118.755E+03    -44.4317E+06         32.5245
            1815     11.3655E-03     102.654E-03     164.306E-03     147.442E-03    -530.963E-03     149.508E-03    -530.255E-03     161.533E-03    -28.7139E-03     110.131E-03    -54.4660E-03    -55.6903E-03    -54.3041E-03     108.744E-03    -54.4660E-03     30.0100E-03     9.49719E+06    -9.55866E+06    -94.2263E+06    -15.7851E+06    -68.9440E+06    -9.55866E+06    -44.4173E+06         33.6008
            1816     12.3132E-03     102.686E-03     166.694E-03     153.276E-03    -539.017E-03     158.296E-03    -538.060E-03     160.717E-03    -20.1617E-03     110.107E-03    -54.3840E-03    -55.7530E-03    -53.8652E-03     108.219E-03    -54.3840E-03     35.1100E-03     11.8004E+06    -19.5400E+06    -80.8708E+06    -17.2214E+06    -51.8490E+06    -19.5400E+06    -42.5666E+06         34.7423
            1817     13.2611E-03     102.721E-03     167.078E-03     156.063E-03    -539.985E-03     162.068E-03    -539.320E-03     160.408E-03    -14.9608E-03     110.407E-03    -54.2405E-03    -56.1712E-03    -53.2921E-03     107.528E-03    -54.2405E-03     43.0139E-03     24.9930E+06    -29.9474E+06    -56.2913E+06    -17.9959E+06    -13.3023E+06    -29.9474E+06    -38.0926E+06         35.8904
            1818     14.2094E-03     102.770E-03     163.258E-03     147.003E-03    -526.644E-03     149.763E-03    -525.937E-03     159.791E-03    -29.6814E-03     109.166E-03    -53.9188E-03    -55.2508E-03    -52.3008E-03     106.326E-03    -54.0292E-03     42.4086E-03     88.0931E+06    -28.4993E+06    -35.5182E+06    -18.5087E+06     75.3920E+06    -32.8077E+06    -27.3417E+06         37.3282
            1819     15.1589E-03     102.805E-03     163.080E-03     145.501E-03    -530.341E-03     149.089E-03    -529.611E-03     158.762E-03    -25.0269E-03     109.230E-03    -53.8735E-03    -55.3559E-03    -51.0649E-03     105.049E-03    -53.9838E-03     49.9281E-03     160.855E+06     16.4304E+06    -21.6684E+06    -15.9886E+06     159.484E+06     12.1221E+06    -13.2338E+06         39.4505
            1820     16.1095E-03     102.870E-03     169.608E-03     154.573E-03    -546.656E-03     165.671E-03    -546.484E-03     158.338E-03    -7.98474E-03     106.996E-03    -51.4536E-03    -55.5661E-03    -49.6426E-03     103.813E-03    -54.1941E-03     34.2420E-03     182.139E+06     94.5037E+06    -8.90117E+06    -8.76044E+06     181.998E+06     94.5037E+06    -3.97181E+06         41.9374
            1821     947.959E-06     103.614E-03     235.055E-03     180.239E-03    -632.840E-03     89.6048E-03    -503.312E-03     196.162E-03    -186.989E-03     107.704E-03    -53.6218E-03    -54.0851E-03    -54.0346E-03     107.685E-03    -53.6524E-03     3.24325E-03    -32.0978E+06    -33.4842E+06    -147.021E+06    -33.7633E+06    -145.883E+06    -32.9561E+06    -10.7868E+06         28.2248
            1822     1.89517E-03     103.618E-03     197.125E-03     119.775E-03    -529.561E-03     137.999E-03    -492.756E-03     142.097E-03     47.8908E-03     107.754E-03    -53.8201E-03    -53.9340E-03    -53.8219E-03     107.688E-03    -53.8657E-03     6.33063E-03    -24.9464E+06    -27.3152E+06    -140.521E+06    -30.0172E+06    -137.819E+06    -24.9464E+06    -16.9502E+06         28.3017
            1823     2.84304E-03     103.625E-03     183.062E-03     127.955E-03    -522.734E-03     140.805E-03    -493.623E-03     141.101E-03     11.5517E-03     107.810E-03    -53.8588E-03    -53.9497E-03    -53.7791E-03     107.672E-03    -53.8905E-03     9.33740E-03    -14.1605E+06    -20.1618E+06    -133.665E+06    -25.0186E+06    -128.809E+06    -14.1605E+06    -22.7577E+06         28.4320
            1824     3.79081E-03     103.633E-03     188.325E-03     144.147E-03    -539.940E-03     169.004E-03    -520.619E-03     144.147E-03     72.6331E-03     107.867E-03    -53.8976E-03    -53.9706E-03    -53.7306E-03     107.644E-03    -53.9143E-03     11.9323E-03    -3.27269E+06    -13.1952E+06    -128.214E+06    -20.2669E+06    -121.142E+06    -3.27269E+06    -27.5414E+06         28.6184
            1825     4.73881E-03     103.644E-03     199.239E-03     151.384E-03    -558.820E-03     192.758E-03    -552.339E-03     151.384E-03    -2.04964E-03     108.050E-03    -53.9345E-03    -54.1220E-03    -53.8046E-03     107.733E-03    -53.9345E-03     14.2603E-03     6.44873E+06    -5.20222E+06    -123.427E+06    -14.7936E+06    -113.836E+06     6.44873E+06    -32.1762E+06         28.8677
            1826     5.68621E-03     103.657E-03     183.166E-03     149.612E-03    -542.444E-03     172.602E-03    -539.107E-03     156.839E-03     62.4638E-03     108.325E-03    -53.9545E-03    -54.3731E-03    -53.9333E-03     107.885E-03    -53.9545E-03     16.7761E-03     12.5810E+06     1.87776E+06    -115.434E+06    -9.64524E+06    -103.911E+06     12.5810E+06    -34.8457E+06         29.1903
            1827     6.63343E-03     103.672E-03     163.172E-03     146.227E-03    -517.054E-03     150.942E-03    -516.237E-03     157.641E-03    -29.3519E-03     108.556E-03    -54.0074E-03    -54.5464E-03    -53.9808E-03     107.991E-03    -54.0074E-03     19.0544E-03     19.4898E+06     6.99541E+06    -107.910E+06    -5.70863E+06    -95.2061E+06     19.4898E+06    -35.9833E+06         29.5950
            1828     7.58120E-03     103.687E-03     163.188E-03     152.942E-03    -522.838E-03     158.124E-03    -521.960E-03     157.129E-03    -2.85811E-03     108.694E-03    -54.0295E-03    -54.6657E-03    -53.9598E-03     107.988E-03    -54.0295E-03     21.3045E-03     22.5068E+06     11.7864E+06    -103.982E+06    -2.47923E+06    -89.7165E+06     22.5068E+06    -37.9765E+06         30.0922
            1829     8.52908E-03     103.705E-03     162.059E-03     151.325E-03    -519.239E-03     155.184E-03    -517.984E-03     156.945E-03    -13.5529E-03     108.918E-03    -54.0250E-03    -54.9022E-03    -54.0075E-03     108.023E-03    -54.0250E-03     24.0203E-03     20.6380E+06     14.8285E+06    -96.9665E+06    -851.961E+03    -81.2860E+06     20.6380E+06    -38.7217E+06         30.6982
            1830     9.47597E-03     103.725E-03     155.844E-03     140.520E-03    -498.848E-03     139.101E-03    -497.429E-03     155.844E-03    -16.8279E-03     109.189E-03    -54.0330E-03    -55.1614E-03    -54.0980E-03     108.125E-03    -54.0330E-03     26.2382E-03     20.1940E+06     15.0955E+06    -92.8501E+06    -1.20676E+06    -75.3496E+06     18.9958E+06    -39.9276E+06         31.4387
            1831     10.4237E-03     103.745E-03     156.772E-03     142.940E-03    -502.848E-03     144.616E-03    -502.157E-03     154.405E-03     6.09922E-03     109.556E-03    -54.0186E-03    -55.5267E-03    -54.2220E-03     108.251E-03    -54.0186E-03     29.0618E-03     17.0156E+06     10.3443E+06    -91.2652E+06    -3.13742E+06    -72.2432E+06     11.4754E+06    -40.8172E+06         32.3475
            1832     11.3708E-03     103.770E-03     158.906E-03     148.545E-03    -515.022E-03     152.829E-03    -514.165E-03     153.766E-03    -7.45519E-03     110.045E-03    -54.0107E-03    -56.0415E-03    -54.2964E-03     108.300E-03    -54.0107E-03     33.6785E-03     15.6715E+06     2.09649E+06    -85.4062E+06    -5.49141E+06    -64.2433E+06     2.09649E+06    -40.9587E+06         33.4318
            1833     12.3180E-03     103.799E-03     155.970E-03     142.914E-03    -506.323E-03     144.419E-03    -505.054E-03     153.197E-03    -15.8786E-03     110.343E-03    -53.9763E-03    -56.3882E-03    -54.0899E-03     108.045E-03    -53.9763E-03     38.7258E-03     16.6673E+06    -8.97476E+06    -75.6056E+06    -7.77250E+06    -51.1658E+06    -8.97476E+06    -40.4762E+06         34.5902
            1834     13.2655E-03     103.836E-03     154.706E-03     142.179E-03    -497.958E-03     143.722E-03    -497.090E-03     152.295E-03    -5.48272E-03     110.769E-03    -53.8940E-03    -56.8810E-03    -53.5987E-03     107.486E-03    -53.8940E-03     46.1291E-03     25.1205E+06    -18.9317E+06    -53.3517E+06    -10.6049E+06    -17.6263E+06    -18.9317E+06    -36.5268E+06         35.7615
            1835     14.2141E-03     103.882E-03     156.566E-03     143.458E-03    -501.663E-03     147.814E-03    -501.044E-03     151.591E-03     13.8717E-03     109.395E-03    -53.6848E-03    -55.7039E-03    -52.4990E-03     106.256E-03    -53.7503E-03     44.7010E-03     77.2272E+06    -18.3751E+06    -26.5354E+06    -12.4092E+06     63.1511E+06    -18.4252E+06    -27.3579E+06         37.2241
            1836     15.1639E-03     103.917E-03     157.952E-03     140.366E-03    -502.383E-03     146.583E-03    -501.718E-03     151.069E-03     12.7756E-03     109.110E-03    -53.6094E-03    -55.4911E-03    -50.9650E-03     104.649E-03    -53.6749E-03     51.7612E-03     147.466E+06     12.0585E+06    -13.6940E+06    -11.7255E+06     145.548E+06     12.0084E+06    -15.0415E+06         39.3643
            1837     16.1148E-03     103.979E-03     159.129E-03     136.431E-03    -501.951E-03     144.536E-03    -501.472E-03     150.544E-03    -1.97236E-03     106.377E-03    -51.0130E-03    -55.3940E-03    -49.2491E-03     103.044E-03    -53.8249E-03     35.2210E-03     175.197E+06     84.5767E+06    -8.06800E+06    -7.82716E+06     174.956E+06     84.5767E+06    -5.86223E+06         41.8624
            1838     947.883E-06     104.727E-03     229.782E-03     200.742E-03    -629.653E-03     124.618E-03    -553.528E-03     229.782E-03    -191.244E-03     106.183E-03    -52.9236E-03    -53.2611E-03    -53.2014E-03     106.154E-03    -52.9542E-03     3.93836E-03    -15.2764E+06    -16.4465E+06    -124.716E+06    -16.9345E+06    -123.370E+06    -16.1340E+06    -11.2729E+06         28.0884
            1839     1.89692E-03     104.730E-03     167.054E-03     141.964E-03    -498.592E-03     118.529E-03    -473.566E-03     165.463E-03     15.3518E-03     106.105E-03    -53.0178E-03    -53.0875E-03    -52.9415E-03     106.014E-03    -53.0735E-03     7.33533E-03    -11.7552E+06    -12.8014E+06    -122.729E+06    -15.9026E+06    -119.396E+06    -11.9867E+06    -18.4796E+06         28.1592
            1840     2.84542E-03     104.737E-03     169.050E-03     137.136E-03    -491.958E-03     129.190E-03    -465.244E-03     150.282E-03     28.4276E-03     106.109E-03    -53.0236E-03    -53.0844E-03    -52.8712E-03     105.921E-03    -53.0486E-03     10.7775E-03    -3.95785E+06    -6.52800E+06    -119.125E+06    -11.9847E+06    -113.517E+06    -4.10924E+06    -24.3310E+06         28.2799
            1841     3.79385E-03     104.746E-03     182.174E-03     147.457E-03    -522.079E-03     161.453E-03    -502.395E-03     148.495E-03     68.7789E-03     106.208E-03    -53.0464E-03    -53.1617E-03    -52.8504E-03     105.896E-03    -53.0464E-03     13.9104E-03     5.69643E+06     812.454E+03    -115.651E+06    -7.12106E+06    -107.717E+06     5.69643E+06    -29.2065E+06         28.4518
            1842     4.74226E-03     104.757E-03     179.054E-03     144.097E-03    -520.982E-03     164.981E-03    -514.312E-03     151.501E-03    -12.2596E-03     106.356E-03    -53.0538E-03    -53.3042E-03    -52.8412E-03     105.893E-03    -53.0538E-03     16.9742E-03     15.6217E+06     7.43700E+06    -111.407E+06    -2.67068E+06    -101.300E+06     15.6217E+06    -33.0906E+06         28.6809
            1843     5.69096E-03     104.770E-03     165.140E-03     138.865E-03    -503.903E-03     148.614E-03    -500.971E-03     152.459E-03     44.7356E-03     106.538E-03    -53.0553E-03    -53.4817E-03    -52.8297E-03     105.886E-03    -53.0553E-03     20.1854E-03     21.7506E+06     11.9334E+06    -107.573E+06     782.144E+03    -96.4218E+06     21.7506E+06    -34.7509E+06         28.9784
            1844     6.63972E-03     104.785E-03     152.654E-03     136.294E-03    -487.296E-03     137.069E-03    -486.440E-03     151.023E-03    -41.3918E-03     106.785E-03    -53.0548E-03    -53.7291E-03    -52.8635E-03     105.919E-03    -53.0548E-03     23.3096E-03     25.6505E+06     16.9821E+06    -99.6511E+06     4.35095E+06    -87.0199E+06     25.6505E+06    -36.1311E+06         29.3590
            1845     7.58814E-03     104.800E-03     149.095E-03     136.357E-03    -481.578E-03     135.548E-03    -480.736E-03     149.063E-03    -12.2127E-03     107.163E-03    -53.0741E-03    -54.0952E-03    -53.0193E-03     106.087E-03    -53.0741E-03     26.0309E-03     30.5277E+06     20.4521E+06    -96.3129E+06     7.09673E+06    -82.9576E+06     30.5277E+06    -37.0981E+06         29.8365
            1846     8.53620E-03     104.818E-03     147.618E-03     139.206E-03    -484.100E-03     138.663E-03    -483.525E-03     147.586E-03     5.75396E-03     107.509E-03    -53.0742E-03    -54.4410E-03    -53.0901E-03     106.158E-03    -53.0742E-03     29.1863E-03     29.0571E+06     21.6123E+06     -90.775E+06     8.19798E+06    -77.3607E+06     29.0571E+06    -36.3183E+06         30.4239
            1847     9.48516E-03     104.838E-03     155.385E-03     141.414E-03    -489.715E-03     149.389E-03    -489.358E-03     147.053E-03    -6.80864E-03     108.011E-03    -53.0876E-03    -54.9272E-03    -53.2987E-03     106.383E-03    -53.0876E-03     32.1586E-03     28.2517E+06     21.8383E+06    -83.6481E+06     7.88831E+06    -69.6981E+06     28.2517E+06    -35.6756E+06         31.1479
            1848     10.4326E-03     104.859E-03     161.781E-03     145.101E-03    -495.824E-03     159.312E-03    -495.816E-03     147.562E-03    -104.138E-06     108.777E-03    -53.1113E-03    -55.6755E-03    -53.7184E-03     106.820E-03    -53.1113E-03     35.3773E-03     25.5365E+06     17.1754E+06    -82.8829E+06     5.89692E+06    -68.2189E+06     22.1510E+06    -35.9573E+06         32.0483
            1849     11.3807E-03     104.884E-03     153.690E-03     138.599E-03    -482.419E-03     143.926E-03    -481.860E-03     147.804E-03     23.3318E-03     109.660E-03    -53.1398E-03    -56.5134E-03    -54.0328E-03     107.179E-03    -53.1398E-03     40.0293E-03     20.3578E+06     12.7068E+06    -76.4046E+06     3.16633E+06    -59.2132E+06     12.7068E+06    -36.8119E+06         33.1389
            1850     12.3280E-03     104.914E-03     146.698E-03     126.709E-03    -463.069E-03     126.046E-03    -462.406E-03     146.698E-03     17.4989E-03     110.506E-03    -53.1735E-03    -57.3218E-03    -54.2031E-03     107.387E-03    -53.1735E-03     45.0958E-03     17.2870E+06     1.61389E+06    -69.5291E+06    -1.42990E+06    -50.8122E+06     1.61389E+06    -35.5651E+06         34.3234
            1851     13.2752E-03     104.949E-03     147.662E-03     130.512E-03    -469.005E-03     132.527E-03    -468.610E-03     145.251E-03     584.533E-06     111.490E-03    -53.1856E-03    -58.3298E-03    -54.1172E-03     107.278E-03    -53.1856E-03     52.4853E-03     24.6627E+06    -6.72553E+06    -49.1287E+06    -6.50794E+06    -17.9581E+06    -6.72553E+06    -32.9172E+06         35.5547
            1852     14.2229E-03     104.996E-03     149.884E-03     140.609E-03    -482.087E-03     144.744E-03    -480.902E-03     144.563E-03    -2.33826E-03     110.276E-03    -53.1550E-03    -57.1367E-03    -53.2586E-03     106.398E-03    -53.1550E-03     49.8069E-03     67.4399E+06    -2.89001E+06    -21.8464E+06    -8.06706E+06     53.6605E+06    -2.89001E+06    -26.4181E+06         37.1061
            1853     15.1715E-03     105.028E-03     147.021E-03     137.229E-03    -471.720E-03     138.902E-03    -470.482E-03     144.110E-03    -2.09307E-03     109.790E-03    -53.1086E-03    -56.6760E-03    -51.5652E-03     104.680E-03    -53.1086E-03     55.7974E-03     133.958E+06     14.4268E+06    -9.96721E+06    -7.76227E+06     131.753E+06     14.4268E+06    -14.4235E+06         39.3084
            1854     16.1230E-03     105.090E-03     143.149E-03     126.115E-03    -460.937E-03     125.329E-03    -460.151E-03     143.149E-03    -12.6752E-03     106.528E-03    -50.8647E-03    -55.7267E-03    -49.5894E-03     102.787E-03    -53.2606E-03     37.3911E-03     168.217E+06     77.4732E+06    -5.82540E+06    -5.60415E+06     167.996E+06     77.4732E+06    -5.78379E+06         41.8304
            1855     950.187E-06     105.837E-03     195.206E-03     161.438E-03    -536.984E-03     111.367E-03    -469.828E-03     178.121E-03    -159.378E-03     103.245E-03    -51.4872E-03    -51.7598E-03    -51.7156E-03     103.201E-03    -51.4872E-03     4.94902E-03    -1.49732E+06    -3.59923E+06    -102.597E+06    -3.85254E+06    -101.333E+06    -2.50790E+06    -10.1654E+06         27.8447
            1856     1.89919E-03     105.841E-03     178.253E-03     145.838E-03    -501.983E-03     156.628E-03    -481.536E-03     147.015E-03    -8.22834E-03     103.330E-03    -51.6050E-03    -51.7270E-03    -51.5848E-03     103.198E-03    -51.6150E-03     8.72507E-03     1.00888E+06    -65.8226E+03    -103.176E+06    -2.69241E+06    -99.7034E+06     163.309E+03    -18.3504E+06         27.9100
            1857     2.84912E-03     105.847E-03     167.260E-03     147.417E-03    -490.834E-03     149.989E-03    -475.550E-03     149.403E-03    -62.7839E-03     103.206E-03    -51.5742E-03    -51.6291E-03    -51.3302E-03     102.924E-03    -51.5911E-03     12.9311E-03     5.44505E+06     4.02869E+06    -103.522E+06    -1.38670E+06    -97.1342E+06     4.47297E+06    -25.3236E+06         28.0164
            1858     3.79934E-03     105.856E-03     151.018E-03     138.739E-03    -468.900E-03     130.775E-03    -457.232E-03     147.314E-03    -33.8771E-03     103.166E-03    -51.5253E-03    -51.6359E-03    -51.1441E-03     102.681E-03    -51.5322E-03     17.0414E-03     11.8307E+06     9.46055E+06    -102.834E+06     1.32522E+06    -93.8775E+06     11.0100E+06    -30.5022E+06         28.1684
            1859     4.74950E-03     105.867E-03     142.686E-03     126.889E-03    -451.533E-03     118.713E-03    -443.357E-03     142.686E-03    -68.8682E-03     103.260E-03    -51.4810E-03    -51.7766E-03    -51.0334E-03     102.517E-03    -51.4810E-03     21.1405E-03     18.4523E+06     14.0442E+06    -101.597E+06     3.89742E+06    -91.4503E+06     18.4523E+06    -32.7069E+06         28.3721
            1860     5.69976E-03     105.880E-03     150.098E-03     130.813E-03    -463.684E-03     139.069E-03    -461.863E-03     140.020E-03    -4.95296E-03     103.421E-03    -51.4308E-03    -51.9940E-03    -50.9448E-03     102.372E-03    -51.4308E-03     25.1510E-03     24.8713E+06     18.3091E+06    -98.7629E+06     6.78839E+06    -87.2423E+06     24.8713E+06    -34.7788E+06         28.6393
            1861     6.65020E-03     105.894E-03     151.911E-03     136.949E-03    -476.026E-03     147.343E-03    -474.774E-03     140.265E-03    -49.0214E-03     103.759E-03    -51.3804E-03    -52.3837E-03    -50.9735E-03     102.348E-03    -51.3804E-03     29.1921E-03     27.7469E+06     20.9707E+06    -93.1773E+06     8.66612E+06    -80.8727E+06     27.7469E+06    -35.2770E+06         28.9879
            1862     7.60037E-03     105.910E-03     144.252E-03     131.774E-03    -466.737E-03     135.220E-03    -466.225E-03     140.293E-03    -22.6947E-03     104.363E-03    -51.3812E-03    -52.9856E-03    -51.1800E-03     102.557E-03    -51.3812E-03     33.1241E-03     32.0882E+06     21.3417E+06    -89.8937E+06     9.02303E+06    -77.5751E+06     32.0882E+06    -34.7656E+06         29.4383
            1863     8.55039E-03     105.928E-03     145.637E-03     132.573E-03    -465.765E-03     138.120E-03    -465.430E-03     139.754E-03     19.6061E-03     105.182E-03    -51.3819E-03    -53.7998E-03    -51.5347E-03     102.917E-03    -51.3819E-03     37.2367E-03     31.3752E+06     21.6736E+06    -86.6429E+06     9.49059E+06    -74.4599E+06     31.3752E+06    -34.0764E+06         30.0089
            1864     9.49989E-03     105.948E-03     151.622E-03     133.828E-03    -469.489E-03     144.831E-03    -468.667E-03     139.797E-03     3.26422E-03     106.170E-03    -51.4201E-03    -54.7466E-03    -52.0207E-03     103.444E-03    -51.4201E-03     41.1109E-03     30.4152E+06     20.7080E+06    -78.8694E+06     9.03811E+06    -67.1995E+06     30.4152E+06    -31.9228E+06         30.7246
            1865     10.4495E-03     105.971E-03     151.799E-03     130.088E-03    -467.403E-03     141.308E-03    -466.770E-03     139.947E-03    -25.6913E-03     107.607E-03    -51.5197E-03    -56.0871E-03    -52.8834E-03     104.403E-03    -51.5197E-03     44.9170E-03     28.9408E+06     18.0818E+06    -75.3672E+06     7.71542E+06    -63.2743E+06     27.2142E+06    -31.6467E+06         31.6265
            1866     11.3972E-03     105.997E-03     146.741E-03     127.947E-03    -457.970E-03     134.705E-03    -457.548E-03     139.561E-03    -11.8656E-03     109.090E-03    -51.6283E-03    -57.4475E-03    -53.6236E-03     105.266E-03    -51.6283E-03     49.5114E-03     21.1688E+06     14.6344E+06    -69.8241E+06     4.38955E+06    -56.9788E+06     18.5683E+06    -30.7578E+06         32.7321
            1867     12.3452E-03     106.028E-03     143.828E-03     128.048E-03    -450.070E-03     132.191E-03    -449.193E-03     138.808E-03    -26.2703E-03     110.579E-03    -51.7692E-03    -58.7997E-03    -54.2322E-03     106.011E-03    -51.7692E-03     54.5493E-03     13.9456E+06     6.89987E+06    -63.2367E+06    -1.08498E+06    -50.4720E+06     9.16580E+06    -28.0908E+06         33.9580
            1868     13.2926E-03     106.063E-03     139.094E-03     122.989E-03    -439.874E-03     123.669E-03    -439.194E-03     137.735E-03    -34.5496E-03     112.494E-03    -51.9149E-03    -60.6062E-03    -54.9058E-03     106.793E-03    -51.9149E-03     61.4814E-03     21.5571E+06     3.19925E+06    -44.4480E+06    -7.20337E+06    -15.6875E+06     3.19925E+06    -26.4032E+06         35.3081
            1869     14.2394E-03     106.111E-03     136.712E-03     120.302E-03    -433.318E-03     119.827E-03    -432.496E-03     136.366E-03    -28.9490E-03     111.572E-03    -52.0655E-03    -59.5249E-03    -54.5496E-03     106.597E-03    -52.0655E-03     56.8511E-03     58.6326E+06     9.88742E+06    -22.4415E+06    -11.6997E+06     47.8908E+06     9.88742E+06    -24.3675E+06         37.0539
            1870     15.1874E-03     106.139E-03     137.725E-03     127.932E-03    -441.695E-03     129.511E-03    -440.833E-03     135.284E-03    -17.0824E-03     111.718E-03    -52.1432E-03    -59.5710E-03    -53.5640E-03     105.711E-03    -52.1432E-03     61.6238E-03     122.226E+06     15.4891E+06    -13.0385E+06    -10.0232E+06     119.211E+06     15.4891E+06    -15.9697E+06         39.4031
            1871     16.1364E-03     106.201E-03     143.813E-03     132.017E-03    -446.260E-03     139.842E-03    -445.211E-03     134.938E-03    -30.7814E-03     108.713E-03    -51.4087E-03    -57.3543E-03    -52.0812E-03     104.452E-03    -52.4212E-03     39.5727E-03     160.538E+06     69.5436E+06    -5.26317E+06    -4.98925E+06     160.265E+06     69.5436E+06    -5.46575E+06         41.9738
            1872     951.636E-06     106.943E-03     156.005E-03     122.618E-03    -439.961E-03     107.751E-03    -395.272E-03     126.183E-03    -123.368E-03     98.5767E-03    -49.0982E-03    -49.4781E-03    -49.3792E-03     98.5066E-03    -49.1269E-03     6.03915E-03     9.59115E+06     6.36073E+06    -82.2491E+06     7.13259E+06    -81.1201E+06     7.69028E+06    -9.14133E+06         27.4624
            1873     1.90394E-03     106.947E-03     158.060E-03     122.305E-03    -442.915E-03     143.867E-03    -428.722E-03     122.305E-03    -16.1139E-03     98.5941E-03    -49.2096E-03    -49.3856E-03    -49.1476E-03     98.3849E-03    -49.2383E-03     10.7034E-03     11.1037E+06     8.84312E+06    -83.7924E+06     7.21184E+06    -80.3679E+06     9.31048E+06    -17.2116E+06         27.5159
            1874     2.85578E-03     106.953E-03     156.157E-03     128.210E-03    -448.314E-03     145.903E-03    -440.046E-03     130.195E-03    -64.7141E-03     98.5052E-03    -49.1788E-03    -49.3242E-03    -48.8705E-03     98.0584E-03    -49.1857E-03     15.8897E-03     13.1971E+06     10.5776E+06    -86.3273E+06     6.66797E+06    -80.0273E+06     10.8067E+06    -24.0355E+06         27.6014
            1875     3.80820E-03     106.961E-03     145.629E-03     125.091E-03    -433.538E-03     132.216E-03    -427.663E-03     132.629E-03    -7.40490E-03     98.3029E-03    -49.0627E-03    -49.2342E-03    -48.4489E-03     97.5245E-03    -49.0696E-03     21.0205E-03     14.3200E+06     11.6440E+06    -89.8600E+06     5.24291E+06    -81.2236E+06     12.0846E+06    -28.6293E+06         27.7277
            1876     4.76118E-03     106.973E-03     136.390E-03     119.261E-03    -419.618E-03     117.932E-03    -413.061E-03     131.163E-03    -7.80039E-03     98.2975E-03    -48.9319E-03    -49.3635E-03    -48.1542E-03     97.0882E-03    -48.9319E-03     26.2321E-03     15.6083E+06     13.7251E+06    -92.4295E+06     4.51751E+06    -82.1918E+06     14.5782E+06    -31.4704E+06         27.9042
            1877     5.71420E-03     106.984E-03     137.687E-03     117.098E-03    -424.474E-03     122.873E-03    -421.803E-03     129.240E-03     3.78945E-03     98.6150E-03    -48.8187E-03    -49.8033E-03    -48.0581E-03     96.8699E-03    -48.8187E-03     31.5589E-03     19.2072E+06     15.1241E+06    -89.9329E+06     3.72222E+06    -78.5251E+06     19.2013E+06    -32.6351E+06         28.1442
            1878     6.66701E-03     106.999E-03     144.511E-03     123.405E-03    -443.054E-03     137.522E-03    -441.857E-03     129.198E-03    -31.8149E-03     99.1501E-03    -48.7350E-03    -50.4245E-03    -48.0563E-03     96.7819E-03    -48.7350E-03     36.8721E-03     22.3911E+06     13.9625E+06    -88.3227E+06     2.62861E+06    -76.9888E+06     22.3911E+06    -32.0419E+06         28.4640
            1879     7.62030E-03     107.015E-03     140.925E-03     130.261E-03    -445.626E-03     140.171E-03    -444.873E-03     130.261E-03    -22.6687E-03     100.017E-03    -48.6917E-03    -51.3325E-03    -48.2814E-03     96.9657E-03    -48.6917E-03     42.0557E-03     24.8709E+06     12.7648E+06    -84.2198E+06     1.60349E+06    -73.0584E+06     24.8709E+06    -30.8568E+06         28.8918
            1880     8.57308E-03     107.034E-03     139.076E-03     131.087E-03    -445.697E-03     138.091E-03    -444.712E-03     131.087E-03    -16.4999E-03     101.603E-03    -48.7142E-03    -52.8850E-03    -49.0735E-03     97.7920E-03    -48.7142E-03     47.4267E-03     26.1949E+06     10.0029E+06    -82.9965E+06    -710.959E+03    -72.2827E+06     26.1949E+06    -29.6144E+06         29.4589
            1881     9.52466E-03     107.056E-03     135.217E-03     123.763E-03    -436.660E-03     126.412E-03    -435.116E-03     131.025E-03    -32.7337E-03     103.676E-03    -48.8223E-03    -54.8488E-03    -50.3190E-03     99.1463E-03    -48.8223E-03     52.3601E-03     25.2355E+06     7.80298E+06    -76.2673E+06    -3.05985E+06    -65.4045E+06     25.2355E+06    -27.8644E+06         30.1918
            1882     10.4750E-03     107.079E-03     129.718E-03     112.620E-03    -416.697E-03     111.622E-03    -415.699E-03     129.718E-03    -35.3699E-03     105.974E-03    -49.0339E-03    -56.9369E-03    -51.7590E-03     100.796E-03    -49.0339E-03     56.7402E-03     24.3126E+06     5.00525E+06    -70.7609E+06    -5.76150E+06    -59.9942E+06     24.3126E+06    -26.2867E+06         31.1277
            1883     11.4245E-03     107.108E-03     134.069E-03     118.588E-03    -421.677E-03     123.862E-03    -421.306E-03     128.424E-03    -20.7367E-03     108.505E-03    -49.3085E-03    -59.1899E-03    -53.4050E-03     102.720E-03    -49.3085E-03     60.9063E-03     17.9753E+06     1.34993E+06    -67.5376E+06    -9.19626E+06    -56.9914E+06     17.9753E+06    -24.4464E+06         32.2815
            1884     12.3724E-03     107.138E-03     139.739E-03     128.323E-03    -434.664E-03     139.035E-03    -433.960E-03     128.323E-03    -32.6766E-03     111.253E-03    -49.6597E-03    -61.6017E-03    -55.1951E-03     104.846E-03    -49.6597E-03     65.1396E-03     10.2883E+06    -2.81553E+06    -60.7540E+06    -12.2833E+06    -50.8986E+06     9.90065E+06    -21.6267E+06         33.5975
            1885     13.3186E-03     107.178E-03     138.853E-03     122.739E-03    -428.190E-03     132.479E-03    -427.592E-03     128.516E-03    -28.3423E-03     113.770E-03    -50.0465E-03    -63.7411E-03    -56.4744E-03     106.503E-03    -50.0465E-03     70.2431E-03     20.3046E+06     1.00377E+06    -43.4676E+06    -15.7425E+06    -14.2360E+06     7.81921E+06    -19.1279E+06         35.1449
            1886     14.2639E-03     107.224E-03     133.932E-03     116.014E-03    -417.117E-03     121.637E-03    -416.932E-03     128.124E-03    -3.48057E-03     113.499E-03    -50.4820E-03    -63.0289E-03    -57.0754E-03     107.546E-03    -50.4820E-03     62.9710E-03     56.8852E+06     18.7671E+06    -24.3171E+06    -18.4577E+06     51.0258E+06     18.7671E+06    -20.0175E+06         37.1825
            1887     15.2088E-03     107.253E-03     130.678E-03     114.400E-03    -414.938E-03     117.580E-03    -414.782E-03     127.341E-03     15.0227E-03     115.010E-03    -50.8877E-03    -64.1159E-03    -57.6148E-03     108.509E-03    -50.8877E-03     65.9374E-03     113.957E+06     23.2451E+06    -21.2399E+06    -17.9588E+06     110.676E+06     23.2451E+06    -18.5895E+06         39.7758
            1888     16.1535E-03     107.317E-03     135.480E-03     109.883E-03    -411.772E-03     118.123E-03    -411.138E-03     126.606E-03    -7.40591E-03     113.671E-03    -51.4902E-03    -62.1757E-03    -57.7342E-03     109.230E-03    -51.4902E-03     39.3386E-03     149.191E+06     70.8984E+06    -11.9538E+06    -11.1084E+06     148.345E+06     70.8984E+06    -9.28895E+06         42.4397
            1889     955.165E-06     108.043E-03     138.647E-03     114.595E-03    -401.545E-03     102.882E-03    -376.844E-03     125.660E-03    -104.911E-03     91.6571E-03    -45.6652E-03    -45.9887E-03    -45.8500E-03     91.5471E-03    -45.6939E-03     7.16402E-03     14.0468E+06     11.1663E+06    -63.0491E+06     12.5341E+06    -61.8356E+06     11.4655E+06    -8.48548E+06         26.9097
            1890     1.91033E-03     108.047E-03     130.666E-03     116.495E-03    -397.802E-03     125.351E-03    -392.487E-03     116.495E-03    -19.2522E-03     91.4901E-03    -45.6775E-03    -45.8115E-03    -45.4555E-03     91.1628E-03    -45.7062E-03     12.9431E-03     14.1178E+06     10.5695E+06    -65.8935E+06     10.4786E+06    -62.4925E+06     10.8078E+06    -15.8846E+06         26.9457
            1891     2.86605E-03     108.053E-03     143.515E-03     121.318E-03    -422.314E-03     136.843E-03    -415.642E-03     121.318E-03     2.88389E-03     91.4138E-03    -45.5790E-03    -45.8333E-03    -45.1347E-03     90.7151E-03    -45.5790E-03     19.0880E-03     13.5765E+06     9.69057E+06    -71.5171E+06     8.09425E+06    -66.0348E+06     9.69057E+06    -20.8297E+06         27.0087
            1892     3.82191E-03     108.060E-03     141.256E-03     125.281E-03    -425.677E-03     136.187E-03    -420.608E-03     125.281E-03     46.0082E-03     91.3181E-03    -45.4170E-03    -45.9000E-03    -44.6713E-03     90.0894E-03    -45.4170E-03     25.4264E-03     12.6264E+06     9.14124E+06    -76.7161E+06     5.32531E+06    -69.4150E+06     9.14124E+06    -24.4354E+06         27.1107
            1893     4.77839E-03     108.070E-03     134.998E-03     123.236E-03    -417.006E-03     127.874E-03    -413.391E-03     126.745E-03     18.7812E-03     91.3736E-03    -45.2388E-03    -46.1357E-03    -44.2043E-03     89.4422E-03    -45.2388E-03     31.8917E-03     10.1078E+06     7.82293E+06    -82.4181E+06     1.09774E+06    -74.0722E+06     8.48708E+06    -26.3010E+06         27.2652
            1894     5.73527E-03     108.083E-03     126.742E-03     113.115E-03    -395.503E-03     112.123E-03    -393.474E-03     125.706E-03     25.1060E-03     91.8390E-03    -45.0620E-03    -46.7717E-03    -43.9618E-03     89.0290E-03    -45.0620E-03     38.5763E-03     7.84313E+06     3.32540E+06    -82.3690E+06    -5.07313E+06    -73.9646E+06     7.83719E+06    -25.3647E+06         27.4888
            1895     6.69244E-03     108.097E-03     128.767E-03     103.305E-03    -383.600E-03     108.335E-03    -383.332E-03     123.469E-03     3.89100E-03     92.8658E-03    -44.9439E-03    -47.9177E-03    -44.1194E-03     89.0676E-03    -44.9439E-03     45.1358E-03     9.62331E+06    -3.40045E+06    -81.4526E+06    -11.9634E+06    -72.8896E+06     9.62331E+06    -24.3716E+06         27.8031
            1896     7.64887E-03     108.114E-03     128.244E-03     102.964E-03    -388.269E-03     109.222E-03    -387.823E-03     121.540E-03    -1.25262E-03     94.5372E-03    -44.9192E-03    -49.6315E-03    -44.7737E-03     89.6794E-03    -44.9192E-03     51.5533E-03     11.6637E+06    -10.1373E+06    -79.7428E+06    -18.8455E+06    -71.0347E+06     11.6637E+06    -22.9341E+06         28.2408
            1897     8.60488E-03     108.134E-03     122.357E-03     112.637E-03    -397.749E-03     113.998E-03    -397.004E-03     120.250E-03    -32.9607E-03     97.1457E-03    -45.0288E-03    -52.1147E-03    -46.1739E-03     91.2049E-03    -45.0288E-03     57.9412E-03     15.5260E+06    -15.5386E+06    -78.5957E+06    -24.2837E+06    -69.8506E+06     15.5260E+06    -21.6546E+06         28.8374
            1898     9.55945E-03     108.158E-03     127.944E-03     116.460E-03    -410.159E-03     123.452E-03    -409.056E-03     119.849E-03    -19.9037E-03     100.489E-03    -45.2803E-03    -55.1973E-03    -48.3650E-03     93.6568E-03    -45.2803E-03     63.4622E-03     17.2904E+06    -17.4216E+06    -73.8397E+06    -28.0236E+06    -63.2377E+06     17.2904E+06    -21.4399E+06         29.6276
            1899     10.5112E-03     108.185E-03     128.499E-03     112.584E-03    -405.389E-03     120.336E-03    -404.464E-03     119.823E-03     14.0774E-03     104.194E-03    -45.7062E-03    -58.4865E-03    -51.0474E-03     96.7552E-03    -45.7062E-03     67.7551E-03     19.6054E+06    -17.9349E+06    -69.8375E+06    -29.3763E+06    -58.3960E+06     19.6054E+06    -20.9732E+06         30.6468
            1900     11.4609E-03     108.214E-03     122.707E-03     111.789E-03    -396.164E-03     114.694E-03    -395.803E-03     119.441E-03     5.64708E-03     108.501E-03    -46.2852E-03    -62.2103E-03    -54.3628E-03     100.653E-03    -46.2852E-03     71.3801E-03     16.8862E+06    -16.7351E+06    -67.4450E+06    -28.1844E+06    -55.9957E+06     16.8862E+06    -20.7778E+06         31.9010
            1901     12.4067E-03     108.251E-03     129.709E-03     115.583E-03    -405.474E-03     125.912E-03    -405.362E-03     119.267E-03    -5.40100E-03     112.569E-03    -47.0146E-03    -65.5683E-03    -57.5731E-03     104.574E-03    -47.0146E-03     73.7075E-03     12.0538E+06    -15.8835E+06    -62.9459E+06    -25.9933E+06    -52.8362E+06     12.0538E+06    -19.0738E+06         33.3707
            1902     13.3501E-03     108.291E-03     132.687E-03     119.164E-03    -413.471E-03     132.090E-03    -413.374E-03     119.663E-03    -3.27436E-03     115.874E-03    -47.8065E-03    -68.0929E-03    -59.7843E-03     107.565E-03    -47.8065E-03     76.3926E-03     26.2428E+06    -18.5042E+03    -44.5156E+06    -22.3644E+06    -11.4925E+06     15.5655E+06    -17.3108E+06         35.1713
            1903     14.2930E-03     108.341E-03     126.340E-03     119.454E-03    -409.245E-03     125.375E-03    -408.779E-03     119.953E-03    -14.1089E-03     116.860E-03    -48.6701E-03    -68.1993E-03    -61.7684E-03     110.430E-03    -48.6701E-03     66.7271E-03     63.1073E+06     33.0397E+06    -22.0815E+06    -17.5022E+06     58.5280E+06     33.0397E+06    -18.7475E+06         37.5383
            1904     15.2318E-03     108.372E-03     121.380E-03     111.491E-03    -394.005E-03     112.815E-03    -393.508E-03     119.560E-03    -13.7999E-03     119.916E-03    -49.5805E-03    -70.3250E-03    -63.9503E-03     113.542E-03    -49.5805E-03     67.5685E-03     111.284E+06     45.2654E+06    -15.5652E+06    -12.4053E+06     108.124E+06     45.2654E+06    -19.1549E+06         40.4105
            1905     16.1699E-03     108.438E-03     118.310E-03     93.1863E-03    -372.442E-03     93.0559E-03    -372.311E-03     118.310E-03    -1.47988E-03     121.490E-03    -50.6867E-03    -70.8649E-03    -66.5987E-03     117.224E-03    -50.6867E-03     38.4285E-03     136.267E+06     83.3287E+06    -8.83309E+06    -7.54487E+06     134.979E+06     83.3287E+06    -12.4091E+06         43.1795
            1906     959.544E-06     109.134E-03     147.706E-03     112.441E-03    -413.425E-03     126.852E-03    -403.635E-03     123.505E-03    -73.0836E-03     82.2397E-03    -40.9998E-03    -41.2388E-03    -41.0806E-03     82.0814E-03    -40.9998E-03     8.06279E-03     18.0813E+06     15.1584E+06    -46.2416E+06     16.9894E+06    -45.2106E+06     15.2194E+06    -7.17393E+06         26.1665
            1907     1.91950E-03     109.138E-03     131.890E-03     115.738E-03    -404.449E-03     118.147E-03    -398.772E-03     123.803E-03    -38.0115E-03     82.0302E-03    -40.9387E-03    -41.0912E-03    -40.6057E-03     81.5446E-03    -40.9387E-03     14.9178E-03     14.0964E+06     10.1439E+06    -50.6500E+06     11.7213E+06    -48.2750E+06     10.1439E+06    -12.0326E+06         26.1897
            1908     2.87976E-03     109.143E-03     128.613E-03     101.387E-03    -387.597E-03     104.438E-03    -381.851E-03     119.816E-03    -18.0696E-03     81.9165E-03    -40.7428E-03    -41.1737E-03    -40.1345E-03     80.8773E-03    -40.7428E-03     22.0341E-03     8.71493E+06     3.92861E+06    -59.5342E+06     4.99233E+06    -55.8117E+06     3.92861E+06    -15.2647E+06         26.2400
            1909     3.84068E-03     109.150E-03     119.248E-03     105.090E-03    -374.924E-03     101.877E-03    -367.917E-03     115.452E-03    -27.1866E-03     82.0013E-03    -40.5171E-03    -41.4832E-03    -39.6441E-03     80.1622E-03    -40.5171E-03     29.4372E-03     333.265E+03    -3.68878E+06    -66.2905E+06    -4.10410E+06    -61.8531E+06    -3.68878E+06    -16.2922E+06         26.3313
            1910     4.80176E-03     109.159E-03     129.176E-03     114.550E-03    -388.331E-03     124.289E-03    -383.444E-03     114.550E-03    -69.0480E-03     82.4478E-03    -40.3189E-03    -42.1292E-03    -39.2343E-03     79.5529E-03    -40.3189E-03     37.0483E-03    -8.34241E+06    -12.1612E+06    -74.2636E+06    -15.4085E+06    -70.2948E+06    -9.06392E+06    -14.9192E+06         26.4819
            1911     5.76351E-03     109.171E-03     134.032E-03     113.111E-03    -386.892E-03     129.411E-03    -385.561E-03     116.401E-03    -34.3712E-03     83.4252E-03    -40.1483E-03    -43.2728E-03    -39.0813E-03     79.2336E-03    -40.1483E-03     44.8492E-03    -11.9298E+06    -23.9873E+06    -76.2257E+06    -27.4393E+06    -72.7736E+06    -11.9298E+06    -12.3063E+06         26.7153
            1912     6.72510E-03     109.185E-03     122.282E-03     101.142E-03    -361.801E-03     104.960E-03    -359.804E-03     116.466E-03    -42.9477E-03     85.3134E-03    -40.0870E-03    -45.2314E-03    -39.6247E-03     79.7067E-03    -40.0870E-03     52.5094E-03    -8.11728E+06    -35.7996E+06    -74.4093E+06    -39.2496E+06    -70.9594E+06    -8.11728E+06    -10.2595E+06         27.0625
            1913     7.68597E-03     109.204E-03     115.579E-03     94.7698E-03    -354.610E-03     95.3136E-03    -353.874E-03     114.300E-03    -12.7263E-03     88.3840E-03    -40.2099E-03    -48.2031E-03    -41.2062E-03     81.3871E-03    -40.2099E-03     59.8924E-03    -371.781E+03    -43.4791E+06    -73.4543E+06    -48.1971E+06    -68.7363E+06    -371.781E+03    -10.6234E+06         27.5588
            1914     8.64490E-03     109.225E-03     113.862E-03     104.112E-03    -366.653E-03     105.015E-03    -366.276E-03     112.583E-03     7.54718E-03     92.5979E-03    -40.5290E-03    -52.0631E-03    -43.7837E-03     84.3186E-03    -40.5290E-03     66.9643E-03     8.05765E+06    -42.5530E+06    -74.6166E+06    -51.7946E+06    -65.3750E+06     8.05765E+06    -13.0966E+06         28.2357
            1915     9.60068E-03     109.253E-03     119.427E-03     104.865E-03    -375.902E-03     111.593E-03    -375.234E-03     112.032E-03     22.1212E-03     97.3846E-03    -41.0570E-03    -56.3005E-03    -47.2017E-03     88.2858E-03    -41.0570E-03     72.3907E-03     14.3881E+06    -36.8506E+06    -72.5817E+06    -50.2675E+06    -59.1648E+06     14.3881E+06    -16.1668E+06         29.1314
            1916     10.5540E-03     109.284E-03     124.100E-03     105.876E-03    -385.481E-03     117.349E-03    -384.920E-03     112.066E-03     26.9196E-03     102.910E-03    -41.8471E-03    -61.0587E-03    -51.6150E-03     93.4660E-03    -41.8471E-03     76.3112E-03     19.7070E+06    -28.6667E+06    -70.2536E+06    -44.9378E+06    -53.9824E+06     19.7070E+06    -19.9256E+06         30.2748
            1917     11.5014E-03     109.320E-03     118.416E-03     108.449E-03    -383.322E-03     114.283E-03    -382.872E-03     112.133E-03     1.44778E-03     109.150E-03    -42.8657E-03    -66.2782E-03    -56.7091E-03     99.5811E-03    -42.8657E-03     79.6155E-03     19.1069E+06    -22.0331E+06    -69.7870E+06    -37.6189E+06    -54.2013E+06     19.1069E+06    -21.8420E+06         31.6612
            1918     12.4445E-03     109.362E-03     117.564E-03     105.233E-03    -377.713E-03     110.418E-03    -377.206E-03     111.873E-03    -19.6840E-03     114.684E-03    -44.0895E-03    -70.5927E-03    -61.4859E-03     105.577E-03    -44.0895E-03     80.0354E-03     17.9373E+06    -15.6240E+06    -66.2606E+06    -28.9040E+06    -52.9806E+06     17.9373E+06    -22.0999E+06         33.3080
            1919     13.3844E-03     109.407E-03     115.497E-03     107.128E-03    -375.111E-03     110.735E-03    -374.673E-03     111.452E-03    -1.02178E-03     119.597E-03    -45.4216E-03    -74.1846E-03    -65.4701E-03     110.883E-03    -45.4216E-03     80.3049E-03     34.0163E+06     9.27779E+06    -43.2138E+06    -18.9237E+06    -6.05547E+06     25.0596E+06    -23.0965E+06         35.3662
            1920     14.3195E-03     109.462E-03     111.367E-03     102.589E-03    -366.407E-03     102.643E-03    -365.881E-03     110.788E-03    -12.2575E-03     121.808E-03    -46.8663E-03    -74.9459E-03    -68.5814E-03     115.444E-03    -46.8663E-03     68.2406E-03     69.6436E+06     46.4052E+06    -16.9802E+06    -9.89846E+06     62.5618E+06     46.4052E+06    -22.1021E+06         38.0457
            1921     15.2527E-03     109.496E-03     110.385E-03     100.589E-03    -362.895E-03     100.435E-03    -362.163E-03     109.806E-03    -15.5274E-03     126.479E-03    -48.3711E-03    -78.1091E-03    -72.1338E-03     120.503E-03    -48.3711E-03     68.0319E-03     108.230E+06     61.6389E+06    -8.21673E+06    -5.08062E+06     105.094E+06     61.6389E+06    -18.1335E+06         41.1553
            1922     16.1817E-03     109.569E-03     122.997E-03     99.9015E-03    -371.312E-03     113.032E-03    -370.676E-03     109.230E-03    -7.80510E-03     130.443E-03    -50.0537E-03    -80.5437E-03    -76.5385E-03     126.438E-03    -50.0537E-03     39.1254E-03     125.144E+06     89.9715E+06    -3.52872E+06    -2.45700E+06     122.414E+06     91.6299E+06    -10.4757E+06         43.9782
            1923     965.228E-06     110.214E-03     140.840E-03     107.634E-03    -401.427E-03     132.388E-03    -392.975E-03     107.634E-03    -109.829E-03     70.5395E-03    -35.1168E-03    -35.4217E-03    -35.2095E-03     70.3273E-03    -35.1168E-03     8.74225E-03     4.46048E+06     2.15464E+06    -35.6695E+06     3.57957E+06    -35.1104E+06     2.47646E+06    -3.93346E+06         25.2609
            1924     1.93085E-03     110.217E-03     116.543E-03     92.0314E-03    -364.381E-03     90.8914E-03    -360.826E-03     114.128E-03    -64.2665E-03     70.3996E-03    -35.0521E-03    -35.3448E-03    -34.6804E-03     69.7353E-03    -35.0521E-03     16.1250E-03    -2.79021E+06    -5.92708E+06    -40.9673E+06    -3.60673E+06    -40.1508E+06    -5.92708E+06    -4.99265E+06         25.2817
            1925     2.89693E-03     110.221E-03     104.251E-03     70.0555E-03    -322.584E-03     68.4297E-03    -319.222E-03     102.515E-03    -40.2497E-03     70.4301E-03    -34.8342E-03    -35.6003E-03    -34.1680E-03     68.9977E-03    -34.8342E-03     23.9843E-03    -13.0150E+06    -17.7193E+06    -53.4992E+06    -14.6596E+06    -51.8547E+06    -17.7193E+06    -4.92512E+06         25.3338
            1926     3.86341E-03     110.228E-03     110.661E-03     86.3472E-03    -333.021E-03     96.7596E-03    -329.483E-03     96.7100E-03    -35.2986E-03     70.8371E-03    -34.5960E-03    -36.2454E-03    -33.7049E-03     68.2966E-03    -34.5960E-03     32.1172E-03    -26.8193E+06    -30.1655E+06    -64.8192E+06    -29.6607E+06    -62.0370E+06    -30.1063E+06    -1.40011E+06         25.4361
            1927     4.83057E-03     110.236E-03     121.436E-03     97.6928E-03    -345.778E-03     116.789E-03    -341.881E-03     98.4420E-03    -36.0369E-03     71.9956E-03    -34.4284E-03    -37.5678E-03    -33.5820E-03     68.0097E-03    -34.4284E-03     40.5896E-03    -35.2757E+06    -41.5061E+06    -76.9500E+06    -46.4606E+06    -71.8646E+06    -35.4065E+06     2.62941E+06         25.6152
            1928     5.79722E-03     110.248E-03     124.056E-03     101.025E-03    -349.258E-03     121.280E-03    -347.231E-03     101.774E-03    -3.57889E-03     74.1305E-03    -34.3953E-03    -39.7416E-03    -34.0592E-03     68.4482E-03    -34.3953E-03     49.2230E-03    -31.2344E+06    -52.4998E+06    -82.5493E+06    -60.8066E+06    -74.2425E+06    -31.2344E+06     4.99667E+06         25.9017
            1929     6.76362E-03     110.263E-03     126.889E-03     103.634E-03    -357.248E-03     123.692E-03    -355.005E-03     104.588E-03    -30.6322E-03     77.4818E-03    -34.5401E-03    -42.9479E-03    -35.4906E-03     70.0245E-03    -34.5401E-03     57.7872E-03    -19.3996E+06    -59.2198E+06    -78.5235E+06    -68.5825E+06    -69.1608E+06    -19.3996E+06     4.04117E+06         26.3272
            1930     7.72790E-03     110.284E-03     123.650E-03     105.764E-03    -360.090E-03     121.925E-03    -359.319E-03     106.718E-03    -27.2144E-03     82.2574E-03    -34.9355E-03    -47.3387E-03    -38.2696E-03     73.1883E-03    -34.9355E-03     65.9393E-03    -4.54148E+06    -59.9997E+06    -73.7762E+06    -69.9870E+06    -63.7889E+06    -4.54148E+06    -111.898E+03         26.9244
            1931     8.68871E-03     110.310E-03     113.345E-03     96.6420E-03    -345.209E-03     102.261E-03    -344.694E-03     107.212E-03     518.204E-06     88.2572E-03    -35.5950E-03    -52.6740E-03    -42.2661E-03     77.8494E-03    -35.5950E-03     73.5897E-03     7.85045E+06    -51.2164E+06    -73.1586E+06    -67.6291E+06    -56.7459E+06     7.85045E+06    -7.25316E+06         27.7215
            1932     9.64591E-03     110.343E-03     105.496E-03     82.6443E-03    -327.199E-03     81.2078E-03    -325.762E-03     105.496E-03    -11.5213E-03     95.0786E-03    -36.5395E-03    -58.5337E-03    -47.4252E-03     83.9701E-03    -36.5395E-03     79.4787E-03     15.0324E+06    -39.4830E+06    -73.4590E+06    -61.7389E+06    -51.2031E+06     15.0324E+06    -15.3058E+06         28.7493
            1933     10.5969E-03     110.381E-03     108.692E-03     91.3083E-03    -337.900E-03     95.3563E-03    -336.846E-03     103.591E-03    -19.9658E-03     102.587E-03    -37.8080E-03    -64.7627E-03    -53.5469E-03     91.3708E-03    -37.8080E-03     83.6213E-03     19.4170E+06    -27.6421E+06    -72.4276E+06    -54.0337E+06    -46.0360E+06     19.4170E+06    -21.5281E+06         30.0305
            1934     11.5429E-03     110.426E-03     110.257E-03     103.076E-03    -352.210E-03     109.705E-03    -351.658E-03     103.076E-03    -21.9487E-03     110.369E-03    -39.3542E-03    -70.9977E-03    -60.0595E-03     99.4310E-03    -39.3542E-03     86.2823E-03     19.3026E+06    -17.7441E+06    -75.6383E+06    -44.8728E+06    -48.5096E+06     19.3026E+06    -27.4751E+06         31.5620
            1935     12.4828E-03     110.475E-03     104.816E-03     98.7244E-03    -344.899E-03     99.3112E-03    -343.406E-03     102.736E-03    -49.5209E-03     118.011E-03    -41.1483E-03    -76.8669E-03    -66.8901E-03     108.034E-03    -41.1483E-03     85.7742E-03     17.8670E+06    -8.15642E+06    -74.5911E+06    -32.7372E+06    -50.0103E+06     17.8670E+06    -31.6125E+06         33.3821
            1936     13.4150E-03     110.529E-03     104.164E-03     97.0607E-03    -339.432E-03     98.0919E-03    -338.241E-03     101.942E-03    -27.9605E-03     124.818E-03    -43.1162E-03    -81.7061E-03    -72.7916E-03     115.904E-03    -43.1162E-03     83.8746E-03     35.6326E+06     17.2925E+06    -49.3124E+06    -21.6007E+06    -1.80340E+06     27.0167E+06    -31.2172E+06         35.6575
            1937     14.3439E-03     110.589E-03     103.864E-03     93.4381E-03    -334.354E-03     95.8583E-03    -334.047E-03     101.137E-03    -4.09665E-03     128.264E-03    -45.2283E-03    -83.0395E-03    -76.9011E-03     122.126E-03    -45.2283E-03     69.4652E-03     68.1465E+06     48.0765E+06    -23.2216E+06    -13.9209E+06     58.8458E+06     48.0765E+06    -26.2136E+06         38.5802
            1938     15.2684E-03     110.628E-03     100.756E-03     91.8154E-03    -331.788E-03     91.8184E-03    -331.286E-03     100.250E-03    -3.21182E-03     134.196E-03    -47.3461E-03    -86.8619E-03    -81.0516E-03     128.385E-03    -47.3461E-03     69.7805E-03     99.0729E+06     60.4873E+06    -11.5871E+06    -8.32175E+06     95.8075E+06     60.4873E+06    -16.5082E+06         41.8570
            1939     16.1878E-03     110.712E-03     113.612E-03     94.9377E-03    -341.688E-03     107.582E-03    -340.567E-03     99.8452E-03    -24.1383E-03     138.186E-03    -49.5715E-03    -88.7348E-03    -84.7988E-03     134.250E-03    -49.5715E-03     41.5965E-03     118.056E+06     86.1948E+06    -5.90868E+06    -5.33699E+06     112.755E+06     90.9249E+06    -7.09327E+06         44.6976
            1940     971.804E-06     111.280E-03     131.587E-03     63.3190E-03    -341.394E-03     67.9307E-03    -336.749E-03     122.331E-03    -44.6049E-03     57.3475E-03    -28.5256E-03    -28.8203E-03    -28.5610E-03     57.0883E-03    -28.5256E-03     8.74443E-03    -20.9344E+06    -25.9708E+06    -38.4495E+06    -25.7498E+06    -33.7040E+06    -25.9008E+06     1.25532E+06         24.2662
            1941     1.94369E-03     111.282E-03     105.408E-03     60.1074E-03    -303.728E-03     72.7686E-03    -301.619E-03     90.6382E-03     4.62811E-03     57.3720E-03    -28.4373E-03    -28.9331E-03    -28.1113E-03     56.5502E-03    -28.4373E-03     16.1760E-03    -27.3841E+06    -37.9088E+06    -50.5359E+06    -35.2888E+06    -42.3793E+06    -38.1606E+06     5.18353E+06         24.2962
            1942     2.91618E-03     111.286E-03     106.599E-03     72.7142E-03    -310.434E-03     90.3769E-03    -308.243E-03     86.7453E-03     23.9862E-03     57.7075E-03    -28.2532E-03    -29.4600E-03    -27.6590E-03     55.9065E-03    -28.2532E-03     24.3252E-03    -37.7849E+06    -51.3334E+06    -70.2021E+06    -50.7842E+06    -57.2029E+06    -51.3334E+06     11.0522E+06         24.3684
            1943     3.88907E-03     111.292E-03     108.532E-03     89.6538E-03    -321.439E-03     108.031E-03    -320.938E-03     89.6538E-03     16.7696E-03     58.8404E-03    -28.1085E-03    -30.7386E-03    -27.5256E-03     55.6274E-03    -28.1085E-03     32.8915E-03    -48.8995E+06    -59.1417E+06    -88.8274E+06    -67.5375E+06    -70.2487E+06    -59.0825E+06     17.2523E+06         24.5112
            1944     4.86169E-03     111.300E-03     104.281E-03     91.4817E-03    -312.837E-03     102.066E-03    -312.016E-03     92.8762E-03     24.6546E-03     61.1459E-03    -28.1101E-03    -33.0424E-03    -28.0321E-03     56.1357E-03    -28.1101E-03     41.9375E-03    -51.0661E+06    -60.4248E+06    -100.353E+06    -80.1265E+06    -76.7372E+06    -54.9797E+06     20.6027E+06         24.7539
            1945     5.83389E-03     111.313E-03     100.771E-03     92.7254E-03    -307.803E-03     98.4365E-03    -306.863E-03     94.1199E-03     29.9056E-03     64.8892E-03    -28.3334E-03    -36.5728E-03    -29.5486E-03     57.8651E-03    -28.3334E-03     51.2730E-03    -39.7529E+06    -59.7229E+06    -99.7152E+06    -84.9940E+06    -74.4441E+06    -39.7529E+06     18.5574E+06         25.1288
            1946     6.80352E-03     111.331E-03     112.920E-03     95.2685E-03    -322.280E-03     110.936E-03    -320.497E-03     95.4710E-03    -14.0593E-03     70.1256E-03    -28.8020E-03    -41.3168E-03    -32.2574E-03     61.0662E-03    -28.8020E-03     60.7507E-03    -20.7788E+06    -56.9447E+06    -90.5435E+06    -83.7250E+06    -63.7632E+06    -20.7788E+06     12.8233E+06         25.6649
            1947     7.77034E-03     111.357E-03     112.583E-03     94.1206E-03    -323.804E-03     106.818E-03    -320.849E-03     96.9307E-03    -55.4592E-03     76.6623E-03    -29.5674E-03    -47.0863E-03    -36.2180E-03     65.7940E-03    -29.5674E-03     69.9471E-03    -3.74673E+06    -53.7324E+06    -79.7808E+06    -78.1232E+06    -55.3899E+06    -3.74673E+06     4.02908E+06         26.3828
            1948     8.73299E-03     111.389E-03     108.107E-03     84.6491E-03    -312.752E-03     94.1048E-03    -311.069E-03     96.9685E-03    -37.0842E-03     84.4979E-03    -30.6441E-03    -53.8586E-03    -41.5871E-03     72.2264E-03    -30.6441E-03     78.5946E-03     10.1738E+06    -42.5170E+06    -70.9701E+06    -68.7264E+06    -44.7608E+06     10.1738E+06    -6.42308E+06         27.3084
            1949     9.68973E-03     111.429E-03     103.283E-03     80.0819E-03    -303.276E-03     86.3802E-03    -302.177E-03     95.8855E-03    -26.4394E-03     93.4583E-03    -32.0711E-03    -61.3841E-03    -48.3933E-03     80.4675E-03    -32.0711E-03     85.7719E-03     18.5439E+06    -29.3720E+06    -69.4245E+06    -58.8564E+06    -39.9401E+06     18.5439E+06    -16.4888E+06         28.4708
            1950     10.6400E-03     111.477E-03     97.3937E-03     82.0122E-03    -298.386E-03     83.8219E-03    -297.338E-03     94.5355E-03    -23.6129E-03     103.006E-03    -33.8647E-03    -69.1323E-03    -56.1702E-03     90.0442E-03    -33.8647E-03     90.7557E-03     22.1840E+06    -19.6082E+06    -68.2208E+06    -49.8097E+06    -38.0194E+06     22.1840E+06    -23.3729E+06         29.8899
            1951     11.5821E-03     111.531E-03     95.4975E-03     83.8274E-03    -300.726E-03     85.6168E-03    -300.336E-03     93.3185E-03    -16.7445E-03     112.839E-03    -35.9878E-03    -76.8374E-03    -64.4993E-03     100.501E-03    -35.9878E-03     93.4365E-03     24.7515E+06    -5.54379E+06    -70.6365E+06    -41.5448E+06    -34.6354E+06     24.7515E+06    -31.9203E+06         31.5679
            1952     12.5170E-03     111.592E-03     93.0708E-03     88.2101E-03    -304.332E-03     87.8760E-03    -303.253E-03     92.3259E-03    -33.4371E-03     122.514E-03    -38.3896E-03    -84.1294E-03    -73.0649E-03     111.450E-03    -38.3896E-03     92.8624E-03     18.2000E+06     1.50955E+06    -80.1563E+06    -33.9975E+06    -44.6492E+06     18.2000E+06    -39.9624E+06         33.5446
            1953     13.4440E-03     111.657E-03     94.0422E-03     87.5381E-03    -306.591E-03     89.2393E-03    -305.759E-03     91.5094E-03    -29.3812E-03     130.846E-03    -41.0043E-03    -89.8736E-03    -80.4013E-03     121.373E-03    -41.0043E-03     89.3146E-03     34.0681E+06     20.5603E+06    -60.2801E+06    -26.8488E+06    -3.92173E+06     25.1188E+06    -36.7493E+06         35.9817
            1954     14.3640E-03     111.723E-03     99.1967E-03     88.1256E-03    -311.430E-03     96.1468E-03    -311.295E-03     91.0406E-03    -5.65860E-03     135.698E-03    -43.7698E-03    -91.9515E-03    -85.5936E-03     129.341E-03    -43.7698E-03     73.5919E-03     63.0280E+06     44.8771E+06    -30.5741E+06    -20.1862E+06     52.6401E+06     44.8771E+06    -29.0921E+06         39.0619
            1955     15.2795E-03     111.772E-03     96.6946E-03     89.3118E-03    -305.969E-03     94.7033E-03    -305.427E-03     90.7606E-03    -16.6944E-03     141.964E-03    -46.4635E-03    -95.4982E-03    -89.3260E-03     135.791E-03    -46.4635E-03     74.5599E-03     85.4272E+06     50.7490E+06    -18.5698E+06    -13.8049E+06     80.6623E+06     50.7490E+06    -18.9354E+06         42.4401
            1956     16.1937E-03     111.860E-03     89.9505E-03     75.4364E-03    -279.908E-03     74.1775E-03    -278.649E-03     89.9505E-03    -22.3405E-03     144.805E-03    -49.1819E-03    -95.6814E-03    -91.5178E-03     140.641E-03    -49.1819E-03     45.9608E-03     113.805E+06     78.3987E+06    -7.32533E+06    -6.56597E+06     103.116E+06     88.3283E+06    -7.05860E+06         45.2981
            1957     978.313E-06     112.333E-03     121.323E-03     44.1051E-03    -282.101E-03     53.7208E-03    -273.511E-03     103.117E-03     28.0943E-03     43.8007E-03    -21.7576E-03    -22.0448E-03    -21.7563E-03     43.5122E-03    -21.7576E-03     8.01629E-03    -41.5900E+06    -68.1884E+06    -75.9760E+06    -70.7630E+06    -46.5512E+06    -68.4402E+06     11.9344E+06         23.2653
            1958     1.95695E-03     112.333E-03     105.136E-03     63.3157E-03    -280.955E-03     85.4431E-03    -277.762E-03     79.8154E-03     1.24386E-03     44.0367E-03    -21.6818E-03    -22.3560E-03    -21.4232E-03     43.1039E-03    -21.6818E-03     15.0840E-03    -45.6442E+06    -82.2534E+06    -96.0974E+06    -84.9988E+06    -56.4911E+06    -82.5052E+06     20.0051E+06         23.3204
            1959     2.93581E-03     112.337E-03     113.729E-03     85.5618E-03    -307.098E-03     111.586E-03    -304.955E-03     85.5618E-03     24.4750E-03     45.0426E-03    -21.6119E-03    -23.4319E-03    -21.3528E-03     42.9635E-03    -21.6119E-03     23.0671E-03    -52.9069E+06    -88.0588E+06    -114.719E+06    -97.1873E+06    -70.4385E+06    -88.0588E+06     27.2808E+06         23.4392
            1960     3.91465E-03     112.342E-03     98.4101E-03     82.9250E-03    -289.127E-03     90.3962E-03    -288.128E-03     89.9401E-03     56.7082E-06     47.2877E-03    -21.6845E-03    -25.6106E-03    -21.8745E-03     43.5515E-03    -21.6845E-03     31.8200E-03    -59.2578E+06    -82.2755E+06    -123.918E+06    -102.531E+06    -80.6455E+06    -82.2755E+06     30.1833E+06         23.6518
            1961     4.89267E-03     112.352E-03     88.8112E-03     78.0735E-03    -273.635E-03     77.5460E-03    -273.097E-03     88.8009E-03     6.88135E-03     51.0787E-03    -21.9714E-03    -29.1021E-03    -23.3213E-03     45.2980E-03    -21.9714E-03     41.2591E-03    -58.2168E+06    -67.4286E+06    -120.944E+06    -100.060E+06    -80.8795E+06    -65.6500E+06     28.8804E+06         23.9801
            1962     5.86848E-03     112.367E-03     87.9839E-03     82.2635E-03    -278.205E-03     81.0799E-03    -276.057E-03     87.0197E-03    -26.2001E-03     56.4597E-03    -22.5137E-03    -33.9431E-03    -25.8798E-03     48.3964E-03    -22.5137E-03     51.3859E-03    -43.0764E+06    -56.6434E+06    -108.016E+06    -93.3064E+06    -70.7892E+06    -43.6402E+06     23.1196E+06         24.4526
            1963     6.84165E-03     112.390E-03     87.2543E-03     84.7551E-03    -283.471E-03     82.4738E-03    -279.937E-03     86.0015E-03    -59.4258E-03     63.3474E-03    -23.3520E-03    -39.9936E-03    -29.6514E-03     53.0053E-03    -23.3520E-03     61.9327E-03    -20.7901E+06    -49.7168E+06    -90.4979E+06    -83.7895E+06    -56.4252E+06    -20.7901E+06     14.3968E+06         25.0993
            1964     7.81043E-03     112.421E-03     85.2605E-03     81.2881E-03    -278.309E-03     78.1591E-03    -274.892E-03     84.9719E-03    -43.8112E-03     71.6530E-03    -24.5104E-03    -47.1352E-03    -34.7332E-03     59.2510E-03    -24.5104E-03     72.5798E-03    -1.14440E+06    -40.3402E+06    -73.8340E+06    -71.9401E+06    -42.2340E+06    -1.14440E+06     2.53292E+06         25.9348
            1965     8.77390E-03     112.461E-03     94.5681E-03     80.8971E-03    -282.807E-03     89.0267E-03    -280.747E-03     84.3784E-03    -22.5808E-03     81.4259E-03    -26.0085E-03    -55.4097E-03    -41.3308E-03     67.3470E-03    -26.0085E-03     83.0763E-03     13.0831E+06    -29.0661E+06    -63.4928E+06    -59.9967E+06    -32.5621E+06     13.0831E+06    -9.22714E+06         26.9802
            1966     9.73080E-03     112.512E-03     102.381E-03     84.9175E-03    -290.926E-03     101.485E-03    -290.031E-03     84.9175E-03    -26.6883E-03     92.2735E-03    -27.8920E-03    -64.3850E-03    -49.4104E-03     77.2990E-03    -27.8920E-03     92.0259E-03     23.0019E+06    -16.3067E+06    -60.8426E+06    -49.6943E+06    -27.4551E+06     23.0019E+06    -18.3437E+06         28.2666
            1967     10.6795E-03     112.571E-03     95.8347E-03     78.8297E-03    -280.331E-03     88.2263E-03    -279.154E-03     85.2612E-03    -30.7953E-03     103.924E-03    -30.1783E-03    -73.7657E-03    -58.8305E-03     88.9884E-03    -30.1783E-03     98.4713E-03     27.1440E+06    -6.91052E+06    -62.3996E+06    -40.4474E+06    -28.8627E+06     27.1440E+06    -26.4524E+06         29.8077
            1968     11.6195E-03     112.638E-03     89.7414E-03     75.1312E-03    -270.646E-03     79.7537E-03    -270.149E-03     84.6223E-03    -12.0007E-03     116.086E-03    -32.8455E-03    -83.2414E-03    -68.9991E-03     101.844E-03    -32.8455E-03     102.529E-03     32.1934E+06     8.75966E+06    -60.9875E+06    -32.7486E+06    -19.4792E+06     32.1934E+06    -33.6941E+06         31.6050
            1969     12.5488E-03     112.714E-03     85.8721E-03     76.9247E-03    -267.808E-03     78.9915E-03    -267.745E-03     83.7421E-03    -97.0475E-06     127.585E-03    -35.8236E-03    -91.7497E-03    -78.9089E-03     114.744E-03    -35.8236E-03     102.743E-03     24.6662E+06     13.1204E+06    -76.0444E+06    -28.2905E+06    -34.6335E+06     24.6662E+06    -41.8390E+06         33.7088
            1970     13.4696E-03     112.790E-03     83.0080E-03     71.4778E-03    -262.927E-03     71.6700E-03    -262.809E-03     82.6972E-03     138.188E-06     137.427E-03    -39.0240E-03    -98.4246E-03    -87.4669E-03     126.469E-03    -39.0240E-03     99.0394E-03     35.3365E+06     23.5156E+06    -64.3111E+06    -21.8861E+06    -10.6019E+06     27.0290E+06    -41.3017E+06         36.2813
            1971     14.3837E-03     112.869E-03     87.1304E-03     72.1675E-03    -267.260E-03     77.5113E-03    -267.175E-03     81.7015E-03     5.32373E-03     143.059E-03    -42.3608E-03    -100.713E-03    -93.3779E-03     135.724E-03    -42.3608E-03     81.6892E-03     57.3954E+06     44.9768E+06    -28.4595E+06    -15.0489E+06     43.9705E+06     44.9911E+06    -30.5492E+06         39.4761
            1972     15.2930E-03     112.921E-03     86.4191E-03     75.3813E-03    -269.916E-03     79.7429E-03    -268.849E-03     80.9902E-03     7.05887E-03     149.451E-03    -45.5984E-03    -103.835E-03    -96.9328E-03     142.549E-03    -45.5984E-03     81.5130E-03     71.6945E+06     50.5429E+06    -17.8842E+06    -12.6386E+06     66.4347E+06     50.5573E+06    -18.7396E+06         42.9113
            1973     16.2003E-03     113.017E-03     86.1981E-03     66.9001E-03    -264.068E-03     71.3714E-03    -262.541E-03     80.1996E-03     21.1474E-03     151.885E-03    -48.7787E-03    -103.166E-03    -98.5722E-03     147.291E-03    -48.7787E-03     51.2029E-03     106.466E+06     75.5274E+06    -10.6187E+06    -9.60258E+06     91.5519E+06     89.4251E+06    -8.80116E+06         45.7778
            1974     984.532E-06     113.369E-03     99.0938E-03     63.0351E-03    -261.808E-03     76.4766E-03    -239.191E-03     63.0351E-03     71.3513E-03     30.8722E-03    -15.2429E-03    -15.6324E-03    -15.3254E-03     30.5652E-03    -15.2429E-03     6.88481E-03    -69.1843E+06    -156.056E+06    -165.036E+06    -158.910E+06    -74.4800E+06    -156.887E+06     19.0548E+06         22.3674
            1975     1.96936E-03     113.371E-03     98.9200E-03     71.6652E-03    -262.019E-03     93.8441E-03    -259.837E-03     74.5590E-03    -35.5263E-03     31.7754E-03    -15.3685E-03    -16.4058E-03    -15.4069E-03     30.7765E-03    -15.3685E-03     13.2831E-03    -67.0555E+06    -147.759E+06    -164.193E+06    -154.318E+06    -76.9310E+06    -147.759E+06     27.4926E+06         22.4594
            1976     2.95386E-03     113.373E-03     89.7558E-03     72.4653E-03    -249.202E-03     81.9499E-03    -248.638E-03     79.7069E-03    -14.5788E-03     33.8401E-03    -15.5671E-03    -18.2679E-03    -16.0281E-03     31.6004E-03    -15.5671E-03     20.8029E-03    -70.6853E+06    -131.495E+06    -157.523E+06    -144.536E+06    -83.6730E+06    -131.495E+06     29.5376E+06         22.6361
            1977     3.93749E-03     113.380E-03     85.8121E-03     67.8045E-03    -245.640E-03     72.8593E-03    -244.050E-03     79.1673E-03    -40.5553E-03     37.3577E-03    -15.9557E-03    -21.4067E-03    -17.3839E-03     33.3348E-03    -15.9557E-03     29.4652E-03    -72.1563E+06    -108.903E+06    -143.013E+06    -128.814E+06    -86.3556E+06    -108.903E+06     26.7947E+06         22.9245
            1978     4.91935E-03     113.392E-03     81.8653E-03     67.4105E-03    -245.678E-03     70.5748E-03    -244.470E-03     77.4928E-03    -22.4057E-03     42.4571E-03    -16.5753E-03    -25.8680E-03    -19.6425E-03     36.2317E-03    -16.5753E-03     39.1902E-03    -68.9013E+06    -81.4972E+06    -123.662E+06    -110.530E+06    -82.0328E+06    -81.4972E+06     22.1872E+06         23.3357
            1979     5.89875E-03     113.412E-03     77.0916E-03     72.0126E-03    -246.787E-03     70.6681E-03    -244.475E-03     76.1236E-03    -32.6272E-03     49.1216E-03    -17.4499E-03    -31.6473E-03    -22.9261E-03     40.4003E-03    -17.4499E-03     50.0480E-03    -49.2211E+06    -59.3809E+06    -100.086E+06    -91.3184E+06    -66.1933E+06    -51.1766E+06     16.3799E+06         23.8943
            1980     6.87426E-03     113.440E-03     76.4471E-03     74.2128E-03    -250.751E-03     73.0121E-03    -248.360E-03     75.2567E-03    -41.3687E-03     57.2857E-03    -18.6118E-03    -38.6706E-03    -27.3834E-03     45.9985E-03    -18.6118E-03     61.7715E-03    -22.6073E+06    -43.5633E+06    -76.4665E+06    -72.7502E+06    -47.2796E+06    -22.6073E+06     7.43894E+06         24.6335
            1981     7.84542E-03     113.479E-03     76.7118E-03     73.9086E-03    -249.608E-03     74.8379E-03    -248.608E-03     74.7824E-03    -8.48362E-03     67.0992E-03    -20.0939E-03    -46.9936E-03    -33.2778E-03     53.3835E-03    -20.0939E-03     74.1583E-03     411.323E+03    -28.0691E+06    -58.9465E+06    -57.5559E+06    -29.4597E+06     411.323E+03    -1.96414E+06         25.5719
            1982     8.81022E-03     113.528E-03     79.5899E-03     71.5084E-03    -244.946E-03     75.5682E-03    -243.844E-03     74.4277E-03    -14.9920E-03     78.6232E-03    -21.9401E-03    -56.6701E-03    -40.8114E-03     62.7644E-03    -21.9401E-03     86.9829E-03     16.3520E+06    -17.0345E+06    -52.3245E+06    -48.0952E+06    -21.2638E+06     16.3520E+06    -10.5039E+06         26.7251
            1983     9.76735E-03     113.591E-03     85.2129E-03     72.2683E-03    -248.987E-03     82.0800E-03    -247.899E-03     74.3138E-03    -26.9399E-03     91.3520E-03    -24.1868E-03    -67.1865E-03    -50.0338E-03     74.1993E-03    -24.1868E-03     98.3859E-03     27.1699E+06    -5.08256E+06    -51.7223E+06    -41.7039E+06    -15.1009E+06     27.1699E+06    -19.0328E+06         28.1130
            1984     10.7156E-03     113.663E-03     92.3420E-03     74.7067E-03    -257.864E-03     90.9233E-03    -256.445E-03     74.7067E-03    -33.5654E-03     105.106E-03    -26.8713E-03    -78.2624E-03    -60.8494E-03     87.6932E-03    -26.8713E-03     107.354E-03     33.4776E+06     5.86709E+06    -56.7065E+06    -34.9390E+06    -15.9003E+06     33.4776E+06    -29.0143E+06         29.7459
            1985     11.6525E-03     113.747E-03     91.7672E-03     75.2026E-03    -260.148E-03     89.9198E-03    -258.300E-03     75.2026E-03    -38.3730E-03     118.902E-03    -29.9589E-03    -88.9435E-03    -72.0736E-03     102.033E-03    -29.9589E-03     113.314E-03     37.7103E+06     17.2995E+06    -56.1217E+06    -27.9057E+06    -10.9166E+06     37.7103E+06    -35.2624E+06         31.6277
            1986     12.5804E-03     113.837E-03     85.9758E-03     71.3961E-03    -254.152E-03     80.7894E-03    -252.724E-03     75.1539E-03    -24.6694E-03     132.268E-03    -33.3919E-03    -98.8670E-03    -83.3368E-03     116.738E-03    -33.3919E-03     115.441E-03     36.1512E+06     23.2479E+06    -64.6548E+06    -21.9292E+06    -19.4777E+06     36.1512E+06    -41.7280E+06         33.8322
            1987     13.4970E-03     113.929E-03     83.2117E-03     66.2608E-03    -246.936E-03     74.3756E-03    -246.405E-03     74.5653E-03    -11.8564E-03     144.095E-03    -37.0635E-03    -107.035E-03    -93.7855E-03     130.845E-03    -37.0635E-03     111.903E-03     35.9280E+06     24.1302E+06    -63.5422E+06    -17.8978E+06    -15.2247E+06     29.6385E+06    -44.3247E+06         36.5363
            1988     14.4051E-03     114.020E-03     77.4121E-03     62.5154E-03    -239.534E-03     64.9293E-03    -238.200E-03     73.6644E-03     13.5175E-03     150.233E-03    -40.9140E-03    -109.311E-03    -100.756E-03     141.677E-03    -40.9140E-03     90.7648E-03     47.2125E+06     38.7531E+06    -33.6812E+06    -14.6799E+06     26.0413E+06     40.9230E+06    -30.2888E+06         39.8349
            1989     15.3080E-03     114.080E-03     72.6491E-03     63.1800E-03    -239.536E-03     61.4750E-03    -237.729E-03     72.5477E-03     29.6633E-03     156.824E-03    -44.6829E-03    -112.121E-03    -104.685E-03     149.388E-03    -44.6829E-03     87.4052E-03     65.8969E+06     51.3995E+06    -15.2185E+06    -10.0711E+06     58.5796E+06     53.5694E+06    -18.0580E+06         43.2990
            1990     16.2086E-03     114.183E-03     85.8873E-03     69.3099E-03    -264.941E-03     82.1761E-03    -263.995E-03     72.0753E-03     23.2390E-03     159.338E-03    -48.3207E-03    -111.083E-03    -106.250E-03     154.505E-03    -48.3207E-03     55.2974E-03     101.533E+06     68.8868E+06    -5.79371E+06    -3.77547E+06      79.196E+06     89.2059E+06      -9.886E+06         46.1555
            1991     990.154E-06     114.394E-03     99.2433E-03     68.2618E-03    -257.400E-03     67.9549E-03    -239.240E-03     81.3907E-03     47.0077E-03     20.4184E-03    -9.98193E-03    -10.4352E-03    -10.1337E-03     20.1169E-03    -9.98193E-03     5.65564E-03    -99.2434E+06    -219.598E+06    -223.599E+06    -219.893E+06    -100.693E+06    -221.855E+06     9.98091E+06         21.7013
            1992     1.97943E-03     114.395E-03     83.1101E-03     51.6105E-03    -217.162E-03     59.7743E-03    -213.905E-03     71.6890E-03    -1.72128E-03     22.0853E-03    -10.2497E-03    -11.8325E-03    -10.8247E-03     21.0775E-03    -10.2497E-03     11.1645E-03    -88.6405E+06    -197.608E+06    -209.078E+06    -200.037E+06    -91.9788E+06    -203.310E+06     13.4508E+06         21.8246
            1993     2.96808E-03     114.400E-03     70.4099E-03     52.9587E-03    -201.331E-03     55.7116E-03    -200.487E-03     66.8128E-03    -6.34682E-03     25.1241E-03    -10.6820E-03    -14.4352E-03    -12.1446E-03     22.8336E-03    -10.6820E-03     18.2592E-03    -83.7943E+06    -171.170E+06    -192.475E+06    -176.335E+06    -87.5346E+06    -183.570E+06     10.8708E+06         22.0399
            1994     3.95501E-03     114.409E-03     72.2946E-03     57.8205E-03    -207.885E-03     64.0294E-03    -206.575E-03     64.7748E-03    -13.7607E-03     29.6727E-03    -11.3796E-03    -18.2889E-03    -14.1849E-03     25.5686E-03    -11.3796E-03     26.7035E-03    -81.4808E+06    -143.544E+06    -163.740E+06    -150.364E+06    -85.8831E+06    -152.517E+06     5.22461E+06         22.3774
            1995     4.93983E-03     114.425E-03     80.3099E-03     63.0242E-03    -221.405E-03     76.5476E-03    -220.249E-03     65.6307E-03    -7.50750E-03     35.6673E-03    -12.3313E-03    -23.3255E-03    -16.9488E-03     29.2907E-03    -12.3313E-03     36.5586E-03    -74.6290E+06    -109.662E+06    -128.194E+06    -121.238E+06    -79.5534E+06    -111.693E+06     134.596E+03         22.8497
            1996     5.92162E-03     114.448E-03     80.5558E-03     67.5811E-03    -227.954E-03     79.9912E-03    -227.389E-03     67.5811E-03    -3.92501E-03     43.0871E-03    -13.4939E-03    -29.5749E-03    -20.5745E-03     34.0867E-03    -13.4939E-03     47.8304E-03    -53.5760E+06    -74.2570E+06    -97.1745E+06    -91.9133E+06    -62.1789E+06    -70.9154E+06    -3.89268E+06         23.4778
            1997     6.89991E-03     114.484E-03     70.3515E-03     56.4766E-03    -206.469E-03     58.5337E-03    -205.925E-03     67.7498E-03    -8.75483E-03     52.1017E-03    -14.8912E-03    -37.2123E-03    -25.3709E-03     40.2603E-03    -14.8912E-03     60.5480E-03    -30.0072E+06    -43.8517E+06    -72.4638E+06    -68.6639E+06    -41.6151E+06    -36.0436E+06    -5.66363E+06         24.2919
            1998     7.87284E-03     114.530E-03     68.4467E-03     54.7642E-03    -201.542E-03     54.7810E-03    -199.150E-03     66.0374E-03    -26.3175E-03     62.9361E-03    -16.5887E-03    -46.3408E-03    -31.6379E-03     48.2332E-03    -16.5887E-03     74.5498E-03    -6.77998E+06    -20.0194E+06    -55.9888E+06    -53.9087E+06    -21.9859E+06    -6.89355E+06    -8.07992E+06         25.3112
            1999     8.83954E-03     114.590E-03     78.3964E-03     63.2217E-03    -220.600E-03     73.8394E-03    -218.089E-03     65.2672E-03    -31.6452E-03     75.7827E-03    -18.6563E-03    -57.1017E-03    -39.7043E-03     58.3853E-03    -18.6563E-03     89.6028E-03     16.4454E+06    -5.91750E+06    -47.3989E+06    -41.8737E+06    -11.4426E+06     16.4454E+06    -13.4771E+06         26.5484
            2000     9.79806E-03     114.665E-03     79.0557E-03     63.6484E-03    -223.346E-03     76.5139E-03    -222.850E-03     65.6939E-03    -1.56725E-03     90.2794E-03    -21.1380E-03    -69.1421E-03    -49.7922E-03     70.9296E-03    -21.1380E-03     104.023E-03     33.9258E+06     8.33821E+06    -41.7331E+06    -30.1045E+06    -3.29038E+06     33.9258E+06    -20.9437E+06         28.0142
            2001     10.7461E-03     114.754E-03     75.5404E-03     63.3315E-03    -222.028E-03     72.1711E-03    -221.268E-03     65.9409E-03    -1.02479E-03     105.532E-03    -24.0611E-03    -81.4828E-03    -61.2576E-03     85.3064E-03    -24.0611E-03     116.008E-03     44.1305E+06     17.1667E+06    -42.8051E+06    -22.4678E+06    -3.17054E+06     44.1305E+06    -28.0211E+06         29.7175
            2002     11.6838E-03     114.854E-03     77.1832E-03     60.7545E-03    -223.012E-03     70.4254E-03    -221.237E-03     65.7378E-03    -14.6708E-03     120.793E-03    -27.3911E-03    -93.4005E-03    -73.4058E-03     100.798E-03    -27.3911E-03     124.401E-03     46.4349E+06     20.4766E+06    -46.0613E+06    -20.4481E+06    -5.13660E+06     46.4349E+06    -32.2559E+06         31.6611
            2003     12.6105E-03     114.959E-03     75.6268E-03     62.9529E-03    -226.936E-03     71.7925E-03    -225.476E-03     65.3267E-03    -25.6351E-03     136.108E-03    -31.1166E-03    -104.972E-03    -86.2484E-03     117.384E-03    -31.1166E-03     128.769E-03     48.0171E+06     25.6818E+06    -52.0740E+06    -22.3552E+06    -4.03709E+06     48.0171E+06    -37.0893E+06         33.9425
            2004     13.5246E-03     115.074E-03     75.7786E-03     64.9381E-03    -231.237E-03     74.8393E-03    -230.298E-03     64.9381E-03    -29.6067E-03     150.116E-03    -35.1541E-03    -114.962E-03    -98.9805E-03     134.134E-03    -35.1541E-03     125.646E-03     37.1348E+06     21.1829E+06    -62.4717E+06    -24.8003E+06     -13.867E+06     34.5133E+06    -42.0478E+06         36.7603
            2005     14.4267E-03     115.177E-03     75.3693E-03     59.9739E-03    -224.961E-03     69.0304E-03    -223.152E-03     64.5039E-03    -7.53831E-03     157.749E-03    -39.4607E-03    -118.279E-03    -108.203E-03     147.673E-03    -39.4607E-03     101.157E-03     41.2397E+06     32.3099E+06    -47.1961E+06    -18.8074E+06     6.54272E+06     38.6182E+06    -35.7596E+06         40.1427
            2006     15.3218E-03     115.247E-03     75.9388E-03     59.4741E-03    -226.312E-03     68.4655E-03    -223.369E-03     64.0041E-03    -14.1559E-03     164.206E-03    -43.7162E-03    -120.463E-03    -112.385E-03     156.129E-03    -43.7162E-03     93.9087E-03     61.1660E+06     48.6408E+06    -20.0675E+06    -10.8392E+06     47.5030E+06     53.0754E+06    -20.7605E+06         43.6145
            2007     16.2151E-03     115.353E-03     77.2155E-03     62.0817E-03    -234.540E-03     72.5605E-03    -231.593E-03     63.7895E-03    -38.3923E-03     167.007E-03    -47.8327E-03    -119.182E-03    -114.026E-03     161.851E-03    -47.8327E-03     61.2834E-03     94.8070E+06     60.6249E+06    -10.5632E+06    -8.70617E+06     66.8584E+06     86.7165E+06    -8.61921E+06         46.4495
            2008     993.076E-06     115.410E-03     87.3596E-03     56.7551E-03    -209.084E-03     50.8958E-03    -203.224E-03     87.3596E-03     18.6552E-03     14.2140E-03    -6.89808E-03    -7.31389E-03    -7.07081E-03     13.9878E-03    -6.91501E-03     4.09411E-03    -105.295E+06    -203.786E+06    -206.951E+06    -204.884E+06    -105.936E+06    -205.212E+06    -4.00366E+06         21.3242
            2009     1.98604E-03     115.413E-03     67.1096E-03     35.9326E-03    -174.705E-03     31.7823E-03    -165.036E-03     61.5912E-03    -2.17548E-03     16.0616E-03    -7.19698E-03    -8.86293E-03    -8.03378E-03     15.2324E-03    -7.19698E-03     8.66373E-03    -90.1968E+06    -191.086E+06    -199.101E+06    -191.675E+06    -91.9206E+06    -196.788E+06    -8.41825E+06         21.4659
            2010     2.97714E-03     115.419E-03     78.6158E-03     49.1696E-03    -193.711E-03     66.1559E-03    -187.863E-03     55.7821E-03    -28.5354E-03     19.4406E-03    -7.70746E-03    -11.7284E-03    -9.69468E-03     17.4069E-03    -7.70746E-03     15.2454E-03    -77.4406E+06    -176.053E+06    -190.988E+06    -175.089E+06    -80.9395E+06    -188.453E+06    -14.1368E+06         21.6999
            2011     3.96643E-03     115.431E-03     76.4560E-03     56.4216E-03    -201.231E-03     71.4939E-03    -198.875E-03     59.0282E-03     35.9699E-03     24.3969E-03    -8.50527E-03    -15.8862E-03    -12.0361E-03     20.5468E-03    -8.50527E-03     23.6077E-03    -70.2238E+06    -160.043E+06    -172.160E+06    -156.307E+06    -77.1037E+06    -169.016E+06    -21.5012E+06         22.0565
            2012     4.95293E-03     115.451E-03     70.9415E-03     53.2876E-03    -191.984E-03     60.1704E-03    -188.447E-03     60.5223E-03     10.6617E-03     30.8007E-03    -9.55107E-03    -21.2428E-03    -15.0607E-03     24.6185E-03    -9.55107E-03     33.6364E-03    -59.9698E+06    -139.089E+06    -147.644E+06    -133.878E+06    -71.7044E+06    -141.121E+06    -28.6689E+06         22.5639
            2013     5.93658E-03     115.480E-03     75.1998E-03     56.3395E-03    -197.435E-03     68.7693E-03    -195.633E-03     60.9677E-03    -13.5368E-03     38.6435E-03    -10.8216E-03    -27.8136E-03    -18.8944E-03     29.7243E-03    -10.8216E-03     45.2876E-03    -42.2440E+06    -108.665E+06    -123.661E+06    -108.270E+06    -57.6349E+06    -108.665E+06    -31.6062E+06         23.2407
            2014     6.91620E-03     115.521E-03     69.2998E-03     49.7518E-03    -185.472E-03     56.8907E-03    -184.336E-03     61.0250E-03     16.5435E-03     48.1420E-03    -12.3825E-03    -35.7715E-03    -23.8400E-03     36.2105E-03    -12.3825E-03     58.6054E-03    -26.5734E+06    -66.5085E+06    -96.6006E+06    -80.0673E+06    -43.1067E+06    -66.5085E+06    -28.4254E+06         24.1056
            2015     7.89120E-03     115.576E-03     65.0372E-03     48.2011E-03    -176.481E-03     50.3559E-03    -173.518E-03     59.9194E-03     5.79376E-03     59.4968E-03    -14.2368E-03    -45.2738E-03    -30.1711E-03     44.3941E-03    -14.2368E-03     73.5942E-03    -9.36511E+06    -22.6514E+06    -66.1159E+06    -54.0228E+06    -22.8164E+06    -21.2932E+06    -21.0442E+06         25.1760
            2016     8.85958E-03     115.647E-03     71.1989E-03     53.3722E-03    -188.345E-03     61.9860E-03    -185.087E-03     59.3269E-03     7.67245E-03     73.1146E-03    -16.4200E-03    -56.6876E-03    -38.3758E-03     54.8028E-03    -16.4200E-03     90.3524E-03     14.8497E+06     4.71926E+06    -46.6551E+06    -37.5108E+06    -3.71232E+06     14.1369E+06    -19.4424E+06         26.4650
            2017     9.81985E-03     115.736E-03     73.7322E-03     53.9910E-03    -198.374E-03     66.8238E-03    -196.975E-03     59.5006E-03     10.3511E-03     88.3595E-03    -18.9740E-03    -69.3939E-03    -48.3816E-03     67.3472E-03    -18.9740E-03     107.152E-03     35.6741E+06     15.7099E+06    -41.7771E+06    -30.4991E+06     4.43193E+06     35.6741E+06    -22.2818E+06         27.9829
            2018     10.7702E-03     115.841E-03     62.2926E-03     54.6128E-03    -193.281E-03     57.1569E-03    -192.698E-03     59.1646E-03    -710.599E-06     104.335E-03    -21.9348E-03    -82.4257E-03    -59.8459E-03     81.7551E-03    -21.9348E-03     121.660E-03     48.3510E+06     24.6353E+06    -42.3835E+06    -26.0945E+06     8.34631E+06     48.3510E+06    -27.5140E+06         29.7364
            2019     11.7104E-03     115.956E-03     57.9302E-03     50.3120E-03    -184.075E-03     48.6691E-03    -182.432E-03     57.9302E-03    -2.74471E-03     121.215E-03    -25.3416E-03    -95.8778E-03    -73.0675E-03     98.4042E-03    -25.3416E-03     132.947E-03     55.3606E+06     24.6154E+06    -44.2811E+06    -17.9410E+06    -1.72468E+06     55.3606E+06    -30.7626E+06         31.7270
            2020     12.6365E-03     116.084E-03     57.7744E-03     51.8834E-03    -182.416E-03     51.4339E-03    -180.669E-03     56.4770E-03    -22.8566E-03     138.569E-03    -29.1915E-03    -109.362E-03    -87.5758E-03     116.783E-03    -29.1915E-03     140.110E-03     61.5517E+06     25.5460E+06    -36.0826E+06    -12.2057E+06     1.66903E+06     61.5517E+06    -27.7990E+06         34.0636
            2021     13.5502E-03     116.215E-03     57.2993E-03     48.4580E-03    -180.643E-03     49.6021E-03    -179.593E-03     55.1051E-03    -17.1263E-03     154.612E-03    -33.4577E-03    -121.147E-03    -102.150E-03     135.615E-03    -33.4577E-03     139.141E-03     55.7266E+06     29.0576E+06    -40.5397E+06    -12.4150E+06     932.853E+03     55.7266E+06    -33.0006E+06         36.9517
            2022     14.4491E-03     116.345E-03     66.1615E-03     49.0373E-03    -190.245E-03     60.3907E-03    -189.594E-03     54.1571E-03    -12.5387E-03     164.020E-03    -38.0497E-03    -125.956E-03    -113.780E-03     151.844E-03    -38.0497E-03     113.525E-03     44.2143E+06     27.0157E+06    -47.6784E+06    -15.3370E+06    -5.32581E+06     44.2143E+06    -36.3433E+06         40.3828
            2023     15.3376E-03     116.420E-03     76.3331E-03     54.0934E-03    -202.033E-03     74.4355E-03    -200.136E-03     54.0934E-03    -31.4689E-03     170.977E-03    -42.7186E-03    -128.242E-03    -119.393E-03     162.129E-03    -42.7186E-03     101.035E-03     53.9762E+06     40.4596E+06    -28.3720E+06    -14.8719E+06     27.5052E+06     53.4306E+06    -22.2167E+06         43.8535
            2024     16.2271E-03     116.534E-03     65.0371E-03     42.5637E-03    -187.833E-03     50.6586E-03    -184.796E-03     53.9050E-03    -36.9267E-03     175.282E-03    -47.3294E-03    -127.965E-03    -122.420E-03     169.737E-03    -47.3294E-03     69.7863E-03     96.3169E+06     57.4815E+06    -8.55217E+06    -6.92504E+06     56.4000E+06     95.7712E+06    -8.58083E+06         46.6781
            2025     994.205E-06     116.422E-03     77.2068E-03     15.8622E-03    -142.823E-03     29.6876E-03    -133.752E-03     54.3106E-03     37.7794E-03     12.6880E-03    -6.16714E-03    -6.52091E-03    -6.35761E-03     12.5818E-03    -6.22424E-03     2.44421E-03    -88.3804E+06    -156.257E+06    -161.643E+06    -158.320E+06    -90.9250E+06    -157.036E+06    -11.7057E+06         21.2336
            2026     1.98736E-03     116.426E-03     88.3139E-03     39.2032E-03    -175.812E-03     70.4864E-03    -166.458E-03     47.6771E-03     22.5809E-03     14.2828E-03    -6.52833E-03    -7.75381E-03    -7.29532E-03     13.8243E-03    -6.52833E-03     5.86500E-03    -72.0065E+06    -145.257E+06    -156.822E+06    -150.906E+06    -77.9230E+06    -145.257E+06    -20.4101E+06         21.3800
            2027     2.97982E-03     116.435E-03     86.4972E-03     40.0129E-03    -181.046E-03     64.5786E-03    -174.153E-03     55.0382E-03    -707.203E-06     17.1819E-03    -7.05202E-03    -10.1258E-03    -8.80072E-03     15.8567E-03    -7.05202E-03     11.3654E-03    -57.1351E+06    -134.472E+06    -151.918E+06    -141.812E+06    -67.2411E+06    -134.472E+06    -28.3283E+06         21.6190
            2028     3.97025E-03     116.449E-03     74.8227E-03     41.6938E-03    -169.237E-03     57.6542E-03    -167.094E-03     56.7192E-03     32.5062E-03     21.6235E-03    -7.76097E-03    -13.8574E-03    -10.9765E-03     18.7427E-03    -7.76097E-03     19.1366E-03    -44.9678E+06    -126.877E+06    -148.791E+06    -133.004E+06    -60.7544E+06    -126.877E+06    -36.5743E+06         21.9819
            2029     4.95832E-03     116.474E-03     60.6360E-03     51.5497E-03    -161.246E-03     51.2162E-03    -156.454E-03     56.1779E-03    -7.75428E-03     27.7278E-03    -8.68485E-03    -19.0400E-03    -13.9085E-03     22.5963E-03    -8.68485E-03     29.1008E-03    -32.9724E+06    -119.454E+06    -148.138E+06    -124.584E+06    -56.5270E+06    -119.454E+06    -45.9400E+06         22.5016
            2030     5.94287E-03     116.508E-03     56.7231E-03     44.8185E-03    -149.484E-03     41.8839E-03    -144.251E-03     54.4246E-03    -10.7295E-03     35.6875E-03    -9.86565E-03    -25.8187E-03    -17.8117E-03     27.6805E-03    -9.86565E-03     41.3377E-03    -19.8094E+06    -105.942E+06    -142.662E+06    -113.376E+06    -49.0956E+06    -105.942E+06    -52.1641E+06         23.1963
            2031     6.92339E-03     116.555E-03     71.9572E-03     48.6429E-03    -166.880E-03     61.5635E-03    -161.464E-03     53.6209E-03     11.4442E-03     45.4578E-03    -11.3620E-03    -34.1086E-03    -22.8249E-03     34.1741E-03    -11.3620E-03     55.5005E-03    -9.81793E+06    -81.1923E+06    -129.389E+06    -96.8213E+06    -42.3857E+06    -81.1923E+06    -52.9140E+06         24.0794
            2032     7.89868E-03     116.618E-03     79.0209E-03     54.4001E-03    -179.524E-03     73.2347E-03    -174.183E-03     54.8451E-03    -25.7711E-03     57.2202E-03    -13.1971E-03    -44.0463E-03    -29.2882E-03     42.4620E-03    -13.1971E-03     71.4605E-03     531.808E+03    -46.7664E+06    -102.487E+06    -72.1416E+06    -29.8134E+06    -46.7664E+06    -46.7474E+06         25.1677
            2033     8.86828E-03     116.699E-03     63.1570E-03     46.5671E-03    -161.802E-03     48.9667E-03    -156.137E-03     55.0921E-03    -21.3179E-03     71.0664E-03    -15.4051E-03    -55.6640E-03    -37.3486E-03     52.7510E-03    -15.4051E-03     89.1196E-03     14.7323E+06    -6.21860E+06    -65.2559E+06    -45.0691E+06    -7.46381E+06    -4.20926E+06    -33.8470E+06         26.4758
            2034     9.82953E-03     116.801E-03     54.9557E-03     39.1873E-03    -154.838E-03     36.3056E-03    -150.252E-03     53.2520E-03    -23.9395E-03     86.0542E-03    -17.9723E-03    -68.0850E-03    -46.7063E-03     64.6755E-03    -17.9723E-03     106.534E-03     35.8527E+06     19.5114E+06    -40.6125E+06    -25.4068E+06     5.34866E+06     34.8096E+06    -24.8499E+06         28.0148
            2035     10.7835E-03     116.919E-03     52.7558E-03     41.0954E-03    -160.712E-03     41.3807E-03    -159.293E-03     51.0521E-03    -22.1478E-03     102.231E-03    -20.8826E-03    -81.3596E-03    -57.8778E-03     78.7492E-03    -20.8826E-03     122.577E-03     59.4037E+06     30.3185E+06    -30.1045E+06    -16.3504E+06     16.5645E+06     59.4037E+06    -23.2892E+06         29.7910
            2036     11.7250E-03     117.056E-03     51.4153E-03     44.5729E-03    -162.579E-03     44.7065E-03    -160.535E-03     49.2374E-03    -32.5069E-03     119.825E-03    -24.2207E-03    -95.6080E-03    -71.3056E-03     95.5229E-03    -24.2207E-03     136.175E-03     66.3717E+06     24.2849E+06    -39.1149E+06    -17.8897E+06     3.05966E+06     66.3717E+06    -26.1818E+06         31.8070
            2037     12.6552E-03     117.202E-03     51.5299E-03     45.5201E-03    -155.046E-03     46.8438E-03    -152.580E-03     47.7399E-03    -34.0195E-03     138.489E-03    -28.0069E-03    -110.487E-03    -86.6190E-03     114.621E-03    -28.0069E-03     146.401E-03     67.8686E+06     22.5313E+06    -39.3634E+06    -16.9825E+06     150.350E+03     67.8686E+06    -26.9795E+06         34.1682
            2038     13.5688E-03     117.360E-03     50.6873E-03     39.7803E-03    -147.068E-03     43.2327E-03    -146.260E-03     46.4273E-03    -7.01633E-03     155.200E-03    -32.2617E-03    -122.935E-03    -101.524E-03     133.790E-03    -32.2617E-03     147.817E-03     73.4701E+06     37.4388E+06    -30.9460E+06    -10.7310E+06     17.2238E+06     73.4701E+06    -29.2268E+06         37.0754
            2039     14.4693E-03     117.508E-03     52.9359E-03     38.9707E-03    -153.929E-03     46.0683E-03    -153.492E-03     45.4013E-03    -7.72947E-03     166.837E-03    -36.9059E-03    -129.926E-03    -115.486E-03     152.397E-03    -36.9059E-03     125.115E-03     58.2481E+06     27.9308E+06    -45.2961E+06    -6.83809E+06    -10.5272E+06     58.2481E+06    -29.3308E+06         40.5197
            2040     15.3556E-03     117.606E-03     55.2986E-03     43.1893E-03    -157.708E-03     53.2909E-03    -157.403E-03     44.8923E-03    -4.81483E-03     177.307E-03    -41.8338E-03    -135.467E-03    -126.159E-03     167.999E-03    -41.8338E-03     106.019E-03     60.1011E+06     33.4090E+06    -31.3618E+06    -5.12641E+06     7.17360E+06     60.1011E+06    -17.6210E+06         44.0020
            2041     16.2356E-03     117.715E-03     54.4514E-03     34.4473E-03    -156.650E-03     44.1089E-03    -156.333E-03     44.4732E-03     3.58218E-03     182.806E-03    -46.8917E-03    -135.916E-03    -130.676E-03     177.567E-03    -46.8917E-03     73.8201E-03     102.878E+06     49.8774E+06    -7.17416E+06    -5.29845E+06     48.0017E+06     102.878E+06    -9.03830E+06         46.8369
            2042     992.547E-06     117.435E-03     92.8124E-03     10.2942E-03    -133.467E-03     62.8226E-03    -124.450E-03     31.2671E-03     41.5097E-03     15.7228E-03    -7.73151E-03    -7.99145E-03    -7.92732E-03     15.6988E-03    -7.77168E-03     1.01138E-03    -63.6642E+06    -99.0991E+06    -109.942E+06    -104.524E+06    -68.3035E+06    -99.8778E+06    -13.2246E+06         21.4316
            2043     1.98474E-03     117.440E-03     91.1778E-03     48.0018E-03    -179.654E-03     81.6894E-03    -176.219E-03     54.0553E-03     28.7356E-03     17.0339E-03    -8.09729E-03    -8.93682E-03    -8.79798E-03     16.8951E-03    -8.09729E-03     2.96936E-03    -46.9963E+06    -89.9694E+06    -110.876E+06    -100.566E+06    -57.3056E+06    -89.9694E+06    -22.8290E+06         21.5717
            2044     2.97566E-03     117.450E-03     69.7666E-03     27.8447E-03    -141.333E-03     37.1629E-03    -138.429E-03     57.5443E-03     10.2039E-03     19.1762E-03    -8.60390E-03    -10.5731E-03    -10.0574E-03     18.6605E-03    -8.60390E-03     6.72843E-03    -32.4462E+06    -77.8926E+06    -111.920E+06    -94.9302E+06    -49.4360E+06    -77.8926E+06    -31.8188E+06         21.8009
            2045     3.96542E-03     117.468E-03     55.3683E-03     23.5653E-03    -122.264E-03     27.6559E-03    -122.081E-03     51.0955E-03     1.93685E-03     22.3886E-03    -9.24139E-03    -13.1454E-03    -11.7599E-03     21.0031E-03    -9.24139E-03     12.7310E-03    -19.6549E+06    -67.3692E+06    -111.987E+06    -88.9367E+06    -42.7053E+06    -67.3692E+06    -39.3800E+06         22.1559
            2046     4.95318E-03     117.495E-03     57.1047E-03     44.3644E-03    -137.588E-03     51.2951E-03    -135.662E-03     48.2485E-03    -2.19190E-03     27.2246E-03    -10.0435E-03    -17.1724E-03    -14.1880E-03     24.2402E-03    -10.0435E-03     21.3990E-03    -8.68705E+06    -58.1128E+06    -114.173E+06    -84.9370E+06    -37.9234E+06    -58.1128E+06    -46.9762E+06         22.6645
            2047     5.93831E-03     117.535E-03     52.0542E-03     39.2310E-03    -120.175E-03     38.2183E-03    -114.579E-03     47.4707E-03    -1.00312E-03     34.1220E-03    -11.0521E-03    -23.0662E-03    -17.5843E-03     28.6401E-03    -11.0521E-03     33.1014E-03     522.128E+03    -51.0060E+06    -119.035E+06    -83.7713E+06    -34.7415E+06    -51.0060E+06    -54.3468E+06         23.3425
            2048     6.91926E-03     117.588E-03     57.6678E-03     36.2968E-03    -120.240E-03     40.7587E-03    -112.941E-03     45.9063E-03    -32.7741E-03     43.3855E-03    -12.3257E-03    -31.0754E-03    -22.2918E-03     34.6019E-03    -12.3257E-03     47.7232E-03     6.57530E+06    -45.3715E+06    -122.772E+06    -82.7234E+06    -33.4730E+06    -45.3715E+06    -59.4211E+06         24.2072
            2049     7.89530E-03     117.659E-03     72.9307E-03     44.7314E-03    -145.785E-03     65.8515E-03    -140.076E-03     46.1013E-03    -61.4810E-03     55.3016E-03    -13.9312E-03    -41.3726E-03    -28.6519E-03     42.5809E-03    -13.9312E-03     65.2175E-03     13.2812E+06    -36.5167E+06    -120.374E+06    -78.2632E+06    -28.8299E+06    -36.5167E+06    -61.8143E+06         25.2771
            2050     8.86366E-03     117.750E-03     64.8617E-03     44.4580E-03    -151.224E-03     57.3462E-03    -146.279E-03     47.0283E-03    -33.3109E-03     69.1674E-03    -15.9335E-03    -53.2187E-03    -36.4180E-03     52.3667E-03    -15.9335E-03     84.1927E-03     17.1419E+06    -17.6477E+06    -102.070E+06    -64.9792E+06    -19.9485E+06    -17.6477E+06    -55.1131E+06         26.5697
            2051     9.82653E-03     117.862E-03     48.4899E-03     26.9893E-03    -130.604E-03     25.6921E-03    -126.542E-03     45.7245E-03    -23.5064E-03     84.1587E-03    -18.3761E-03    -65.7796E-03    -45.5850E-03     63.9642E-03    -18.3761E-03     102.345E-03     32.2216E+06     12.9024E+06    -70.3859E+06    -42.7846E+06    -1.68548E+06     19.2081E+06    -42.1338E+06         28.0977
            2052     10.7795E-03     117.994E-03     42.7888E-03     20.3409E-03    -121.330E-03     18.9887E-03    -119.977E-03     42.7888E-03    -18.7408E-03     100.358E-03    -21.2225E-03    -79.1256E-03    -56.5416E-03     77.7739E-03    -21.2225E-03     119.002E-03     59.6598E+06     25.7278E+06    -40.4300E+06    -21.7826E+06     9.69726E+06     57.0430E+06    -28.3419E+06         29.8674
            2053     11.7245E-03     118.146E-03     42.7018E-03     34.0817E-03    -131.223E-03     35.2052E-03    -130.169E-03     40.5239E-03    -10.4398E-03     117.720E-03    -24.4641E-03    -93.2468E-03    -69.5184E-03     93.9919E-03    -24.4641E-03     133.197E-03     79.3690E+06     21.5248E+06    -22.5605E+06    -8.16644E+06     7.13079E+06     79.3690E+06    -19.0986E+06         31.8771
            2054     12.6551E-03     118.315E-03     45.0324E-03     39.2161E-03    -132.253E-03     43.8082E-03    -131.188E-03     39.3752E-03    -5.24558E-03     135.488E-03    -28.0801E-03    -107.403E-03    -83.3500E-03     111.435E-03    -28.0801E-03     145.016E-03     84.7303E+06     25.6309E+06    -23.9968E+06    -3.44529E+06     5.07938E+06     84.7303E+06    -20.1852E+06         34.2270
            2055     13.5737E-03     118.496E-03     46.1461E-03     38.6382E-03    -131.587E-03     45.8532E-03    -131.294E-03     38.6382E-03    -5.21695E-03     151.257E-03    -32.0595E-03    -119.177E-03    -96.7551E-03     128.835E-03    -32.0595E-03     148.793E-03     88.1542E+06      38.333E+06    -24.9906E+06    -7.56356E+06     20.9060E+06     88.1542E+06    -18.8791E+06         37.1054
            2056     14.4812E-03     118.664E-03     41.9001E-03     36.2767E-03    -122.489E-03     39.9720E-03    -122.156E-03     37.8716E-03    -10.5207E-03     165.978E-03    -36.5019E-03    -129.469E-03    -113.162E-03     149.671E-03    -36.5019E-03     132.986E-03     79.8448E+06     31.9516E+06    -45.2241E+06    -12.6312E+06    -641.277E+03     79.8448E+06    -24.5436E+06         40.5358
            2057     15.3668E-03     118.800E-03     37.3605E-03     34.9840E-03    -110.776E-03     35.0266E-03    -110.429E-03     36.9712E-03     2.62713E-03     181.658E-03    -41.3861E-03    -140.271E-03    -130.170E-03     171.557E-03    -41.3861E-03     111.413E-03     59.9002E+06     26.6476E+06    -43.1811E+06    -3.72537E+06    -12.8081E+06     59.9002E+06    -23.8872E+06         44.0492
            2058     16.2368E-03     118.913E-03     42.9859E-03     35.9963E-03    -120.379E-03     41.7623E-03    -119.548E-03     36.3886E-03    -5.03111E-03     186.862E-03    -46.6358E-03    -140.214E-03    -135.362E-03     182.009E-03    -46.6358E-03     73.4324E-03     96.8610E+06     47.4236E+06    -11.7585E+06     5.59922E+06     30.0659E+06     96.8610E+06    -4.34208E+06         46.9305
            2059     989.259E-06     118.453E-03     102.367E-03     34.7603E-03    -155.660E-03     67.4535E-03    -149.704E-03     63.7178E-03    -6.08083E-03     23.0847E-03    -11.4006E-03    -11.6849E-03    -11.6422E-03     23.0801E-03    -11.4388E-03    -370.803E-06    -32.8072E+06    -48.2356E+06    -63.9025E+06    -51.7024E+06    -45.0073E+06    -48.2356E+06    -11.9393E+06         21.9176
            2060     1.97764E-03     118.459E-03     60.0639E-03     30.5201E-03    -112.594E-03     28.2843E-03    -108.354E-03     58.0599E-03    -15.9319E-03     24.4404E-03    -11.8171E-03    -12.6237E-03    -12.6048E-03     24.4215E-03    -11.8171E-03    -39.9167E-06    -18.2519E+06    -39.6268E+06    -66.2130E+06    -48.4158E+06    -36.0491E+06    -39.6268E+06    -21.7473E+06         22.0516
            2061     2.96495E-03     118.472E-03     52.8726E-03     27.7619E-03    -109.011E-03     30.6478E-03    -106.624E-03     47.5997E-03     2.80823E-03     26.2759E-03    -12.3693E-03    -13.9158E-03    -13.8349E-03     26.1950E-03    -12.3693E-03     1.57941E-03    -7.20891E+06    -29.2209E+06    -69.5798E+06    -46.0304E+06    -30.7583E+06    -29.2209E+06    -29.4909E+06         22.2671
            2062     3.95095E-03     118.491E-03     48.1836E-03     29.4426E-03    -112.595E-03     29.6196E-03    -107.500E-03     42.9107E-03    -8.25681E-03     28.6475E-03    -13.0292E-03    -15.6208E-03    -15.3131E-03     28.3398E-03    -13.0292E-03     5.01474E-03     1.39828E+06    -18.8794E+06    -73.1136E+06    -44.8250E+06    -26.8902E+06    -18.8794E+06    -35.7081E+06         22.5955
            2063     4.93560E-03     118.522E-03     44.8256E-03     33.7394E-03    -109.649E-03     33.3219E-03    -104.721E-03     40.3151E-03    -1.37839E-03     31.8741E-03    -13.7852E-03    -18.0789E-03    -17.1621E-03     30.9573E-03    -13.7852E-03     10.9065E-03     9.17509E+06    -10.6951E+06    -75.6015E+06    -44.3338E+06    -22.0927E+06    -10.6951E+06    -40.5466E+06         23.0637
            2064     5.91794E-03     118.564E-03     56.1229E-03     34.9283E-03    -112.932E-03     47.2096E-03    -109.009E-03     39.9185E-03     22.7972E-03     36.5581E-03    -14.6892E-03    -21.8762E-03    -19.6846E-03     34.3666E-03    -14.6892E-03     19.7967E-03     14.6950E+06    -3.00971E+06    -79.5331E+06    -45.0331E+06    -19.8050E+06    -3.00971E+06    -45.2233E+06         23.6888
            2065     6.89810E-03     118.623E-03     51.9476E-03     33.5790E-03    -98.6005E-03     39.8332E-03    -93.1608E-03     40.2537E-03     2.77952E-03     43.5742E-03    -15.8006E-03    -27.7828E-03    -23.3769E-03     39.1683E-03    -15.8006E-03     32.3652E-03     19.4343E+06     3.43507E+06    -85.7650E+06    -47.3529E+06    -20.2441E+06     4.70146E+06    -50.0641E+06         24.4915
            2066     7.87317E-03     118.700E-03     46.5030E-03     35.2876E-03    -95.1910E-03     31.3517E-03    -84.2520E-03     39.4999E-03    -29.5491E-03     53.3833E-03    -17.1582E-03    -36.2048E-03    -28.5165E-03     45.6951E-03    -17.1582E-03     48.7640E-03     23.3572E+06     4.38355E+06    -91.1221E+06    -52.4630E+06    -19.9614E+06     9.04296E+06    -52.3611E+06         25.4973
            2067     8.84380E-03     118.800E-03     51.3486E-03     37.7756E-03    -114.377E-03     40.7737E-03    -104.601E-03     38.5750E-03    -26.7167E-03     65.7248E-03    -18.8253E-03    -46.8760E-03    -35.1926E-03     54.0414E-03    -18.8253E-03     67.7809E-03     26.4066E+06     2.85570E+06    -97.1436E+06    -59.0318E+06    -18.6954E+06     9.84577E+06    -54.5831E+06         26.7316
            2068     9.80530E-03     118.923E-03     49.2833E-03     27.6104E-03    -113.915E-03     37.6621E-03    -112.474E-03     37.7905E-03    -3.61163E-03     80.3637E-03    -20.8933E-03    -59.4744E-03    -43.7391E-03     64.6284E-03    -20.8933E-03     87.9494E-03     31.9436E+06      14.035E+06    -93.9755E+06    -59.5271E+06    -8.44298E+06     19.9732E+06    -53.2034E+06         28.2138
            2069     10.7594E-03     119.068E-03     42.0342E-03     18.0596E-03    -102.817E-03     23.5274E-03    -102.562E-03     36.3119E-03    -8.14044E-03     97.1915E-03    -23.4335E-03    -73.7480E-03    -54.6543E-03     78.0978E-03    -23.4335E-03     107.500E-03     45.9642E+06     21.9854E+06    -76.1495E+06    -47.8150E+06    -3.73219E+06     43.3473E+06    -44.0869E+06         29.9494
            2070     11.7011E-03     119.235E-03     34.2738E-03     19.0011E-03    -96.1502E-03     18.5023E-03    -95.6514E-03     34.2738E-03     4.33542E-03     114.487E-03    -26.4129E-03    -88.0347E-03    -66.6492E-03     93.1012E-03    -26.4129E-03     124.405E-03     67.4317E+06     18.9738E+06    -50.6651E+06    -28.5456E+06    -3.14577E+06     67.4317E+06    -31.5658E+06         31.9305
            2071     12.6336E-03     119.422E-03     36.6770E-03     25.2702E-03    -100.864E-03     27.9142E-03    -99.3018E-03     32.4708E-03    -7.07190E-03     130.929E-03    -29.7672E-03    -101.138E-03    -78.6400E-03     108.431E-03    -29.7672E-03     137.258E-03     88.0555E+06     21.3161E+06    -33.7908E+06    -14.7850E+06     2.31031E+06     88.0555E+06    -18.7993E+06         34.2468
            2072     13.5597E-03     119.616E-03     36.7888E-03     30.6954E-03    -102.843E-03     34.7030E-03    -101.264E-03     31.2019E-03    -10.2043E-03     146.050E-03    -33.4372E-03    -112.595E-03    -91.7747E-03     125.229E-03    -33.4372E-03     140.250E-03     101.717E+06     26.8352E+06    -21.0785E+06    -9.08137E+06     14.8381E+06     101.717E+06    -9.29077E+06         37.0705
            2073     14.4713E-03     119.814E-03     31.5238E-03     29.2432E-03    -91.5581E-03     29.9879E-03    -90.8128E-03     30.0338E-03    -397.047E-06     159.336E-03    -37.4944E-03    -121.836E-03    -105.884E-03     143.385E-03    -37.4944E-03     129.070E-03     108.287E+06     32.6241E+06    -20.5779E+06    -8.75632E+06     20.8025E+06     108.287E+06    -11.4630E+06         40.4368
            2074     15.3633E-03     119.985E-03     35.9377E-03     28.7231E-03    -87.5570E-03     34.6181E-03    -86.5216E-03     29.0072E-03    -11.5960E-03     174.815E-03    -41.8009E-03    -133.048E-03    -121.065E-03     162.833E-03    -41.8009E-03     118.110E-03     66.7737E+06     12.6349E+06    -47.8029E+06    -19.2493E+06    -15.9186E+06     66.7737E+06    -21.6196E+06         43.9658
            2075     16.2361E-03     120.125E-03     37.0206E-03     27.2695E-03    -82.5392E-03     34.2957E-03    -80.9949E-03     28.4501E-03    -19.6506E-03     185.208E-03    -46.5950E-03    -138.645E-03    -132.323E-03     178.886E-03    -46.5950E-03     80.9808E-03     79.4097E+06     25.8691E+06    -44.6706E+06    -19.6913E+06     889.711E+03     79.4097E+06    -10.8089E+06         46.9644
            2076     983.707E-06     119.481E-03     90.8295E-03     29.5040E-03    -120.966E-03     41.7770E-03    -100.871E-03     58.4615E-03     33.1568E-03     34.7539E-03    -17.1209E-03    -17.6336E-03    -17.3806E-03     34.7369E-03    -17.3570E-03    -1.72918E-03     10.8132E+06     3.68034E+06    -28.2400E+06     5.45117E+06    -22.9038E+06     3.70623E+06    -10.8047E+06         22.6624
            2077     1.96631E-03     119.489E-03     49.3888E-03     21.2090E-03    -70.0299E-03     13.7894E-03    -55.9168E-03     42.6953E-03    -11.4226E-03     36.2739E-03    -17.6582E-03    -18.6145E-03    -18.5771E-03     36.2365E-03    -17.6582E-03    -2.75907E-03     14.3976E+06     5.16712E+06    -30.2912E+06     1.29103E+06    -18.0424E+06     6.02486E+06    -17.6671E+06         22.7958
            2078     2.94770E-03     119.503E-03     46.3774E-03     29.5434E-03    -90.7076E-03     33.8376E-03    -83.7277E-03     35.1033E-03    -4.93954E-03     38.4702E-03    -18.3147E-03    -20.1617E-03    -20.1088E-03     38.4172E-03    -18.3147E-03    -3.12285E-03     18.7511E+06     10.4242E+06    -33.8024E+06    -2.01791E+06    -15.6659E+06     13.0567E+06    -22.4411E+06         23.0092
            2079     3.92729E-03     119.525E-03     40.3086E-03     33.0088E-03    -95.3518E-03     31.7137E-03    -88.1166E-03     34.3685E-03     12.0540E-03     41.0876E-03    -19.1297E-03    -21.9575E-03    -21.8970E-03     41.0272E-03    -19.1297E-03    -2.33502E-03     25.1415E+06     14.7065E+06    -37.1948E+06    -4.94252E+06    -13.4056E+06     21.0013E+06    -26.6032E+06         23.3150
            2080     4.90467E-03     119.557E-03     35.1100E-03     30.3555E-03    -81.1925E-03     25.4895E-03    -74.2636E-03     33.0472E-03    -2.11928E-03     44.0162E-03    -20.0630E-03    -23.9496E-03    -23.8354E-03     43.9020E-03    -20.0630E-03     89.8346E-06     31.9723E+06     17.6532E+06    -40.5001E+06    -8.16429E+06    -10.9193E+06     28.2089E+06    -30.1604E+06         23.7340
            2081     5.88074E-03     119.602E-03     50.9251E-03     31.3408E-03    -89.5796E-03     46.0696E-03    -86.4526E-03     33.0692E-03     10.1074E-03     47.5120E-03    -21.1166E-03    -26.4045E-03    -26.0632E-03     47.1706E-03    -21.1166E-03     4.55507E-03     37.3761E+06     20.7648E+06    -43.5323E+06    -12.0879E+06    -8.84372E+06     35.5401E+06    -32.5351E+06         24.2785
            2082     6.85350E-03     119.664E-03     61.4592E-03     33.0871E-03    -94.1644E-03     54.9397E-03    -89.6881E-03     35.1302E-03     6.26171E-03     52.0751E-03    -22.3024E-03    -29.7652E-03    -28.7806E-03     51.0906E-03    -22.3024E-03     11.8453E-03     41.8690E+06     21.2481E+06    -48.5513E+06    -17.8070E+06    -9.23429E+06     41.6071E+06    -34.2897E+06         24.9595
            2083     7.82438E-03     119.746E-03     45.1467E-03     24.2677E-03    -71.4513E-03     22.8339E-03    -60.1487E-03     35.2780E-03    -33.1776E-03     58.0156E-03    -23.6481E-03    -34.3652E-03    -32.1177E-03     55.7680E-03    -23.6481E-03     22.2246E-03     47.0349E+06     18.5564E+06    -53.8180E+06    -23.0381E+06    -12.2235E+06     47.0349E+06    -35.2021E+06         25.8229
            2084     8.79014E-03     119.851E-03     35.6612E-03     15.5539E-03    -60.4449E-03     8.44083E-03    -50.3268E-03     32.6561E-03    -43.5317E-03     65.7531E-03    -25.1780E-03    -40.5810E-03    -36.3365E-03     61.5086E-03    -25.1780E-03     35.5754E-03     53.8592E+06     20.1898E+06    -55.5826E+06    -26.4790E+06    -8.91382E+06     53.8592E+06    -36.2944E+06         26.9353
            2085     9.75328E-03     119.981E-03     43.0516E-03     22.6221E-03    -79.1632E-03     33.2545E-03    -77.5012E-03     30.7573E-03    -7.69419E-03     76.1667E-03    -26.9316E-03    -49.2288E-03    -42.3184E-03     69.2562E-03    -26.9316E-03     51.6685E-03     57.6305E+06     24.2767E+06    -59.3442E+06    -31.4952E+06    -3.57222E+06     57.6305E+06    -39.0855E+06         28.3305
            2086     10.7080E-03     120.138E-03     39.2764E-03     23.7901E-03    -87.3784E-03     31.4458E-03    -85.7448E-03     29.9871E-03    -7.44040E-03     88.6930E-03    -28.9872E-03    -59.6976E-03    -49.7687E-03     78.7641E-03    -28.9872E-03     69.9874E-03     58.0741E+06     17.8972E+06    -65.0309E+06    -39.6282E+06    -7.50544E+06     58.0741E+06    -38.0319E+06         30.0062
            2087     11.6537E-03     120.322E-03     28.2375E-03     13.3163E-03    -75.9186E-03     12.0151E-03    -74.6174E-03     28.2375E-03    -14.7475E-03     102.410E-03    -31.3297E-03    -71.0550E-03    -57.9666E-03     89.3212E-03    -31.3297E-03     89.2088E-03     61.2575E+06     9.32224E+06    -68.0779E+06    -48.1048E+06    -10.6508E+06     61.2575E+06    -33.4189E+06         31.9471
            2088     12.5923E-03     120.518E-03     28.2951E-03     15.1804E-03    -74.6350E-03     15.5655E-03    -72.6809E-03     25.9561E-03    -20.1117E-03     118.797E-03    -33.9990E-03    -84.7756E-03    -68.9902E-03     103.012E-03    -33.9990E-03     107.750E-03     73.8907E+06     9.23556E+06    -63.6226E+06    -45.1491E+06    -9.23790E+06     73.8907E+06    -27.6711E+06         34.2373
            2089     13.5142E-03     120.737E-03     26.3701E-03     20.2506E-03    -66.5532E-03     17.0457E-03    -61.0092E-03     24.0310E-03     287.287E-06     134.947E-03    -36.9896E-03    -97.9460E-03    -81.0981E-03     118.099E-03    -36.9896E-03     120.287E-03     91.8713E+06     16.6156E+06    -40.2742E+06    -27.0602E+06     3.40163E+06     91.8713E+06    -19.9014E+06         37.0292
            2090     14.4233E-03     120.951E-03     23.7882E-03     20.5358E-03    -58.9446E-03     16.4220E-03    -53.3073E-03     22.2647E-03     2.57120E-03     145.913E-03    -40.1715E-03    -105.762E-03    -89.9866E-03     130.138E-03    -40.1715E-03     121.501E-03     109.406E+06     24.9656E+06    -14.3743E+06    -7.83481E+06     18.4260E+06     109.406E+06    -8.87195E+06         40.3242
            2091     15.3383E-03     121.141E-03     28.8737E-03     19.2985E-03    -64.9691E-03     25.0164E-03    -62.7315E-03     20.9183E-03    -23.5442E-03     158.122E-03    -43.4236E-03    -114.713E-03    -100.543E-03     143.952E-03    -43.4236E-03     120.586E-03     97.7046E+06     18.8195E+06    -28.2288E+06    -3.64640E+06    -5.76286E+06     97.7046E+06     -53.136E+03         43.8644
            2092     16.2487E-03     121.312E-03     33.0539E-03     17.4185E-03    -60.9361E-03     28.0228E-03    -58.7054E-03     20.2189E-03    -1.47448E-03     174.291E-03    -47.0830E-03    -127.167E-03    -118.913E-03     166.037E-03    -47.0830E-03     90.6078E-03     96.2953E+06     40.9479E+06    -41.9316E+06     1.27627E+06    -2.25997E+06     96.2953E+06    -4.77486E+06         47.0497
            2093     975.891E-06     120.523E-03     96.5197E-03     12.4875E-03    -91.1525E-03     71.9406E-03    -31.8977E-03    -22.1881E-03     83.6435E-03     50.1649E-03    -24.7474E-03    -25.4158E-03    -25.1908E-03     50.1377E-03    -24.9452E-03    -2.75670E-03     52.3704E+06     47.2258E+06    -7.99181E+06     47.8790E+06    -6.69946E+06     50.4249E+06    -6.90258E+06         23.4316
            2094     1.95142E-03     120.532E-03     55.3369E-03     27.9137E-03    -67.4672E-03     40.7675E-03    -52.8977E-03     27.9137E-03     2.44568E-03     51.8638E-03    -25.4017E-03    -26.4466E-03    -26.3836E-03     51.8008E-03    -25.4017E-03    -4.35314E-03     51.5702E+06     43.8059E+06    -7.78900E+06     42.9844E+06    -5.02198E+06     49.6247E+06    -9.28276E+06         23.5676
            2095     2.92466E-03     120.550E-03     37.7016E-03     22.0345E-03    -56.5168E-03     20.9032E-03    -47.3084E-03     29.6244E-03    -10.9789E-03     54.8959E-03    -26.2039E-03    -28.6840E-03    -28.5737E-03     54.7856E-03    -26.2039E-03    -6.04030E-03     52.8111E+06     42.1746E+06    -10.9022E+06     37.4120E+06    -6.13971E+06     52.8111E+06    -12.1213E+06         23.7882
            2096     3.89539E-03     120.574E-03     28.2413E-03     19.2711E-03    -57.7271E-03     17.3945E-03    -54.4703E-03     26.8611E-03     21.8678E-03     58.7736E-03    -27.3158E-03    -31.4660E-03    -31.3110E-03     58.6186E-03    -27.3158E-03    -7.41973E-03     59.4270E+06     38.7986E+06    -11.6145E+06     31.8780E+06    -4.69393E+06     59.4270E+06    -14.1560E+06         24.0931
            2097     4.86345E-03     120.610E-03     30.5353E-03     25.3912E-03    -58.0751E-03     25.2715E-03    -52.8114E-03     25.3912E-03     5.85126E-03     63.3076E-03    -28.6770E-03    -34.6183E-03    -34.4223E-03     63.1117E-03    -28.6770E-03    -8.48266E-03     67.1632E+06     35.3330E+06    -12.4427E+06     25.9168E+06    -3.02653E+06     67.1632E+06    -15.6329E+06         24.4863
            2098     5.82718E-03     120.657E-03     34.1488E-03     25.3668E-03    -48.6947E-03     30.2388E-03    -44.7847E-03     25.3668E-03    -21.1846E-03     68.1814E-03    -30.2506E-03    -37.9081E-03    -37.6659E-03     67.9392E-03    -30.2506E-03    -8.99774E-03     73.3390E+06     31.3698E+06    -14.4671E+06     20.0395E+06    -3.13681E+06     73.3390E+06    -15.9301E+06         24.9634
            2099     6.78824E-03     120.722E-03     48.1904E-03     26.5151E-03    -61.2631E-03     45.5622E-03    -58.6349E-03     26.5151E-03    -19.8947E-03     73.0433E-03    -31.9959E-03    -41.0528E-03    -40.7337E-03     72.7242E-03    -31.9959E-03    -8.66606E-03     80.1296E+06     27.1940E+06    -15.2877E+06     14.8956E+06    -2.98930E+06     80.1296E+06    -15.9859E+06         25.5162
            2100     7.74429E-03     120.807E-03     55.6630E-03     20.0526E-03    -65.3161E-03     45.6196E-03    -63.4404E-03     28.2203E-03    -17.2241E-03     77.6806E-03    -33.8495E-03    -43.8575E-03    -43.3600E-03     77.1831E-03    -33.8495E-03    -7.26749E-03     87.2693E+06     23.2258E+06    -19.4791E+06     10.2139E+06    -6.46723E+06     87.2693E+06    -16.7923E+06         26.1955
            2101     8.69871E-03     120.915E-03     43.0209E-03     11.9260E-03    -49.5579E-03     19.1203E-03    -41.9601E-03     28.2288E-03    -25.3194E-03     82.4223E-03    -35.7675E-03    -46.6761E-03    -45.8138E-03     81.5600E-03    -35.7675E-03    -4.80226E-03     92.4709E+06     21.7591E+06    -19.6682E+06     5.04819E+06    -2.95731E+06     92.4709E+06    -17.9227E+06         27.1306
            2102     9.64760E-03     121.047E-03     33.6305E-03     13.7819E-03    -51.0230E-03     1.68948E-03    -31.3570E-03     26.0569E-03    -22.0934E-03     86.7567E-03    -37.7451E-03    -49.0308E-03    -47.6141E-03     85.3400E-03    -37.7451E-03    -373.135E-06     95.1956E+06     19.7320E+06    -19.3219E+06    -1.23153E+06     1.64170E+06     95.1956E+06    -15.8852E+06         28.4118
            2103     10.5923E-03     121.210E-03     26.8106E-03     16.7119E-03    -60.8249E-03     5.19952E-03    -45.7319E-03     23.2300E-03    -16.2657E-03     89.8879E-03    -39.6777E-03    -50.2292E-03    -47.9073E-03     87.5660E-03    -39.6777E-03     6.97532E-03     94.0856E+06     12.5044E+06    -24.0170E+06    -8.20939E+06    -3.30326E+06     94.0856E+06    -13.6929E+06         30.0135
            2104     11.5404E-03     121.391E-03     21.5968E-03     16.8573E-03    -62.3200E-03     14.8566E-03    -59.6408E-03     20.9183E-03    -26.5762E-03     94.5815E-03    -41.1959E-03    -53.3826E-03    -49.3407E-03     90.8711E-03    -41.5274E-03     17.1364E-03     93.5288E+06     10.4514E+06    -28.6719E+06    -10.7949E+06    -7.42563E+06     93.5288E+06    -12.7306E+06         31.9058
            2105     12.4831E-03     121.604E-03     19.5963E-03     14.6058E-03    -47.1894E-03     11.6396E-03    -43.5582E-03     18.9314E-03    -19.6373E-03     100.882E-03    -39.9529E-03    -60.9250E-03    -51.9805E-03     95.3580E-03    -43.3729E-03     30.7494E-03     93.6893E+06     14.6553E+06    -31.0633E+06    -10.2093E+06    -6.19875E+06     93.6893E+06    -16.0968E+06         34.1797
            2106     13.4222E-03     121.836E-03     20.5861E-03     13.0028E-03    -31.0712E-03     9.48881E-03    -23.8392E-03     16.8681E-03    -3.18086E-03     104.341E-03    -35.6381E-03    -68.7375E-03    -51.8508E-03     96.8445E-03    -45.0280E-03     47.3299E-03     91.9959E+06     14.3734E+06    -27.5238E+06    -11.5251E+06    -1.62524E+06     91.9959E+06    -15.9280E+06         36.9722
            2107     14.3675E-03     122.065E-03     22.7569E-03     14.0017E-03    -29.1481E-03     15.9970E-03    -23.6108E-03     15.2242E-03     1.35219E-03     109.928E-03    -36.5266E-03    -73.4767E-03    -55.1394E-03     101.497E-03    -46.4323E-03     61.2458E-03     95.4770E+06     16.2505E+06    -21.6603E+06    -12.8936E+06     7.48370E+06     95.4770E+06    -9.87908E+06         40.2849
            2108     15.2985E-03     122.269E-03     18.8111E-03     12.3090E-03    -30.6244E-03     10.0196E-03    -23.4527E-03     13.9288E-03    -13.6341E-03     125.527E-03    -44.4329E-03    -81.1048E-03    -69.6976E-03     117.724E-03    -48.0371E-03     68.4945E-03     94.7119E+06     20.1017E+06    -37.0620E+06    -401.774E+03    -16.5585E+06     94.7119E+06      101.08E+03         43.8959
            2109     16.2098E-03     122.468E-03     20.1837E-03     10.7865E-03    -34.9362E-03     9.28575E-03    -25.9648E-03     12.7130E-03     9.72183E-03     130.633E-03    -42.6507E-03    -88.0109E-03    -76.3563E-03     126.061E-03    -49.7336E-03     53.5560E-03     91.8261E+06     51.5223E+06    -39.0956E+06     16.5324E+06    -4.10561E+06     91.8261E+06     44.8372E+03         47.2443


